LAMMPS (24 Dec 2020)
OMP_NUM_THREADS environment is not set. Defaulting to 1 thread. (src/comm.cpp:94)
  using 1 OpenMP thread(s) per MPI task
# Simple rigid body system
# needed variables: startTemp, temp

units		lj
atom_style	full
dimension 	3
boundary	p p f
pair_style	lj/cut/opt 2.5

variable 	gcmcdisplace	equal 0
variable 	sigma		equal 1.0
variable 	epsilon 	equal 1.0


read_restart	restart.dat.3000000
Reading restart file ...
  restart file = 24 Dec 2020, LAMMPS = 24 Dec 2020
WARNING: Restart file used different # of processors: 48 vs. 192 (src/read_restart.cpp:697)
  restoring atom style full from restart
  orthogonal box = (0.0000000 0.0000000 0.0000000) to (80.000000 80.000000 160.00000)
  6 by 4 by 8 MPI processor grid
  restoring pair style lj/cut/opt from restart
  439061 atoms
Finding 1-2 1-3 1-4 neighbors ...
  special bond factors lj:    0        0        0       
  special bond factors coul:  0        0        0       
     0 = max # of 1-2 neighbors
     0 = max # of 1-3 neighbors
     0 = max # of 1-4 neighbors
     1 = max # of special neighbors
  special bonds CPU = 1.404 seconds
  read_restart CPU = 1.691 seconds

mass		1 1.0
mass		2 1.0
mass		3 1.0


group		solvent type 1
439061 atoms in group solvent


neighbor 	0.4 bin

pair_coeff	1 1 1.0 1.0
pair_coeff	2 2 0.0 0.0
pair_coeff	3 3 0.0 0.0
pair_coeff	2 3 0.0 0.0
pair_coeff	1 2*3 0.0 0.0

pair_modify 	shift yes


balance 	1.05 shift z 10 1.05
Balancing ...
Neighbor list info ...
  update every 1 steps, delay 10 steps, check yes
  max neighbors/atom: 2000, page size: 100000
  master list distance cutoff = 2.9
  ghost atom cutoff = 2.9
  binsize = 1.45, bins = 56 56 111
  1 neighbor lists, perpetual/occasional/extra = 1 0 0
  (1) pair lj/cut/opt, perpetual
      attributes: half, newton on
      pair build: half/bin/newton
      stencil: half/bin/3d/newton
      bin: standard
 rebalancing time: 0.021 seconds
  iteration count = 5
  initial/final maximal load/proc = 3162.0000 2575.0000
  initial/final imbalance factor  = 1.3827327 1.1260394
  x cuts: 0.0000000 0.16666667 0.33333333 0.50000000 0.66666667 0.83333333 1.0000000
  y cuts: 0.0000000 0.25000000 0.50000000 0.75000000 1.0000000
  z cuts: 0.0000000 0.097656250 0.18359375 0.27734375 0.37890625 0.47656250 0.57031250 0.67968750 1.0000000


####################### WALLS ###########################


variable       epsilonWall equal 2*${epsilon}
variable       epsilonWall equal 2*1

variable       cutoffTop   equal   0.7147*${sigma}
variable       cutoffTop   equal   0.7147*1

variable       cutoffLow   equal   3*${sigma}
variable       cutoffLow   equal   3*1


fix            topWall all wall/lj93 zhi EDGE                ${epsilonWall} ${sigma} ${cutoffTop} units box
fix            topWall all wall/lj93 zhi EDGE                2 ${sigma} ${cutoffTop} units box
fix            topWall all wall/lj93 zhi EDGE                2 1 ${cutoffTop} units box
fix            topWall all wall/lj93 zhi EDGE                2 1 0.7147 units box

fix            lowWall all wall/lj93 zlo EDGE                ${epsilonWall} ${sigma} ${cutoffLow} units box
fix            lowWall all wall/lj93 zlo EDGE                2 ${sigma} ${cutoffLow} units box
fix            lowWall all wall/lj93 zlo EDGE                2 1 ${cutoffLow} units box
fix            lowWall all wall/lj93 zlo EDGE                2 1 3 units box


###################### COMPUTES ##########################

compute        bin1 solvent chunk/atom bin/1d z upper 1.0



######################	FIXES ############################


fix 		peclet solvent ave/chunk 1000 1 1000 bin1 density/number norm 		 none ave one file density.profile

fix 		 temp solvent ave/chunk 1000 1 1000 bin1 temp norm none ave one file temp.profile

fix 		2 solvent nve

## Thermostat


region		regthermo block EDGE EDGE EDGE EDGE 0 20

group 		thermo dynamic solvent region regthermo every 1000
dynamic group thermo defined

fix 		3 thermo langevin ${startTemp} ${temp} 10 156453
fix 		3 thermo langevin 1.0 ${temp} 10 156453
fix 		3 thermo langevin 1.0 1.0 10 156453


## Evaporation

region		regevap block EDGE EDGE EDGE EDGE 140 158
#fix 		gcmc solvent gcmc 100 100 0 1 780493 ${temp} ${mu} ${gcmcdisplace} region regevap
fix 		evap solvent evaporate ${evap} 1 regevap 4379103
fix 		evap solvent evaporate 75 1 regevap 4379103

#### Load balancing

fix 		bal all balance 1000 1.05 shift z 10 1.05

############### Diagnostics and computes ###################
#compute 	com cube	  rigid/local	1 mol x y z
#compute 	quat cube	  rigid/local	1 mol quatw quati quatj quatk

thermo 		1000
thermo_style 	custom step temp epair etotal press pe ke atoms

dump		1 all custom 100000 dump.lammpstrj id mol type x y z
dump 		2 all image 10000 image.*.png type type
dump 		3 all movie 1000 movie.avi type type
#dump 		com cube local 1000 dump.*.xyz c_com[*]
#dump		quat cube      local 1000 dump.*.quat c_quat[*]


restart 	1000000 restart.dat
timestep 	0.005
timer 		full
New timer settings: style=full  mode=nosync  timeout=off


run		5000000
Per MPI rank memory allocation (min/avg/max) = 9.923 | 9.986 | 10.01 Mbytes
Step Temp E_pair TotEng Press PotEng KinEng Atoms 
 3000000     1.016004   -3.1352716   -1.6112691  0.079025997   -3.1352716    1.5240025   439061 
 3001000    1.0152643   -3.1352249   -1.6122869  0.075184699   -3.1352249     1.522938   439048 
 3002000    1.0152107   -3.1351698    -1.612267  0.077367969   -3.1351698    1.5229028   439035 
 3003000     1.014013   -3.1342992   -1.6131447  0.077390419   -3.1342992    1.5211546   439021 
 3004000    1.0138721   -3.1354326   -1.6144444  0.072128592   -3.1354326    1.5209883   439008 
 3005000    1.0139873   -3.1351102   -1.6139041  0.070743425   -3.1351102    1.5212062   438995 
 3006000    1.0130599   -3.1343065   -1.6144432  0.072906238   -3.1343065    1.5198633   438981 
 3007000    1.0127873   -3.1335849   -1.6140855  0.070710869   -3.1335849    1.5194993   438968 
 3008000    1.0142415   -3.1360713   -1.6143451  0.076592742   -3.1360713    1.5217262   438955 
 3009000    1.0136108   -3.1358616   -1.6150332  0.069410197   -3.1358616    1.5208284   438941 
 3010000    1.0138652   -3.1360786   -1.6148235  0.072334259   -3.1360786    1.5212551   438928 
 3011000    1.0145959   -3.1369508   -1.6145541  0.075007481   -3.1369508    1.5223966   438915 
 3012000    1.0147111   -3.1364338   -1.6138158   0.07875447   -3.1364338     1.522618   438901 
 3013000    1.0145767   -3.1357312   -1.6132697  0.074025678   -3.1357312    1.5224615   438888 
 3014000    1.0153705    -3.136521   -1.6128232  0.077509079    -3.136521    1.5236977   438875 
 3015000    1.0153551   -3.1366297   -1.6129065  0.076003565   -3.1366297    1.5237232   438861 
 3016000    1.0153804   -3.1366593   -1.6128529  0.076089244   -3.1366593    1.5238064   438848 
 3017000    1.0146213   -3.1372227   -1.6145104  0.082626306   -3.1372227    1.5227123   438835 
 3018000    1.0158654   -3.1388762   -1.6142482  0.080247044   -3.1388762     1.524628   438821 
 3019000     1.015214    -3.138019   -1.6143235  0.078369564    -3.138019    1.5236956   438808 
 3020000    1.0164376   -3.1392442   -1.6136671  0.082604108   -3.1392442    1.5255771   438795 
 3021000    1.0169522   -3.1395422   -1.6131439  0.076805891   -3.1395422    1.5263983   438781 
 3022000    1.0158102   -3.1389945   -1.6142653   0.07814637   -3.1389945    1.5247293   438768 
 3023000    1.0142791   -3.1374681   -1.6149919  0.078529996   -3.1374681    1.5224762   438755 
 3024000    1.0143121   -3.1368773    -1.614303  0.077450825   -3.1368773    1.5225744   438741 
 3025000    1.0148788   -3.1374265   -1.6139563  0.072676582   -3.1374265    1.5234703   438728 
 3026000    1.0144471   -3.1378104   -1.6149431  0.071132579   -3.1378104    1.5228673   438715 
 3027000    1.0140142   -3.1368602   -1.6145942  0.079368522   -3.1368602    1.5222659   438701 
 3028000    1.0150444   -3.1381662   -1.6143085  0.074091607   -3.1381662    1.5238577   438688 
 3029000    1.0142687   -3.1388346   -1.6160963  0.075753639   -3.1388346    1.5227383   438675 
 3030000    1.0158859   -3.1397654   -1.6145505  0.078666378   -3.1397654    1.5252149   438661 
 3031000     1.013325   -3.1367536   -1.6153385  0.077809821   -3.1367536    1.5214151   438648 
 3032000    1.0151844    -3.139227   -1.6149749  0.078237294    -3.139227    1.5242521   438635 
 3033000    1.0154792   -3.1387042   -1.6139609  0.073297626   -3.1387042    1.5247433   438621 
 3034000     1.014141    -3.135614   -1.6128348   0.08015544    -3.135614    1.5227792   438608 
 3035000    1.0148551   -3.1370494   -1.6131527  0.072275915   -3.1370494    1.5238966   438595 
 3036000    1.0159106   -3.1396286   -1.6140984  0.074751029   -3.1396286    1.5255302   438581 
 3037000    1.0138408   -3.1355618   -1.6130946  0.072926391   -3.1355618    1.5224672   438568 
 3038000    1.0150726   -3.1381052    -1.613743  0.069589591   -3.1381052    1.5243622   438555 
 3039000    1.0132312   -3.1370745    -1.615429  0.075557389   -3.1370745    1.5216455   438541 
 3040000    1.0123762   -3.1372346    -1.616828  0.074744557   -3.1372346    1.5204066   438528 
 3041000    1.0144249   -3.1390746   -1.6155461  0.068958523   -3.1390746    1.5235286   438515 
 3042000    1.0148324   -3.1388656   -1.6146765  0.071413384   -3.1388656    1.5241891   438501 
 3043000    1.0135015   -3.1376752   -1.6154398  0.076277643   -3.1376752    1.5222354   438488 
 3044000    1.0138552    -3.137945   -1.6151332  0.074679838    -3.137945    1.5228118   438475 
 3045000    1.0148014   -3.1384312   -1.6141495   0.07399893   -3.1384312    1.5242817   438461 
 3046000    1.0145077   -3.1375671   -1.6136814  0.074978019   -3.1375671    1.5238857   438448 
 3047000    1.0130957   -3.1374494   -1.6156396  0.077197642   -3.1374494    1.5218098   438435 
 3048000    1.0134786   -3.1386817   -1.6162481  0.076286529   -3.1386817    1.5224336   438421 
 3049000    1.0145913   -3.1399619   -1.6158116  0.073696473   -3.1399619    1.5241503   438408 
 3050000    1.0147059   -3.1390622   -1.6146946  0.077381947   -3.1390622    1.5243677   438395 
 3051000    1.0138694   -3.1395329   -1.6163733  0.070049132   -3.1395329    1.5231596   438381 
 3052000    1.0144546   -3.1405112   -1.6164272  0.077417478   -3.1405112    1.5240841   438368 
 3053000    1.0131852   -3.1401017   -1.6178796  0.075974678   -3.1401017    1.5222221   438355 
 3054000    1.0135451   -3.1410244    -1.618213  0.075721828   -3.1410244    1.5228114   438341 
 3055000    1.0135526   -3.1398741   -1.6170064  0.079258214   -3.1398741    1.5228678   438328 
 3056000    1.0141183   -3.1390754   -1.6153124   0.07916095   -3.1390754     1.523763   438315 
 3057000    1.0144198   -3.1403616   -1.6160968  0.076760624   -3.1403616    1.5242648   438301 
 3058000     1.015255   -3.1419955   -1.6164305  0.073863545   -3.1419955     1.525565   438288 
 3059000    1.0145381   -3.1391546   -1.6146217  0.080604253   -3.1391546    1.5245329   438275 
 3060000     1.015845   -3.1416573   -1.6151118  0.080505596   -3.1416573    1.5265455   438261 
 3061000    1.0145969   -3.1402807   -1.6155656   0.08296138   -3.1402807    1.5247151   438248 
 3062000    1.0155588   -3.1401282   -1.6139221  0.081854743   -3.1401282     1.526206   438235 
 3063000    1.0150911   -3.1408805   -1.6153287   0.07593893   -3.1408805    1.5255518   438221 
 3064000    1.0135516   -3.1392818   -1.6159985  0.078892208   -3.1392818    1.5232833   438208 
 3065000    1.0149433   -3.1409444   -1.6155242  0.073413008   -3.1409444    1.5254202   438195 
 3066000    1.0146842   -3.1409821   -1.6159026  0.071198711   -3.1409821    1.5250795   438181 
 3067000    1.0126918    -3.138389   -1.6162589  0.075035536    -3.138389    1.5221301   438168 
 3068000    1.0117266   -3.1382046   -1.6174802  0.077472981   -3.1382046    1.5207244   438155 
 3069000    1.0119273   -3.1376585   -1.6165838  0.075050835   -3.1376585    1.5210747   438141 
 3070000    1.0127864   -3.1393429   -1.6169317  0.068032475   -3.1393429    1.5224112   438128 
 3071000    1.0119974   -3.1383495   -1.6170792  0.068913623   -3.1383495    1.5212703   438115 
 3072000    1.0111926   -3.1360883   -1.6159791  0.075961916   -3.1360883    1.5201092   438101 
 3073000    1.0113537   -3.1379704    -1.617574  0.074173752   -3.1379704    1.5203964   438088 
 3074000    1.0121896   -3.1373409   -1.6156427  0.071993272   -3.1373409    1.5216982   438075 
 3075000    1.0120534   -3.1375555   -1.6160134   0.07116165   -3.1375555    1.5215421   438061 
 3076000    1.0131765   -3.1396212   -1.6163454  0.070183441   -3.1396212    1.5232758   438048 
 3077000    1.0122161   -3.1384648   -1.6165878  0.070918507   -3.1384648     1.521877   438035 
 3078000    1.0111613   -3.1379649   -1.6176251  0.068442244   -3.1379649    1.5203398   438021 
 3079000    1.0125558   -3.1395706   -1.6170891  0.076171812   -3.1395706    1.5224815   438008 
 3080000    1.0146296   -3.1422388   -1.6165938  0.075210058   -3.1422388     1.525645   437995 
 3081000    1.0136176   -3.1396835   -1.6155114  0.077775511   -3.1396835     1.524172   437981 
 3082000    1.0147191   -3.1416752   -1.6158015  0.077880055   -3.1416752    1.5258737   437968 
 3083000    1.0145806   -3.1426399   -1.6169292  0.072800279   -3.1426399    1.5257107   437955 
 3084000    1.0147062    -3.142737   -1.6167886  0.075087939    -3.142737    1.5259484   437941 
 3085000    1.0147994   -3.1446234   -1.6184896   0.06951653   -3.1446234    1.5261338   437928 
 3086000    1.0125359   -3.1410798   -1.6183047  0.071495542   -3.1410798    1.5227751   437915 
 3087000    1.0133939   -3.1423492   -1.6182351  0.075868297   -3.1423492    1.5241141   437901 
 3088000    1.0144191   -3.1440705   -1.6183693  0.075623357   -3.1440705    1.5257012   437888 
 3089000    1.0123962   -3.1418414   -1.6191374  0.084543049   -3.1418414     1.522704   437875 
 3090000    1.0135498   -3.1440397   -1.6195519   0.07090724   -3.1440397    1.5244878   437861 
 3091000    1.0121178   -3.1443739   -1.6219948  0.074040464   -3.1443739    1.5223791   437848 
 3092000    1.0109185   -3.1421867   -1.6215664  0.076627423   -3.1421867    1.5206203   437835 
 3093000    1.0123485   -3.1435144   -1.6206944  0.076125668   -3.1435144      1.52282   437821 
 3094000    1.0145717   -3.1449856   -1.6187761  0.078998291   -3.1449856    1.5262096   437808 
 3095000    1.0133919    -3.144527   -1.6200469  0.080328821    -3.144527    1.5244801   437795 
 3096000     1.012066   -3.1427224   -1.6201881  0.079448996   -3.1427224    1.5225343   437781 
 3097000    1.0132739   -3.1450359   -1.6206393  0.077890354   -3.1450359    1.5243966   437768 
 3098000    1.0125225   -3.1452066   -1.6218951  0.072987398   -3.1452066    1.5233115   437755 
 3099000    1.0136324   -3.1476338   -1.6226038  0.072850423   -3.1476338      1.52503   437741 
 3100000    1.0120799   -3.1453224    -1.622583  0.074535174   -3.1453224    1.5227394   437728 
 3101000    1.0113474   -3.1441861   -1.6225034  0.071255774   -3.1441861    1.5216826   437715 
 3102000    1.0120818   -3.1444081   -1.6215718   0.07359897   -3.1444081    1.5228363   437701 
 3103000    1.0120963   -3.1444755   -1.6215721  0.070369748   -3.1444755    1.5229034   437688 
 3104000    1.0108923   -3.1425284   -1.6213915  0.075562917   -3.1425284    1.5211369   437675 
 3105000     1.011502   -3.1426305   -1.6205275  0.074924903   -3.1426305     1.522103   437661 
 3106000    1.0094601   -3.1414097   -1.6223342  0.072482517   -3.1414097    1.5190755   437648 
 3107000    1.0094809   -3.1420579   -1.6229059  0.071386206   -3.1420579    1.5191519   437635 
 3108000    1.0094851     -3.14142   -1.6222132  0.076194135     -3.14142    1.5192068   437621 
 3109000    1.0094937   -3.1415838   -1.6223189  0.071963374   -3.1415838    1.5192649   437608 
 3110000      1.01028     -3.14183   -1.6213365  0.075643224     -3.14183    1.5204934   437595 
 3111000    1.0107446   -3.1417253   -1.6204841  0.071155199   -3.1417253    1.5212412   437581 
 3112000    1.0103109   -3.1414977   -1.6208639  0.075350712   -3.1414977    1.5206338   437568 
 3113000    1.0100176   -3.1414989   -1.6212615  0.076908623   -3.1414989    1.5202374   437555 
 3114000    1.0098095   -3.1404397   -1.6204669  0.073612379   -3.1404397    1.5199728   437541 
 3115000    1.0118659   -3.1420636   -1.6189501  0.082449111   -3.1420636    1.5231135   437528 
 3116000    1.0107137   -3.1411036   -1.6196794  0.074296715   -3.1411036    1.5214242   437515 
 3117000    1.0114499   -3.1431557   -1.6205745  0.070967895   -3.1431557    1.5225812   437501 
 3118000    1.0111872   -3.1428286   -1.6205976  0.069337835   -3.1428286     1.522231   437488 
 3119000    1.0091552   -3.1408097   -1.6215926   0.07429662   -3.1408097    1.5192171   437475 
 3120000    1.0097609   -3.1420905   -1.6219128  0.070539416   -3.1420905    1.5201776   437461 
 3121000    1.0095175   -3.1427259   -1.6228696  0.072171398   -3.1427259    1.5198564   437448 
 3122000    1.0094493   -3.1426207   -1.6228219   0.06908198   -3.1426207    1.5197988   437435 
 3123000    1.0104089   -3.1443623     -1.62307  0.072575416   -3.1443623    1.5212923   437421 
 3124000    1.0087073   -3.1425322   -1.6237568  0.077968603   -3.1425322    1.5187754   437408 
 3125000    1.0098226   -3.1430197   -1.6225197  0.074417255   -3.1430197       1.5205   437395 
 3126000    1.0090154    -3.143621   -1.6242878  0.074874531    -3.143621    1.5193331   437381 
 3127000    1.0099641   -3.1443753   -1.6235684  0.073504357   -3.1443753    1.5208068   437368 
 3128000    1.0091577   -3.1449655   -1.6253277  0.073548723   -3.1449655    1.5196378   437355 
 3129000      1.00915   -3.1446144   -1.6249396  0.074416675   -3.1446144    1.5196749   437341 
 3130000    1.0105694     -3.14625   -1.6243925    0.0706425     -3.14625    1.5218575   437328 
 3131000    1.0115388   -3.1483721   -1.6250095  0.068501895   -3.1483721    1.5233626   437315 
 3132000     1.010313   -3.1467343    -1.625169   0.07266309   -3.1467343    1.5215653   437301 
 3133000    1.0095745   -3.1465789   -1.6260806  0.072372554   -3.1465789    1.5204983   437288 
 3134000    1.0092936    -3.145637   -1.6255166  0.073855947    -3.145637    1.5201204   437275 
 3135000    1.0097785   -3.1468219   -1.6259223   0.07193044   -3.1468219    1.5208995   437261 
 3136000    1.0097498   -3.1471336   -1.6262321  0.077703955   -3.1471336    1.5209014   437248 
 3137000    1.0109278   -3.1501549   -1.6274339  0.070276237   -3.1501549     1.522721   437235 
 3138000    1.0102868   -3.1492093   -1.6274051  0.073806908   -3.1492093    1.5218042   437221 
 3139000    1.0121311   -3.1506113   -1.6259837  0.073089713   -3.1506113    1.5246276   437208 
 3140000     1.011152   -3.1500864   -1.6268883  0.078053652   -3.1500864    1.5231981   437195 
 3141000    1.0108417   -3.1495958   -1.6268163  0.080764037   -3.1495958    1.5227795   437181 
 3142000    1.0114974   -3.1502278   -1.6264153  0.071931392   -3.1502278    1.5238125   437168 
 3143000    1.0110396   -3.1493331    -1.626165  0.082242899   -3.1493331    1.5231681   437155 
 3144000    1.0104134    -3.149605   -1.6273315  0.078528585    -3.149605    1.5222734   437141 
 3145000    1.0106983    -3.150564    -1.627816  0.070648863    -3.150564     1.522748   437128 
 3146000    1.0111609   -3.1521708   -1.6286805  0.073347898   -3.1521708    1.5234903   437115 
 3147000    1.0090509   -3.1499202   -1.6295603  0.077820006   -3.1499202    1.5203599   437101 
 3148000    1.0073095   -3.1487925   -1.6310113  0.075585568   -3.1487925    1.5177812   437088 
 3149000    1.0101018   -3.1514198   -1.6293859  0.074857532   -3.1514198    1.5220339   437075 
 3150000    1.0087424   -3.1493444   -1.6293102   0.07474438   -3.1493444    1.5200342   437061 
 3151000    1.0102661   -3.1515027   -1.6291272  0.075302654   -3.1515027    1.5223754   437048 
 3152000    1.0096255   -3.1503997   -1.6289443  0.074802964   -3.1503997    1.5214554   437035 
 3153000    1.0082841   -3.1487167   -1.6292341  0.073945961   -3.1487167    1.5194826   437021 
 3154000    1.0098849   -3.1494494   -1.6275091  0.073966969   -3.1494494    1.5219403   437008 
 3155000    1.0077805   -3.1477442   -1.6289301  0.077000055   -3.1477442    1.5188141   436995 
 3156000    1.0078433   -3.1470723   -1.6281148  0.072374929   -3.1470723    1.5189574   436981 
 3157000    1.0092962   -3.1490727   -1.6278803  0.071698673   -3.1490727    1.5211924   436968 
 3158000    1.0097971    -3.148931   -1.6269384  0.076754513    -3.148931    1.5219925   436955 
 3159000     1.009464   -3.1485371   -1.6269979  0.073219431   -3.1485371    1.5215392   436941 
 3160000    1.0068502   -3.1450857    -1.627441  0.072269392   -3.1450857    1.5176447   436928 
 3161000     1.008705   -3.1491024   -1.6286167  0.073010035   -3.1491024    1.5204857   436915 
 3162000    1.0063801   -3.1463671   -1.6293373  0.073388672   -3.1463671    1.5170299   436901 
 3163000    1.0083606   -3.1489141   -1.6288536  0.072134033   -3.1489141    1.5200605   436888 
 3164000    1.0089455   -3.1490581   -1.6280707  0.073577718   -3.1490581    1.5209874   436875 
 3165000    1.0092792   -3.1481364    -1.626597  0.071508985   -3.1481364    1.5215393   436861 
 3166000     1.007748   -3.1458898   -1.6266136  0.075651845   -3.1458898    1.5192762   436848 
 3167000     1.010303   -3.1489449   -1.6257715  0.074702957   -3.1489449    1.5231734   436835 
 3168000    1.0102962   -3.1489073   -1.6256954  0.072558825   -3.1489073     1.523212   436821 
 3169000     1.009267   -3.1479194   -1.6262139  0.075242304   -3.1479194    1.5217055   436808 
 3170000     1.010719   -3.1504959   -1.6265557  0.076185596   -3.1504959    1.5239402   436795 
 3171000    1.0107953   -3.1505009   -1.6263969  0.069484316   -3.1505009     1.524104   436781 
 3172000    1.0092444   -3.1493157   -1.6275049  0.074871827   -3.1493157    1.5218108   436768 
 3173000     1.010734   -3.1517375   -1.6276353  0.071456784   -3.1517375    1.5241022   436755 
 3174000    1.0090104   -3.1485078   -1.6269557   0.07503177   -3.1485078    1.5215521   436741 
 3175000    1.0085771   -3.1490789   -1.6281349  0.074359915   -3.1490789     1.520944   436728 
 3176000     1.008531   -3.1498603   -1.6289406  0.070572909   -3.1498603    1.5209197   436715 
 3177000    1.0080158   -3.1483641   -1.6281726  0.073748732   -3.1483641    1.5201915   436701 
 3178000    1.0084423   -3.1497698   -1.6288899  0.070929226   -3.1497698    1.5208799   436688 
 3179000    1.0066759   -3.1488434   -1.6305823  0.076621821   -3.1488434    1.5182611   436675 
 3180000    1.0078203   -3.1498201   -1.6297842  0.072265374   -3.1498201    1.5200359   436661 
 3181000    1.0090621   -3.1521389   -1.6301848  0.069464617   -3.1521389    1.5219541   436648 
 3182000    1.0081834   -3.1500918   -1.6294178  0.072713474   -3.1500918     1.520674   436635 
 3183000    1.0093991     -3.15156   -1.6290036  0.074673429     -3.15156    1.5225565   436621 
 3184000     1.007935   -3.1506757   -1.6302823  0.076411586   -3.1506757    1.5203934   436608 
 3185000    1.0087973   -3.1521135   -1.6303742  0.072883226   -3.1521135    1.5217394   436595 
 3186000     1.008291    -3.151675   -1.6306505   0.07614549    -3.151675    1.5210245   436581 
 3187000    1.0085533   -3.1508219   -1.6293564  0.075863076   -3.1508219    1.5214655   436568 
 3188000     1.008306    -3.151857   -1.6307193  0.072424934    -3.151857    1.5211377   436555 
 3189000    1.0076764   -3.1505241   -1.6302875  0.073445154   -3.1505241    1.5202366   436541 
 3190000    1.0058353   -3.1498831   -1.6323788  0.072778707   -3.1498831    1.5175043   436528 
 3191000    1.0064865   -3.1503153   -1.6317833   0.07598261   -3.1503153     1.518532   436515 
 3192000     1.005782   -3.1514312   -1.6339135  0.068614091   -3.1514312    1.5175177   436501 
 3193000    1.0070586    -3.153367    -1.633878  0.063259601    -3.153367     1.519489   436488 
 3194000    1.0070209   -3.1531711   -1.6336937  0.069655527   -3.1531711    1.5194774   436475 
 3195000     1.007811   -3.1547725   -1.6340541  0.067974532   -3.1547725    1.5207184   436461 
 3196000    1.0057533    -3.151253   -1.6335943   0.07324491    -3.151253    1.5176587   436448 
 3197000    1.0071412   -3.1519514   -1.6321531  0.075111532   -3.1519514    1.5197982   436435 
 3198000    1.0067403   -3.1521284   -1.6328864  0.073437719   -3.1521284    1.5192419   436421 
 3199000    1.0072372   -3.1538672   -1.6338301  0.071878866   -3.1538672    1.5200371   436408 
 3200000    1.0067298   -3.1517074   -1.6323908  0.077187383   -3.1517074    1.5193166   436395 
 3201000    1.0078065   -3.1541969   -1.6332066  0.072761686   -3.1541969    1.5209903   436381 
 3202000    1.0063264   -3.1513552   -1.6325534  0.075251764   -3.1513552    1.5188018   436368 
 3203000     1.006902    -3.152176   -1.6324602   0.07195851    -3.152176    1.5197158   436355 
 3204000    1.0079798   -3.1537559   -1.6323646  0.071882771   -3.1537559    1.5213913   436341 
 3205000    1.0074675   -3.1542569   -1.6335934   0.07365446   -3.1542569    1.5206634   436328 
 3206000     1.007875   -3.1543708   -1.6330471  0.072265673   -3.1543708    1.5213238   436315 
 3207000    1.0068523   -3.1528682   -1.6330393  0.074605302   -3.1528682    1.5198289   436301 
 3208000    1.0068937   -3.1531335   -1.6331968  0.070422657   -3.1531335    1.5199367   436288 
 3209000    1.0078055   -3.1559319   -1.6345736  0.068481774   -3.1559319    1.5213583   436275 
 3210000    1.0065078   -3.1529505   -1.6335024  0.075376276   -3.1529505    1.5194481   436261 
 3211000    1.0061231   -3.1537224   -1.6348098   0.07639373   -3.1537224    1.5189126   436248 
 3212000     1.004861   -3.1521671   -1.6351145  0.070894543   -3.1521671    1.5170525   436235 
 3213000    1.0068473   -3.1545766   -1.6344765  0.072763393   -3.1545766    1.5201001   436221 
 3214000    1.0065122   -3.1531537   -1.6335144  0.071904065   -3.1531537    1.5196394   436208 
 3215000    1.0066005   -3.1534277   -1.6336097    0.0708209   -3.1534277     1.519818   436195 
 3216000    1.0052385   -3.1515371   -1.6337267  0.070787531   -3.1515371    1.5178104   436181 
 3217000    1.0056655    -3.151396   -1.6328957  0.072216308    -3.151396    1.5185003   436168 
 3218000    1.0058042   -3.1518284   -1.6330735  0.074431196   -3.1518284     1.518755   436155 
 3219000    1.0065838   -3.1523261   -1.6323452  0.074068597   -3.1523261    1.5199809   436141 
 3220000     1.005403   -3.1518661   -1.6336229  0.073154863   -3.1518661    1.5182431   436128 
 3221000    1.0054524   -3.1510959   -1.6327329  0.073952426   -3.1510959    1.5183631   436115 
 3222000    1.0056713   -3.1513049   -1.6325626  0.073723824   -3.1513049    1.5187423   436101 
 3223000    1.0069584   -3.1539166   -1.6331852  0.072694836   -3.1539166    1.5207314   436088 
 3224000    1.0055678   -3.1518332   -1.6331566  0.071710159   -3.1518332    1.5186767   436075 
 3225000    1.0058503   -3.1533502   -1.6341982  0.072929468   -3.1533502     1.519152   436061 
 3226000    1.0062061    -3.153829   -1.6340942  0.070228157    -3.153829    1.5197348   436048 
 3227000    1.0071066   -3.1561445   -1.6350043  0.071593735   -3.1561445    1.5211402   436035 
 3228000    1.0061617   -3.1534361   -1.6336743  0.072566466   -3.1534361    1.5197618   436021 
 3229000    1.0068294   -3.1542414   -1.6334258  0.068347143   -3.1542414    1.5208156   436008 
 3230000    1.0058111   -3.1527395   -1.6334168  0.076103008   -3.1527395    1.5193228   435995 
 3231000    1.0062403   -3.1529301   -1.6329102  0.070850875   -3.1529301    1.5200198   435981 
 3232000    1.0066774    -3.153491   -1.6327655  0.069237592    -3.153491    1.5207256   435968 
 3233000    1.0060791   -3.1529457   -1.6330787  0.069912611   -3.1529457     1.519867   435955 
 3234000    1.0044284   -3.1509058   -1.6334837   0.07061406   -3.1509058    1.5174221   435941 
 3235000    1.0063801   -3.1542818    -1.633866  0.075405136   -3.1542818    1.5204159   435928 
 3236000    1.0070644   -3.1556072   -1.6341121  0.073698011   -3.1556072    1.5214951   435915 
 3237000     1.007634   -3.1565028   -1.6340982  0.070810627   -3.1565028    1.5224046   435901 
 3238000    1.0065943   -3.1546029   -1.6337238   0.07048018   -3.1546029    1.5208791   435888 
 3239000    1.0061147   -3.1558354   -1.6356356  0.068107621   -3.1558354    1.5201997   435875 
 3240000    1.0047716    -3.153364   -1.6351448  0.068701783    -3.153364    1.5182191   435861 
 3241000    1.0041127    -3.152413   -1.6351441  0.072502853    -3.152413    1.5172689   435848 
 3242000    1.0037419   -3.1526391   -1.6358853  0.072215133   -3.1526391    1.5167537   435835 
 3243000     1.005267   -3.1538325   -1.6347253  0.073238978   -3.1538325    1.5191072   435821 
 3244000    1.0050675   -3.1544821   -1.6356311  0.066517593   -3.1544821     1.518851   435808 
 3245000    1.0044657   -3.1528956   -1.6349088  0.074449454   -3.1528956    1.5179868   435795 
 3246000    1.0041641   -3.1531753   -1.6355955  0.073926667   -3.1531753    1.5175798   435781 
 3247000    1.0049869   -3.1540363   -1.6351678  0.069564263   -3.1540363    1.5188686   435768 
 3248000     1.004826   -3.1558389   -1.6371682  0.071767412   -3.1558389    1.5186707   435755 
 3249000    1.0045742   -3.1543817   -1.6360427  0.073308419   -3.1543817     1.518339   435741 
 3250000    1.0061435    -3.156746   -1.6359898  0.069049709    -3.156746    1.5207561   435728 
 3251000    1.0044901   -3.1539447   -1.6356423  0.069893741   -3.1539447    1.5183024   435715 
 3252000    1.0054382   -3.1558395   -1.6360551  0.069153972   -3.1558395    1.5197844   435701 
 3253000    1.0048223   -3.1555694   -1.6366707  0.071557699   -3.1555694    1.5188987   435688 
 3254000    1.0047102   -3.1551779   -1.6364034  0.076088778   -3.1551779    1.5187745   435675 
 3255000    1.0048428   -3.1554023   -1.6363785  0.071750839   -3.1554023    1.5190238   435661 
 3256000    1.0055547   -3.1552616   -1.6351162  0.077096852   -3.1552616    1.5201453   435648 
 3257000    1.0065415   -3.1572624   -1.6355799   0.07124907   -3.1572624    1.5216825   435635 
 3258000    1.0057367   -3.1569721   -1.6364573  0.076518895   -3.1569721    1.5205148   435621 
 3259000    1.0046119   -3.1546052   -1.6357456  0.076172994   -3.1546052    1.5188596   435608 
 3260000    1.0044991   -3.1547198   -1.6359855  0.076867996   -3.1547198    1.5187343   435595 
 3261000    1.0044269   -3.1560277   -1.6373537  0.072953796   -3.1560277     1.518674   435581 
 3262000    1.0043541   -3.1562002    -1.637591  0.071279725   -3.1562002    1.5186092   435568 
 3263000    1.0043173   -3.1576486   -1.6390497  0.074181347   -3.1576486    1.5185989   435555 
 3264000    1.0051345   -3.1584042   -1.6385209  0.074292265   -3.1584042    1.5198833   435541 
 3265000    1.0051487   -3.1577471   -1.6377969  0.075297334   -3.1577471    1.5199502   435528 
 3266000    1.0033545   -3.1567502   -1.6394679  0.073908733   -3.1567502    1.5172823   435515 
 3267000    1.0040812   -3.1582705   -1.6398404  0.073608145   -3.1582705    1.5184301   435501 
 3268000    1.0041997   -3.1578566   -1.6392019  0.072178847   -3.1578566    1.5186547   435488 
 3269000    1.0046574   -3.1593514   -1.6399592  0.074229876   -3.1593514    1.5193922   435475 
 3270000    1.0048846   -3.1583832   -1.6385986  0.073763524   -3.1583832    1.5197846   435461 
 3271000    1.0031915   -3.1583003    -1.641031  0.065080332   -3.1583003    1.5172694   435448 
 3272000    1.0032261    -3.158189    -1.640822  0.072344548    -3.158189    1.5173669   435435 
 3273000     1.004047   -3.1579525   -1.6392952  0.069783474   -3.1579525    1.5186573   435421 
 3274000    1.0041244   -3.1583378   -1.6395181  0.071581873   -3.1583378    1.5188197   435408 
 3275000    1.0038633   -3.1589795   -1.6405093  0.069813882   -3.1589795    1.5184702   435395 
 3276000    1.0028025   -3.1569497   -1.6400354  0.075442041   -3.1569497    1.5169144   435381 
 3277000     1.004456   -3.1603559    -1.640895  0.072680975   -3.1603559    1.5194609   435368 
 3278000    1.0058934   -3.1599764   -1.6382956  0.075318212   -3.1599764    1.5216808   435355 
 3279000    1.0034931    -3.157473   -1.6393744  0.073631596    -3.157473    1.5180985   435341 
 3280000    1.0039165   -3.1590612   -1.6402769  0.075219207   -3.1590612    1.5187844   435328 
 3281000    1.0044663   -3.1597939   -1.6401324  0.070868526   -3.1597939    1.5196615   435315 
 3282000     1.003742   -3.1566917   -1.6380771  0.075710995   -3.1566917    1.5186146   435301 
 3283000    1.0055683   -3.1591509   -1.6377277  0.073839918   -3.1591509    1.5214231   435288 
 3284000    1.0034592   -3.1570701   -1.6387927  0.077663329   -3.1570701    1.5182774   435275 
 3285000    1.0039096   -3.1588217   -1.6398141  0.074713716   -3.1588217    1.5190077   435261 
 3286000    1.0032472   -3.1571957   -1.6391449  0.076588705   -3.1571957    1.5180508   435248 
 3287000    1.0042611   -3.1584828   -1.6388524  0.077131444   -3.1584828    1.5196303   435235 
 3288000    1.0037497   -3.1588513   -1.6399459  0.068825357   -3.1588513    1.5189054   435221 
 3289000    1.0025263   -3.1574444    -1.640345  0.071083182   -3.1574444    1.5170994   435208 
 3290000    1.0044957   -3.1592869   -1.6391619  0.074525197   -3.1592869     1.520125   435195 
 3291000    1.0016556   -3.1557014   -1.6398256  0.071602302   -3.1557014    1.5158759   435181 
 3292000    1.0021132   -3.1576622   -1.6410486  0.071491503   -3.1576622    1.5166136   435168 
 3293000    1.0030218   -3.1578991   -1.6398649  0.071196673   -3.1578991    1.5180342   435155 
 3294000     1.002214   -3.1553536   -1.6384932  0.069002292   -3.1553536    1.5168604   435141 
 3295000    1.0017396   -3.1560051   -1.6398175  0.071571832   -3.1560051    1.5161876   435128 
 3296000    1.0020922   -3.1562068   -1.6394401  0.073701408   -3.1562068    1.5167667   435115 
 3297000    1.0024189   -3.1565252   -1.6392152  0.065888786   -3.1565252    1.5173099   435101 
 3298000     1.003026   -3.1579989   -1.6397247  0.070938907   -3.1579989    1.5182742   435088 
 3299000    1.0028134   -3.1573752   -1.6393775  0.074440295   -3.1573752    1.5179978   435075 
 3300000    1.0028924   -3.1578563   -1.6396902  0.069992125   -3.1578563    1.5181662   435061 
 3301000     1.003529   -3.1591846   -1.6400093  0.065984123   -3.1591846    1.5191753   435048 
 3302000    1.0029224   -3.1569765   -1.6386741  0.066211613   -3.1569765    1.5183023   435035 
 3303000    1.0026272   -3.1568152   -1.6389109  0.064391249   -3.1568152    1.5179043   435021 
 3304000    1.0025222   -3.1556152   -1.6378246  0.071455127   -3.1556152    1.5177906   435008 
 3305000    1.0016572   -3.1545079   -1.6379815  0.071247683   -3.1545079    1.5165264   434995 
 3306000     1.003945   -3.1575528   -1.6375138  0.071796211   -3.1575528    1.5200391   434981 
 3307000    1.0043776    -3.158804   -1.6380645  0.069973453    -3.158804    1.5207396   434968 
 3308000    1.0035947   -3.1577428   -1.6381433  0.070028825   -3.1577428    1.5195995   434955 
 3309000    1.0048011   -3.1587316   -1.6372564  0.071890635   -3.1587316    1.5214752   434941 
 3310000    1.0034869   -3.1575409   -1.6380103  0.070399468   -3.1575409    1.5195307   434928 
 3311000    1.0044167   -3.1575641     -1.63658  0.071632836   -3.1575641    1.5209842   434915 
 3312000    1.0033642   -3.1583266   -1.6388874  0.070401215   -3.1583266    1.5194393   434901 
 3313000    1.0018339   -3.1553285   -1.6381613  0.071504871   -3.1553285    1.5171672   434888 
 3314000    1.0006937   -3.1561349   -1.6406491  0.066382412   -3.1561349    1.5154858   434875 
 3315000    1.0004779   -3.1557269   -1.6405192  0.072425806   -3.1557269    1.5152077   434861 
 3316000    1.0001405   -3.1562172   -1.6414752  0.066659893   -3.1562172     1.514742   434848 
 3317000    1.0013903   -3.1578756   -1.6411955  0.069830304   -3.1578756    1.5166801   434835 
 3318000    1.0033182    -3.160444   -1.6407949  0.071765191    -3.160444    1.5196491   434821 
 3319000     1.001293   -3.1575607   -1.6409337  0.069682052   -3.1575607     1.516627   434808 
 3320000    1.0014867     -3.15865   -1.6416842  0.072592221     -3.15865    1.5169658   434795 
 3321000     1.002212    -3.158661   -1.6405478  0.075748097    -3.158661    1.5181133   434781 
 3322000    1.0037398   -3.1607661   -1.6402931  0.075280797   -3.1607661     1.520473   434768 
 3323000    1.0018241   -3.1586754    -1.641059  0.068830527   -3.1586754    1.5176165   434755 
 3324000     1.001895    -3.158782   -1.6410093  0.073683918    -3.158782    1.5177727   434741 
 3325000    1.0028914   -3.1597192   -1.6403917  0.072817965   -3.1597192    1.5193275   434728 
 3326000    1.0017346   -3.1597142   -1.6420937  0.070774368   -3.1597142    1.5176205   434715 
 3327000    1.0017919   -3.1597682   -1.6420121  0.073152347   -3.1597682    1.5177561   434701 
 3328000    1.0008154   -3.1595665   -1.6432444  0.068542278   -3.1595665    1.5163221   434688 
 3329000    1.0003546   -3.1571476   -1.6414783  0.072949599   -3.1571476    1.5156693   434675 
 3330000    1.0010812   -3.1576545   -1.6408355  0.071671044   -3.1576545     1.516819   434661 
 3331000    1.0012375   -3.1588224   -1.6417211  0.072839793   -3.1588224    1.5171013   434648 
 3332000    1.0009371   -3.1572984    -1.640607  0.071717956   -3.1572984    1.5166914   434635 
 3333000     1.001262   -3.1595237   -1.6422911  0.073557877   -3.1595237    1.5172325   434621 
 3334000    1.0004976   -3.1590846    -1.642965   0.06478834   -3.1590846    1.5161196   434608 
 3335000   0.99893111   -3.1579984   -1.6442073  0.069202088   -3.1579984    1.5137911   434595 
 3336000    1.0001459   -3.1591028    -1.643422  0.072747979   -3.1591028    1.5156808   434581 
 3337000    1.0016912   -3.1607076   -1.6426395  0.071572132   -3.1607076    1.5180681   434568 
 3338000    1.0004206   -3.1597936   -1.6436057  0.068468906   -3.1597936    1.5161879   434555 
 3339000   0.99927118   -3.1587235   -1.6442289  0.068436627   -3.1587235    1.5144946   434541 
 3340000   0.99965825   -3.1592831   -1.6441565  0.066718244   -3.1592831    1.5151266   434528 
 3341000    1.0009715   -3.1612527   -1.6440902  0.071084326   -3.1612527    1.5171624   434515 
 3342000   0.99923079   -3.1601348    -1.645562   0.07274918   -3.1601348    1.5145728   434501 
 3343000     1.000667   -3.1618856   -1.6450904  0.071413836   -3.1618856    1.5167952   434488 
 3344000    1.0002788   -3.1619627   -1.6457107  0.072109186   -3.1619627     1.516252   434475 
 3345000    1.0018029    -3.163494   -1.6448828  0.069742647    -3.163494    1.5186112   434461 
 3346000    1.0018226   -3.1651253   -1.6464388  0.069949568   -3.1651253    1.5186866   434448 
 3347000    1.0017085   -3.1635078   -1.6449488  0.072074617   -3.1635078    1.5185591   434435 
 3348000    1.0021292   -3.1647476   -1.6455018  0.074252043   -3.1647476    1.5192458   434421 
 3349000    1.0012243   -3.1641176   -1.6461983  0.072090567   -3.1641176    1.5179194   434408 
 3350000    1.0017066   -3.1665754   -1.6478794   0.06810082   -3.1665754     1.518696   434395 
 3351000    1.0015464   -3.1671688   -1.6486667  0.069530719   -3.1671688    1.5185021   434381 
 3352000    1.0014409   -3.1644409   -1.6460534  0.072995441   -3.1644409    1.5183875   434368 
 3353000    1.0010375    -3.164272   -1.6464507  0.075407025    -3.164272    1.5178213   434355 
 3354000    1.0021636   -3.1663839   -1.6468062  0.070952068   -3.1663839    1.5195777   434341 
 3355000    1.0005398   -3.1647431   -1.6475821  0.075936132   -3.1647431     1.517161   434328 
 3356000    1.0003993   -3.1650042   -1.6480109  0.075002848   -3.1650042    1.5169933   434315 
 3357000    1.0009659   -3.1653728   -1.6474713  0.075440411   -3.1653728    1.5179015   434301 
 3358000    1.0009592   -3.1660055   -1.6480687  0.073628788   -3.1660055    1.5179368   434288 
 3359000    1.0020703   -3.1672943   -1.6476271  0.073664563   -3.1672943    1.5196672   434275 
 3360000    1.0021854   -3.1668615   -1.6469708  0.072005691   -3.1668615    1.5198907   434261 
 3361000    1.0012695   -3.1654859   -1.6469387  0.079102996   -3.1654859    1.5185472   434248 
 3362000    1.0013437   -3.1662016   -1.6474964  0.079041028   -3.1662016    1.5187052   434235 
 3363000   0.99977076   -3.1649268   -1.6485584  0.076097046   -3.1649268    1.5163684   434221 
 3364000     1.001361   -3.1674182   -1.6485924  0.071040213   -3.1674182    1.5188259   434208 
 3365000   0.99970305   -3.1636089   -1.6472524  0.075352617   -3.1636089    1.5163565   434195 
 3366000   0.99997098   -3.1645207   -1.6477089   0.07200906   -3.1645207    1.5168119   434181 
 3367000    1.0005222   -3.1662717   -1.6485783  0.075704936   -3.1662717    1.5176935   434168 
 3368000     1.000426   -3.1653323   -1.6477395  0.070635138   -3.1653323    1.5175929   434155 
 3369000   0.99970846   -3.1653105   -1.6487571   0.07106223   -3.1653105    1.5165534   434141 
 3370000   0.99966484   -3.1640283   -1.6474957  0.071139196   -3.1640283    1.5165326   434128 
 3371000    0.9978586   -3.1630409   -1.6492031  0.068546585   -3.1630409    1.5138378   434115 
 3372000   0.99985549   -3.1641925   -1.6472763  0.068373234   -3.1641925    1.5169162   434101 
 3373000   0.99934662   -3.1635642   -1.6473747   0.06703828   -3.1635642    1.5161896   434088 
 3374000   0.99930917   -3.1621413   -1.6459631  0.071890787   -3.1621413    1.5161781   434075 
 3375000   0.99797731   -3.1621904   -1.6479841  0.073075889   -3.1621904    1.5142063   434061 
 3376000    1.0002186   -3.1653021   -1.6476497  0.072928896   -3.1653021    1.5176524   434048 
 3377000   0.99883689   -3.1628666   -1.6472654  0.067613725   -3.1628666    1.5156012   434035 
 3378000   0.99802908   -3.1613486   -1.6469243  0.071722366   -3.1613486    1.5144244   434021 
 3379000   0.99968817   -3.1641201   -1.6471328  0.067585719   -3.1641201    1.5169873   434008 
 3380000   0.99939505    -3.162892   -1.6463041  0.072825847    -3.162892    1.5165879   433995 
 3381000   0.99822237   -3.1628148   -1.6479575  0.069955448   -3.1628148    1.5148573   433981 
 3382000   0.99788135   -3.1618336   -1.6474484  0.073221427   -3.1618336    1.5143851   433968 
 3383000   0.99995856   -3.1639981   -1.6464151  0.070975607   -3.1639981    1.5175829   433955 
 3384000    1.0002477   -3.1648439   -1.6467732  0.069243046   -3.1648439    1.5180708   433941 
 3385000   0.99861245   -3.1642996   -1.6486653  0.073219973   -3.1642996    1.5156343   433928 
 3386000   0.99943478   -3.1653086   -1.6483807  0.069475337   -3.1653086    1.5169279   433915 
 3387000   0.99904515   -3.1633495   -1.6469641  0.072340442   -3.1633495    1.5163854   433901 
 3388000    1.0018411   -3.1673117    -1.646637  0.071609715   -3.1673117    1.5206747   433888 
 3389000    1.0011582   -3.1668825   -1.6471987   0.07113635   -3.1668825    1.5196838   433875 
 3390000    1.0011104   -3.1673318   -1.6476715  0.071077908   -3.1673318    1.5196602   433861 
 3391000    1.0010573   -3.1667326   -1.6471076  0.071115064   -3.1667326    1.5196251   433848 
 3392000   0.99983807   -3.1648948    -1.647075  0.077224727   -3.1648948    1.5178198   433835 
 3393000     1.000075    -3.165618   -1.6473896  0.073785449    -3.165618    1.5182284   433821 
 3394000    1.0003943   -3.1661219   -1.6473633  0.073193501   -3.1661219    1.5187587   433808 
 3395000    1.0004338   -3.1663385   -1.6474743  0.068505284   -3.1663385    1.5188642   433795 
 3396000    1.0002175    -3.166805   -1.6482201  0.071981966    -3.166805    1.5185848   433781 
 3397000   0.99901048   -3.1670615   -1.6502638  0.070144449   -3.1670615    1.5167977   433768 
 3398000   0.99900219   -3.1666151   -1.6497845   0.07153617   -3.1666151    1.5168306   433755 
 3399000   0.99880619   -3.1668832   -1.6503013  0.070500629   -3.1668832    1.5165819   433741 
 3400000   0.99887511   -3.1676747   -1.6509426  0.071250322   -3.1676747    1.5167321   433728 
 3401000   0.99698984   -3.1655285   -1.6516137  0.077312954   -3.1655285    1.5139148   433715 
 3402000   0.99769764   -3.1662695   -1.6512311   0.06945393   -3.1662695    1.5150385   433701 
 3403000    0.9973375   -3.1653488   -1.6508118  0.067338934   -3.1653488     1.514537   433688 
 3404000   0.99880653   -3.1675318   -1.6507185  0.071820614   -3.1675318    1.5168133   433675 
 3405000   0.99770747   -3.1667881   -1.6515949  0.069812526   -3.1667881    1.5151931   433661 
 3406000   0.99861744   -3.1670291   -1.6504085  0.063690637   -3.1670291    1.5166205   433648 
 3407000   0.99831269   -3.1667606   -1.6505575  0.067958836   -3.1667606    1.5162032   433635 
 3408000   0.99843074   -3.1663053   -1.6498739  0.068065556   -3.1663053    1.5164314   433621 
 3409000    1.0007312   -3.1683521   -1.6483811   0.07094993   -3.1683521     1.519971   433608 
 3410000   0.99984215   -3.1675581    -1.648892  0.065378601   -3.1675581    1.5186661   433595 
 3411000   0.99955298   -3.1671616   -1.6488856   0.07620148   -3.1671616    1.5182759   433581 
 3412000    0.9983773   -3.1659772   -1.6494416   0.07491875   -3.1659772    1.5165356   433568 
 3413000   0.99938456   -3.1668174   -1.6487063  0.072465155   -3.1668174    1.5181111   433555 
 3414000   0.99967232   -3.1687607   -1.6501633  0.074524321   -3.1687607    1.5185973   433541 
 3415000    1.0006884    -3.170227   -1.6500406  0.071476861    -3.170227    1.5201865   433528 
 3416000    1.0002235   -3.1686734   -1.6491477  0.073357203   -3.1686734    1.5195256   433515 
 3417000     1.000634   -3.1686629   -1.6484645  0.072602828   -3.1686629    1.5201984   433501 
 3418000   0.99872221   -3.1647491   -1.6474096  0.073262607   -3.1647491    1.5173395   433488 
 3419000   0.99926432   -3.1679659   -1.6497573  0.074878529   -3.1679659    1.5182086   433475 
 3420000   0.99888934    -3.167491   -1.6498031  0.074043552    -3.167491    1.5176879   433461 
 3421000   0.99986588   -3.1691195   -1.6499023  0.069515546   -3.1691195    1.5192172   433448 
 3422000   0.99805121   -3.1673872   -1.6508817  0.072717656   -3.1673872    1.5165055   433435 
 3423000   0.99841113   -3.1689857   -1.6518844  0.066671253   -3.1689857    1.5171014   433421 
 3424000   0.99873895   -3.1687912   -1.6511462  0.066143836   -3.1687912     1.517645   433408 
 3425000   0.99822592   -3.1688312   -1.6519203  0.070513865   -3.1688312    1.5169109   433395 
 3426000   0.99851319   -3.1697523   -1.6523558  0.065768362   -3.1697523    1.5173965   433381 
 3427000   0.99727562   -3.1676073    -1.652046  0.069987091   -3.1676073    1.5155612   433368 
 3428000   0.99762599   -3.1664991   -1.6503599  0.072176609   -3.1664991    1.5161392   433355 
 3429000    0.9975259   -3.1674844   -1.6514484   0.06612593   -3.1674844    1.5160361   433341 
 3430000   0.99820387   -3.1679183   -1.6508063  0.067450255   -3.1679183     1.517112   433328 
 3431000   0.99711254   -3.1674852   -1.6519865  0.067046532   -3.1674852    1.5154988   433315 
 3432000   0.99832199   -3.1684896   -1.6511036  0.065235746   -3.1684896     1.517386   433301 
 3433000   0.99704582   -3.1662411   -1.6507493  0.070582988   -3.1662411    1.5154918   433288 
 3434000   0.99753731   -3.1663003   -1.6500159  0.074102409   -3.1663003    1.5162843   433275 
 3435000     0.998022   -3.1667791    -1.649709  0.068149807   -3.1667791    1.5170701   433261 
 3436000   0.99606819   -3.1652968   -1.6511512  0.068061587   -3.1652968    1.5141456   433248 
 3437000   0.99528259   -3.1655508    -1.652554  0.072518897   -3.1655508    1.5129968   433235 
 3438000    0.9968025   -3.1688053    -1.653449  0.070834588   -3.1688053    1.5153563   433221 
 3439000   0.99752976   -3.1688814    -1.652374  0.068308607   -3.1688814    1.5165074   433208 
 3440000   0.99733274   -3.1687887   -1.6525353   0.06972954   -3.1687887    1.5162533   433195 
 3441000   0.99609967     -3.16785   -1.6534224   0.06896865     -3.16785    1.5144276   433181 
 3442000   0.99629524   -3.1667037   -1.6519332  0.074567385   -3.1667037    1.5147704   433168 
 3443000   0.99685932   -3.1684988   -1.6528253  0.072681462   -3.1684988    1.5156736   433155 
 3444000   0.99751424   -3.1694249   -1.6527065  0.069765628   -3.1694249    1.5167184   433141 
 3445000   0.99709939   -3.1700906   -1.6539576  0.067718461   -3.1700906    1.5161331   433128 
 3446000   0.99602791   -3.1691444    -1.654595  0.075392235   -3.1691444    1.5145493   433115 
 3447000   0.99674163   -3.1687012   -1.6530176  0.070682763   -3.1687012    1.5156836   433101 
 3448000   0.99636771   -3.1685715   -1.6534111  0.073063516   -3.1685715    1.5151604   433088 
 3449000   0.99646033   -3.1692666   -1.6539198  0.072479858   -3.1692666    1.5153468   433075 
 3450000   0.99704389   -3.1708273   -1.6545441  0.072150959   -3.1708273    1.5162832   433061 
 3451000   0.99702681   -3.1705786   -1.6542758  0.066226018   -3.1705786    1.5163028   433048 
 3452000   0.99714255   -3.1694521   -1.6529278  0.077638181   -3.1694521    1.5165243   433035 
 3453000   0.99823677   -3.1708914   -1.6526538  0.078329317   -3.1708914    1.5182376   433021 
 3454000    0.9981463   -3.1723028   -1.6541572  0.072726128   -3.1723028    1.5181456   433008 
 3455000   0.99757944   -3.1705707   -1.6532417  0.074899017   -3.1705707    1.5173289   432995 
 3456000   0.99596368   -3.1690609   -1.6541406  0.072492882   -3.1690609    1.5149203   432981 
 3457000   0.99634463   -3.1703906   -1.6548453   0.07072128   -3.1703906    1.5155453   432968 
 3458000    0.9963883    -3.170281   -1.6546238  0.075134484    -3.170281    1.5156572   432955 
 3459000   0.99720099   -3.1718885    -1.654946  0.071139546   -3.1718885    1.5169425   432941 
 3460000   0.99457261   -3.1685633   -1.6555737  0.074408606   -3.1685633    1.5129896   432928 
 3461000   0.99447011   -3.1693262   -1.6564471  0.070368261   -3.1693262    1.5128791   432915 
 3462000   0.99554125   -3.1709893   -1.6564317  0.064096953   -3.1709893    1.5145576   432901 
 3463000   0.99510371   -3.1706391   -1.6567017  0.070321325   -3.1706391    1.5139374   432888 
 3464000   0.99541306   -3.1705608   -1.6561072  0.068779533   -3.1705608    1.5144536   432875 
 3465000   0.99643423   -3.1714138   -1.6553576  0.065506598   -3.1714138    1.5160562   432861 
 3466000   0.99633355   -3.1705798   -1.6546313  0.071065215   -3.1705798    1.5159486   432848 
 3467000   0.99515962   -3.1703898   -1.6561819  0.069402975   -3.1703898    1.5142079   432835 
 3468000   0.99572378   -3.1707924   -1.6556771  0.072241701   -3.1707924    1.5151153   432821 
 3469000   0.99662096    -3.170661    -1.654135  0.069117549    -3.170661     1.516526   432808 
 3470000   0.99702072   -3.1724137   -1.6552338  0.076962998   -3.1724137    1.5171799   432795 
 3471000   0.99675563   -3.1728052   -1.6559796  0.068811334   -3.1728052    1.5168256   432781 
 3472000   0.99573723   -3.1716066   -1.6562853   0.07328859   -3.1716066    1.5153213   432768 
 3473000   0.99587944   -3.1704953    -1.654912  0.067447545   -3.1704953    1.5155833   432755 
 3474000   0.99737664   -3.1726673   -1.6547564  0.067363485   -3.1726673    1.5179109   432741 
 3475000   0.99561463   -3.1690901   -1.6538153   0.07042209   -3.1690901    1.5152748   432728 
 3476000   0.99551886   -3.1693479   -1.6541733  0.072905175   -3.1693479    1.5151746   432715 
 3477000   0.99551364   -3.1712289   -1.6560132  0.071672225   -3.1712289    1.5152156   432701 
 3478000   0.99746751   -3.1729461    -1.654711  0.073233244   -3.1729461    1.5182351   432688 
 3479000   0.99574626   -3.1712291   -1.6555683  0.072738791   -3.1712291    1.5156608   432675 
 3480000   0.99506968   -3.1700432   -1.6553633  0.072210988   -3.1700432    1.5146799   432661 
 3481000   0.99512662   -3.1688444   -1.6540323  0.074510617   -3.1688444    1.5148121   432648 
 3482000     0.996512   -3.1703553   -1.6533887  0.071633265   -3.1703553    1.5169666   432635 
 3483000   0.99662559   -3.1710511   -1.6538625  0.073077181   -3.1710511    1.5171886   432621 
 3484000   0.99489646   -3.1708003   -1.6561985  0.069176696   -3.1708003    1.5146018   432608 
 3485000   0.99417483   -3.1700519   -1.6565032  0.068927952   -3.1700519    1.5135487   432595 
 3486000   0.99427484   -3.1709791   -1.6572292  0.066451484   -3.1709791    1.5137499   432581 
 3487000    0.9938205    -3.170623   -1.6575193  0.068052465    -3.170623    1.5131037   432568 
 3488000    0.9930641   -3.1690746    -1.657077  0.066963232   -3.1690746    1.5119975   432555 
 3489000   0.99349725   -3.1701217   -1.6574157  0.066726994   -3.1701217     1.512706   432541 
 3490000   0.99404573   -3.1701281   -1.6565415  0.069829286   -3.1701281    1.5135866   432528 
 3491000   0.99225598   -3.1671816   -1.6562748  0.067269417   -3.1671816    1.5109068   432515 
 3492000   0.99318544   -3.1688238   -1.6564528  0.072143929   -3.1688238    1.5123711   432501 
 3493000   0.99557819   -3.1722612    -1.656201  0.070796037   -3.1722612    1.5160602   432488 
 3494000   0.99389694   -3.1709852   -1.6574397   0.06758048   -3.1709852    1.5135455   432475 
 3495000   0.99361486   -3.1706063   -1.6574414  0.071744593   -3.1706063    1.5131649   432461 
 3496000   0.99461765   -3.1712234   -1.6564858  0.072542797   -3.1712234    1.5147376   432448 
 3497000   0.99405835    -3.170343   -1.6564117  0.068832105    -3.170343    1.5139313   432435 
 3498000   0.99445758   -3.1715898   -1.6570014  0.065512995   -3.1715898    1.5145884   432421 
 3499000   0.99591723   -3.1727594   -1.6559023   0.07119881   -3.1727594    1.5168571   432408 
 3500000   0.99534463    -3.172081   -1.6560505  0.070573593    -3.172081    1.5160305   432395 
 3501000   0.99350381   -3.1713459   -1.6580702  0.068359785   -3.1713459    1.5132757   432381 
 3502000    0.9953275   -3.1729593   -1.6568602  0.068779382   -3.1729593    1.5160991   432368 
 3503000   0.99426783   -3.1725369   -1.6580064  0.073494037   -3.1725369    1.5145305   432355 
 3504000   0.99484497   -3.1739824   -1.6585237  0.069009121   -3.1739824    1.5154587   432341 
 3505000   0.99550799   -3.1751022   -1.6585879  0.065228522   -3.1751022    1.5165143   432328 
 3506000    0.9944779   -3.1727234   -1.6577327  0.071082489   -3.1727234    1.5149907   432315 
 3507000   0.99449703   -3.1731801   -1.6581112  0.071533541   -3.1731801    1.5150689   432301 
 3508000    0.9940602   -3.1730059    -1.658557   0.07003587   -3.1730059    1.5144489   432288 
 3509000   0.99405868   -3.1742249   -1.6597327  0.067131405   -3.1742249    1.5144922   432275 
 3510000    0.9940883   -3.1749917   -1.6604053   0.07242911   -3.1749917    1.5145864   432261 
 3511000   0.99363178     -3.17487   -1.6609336  0.069583432     -3.17487    1.5139363   432248 
 3512000   0.99403923   -3.1758563   -1.6612536  0.067696052   -3.1758563    1.5146027   432235 
 3513000   0.99391295   -3.1752273   -1.6607679  0.068407083   -3.1752273    1.5144593   432221 
 3514000   0.99296811   -3.1736062    -1.660541  0.073680385   -3.1736062    1.5130652   432208 
 3515000   0.99303218   -3.1742378   -1.6610295  0.072943835   -3.1742378    1.5132083   432195 
 3516000   0.99262234   -3.1739589   -1.6613261  0.070306926   -3.1739589    1.5126328   432181 
 3517000   0.99327887   -3.1758566   -1.6621778  0.072006543   -3.1758566    1.5136788   432168 
 3518000   0.99392683   -3.1769044   -1.6621926  0.066266772   -3.1769044    1.5147118   432155 
 3519000   0.99352141   -3.1771357   -1.6629927  0.067883325   -3.1771357     1.514143   432141 
 3520000   0.99387057   -3.1760488   -1.6613281  0.069487286   -3.1760488    1.5147207   432128 
 3521000    0.9936094    -3.175459   -1.6610908  0.065449137    -3.175459    1.5143682   432115 
 3522000   0.99366795   -3.1755124   -1.6610059  0.069694369   -3.1755124    1.5145065   432101 
 3523000   0.99389364   -3.1749198   -1.6600238  0.072225326   -3.1749198    1.5148961   432088 
 3524000   0.99383473   -3.1754695   -1.6606177  0.073870537   -3.1754695    1.5148519   432075 
 3525000   0.99374818   -3.1752444   -1.6604754  0.072999106   -3.1752444     1.514769   432061 
 3526000   0.99417834   -3.1752148   -1.6597445  0.075645886   -3.1752148    1.5154703   432048 
 3527000    0.9947498   -3.1748088   -1.6584218  0.072496834   -3.1748088     1.516387   432035 
 3528000   0.99346458   -3.1732505   -1.6587735  0.074855405   -3.1732505    1.5144769   432021 
 3529000   0.99373442   -3.1739758    -1.659042  0.069228354   -3.1739758    1.5149339   432008 
 3530000   0.99392951   -3.1747176   -1.6594407  0.066055206   -3.1747176    1.5152769   431995 
 3531000   0.99312225   -3.1719563   -1.6578611  0.070078174   -3.1719563    1.5140953   431981 
 3532000   0.99369544   -3.1735706   -1.6585559  0.073473542   -3.1735706    1.5150147   431968 
 3533000   0.99282723    -3.173297   -1.6595604  0.063503128    -3.173297    1.5137366   431955 
 3534000   0.99273696    -3.173474    -1.659826  0.067002355    -3.173474     1.513648   431941 
 3535000    0.9926173   -3.1732572   -1.6597461  0.070453513   -3.1732572    1.5135111   431928 
 3536000   0.99297868   -3.1733968   -1.6592891  0.068538025   -3.1733968    1.5141077   431915 
 3537000   0.99209365   -3.1729629   -1.6601557  0.068449899   -3.1729629    1.5128072   431901 
 3538000   0.99282057   -3.1735876   -1.6596263  0.072200522   -3.1735876    1.5139613   431888 
 3539000   0.99355786   -3.1735118   -1.6583806  0.063999234   -3.1735118    1.5151312   431875 
 3540000   0.99354775    -3.173769   -1.6586041  0.066155841    -3.173769    1.5151649   431861 
 3541000   0.99228828   -3.1725913   -1.6593016  0.070899316   -3.1725913    1.5132897   431848 
 3542000   0.99388117   -3.1755886    -1.659824  0.067374617   -3.1755886    1.5157646   431835 
 3543000    0.9934595   -3.1750395   -1.6598689   0.06734567   -3.1750395    1.5151706   431821 
 3544000   0.99099228   -3.1713736   -1.6599204  0.070653647   -3.1713736    1.5114532   431808 
 3545000   0.99323365   -3.1729596   -1.6580422  0.062330345   -3.1729596    1.5149174   431795 
 3546000   0.99171074   -3.1714963   -1.6588527  0.070857804   -3.1714963    1.5126436   431781 
 3547000    0.9926858   -3.1738435   -1.6596671  0.069741204   -3.1738435    1.5141765   431768 
 3548000    0.9942316   -3.1757766   -1.6591966  0.073045101   -3.1757766      1.51658   431755 
 3549000   0.99189941    -3.173408   -1.6603364  0.074953953    -3.173408    1.5130716   431741 
 3550000   0.99160843   -3.1739822   -1.6613089  0.066423565   -3.1739822    1.5126733   431728 
 3551000   0.99068528   -3.1736944   -1.6623839  0.074453134   -3.1736944    1.5113105   431715 
 3552000    0.9911775   -3.1753116   -1.6632012  0.073750941   -3.1753116    1.5121104   431701 
 3553000   0.99100789   -3.1762713    -1.664374  0.069406173   -3.1762713    1.5118972   431688 
 3554000   0.99195789   -3.1780205   -1.6646284  0.067272961   -3.1780205    1.5133921   431675 
 3555000    0.9913689   -3.1750231   -1.6624806  0.070038797   -3.1750231    1.5125426   431661 
 3556000   0.99083028   -3.1759718   -1.6642054  0.070103969   -3.1759718    1.5117663   431648 
 3557000   0.99076132   -3.1757123   -1.6640057  0.070535111   -3.1757123    1.5117066   431635 
 3558000    0.9921482   -3.1772043   -1.6633325  0.071647261   -3.1772043    1.5138719   431621 
 3559000   0.99367823   -3.1782817   -1.6620296  0.075154463   -3.1782817    1.5162521   431608 
 3560000   0.99278836   -3.1785561   -1.6636162  0.065466631   -3.1785561    1.5149399   431595 
 3561000   0.99342095   -3.1791132   -1.6631588  0.072550216   -3.1791132    1.5159544   431581 
 3562000   0.99281397   -3.1784346   -1.6633609  0.070572492   -3.1784346    1.5150738   431568 
 3563000   0.99258802   -3.1775289   -1.6627544  0.068836739   -3.1775289    1.5147746   431555 
 3564000   0.99400736   -3.1783575   -1.6613677  0.068250252   -3.1783575    1.5169898   431541 
 3565000   0.99502745   -3.1792382   -1.6606458  0.067207079   -3.1792382    1.5185924   431528 
 3566000   0.99236505   -3.1766699   -1.6620952  0.067580507   -3.1766699    1.5145747   431515 
 3567000   0.99315532   -3.1791274   -1.6632974  0.070360415   -3.1791274      1.51583   431501 
 3568000   0.99139446   -3.1781516   -1.6649636  0.067338658   -3.1781516     1.513188   431488 
 3569000   0.99203628   -3.1785839   -1.6643706  0.070418404   -3.1785839    1.5142133   431475 
 3570000   0.99098622   -3.1784897   -1.6658301  0.068238017   -3.1784897    1.5126596   431461 
 3571000   0.99129797   -3.1795408   -1.6663598  0.066543309   -3.1795408     1.513181   431448 
 3572000   0.99008004   -3.1778618   -1.6664943   0.06995071   -3.1778618    1.5113674   431435 
 3573000   0.99249492   -3.1803463   -1.6652433  0.064786477   -3.1803463    1.5151029   431421 
 3574000   0.98970909   -3.1760097    -1.665114  0.071070121   -3.1760097    1.5108957   431408 
 3575000   0.99046513   -3.1759834   -1.6638879  0.069243084   -3.1759834    1.5120955   431395 
 3576000   0.99082904   -3.1759183   -1.6632182  0.069085656   -3.1759183    1.5127001   431381 
 3577000   0.99048959   -3.1763773   -1.6641499  0.066561172   -3.1763773    1.5122275   431368 
 3578000   0.99035168   -3.1769762   -1.6649137  0.061110252   -3.1769762    1.5120625   431355 
 3579000   0.99242198   -3.1777967   -1.6625241  0.068200936   -3.1777967    1.5152726   431341 
 3580000   0.99231315   -3.1783135   -1.6631614  0.067793979   -3.1783135    1.5151521   431328 
 3581000   0.99216187   -3.1782753   -1.6633085  0.071292639   -3.1782753    1.5149668   431315 
 3582000   0.99082219   -3.1772691   -1.6642988   0.06877013   -3.1772691    1.5129703   431301 
 3583000    0.9899694   -3.1760723   -1.6643586  0.069004016   -3.1760723    1.5117136   431288 
 3584000   0.99064094   -3.1775108   -1.6647261  0.070048791   -3.1775108    1.5127847   431275 
 3585000   0.99143213   -3.1783831    -1.664341  0.073128794   -3.1783831     1.514042   431261 
 3586000   0.99161739    -3.179235   -1.6648644  0.068823063    -3.179235    1.5143706   431248 
 3587000   0.99148374   -3.1798669   -1.6656548   0.06805598   -3.1798669    1.5142122   431235 
 3588000   0.99049093   -3.1786493   -1.6659043  0.067616544   -3.1786493     1.512745   431221 
 3589000   0.98908191   -3.1770826    -1.666444  0.074422885   -3.1770826    1.5106386   431208 
 3590000   0.99013504   -3.1800353   -1.6677427  0.068101175   -3.1800353    1.5122927   431195 
 3591000    0.9920295   -3.1805107   -1.6652753  0.066004645   -3.1805107    1.5152354   431181 
 3592000    0.9908905   -3.1787896   -1.6652483  0.066332509   -3.1787896    1.5135413   431168 
 3593000   0.99193149   -3.1806931   -1.6655161  0.069739184   -3.1806931     1.515177   431155 
 3594000    0.9897116    -3.179114   -1.6672788  0.070630421    -3.179114    1.5118353   431141 
 3595000   0.99113557   -3.1797874   -1.6657313  0.072926939   -3.1797874    1.5140561   431128 
 3596000   0.98993114   -3.1775913   -1.6653295  0.071779621   -3.1775913    1.5122618   431115 
 3597000   0.99246529   -3.1815925   -1.6654102  0.071052782   -3.1815925    1.5161823   431101 
 3598000   0.99130666   -3.1811092   -1.6666512  0.069566827   -3.1811092     1.514458   431088 
 3599000   0.98966969   -3.1781075   -1.6661049  0.065823922   -3.1781075    1.5120027   431075 
 3600000   0.99073262   -3.1791193   -1.6654435  0.068152058   -3.1791193    1.5136758   431061 
 3601000   0.98966428   -3.1784437   -1.6663545  0.067240896   -3.1784437    1.5120891   431048 
 3602000   0.99187048     -3.18122   -1.6657144  0.067427155     -3.18122    1.5155057   431035 
 3603000   0.98937689   -3.1769481   -1.6652034  0.066412072   -3.1769481    1.5117447   431021 
 3604000   0.99127932   -3.1798225   -1.6651252  0.066827012   -3.1798225    1.5146973   431008 
 3605000   0.99050405   -3.1797677   -1.6662094  0.072164629   -3.1797677    1.5135583   430995 
 3606000   0.99021713   -3.1798939   -1.6667249  0.072242876   -3.1798939     1.513169   430981 
 3607000    0.9896697   -3.1789328   -1.6665547  0.067160579   -3.1789328    1.5123781   430968 
 3608000    0.9912595   -3.1827709   -1.6679176  0.068151988   -3.1827709    1.5148533   430955 
 3609000   0.99026818   -3.1802127   -1.6668252  0.068755298   -3.1802127    1.5133875   430941 
 3610000   0.99099791   -3.1811506   -1.6666022  0.066045908   -3.1811506    1.5145484   430928 
 3611000   0.98913659   -3.1793148   -1.6675654   0.07192576   -3.1793148    1.5117493   430915 
 3612000   0.99074882   -3.1808408   -1.6665782  0.065523825   -3.1808408    1.5142626   430901 
 3613000   0.99121555   -3.1808987   -1.6658771  0.074180987   -3.1808987    1.5150217   430888 
 3614000   0.99159172   -3.1817192   -1.6660768  0.073101827   -3.1817192    1.5156423   430875 
 3615000   0.98948004   -3.1796104   -1.6671466  0.072788548   -3.1796104    1.5124638   430861 
 3616000   0.99067356   -3.1819461   -1.6676122  0.068617274   -3.1819461    1.5143338   430848 
 3617000   0.99034086   -3.1825905   -1.6687195    0.0626451   -3.1825905    1.5138709   430835 
 3618000   0.98922039    -3.180843   -1.6686357  0.069595522    -3.180843    1.5122073   430821 
 3619000   0.98912321   -3.1810784   -1.6689741  0.067627181   -3.1810784    1.5121044   430808 
 3620000   0.98804185   -3.1810016   -1.6705048  0.066855673   -3.1810016    1.5104968   430795 
 3621000   0.98768451   -3.1795302   -1.6695306  0.071432594   -3.1795302    1.5099996   430781 
 3622000   0.98940457   -3.1820328   -1.6693579  0.065580953   -3.1820328    1.5126749   430768 
 3623000   0.98715768   -3.1782628   -1.6689775   0.07099998   -3.1782628    1.5092853   430755 
 3624000   0.98889587   -3.1812866   -1.6692946   0.06700277   -3.1812866     1.511992   430741 
 3625000   0.98924148   -3.1817353   -1.6691693  0.069454578   -3.1817353     1.512566   430728 
 3626000   0.98921051   -3.1802888   -1.6677245  0.068317433   -3.1802888    1.5125643   430715 
 3627000   0.98826817   -3.1788246    -1.667652  0.072040028   -3.1788246    1.5111726   430701 
 3628000   0.98971473   -3.1816972    -1.668267  0.067990559   -3.1816972    1.5134302   430688 
 3629000   0.98712841   -3.1778382   -1.6683173  0.068904071   -3.1778382    1.5095209   430675 
 3630000   0.98837521    -3.179161   -1.6676844  0.068087675    -3.179161    1.5114766   430661 
 3631000   0.98834971   -3.1798877   -1.6684045  0.066795624   -3.1798877    1.5114832   430648 
 3632000   0.98813333   -3.1803198   -1.6691219  0.076293001   -3.1803198    1.5111979   430635 
 3633000   0.98914776   -3.1828183   -1.6700198  0.068076092   -3.1828183    1.5127985   430621 
 3634000   0.98979863   -3.1826241   -1.6687845  0.066729127   -3.1826241    1.5138397   430608 
 3635000   0.98854054   -3.1808335   -1.6688724  0.065058429   -3.1808335    1.5119612   430595 
 3636000   0.98698784    -3.179313   -1.6696776  0.070310817    -3.179313    1.5096354   430581 
 3637000   0.98570614   -3.1787989   -1.6710784  0.061483543   -3.1787989    1.5077205   430568 
 3638000   0.98729198    -3.181797   -1.6716052  0.063492737    -3.181797    1.5101918   430555 
 3639000   0.98825189   -3.1833388   -1.6716296   0.06374707   -3.1833388    1.5117092   430541 
 3640000   0.98784706   -3.1822559   -1.6711203   0.06747562   -3.1822559    1.5111356   430528 
 3641000   0.98751565   -3.1820642   -1.6713899  0.067353676   -3.1820642    1.5106743   430515 
 3642000   0.98718002   -3.1840668   -1.6738568    0.0622131   -3.1840668    1.5102099   430501 
 3643000   0.98632963   -3.1813476    -1.672393  0.071240238   -3.1813476    1.5089546   430488 
 3644000   0.98864875   -3.1830576   -1.6705094  0.069777782   -3.1830576    1.5125482   430475 
 3645000   0.98835313   -3.1822958   -1.6701507  0.070097454   -3.1822958    1.5121451   430461 
 3646000   0.98770953   -3.1834337   -1.6722277  0.072390958   -3.1834337     1.511206   430448 
 3647000   0.98967887   -3.1851229    -1.670858  0.066708414   -3.1851229    1.5142649   430435 
 3648000   0.98744071   -3.1828147   -1.6719252  0.070821531   -3.1828147    1.5108895   430421 
 3649000   0.98877931   -3.1851333   -1.6721498  0.068054267   -3.1851333    1.5129834   430408 
 3650000   0.98704504   -3.1832102   -1.6728348   0.06798522   -3.1832102    1.5103753   430395 
 3651000   0.98719787   -3.1865102   -1.6758519  0.064974928   -3.1865102    1.5106583   430381 
 3652000   0.98660285   -3.1846293   -1.6748359  0.067477577   -3.1846293    1.5097934   430368 
 3653000   0.98865276   -3.1875733   -1.6745972  0.063439332   -3.1875733    1.5129761   430355 
 3654000   0.98669251   -3.1837642   -1.6737389  0.072928813   -3.1837642    1.5100254   430341 
 3655000   0.98722849    -3.184072   -1.6731807  0.071415251    -3.184072    1.5108913   430328 
 3656000   0.98802627   -3.1863618   -1.6742039  0.066660739   -3.1863618    1.5121579   430315 
 3657000   0.98881782    -3.187547   -1.6741284  0.068501797    -3.187547    1.5134186   430301 
 3658000   0.98821844    -3.187547   -1.6750001  0.069756044    -3.187547    1.5125469   430288 
 3659000   0.98823464   -3.1866034    -1.673986  0.076349509   -3.1866034    1.5126174   430275 
 3660000   0.98656383    -3.183594   -1.6734848  0.071394388    -3.183594    1.5101092   430261 
 3661000    0.9894058    -3.187282   -1.6727769  0.066562293    -3.187282     1.514505   430248 
 3662000   0.98828337   -3.1856659   -1.6728333  0.070063892   -3.1856659    1.5128326   430235 
 3663000   0.98941385   -3.1844661   -1.6698537  0.073403738   -3.1844661    1.5146124   430221 
 3664000   0.98887715   -3.1852212   -1.6713846  0.075218464   -3.1852212    1.5138366   430208 
 3665000   0.98956691   -3.1854238   -1.6704855  0.072221793   -3.1854238    1.5149383   430195 
 3666000   0.98990981   -3.1859349   -1.6704224  0.072124013   -3.1859349    1.5155125   430181 
 3667000   0.98936704   -3.1863737   -1.6716463  0.064671168   -3.1863737    1.5147274   430168 
 3668000   0.98744801   -3.1826475   -1.6708125  0.075913006   -3.1826475     1.511835   430155 
 3669000   0.98911122   -3.1844597    -1.670029  0.070035816   -3.1844597    1.5144308   430141 
 3670000   0.98784688    -3.182946   -1.6704054  0.069961466    -3.182946    1.5125406   430128 
 3671000   0.98827674    -3.184858   -1.6716134  0.061380173    -3.184858    1.5132445   430115 
 3672000   0.98675895   -3.1817295   -1.6707598  0.068871956   -3.1817295    1.5109697   430101 
 3673000   0.98603676   -3.1812086   -1.6712991  0.062762637   -3.1812086    1.5099095   430088 
 3674000   0.98531978   -3.1812926   -1.6724354  0.062320237   -3.1812926    1.5088572   430075 
 3675000    0.9860307    -3.182235     -1.67224  0.064824118    -3.182235     1.509995   430061 
 3676000    0.9866869   -3.1821137   -1.6710681  0.065772488   -3.1821137    1.5110456   430048 
 3677000   0.98612171   -3.1825816   -1.6723559  0.066277534   -3.1825816    1.5102257   430035 
 3678000   0.98532189     -3.18077   -1.6717201  0.067743206     -3.18077    1.5090499   430021 
 3679000   0.98549278   -3.1808052    -1.671448  0.067111689   -3.1808052    1.5093573   430008 
 3680000   0.98505986   -3.1806064   -1.6718666  0.070315944   -3.1806064    1.5087398   429995 
 3681000   0.98545432   -3.1807851   -1.6713919   0.06276823   -3.1807851    1.5093931   429981 
 3682000   0.98846509    -3.184531   -1.6704806   0.06781385    -3.184531    1.5140504   429968 
 3683000   0.98824639   -3.1822448   -1.6684836  0.074246889   -3.1822448    1.5137612   429955 
 3684000   0.98849104   -3.1828477   -1.6686625  0.064959883   -3.1828477    1.5141852   429941 
 3685000    0.9870394   -3.1831597   -1.6711524  0.074184369   -3.1831597    1.5120073   429928 
 3686000   0.98827504   -3.1840216   -1.6700757  0.066023002   -3.1840216    1.5139459   429915 
 3687000   0.98721792   -3.1831934   -1.6708176  0.067578662   -3.1831934    1.5123758   429901 
 3688000   0.98644967   -3.1828796   -1.6716351  0.069011363   -3.1828796    1.5112445   429888 
 3689000   0.98703265   -3.1856422   -1.6734588  0.068851712   -3.1856422    1.5121834   429875 
 3690000   0.98857369   -3.1868563   -1.6722626  0.070824822   -3.1868563    1.5145937   429861 
 3691000   0.98840135   -3.1867961   -1.6724207  0.065169587   -3.1867961    1.5143754   429848 
 3692000   0.98588961   -3.1842937   -1.6737209  0.070232188   -3.1842937    1.5105728   429835 
 3693000   0.98754106   -3.1865673   -1.6734149   0.07055166   -3.1865673    1.5131524   429821 
 3694000    0.9873802   -3.1859538   -1.6730021  0.068171815   -3.1859538    1.5129517   429808 
 3695000   0.98756944   -3.1868419   -1.6735545  0.070571802   -3.1868419    1.5132874   429795 
 3696000   0.98770662   -3.1877953   -1.6742483   0.07239573   -3.1877953    1.5135469   429781 
 3697000   0.98855243   -3.1901338   -1.6752449  0.068643158   -3.1901338    1.5148888   429768 
 3698000   0.98871523   -3.1899695   -1.6747854  0.068260091   -3.1899695    1.5151841   429755 
 3699000   0.98801168   -3.1888798   -1.6747245  0.075410337   -3.1888798    1.5141553   429741 
 3700000   0.98623555   -3.1868535   -1.6753744  0.068290389   -3.1868535    1.5114791   429728 
 3701000   0.98779865   -3.1876569   -1.6737365  0.069128756   -3.1876569    1.5139204   429715 
 3702000   0.98811802   -3.1882355   -1.6737763   0.07263686   -3.1882355    1.5144592   429701 
 3703000   0.98806852   -3.1869232    -1.672494  0.070805563   -3.1869232    1.5144292   429688 
 3704000   0.98701616   -3.1858693   -1.6730073  0.073632363   -3.1858693     1.512862   429675 
 3705000   0.98733109   -3.1862479   -1.6728539   0.07030752   -3.1862479     1.513394   429661 
 3706000   0.98598124   -3.1845944   -1.6732237  0.074895249   -3.1845944    1.5113707   429648 
 3707000   0.98800881   -3.1873844     -1.67286  0.073159154   -3.1873844    1.5145245   429635 
 3708000   0.98528897   -3.1838135   -1.6734091   0.06922359   -3.1838135    1.5104044   429621 
 3709000   0.98606729   -3.1848416   -1.6731983  0.070485062   -3.1848416    1.5116433   429608 
 3710000   0.98415382   -3.1830736    -1.674318  0.068670835   -3.1830736    1.5087556   429595 
 3711000   0.98498596   -3.1838651   -1.6737845  0.063594326   -3.1838651    1.5100805   429581 
 3712000   0.98602986   -3.1854196    -1.673693   0.06524431   -3.1854196    1.5117267   429568 
 3713000   0.98474953   -3.1825785    -1.672769  0.068574551   -3.1825785    1.5098094   429555 
 3714000    0.9853965   -3.1837349   -1.6728843   0.06994689   -3.1837349    1.5108506   429541 
 3715000   0.98498312   -3.1841603   -1.6738978  0.061879066   -3.1841603    1.5102625   429528 
 3716000   0.98397051   -3.1826989   -1.6739434  0.063892764   -3.1826989    1.5087555   429515 
 3717000   0.98418003   -3.1826014   -1.6734754  0.065940514   -3.1826014     1.509126   429501 
 3718000   0.98416362    -3.182415   -1.6732685  0.064887854    -3.182415    1.5091465   429488 
 3719000   0.98461203    -3.181905   -1.6720252  0.072987289    -3.181905    1.5098798   429475 
 3720000     0.984256    -3.182509    -1.673126  0.065019039    -3.182509    1.5093831   429461 
 3721000   0.98523713   -3.1836826   -1.6727492  0.065261954   -3.1836826    1.5109334   429448 
 3722000   0.98518522    -3.183693   -1.6727935  0.061492061    -3.183693    1.5108995   429435 
 3723000   0.98628731   -3.1850707   -1.6724317  0.064309877   -3.1850707     1.512639   429421 
 3724000   0.98598426    -3.184241    -1.672021  0.066304961    -3.184241      1.51222   429408 
 3725000   0.98609765   -3.1847114   -1.6722716  0.069552385   -3.1847114    1.5124397   429395 
 3726000   0.98562039   -3.1846637   -1.6729067  0.071700799   -3.1846637     1.511757   429381 
 3727000    0.9847312   -3.1839461   -1.6735073  0.067261195   -3.1839461    1.5104389   429368 
 3728000   0.98661279   -3.1861065   -1.6727358  0.071368825   -3.1861065    1.5133708   429355 
 3729000   0.98665852   -3.1872195   -1.6737292    0.0687803   -3.1872195    1.5134903   429341 
 3730000   0.98726885   -3.1869301   -1.6724577  0.072749513   -3.1869301    1.5144724   429328 
 3731000   0.98592588   -3.1846902   -1.6722322  0.071166512   -3.1846902     1.512458   429315 
 3732000   0.98489792    -3.183572   -1.6726416  0.069312152    -3.183572    1.5109304   429301 
 3733000   0.98727356   -3.1886986   -1.6740778  0.068682931   -3.1886986    1.5146207   429288 
 3734000   0.98780208    -3.188726   -1.6732486  0.071765259    -3.188726    1.5154774   429275 
 3735000   0.98597055   -3.1870656   -1.6743487  0.067392662   -3.1870656    1.5127168   429261 
 3736000   0.98717733   -3.1888308   -1.6742166  0.074343459   -3.1888308    1.5146142   429248 
 3737000   0.98696404    -3.189085   -1.6747522  0.066979045    -3.189085    1.5143328   429235 
 3738000     0.985919   -3.1864449   -1.6736662  0.068069967   -3.1864449    1.5127787   429221 
 3739000   0.98492227   -3.1854177   -1.6741225  0.067522247   -3.1854177    1.5112951   429208 
 3740000   0.98519854   -3.1850015   -1.6732366  0.069812398   -3.1850015    1.5117648   429195 
 3741000   0.98648823    -3.187281   -1.6734878  0.069800172    -3.187281    1.5137932   429181 
 3742000   0.98442418   -3.1845442   -1.6738726  0.075057082   -3.1845442    1.5106716   429168 
 3743000   0.98445489   -3.1843927   -1.6736282  0.070010408   -3.1843927    1.5107645   429155 
 3744000   0.98501476   -3.1845609   -1.6728878  0.071695345   -3.1845609     1.511673   429141 
 3745000   0.98520197   -3.1837003   -1.6716942  0.068737873   -3.1837003    1.5120061   429128 
 3746000   0.98714228   -3.1867256   -1.6716957  0.068256774   -3.1867256    1.5150298   429115 
 3747000   0.98636515   -3.1856377   -1.6717512  0.067845438   -3.1856377    1.5138865   429101 
 3748000   0.98601005   -3.1857994    -1.672412  0.069230638   -3.1857994    1.5133874   429088 
 3749000   0.98541889   -3.1853182   -1.6727923  0.069851328   -3.1853182    1.5125258   429075 
 3750000   0.98616515   -3.1863664   -1.6726458  0.072166449   -3.1863664    1.5137207   429061 
 3751000    0.9855028   -3.1840527   -1.6713029  0.067527418   -3.1840527    1.5127498   429048 
 3752000   0.98471613   -3.1836627   -1.6720746  0.072062356   -3.1836627    1.5115881   429035 
 3753000   0.98458575   -3.1826455   -1.6712083   0.06792227   -3.1826455    1.5114373   429021 
 3754000   0.98492963    -3.183938   -1.6719271  0.067815627    -3.183938     1.512011   429008 
 3755000   0.98571719   -3.1846448    -1.671379  0.068561626   -3.1846448    1.5132659   428995 
 3756000   0.98230499   -3.1810844   -1.6730078  0.068625817   -3.1810844    1.5080767   428981 
 3757000   0.98454533   -3.1835496   -1.6719876  0.064257689   -3.1835496     1.511562   428968 
 3758000   0.98498048   -3.1847914   -1.6725155    0.0646546   -3.1847914    1.5122759   428955 
 3759000   0.98409144   -3.1835829   -1.6726227  0.064858802   -3.1835829    1.5109602   428941 
 3760000   0.98396684   -3.1822613   -1.6714466  0.066187012   -3.1822613    1.5108147   428928 
 3761000   0.98697774   -3.1856499   -1.6701662  0.064739116   -3.1856499    1.5154836   428915 
 3762000   0.98498653    -3.183446   -1.6709705  0.066424631    -3.183446    1.5124755   428901 
 3763000   0.98499976   -3.1833056   -1.6707639  0.071909033   -3.1833056    1.5125417   428888 
 3764000   0.98498506   -3.1830865   -1.6705215  0.065386913   -3.1830865     1.512565   428875 
 3765000   0.98527239   -3.1825052   -1.6694496  0.075165713   -3.1825052    1.5130556   428861 
 3766000   0.98500559   -3.1823001   -1.6696083  0.071062755   -3.1823001    1.5126918   428848 
 3767000   0.98481586   -3.1820803    -1.669634  0.073139643   -3.1820803    1.5124462   428835 
 3768000   0.98547303   -3.1837742   -1.6702693  0.067162897   -3.1837742    1.5135049   428821 
 3769000   0.98649424   -3.1850997   -1.6699805  0.067009128   -3.1850997    1.5151192   428808 
 3770000   0.98370446   -3.1808119   -1.6699316  0.070085488   -3.1808119    1.5108803   428795 
 3771000    0.9831752   -3.1813242   -1.6712075  0.064703589   -3.1813242    1.5101167   428781 
 3772000   0.98343361   -3.1818383   -1.6712789  0.067591742   -3.1818383    1.5105594   428768 
 3773000   0.98400419   -3.1835083   -1.6720266  0.068949436   -3.1835083    1.5114817   428755 
 3774000   0.98416843   -3.1843071   -1.6725238  0.065527033   -3.1843071    1.5117833   428741 
 3775000   0.98457514    -3.184116   -1.6716621  0.064081321    -3.184116    1.5124539   428728 
 3776000   0.98459123   -3.1834444   -1.6709199  0.068227851   -3.1834444    1.5125245   428715 
 3777000   0.98393683   -3.1825689   -1.6710003   0.07090804   -3.1825689    1.5115686   428701 
 3778000   0.98501909   -3.1852754   -1.6719983  0.070301093   -3.1852754    1.5132771   428688 
 3779000   0.98522179   -3.1845523   -1.6709179  0.069642643   -3.1845523    1.5136344   428675 
 3780000   0.98457752   -3.1851593   -1.6724653   0.06781539   -3.1851593     1.512694   428661 
 3781000   0.98440425   -3.1851349   -1.6726612  0.067141791   -3.1851349    1.5124736   428648 
 3782000   0.98460147   -3.1848809   -1.6720584  0.062915602   -3.1848809    1.5128225   428635 
 3783000   0.98363962   -3.1845228   -1.6731288    0.0646695   -3.1845228     1.511394   428621 
 3784000   0.98367396   -3.1844919   -1.6729993  0.067474456   -3.1844919    1.5114926   428608 
 3785000   0.98506801    -3.185764   -1.6720834  0.062329726    -3.185764    1.5136806   428595 
 3786000    0.9834437   -3.1843713   -1.6731372  0.067408937   -3.1843713     1.511234   428581 
 3787000   0.98412275   -3.1848411   -1.6725177  0.062442623   -3.1848411    1.5123234   428568 
 3788000    0.9835385   -3.1845768   -1.6731054  0.070624692   -3.1845768    1.5114714   428555 
 3789000   0.98182821   -3.1838235   -1.6749312  0.066776159   -3.1838235    1.5088924   428541 
 3790000   0.98312968   -3.1849436   -1.6740052  0.068745613   -3.1849436    1.5109383   428528 
 3791000    0.9828735   -3.1856773   -1.6750869  0.066060137   -3.1856773    1.5105904   428515 
 3792000   0.98272303   -3.1851654   -1.6747569   0.06477359   -3.1851654    1.5104085   428501 
 3793000   0.98174712   -3.1826636   -1.6737093  0.066881959   -3.1826636    1.5089544   428488 
 3794000   0.98380606   -3.1852047   -1.6730399  0.062753317   -3.1852047    1.5121649   428475 
 3795000   0.98357273   -3.1842209   -1.6723653  0.074793582   -3.1842209    1.5118556   428461 
 3796000   0.98305646   -3.1841826   -1.6730747  0.067796983   -3.1841826    1.5111079   428448 
 3797000   0.98248196   -3.1839569   -1.6736863  0.070485979   -3.1839569    1.5102706   428435 
 3798000   0.98379528   -3.1853738   -1.6730349  0.069773127   -3.1853738    1.5123389   428421 
 3799000   0.98444676   -3.1855431   -1.6721568  0.066673246   -3.1855431    1.5133863   428408 
 3800000   0.98373118   -3.1853521     -1.67302  0.070690345   -3.1853521    1.5123321   428395 
 3801000   0.98219783   -3.1837846   -1.6737604  0.066381211   -3.1837846    1.5100242   428381 
 3802000   0.98313977   -3.1841394   -1.6726212  0.071003022   -3.1841394    1.5115182   428368 
 3803000   0.98280531   -3.1855807   -1.6745308  0.062465964   -3.1855807    1.5110498   428355 
 3804000   0.98151605   -3.1831484   -1.6740315  0.067515071   -3.1831484    1.5091169   428341 
 3805000   0.98037288   -3.1827802   -1.6753752  0.064682201   -3.1827802     1.507405   428328 
 3806000   0.97996742   -3.1838627   -1.6770354  0.058289506   -3.1838627    1.5068273   428315 
 3807000   0.97709566   -3.1807677    -1.678307  0.062617031   -3.1807677    1.5024607   428301 
 3808000   0.98109247   -3.1854202   -1.6767679  0.064283154   -3.1854202    1.5086523   428288 
 3809000   0.97917707   -3.1820913   -1.6763387  0.064596702   -3.1820913    1.5057527   428275 
 3810000   0.97881156   -3.1811894   -1.6759496  0.062327584   -3.1811894    1.5052398   428261 
 3811000   0.98079016   -3.1840236   -1.6756953  0.065655158   -3.1840236    1.5083283   428248 
 3812000   0.98116491   -3.1851694    -1.676219   0.05987279   -3.1851694    1.5089505   428235 
 3813000    0.9823505    -3.186673   -1.6758498  0.062888415    -3.186673    1.5108232   428221 
 3814000   0.98197441   -3.1848443   -1.6745537   0.07070675   -3.1848443    1.5102906   428208 
 3815000   0.98214312   -3.1847258   -1.6741298  0.071305246   -3.1847258     1.510596   428195 
 3816000     0.982286   -3.1855382   -1.6746731  0.073218548   -3.1855382    1.5108651   428181 
 3817000   0.98029221   -3.1828336   -1.6749893  0.073433544   -3.1828336    1.5078442   428168 
 3818000   0.98091738   -3.1845492   -1.6756976  0.063082591   -3.1845492    1.5088517   428155 
 3819000   0.97988558   -3.1828366   -1.6755228  0.070712722   -3.1828366    1.5073138   428141 
 3820000   0.98180086   -3.1863456   -1.6760398  0.067460626   -3.1863456    1.5103059   428128 
 3821000   0.98178884   -3.1870557   -1.6767225  0.066091677   -3.1870557    1.5103332   428115 
 3822000   0.98234209   -3.1876863   -1.6764525  0.065977111   -3.1876863    1.5112337   428101 
 3823000   0.98157733   -3.1864696   -1.6763665  0.068496917   -3.1864696    1.5101031   428088 
 3824000   0.98121489   -3.1870515   -1.6774602  0.064603817   -3.1870515    1.5095913   428075 
 3825000   0.98138192   -3.1882132   -1.6783155  0.063642367   -3.1882132    1.5098977   428061 
 3826000   0.98134177   -3.1879655   -1.6780838  0.066540589   -3.1879655    1.5098818   428048 
 3827000   0.98083079    -3.184946   -1.6758046  0.067332305    -3.184946    1.5091414   428035 
 3828000   0.98161423    -3.187087   -1.6766907  0.059885747    -3.187087    1.5103963   428021 
 3829000    0.9816941   -3.1873725   -1.6768075  0.065037463   -3.1873725     1.510565   428008 
 3830000   0.98178784   -3.1884282   -1.6776731  0.068119551   -3.1884282    1.5107552   427995 
 3831000   0.98237949   -3.1881525   -1.6764375  0.069932279   -3.1881525     1.511715   427981 
 3832000   0.98109692   -3.1886136   -1.6788263  0.064648201   -3.1886136    1.5097872   427968 
 3833000   0.97938247   -3.1863003   -1.6791056  0.067135814   -3.1863003    1.5071947   427955 
 3834000   0.98071581   -3.1898668   -1.6805708  0.062455427   -3.1898668     1.509296   427941 
 3835000   0.98144148   -3.1896484   -1.6791897  0.062681796   -3.1896484    1.5104586   427928 
 3836000     0.981469   -3.1914629    -1.680916  0.062449687   -3.1914629    1.5105469   427915 
 3837000   0.98035081   -3.1896001   -1.6807249  0.067746008   -3.1896001    1.5088753   427901 
 3838000   0.97947134   -3.1877616   -1.6801941  0.068638372   -3.1877616    1.5075675   427888 
 3839000   0.97972479   -3.1892595   -1.6812561  0.066131651   -3.1892595    1.5080034   427875 
 3840000   0.98020362   -3.1902752   -1.6814854  0.056858086   -3.1902752    1.5087898   427861 
 3841000   0.98078077   -3.1906223   -1.6808982  0.066599112   -3.1906223     1.509724   427848 
 3842000   0.97961276   -3.1888411   -1.6808692  0.070004875   -3.1888411    1.5079719   427835 
 3843000   0.98093986    -3.191666   -1.6816018  0.064193842    -3.191666    1.5100642   427821 
 3844000   0.98163952   -3.1935609   -1.6823737  0.062771967   -3.1935609    1.5111872   427808 
 3845000   0.97926464   -3.1920825   -1.6845055   0.06082619   -3.1920825     1.507577   427795 
 3846000   0.97918372   -3.1909899   -1.6834881  0.066263922   -3.1909899    1.5075017   427781 
 3847000   0.98004236   -3.1919919   -1.6831224  0.072102565   -3.1919919    1.5088695   427768 
 3848000   0.98058454   -3.1926721   -1.6829219  0.066627011   -3.1926721    1.5097501   427755 
 3849000   0.97877461   -3.1897425   -1.6827296  0.068685418   -3.1897425    1.5070128   427741 
 3850000   0.98013003   -3.1901973   -1.6810517  0.070687049   -3.1901973    1.5091456   427728 
 3851000   0.98046656   -3.1902812   -1.6805715  0.062656992   -3.1902812    1.5097097   427715 
 3852000   0.97976889   -3.1902333   -1.6815485  0.069488679   -3.1902333    1.5086848   427701 
 3853000   0.98081509   -3.1926716     -1.68233  0.071928679   -3.1926716    1.5103417   427688 
 3854000   0.98154011   -3.1934778   -1.6819737  0.067085194   -3.1934778    1.5115041   427675 
 3855000   0.98114391   -3.1932701   -1.6823266  0.065302645   -3.1932701    1.5109434   427661 
 3856000   0.98201945   -3.1924507    -1.680113  0.066111165   -3.1924507    1.5123377   427648 
 3857000   0.98228279   -3.1938553   -1.6810661  0.068503052   -3.1938553    1.5127892   427635 
 3858000   0.98000709   -3.1904561   -1.6811222  0.067995968   -3.1904561    1.5093339   427621 
 3859000   0.98127273   -3.1925101    -1.681181  0.063031527   -3.1925101    1.5113291   427608 
 3860000   0.97882719   -3.1905988   -1.6829904  0.063467461   -3.1905988    1.5076084   427595 
 3861000   0.97921233   -3.1906327   -1.6823817  0.065903371   -3.1906327    1.5082509   427581 
 3862000   0.97900225   -3.1916863   -1.6837131  0.062670632   -3.1916863    1.5079732   427568 
 3863000   0.97887377   -3.1901165   -1.6822954  0.068549515   -3.1901165    1.5078212   427555 
 3864000   0.97693607   -3.1892455   -1.6843599  0.063794971   -3.1892455    1.5048857   427541 
 3865000   0.97897724   -3.1911698   -1.6830941  0.064685293   -3.1911698    1.5080758   427528 
 3866000   0.97728156    -3.189736   -1.6842266  0.067082899    -3.189736    1.5055094   427515 
 3867000   0.97850803    -3.191219   -1.6837708   0.06330324    -3.191219    1.5074482   427501 
 3868000   0.97810967    -3.189443   -1.6825627  0.068913217    -3.189443    1.5068803   427488 
 3869000   0.97818505   -3.1891166   -1.6820743  0.071417073   -3.1891166    1.5070423   427475 
 3870000   0.97853096   -3.1897728   -1.6821482  0.064053005   -3.1897728    1.5076246   427461 
 3871000   0.97872408   -3.1896498   -1.6816819  0.062476131   -3.1896498     1.507968   427448 
 3872000   0.97788182   -3.1883436   -1.6816276  0.065649637   -3.1883436    1.5067161   427435 
 3873000   0.97950625   -3.1905302   -1.6812618  0.060445433   -3.1905302    1.5092684   427421 
 3874000   0.97858073   -3.1894507   -1.6815625  0.065374251   -3.1894507    1.5078882   427408 
 3875000   0.98038548   -3.1917307   -1.6810156  0.063588328   -3.1917307    1.5107151   427395 
 3876000   0.97812267   -3.1881204   -1.6808428   0.06595221   -3.1881204    1.5072776   427381 
 3877000    0.9782155   -3.1888895    -1.681423  0.064170763   -3.1888895    1.5074665   427368 
 3878000   0.97865693   -3.1899901   -1.6817974  0.063760732   -3.1899901    1.5081926   427355 
 3879000     0.978364   -3.1889137   -1.6811231  0.063641701   -3.1889137    1.5077906   427341 
 3880000   0.97813566   -3.1885355   -1.6810509  0.066512233   -3.1885355    1.5074846   427328 
 3881000   0.97910937   -3.1893135   -1.6802824  0.065220137   -3.1893135    1.5090311   427315 
 3882000   0.97684326   -3.1869712   -1.6813834  0.068639528   -3.1869712    1.5055879   427301 
 3883000   0.97875473   -3.1899911   -1.6814112  0.064076767   -3.1899911    1.5085799   427288 
 3884000   0.98054062   -3.1916178   -1.6802393  0.065302583   -3.1916178    1.5113785   427275 
 3885000   0.97922553   -3.1897579    -1.680357  0.067518051   -3.1897579    1.5094009   427261 
 3886000   0.97826571   -3.1898972   -1.6819299  0.064578758   -3.1898972    1.5079673   427248 
 3887000   0.97814367   -3.1894654   -1.6816404  0.065617114   -3.1894654    1.5078251   427235 
 3888000   0.97866727   -3.1906308   -1.6819492   0.06743971   -3.1906308    1.5086816   427221 
 3889000   0.97809014   -3.1895126   -1.6816748  0.061285382   -3.1895126    1.5078378   427208 
 3890000   0.97805634   -3.1887549   -1.6809233  0.064388787   -3.1887549    1.5078316   427195 
 3891000   0.97919034   -3.1902945   -1.6806652  0.068735536   -3.1902945    1.5096293   427181 
 3892000   0.97897885   -3.1902705   -1.6809213  0.066146656   -3.1902705    1.5093492   427168 
 3893000   0.97762573   -3.1889747   -1.6816658   0.06593589   -3.1889747    1.5073089   427155 
 3894000   0.97775889   -3.1899619   -1.6823983  0.061653182   -3.1899619    1.5075636   427141 
 3895000   0.97745176   -3.1913072   -1.6841713  0.060574393   -3.1913072    1.5071359   427128 
 3896000   0.97677066   -3.1899591   -1.6838275  0.067282087   -3.1899591    1.5061316   427115 
 3897000   0.97838788   -3.1913557    -1.682681  0.063194777   -3.1913557    1.5086747   427101 
 3898000   0.97886749   -3.1925431   -1.6830829  0.065155141   -3.1925431    1.5094602   427088 
 3899000   0.97789446   -3.1919629   -1.6839573  0.062173844   -3.1919629    1.5080056   427075 
 3900000    0.9779942   -3.1930835   -1.6848746  0.066311548   -3.1930835    1.5082089   427061 
 3901000   0.97746032   -3.1916887   -1.6842573  0.066110175   -3.1916887    1.5074315   427048 
 3902000   0.97872739   -3.1932555    -1.683824  0.064769683   -3.1932555    1.5094315   427035 
 3903000   0.97718869   -3.1919203   -1.6848124  0.069324147   -3.1919203    1.5071078   427021 
 3904000   0.97724392   -3.1935444   -1.6863055  0.059296774   -3.1935444    1.5072389   427008 
 3905000   0.97721663   -3.1945864   -1.6873437    0.0640925   -3.1945864    1.5072427   426995 
 3906000    0.9768884   -3.1937637   -1.6869778  0.063736093   -3.1937637    1.5067859   426981 
 3907000   0.97768064   -3.1946975   -1.6866438  0.064233352   -3.1946975    1.5080537   426968 
 3908000   0.97591267   -3.1927685    -1.687396  0.068570897   -3.1927685    1.5053725   426955 
 3909000   0.97838558   -3.1961396   -1.6869031  0.064509353   -3.1961396    1.5092365   426941 
 3910000   0.97901258   -3.1956635   -1.6854138  0.065478243   -3.1956635    1.5102497   426928 
 3911000   0.97928993   -3.1965698   -1.6858463  0.067249951   -3.1965698    1.5107236   426915 
 3912000   0.97657635   -3.1938866   -1.6872998  0.073029656   -3.1938866    1.5065868   426901 
 3913000   0.97812074   -3.1950929   -1.6860775  0.069044659   -3.1950929    1.5090153   426888 
 3914000   0.97805226   -3.1946605   -1.6857049  0.069923406   -3.1946605    1.5089556   426875 
 3915000   0.97924647   -3.1972237    -1.686376  0.068559649   -3.1972237    1.5108476   426861 
 3916000   0.97867489   -3.1954007    -1.685389  0.069252271   -3.1954007    1.5100117   426848 
 3917000   0.98028313   -3.1981794   -1.6856402   0.06737323   -3.1981794    1.5125392   426835 
 3918000   0.97917332   -3.1949516   -1.6840752  0.073891141   -3.1949516    1.5108763   426821 
 3919000    0.9810296   -3.1968639   -1.6830772  0.070056884   -3.1968639    1.5137867   426808 
 3920000   0.97928441   -3.1953267   -1.6841868  0.069472323   -3.1953267    1.5111398   426795 
 3921000   0.98023092   -3.1964842   -1.6838342  0.066328646   -3.1964842      1.51265   426781 
 3922000   0.97899977   -3.1966898   -1.6858937  0.069823619   -3.1966898    1.5107962   426768 
 3923000   0.97903113   -3.1964851   -1.6855945  0.067295965   -3.1964851    1.5108906   426755 
 3924000    0.9790364     -3.19689   -1.6859417  0.059418649     -3.19689    1.5109483   426741 
 3925000   0.97767009   -3.1958077   -1.6869221  0.064753674   -3.1958077    1.5088856   426728 
 3926000   0.97551665    -3.191662    -1.686054  0.063677891    -3.191662     1.505608   426715 
 3927000   0.97578477   -3.1925721   -1.6865008  0.067830749   -3.1925721    1.5060712   426701 
 3928000   0.97583551   -3.1930936   -1.6868982  0.065241407   -3.1930936    1.5061954   426688 
 3929000   0.97527345   -3.1928439   -1.6874702  0.066719312   -3.1928439    1.5053737   426675 
 3930000   0.97695288   -3.1949626   -1.6869471  0.062785468   -3.1949626    1.5080155   426661 
 3931000   0.97501048   -3.1916505   -1.6865874  0.063526889   -3.1916505    1.5050631   426648 
 3932000   0.97569196   -3.1916035   -1.6854425  0.062591128   -3.1916035    1.5061609   426635 
 3933000   0.97697657   -3.1932449   -1.6850515  0.065292888   -3.1932449    1.5081934   426621 
 3934000   0.97584777   -3.1901901   -1.6836933  0.065295947   -3.1901901    1.5064968   426608 
 3935000   0.97667187   -3.1921291   -1.6843141  0.065071181   -3.1921291     1.507815   426595 
 3936000   0.97521321   -3.1914623   -1.6858498  0.064790617   -3.1914623    1.5056125   426581 
 3937000   0.97547371   -3.1933033   -1.6872428  0.066975075   -3.1933033    1.5060605   426568 
 3938000   0.97547518    -3.193513   -1.6874042  0.063409589    -3.193513    1.5061087   426555 
 3939000   0.97507581   -3.1937095    -1.688168  0.062943872   -3.1937095    1.5055415   426541 
 3940000   0.97465244   -3.1923498   -1.6874161  0.067218085   -3.1923498    1.5049337   426528 
 3941000   0.97529986    -3.192847   -1.6868677  0.064515571    -3.192847    1.5059792   426515 
 3942000   0.97466714   -3.1932316     -1.68818  0.063373424   -3.1932316    1.5050517   426501 
 3943000   0.97533857   -3.1926711   -1.6865368  0.067997098   -3.1926711    1.5061344   426488 
 3944000     0.975888   -3.1944485   -1.6874198  0.065004388   -3.1944485    1.5070287   426475 
 3945000   0.97572045   -3.1943203   -1.6875009    0.0684614   -3.1943203    1.5068195   426461 
 3946000   0.97620594   -3.1958995   -1.6882844  0.066076633   -3.1958995    1.5076152   426448 
 3947000   0.97626194    -3.198107   -1.6903594  0.064109311    -3.198107    1.5077476   426435 
 3948000   0.97654602    -3.197541   -1.6893051  0.067842359    -3.197541    1.5082359   426421 
 3949000   0.97739056   -3.1996084   -1.6900222  0.067248426   -3.1996084    1.5095862   426408 
 3950000   0.97548171   -3.1972797   -1.6905958  0.069494426   -3.1972797    1.5066839   426395 
 3951000    0.9757632   -3.1962186   -1.6890504  0.067225912   -3.1962186    1.5071682   426381 
 3952000   0.97672169   -3.1988011   -1.6901065  0.063602094   -3.1988011    1.5086947   426368 
 3953000   0.97655947   -3.1986168   -1.6901267  0.069826829   -3.1986168    1.5084901   426355 
 3954000   0.97571058   -3.1992843    -1.692056   0.06963421   -3.1992843    1.5072283   426341 
 3955000   0.97488465   -3.1985601   -1.6925617  0.070094265   -3.1985601    1.5059984   426328 
 3956000   0.97527145    -3.199026   -1.6923842  0.067392725    -3.199026    1.5066419   426315 
 3957000   0.97587157   -3.1993623   -1.6917439  0.065409455   -3.1993623    1.5076185   426301 
 3958000   0.97625429   -3.2000411   -1.6917854  0.068566515   -3.2000411    1.5082557   426288 
 3959000   0.97540561   -3.1973621   -1.6903716  0.069891622   -3.1973621    1.5069905   426275 
 3960000   0.97509667   -3.1996074   -1.6930447  0.066532768   -3.1996074    1.5065627   426261 
 3961000   0.97462324   -3.1979519   -1.6920748  0.070291036   -3.1979519    1.5058771   426248 
 3962000   0.97465604    -3.198463   -1.6924893  0.061688642    -3.198463    1.5059737   426235 
 3963000   0.97472692   -3.1984297    -1.692297  0.061156463   -3.1984297    1.5061327   426221 
 3964000   0.97352739    -3.196893   -1.6925679     0.067018    -3.196893    1.5043251   426208 
 3965000   0.97629133   -3.1996314   -1.6909893  0.064545162   -3.1996314    1.5086421   426195 
 3966000   0.97405677   -3.1983838   -1.6931453  0.059697392   -3.1983838    1.5052385   426181 
 3967000   0.97373215   -3.1961051   -1.6913224  0.064392928   -3.1961051    1.5047828   426168 
 3968000   0.97475681   -3.1992543   -1.6928421  0.062901102   -3.1992543    1.5064122   426155 
 3969000   0.97505835   -3.1996337    -1.692706  0.065734929   -3.1996337    1.5069277   426141 
 3970000    0.9745171   -3.1985918   -1.6924546  0.064325304   -3.1985918    1.5061372   426128 
 3971000   0.97394381    -3.197344    -1.692047  0.065685363    -3.197344    1.5052971   426115 
 3972000   0.97424852   -3.1988652   -1.6930477  0.067009453   -3.1988652    1.5058175   426101 
 3973000   0.97490737   -3.2003474   -1.6934656  0.061957419   -3.2003474    1.5068818   426088 
 3974000   0.97331672   -3.1979508   -1.6934817  0.061469913   -3.1979508    1.5044691   426075 
 3975000   0.97402009    -3.197356   -1.6917503  0.069399791    -3.197356    1.5056057   426061 
 3976000   0.97598183   -3.1998359   -1.6911517  0.069699598   -3.1998359    1.5086842   426048 
 3977000   0.97342614   -3.1981773   -1.6933978  0.069960021   -3.1981773    1.5047795   426035 
 3978000   0.97321864   -3.1976947   -1.6931865  0.067150145   -3.1976947    1.5045082   426021 
 3979000   0.97345579    -3.197253   -1.6923323  0.069762475    -3.197253    1.5049207   426008 
 3980000   0.97521373   -3.2004618   -1.6927774  0.066862079   -3.2004618    1.5076844   425995 
 3981000   0.97701296   -3.2024653   -1.6919496  0.060588678   -3.2024653    1.5105157   425981 
 3982000   0.97547308   -3.2001777   -1.6919967  0.068086243   -3.2001777    1.5081809   425968 
 3983000   0.97351908   -3.1988881   -1.6936823  0.065245587   -3.1988881    1.5052058   425955 
 3984000   0.97372205   -3.1996188   -1.6940497  0.069112914   -3.1996188    1.5055691   425941 
 3985000   0.97467716   -3.1998381   -1.6927463  0.066231567   -3.1998381    1.5070919   425928 
 3986000   0.97284953   -3.1978214   -1.6935096  0.070287408   -3.1978214    1.5043118   425915 
 3987000    0.9747362   -3.1999869   -1.6927082  0.062118022   -3.1999869    1.5072787   425901 
 3988000   0.97273113   -3.1962509   -1.6920268  0.061888294   -3.1962509    1.5042241   425888 
 3989000   0.97277339    -3.196377   -1.6920417  0.066890163    -3.196377    1.5043354   425875 
 3990000   0.97426444   -3.1986762   -1.6919855  0.063551852   -3.1986762    1.5066907   425861 
 3991000    0.9747991   -3.1997842   -1.6922206  0.061589228   -3.1997842    1.5075636   425848 
 3992000   0.97364844   -3.1970655   -1.6912355  0.063526704   -3.1970655      1.50583   425835 
 3993000   0.97383498   -3.1982174   -1.6920493  0.067394702   -3.1982174     1.506168   425821 
 3994000   0.97360194    -3.197795   -1.6919414   0.06204877    -3.197795    1.5058536   425808 
 3995000   0.97257908   -3.1959195    -1.691602  0.066523025   -3.1959195    1.5043175   425795 
 3996000   0.97354376   -3.1964665   -1.6906074  0.065494538   -3.1964665    1.5058591   425781 
 3997000   0.97407893   -3.1959289   -1.6891961  0.065974744   -3.1959289    1.5067329   425768 
 3998000   0.97291252   -3.1943246     -1.68935  0.065918702   -3.1943246    1.5049746   425755 
 3999000   0.97360562   -3.1956597   -1.6895634  0.066894359   -3.1956597    1.5060963   425741 
 4000000   0.97411918   -3.1954178   -1.6884811  0.065300181   -3.1954178    1.5069367   425728 
 4001000   0.97487432   -3.1967681   -1.6886172   0.06358739   -3.1967681    1.5081509   425715 
 4002000   0.97473284   -3.1962434   -1.6882617  0.063880245   -3.1962434    1.5079817   425701 
 4003000    0.9749068    -3.196896   -1.6885991   0.07103862    -3.196896    1.5082969   425688 
 4004000     0.974207   -3.1963925   -1.6891323  0.064954604   -3.1963925    1.5072602   425675 
 4005000   0.97478369   -3.1976563   -1.6894543  0.061731471   -3.1976563     1.508202   425661 
 4006000   0.97287834   -3.1955437   -1.6902437  0.064603082   -3.1955437       1.5053   425648 
 4007000   0.97481864   -3.1972696   -1.6889213  0.064094032   -3.1972696    1.5083482   425635 
 4008000    0.9730758   -3.1959536   -1.6902525  0.063123368   -3.1959536    1.5057011   425621 
 4009000   0.97329402   -3.1971691   -1.6910844  0.062061666   -3.1971691    1.5060847   425608 
 4010000   0.97278355   -3.1953981   -1.6900573  0.063573501   -3.1953981    1.5053408   425595 
 4011000   0.97113708   -3.1945422   -1.6916998  0.059512598   -3.1945422    1.5028424   425581 
 4012000   0.97182392   -3.1971743   -1.6932231  0.061165233   -3.1971743    1.5039512   425568 
 4013000   0.97025506    -3.194565   -1.6929958  0.060811127    -3.194565    1.5015692   425555 
 4014000    0.9723188   -3.1974374   -1.6926249   0.06365211   -3.1974374    1.5048126   425541 
 4015000   0.97041728   -3.1949069   -1.6929913  0.063271644   -3.1949069    1.5019155   425528 
 4016000   0.97309731   -3.1971959   -1.6910865  0.060062362   -3.1971959    1.5061094   425515 
 4017000   0.97364379   -3.2003784   -1.6933736   0.06030581   -3.2003784    1.5070048   425501 
 4018000   0.97481975    -3.201594    -1.692723  0.058875266    -3.201594    1.5088711   425488 
 4019000   0.97299267   -3.1975906   -1.6915015  0.063945507   -3.1975906    1.5060891   425475 
 4020000   0.97364969    -3.198086   -1.6909304  0.062177334    -3.198086    1.5071556   425461 
 4021000   0.97255817   -3.1980631   -1.6925511  0.065947751   -3.1980631     1.505512   425448 
 4022000   0.97547575   -3.2025489   -1.6924743  0.068752166   -3.2025489    1.5100746   425435 
 4023000   0.97416191   -3.2009842   -1.6928939  0.070354854   -3.2009842    1.5080903   425421 
 4024000   0.97440023   -3.2020175   -1.6935122  0.070078084   -3.2020175    1.5085054   425408 
 4025000   0.97446089   -3.2022546   -1.6936092  0.064980359   -3.2022546    1.5086454   425395 
 4026000    0.9718306   -3.2003828   -1.6957601  0.064125682   -3.2003828    1.5046227   425381 
 4027000   0.97274574   -3.2020697   -1.6959841  0.060488773   -3.2020697    1.5060856   425368 
 4028000   0.97239487   -3.2030019   -1.6974135  0.063353162   -3.2030019    1.5055884   425355 
 4029000   0.97221781   -3.2026721   -1.6973083  0.061344565   -3.2026721    1.5053638   425341 
 4030000   0.97329477   -3.2051137   -1.6980363  0.066125574   -3.2051137    1.5070774   425328 
 4031000   0.97267652   -3.2025027   -1.6963367  0.067246204   -3.2025027    1.5061661   425315 
 4032000   0.97271656   -3.2028122   -1.6965346  0.061728041   -3.2028122    1.5062777   425301 
 4033000   0.97286917   -3.2035534   -1.6969933  0.063923981   -3.2035534      1.50656   425288 
 4034000   0.97272532   -3.2028934   -1.6965101  0.066778658   -3.2028934    1.5063833   425275 
 4035000   0.97331846   -3.2031206   -1.6957691  0.066021115   -3.2031206    1.5073515   425261 
 4036000   0.97410899   -3.2056745   -1.6970526  0.063511195   -3.2056745    1.5086219   425248 
 4037000   0.97464981    -3.206573   -1.6970674  0.063852464    -3.206573    1.5095056   425235 
 4038000   0.97418214   -3.2056749   -1.6968439  0.066011222   -3.2056749     1.508831   425221 
 4039000   0.97182866   -3.2006149    -1.695383  0.069325415   -3.2006149    1.5052319   425208 
 4040000   0.97255207   -3.2025769   -1.6961785  0.071856412   -3.2025769    1.5063984   425195 
 4041000   0.97352516   -3.2040539   -1.6960986  0.066406798   -3.2040539    1.5079553   425181 
 4042000   0.97441594   -3.2050216   -1.6956404  0.064441276   -3.2050216    1.5093812   425168 
 4043000   0.97363337   -3.2035247   -1.6953096  0.066315526   -3.2035247    1.5082151   425155 
 4044000    0.9713287   -3.2003759   -1.6956813  0.069804947   -3.2003759    1.5046946   425141 
 4045000   0.97120213   -3.2003161   -1.6957716  0.068673867   -3.2003161    1.5045445   425128 
 4046000   0.97229511   -3.2030928    -1.696809   0.05943774   -3.2030928    1.5062838   425115 
 4047000   0.97078889   -3.2013534   -1.6973535  0.065466818   -3.2013534    1.5039999   425101 
 4048000   0.97165758   -3.2019901   -1.6965984  0.061605367   -3.2019901    1.5053917   425088 
 4049000   0.97188968   -3.2031384    -1.697341  0.063031673   -3.2031384    1.5057974   425075 
 4050000   0.97150176   -3.2020363   -1.6967904  0.066028559   -3.2020363    1.5052459   425061 
 4051000   0.97160647   -3.2022184   -1.6967642  0.067185999   -3.2022184    1.5054542   425048 
 4052000   0.97167035   -3.2023234   -1.6967242  0.063034683   -3.2023234    1.5055992   425035 
 4053000   0.97259187   -3.2045104   -1.6974336  0.064195616   -3.2045104    1.5070768   425021 
 4054000   0.97075413   -3.2017907   -1.6975156  0.064880223   -3.2017907    1.5042751   425008 
 4055000    0.9713826   -3.2018873   -1.6965922  0.069346979   -3.2018873     1.505295   424995 
 4056000   0.97250819   -3.2054207   -1.6983318  0.063241956   -3.2054207     1.507089   424981 
 4057000   0.96942399   -3.2007204   -1.6983651   0.05812542   -3.2007204    1.5023553   424968 
 4058000   0.97192398   -3.2039456   -1.6976698  0.066535599   -3.2039456    1.5062758   424955 
 4059000   0.97098144   -3.2047052   -1.6998406  0.062487852   -3.2047052    1.5048646   424941 
 4060000   0.96992233   -3.2020635   -1.6987944  0.068606422   -3.2020635    1.5032691   424928 
 4061000   0.97012119    -3.203404   -1.6997807  0.060140076    -3.203404    1.5036233   424915 
 4062000   0.97117365   -3.2049581   -1.6996539  0.064707305   -3.2049581    1.5053042   424901 
 4063000   0.96859599   -3.2006071   -1.6992523  0.067234338   -3.2006071    1.5013548   424888 
 4064000   0.97167149   -3.2044257   -1.6982577  0.064252953   -3.2044257     1.506168   424875 
 4065000   0.97265823   -3.2059969   -1.6982497  0.067636413   -3.2059969    1.5077472   424861 
 4066000   0.97207434   -3.2064014   -1.6995132  0.064976629   -3.2064014    1.5068882   424848 
 4067000   0.97318995   -3.2089426   -1.7002788  0.067392823   -3.2089426    1.5086638   424835 
 4068000   0.97145838   -3.2052412   -1.6992122   0.06401911   -3.2052412    1.5060291   424821 
 4069000   0.97139941   -3.2066484   -1.7006647   0.06777695   -3.2066484    1.5059837   424808 
 4070000   0.97359457   -3.2104404   -1.7010073  0.062672592   -3.2104404    1.5094331   424795 
 4071000   0.97169862    -3.209076   -1.7025326  0.066349054    -3.209076    1.5065434   424781 
 4072000   0.96978471   -3.2071552   -1.7035332  0.062266783   -3.2071552     1.503622   424768 
 4073000   0.96835522   -3.2060076    -1.704556  0.064486177   -3.2060076    1.5014516   424755 
 4074000   0.97115882   -3.2088728   -1.7030245  0.060922603   -3.2088728    1.5058482   424741 
 4075000    0.9704234   -3.2094926   -1.7047386  0.062519072   -3.2094926     1.504754   424728 
 4076000   0.96870808   -3.2068643   -1.7047242  0.065951702   -3.2068643    1.5021401   424715 
 4077000   0.96868537     -3.20744   -1.7052855  0.066481257     -3.20744    1.5021544   424701 
 4078000   0.97109841    -3.210599   -1.7046566  0.061705227    -3.210599    1.5059425   424688 
 4079000   0.96965022   -3.2089176   -1.7051749    0.0636581   -3.2089176    1.5037427   424675 
 4080000   0.96844805   -3.2080078   -1.7060799  0.063184201   -3.2080078    1.5019279   424661 
 4081000   0.96970465   -3.2083842   -1.7044615  0.064591019   -3.2083842    1.5039227   424648 
 4082000   0.97026678   -3.2082593   -1.7034186  0.066130465   -3.2082593    1.5048406   424635 
 4083000   0.97051596   -3.2079441   -1.7026674  0.069592217   -3.2079441    1.5052767   424621 
 4084000   0.97004879   -3.2089267   -1.7043285   0.06541376   -3.2089267    1.5045982   424608 
 4085000   0.96915489   -3.2071451   -1.7038873  0.069691593   -3.2071451    1.5032577   424595 
 4086000   0.97158012   -3.2111327   -1.7040635  0.064169041   -3.2111327    1.5070692   424581 
 4087000   0.97044864   -3.2098769   -1.7045167   0.06670059   -3.2098769    1.5053602   424568 
 4088000   0.97029415   -3.2099747    -1.704808  0.066404917   -3.2099747    1.5051666   424555 
 4089000   0.96973106   -3.2092812   -1.7049385  0.064771333   -3.2092812    1.5043428   424541 
 4090000   0.96928998   -3.2084877   -1.7047831  0.066043561   -3.2084877    1.5037046   424528 
 4091000   0.96744564   -3.2067359   -1.7058466  0.066690761   -3.2067359    1.5008893   424515 
 4092000   0.96783899   -3.2074204   -1.7058713  0.062177325   -3.2074204    1.5015491   424501 
 4093000   0.96679206   -3.2068039   -1.7068332  0.063491885   -3.2068039    1.4999708   424488 
 4094000   0.96829805   -3.2096449   -1.7072916  0.059168264   -3.2096449    1.5023533   424475 
 4095000   0.96879251   -3.2086871   -1.7055171  0.061313328   -3.2086871      1.50317   424461 
 4096000   0.97138677   -3.2115993   -1.7043578  0.063311217   -3.2115993    1.5072414   424448 
 4097000   0.96884911    -3.207109   -1.7037591  0.064255265    -3.207109    1.5033499   424435 
 4098000    0.9688958   -3.2073681   -1.7038961  0.068759536   -3.2073681     1.503472   424421 
 4099000   0.96914606   -3.2083999   -1.7044935  0.064015618   -3.2083999    1.5039064   424408 
 4100000   0.96932761   -3.2107594   -1.7065252  0.063697439   -3.2107594    1.5042342   424395 
 4101000   0.96829127   -3.2087054   -1.7060299  0.065147012   -3.2087054    1.5026755   424381 
 4102000   0.96854843    -3.209595   -1.7064743  0.064975944    -3.209595    1.5031207   424368 
 4103000    0.9676303   -3.2065743   -1.7048325  0.068015532   -3.2065743    1.5017418   424355 
 4104000   0.96887221   -3.2090536   -1.7053348  0.060675667   -3.2090536    1.5037188   424341 
 4105000   0.96900791   -3.2093122   -1.7053367  0.066564168   -3.2093122    1.5039755   424328 
 4106000   0.96884142   -3.2088617   -1.7050986   0.06527836   -3.2088617    1.5037632   424315 
 4107000   0.96801568    -3.208349   -1.7058179  0.066401457    -3.208349    1.5025311   424301 
 4108000   0.97005759   -3.2103139   -1.7045673  0.061746127   -3.2103139    1.5057466   424288 
 4109000   0.96990609   -3.2092882   -1.7037306  0.065598674   -3.2092882    1.5055576   424275 
 4110000   0.97024136   -3.2087423   -1.7026146  0.068201806   -3.2087423    1.5061277   424261 
 4111000   0.96987694   -3.2090509   -1.7034428  0.072690048   -3.2090509    1.5056082   424248 
 4112000   0.96949998   -3.2074395   -1.7023704  0.064843398   -3.2074395    1.5050691   424235 
 4113000    0.9707544   -3.2099942    -1.702928  0.063492104   -3.2099942    1.5070662   424221 
 4114000   0.96826606   -3.2056428   -1.7023936  0.066371541   -3.2056428    1.5032492   424208 
 4115000   0.96999893   -3.2081884   -1.7022027  0.065145972   -3.2081884    1.5059857   424195 
 4116000   0.96946498   -3.2079166   -1.7027103   0.06655075   -3.2079166    1.5052064   424181 
 4117000   0.96837093   -3.2066276   -1.7030738   0.07007188   -3.2066276    1.5035538   424168 
 4118000   0.96808901   -3.2060657   -1.7029035  0.064533401   -3.2060657    1.5031622   424155 
 4119000   0.96816926   -3.2054103   -1.7020739  0.068466319   -3.2054103    1.5033364   424141 
 4120000   0.96883894   -3.2069851   -1.7025627  0.064181343   -3.2069851    1.5044223   424128 
 4121000   0.96858568   -3.2073463   -1.7032711  0.059576128   -3.2073463    1.5040752   424115 
 4122000   0.96626529   -3.2041152   -1.7035937  0.062650195   -3.2041152    1.5005215   424101 
 4123000   0.96657078   -3.2036487   -1.7026068  0.066081446   -3.2036487    1.5010419   424088 
 4124000   0.96604311   -3.2037938   -1.7035254  0.061526619   -3.2037938    1.5002684   424075 
 4125000   0.96719294   -3.2060517    -1.703948  0.064902673   -3.2060517    1.5021037   424061 
 4126000   0.96879322   -3.2070418   -1.7024067  0.067306568   -3.2070418    1.5046352   424048 
 4127000   0.97000408   -3.2070494   -1.7004874  0.064579575   -3.2070494    1.5065619   424035 
 4128000   0.96917208   -3.2057117   -1.7003923  0.066576659   -3.2057117    1.5053194   424021 
 4129000    0.9698384   -3.2064238   -1.7000232  0.067056892   -3.2064238    1.5064005   424008 
 4130000    0.9697289   -3.2052855   -1.6990089  0.065607644   -3.2052855    1.5062766   423995 
 4131000   0.96825482   -3.2047082   -1.7006716  0.068382045   -3.2047082    1.5040366   423981 
 4132000   0.97047064   -3.2071015   -1.6995767  0.066702066   -3.2071015    1.5075248   423968 
 4133000   0.96843791   -3.2045155   -1.7001022  0.066838585   -3.2045155    1.5044133   423955 
 4134000   0.96839657   -3.2057694   -1.7013707   0.06173603   -3.2057694    1.5043987   423941 
 4135000    0.9689349   -3.2058001    -1.700519  0.064879404   -3.2058001    1.5052812   423928 
 4136000   0.96715812   -3.2038522   -1.7012853  0.060745863   -3.2038522    1.5025669   423915 
 4137000   0.96659034   -3.2034816   -1.7017471  0.066326388   -3.2034816    1.5017344   423901 
 4138000   0.96777624   -3.2062473   -1.7026243  0.063145142   -3.2062473     1.503623   423888 
 4139000   0.96872821   -3.2065474   -1.7013991  0.062751998   -3.2065474    1.5051482   423875 
 4140000   0.96930922   -3.2066527   -1.7005519  0.067181646   -3.2066527    1.5061007   423861 
 4141000   0.96817763   -3.2047132   -1.7003246  0.065747448   -3.2047132    1.5043886   423848 
 4142000   0.96701309   -3.2045832    -1.701958  0.065537571   -3.2045832    1.5026252   423835 
 4143000   0.96761858   -3.2052626   -1.7016469  0.065144275   -3.2052626    1.5036157   423821 
 4144000   0.96729565   -3.2046613   -1.7015013  0.059994233   -3.2046613      1.50316   423808 
 4145000   0.96741971   -3.2025821   -1.6991832  0.065181216   -3.2025821    1.5033989   423795 
 4146000   0.96746057   -3.2036812   -1.7001691  0.063685989   -3.2036812    1.5035121   423781 
 4147000    0.9670667   -3.2040275   -1.7010814  0.064457727   -3.2040275    1.5029461   423768 
 4148000   0.96841646   -3.2052174   -1.7001274  0.063378646   -3.2052174      1.50509   423755 
 4149000   0.96850137   -3.2062702   -1.7009985  0.065150048   -3.2062702    1.5052717   423741 
 4150000   0.96676471   -3.2052357   -1.7026171  0.062259274   -3.2052357    1.5026186   423728 
 4151000   0.96742221   -3.2060201   -1.7023335  0.067872773   -3.2060201    1.5036867   423715 
 4152000   0.96884742   -3.2073238   -1.7013721  0.063045809   -3.2073238    1.5059517   423701 
 4153000   0.96747139   -3.2045382   -1.7006793  0.062408851   -3.2045382    1.5038589   423688 
 4154000   0.96708334   -3.2020105   -1.6987086  0.066483902   -3.2020105    1.5033019   423675 
 4155000   0.96710023   -3.2027136   -1.6993358  0.064144123   -3.2027136    1.5033778   423661 
 4156000   0.96747347   -3.2042037   -1.7001995  0.060380962   -3.2042037    1.5040042   423648 
 4157000   0.96570062   -3.2029012    -1.701607  0.060137896   -3.2029012    1.5012942   423635 
 4158000   0.96723977   -3.2052508   -1.7015141  0.062352649   -3.2052508    1.5037367   423621 
 4159000   0.96649971   -3.2043797   -1.7017474  0.069932105   -3.2043797    1.5026323   423608 
 4160000   0.96665965   -3.2066762   -1.7037491  0.066837749   -3.2066762     1.502927   423595 
 4161000   0.96734603   -3.2065856   -1.7025417  0.059497411   -3.2065856    1.5040439   423581 
 4162000   0.96733558   -3.2062247   -1.7021508   0.06481474   -3.2062247    1.5040738   423568 
 4163000   0.96662606   -3.2056873   -1.7026706  0.060881757   -3.2056873    1.5030167   423555 
 4164000   0.96698093   -3.2059136   -1.7022954  0.060279341   -3.2059136    1.5036182   423541 
 4165000   0.96733414   -3.2068106    -1.702597  0.053689699   -3.2068106    1.5042136   423528 
 4166000   0.96743765   -3.2053887   -1.7009679  0.060786408   -3.2053887    1.5044208   423515 
 4167000   0.96738202   -3.2063267   -1.7019427  0.061755045   -3.2063267     1.504384   423501 
 4168000   0.96592189   -3.2058148   -1.7036553  0.062931971   -3.2058148    1.5021594   423488 
 4169000   0.96738318   -3.2078713   -1.7033932  0.057887891   -3.2078713    1.5044782   423475 
 4170000   0.96743254   -3.2070467    -1.702442  0.069221507   -3.2070467    1.5046047   423461 
 4171000   0.96817849   -3.2077006   -1.7018896  0.067384486   -3.2077006     1.505811   423448 
 4172000   0.96886015   -3.2079486   -1.7010311  0.069614585   -3.2079486    1.5069175   423435 
 4173000   0.96834919   -3.2071134   -1.7009408  0.069067987   -3.2071134    1.5061726   423421 
 4174000   0.96836844   -3.2083508    -1.702102  0.063862181   -3.2083508    1.5062488   423408 
 4175000   0.96570066   -3.2064568   -1.7043115  0.067414392   -3.2064568    1.5021453   423395 
 4176000   0.96748187   -3.2093259   -1.7043602  0.064913982   -3.2093259    1.5049657   423381 
 4177000   0.96809826    -3.209703   -1.7037323  0.060548983    -3.209703    1.5059708   423368 
 4178000   0.96723145   -3.2089445    -1.704276  0.064867552   -3.2089445    1.5046686   423355 
 4179000   0.96705948   -3.2083264   -1.7038756  0.067130983   -3.2083264    1.5044508   423341 
 4180000   0.96603997   -3.2078606   -1.7049497  0.062777736   -3.2078606    1.5029109   423328 
 4181000   0.96745506   -3.2103407   -1.7051821  0.064325312   -3.2103407    1.5051586   423315 
 4182000   0.96647249    -3.209969   -1.7062893  0.061963785    -3.209969    1.5036797   423301 
 4183000    0.9655315   -3.2087369   -1.7064751  0.067321243   -3.2087369    1.5022618   423288 
 4184000   0.96643194   -3.2107319   -1.7070229  0.067339838   -3.2107319     1.503709   423275 
 4185000   0.96784433   -3.2124371   -1.7064807  0.065203474   -3.2124371    1.5059564   423261 
 4186000   0.96636181   -3.2100422   -1.7063464  0.066795634   -3.2100422    1.5036958   423248 
 4187000   0.96661537   -3.2101188   -1.7059822  0.063355593   -3.2101188    1.5041365   423235 
 4188000    0.9667854   -3.2095787   -1.7051278  0.062376338   -3.2095787    1.5044509   423221 
 4189000   0.96717215   -3.2098671   -1.7047681  0.067203615   -3.2098671    1.5050989   423208 
 4190000   0.96712057   -3.2087626   -1.7036977  0.068165556   -3.2087626    1.5050649   423195 
 4191000   0.96725533   -3.2102742   -1.7049498  0.065655962   -3.2102742    1.5053244   423181 
 4192000   0.96725338   -3.2107696   -1.7054019  0.069837253   -3.2107696    1.5053676   423168 
 4193000   0.96530516   -3.2085923   -1.7062106  0.062676523   -3.2085923    1.5023817   423155 
 4194000   0.96574243   -3.2095487   -1.7064367  0.063504437   -3.2095487     1.503112   423141 
 4195000   0.96587059   -3.2100447   -1.7066871  0.062897484   -3.2100447    1.5033576   423128 
 4196000   0.96653939   -3.2101609   -1.7057161  0.063128519   -3.2101609    1.5044448   423115 
 4197000    0.9664039   -3.2090313   -1.7047476  0.062101725   -3.2090313    1.5042837   423101 
 4198000   0.96487571    -3.208042   -1.7060908  0.065003808    -3.208042    1.5019511   423088 
 4199000   0.96659271     -3.20795   -1.7032799  0.065358096     -3.20795    1.5046701   423075 
 4200000   0.96521168    -3.207174    -1.704604  0.068340065    -3.207174      1.50257   423061 
 4201000   0.96730457   -3.2104829   -1.7046086  0.062669293   -3.2104829    1.5058743   423048 
 4202000    0.9658887   -3.2074362   -1.7037199  0.064591092   -3.2074362    1.5037163   423035 
 4203000   0.96670127   -3.2096304   -1.7045992   0.06195791   -3.2096304    1.5050312   423021 
 4204000   0.96620579   -3.2093625   -1.7050565   0.06098542   -3.2093625     1.504306   423008 
 4205000   0.96567803   -3.2074622   -1.7039316  0.065626926   -3.2074622    1.5035305   422995 
 4206000   0.96633253   -3.2080282   -1.7034289  0.064947744   -3.2080282    1.5045994   422981 
 4207000   0.96497706   -3.2066456   -1.7041105  0.061114065   -3.2066456     1.502535   422968 
 4208000   0.96740254   -3.2088442   -1.7024863   0.06233007   -3.2088442     1.506358   422955 
 4209000   0.96670551   -3.2084653   -1.7031429   0.06465748   -3.2084653    1.5053224   422941 
 4210000   0.96574062   -3.2079918   -1.7041256  0.062228149   -3.2079918    1.5038662   422928 
 4211000   0.96656642   -3.2093518   -1.7041534  0.064191229   -3.2093518    1.5051984   422915 
 4212000   0.96497295   -3.2071707    -1.704404  0.062894357   -3.2071707    1.5027667   422901 
 4213000   0.96517348   -3.2063852     -1.70326  0.061855084   -3.2063852    1.5031252   422888 
 4214000   0.96471899   -3.2052795   -1.7028159  0.064318773   -3.2052795    1.5024636   422875 
 4215000   0.96459476   -3.2045474   -1.7022276  0.063665464   -3.2045474    1.5023198   422861 
 4216000   0.96592144    -3.206068   -1.7016356  0.061775989    -3.206068    1.5044323   422848 
 4217000   0.96334166   -3.2047282   -1.7042678  0.061268345   -3.2047282    1.5004604   422835 
 4218000   0.96487067   -3.2073724   -1.7044807  0.055052556   -3.2073724    1.5028917   422821 
 4219000   0.96608719   -3.2081093   -1.7032765  0.061389881   -3.2081093    1.5048328   422808 
 4220000    0.9652474   -3.2060557   -1.7024847  0.068627244   -3.2060557     1.503571   422795 
 4221000   0.96542618   -3.2061358   -1.7022366  0.065793672   -3.2061358    1.5038992   422781 
 4222000    0.9631608    -3.204966   -1.7045495  0.062254156    -3.204966    1.5004165   422768 
 4223000   0.96528282   -3.2069249   -1.7031565  0.063689788   -3.2069249    1.5037684   422755 
 4224000   0.96514925   -3.2070682   -1.7034581  0.069001465   -3.2070682    1.5036101   422741 
 4225000   0.96607518   -3.2076674   -1.7025685  0.063261566   -3.2076674    1.5050989   422728 
 4226000   0.96505797    -3.206129   -1.7025686  0.061396847    -3.206129    1.5035604   422715 
 4227000   0.96606273   -3.2085086   -1.7033329  0.067088105   -3.2085086    1.5051756   422701 
 4228000    0.9652019   -3.2065099   -1.7026292  0.066061471   -3.2065099    1.5038807   422688 
 4229000   0.96685678   -3.2102228   -1.7037173  0.063517673   -3.2102228    1.5065055   422675 
 4230000   0.96477156   -3.2067619   -1.7034557   0.06760136   -3.2067619    1.5033062   422661 
 4231000   0.96504691   -3.2084168   -1.7046353  0.065344109   -3.2084168    1.5037815   422648 
 4232000   0.96355596   -3.2081954    -1.706691  0.060680134   -3.2081954    1.5015044   422635 
 4233000   0.96546781   -3.2093952   -1.7048618  0.068232488   -3.2093952    1.5045335   422621 
 4234000   0.96422139   -3.2091613   -1.7065239  0.061317902   -3.2091613    1.5026373   422608 
 4235000    0.9658607   -3.2130047   -1.7077663  0.060390725   -3.2130047    1.5052383   422595 
 4236000   0.96575698    -3.211637   -1.7065104  0.062495061    -3.211637    1.5051266   422581 
 4237000   0.96369377   -3.2087824   -1.7068251  0.060988098   -3.2087824    1.5019573   422568 
 4238000    0.9634685   -3.2088058   -1.7071534  0.065704623   -3.2088058    1.5016524   422555 
 4239000   0.96470212   -3.2093099    -1.705685  0.064370072   -3.2093099    1.5036249   422541 
 4240000   0.96411038   -3.2090818   -1.7063329  0.062429161   -3.2090818    1.5027488   422528 
 4241000   0.96580077   -3.2112575   -1.7058276  0.066575945   -3.2112575    1.5054299   422515 
 4242000   0.96463458   -3.2107586   -1.7070967  0.067328837   -3.2107586     1.503662   422501 
 4243000   0.96549129   -3.2105352   -1.7054915  0.064342456   -3.2105352    1.5050437   422488 
 4244000    0.9642404   -3.2085091   -1.7053691  0.065672196   -3.2085091      1.50314   422475 
 4245000   0.96774241   -3.2123565   -1.7037072  0.066770524   -3.2123565    1.5086493   422461 
 4246000   0.96618918   -3.2117164   -1.7054422  0.060503316   -3.2117164    1.5062742   422448 
 4247000   0.96583983   -3.2111473   -1.7053713  0.062208442   -3.2111473    1.5057759   422435 
 4248000   0.96522373   -3.2111066   -1.7062413   0.06553737   -3.2111066    1.5048653   422421 
 4249000   0.96423731   -3.2095008   -1.7061271  0.061758758   -3.2095008    1.5033736   422408 
 4250000   0.96366127   -3.2083987   -1.7058769  0.062164347   -3.2083987    1.5025218   422395 
 4251000   0.96372923   -3.2097136   -1.7070361  0.063249887   -3.2097136    1.5026775   422381 
 4252000   0.96302443   -3.2094675   -1.7078427  0.060582436   -3.2094675    1.5016248   422368 
 4253000   0.96360663   -3.2117274   -1.7091485  0.065979084   -3.2117274    1.5025788   422355 
 4254000   0.96301497   -3.2096859   -1.7079798  0.059796409   -3.2096859     1.501706   422341 
 4255000   0.96172004   -3.2087999    -1.709067  0.060372421   -3.2087999    1.4997329   422328 
 4256000    0.9634835   -3.2103242   -1.7077951  0.062175213   -3.2103242    1.5025291   422315 
 4257000   0.96157035   -3.2087055   -1.7091102  0.060037213   -3.2087055    1.4995954   422301 
 4258000   0.96179662   -3.2076745   -1.7076801  0.063841171   -3.2076745    1.4999944   422288 
 4259000   0.96320968   -3.2086713   -1.7064269  0.067079364   -3.2086713    1.5022444   422275 
 4260000   0.96310314   -3.2084252   -1.7062971  0.064340295   -3.2084252    1.5021281   422261 
 4261000   0.96324843   -3.2097235   -1.7073226  0.062529005   -3.2097235    1.5024009   422248 
 4262000   0.96395283   -3.2105643   -1.7070185  0.062733954   -3.2105643    1.5035459   422235 
 4263000   0.96480786   -3.2118421   -1.7069127   0.06668561   -3.2118421    1.5049294   422221 
 4264000   0.96378922   -3.2099278    -1.706541  0.066587591   -3.2099278    1.5033868   422208 
 4265000   0.96368218   -3.2103221    -1.707056  0.065589002   -3.2103221    1.5032661   422195 
 4266000    0.9644753   -3.2095055   -1.7049522  0.066871075   -3.2095055    1.5045532   422181 
 4267000   0.96500989   -3.2106701   -1.7052366  0.071121046   -3.2106701    1.5054335   422168 
 4268000     0.963861   -3.2088854   -1.7051978  0.060195094   -3.2088854    1.5036875   422155 
 4269000   0.96447645   -3.2103467   -1.7056491  0.059650718   -3.2103467    1.5046976   422141 
 4270000   0.96427149   -3.2091968   -1.7047727  0.068040158   -3.2091968    1.5044242   422128 
 4271000   0.96314055   -3.2083292   -1.7056232  0.063758534   -3.2083292     1.502706   422115 
 4272000   0.96315482   -3.2088367   -1.7060586  0.062099873   -3.2088367    1.5027781   422101 
 4273000    0.9647476   -3.2119514   -1.7066418  0.061512203   -3.2119514    1.5053096   422088 
 4274000   0.96415931   -3.2101724   -1.7057344  0.062484602   -3.2101724     1.504438   422075 
 4275000   0.96418226   -3.2079911   -1.7034673   0.05796829   -3.2079911    1.5045237   422061 
 4276000   0.96423267   -3.2088934   -1.7042446  0.063701043   -3.2088934    1.5046487   422048 
 4277000   0.96346671   -3.2066749   -1.7031751  0.066117708   -3.2066749    1.5034998   422035 
 4278000   0.96568405   -3.2109123   -1.7039024  0.064477881   -3.2109123      1.50701   422021 
 4279000   0.96339955   -3.2079783   -1.7044871  0.063562918   -3.2079783    1.5034912   422008 
 4280000   0.96150216    -3.206363   -1.7057867  0.064354643    -3.206363    1.5005763   421995 
 4281000   0.96094684   -3.2067733   -1.7070139  0.056041908   -3.2067733    1.4997594   421981 
 4282000   0.96053552   -3.2064363   -1.7072726  0.061297361   -3.2064363    1.4991636   421968 
 4283000   0.96048977   -3.2055909   -1.7064524  0.061534853   -3.2055909    1.4991384   421955 
 4284000   0.96219598   -3.2092927   -1.7074413  0.058507008   -3.2092927    1.5018513   421941 
 4285000   0.96163179   -3.2066608   -1.7056438  0.059458907   -3.2066608    1.5010169   421928 
 4286000   0.96088041    -3.204475   -1.7045847   0.05965154    -3.204475    1.4998903   421915 
 4287000   0.96227991    -3.207973   -1.7058482  0.065512895    -3.207973    1.5021247   421901 
 4288000   0.96290157   -3.2071113   -1.7039699   0.05923776   -3.2071113    1.5031415   421888 
 4289000   0.96440764   -3.2066865   -1.7011476  0.065599974   -3.2066865    1.5055389   421875 
 4290000   0.96349097   -3.2051048    -1.700947  0.064337064   -3.2051048    1.5041578   421861 
 4291000   0.96338852   -3.2058851   -1.7018409   0.06400104   -3.2058851    1.5040442   421848 
 4292000   0.96344078   -3.2065026   -1.7023304  0.065799051   -3.2065026    1.5041722   421835 
 4293000   0.96351009   -3.2061732   -1.7018429  0.068183717   -3.2061732    1.5043303   421821 
 4294000   0.96235341   -3.2052469   -1.7026762  0.062433494   -3.2052469    1.5025707   421808 
 4295000   0.96192396   -3.2044582   -1.7025117  0.061409748   -3.2044582    1.5019464   421795 
 4296000   0.96192053    -3.205359    -1.703368  0.062355664    -3.205359    1.5019909   421781 
 4297000   0.96164165   -3.2048262   -1.7032245  0.065773639   -3.2048262    1.5016018   421768 
 4298000   0.96027997   -3.2056359   -1.7061142  0.057587042   -3.2056359    1.4995217   421755 
 4299000   0.96030732   -3.2057828   -1.7061686   0.05955878   -3.2057828    1.4996142   421741 
 4300000   0.95915314   -3.2040441   -1.7061861  0.058895296   -3.2040441     1.497858   421728 
 4301000   0.96051348   -3.2057672   -1.7057386  0.062210724   -3.2057672    1.5000286   421715 
 4302000   0.95997524   -3.2063675   -1.7071297  0.059923047   -3.2063675    1.4992378   421701 
 4303000   0.96155761   -3.2070217   -1.7052664  0.058462805   -3.2070217    1.5017554   421688 
 4304000   0.96122812   -3.2070534   -1.7057664  0.062200076   -3.2070534    1.5012871   421675 
 4305000   0.96146969   -3.2067433   -1.7050291  0.064811631   -3.2067433    1.5017142   421661 
 4306000   0.96139447   -3.2056949   -1.7040518  0.064817573   -3.2056949     1.501643   421648 
 4307000   0.96350252   -3.2083722   -1.7033901  0.057853278   -3.2083722    1.5049821   421635 
 4308000   0.96188324   -3.2057285   -1.7032258   0.06406297   -3.2057285    1.5025027   421621 
 4309000   0.96184929   -3.2052804   -1.7027845   0.06682535   -3.2052804     1.502496   421608 
 4310000   0.96410716    -3.208095   -1.7020256  0.063864103    -3.208095    1.5060694   421595 
 4311000   0.96395518   -3.2089001   -1.7030181  0.062576994   -3.2089001     1.505882   421581 
 4312000   0.96341472   -3.2078548   -1.7027707  0.064515403   -3.2078548    1.5050841   421568 
 4313000   0.96126664    -3.205977   -1.7042023  0.060252006    -3.205977    1.5017746   421555 
 4314000   0.95974613   -3.2043883   -1.7049393  0.062268311   -3.2043883    1.4994489   421541 
 4315000   0.96003859   -3.2057258   -1.7057737  0.060777367   -3.2057258    1.4999521   421528 
 4316000   0.95851823   -3.2048151   -1.7071922  0.058247168   -3.2048151    1.4976229   421515 
 4317000   0.95948724   -3.2062927   -1.7071059  0.060827825   -3.2062927    1.4991867   421501 
 4318000   0.96152021   -3.2085015    -1.706092   0.06171024   -3.2085015    1.5024095   421488 
 4319000   0.96340865   -3.2109527   -1.7055459  0.061172505   -3.2109527    1.5054067   421475 
 4320000   0.96078401   -3.2087998   -1.7074445  0.065790876   -3.2087998    1.5013554   421461 
 4321000   0.96195273   -3.2111316   -1.7079036  0.061170693   -3.2111316     1.503228   421448 
 4322000   0.96178856   -3.2110953   -1.7080775  0.064511982   -3.2110953    1.5030178   421435 
 4323000   0.96103688   -3.2107495   -1.7088564  0.064075849   -3.2107495    1.5018931   421421 
 4324000   0.96152542    -3.211624    -1.708921  0.064379877    -3.211624    1.5027029   421408 
 4325000   0.95976958   -3.2099236   -1.7099185  0.059446045   -3.2099236    1.5000051   421395 
 4326000   0.95976753    -3.210169   -1.7101173  0.060887575    -3.210169    1.5000517   421381 
 4327000   0.96041947   -3.2109927   -1.7098757  0.056930308   -3.2109927     1.501117   421368 
 4328000   0.96022524   -3.2113251   -1.7104654  0.062580655   -3.2113251    1.5008597   421355 
 4329000   0.96096097    -3.213287   -1.7112274  0.057954869    -3.213287    1.5020596   421341 
 4330000   0.95927686   -3.2100927   -1.7106193  0.064694233   -3.2100927    1.4994734   421328 
 4331000    0.9598625   -3.2122788   -1.7118437   0.06412414   -3.2122788    1.5004352   421315 
 4332000   0.96171897   -3.2142414   -1.7108543  0.065842065   -3.2142414    1.5033871   421301 
 4333000   0.96160012   -3.2148142   -1.7115664  0.063678008   -3.2148142    1.5032477   421288 
 4334000   0.96150754   -3.2151066   -1.7119572  0.063253287   -3.2151066    1.5031494   421275 
 4335000   0.96116305   -3.2128845   -1.7102237  0.067528813   -3.2128845    1.5026608   421261 
 4336000   0.96053361   -3.2120091   -1.7102861  0.069195309   -3.2120091     1.501723   421248 
 4337000   0.95990981   -3.2127428   -1.7119487  0.065234567   -3.2127428    1.5007941   421235 
 4338000   0.96086294   -3.2158148   -1.7134806  0.059224382   -3.2158148    1.5023342   421221 
 4339000   0.95877247   -3.2117372   -1.7126252  0.059009669   -3.2117372     1.499112   421208 
 4340000   0.95939956   -3.2133347   -1.7131959   0.06320235   -3.2133347    1.5001388   421195 
 4341000   0.95852822   -3.2127162     -1.71389  0.055947114   -3.2127162    1.4988262   421181 
 4342000   0.95964857   -3.2131473   -1.7125229  0.063511399   -3.2131473    1.5006243   421168 
 4343000   0.95921213   -3.2129125   -1.7129243  0.064064648   -3.2129125    1.4999882   421155 
 4344000   0.95896888   -3.2117852   -1.7121276  0.061469066   -3.2117852    1.4996576   421141 
 4345000   0.96091418   -3.2136125   -1.7108664  0.064499919   -3.2136125    1.5027461   421128 
 4346000   0.96053666   -3.2136338   -1.7114317  0.060608731   -3.2136338    1.5022021   421115 
 4347000   0.95939029   -3.2120828   -1.7116237  0.067815027   -3.2120828    1.5004592   421101 
 4348000   0.96114032   -3.2148321   -1.7115896  0.067709364   -3.2148321    1.5032426   421088 
 4349000    0.9608993   -3.2141477   -1.7112357  0.067162108   -3.2141477     1.502912   421075 
 4350000   0.95937607   -3.2132132   -1.7126337  0.062352719   -3.2132132    1.5005795   421061 
 4351000   0.95976908   -3.2127351   -1.7114946  0.065325434   -3.2127351    1.5012405   421048 
 4352000   0.96030885   -3.2138237   -1.7116925  0.060976766   -3.2138237    1.5021312   421035 
 4353000   0.95784508   -3.2106724   -1.7123452  0.062671333   -3.2106724    1.4983271   421021 
 4354000   0.96053147   -3.2146001   -1.7120243  0.058139899   -3.2146001    1.5025758   421008 
 4355000   0.95914096   -3.2126478   -1.7122009  0.060604021   -3.2126478    1.5004469   420995 
 4356000   0.95860705   -3.2117965    -1.712135  0.064372398   -3.2117965    1.4996615   420981 
 4357000   0.95874087   -3.2114289   -1.7115117    0.0663488   -3.2114289    1.4999172   420968 
 4358000   0.95931356   -3.2132947   -1.7124352  0.062687301   -3.2132947    1.5008595   420955 
 4359000   0.95972177    -3.213719   -1.7121709  0.064021514    -3.213719    1.5015481   420941 
 4360000   0.96059813   -3.2135934   -1.7106277  0.063151009   -3.2135934    1.5029656   420928 
 4361000   0.96083606   -3.2137962   -1.7104118  0.063557226   -3.2137962    1.5033843   420915 
 4362000     0.959756   -3.2129937   -1.7112493  0.066390038   -3.2129937    1.5017444   420901 
 4363000   0.96098368   -3.2150855   -1.7113737  0.060367305   -3.2150855    1.5037118   420888 
 4364000     0.959389   -3.2118249   -1.7105621  0.065828823   -3.2118249    1.5012628   420875 
 4365000   0.96017653   -3.2135383   -1.7109931  0.061729234   -3.2135383    1.5025452   420861 
 4366000   0.95878638   -3.2112316   -1.7108155  0.063203601   -3.2112316    1.5004161   420848 
 4367000   0.95784916   -3.2095295   -1.7105337  0.062585315   -3.2095295    1.4989957   420835 
 4368000   0.95943901   -3.2118287   -1.7102949  0.055583111   -3.2118287    1.5015338   420821 
 4369000   0.95768393   -3.2109422   -1.7121089  0.061547597   -3.2109422    1.4988333   420808 
 4370000   0.95903571   -3.2121967   -1.7112014  0.058569595   -3.2121967    1.5009953   420795 
 4371000   0.95933511   -3.2125192   -1.7110053  0.058353982   -3.2125192    1.5015139   420781 
 4372000   0.95642039   -3.2094437   -1.7124456  0.062068605   -3.2094437    1.4969981   420768 
 4373000   0.95721108   -3.2116399   -1.7133579  0.057078918   -3.2116399     1.498282   420755 
 4374000   0.95865705     -3.21334   -1.7127448   0.05610284     -3.21334    1.5005953   420741 
 4375000    0.9588476   -3.2127533   -1.7118134  0.062828877   -3.2127533    1.5009399   420728 
 4376000   0.95957393   -3.2123838   -1.7102605  0.064346729   -3.2123838    1.5021233   420715 
 4377000   0.95993489    -3.213415   -1.7106766  0.066705146    -3.213415    1.5027383   420701 
 4378000   0.96010155   -3.2135836    -1.710538  0.066674041   -3.2135836    1.5030457   420688 
 4379000   0.95881626   -3.2114745   -1.7103946  0.061675473   -3.2114745    1.5010799   420675 
 4380000   0.95891601   -3.2128064   -1.7115203   0.06693816   -3.2128064    1.5012861   420661 
 4381000   0.95888542   -3.2130545     -1.71177  0.061463608   -3.2130545    1.5012846   420648 
 4382000   0.96125494    -3.215988   -1.7109471   0.06123762    -3.215988    1.5050409   420635 
 4383000   0.95907988   -3.2145346   -1.7128492  0.064955974   -3.2145346    1.5016854   420621 
 4384000   0.95939891   -3.2139245   -1.7116932  0.061998094   -3.2139245    1.5022314   420608 
 4385000   0.95911027   -3.2140501   -1.7122243  0.060497036   -3.2140501    1.5018258   420595 
 4386000   0.95814539   -3.2138461   -1.7134812   0.05867095   -3.2138461    1.5003649   420581 
 4387000   0.95927049   -3.2154588   -1.7132856  0.060564439   -3.2154588    1.5021731   420568 
 4388000   0.95679904   -3.2120246   -1.7136753  0.061210937   -3.2120246    1.4983493   420555 
 4389000   0.95737734   -3.2135207   -1.7142159  0.063381423   -3.2135207    1.4993048   420541 
 4390000   0.95671494   -3.2126526   -1.7143388  0.057234355   -3.2126526    1.4983138   420528 
 4391000   0.95947993   -3.2172131   -1.7145226  0.057752222   -3.2172131    1.5026905   420515 
 4392000   0.95903198   -3.2160147   -1.7139758  0.060262679   -3.2160147    1.5020389   420501 
 4393000   0.96002931   -3.2180442   -1.7143968   0.06075228   -3.2180442    1.5036474   420488 
 4394000   0.95799804   -3.2152304    -1.714718  0.063985077   -3.2152304    1.5005123   420475 
 4395000   0.95826992   -3.2161736   -1.7151855  0.065771134   -3.2161736    1.5009882   420461 
 4396000   0.95754765   -3.2144077   -1.7145044  0.064702345   -3.2144077    1.4999032   420448 
 4397000   0.95793099   -3.2159187   -1.7153686  0.064949461   -3.2159187    1.5005501   420435 
 4398000   0.95889759   -3.2184378   -1.7163236  0.058768628   -3.2184378    1.5021142   420421 
 4399000     0.958297   -3.2173085   -1.7160887  0.064156875   -3.2173085    1.5012198   420408 
 4400000   0.95853796   -3.2176857    -1.716042    0.0583196   -3.2176857    1.5016437   420395 
 4401000   0.95688887   -3.2157076   -1.7165975  0.066737418   -3.2157076    1.4991102   420381 
 4402000   0.95766946    -3.217136   -1.7167565  0.062519349    -3.217136    1.5003795   420368 
 4403000   0.95937348   -3.2181147    -1.715019  0.062856813   -3.2181147    1.5030957   420355 
 4404000    0.9581645   -3.2177543   -1.7165028  0.065403066   -3.2177543    1.5012515   420341 
 4405000   0.95780423   -3.2159243   -1.7151909  0.064146286   -3.2159243    1.5007334   420328 
 4406000   0.95755579   -3.2163719   -1.7159813  0.063534483   -3.2163719    1.5003906   420315 
 4407000   0.95743395   -3.2190048   -1.7187551  0.058429416   -3.2190048    1.5002496   420301 
 4408000   0.95572042   -3.2159608   -1.7183498  0.064079212   -3.2159608     1.497611   420288 
 4409000   0.95809912   -3.2199322   -1.7185474    0.0624063   -3.2199322    1.5013848   420275 
 4410000    0.9567475   -3.2183142   -1.7189975  0.056510582   -3.2183142    1.4993167   420261 
 4411000   0.95852576   -3.2199996   -1.7178497  0.060226325   -3.2199996    1.5021499   420248 
 4412000   0.95759662   -3.2180322   -1.7172921  0.056939796   -3.2180322    1.5007402   420235 
 4413000   0.95683933   -3.2164663   -1.7168629   0.05874137   -3.2164663    1.4996033   420221 
 4414000    0.9570208   -3.2172873   -1.7173532  0.061386475   -3.2172873    1.4999341   420208 
 4415000   0.95771791   -3.2191735   -1.7181004  0.063004784   -3.2191735    1.5010732   420195 
 4416000   0.95690795   -3.2164343   -1.7165807  0.071446304   -3.2164343    1.4998536   420181 
 4417000   0.95730821   -3.2179869   -1.7174594  0.064606495   -3.2179869    1.5005274   420168 
 4418000   0.95843245   -3.2199388   -1.7176027  0.062665353   -3.2199388    1.5023361   420155 
 4419000   0.95715473   -3.2179459   -1.7175626  0.063702649   -3.2179459    1.5003833   420141 
 4420000   0.95602847   -3.2160157   -1.7173515  0.067171296   -3.2160157    1.4986642   420128 
 4421000   0.95604281   -3.2163987   -1.7176657  0.063079887   -3.2163987     1.498733   420115 
 4422000   0.95793224   -3.2195924   -1.7178473  0.062047823   -3.2195924     1.501745   420101 
 4423000   0.95683037   -3.2182647   -1.7182006  0.061884248   -3.2182647    1.5000641   420088 
 4424000   0.95715515   -3.2189671   -1.7183474  0.065726126   -3.2189671    1.5006197   420075 
 4425000   0.95758824   -3.2192601   -1.7179114  0.059991024   -3.2192601    1.5013487   420061 
 4426000    0.9583147   -3.2204398   -1.7179056   0.06194618   -3.2204398    1.5025342   420048 
 4427000   0.95876702   -3.2211627   -1.7178728  0.063092111   -3.2211627    1.5032899   420035 
 4428000   0.95860468   -3.2195712   -1.7164857  0.063719404   -3.2195712    1.5030855   420021 
 4429000   0.95784672   -3.2187858   -1.7168423  0.062474995   -3.2187858    1.5019435   420008 
 4430000   0.95868181   -3.2185613   -1.7152619  0.064813187   -3.2185613    1.5032994   419995 
 4431000   0.95758177   -3.2183373   -1.7167128  0.063402338   -3.2183373    1.5016246   419981 
 4432000    0.9573843   -3.2178023   -1.7164409  0.061183079   -3.2178023    1.5013614   419968 
 4433000   0.95681118   -3.2168151   -1.7163061   0.05949672   -3.2168151     1.500509   419955 
 4434000   0.95539157   -3.2153907   -1.7170579  0.062445868   -3.2153907    1.4983327   419941 
 4435000   0.95584297   -3.2162631    -1.717176  0.065729054   -3.2162631     1.499087   419928 
 4436000    0.9555474   -3.2162532   -1.7175834  0.064390961   -3.2162532    1.4986699   419915 
 4437000   0.95590604    -3.216242   -1.7169596   0.06000146    -3.216242    1.4992824   419901 
 4438000   0.95511255   -3.2145857   -1.7165015  0.057292139   -3.2145857    1.4980842   419888 
 4439000   0.95701299   -3.2170831   -1.7159717  0.062764177   -3.2170831    1.5011115   419875 
 4440000   0.95566833   -3.2156991   -1.7166468  0.060472757   -3.2156991    1.4990523   419861 
 4441000    0.9555706   -3.2143283   -1.7153829  0.059385037   -3.2143283    1.4989454   419848 
 4442000    0.9553401   -3.2134846   -1.7148544  0.060511162   -3.2134846    1.4986303   419835 
 4443000   0.95677306   -3.2167314   -1.7158032  0.058855399   -3.2167314    1.5009282   419821 
 4444000    0.9545594    -3.213445   -1.7159431  0.067474489    -3.213445    1.4975019   419808 
 4445000   0.95555807   -3.2138761   -1.7147611  0.068682845   -3.2138761     1.499115   419795 
 4446000   0.95433591   -3.2124148   -1.7151672  0.055631844   -3.2124148    1.4972476   419781 
 4447000   0.95483956   -3.2134251    -1.715341    0.0545789   -3.2134251    1.4980841   419768 
 4448000   0.95560896   -3.2152563   -1.7159186  0.058819824   -3.2152563    1.4993377   419755 
 4449000   0.95741736    -3.215772   -1.7135468  0.061163566    -3.215772    1.5022252   419741 
 4450000   0.95594493   -3.2142496   -1.7142883  0.058168748   -3.2142496    1.4999613   419728 
 4451000   0.95598528   -3.2143232   -1.7142521  0.060030175   -3.2143232    1.5000711   419715 
 4452000   0.95579651   -3.2140442   -1.7142193  0.062846232   -3.2140442    1.4998249   419701 
 4453000   0.95491062   -3.2130963   -1.7146151  0.062882367   -3.2130963    1.4984812   419688 
 4454000   0.95594822   -3.2146382   -1.7144823  0.062698392   -3.2146382    1.5001559   419675 
 4455000    0.9552994   -3.2138013   -1.7146136  0.061335772   -3.2138013    1.4991877   419661 
 4456000   0.95537242   -3.2136313   -1.7142825  0.060138045   -3.2136313    1.4993488   419648 
 4457000   0.95554148   -3.2150467   -1.7153861  0.059535623   -3.2150467    1.4996606   419635 
 4458000   0.95645375   -3.2152206   -1.7140782  0.056212139   -3.2152206    1.5011424   419621 
 4459000   0.95541856   -3.2147686   -1.7152044  0.057178123   -3.2147686    1.4995641   419608 
 4460000   0.95523772   -3.2153586   -1.7160319  0.056855869   -3.2153586    1.4993268   419595 
 4461000   0.95478265   -3.2153568   -1.7166943  0.064366199   -3.2153568    1.4986625   419581 
 4462000   0.95503564   -3.2151331   -1.7160271  0.061499848   -3.2151331     1.499106   419568 
 4463000   0.95394896   -3.2136849   -1.7162382  0.061463858   -3.2136849    1.4974467   419555 
 4464000   0.95500303   -3.2150797   -1.7159283  0.059576621   -3.2150797    1.4991513   419541 
 4465000   0.95539116   -3.2153107   -1.7155036  0.066109381   -3.2153107    1.4998071   419528 
 4466000   0.95639053   -3.2170863   -1.7156639  0.061485029   -3.2170863    1.5014225   419515 
 4467000    0.9572137   -3.2186764   -1.7159115  0.056192007   -3.2186764    1.5027649   419501 
 4468000   0.95472814   -3.2147414   -1.7158323  0.058506211   -3.2147414    1.4989092   419488 
 4469000   0.95511722   -3.2149908   -1.7154243  0.062824113   -3.2149908    1.4995665   419475 
 4470000   0.95606428   -3.2173786   -1.7162751  0.061405925   -3.2173786    1.5011035   419461 
 4471000   0.95585505   -3.2166414   -1.7158199  0.064308661   -3.2166414    1.5008215   419448 
 4472000   0.95611075   -3.2184592   -1.7171896  0.060776311   -3.2184592    1.5012695   419435 
 4473000   0.95550442   -3.2168814   -1.7165139  0.063297417   -3.2168814    1.5003675   419421 
 4474000   0.95465179   -3.2147537   -1.7156785   0.06402666   -3.2147537    1.4990752   419408 
 4475000   0.95545693   -3.2155804   -1.7151944  0.058844202   -3.2155804     1.500386   419395 
 4476000   0.95396727    -3.214945   -1.7168483  0.061489157    -3.214945    1.4980967   419381 
 4477000    0.9541412   -3.2160011   -1.7175848  0.064362608   -3.2160011    1.4984163   419368 
 4478000    0.9556805   -3.2174224   -1.7165422  0.063797899   -3.2174224    1.5008802   419355 
 4479000   0.95558102    -3.217033   -1.7162589  0.059518237    -3.217033    1.5007741   419341 
 4480000   0.95532449   -3.2164882   -1.7160704  0.063910111   -3.2164882    1.5004177   419328 
 4481000   0.95570567    -3.218339   -1.7172761  0.057553964    -3.218339    1.5010629   419315 
 4482000   0.95502425   -3.2165357    -1.716493    0.0625268   -3.2165357    1.5000427   419301 
 4483000   0.95557062   -3.2178203   -1.7168728  0.060361493   -3.2178203    1.5009475   419288 
 4484000   0.95666622   -3.2174905   -1.7147756  0.066287949   -3.2174905    1.5027149   419275 
 4485000    0.9569275   -3.2170556     -1.71388  0.060552436   -3.2170556    1.5031755   419261 
 4486000   0.95536462   -3.2162107   -1.7154437  0.060787868   -3.2162107     1.500767   419248 
 4487000   0.95658789   -3.2176396   -1.7149043  0.062144375   -3.2176396    1.5027353   419235 
 4488000   0.95614478   -3.2169422   -1.7148528  0.064265158   -3.2169422    1.5020893   419221 
 4489000   0.95526573    -3.216294   -1.7155391  0.059208758    -3.216294    1.5007549   419208 
 4490000   0.95394979   -3.2156901   -1.7169561  0.070191452   -3.2156901     1.498734   419195 
 4491000   0.95395381   -3.2162232   -1.7174329  0.063385128   -3.2162232    1.4987904   419181 
 4492000   0.95321056   -3.2156731   -1.7180041  0.064088721   -3.2156731    1.4976691   419168 
 4493000   0.95319608    -3.216895   -1.7192023  0.055932815    -3.216895    1.4976928   419155 
 4494000   0.95319279   -3.2159774   -1.7182398  0.059860416   -3.2159774    1.4977376   419141 
 4495000     0.953449   -3.2162161   -1.7180295   0.05686298   -3.2162161    1.4981866   419128 
 4496000   0.95388858   -3.2174961   -1.7185722  0.054214988   -3.2174961    1.4989239   419115 
 4497000   0.95374611   -3.2160977   -1.7173477  0.058759848   -3.2160977    1.4987501   419101 
 4498000    0.9547337   -3.2172545    -1.716906  0.058317697   -3.2172545    1.5003485   419088 
 4499000   0.95303569   -3.2150499   -1.7173233  0.064216988   -3.2150499    1.4977266   419075 
 4500000   0.95359123     -3.21601   -1.7173603  0.060943122     -3.21601    1.4986497   419061 
 4501000   0.95400457     -3.21736   -1.7180142  0.053646344     -3.21736    1.4993458   419048 
 4502000   0.95375996   -3.2159334   -1.7169255  0.063577794   -3.2159334    1.4990079   419035 
 4503000   0.95362041   -3.2154335   -1.7165949  0.056672274   -3.2154335    1.4988386   419021 
 4504000   0.95337485   -3.2157008   -1.7172016  0.059873657   -3.2157008    1.4984992   419008 
 4505000     0.954397   -3.2159547   -1.7158024  0.060745961   -3.2159547    1.5001523   418995 
 4506000   0.95466261   -3.2168403   -1.7162204  0.061300199   -3.2168403    1.5006199   418981 
 4507000   0.95519621   -3.2163533    -1.714848  0.068016414   -3.2163533    1.5015053   418968 
 4508000   0.95521508   -3.2173447   -1.7157631  0.062363601   -3.2173447    1.5015816   418955 
 4509000   0.95593347   -3.2181125   -1.7153514  0.063506757   -3.2181125    1.5027611   418941 
 4510000   0.95550188   -3.2184472    -1.716318  0.064783534   -3.2184472    1.5021292   418928 
 4511000   0.95510375   -3.2174678   -1.7159179   0.06616987   -3.2174678    1.5015499   418915 
 4512000   0.95544096   -3.2181429   -1.7160127  0.065378202   -3.2181429    1.5021302   418901 
 4513000   0.95373637   -3.2148161   -1.7153193   0.06129283   -3.2148161    1.4994968   418888 
 4514000   0.95481298   -3.2181651    -1.716929  0.062558054   -3.2181651    1.5012361   418875 
 4515000   0.95359348   -3.2161873   -1.7168185  0.063643089   -3.2161873    1.4993688   418861 
 4516000   0.95481122   -3.2175243   -1.7161942  0.063702954   -3.2175243    1.5013301   418848 
 4517000   0.95387236   -3.2157633   -1.7158628  0.063247435   -3.2157633    1.4999004   418835 
 4518000   0.95360461   -3.2145786   -1.7150491  0.065880311   -3.2145786    1.4995295   418821 
 4519000   0.95377367   -3.2160984   -1.7162565  0.061088227   -3.2160984    1.4998419   418808 
 4520000   0.95331706   -3.2153256   -1.7161552  0.063445744   -3.2153256    1.4991704   418795 
 4521000   0.95501726   -3.2172011   -1.7153067  0.059189697   -3.2172011    1.5018944   418781 
 4522000   0.95363225   -3.2153869   -1.7156241  0.059874041   -3.2153869    1.4997628   418768 
 4523000   0.95311686   -3.2137206   -1.7147218  0.062036038   -3.2137206    1.4989988   418755 
 4524000   0.95495863   -3.2165541   -1.7146085   0.06121989   -3.2165541    1.5019456   418741 
 4525000    0.9544159   -3.2146108   -1.7134722  0.068324187   -3.2146108    1.5011386   418728 
 4526000   0.95317534   -3.2158029   -1.7165689  0.057703969   -3.2158029     1.499234   418715 
 4527000   0.95339312   -3.2157178   -1.7160912  0.060351482   -3.2157178    1.4996266   418701 
 4528000   0.95333849   -3.2159892   -1.7164019   0.06106161   -3.2159892    1.4995873   418688 
 4529000   0.95368295   -3.2153903   -1.7152146  0.059762668   -3.2153903    1.5001757   418675 
 4530000    0.9533378   -3.2159661   -1.7162832  0.063008892   -3.2159661    1.4996829   418661 
 4531000   0.95276265   -3.2147566   -1.7159319  0.065077509   -3.2147566    1.4988247   418648 
 4532000   0.95382811   -3.2162671   -1.7157197  0.059947311   -3.2162671    1.5005474   418635 
 4533000   0.95399456   -3.2163066   -1.7154471  0.055685819   -3.2163066    1.5008594   418621 
 4534000   0.95262116   -3.2133812   -1.7146359  0.060641837   -3.2133812    1.4987453   418608 
 4535000     0.952598   -3.2141476   -1.7153922  0.063957674   -3.2141476    1.4987554   418595 
 4536000   0.95282282   -3.2143402   -1.7151809  0.062328368   -3.2143402    1.4991593   418581 
 4537000   0.95449315   -3.2156318   -1.7137978  0.063722612   -3.2156318     1.501834   418568 
 4538000   0.95402856   -3.2169826    -1.715833  0.064121863   -3.2169826    1.5011496   418555 
 4539000   0.95225807   -3.2140496   -1.7156357  0.066540033   -3.2140496    1.4984139   418541 
 4540000   0.95311074   -3.2142137   -1.7144115  0.058487427   -3.2142137    1.4998022   418528 
 4541000   0.95368496    -3.213692   -1.7129396  0.061683695    -3.213692    1.5007524   418515 
 4542000   0.95380654   -3.2142332   -1.7132393  0.061422116   -3.2142332    1.5009939   418501 
 4543000   0.95431074   -3.2157964   -1.7139624  0.063068042   -3.2157964     1.501834   418488 
 4544000   0.95283972   -3.2145126    -1.714947  0.061403682   -3.2145126    1.4995656   418475 
 4545000   0.95381567   -3.2162511   -1.7150993  0.060426806   -3.2162511    1.5011517   418461 
 4546000   0.95092965   -3.2138801    -1.717224   0.06545409   -3.2138801    1.4966561   418448 
 4547000   0.95136304   -3.2153173   -1.7179326  0.061463623   -3.2153173    1.4973847   418435 
 4548000   0.95256489   -3.2172134   -1.7178869  0.054037214   -3.2172134    1.4993265   418421 
 4549000   0.95383169   -3.2176167   -1.7162496  0.062582878   -3.2176167    1.5013671   418408 
 4550000   0.95352549   -3.2161708    -1.715239  0.057798821   -3.2161708    1.5009318   418395 
 4551000   0.95257769    -3.215515    -1.716025  0.060739874    -3.215515      1.49949   418381 
 4552000   0.95284961   -3.2153677    -1.715403  0.061813892   -3.2153677    1.4999647   418368 
 4553000   0.95473157   -3.2176178   -1.7146438  0.067069547   -3.2176178     1.502974   418355 
 4554000   0.95319485   -3.2160263   -1.7154213  0.063381548   -3.2160263     1.500605   418341 
 4555000     0.954305   -3.2182616   -1.7158622  0.060740868   -3.2182616    1.5023994   418328 
 4556000   0.95534043   -3.2189928   -1.7149165  0.061588033   -3.2189928    1.5040762   418315 
 4557000   0.95498385   -3.2175273   -1.7139622  0.063518472   -3.2175273    1.5035652   418301 
 4558000   0.95567786   -3.2203365   -1.7156319  0.065777897   -3.2203365    1.5047046   418288 
 4559000   0.95479616   -3.2179534   -1.7145903  0.066695554   -3.2179534    1.5033631   418275 
 4560000   0.95286635   -3.2162923   -1.7159175  0.063402386   -3.2162923    1.5003748   418261 
 4561000   0.95280094   -3.2160974   -1.7157791  0.059684928   -3.2160974    1.5003184   418248 
 4562000   0.95275387   -3.2157424   -1.7154515    0.0638695   -3.2157424    1.5002909   418235 
 4563000   0.95249752   -3.2147186   -1.7147811  0.063095227   -3.2147186    1.4999375   418221 
 4564000   0.95126041   -3.2145907   -1.7165548  0.064957653   -3.2145907    1.4980359   418208 
 4565000   0.95224423   -3.2172401   -1.7176083  0.063864788   -3.2172401    1.4996318   418195 
 4566000   0.95281235   -3.2191354   -1.7185586  0.051656637   -3.2191354    1.5005768   418181 
 4567000   0.95066079   -3.2153291   -1.7180942  0.059550796   -3.2153291    1.4972348   418168 
 4568000   0.95093153    -3.215817   -1.7181093  0.064060355    -3.215817    1.4977078   418155 
 4569000    0.9524475   -3.2190912   -1.7189455  0.061285258   -3.2190912    1.5001456   418141 
 4570000   0.95284123   -3.2185374    -1.717725  0.059279828   -3.2185374    1.5008124   418128 
 4571000   0.95300504   -3.2173634   -1.7162462  0.066990641   -3.2173634    1.5011171   418115 
 4572000    0.9514374   -3.2165098   -1.7178117  0.060679963   -3.2165098    1.4986981   418101 
 4573000   0.95158224   -3.2178796   -1.7189067  0.061142193   -3.2178796    1.4989728   418088 
 4574000    0.9523157   -3.2187365   -1.7185617  0.059243606   -3.2187365    1.5001748   418075 
 4575000   0.95435995   -3.2215001   -1.7180547  0.063572357   -3.2215001    1.5034455   418061 
 4576000   0.95269443   -3.2191799   -1.7183115  0.060383947   -3.2191799    1.5008684   418048 
 4577000   0.95170668   -3.2182006   -1.7188417  0.066402731   -3.2182006    1.4993589   418035 
 4578000   0.95222923   -3.2176877   -1.7174553  0.060867389   -3.2176877    1.5002324   418021 
 4579000   0.95368372   -3.2190935   -1.7165228  0.057831217   -3.2190935    1.5025707   418008 
 4580000   0.95124802   -3.2158547    -1.717075   0.06110985   -3.2158547    1.4987797   417995 
 4581000   0.95077566   -3.2157104   -1.7176248  0.060233831   -3.2157104    1.4980857   417981 
 4582000   0.95253335   -3.2175562   -1.7166544  0.059685993   -3.2175562    1.5009018   417968 
 4583000   0.95345231   -3.2188084   -1.7164119  0.061021971   -3.2188084    1.5023966   417955 
 4584000   0.95442445   -3.2211992   -1.7172204  0.060948336   -3.2211992    1.5039788   417941 
 4585000   0.95365409   -3.2204947   -1.7176831  0.062404341   -3.2204947    1.5028116   417928 
 4586000   0.95400915   -3.2204783   -1.7170605  0.061134762   -3.2204783    1.5034179   417915 
 4587000   0.95327675   -3.2184692   -1.7161552  0.063508769   -3.2184692     1.502314   417901 
 4588000   0.95197078   -3.2176618   -1.7173592    0.0635958   -3.2176618    1.5003026   417888 
 4589000   0.95343171   -3.2196603   -1.7170086  0.058938657   -3.2196603    1.5026517   417875 
 4590000   0.95220972   -3.2163547   -1.7155786  0.064795845   -3.2163547    1.5007761   417861 
 4591000   0.95155897   -3.2178988   -1.7181017  0.062382291   -3.2178988    1.4997971   417848 
 4592000   0.95104847   -3.2173574   -1.7183183  0.061647518   -3.2173574    1.4990391   417835 
 4593000    0.9490406   -3.2157423   -1.7198178  0.062828576   -3.2157423    1.4959245   417821 
 4594000   0.94929952   -3.2168493   -1.7204701  0.061337292   -3.2168493    1.4963791   417808 
 4595000   0.95027451   -3.2183421   -1.7203795  0.058401728   -3.2183421    1.4979626   417795 
 4596000   0.94799763   -3.2155768   -1.7211532  0.058737921   -3.2155768    1.4944235   417781 
 4597000   0.95008072    -3.218598   -1.7208441  0.051229667    -3.218598    1.4977539   417768 
 4598000   0.94992687   -3.2179879     -1.72043  0.059380493   -3.2179879     1.497558   417755 
 4599000   0.94844243   -3.2153962   -1.7201283  0.060360028   -3.2153962    1.4952679   417741 
 4600000   0.95027737   -3.2184394    -1.720232  0.057696479   -3.2184394    1.4982074   417728 
 4601000   0.94959411   -3.2177257    -1.720549  0.061687274   -3.2177257    1.4971767   417715 
 4602000   0.94855472   -3.2150073   -1.7194192  0.062825475   -3.2150073    1.4955881   417701 
 4603000   0.95052957    -3.216789   -1.7180405   0.05981664    -3.216789    1.4987485   417688 
 4604000   0.94978729   -3.2156815   -1.7180568  0.061870056   -3.2156815    1.4976247   417675 
 4605000   0.95026387   -3.2182985   -1.7198721  0.063875865   -3.2182985    1.4984264   417661 
 4606000   0.95096524    -3.219931   -1.7203519  0.060662118    -3.219931    1.4995791   417648 
 4607000   0.95128467   -3.2203804   -1.7202509    0.0601281   -3.2203804    1.5001295   417635 
 4608000   0.95175076   -3.2212798    -1.720365  0.063953421   -3.2212798    1.5009148   417621 
 4609000   0.95274308   -3.2223072   -1.7197808  0.067221946   -3.2223072    1.5025265   417608 
 4610000   0.95135807   -3.2190283   -1.7186394  0.062381348   -3.2190283    1.5003889   417595 
 4611000   0.95182631   -3.2205286   -1.7193508  0.069062719   -3.2205286    1.5011777   417581 
 4612000   0.95184447    -3.221465   -1.7202119    0.0618266    -3.221465    1.5012531   417568 
 4613000   0.95056064   -3.2218586   -1.7225837  0.065116753   -3.2218586    1.4992749   417555 
 4614000   0.95010699    -3.220236   -1.7216263  0.065283679    -3.220236    1.4986096   417541 
 4615000    0.9510042   -3.2219193   -1.7218478  0.064064577   -3.2219193    1.5000715   417528 
 4616000   0.95163977   -3.2243242   -1.7232035  0.060124127   -3.2243242    1.5011208   417515 
 4617000   0.94972918    -3.222154   -1.7239967  0.063720728    -3.222154    1.4981572   417501 
 4618000   0.95046023   -3.2234102    -1.724053  0.065748766   -3.2234102    1.4993571   417488 
 4619000   0.94986948   -3.2205257   -1.7220538  0.061218282   -3.2205257    1.4984719   417475 
 4620000   0.94929103    -3.220691   -1.7230814  0.068324129    -3.220691    1.4976096   417461 
 4621000   0.94961313   -3.2195347   -1.7213704  0.067601635   -3.2195347    1.4981644   417448 
 4622000   0.95012674   -3.2218461   -1.7228247  0.065487256   -3.2218461    1.4990213   417435 
 4623000   0.94910804   -3.2222117   -1.7247473  0.061247663   -3.2222117    1.4974643   417421 
 4624000   0.94949192   -3.2208177    -1.722701   0.06440565   -3.2208177    1.4981167   417408 
 4625000   0.95079619   -3.2242152   -1.7239939  0.064540304   -3.2242152    1.5002213   417395 
 4626000    0.9497737   -3.2220348   -1.7233766  0.064311253   -3.2220348    1.4986582   417381 
 4627000   0.95053182   -3.2229562    -1.723055  0.058242943   -3.2229562    1.4999012   417368 
 4628000   0.94960699    -3.221572   -1.7230835  0.061238806    -3.221572    1.4984885   417355 
 4629000   0.94839806    -3.219766    -1.723135  0.059517578    -3.219766     1.496631   417341 
 4630000   0.94970681   -3.2217988   -1.7230558  0.059430186   -3.2217988     1.498743   417328 
 4631000   0.94957379   -3.2235607    -1.724981  0.062661491   -3.2235607    1.4985797   417315 
 4632000   0.94879512    -3.221352   -1.7239509  0.059748079    -3.221352    1.4974011   417301 
 4633000   0.94741049   -3.2203124   -1.7250499  0.058350292   -3.2203124    1.4952624   417288 
 4634000   0.94905988   -3.2227092   -1.7247969   0.05746775   -3.2227092    1.4979123   417275 
 4635000   0.94883132   -3.2226638    -1.725062   0.06228289   -3.2226638    1.4976018   417261 
 4636000   0.94988789   -3.2257144   -1.7263982  0.056853933   -3.2257144    1.4993161   417248 
 4637000   0.94875728   -3.2231882   -1.7256099  0.064249309   -3.2231882    1.4975782   417235 
 4638000   0.94812705    -3.223249   -1.7266153  0.064371324    -3.223249    1.4966337   417221 
 4639000   0.94796284    -3.223048   -1.7266269   0.05945684    -3.223048    1.4964211   417208 
 4640000   0.94852436   -3.2226168   -1.7252626  0.061475876   -3.2226168    1.4973541   417195 
 4641000   0.94930264   -3.2242585   -1.7256255  0.063217301   -3.2242585     1.498633   417181 
 4642000   0.95052367   -3.2248925   -1.7242851  0.065251698   -3.2248925    1.5006074   417168 
 4643000   0.95023511   -3.2255159   -1.7253173  0.064305794   -3.2255159    1.5001986   417155 
 4644000   0.95087598   -3.2266355   -1.7253747  0.068470661   -3.2266355    1.5012608   417141 
 4645000   0.94875979     -3.22535   -1.7273836   0.06420382     -3.22535    1.4979664   417128 
 4646000   0.94992314   -3.2271169    -1.727267  0.061356988   -3.2271169    1.4998499   417115 
 4647000   0.94968202   -3.2270881   -1.7275686  0.066059575   -3.2270881    1.4995195   417101 
 4648000    0.9491925   -3.2247776   -1.7259844  0.067254197   -3.2247776    1.4987933   417088 
 4649000   0.94985143   -3.2265353   -1.7266549   0.05882438   -3.2265353    1.4998805   417075 
 4650000    0.9496407    -3.226064   -1.7264659  0.063557433    -3.226064    1.4995981   417061 
 4651000   0.94838059   -3.2248398   -1.7271849  0.059191369   -3.2248398    1.4976549   417048 
 4652000   0.94835808   -3.2250416   -1.7273756  0.063482679   -3.2250416     1.497666   417035 
 4653000   0.94797234   -3.2252088   -1.7281017   0.05946552   -3.2252088    1.4971071   417021 
 4654000   0.94702373   -3.2238696   -1.7282139  0.057503475   -3.2238696    1.4956556   417008 
 4655000   0.94919328   -3.2265953   -1.7274666   0.06203193   -3.2265953    1.4991288   416995 
 4656000   0.94901242   -3.2257032   -1.7268098  0.061667332   -3.2257032    1.4988935   416981 
 4657000   0.94786549   -3.2239597    -1.726831  0.061770034   -3.2239597    1.4971286   416968 
 4658000    0.9483153    -3.224547   -1.7266612  0.062591921    -3.224547    1.4978858   416955 
 4659000   0.94598669   -3.2212311   -1.7269733  0.064455462   -3.2212311    1.4942579   416941 
 4660000   0.94780597   -3.2240377   -1.7268594  0.051752847   -3.2240377    1.4971783   416928 
 4661000   0.94665966   -3.2217353   -1.7263212  0.059741154   -3.2217353    1.4954141   416915 
 4662000   0.94664273   -3.2202172   -1.7247796  0.061024161   -3.2202172    1.4954376   416901 
 4663000   0.94714251    -3.221154   -1.7248803  0.062483008    -3.221154    1.4962738   416888 
 4664000    0.9463643   -3.2219484   -1.7268574  0.056673677   -3.2219484     1.495091   416875 
 4665000   0.94741414   -3.2227818   -1.7259819  0.060286607   -3.2227818    1.4967998   416861 
 4666000   0.94782042   -3.2233981   -1.7259096   0.06117173   -3.2233981    1.4974884   416848 
 4667000   0.94827662   -3.2245504   -1.7262945  0.058906773   -3.2245504    1.4982559   416835 
 4668000   0.94821815    -3.223927   -1.7257132  0.055789622    -3.223927    1.4982138   416821 
 4669000   0.94699272   -3.2220695   -1.7257452  0.060613013   -3.2220695    1.4963243   416808 
 4670000   0.94640288   -3.2209158   -1.7254768  0.056922645   -3.2209158    1.4954389   416795 
 4671000   0.94584689    -3.220505   -1.7258944   0.05998411    -3.220505    1.4946106   416781 
 4672000   0.94696892   -3.2224271   -1.7259968   0.05837995   -3.2224271    1.4964303   416768 
 4673000   0.94709106   -3.2221644   -1.7254944   0.05618002   -3.2221644      1.49667   416755 
 4674000    0.9461286   -3.2215925   -1.7263932  0.057461586   -3.2215925    1.4951993   416741 
 4675000   0.94605898   -3.2227576   -1.7276218  0.053503515   -3.2227576    1.4951359   416728 
 4676000   0.94674357   -3.2219708   -1.7257064  0.056825529   -3.2219708    1.4962645   416715 
 4677000    0.9469756   -3.2237103   -1.7270288  0.059212581   -3.2237103    1.4966815   416701 
 4678000   0.94892139   -3.2246722   -1.7248687  0.058292029   -3.2246722    1.4998035   416688 
 4679000   0.94771161   -3.2225625   -1.7246244    0.0617393   -3.2225625    1.4979382   416675 
 4680000   0.94876496   -3.2237101   -1.7240566  0.061381583   -3.2237101    1.4996535   416661 
 4681000   0.94946298   -3.2247025   -1.7238989  0.064063182   -3.2247025    1.5008036   416648 
 4682000   0.94713933   -3.2218842   -1.7247068  0.061985567   -3.2218842    1.4971774   416635 
 4683000   0.94866824   -3.2252848   -1.7256402  0.059812666   -3.2252848    1.4996446   416621 
 4684000   0.94828319   -3.2244412   -1.7253585  0.060874171   -3.2244412    1.4990827   416608 
 4685000   0.94856605   -3.2261082   -1.7265316  0.058150371   -3.2261082    1.4995766   416595 
 4686000   0.94796922   -3.2246429   -1.7259595  0.059617842   -3.2246429    1.4986834   416581 
 4687000   0.94734794   -3.2238248   -1.7260768  0.063191515   -3.2238248     1.497748   416568 
 4688000    0.9463967   -3.2240549   -1.7277641  0.061369477   -3.2240549    1.4962908   416555 
 4689000   0.94589786   -3.2240698   -1.7285174   0.06064367   -3.2240698    1.4955523   416541 
 4690000   0.94644286   -3.2241631   -1.7277023  0.058897117   -3.2241631    1.4964608   416528 
 4691000   0.94614913   -3.2231933   -1.7271503  0.057491731   -3.2231933     1.496043   416515 
 4692000   0.94640472    -3.224032   -1.7275345  0.060805155    -3.224032    1.4964974   416501 
 4693000   0.94731814   -3.2258634   -1.7278748  0.055441108   -3.2258634    1.4979885   416488 
 4694000   0.94762988   -3.2260328   -1.7275045   0.05340596   -3.2260328    1.4985283   416475 
 4695000   0.94794711   -3.2263614   -1.7272811  0.059966291   -3.2263614    1.4990803   416461 
 4696000   0.94577059   -3.2238186   -1.7281336  0.065181714   -3.2238186    1.4956851   416448 
 4697000   0.94860094    -3.227178   -1.7269701  0.063441472    -3.227178    1.5002079   416435 
 4698000   0.94855138   -3.2274822   -1.7273022  0.062960497   -3.2274822      1.50018   416421 
 4699000   0.94686612   -3.2247067   -1.7271453   0.06542644   -3.2247067    1.4975614   416408 
 4700000   0.94761579   -3.2254497   -1.7266559   0.06042783   -3.2254497    1.4987939   416395 
 4701000   0.94698904   -3.2243868   -1.7265339   0.06643916   -3.2243868     1.497853   416381 
 4702000     0.947956   -3.2257442    -1.726315  0.062704027   -3.2257442    1.4994292   416368 
 4703000   0.94759254   -3.2247521    -1.725851  0.057202149   -3.2247521    1.4989011   416355 
 4704000   0.94720936   -3.2251415   -1.7267961  0.062821621   -3.2251415    1.4983454   416341 
 4705000   0.94686943   -3.2243953   -1.7265409  0.060934597   -3.2243953    1.4978544   416328 
 4706000   0.94609477   -3.2238152   -1.7271395  0.060460062   -3.2238152    1.4966757   416315 
 4707000   0.94562019   -3.2241686   -1.7281933  0.060009996   -3.2241686    1.4959753   416301 
 4708000   0.94551883   -3.2232297   -1.7273681  0.057884285   -3.2232297    1.4958616   416288 
 4709000   0.94622008    -3.223671   -1.7266532  0.062566591    -3.223671    1.4970178   416275 
 4710000   0.94600383   -3.2231868   -1.7264608  0.058116676   -3.2231868     1.496726   416261 
 4711000   0.94587634   -3.2239693   -1.7273983  0.059403732   -3.2239693     1.496571   416248 
 4712000   0.94529806   -3.2223146   -1.7266118  0.059856734   -3.2223146    1.4957028   416235 
 4713000   0.94507092   -3.2233037     -1.72791  0.060285251   -3.2233037    1.4953937   416221 
 4714000   0.94652506   -3.2243438   -1.7266024  0.062226864   -3.2243438    1.4977414   416208 
 4715000   0.94582296   -3.2255254   -1.7288483  0.061237929   -3.2255254    1.4966771   416195 
 4716000   0.94591525   -3.2268324   -1.7299588  0.056796988   -3.2268324    1.4968735   416181 
 4717000   0.94523052    -3.225806   -1.7299693  0.059467041    -3.225806    1.4958367   416168 
 4718000   0.94599751   -3.2269113    -1.729814  0.059872297   -3.2269113    1.4970972   416155 
 4719000   0.94516618   -3.2242261   -1.7283941  0.055755642   -3.2242261    1.4958319   416141 
 4720000   0.94755721   -3.2265164   -1.7268535  0.056698314   -3.2265164    1.4996628   416128 
 4721000   0.94652117     -3.22568     -1.72761   0.05765649     -3.22568      1.49807   416115 
 4722000   0.94688898   -3.2263094   -1.7276069  0.061525921   -3.2263094    1.4987025   416101 
 4723000   0.94706419   -3.2271924   -1.7281657  0.061856085   -3.2271924    1.4990267   416088 
 4724000   0.94718119   -3.2289432   -1.7296846   0.06321253   -3.2289432    1.4992587   416075 
 4725000   0.94757897    -3.229701   -1.7297622  0.057143839    -3.229701    1.4999388   416061 
 4726000   0.94596242   -3.2267052   -1.7292785  0.063141814   -3.2267052    1.4974267   416048 
 4727000   0.94523843   -3.2263239   -1.7299965  0.067229434   -3.2263239    1.4963274   416035 
 4728000   0.94646297   -3.2284224   -1.7301061  0.060471805   -3.2284224    1.4983163   416021 
 4729000   0.94683214   -3.2298872   -1.7309396  0.060307664   -3.2298872    1.4989476   416008 
 4730000   0.94720426   -3.2307489   -1.7311654  0.063149441   -3.2307489    1.4995835   415995 
 4731000    0.9469635   -3.2319526   -1.7326998   0.05538216   -3.2319526    1.4992528   415981 
 4732000   0.94434973   -3.2282397   -1.7330783  0.057887275   -3.2282397    1.4951614   415968 
 4733000   0.94662125   -3.2311996    -1.732395  0.064822262   -3.2311996    1.4988046   415955 
 4734000   0.94585126   -3.2294457   -1.7318098  0.061077687   -3.2294457    1.4976359   415941 
 4735000   0.94436556   -3.2271762   -1.7318459  0.065363595   -3.2271762    1.4953302   415928 
 4736000    0.9451066   -3.2279064    -1.731356  0.059763462   -3.2279064    1.4965504   415915 
 4737000   0.94562985   -3.2281367   -1.7307074  0.060149138   -3.2281367    1.4974294   415901 
 4738000   0.94468031   -3.2278329   -1.7318604  0.060567364   -3.2278329    1.4959725   415888 
 4739000   0.94477427   -3.2283847   -1.7322166  0.062515126   -3.2283847     1.496168   415875 
 4740000   0.94501778   -3.2285361   -1.7319321  0.061064743   -3.2285361    1.4966041   415861 
 4741000   0.94535992   -3.2288182   -1.7316255  0.057928557   -3.2288182    1.4971927   415848 
 4742000   0.94484839   -3.2276419   -1.7312126  0.057345637   -3.2276419    1.4964294   415835 
 4743000   0.94465924   -3.2274706   -1.7312905   0.06025324   -3.2274706    1.4961802   415821 
 4744000   0.94348672   -3.2269046   -1.7325348    0.0588023   -3.2269046    1.4943698   415808 
 4745000   0.94366595    -3.226544   -1.7318436   0.06104716    -3.226544    1.4947004   415795 
 4746000   0.94489705   -3.2275611   -1.7308603  0.057550759   -3.2275611    1.4967008   415781 
 4747000   0.94432674   -3.2263578   -1.7305136  0.058252427   -3.2263578    1.4958442   415768 
 4748000   0.94580731   -3.2278849   -1.7296486  0.062899343   -3.2278849    1.4982363   415755 
 4749000   0.94500014   -3.2269227   -1.7299146  0.058082057   -3.2269227    1.4970081   415741 
 4750000   0.94613644   -3.2291712   -1.7303162  0.059226665   -3.2291712     1.498855   415728 
 4751000   0.94479148   -3.2274429   -1.7306717  0.059806516   -3.2274429    1.4967712   415715 
 4752000   0.94381255   -3.2254105   -1.7301398   0.05525061   -3.2254105    1.4952707   415701 
 4753000   0.94399687   -3.2263319   -1.7307224  0.060261084   -3.2263319    1.4956094   415688 
 4754000   0.94376153   -3.2253599   -1.7300765  0.060075787   -3.2253599    1.4952833   415675 
 4755000    0.9450263   -3.2273771   -1.7300394  0.058806834   -3.2273771    1.4973377   415661 
 4756000   0.94387635   -3.2269467   -1.7313843  0.056649451   -3.2269467    1.4955624   415648 
 4757000   0.94405883   -3.2269059   -1.7310076  0.056150468   -3.2269059    1.4958983   415635 
 4758000   0.94285617   -3.2253037   -1.7312607  0.055483038   -3.2253037     1.494043   415621 
 4759000   0.94235368   -3.2256315    -1.732338  0.056904177   -3.2256315    1.4932935   415608 
 4760000   0.94198905   -3.2231148   -1.7303525  0.059354469   -3.2231148    1.4927624   415595 
 4761000   0.94230771   -3.2258612   -1.7325435  0.058282333   -3.2258612    1.4933176   415581 
 4762000   0.94152169   -3.2245005   -1.7323818  0.058176505   -3.2245005    1.4921187   415568 
 4763000   0.94353119   -3.2271835   -1.7318334  0.055486004   -3.2271835    1.4953501   415555 
 4764000   0.94429893   -3.2274543    -1.730837  0.057656963   -3.2274543    1.4966173   415541 
 4765000   0.94526305   -3.2290675   -1.7308754  0.059403441   -3.2290675    1.4981922   415528 
 4766000   0.94612219   -3.2299656   -1.7303649  0.058467199   -3.2299656    1.4996008   415515 
 4767000   0.94607602   -3.2295937   -1.7300156  0.063114543   -3.2295937    1.4995781   415501 
 4768000   0.94541995   -3.2277667   -1.7291816  0.066947279   -3.2277667    1.4985851   415488 
 4769000   0.94530216   -3.2297819   -1.7313366  0.053977374   -3.2297819    1.4984453   415475 
 4770000   0.94534316   -3.2300482   -1.7314874  0.059113155   -3.2300482    1.4985608   415461 
 4771000   0.94599169   -3.2314235   -1.7317878  0.060933912   -3.2314235    1.4996357   415448 
 4772000   0.94376638   -3.2285254   -1.7323705  0.060802884   -3.2285254    1.4961549   415435 
 4773000   0.94355299   -3.2291523   -1.7332853  0.061443986   -3.2291523     1.495867   415421 
 4774000   0.94357594   -3.2290715   -1.7331213  0.058022078   -3.2290715    1.4959502   415408 
 4775000   0.94251652   -3.2285111   -1.7341937  0.059240567   -3.2285111    1.4943173   415395 
 4776000   0.94272526   -3.2294651   -1.7347664   0.06170171   -3.2294651    1.4946987   415381 
 4777000   0.94283924    -3.229278   -1.7343518  0.059766904    -3.229278    1.4949262   415368 
 4778000   0.94347044     -3.22927   -1.7332962  0.057649952     -3.22927    1.4959738   415355 
 4779000   0.94436452   -3.2292822   -1.7318402  0.059063858   -3.2292822    1.4974419   415341 
 4780000    0.9437568    -3.229789   -1.7332639  0.062006911    -3.229789    1.4965251   415328 
 4781000   0.94215786   -3.2281683   -1.7341318  0.058081522   -3.2281683    1.4940364   415315 
 4782000   0.94220208   -3.2274881   -1.7333312   0.06074667   -3.2274881    1.4941569   415301 
 4783000   0.94280928   -3.2285419   -1.7333753  0.061438237   -3.2285419    1.4951666   415288 
 4784000   0.94272468   -3.2290397   -1.7339604  0.063413555   -3.2290397    1.4950793   415275 
 4785000   0.94382564   -3.2303863   -1.7335105  0.062700596   -3.2303863    1.4968758   415261 
 4786000   0.94172983   -3.2277781   -1.7341794  0.060950396   -3.2277781    1.4935986   415248 
 4787000   0.94248079   -3.2286381   -1.7338016  0.057266045   -3.2286381    1.4948365   415235 
 4788000    0.9447374   -3.2310791    -1.732613  0.061089429   -3.2310791    1.4984661   415221 
 4789000   0.94439643   -3.2303212    -1.732349  0.059106769   -3.2303212    1.4979722   415208 
 4790000   0.94212909   -3.2269969   -1.7325742  0.066865418   -3.2269969    1.4944226   415195 
 4791000   0.94321968    -3.228578    -1.732375  0.059773109    -3.228578     1.496203   415181 
 4792000   0.94252522   -3.2280424   -1.7328943   0.06092858   -3.2280424    1.4951482   415168 
 4793000   0.94212446   -3.2276496   -1.7330903   0.05726117   -3.2276496    1.4945593   415155 
 4794000    0.9433174   -3.2288345   -1.7323323  0.058726423   -3.2288345    1.4965022   415141 
 4795000   0.94233041   -3.2268693   -1.7318861  0.062444146   -3.2268693    1.4949832   415128 
 4796000   0.94237816   -3.2271769   -1.7320711  0.059747132   -3.2271769    1.4951058   415115 
 4797000    0.9435641   -3.2286119   -1.7315741  0.059136817   -3.2286119    1.4970378   415101 
 4798000   0.94334949   -3.2281165   -1.7313723  0.061033732   -3.2281165    1.4967442   415088 
 4799000   0.94268394    -3.227418   -1.7316829   0.06141514    -3.227418     1.495735   415075 
 4800000   0.94299692   -3.2265629   -1.7302808  0.058651959   -3.2265629    1.4962821   415061 
 4801000   0.94188348   -3.2258067   -1.7312445   0.06111575   -3.2258067    1.4945622   415048 
 4802000   0.94146541    -3.226028   -1.7320824  0.056702391    -3.226028    1.4939456   415035 
 4803000   0.94282151   -3.2268442   -1.7306963  0.057051422   -3.2268442    1.4961479   415021 
 4804000   0.94277439    -3.226886    -1.730766  0.059660234    -3.226886      1.49612   415008 
 4805000   0.94275117   -3.2260476   -1.7299176  0.060567858   -3.2260476    1.4961301   414995 
 4806000   0.94252856   -3.2268281   -1.7310008  0.062900733   -3.2268281    1.4958272   414981 
 4807000   0.94271892   -3.2279818   -1.7318056  0.058358854   -3.2279818    1.4961762   414968 
 4808000   0.94273187   -3.2284558   -1.7322122  0.061983744   -3.2284558    1.4962437   414955 
 4809000   0.94230333   -3.2277917   -1.7321777  0.055297804   -3.2277917     1.495614   414941 
 4810000   0.94182449   -3.2278058    -1.732905  0.056805242   -3.2278058    1.4949008   414928 
 4811000   0.94108027   -3.2277869   -1.7340206  0.063502416   -3.2277869    1.4937663   414915 
 4812000   0.94098309   -3.2287129   -1.7350505  0.055496214   -3.2287129    1.4936625   414901 
 4813000   0.94035634   -3.2273027   -1.7345884  0.061798523   -3.2273027    1.4927144   414888 
 4814000   0.94155247   -3.2299297   -1.7352698  0.062764331   -3.2299297    1.4946599   414875 
 4815000   0.94197956   -3.2304218   -1.7350334  0.062709311   -3.2304218    1.4953884   414861 
 4816000   0.94184505   -3.2287797    -1.733558  0.059941498   -3.2287797    1.4952217   414848 
 4817000   0.94195451   -3.2299067   -1.7344644  0.057829749   -3.2299067    1.4954423   414835 
 4818000   0.94125887    -3.229686   -1.7352976    0.0641386    -3.229686    1.4943884   414821 
 4819000   0.94219105   -3.2323453     -1.73643  0.061016984   -3.2323453    1.4959152   414808 
 4820000   0.94253635   -3.2321604     -1.73565  0.060599685   -3.2321604    1.4965104   414795 
 4821000   0.94241632   -3.2324981   -1.7361278  0.060630239   -3.2324981    1.4963703   414781 
 4822000   0.94095933   -3.2308189   -1.7367152    0.0626011   -3.2308189    1.4941037   414768 
 4823000   0.94366809   -3.2345381   -1.7360863  0.057265036   -3.2345381    1.4984518   414755 
 4824000   0.94337423   -3.2351232   -1.7370874  0.056252032   -3.2351232    1.4980357   414741 
 4825000   0.94142546   -3.2309201   -1.7359321  0.059739124   -3.2309201     1.494988   414728 
 4826000   0.94197364   -3.2334777   -1.7375723  0.059165837   -3.2334777    1.4959054   414715 
 4827000   0.94000949   -3.2308369   -1.7380003  0.061559438   -3.2308369    1.4928366   414701 
 4828000   0.94148979   -3.2329954    -1.737761  0.060168224   -3.2329954    1.4952344   414688 
 4829000   0.94232597   -3.2337152   -1.7371059  0.064572429   -3.2337152    1.4966093   414675 
 4830000   0.94284219   -3.2335814   -1.7361017  0.061721729   -3.2335814    1.4974797   414661 
 4831000    0.9412959   -3.2319798   -1.7369091  0.062042393   -3.2319798    1.4950707   414648 
 4832000   0.94134616   -3.2324083   -1.7372109  0.062867147   -3.2324083    1.4951974   414635 
 4833000   0.94359084   -3.2342521   -1.7354387  0.061120989   -3.2342521    1.4988134   414621 
 4834000    0.9433412   -3.2342241   -1.7357603  0.063106441   -3.2342241    1.4984638   414608 
 4835000   0.94098973   -3.2313318   -1.7365563  0.066527706   -3.2313318    1.4947754   414595 
 4836000   0.94145848   -3.2319509   -1.7363803  0.061427639   -3.2319509    1.4955706   414581 
 4837000    0.9418845   -3.2310295   -1.7347353   0.05979043   -3.2310295    1.4962942   414568 
 4838000   0.94276352   -3.2312459   -1.7335083  0.059291127   -3.2312459    1.4977376   414555 
 4839000   0.94230575   -3.2312754   -1.7342145  0.058580898   -3.2312754    1.4970609   414541 
 4840000   0.94141049   -3.2301049   -1.7344194  0.062421344   -3.2301049    1.4956855   414528 
 4841000   0.94201944   -3.2319928   -1.7352928  0.059907755   -3.2319928       1.4967   414515 
 4842000    0.9437691   -3.2349078   -1.7353773  0.057992252   -3.2349078    1.4995305   414501 
 4843000    0.9415008   -3.2301829   -1.7342095  0.065456901   -3.2301829    1.4959734   414488 
 4844000   0.94079485   -3.2294957   -1.7345971  0.060784396   -3.2294957    1.4948986   414475 
 4845000   0.94165347   -3.2315464   -1.7352329  0.056202817   -3.2315464    1.4963134   414461 
 4846000   0.94123837   -3.2300239   -1.7343231  0.061919156   -3.2300239    1.4957007   414448 
 4847000    0.9411741   -3.2295441   -1.7338986  0.060104017   -3.2295441    1.4956455   414435 
 4848000   0.94113529   -3.2298407   -1.7342063  0.057026849   -3.2298407    1.4956344   414421 
 4849000   0.93992349   -3.2293406   -1.7355852  0.058418166   -3.2293406    1.4937555   414408 
 4850000   0.94151815   -3.2316256    -1.735289  0.059496573   -3.2316256    1.4963367   414395 
 4851000   0.94005702   -3.2292024   -1.7351374  0.060483194   -3.2292024     1.494065   414381 
 4852000   0.94105682   -3.2292064   -1.7335055  0.061977752   -3.2292064    1.4957009   414368 
 4853000   0.94201975   -3.2304043   -1.7331259  0.060162857   -3.2304043    1.4972784   414355 
 4854000   0.94183381   -3.2297276   -1.7326942  0.063271391   -3.2297276    1.4970334   414341 
 4855000   0.94195623   -3.2299564   -1.7326814  0.058946164   -3.2299564     1.497275   414328 
 4856000   0.94141533   -3.2292067   -1.7327445  0.062667882   -3.2292067    1.4964622   414315 
 4857000   0.94038462   -3.2281646   -1.7332903   0.06058095   -3.2281646    1.4948743   414301 
 4858000   0.94132973   -3.2301074   -1.7336838  0.053717923   -3.2301074    1.4964236   414288 
 4859000   0.94032344   -3.2289431   -1.7340723  0.053929849   -3.2289431    1.4948708   414275 
 4860000   0.94064834   -3.2303961   -1.7349582  0.062104828   -3.2303961    1.4954379   414261 
 4861000   0.94136985   -3.2309537   -1.7343218  0.053807402   -3.2309537    1.4966319   414248 
 4862000   0.94070843   -3.2283586   -1.7327313  0.062660561   -3.2283586    1.4956273   414235 
 4863000   0.94314155     -3.23313   -1.7335836  0.053248086     -3.23313    1.4995464   414221 
 4864000   0.94311322   -3.2324677   -1.7329193  0.060758583   -3.2324677    1.4995484   414208 
 4865000   0.94233381   -3.2308578   -1.7325017  0.068867869   -3.2308578    1.4983562   414195 
 4866000    0.9433206   -3.2321165   -1.7321406  0.060386881   -3.2321165    1.4999759   414181 
 4867000   0.94081405   -3.2306865   -1.7346493  0.059142018   -3.2306865    1.4960372   414168 
 4868000   0.94236379   -3.2339208   -1.7353723  0.060809406   -3.2339208    1.4985485   414155 
 4869000   0.93945775   -3.2293831   -1.7354053  0.059353042   -3.2293831    1.4939778   414141 
 4870000   0.94019372   -3.2318847   -1.7366895  0.058279941   -3.2318847    1.4951952   414128 
 4871000   0.93999692   -3.2327791     -1.73785  0.059778572   -3.2327791    1.4949291   414115 
 4872000   0.93876879   -3.2284673   -1.7354409  0.062815095   -3.2284673    1.4930264   414101 
 4873000   0.93993996   -3.2303331   -1.7353971    0.0596411   -3.2303331     1.494936   414088 
 4874000   0.93918712    -3.230788   -1.7370025  0.055217523    -3.230788    1.4937855   414075 
 4875000   0.93882104   -3.2311316   -1.7378779   0.06019902   -3.2311316    1.4932538   414061 
 4876000   0.93880286   -3.2313558   -1.7380841  0.060274849   -3.2313558    1.4932717   414048 
 4877000   0.94182647   -3.2347487   -1.7366205    0.0598391   -3.2347487    1.4981282   414035 
 4878000   0.94035526   -3.2331721   -1.7373335  0.061859305   -3.2331721    1.4958385   414021 
 4879000   0.94068053     -3.23111    -1.734707  0.059748589     -3.23111    1.4964029   414008 
 4880000   0.94008733   -3.2314603    -1.735954  0.057331187   -3.2314603    1.4955063   413995 
 4881000   0.94171473   -3.2335107   -1.7353648  0.065662631   -3.2335107    1.4981458   413981 
 4882000   0.94061854   -3.2323735   -1.7359246  0.060959604   -3.2323735    1.4964489   413968 
 4883000   0.94092788    -3.233977    -1.736989  0.062348516    -3.233977    1.4969881   413955 
 4884000   0.94046876   -3.2328006   -1.7364924  0.063715416   -3.2328006    1.4963082   413941 
 4885000   0.93948447    -3.231782   -1.7369929  0.062379896    -3.231782    1.4947891   413928 
 4886000   0.94043493   -3.2330467   -1.7366983  0.062483628   -3.2330467    1.4963484   413915 
 4887000   0.94018823    -3.232767   -1.7367605  0.066399876    -3.232767    1.4960065   413901 
 4888000   0.93948376   -3.2311217   -1.7361892  0.067149971   -3.2311217    1.4949325   413888 
 4889000   0.93951447   -3.2327971   -1.7377688  0.059952478   -3.2327971    1.4950283   413875 
 4890000   0.93765596   -3.2304163   -1.7382949  0.061248731   -3.2304163    1.4921214   413861 
 4891000    0.9387083   -3.2326917   -1.7388488  0.060424538   -3.2326917    1.4938429   413848 
 4892000   0.93774306   -3.2312218   -1.7388681  0.061306638   -3.2312218    1.4923537   413835 
 4893000   0.93856607     -3.23155    -1.737836  0.058046761     -3.23155     1.493714   413821 
 4894000   0.93882283   -3.2315272   -1.7373576  0.059659437   -3.2315272    1.4941696   413808 
 4895000    0.9364907   -3.2269124   -1.7364077  0.059318591   -3.2269124    1.4905047   413795 
 4896000   0.93924355   -3.2299077    -1.734971  0.057058061   -3.2299077    1.4949367   413781 
 4897000   0.93826325   -3.2285835   -1.7351601  0.057517591   -3.2285835    1.4934234   413768 
 4898000   0.93935465   -3.2302029   -1.7349954  0.059238613   -3.2302029    1.4952075   413755 
 4899000   0.94007317   -3.2311848    -1.734783   0.06373192   -3.2311848    1.4964018   413741 
 4900000   0.93982424   -3.2310812   -1.7350286  0.062485852   -3.2310812    1.4960526   413728 
 4901000   0.94089729   -3.2325346   -1.7347269   0.05980687   -3.2325346    1.4978078   413715 
 4902000   0.93976083   -3.2303164   -1.7342671  0.062667375   -3.2303164    1.4960493   413701 
 4903000   0.93940567   -3.2307001   -1.7351692  0.059898066   -3.2307001    1.4955309   413688 
 4904000   0.93795092   -3.2297595   -1.7364976  0.062232807   -3.2297595    1.4932619   413675 
 4905000   0.93746206   -3.2291387   -1.7366046  0.060501648   -3.2291387    1.4925341   413661 
 4906000   0.93808154   -3.2296649   -1.7360977  0.057708034   -3.2296649    1.4935673   413648 
 4907000   0.93807901   -3.2300914   -1.7364812  0.058945489   -3.2300914    1.4936102   413635 
 4908000   0.93974574   -3.2317804   -1.7354658  0.057764655   -3.2317804    1.4963146   413621 
 4909000   0.93739808    -3.229731   -1.7371075  0.059217948    -3.229731    1.4926235   413608 
 4910000   0.93796436    -3.230466   -1.7368939  0.062556596    -3.230466    1.4935721   413595 
 4911000   0.93881647   -3.2323839   -1.7374043  0.057631449   -3.2323839    1.4949796   413581 
 4912000   0.93678394   -3.2290842   -1.7372944  0.058539804   -3.2290842    1.4917898   413568 
 4913000   0.93689667   -3.2293366   -1.7373203  0.061866125   -3.2293366    1.4920162   413555 
 4914000   0.93816188   -3.2312743   -1.7371926  0.060581065   -3.2312743    1.4940817   413541 
 4915000   0.93854172   -3.2317477   -1.7370141  0.057301199   -3.2317477    1.4947336   413528 
 4916000   0.93936582   -3.2334175   -1.7373244  0.053663084   -3.2334175    1.4960931   413515 
 4917000   0.93801726   -3.2311797   -1.7371838  0.056490257   -3.2311797    1.4939959   413501 
 4918000    0.9387252   -3.2311582   -1.7359877   0.06058712   -3.2311582    1.4951704   413488 
 4919000   0.93884533   -3.2317379   -1.7363291  0.060389598   -3.2317379    1.4954088   413475 
 4920000   0.93820921   -3.2313591   -1.7369129  0.058946963   -3.2313591    1.4944462   413461 
 4921000   0.93892934   -3.2314183    -1.735778  0.059183019   -3.2314183    1.4956403   413448 
 4922000   0.93998317   -3.2351782   -1.7378122  0.055672243   -3.2351782     1.497366   413435 
 4923000   0.93765368   -3.2314703   -1.7377645  0.059093335   -3.2314703    1.4937058   413421 
 4924000   0.93715115   -3.2310581    -1.738106  0.058490856   -3.2310581    1.4929522   413408 
 4925000   0.93724593   -3.2319097   -1.7387596  0.058834254   -3.2319097    1.4931501   413395 
 4926000   0.93827144   -3.2332606   -1.7384261  0.055309006   -3.2332606    1.4948345   413381 
 4927000   0.93906881   -3.2341247   -1.7379728  0.059130285   -3.2341247    1.4961519   413368 
 4928000    0.9375984   -3.2327387   -1.7388825  0.057979664   -3.2327387    1.4938562   413355 
 4929000    0.9368248   -3.2306337   -1.7379595  0.058585094   -3.2306337    1.4926742   413341 
 4930000   0.93830031   -3.2325658   -1.7374936  0.059745075   -3.2325658    1.4950722   413328 
 4931000   0.93842043   -3.2338983   -1.7385877  0.053904158   -3.2338983    1.4953106   413315 
 4932000   0.93804701   -3.2352715   -1.7405053  0.064192138   -3.2352715    1.4947662   413301 
 4933000   0.93768539   -3.2353371   -1.7411001  0.057192459   -3.2353371     1.494237   413288 
 4934000    0.9376418   -3.2334232   -1.7392086  0.056434505   -3.2334232    1.4942145   413275 
 4935000   0.93891577   -3.2354894    -1.739194  0.059488675   -3.2354894    1.4962954   413261 
 4936000   0.93800266   -3.2332739   -1.7383866  0.065896009   -3.2332739    1.4948873   413248 
 4937000   0.93893106    -3.235437   -1.7390231  0.064121282    -3.235437    1.4964139   413235 
 4938000   0.93960804   -3.2352514   -1.7377078   0.06524505   -3.2352514    1.4975436   413221 
 4939000   0.94002459   -3.2347543   -1.7364997  0.067449867   -3.2347543    1.4982546   413208 
 4940000   0.93884035   -3.2356935   -1.7392793  0.060993768   -3.2356935    1.4964142   413195 
 4941000   0.93902816   -3.2366421   -1.7398778  0.063026449   -3.2366421    1.4967643   413181 
 4942000   0.93844948   -3.2354751   -1.7395862   0.05917603   -3.2354751    1.4958889   413168 
 4943000   0.93756391   -3.2329944   -1.7384701  0.063195302   -3.2329944    1.4945244   413155 
 4944000   0.93688332   -3.2329209   -1.7394308  0.057092652   -3.2329209    1.4934901   413141 
 4945000   0.93875494   -3.2364454   -1.7399247  0.055350181   -3.2364454    1.4965207   413128 
 4946000   0.93694368   -3.2337967   -1.7401164  0.057507886   -3.2337967    1.4936803   413115 
 4947000   0.93584434   -3.2322318   -1.7402535  0.056237241   -3.2322318    1.4919783   413101 
 4948000    0.9347588   -3.2320348   -1.7417403  0.058127153   -3.2320348    1.4902946   413088 
 4949000   0.93613706   -3.2327022   -1.7401633   0.05447066   -3.2327022    1.4925389   413075 
 4950000   0.93650392   -3.2321032   -1.7389288  0.058364218   -3.2321032    1.4931744   413061 
 4951000   0.93676216   -3.2316872    -1.738054  0.060965418   -3.2316872    1.4936332   413048 
 4952000   0.93693265   -3.2307599   -1.7368078  0.059869035   -3.2307599     1.493952   413035 
 4953000   0.93617929   -3.2298559   -1.7370546  0.064136163   -3.2298559    1.4928014   413021 
 4954000   0.93847363   -3.2317785   -1.7352715  0.057473775   -3.2317785     1.496507   413008 
 4955000   0.93986818   -3.2334835   -1.7347056  0.060363196   -3.2334835    1.4987779   412995 
 4956000   0.93785894   -3.2294558   -1.7338312  0.063775551   -3.2294558    1.4956245   412981 
 4957000    0.9372847   -3.2298938   -1.7351379  0.061815203   -3.2298938    1.4947558   412968 
 4958000   0.93918522   -3.2311448   -1.7333109  0.056197292   -3.2311448    1.4978339   412955 
 4959000   0.93836243   -3.2306218   -1.7340494  0.062763331   -3.2306218    1.4965724   412941 
 4960000   0.93783682   -3.2306881   -1.7349069   0.06204646   -3.2306881    1.4957812   412928 
 4961000   0.93766786   -3.2309367   -1.7353779  0.058569308   -3.2309367    1.4955588   412915 
 4962000   0.93852021   -3.2310194   -1.7340503  0.059384235   -3.2310194    1.4969691   412901 
 4963000   0.93638812   -3.2300639   -1.7364485  0.052966174   -3.2300639    1.4936153   412888 
 4964000    0.9367328    -3.229638   -1.7354258  0.057811607    -3.229638    1.4942122   412875 
 4965000   0.93542845   -3.2295661   -1.7373839  0.059050538   -3.2295661    1.4921822   412861 
 4966000    0.9363021   -3.2301625   -1.7365397   0.06162272   -3.2301625    1.4936228   412848 
 4967000   0.93664723   -3.2298219   -1.7356014  0.061142493   -3.2298219    1.4942204   412835 
 4968000   0.93572981   -3.2288829   -1.7360754  0.056751937   -3.2288829    1.4928075   412821 
 4969000   0.93611528   -3.2298315    -1.736362  0.054091095   -3.2298315    1.4934695   412808 
 4970000   0.93637162   -3.2300967   -1.7361712  0.057202523   -3.2300967    1.4939255   412795 
 4971000   0.93684765   -3.2296109   -1.7348752  0.061144564   -3.2296109    1.4947357   412781 
 4972000   0.93689091   -3.2282107   -1.7333589  0.058103051   -3.2282107    1.4948518   412768 
 4973000   0.93816024   -3.2311854   -1.7342612  0.059238143   -3.2311854    1.4969242   412755 
 4974000    0.9382575   -3.2316285   -1.7344984  0.061618567   -3.2316285    1.4971302   412741 
 4975000   0.93849542   -3.2308692   -1.7333122   0.05907134   -3.2308692     1.497557   412728 
 4976000   0.93784269   -3.2318224   -1.7352598  0.062078214   -3.2318224    1.4965626   412715 
 4977000   0.93852313   -3.2325062    -1.734807  0.062066753   -3.2325062    1.4976992   412701 
 4978000   0.93683049   -3.2305856   -1.7355405   0.05697256   -3.2305856    1.4950452   412688 
 4979000   0.93770378   -3.2330578   -1.7365718  0.057730501   -3.2330578    1.4964859   412675 
 4980000   0.93583478   -3.2309393   -1.7373854  0.054213024   -3.2309393    1.4935539   412661 
 4981000   0.93571727   -3.2300866   -1.7366733  0.060601285   -3.2300866    1.4934134   412648 
 4982000   0.93432407   -3.2299259   -1.7386891  0.057649252   -3.2299259    1.4912368   412635 
 4983000    0.9355031   -3.2316697   -1.7385005  0.054002545   -3.2316697    1.4931692   412621 
 4984000   0.93652534   -3.2317234   -1.7368754  0.059422689   -3.2317234     1.494848   412608 
 4985000   0.93669977   -3.2313416   -1.7361682  0.058815547   -3.2313416    1.4951735   412595 
 4986000   0.93880799   -3.2350485    -1.736459  0.056809012   -3.2350485    1.4985895   412581 
 4987000   0.93755503   -3.2329121   -1.7362755  0.058539221   -3.2329121    1.4966366   412568 
 4988000   0.93649171   -3.2320303    -1.737044  0.061978209   -3.2320303    1.4949863   412555 
 4989000   0.93642469   -3.2323691    -1.737439  0.059278175   -3.2323691      1.49493   412541 
 4990000   0.93611014   -3.2310297   -1.7365547  0.064706563   -3.2310297     1.494475   412528 
 4991000   0.93508615    -3.230091   -1.7372037  0.059974438    -3.230091    1.4928873   412515 
 4992000   0.93647661   -3.2320688   -1.7369109  0.059510664   -3.2320688    1.4951579   412501 
 4993000   0.93503933   -3.2322647   -1.7393545  0.057797104   -3.2322647    1.4929102   412488 
 4994000   0.93514921   -3.2319343   -1.7388016  0.054754355   -3.2319343    1.4931327   412475 
 4995000   0.93489722   -3.2316765   -1.7388955  0.057590837   -3.2316765     1.492781   412461 
 4996000   0.93663874    -3.234665   -1.7390561  0.053302437    -3.234665    1.4956089   412448 
 4997000   0.93581857   -3.2343423   -1.7399959  0.057316575   -3.2343423    1.4943464   412435 
 4998000   0.93619446   -3.2341144    -1.739117  0.057624002   -3.2341144    1.4949974   412421 
 4999000   0.93554586   -3.2327821   -1.7387734  0.057064917   -3.2327821    1.4940087   412408 
 5000000   0.93543008   -3.2328975   -1.7390266  0.057295016   -3.2328975    1.4938709   412395 
 5001000   0.93562777   -3.2330237   -1.7387864   0.05919345   -3.2330237    1.4942374   412381 
 5002000   0.93639611   -3.2342453   -1.7387337  0.058861415   -3.2342453    1.4955116   412368 
 5003000   0.93593338    -3.233967   -1.7391473  0.059717538    -3.233967    1.4948197   412355 
 5004000    0.9347333   -3.2312638   -1.7383102   0.06414904   -3.2312638    1.4929537   412341 
 5005000   0.93611653    -3.233303   -1.7380929  0.066994863    -3.233303    1.4952101   412328 
 5006000   0.93502133   -3.2337488   -1.7402409  0.060743784   -3.2337488    1.4935079   412315 
 5007000   0.93454995   -3.2344619   -1.7416563  0.058952085   -3.2344619    1.4928056   412301 
 5008000   0.93579775   -3.2357149   -1.7408689  0.052670783   -3.2357149    1.4948459   412288 
 5009000   0.93383909   -3.2315836   -1.7398194  0.058547567   -3.2315836    1.4917642   412275 
 5010000   0.93463679   -3.2326318   -1.7395426   0.06276143   -3.2326318    1.4930892   412261 
 5011000    0.9352575    -3.232812   -1.7386841   0.06158092    -3.232812    1.4941279   412248 
 5012000   0.93524007   -3.2331682   -1.7390211  0.060292005   -3.2331682    1.4941472   412235 
 5013000   0.93412794   -3.2321388   -1.7397177  0.060256005   -3.2321388    1.4924211   412221 
 5014000    0.9344644   -3.2332176   -1.7402118  0.060106937   -3.2332176    1.4930057   412208 
 5015000   0.93478224   -3.2340528   -1.7404921  0.055068519   -3.2340528    1.4935607   412195 
 5016000    0.9349702   -3.2354794   -1.7415677   0.05714399   -3.2354794    1.4939117   412181 
 5017000   0.93343961   -3.2328852    -1.741372  0.057330122   -3.2328852    1.4915131   412168 
 5018000   0.93430633   -3.2345183   -1.7415732  0.056890813   -3.2345183    1.4929451   412155 
 5019000   0.93365524    -3.236275   -1.7443196  0.056568353    -3.236275    1.4919554   412141 
 5020000   0.93542441   -3.2366605   -1.7418308  0.052057582   -3.2366605    1.4948297   412128 
 5021000   0.93381132   -3.2333441   -1.7410451  0.061056285   -3.2333441     1.492299   412115 
 5022000   0.93519413   -3.2361271   -1.7415675  0.054140441   -3.2361271    1.4945596   412101 
 5023000   0.93486508   -3.2361151   -1.7420343   0.05918436   -3.2361151    1.4940809   412088 
 5024000    0.9338147   -3.2348458   -1.7423966  0.060416605   -3.2348458    1.4924492   412075 
 5025000   0.93426656   -3.2360221      -1.7428  0.056220577   -3.2360221    1.4932221   412061 
 5026000   0.93566308   -3.2377023   -1.7422009  0.058148714   -3.2377023    1.4955014   412048 
 5027000   0.93519415   -3.2359771   -1.7411781  0.060701841   -3.2359771     1.494799   412035 
 5028000   0.93777483   -3.2387386   -1.7397638  0.061531257   -3.2387386    1.4989749   412021 
 5029000   0.93764251   -3.2389816   -1.7401709  0.056821293   -3.2389816    1.4988107   412008 
 5030000    0.9361538   -3.2380131   -1.7415349  0.061334081   -3.2380131    1.4964782   411995 
 5031000   0.93670437   -3.2385143   -1.7411052  0.064449065   -3.2385143    1.4974092   411981 
 5032000   0.93550491   -3.2368849   -1.7413459   0.06491568   -3.2368849    1.4955389   411968 
 5033000   0.93630082   -3.2374665    -1.740608  0.062094968   -3.2374665    1.4968585   411955 
 5034000   0.93430265   -3.2349815   -1.7412667  0.061914774   -3.2349815    1.4937148   411941 
 5035000   0.93470919   -3.2361606   -1.7417487  0.060099695   -3.2361606     1.494412   411928 
 5036000    0.9350833   -3.2366453   -1.7415881  0.060943374   -3.2366453    1.4950573   411915 
 5037000   0.93409366   -3.2370856   -1.7435599  0.058087283   -3.2370856    1.4935257   411901 
 5038000   0.93428027   -3.2360942   -1.7422229  0.057370223   -3.2360942    1.4938712   411888 
 5039000   0.93532078   -3.2373812    -1.741799  0.059864263   -3.2373812    1.4955822   411875 
 5040000   0.93434654   -3.2367508   -1.7426756  0.055189589   -3.2367508    1.4940752   411861 
 5041000   0.93345741   -3.2345159   -1.7418154  0.057731434   -3.2345159    1.4927005   411848 
 5042000   0.93391443   -3.2351674    -1.741689  0.056484793   -3.2351674    1.4934785   411835 
 5043000   0.93478574    -3.237187   -1.7422643  0.058452424    -3.237187    1.4949226   411821 
 5044000    0.9339458   -3.2347008   -1.7410742  0.064428394   -3.2347008    1.4936266   411808 
 5045000   0.93439209   -3.2367257   -1.7423383  0.056659807   -3.2367257    1.4943875   411795 
 5046000   0.93506048   -3.2372714   -1.7417641  0.058216896   -3.2372714    1.4955073   411781 
 5047000   0.93306724   -3.2338673   -1.7415008  0.061345209   -3.2338673    1.4923665   411768 
 5048000   0.93512251   -3.2357035   -1.7400026  0.058196998   -3.2357035    1.4957009   411755 
 5049000   0.93308509   -3.2327892   -1.7402963  0.061858231   -3.2327892    1.4924929   411741 
 5050000   0.93492706    -3.234812   -1.7393256  0.057984576    -3.234812    1.4954864   411728 
 5051000    0.9345139   -3.2360878   -1.7412151   0.06049823   -3.2360878    1.4948727   411715 
 5052000   0.93469146   -3.2371378   -1.7419302  0.054609975   -3.2371378    1.4952076   411701 
 5053000   0.93259626   -3.2339319   -1.7420289  0.063273028   -3.2339319     1.491903   411688 
 5054000    0.9330789    -3.235649   -1.7429268  0.055381798    -3.235649    1.4927223   411675 
 5055000   0.93330501   -3.2353637    -1.742229  0.061392954   -3.2353637    1.4931348   411661 
 5056000   0.93286654   -3.2353459   -1.7428655  0.062060878   -3.2353459    1.4924804   411648 
 5057000   0.93601643   -3.2376894   -1.7401222  0.057550901   -3.2376894    1.4975672   411635 
 5058000   0.93413121   -3.2349407   -1.7403389  0.061535849   -3.2349407    1.4946018   411621 
 5059000   0.93517973   -3.2340976    -1.737771  0.060295286   -3.2340976    1.4963267   411608 
 5060000   0.93437293   -3.2324378   -1.7373549  0.061260971   -3.2324378     1.495083   411595 
 5061000    0.9357109   -3.2338896   -1.7366148  0.059937785   -3.2338896    1.4972748   411581 
 5062000   0.93593827   -3.2327802   -1.7350943  0.059018522   -3.2327802    1.4976859   411568 
 5063000    0.9365186   -3.2355603   -1.7368984  0.059198245   -3.2355603    1.4986619   411555 
 5064000   0.93525353   -3.2343759   -1.7376875  0.061665186   -3.2343759    1.4966883   411541 
 5065000   0.93240326   -3.2307403   -1.7385661  0.059357172   -3.2307403    1.4921742   411528 
 5066000   0.93431394   -3.2323203   -1.7370411  0.056482619   -3.2323203    1.4952792   411515 
 5067000   0.93237106   -3.2320691   -1.7398485  0.055487074   -3.2320691    1.4922206   411501 
 5068000   0.93106923   -3.2303051    -1.740121  0.060152202   -3.2303051    1.4901841   411488 
 5069000   0.93247516   -3.2314757   -1.7389942  0.060028955   -3.2314757    1.4924815   411475 
 5070000    0.9328296   -3.2323126    -1.739213  0.054890136   -3.2323126    1.4930996   411461 
 5071000   0.93222131   -3.2324886   -1.7403155  0.061665485   -3.2324886    1.4921731   411448 
 5072000   0.93197767   -3.2318938   -1.7400636  0.054851232   -3.2318938    1.4918302   411435 
 5073000   0.93298717   -3.2327628   -1.7392658  0.060002306   -3.2327628     1.493497   411421 
 5074000   0.93303336   -3.2332595   -1.7396414  0.055353945   -3.2332595    1.4936181   411408 
 5075000   0.93293665   -3.2330705     -1.73956  0.054649574   -3.2330705    1.4935105   411395 
 5076000   0.93267073   -3.2325394   -1.7394038  0.055124782   -3.2325394    1.4931356   411381 
 5077000   0.93319347    -3.234268   -1.7402483  0.057826371    -3.234268    1.4940197   411368 
 5078000   0.93358727   -3.2339868   -1.7392894  0.058961759   -3.2339868    1.4946974   411355 
 5079000   0.93150416   -3.2315641   -1.7401511  0.059992577   -3.2315641     1.491413   411341 
 5080000   0.93391603   -3.2345022   -1.7391803  0.058058094   -3.2345022    1.4953219   411328 
 5081000   0.93316566   -3.2347507    -1.740583  0.054004103   -3.2347507    1.4941677   411315 
 5082000   0.93146078   -3.2332099   -1.7417213  0.058040499   -3.2332099    1.4914886   411301 
 5083000   0.93325552    -3.235304   -1.7408943  0.062358066    -3.235304    1.4944096   411288 
 5084000   0.93190541   -3.2327187   -1.7404238  0.061516093   -3.2327187    1.4922949   411275 
 5085000   0.93429632   -3.2364219   -1.7402474  0.055302491   -3.2364219    1.4961745   411261 
 5086000   0.93356434   -3.2348908   -1.7398413  0.064012387   -3.2348908    1.4950495   411248 
 5087000   0.93279782   -3.2362436   -1.7423744  0.059388828   -3.2362436    1.4938692   411235 
 5088000   0.93411247   -3.2384887   -1.7424631  0.059569925   -3.2384887    1.4960256   411221 
 5089000   0.93336148   -3.2380234   -1.7431533  0.058303021   -3.2380234    1.4948701   411208 
 5090000   0.93321197   -3.2379073   -1.7432295  0.056941318   -3.2379073    1.4946779   411195 
 5091000   0.93214844   -3.2366997   -1.7436744  0.059031144   -3.2366997    1.4930253   411181 
 5092000    0.9318004   -3.2368279   -1.7443129  0.053216456   -3.2368279     1.492515   411168 
 5093000   0.93206272   -3.2373647   -1.7443823  0.058681977   -3.2373647    1.4929824   411155 
 5094000   0.93284632    -3.239286   -1.7449975    0.0587581    -3.239286    1.4942885   411141 
 5095000   0.93214126   -3.2377441   -1.7445378  0.059379535   -3.2377441    1.4932063   411128 
 5096000   0.93315001   -3.2398863   -1.7450169  0.056097677   -3.2398863    1.4948695   411115 
 5097000   0.93297181   -3.2394661   -1.7448312  0.057202668   -3.2394661    1.4946349   411101 
 5098000    0.9352494   -3.2417809   -1.7434499  0.058843886   -3.2417809     1.498331   411088 
 5099000   0.93391407   -3.2405468   -1.7443078  0.060809611   -3.2405468     1.496239   411075 
 5100000    0.9324725   -3.2398156   -1.7458352  0.066992494   -3.2398156    1.4939804   411061 
 5101000   0.93250946   -3.2398059    -1.745719  0.065067205   -3.2398059    1.4940868   411048 
 5102000   0.93254213   -3.2400517   -1.7458653  0.059671251   -3.2400517    1.4941864   411035 
 5103000   0.93227438   -3.2386582   -1.7448499  0.056798841   -3.2386582    1.4938083   411021 
 5104000   0.93305813   -3.2392986   -1.7441872  0.055606676   -3.2392986    1.4951114   411008 
 5105000   0.93315785   -3.2396888   -1.7443703    0.0568004   -3.2396888    1.4953185   410995 
 5106000   0.93133893   -3.2378162   -1.7453615  0.058398888   -3.2378162    1.4924547   410981 
 5107000   0.93093836   -3.2375632   -1.7457033  0.057802312   -3.2375632    1.4918599   410968 
 5108000   0.93201764   -3.2395412   -1.7459044  0.056250652   -3.2395412    1.4936368   410955 
 5109000   0.93324574   -3.2403606   -1.7447047  0.059129334   -3.2403606    1.4956559   410941 
 5110000   0.93250928   -3.2377854   -1.7432625  0.061504204   -3.2377854    1.4945229   410928 
 5111000   0.93156497   -3.2378357    -1.744779  0.059080214   -3.2378357    1.4930566   410915 
 5112000   0.93188847   -3.2377102   -1.7440842  0.052615701   -3.2377102     1.493626   410901 
 5113000    0.9326885   -3.2386487   -1.7436931   0.05728712   -3.2386487    1.4949556   410888 
 5114000   0.93152191   -3.2380718   -1.7449388  0.057011771   -3.2380718     1.493133   410875 
 5115000    0.9300131   -3.2351736   -1.7444083   0.06022996   -3.2351736    1.4907653   410861 
 5116000   0.92951465   -3.2356954    -1.745682  0.059092641   -3.2356954    1.4900135   410848 
 5117000   0.92890004   -3.2346716   -1.7455963  0.057206882   -3.2346716    1.4890754   410835 
 5118000    0.9299851   -3.2360772   -1.7452116  0.058235259   -3.2360772    1.4908656   410821 
 5119000   0.93034426   -3.2359042   -1.7444157  0.053470385   -3.2359042    1.4914886   410808 
 5120000    0.9310931   -3.2383515   -1.7456152  0.051015552   -3.2383515    1.4927363   410795 
 5121000   0.92989161   -3.2345231   -1.7436623  0.062813403   -3.2345231    1.4908609   410781 
 5122000   0.93034041   -3.2350511   -1.7434235  0.060548775   -3.2350511    1.4916276   410768 
 5123000   0.93081388   -3.2359815   -1.7435475   0.05898565   -3.2359815     1.492434   410755 
 5124000   0.93089225   -3.2344015    -1.741791  0.056500651   -3.2344015    1.4926105   410741 
 5125000   0.93217454   -3.2378439     -1.74313  0.059950807   -3.2378439    1.4947139   410728 
 5126000   0.93064292   -3.2339343   -1.7416291  0.061771285   -3.2339343    1.4923052   410715 
 5127000   0.93113626   -3.2350716   -1.7419245  0.057618296   -3.2350716    1.4931472   410701 
 5128000   0.93085604   -3.2356619   -1.7429169  0.059814362   -3.2356619    1.4927451   410688 
 5129000    0.9343065   -3.2411287   -1.7428029  0.053040679   -3.2411287    1.4983257   410675 
 5130000   0.93285162   -3.2388092   -1.7427656  0.063094409   -3.2388092    1.4960436   410661 
 5131000   0.93154227   -3.2371981   -1.7432071  0.060343637   -3.2371981     1.493991   410648 
 5132000   0.93289996   -3.2392494   -1.7430335  0.059492177   -3.2392494    1.4962158   410635 
 5133000    0.9296166   -3.2348727   -1.7438719   0.05930792   -3.2348727    1.4910007   410621 
 5134000   0.93132776   -3.2379523   -1.7441598  0.058233118   -3.2379523    1.4937925   410608 
 5135000   0.93066501   -3.2364075   -1.7436307  0.060620316   -3.2364075    1.4927768   410595 
 5136000   0.93049414   -3.2374036     -1.74485  0.056516145   -3.2374036    1.4925536   410581 
 5137000   0.93173539   -3.2391279    -1.744536  0.055191957   -3.2391279    1.4945919   410568 
 5138000   0.93062894   -3.2383322   -1.7454678  0.057522157   -3.2383322    1.4928643   410555 
 5139000   0.93049074   -3.2380296    -1.745336  0.056351117   -3.2380296    1.4926935   410541 
 5140000   0.92999025   -3.2375463   -1.7456084  0.060462688   -3.2375463    1.4919379   410528 
 5141000   0.93079533   -3.2371537    -1.743877  0.057621015   -3.2371537    1.4932767   410515 
 5142000   0.92989573   -3.2341404   -1.7422561  0.061544471   -3.2341404    1.4918844   410501 
 5143000    0.9306638   -3.2359231   -1.7427591  0.059774371   -3.2359231    1.4931639   410488 
 5144000   0.93166402   -3.2379616   -1.7431455  0.060412568   -3.2379616     1.494816   410475 
 5145000   0.93061017   -3.2367721    -1.743596  0.059747623   -3.2367721    1.4931761   410461 
 5146000   0.93175642   -3.2371168   -1.7420542   0.05715728   -3.2371168    1.4950626   410448 
 5147000   0.93137843   -3.2374501   -1.7429466  0.057274231   -3.2374501    1.4945034   410435 
 5148000   0.93013663   -3.2372618      -1.7447  0.053805544   -3.2372618    1.4925617   410421 
 5149000   0.93092196   -3.2371487   -1.7432795  0.058279989   -3.2371487    1.4938693   410408 
 5150000   0.93068838    -3.237232   -1.7436902  0.057850606    -3.237232    1.4935417   410395 
 5151000    0.9309471   -3.2383218   -1.7443139  0.053282066   -3.2383218    1.4940079   410381 
 5152000   0.93147561   -3.2383936   -1.7434902  0.055554087   -3.2383936    1.4949034   410368 
 5153000   0.92979989    -3.236332   -1.7440706   0.05652098    -3.236332    1.4922614   410355 
 5154000   0.93171057   -3.2377722   -1.7423934  0.061998798   -3.2377722    1.4953789   410341 
 5155000   0.93021246   -3.2362641   -1.7432424  0.058049894   -3.2362641    1.4930217   410328 
 5156000   0.93067821   -3.2366561   -1.7428395  0.059265533   -3.2366561    1.4938166   410315 
 5157000   0.93203668   -3.2371633   -1.7411152  0.062092535   -3.2371633    1.4960481   410301 
 5158000   0.93275176   -3.2386627   -1.7414193  0.056325357   -3.2386627    1.4972434   410288 
 5159000   0.93165301   -3.2375588   -1.7420317  0.060696365   -3.2375588     1.495527   410275 
 5160000   0.93131574   -3.2385496    -1.743513  0.057601389   -3.2385496    1.4950366   410261 
 5161000   0.93099679   -3.2388821   -1.7443101   0.05876617   -3.2388821     1.494572   410248 
 5162000   0.93076512   -3.2386701   -1.7444227   0.05810106   -3.2386701    1.4942474   410235 
 5163000   0.93063986   -3.2387148   -1.7446174  0.056515893   -3.2387148    1.4940973   410221 
 5164000   0.92979032   -3.2368064   -1.7440257  0.055332886   -3.2368064    1.4927807   410208 
 5165000   0.92782261   -3.2355206   -1.7458518  0.058157516   -3.2355206    1.4896688   410195 
 5166000    0.9293942   -3.2379463   -1.7457033  0.053098338   -3.2379463     1.492243   410181 
 5167000   0.92949248    -3.236359   -1.7439109  0.060586037    -3.236359    1.4924481   410168 
 5168000   0.93040946   -3.2374309   -1.7434631  0.058967442   -3.2374309    1.4939678   410155 
 5169000   0.93057547   -3.2373838   -1.7430985  0.058276586   -3.2373838    1.4942854   410141 
 5170000   0.92956128   -3.2364755   -1.7437714  0.060303479   -3.2364755    1.4927041   410128 
 5171000    0.9310851   -3.2383746   -1.7431761  0.055601105   -3.2383746    1.4951985   410115 
 5172000   0.93179309   -3.2391983   -1.7428118  0.060482158   -3.2391983    1.4963865   410101 
 5173000   0.93097842   -3.2379265   -1.7428009  0.058387724   -3.2379265    1.4951256   410088 
 5174000   0.92971142    -3.235364   -1.7422258  0.064855789    -3.235364    1.4931382   410075 
 5175000   0.92974483   -3.2369014   -1.7436586  0.057568515   -3.2369014    1.4932428   410061 
 5176000   0.93032973   -3.2373122   -1.7430827  0.061640573   -3.2373122    1.4942296   410048 
 5177000   0.93032465   -3.2372362   -1.7429674  0.059390115   -3.2372362    1.4942688   410035 
 5178000   0.92927728   -3.2360202   -1.7433827  0.060322473   -3.2360202    1.4926375   410021 
 5179000   0.93004258   -3.2381238   -1.7442097  0.058003108   -3.2381238    1.4939141   410008 
 5180000   0.92849419   -3.2355318   -1.7440575   0.05694972   -3.2355318    1.4914743   409995 
 5181000   0.92946723   -3.2378705   -1.7447822  0.057236653   -3.2378705    1.4930883   409981 
 5182000   0.92918904    -3.237297   -1.7446082  0.055034546    -3.237297    1.4926887   409968 
 5183000   0.92943024   -3.2385027   -1.7453791  0.057472958   -3.2385027    1.4931235   409955 
 5184000   0.92918817   -3.2385999   -1.7458143  0.059012098   -3.2385999    1.4927856   409941 
 5185000   0.92870526   -3.2383462   -1.7462891  0.056462194   -3.2383462    1.4920571   409928 
 5186000    0.9302079   -3.2393747    -1.744856  0.055723781   -3.2393747    1.4945187   409915 
 5187000   0.92955212   -3.2376325   -1.7441164   0.05946946   -3.2376325    1.4935161   409901 
 5188000   0.92835092   -3.2353468   -1.7437134  0.062438657   -3.2353468    1.4916334   409888 
 5189000   0.93081508   -3.2384486   -1.7428084  0.057087585   -3.2384486    1.4956402   409875 
 5190000   0.93005102   -3.2384706   -1.7440071  0.053068584   -3.2384706    1.4944635   409861 
 5191000   0.92988812   -3.2393101    -1.745061  0.059690712   -3.2393101    1.4942491   409848 
 5192000   0.92861844   -3.2376262     -1.74537  0.064000865   -3.2376262    1.4922562   409835 
 5193000   0.93021818   -3.2408576   -1.7459796   0.06303012   -3.2408576     1.494878   409821 
 5194000    0.9298908   -3.2388035   -1.7444042  0.060896336   -3.2388035    1.4943993   409808 
 5195000    0.9297948    -3.239542   -1.7452496  0.053925219    -3.239542    1.4942924   409795 
 5196000   0.93094329   -3.2405884   -1.7443991  0.057117167   -3.2405884    1.4961893   409781 
 5197000   0.92799671   -3.2362138   -1.7447129  0.063538112   -3.2362138    1.4915009   409768 
 5198000   0.92889262   -3.2377479   -1.7447597  0.060543549   -3.2377479    1.4929882   409755 
 5199000   0.92861944   -3.2363272   -1.7437271   0.06140777   -3.2363272    1.4926001   409741 
 5200000   0.92874116   -3.2384895   -1.7456463  0.061752153   -3.2384895    1.4928432   409728 
 5201000   0.92803166   -3.2379413   -1.7461913  0.056188718   -3.2379413      1.49175   409715 
 5202000   0.92873649   -3.2389591   -1.7460251  0.056450077   -3.2389591     1.492934   409701 
 5203000   0.92718301   -3.2367523   -1.7462681  0.063295291   -3.2367523    1.4904841   409688 
 5204000   0.92749799   -3.2387812   -1.7477434  0.055535469   -3.2387812    1.4910378   409675 
 5205000   0.92803223   -3.2379858   -1.7460382   0.05564636   -3.2379858    1.4919476   409661 
 5206000   0.92852705    -3.238314   -1.7455235  0.058232124    -3.238314    1.4927905   409648 
 5207000   0.92796042   -3.2382099    -1.746283  0.053791254   -3.2382099    1.4919268   409635 
 5208000   0.92814816   -3.2369317    -1.744652  0.062222094   -3.2369317    1.4922797   409621 
 5209000    0.9278281   -3.2352475   -1.7434351  0.057331787   -3.2352475    1.4918124   409608 
 5210000   0.92755101   -3.2364679   -1.7450537  0.060025052   -3.2364679    1.4914143   409595 
 5211000   0.92863313   -3.2370826   -1.7438773  0.058892766   -3.2370826    1.4932052   409581 
 5212000   0.92802098   -3.2365731   -1.7443049  0.057486489   -3.2365731    1.4922683   409568 
 5213000   0.92777717   -3.2383784   -1.7464548  0.059960094   -3.2383784    1.4919236   409555 
 5214000   0.92815412   -3.2393348   -1.7467541  0.055888335   -3.2393348    1.4925808   409541 
 5215000   0.92753317   -3.2373254   -1.7456958  0.057872936   -3.2373254    1.4916296   409528 
 5216000   0.92798051   -3.2365266   -1.7441302   0.05896582   -3.2365266    1.4923963   409515 
 5217000   0.92720548   -3.2371493   -1.7459484  0.061117317   -3.2371493    1.4912009   409501 
 5218000   0.92762617   -3.2371903   -1.7452655  0.058982562   -3.2371903    1.4919248   409488 
 5219000   0.92869563   -3.2398006   -1.7461083   0.05554801   -3.2398006    1.4936923   409475 
 5220000   0.92720883   -3.2382196   -1.7468676  0.056152885   -3.2382196     1.491352   409461 
 5221000   0.92794545   -3.2384305   -1.7458464  0.059605953   -3.2384305    1.4925841   409448 
 5222000   0.92833594   -3.2411774   -1.7479177  0.058140893   -3.2411774    1.4932597   409435 
 5223000   0.92805636   -3.2409371   -1.7480762   0.05460511   -3.2409371     1.492861   409421 
 5224000   0.92737953   -3.2398863   -1.7480667  0.057140411   -3.2398863    1.4918196   409408 
 5225000   0.92893115   -3.2418887   -1.7475256  0.059798903   -3.2418887    1.4943631   409395 
 5226000   0.92619314   -3.2382581   -1.7482487  0.061602989   -3.2382581    1.4900094   409381 
 5227000   0.92592297   -3.2384396   -1.7488175  0.058730494   -3.2384396    1.4896221   409368 
 5228000   0.92681803   -3.2394235   -1.7483141  0.057878331   -3.2394235    1.4911094   409355 
 5229000   0.92732651   -3.2414712   -1.7494927  0.055315749   -3.2414712    1.4919785   409341 
 5230000   0.92760969   -3.2419367   -1.7494552  0.058278173   -3.2419367    1.4924815   409328 
 5231000   0.92835108   -3.2431988    -1.749477  0.058511358   -3.2431988    1.4937218   409315 
 5232000   0.92878317   -3.2433988   -1.7489306  0.058289492   -3.2433988    1.4944682   409301 
 5233000   0.92820902   -3.2445479   -1.7509561  0.061835544   -3.2445479    1.4935917   409288 
 5234000    0.9281807   -3.2442763   -1.7506826  0.058588694   -3.2442763    1.4935936   409275 
 5235000   0.92815886   -3.2432792   -1.7496696  0.058612185   -3.2432792    1.4936096   409261 
 5236000   0.92734371    -3.242806   -1.7504608  0.060563414    -3.242806    1.4923452   409248 
 5237000   0.92749616   -3.2432156   -1.7505776  0.058438605   -3.2432156     1.492638   409235 
 5238000   0.92736131   -3.2433182   -1.7508462  0.058398952   -3.2433182     1.492472   409221 
 5239000   0.92693658   -3.2415251   -1.7496893  0.059178856   -3.2415251    1.4918358   409208 
 5240000   0.92690619   -3.2431881   -1.7513538  0.059303993   -3.2431881    1.4918343   409195 
 5241000   0.92545574   -3.2415447   -1.7519939  0.051508491   -3.2415447    1.4895508   409181 
 5242000   0.92847449   -3.2448206   -1.7503635  0.058053511   -3.2448206    1.4944571   409168 
 5243000   0.92815492   -3.2433318   -1.7493416  0.059010961   -3.2433318    1.4939902   409155 
 5244000   0.92799129   -3.2446148   -1.7508369  0.061578946   -3.2446148    1.4937779   409141 
 5245000   0.92677592   -3.2424538   -1.7505848  0.064336294   -3.2424538    1.4918689   409128 
 5246000   0.92679245   -3.2443922   -1.7524493  0.058107036   -3.2443922     1.491943   409115 
 5247000   0.92573919   -3.2425845   -1.7522861   0.06031256   -3.2425845    1.4902984   409101 
 5248000   0.92630025   -3.2427554   -1.7515064  0.063240941   -3.2427554     1.491249   409088 
 5249000    0.9256404   -3.2402456   -1.7500115   0.05560762   -3.2402456    1.4902341   409075 
 5250000   0.92539434   -3.2404454   -1.7505564  0.057573908   -3.2404454    1.4898889   409061 
 5251000   0.92523433   -3.2405189   -1.7508403   0.05847332   -3.2405189    1.4896787   409048 
 5252000   0.92589558   -3.2411524   -1.7503617  0.057168046   -3.2411524    1.4907907   409035 
 5253000   0.92592293   -3.2415696   -1.7506838  0.060404916   -3.2415696    1.4908858   409021 
 5254000   0.92656064   -3.2430661   -1.7511061  0.053611983   -3.2430661      1.49196   409008 
 5255000   0.92624996   -3.2421348   -1.7506276   0.05632761   -3.2421348    1.4915071   408995 
 5256000    0.9275492   -3.2439054    -1.750255  0.062179085   -3.2439054    1.4936504   408981 
 5257000   0.92531078   -3.2411246   -1.7510314  0.056163807   -3.2411246    1.4900932   408968 
 5258000   0.92591524   -3.2416485   -1.7505345  0.057987936   -3.2416485     1.491114   408955 
 5259000     0.924862   -3.2391603   -1.7496915  0.056082045   -3.2391603    1.4894688   408941 
 5260000   0.92601855   -3.2419558    -1.750577  0.055323832   -3.2419558    1.4913788   408928 
 5261000   0.92578085   -3.2412482   -1.7502048  0.056723783   -3.2412482    1.4910434   408915 
 5262000   0.92572887   -3.2397021   -1.7486913  0.058959223   -3.2397021    1.4910107   408901 
 5263000   0.92628679   -3.2414457   -1.7494889  0.055938076   -3.2414457    1.4919568   408888 
 5264000   0.92539529   -3.2408615   -1.7502932  0.061661388   -3.2408615    1.4905682   408875 
 5265000   0.92512953   -3.2429578   -1.7527666  0.057359845   -3.2429578    1.4901912   408861 
 5266000   0.92508335   -3.2411956   -1.7510314   0.05493912   -3.2411956    1.4901642   408848 
 5267000   0.92366336   -3.2391084   -1.7511843  0.059928794   -3.2391084    1.4879241   408835 
 5268000   0.92599598   -3.2420155   -1.7502827  0.054092915   -3.2420155    1.4917328   408821 
 5269000   0.92741764   -3.2433668   -1.7492963  0.055947724   -3.2433668    1.4940705   408808 
 5270000   0.92668917   -3.2428621   -1.7499177  0.057402635   -3.2428621    1.4929444   408795 
 5271000   0.92640219   -3.2423005   -1.7497673   0.05534873   -3.2423005    1.4925332   408781 
 5272000   0.92514942    -3.239722   -1.7491598  0.056970026    -3.239722    1.4905623   408768 
 5273000   0.92455291    -3.238706   -1.7490574  0.057749163    -3.238706    1.4896486   408755 
 5274000   0.92595092   -3.2395756   -1.7476235  0.053494222   -3.2395756    1.4919522   408741 
 5275000   0.92485862   -3.2380612   -1.7478217  0.061788682   -3.2380612    1.4902396   408728 
 5276000   0.92507516   -3.2391643   -1.7485284  0.060342657   -3.2391643    1.4906359   408715 
 5277000   0.92657635   -3.2406062   -1.7475002  0.059020495   -3.2406062     1.493106   408701 
 5278000   0.92567426   -3.2392551   -1.7475553  0.061814558   -3.2392551    1.4916998   408688 
 5279000   0.92594699   -3.2403309   -1.7481441  0.056630413   -3.2403309    1.4921868   408675 
 5280000   0.92582113   -3.2405448   -1.7485097  0.059817889   -3.2405448    1.4920351   408661 
 5281000   0.92562072   -3.2393718   -1.7476123  0.059714536   -3.2393718    1.4917595   408648 
 5282000    0.9240956   -3.2383502   -1.7490013  0.054762356   -3.2383502     1.489349   408635 
 5283000   0.92482265   -3.2374088   -1.7468369  0.063653567   -3.2374088    1.4905718   408621 
 5284000   0.92569531   -3.2402014   -1.7481756  0.052106293   -3.2402014    1.4920258   408608 
 5285000   0.92228158   -3.2366444   -1.7500735  0.057157935   -3.2366444    1.4865709   408595 
 5286000   0.92335917   -3.2385277   -1.7501689  0.054924028   -3.2385277    1.4883588   408581 
 5287000   0.92379783   -3.2399649   -1.7508517  0.059231904   -3.2399649    1.4891132   408568 
 5288000   0.92308033   -3.2374923   -1.7494883  0.055822472   -3.2374923     1.488004   408555 
 5289000   0.92364602    -3.237411   -1.7484441  0.060200121    -3.237411    1.4889669   408541 
 5290000   0.92296905   -3.2371774   -1.7492545   0.05851474   -3.2371774    1.4879229   408528 
 5291000   0.92369087    -3.236971    -1.747837  0.056123743    -3.236971     1.489134   408515 
 5292000     0.924032   -3.2383423   -1.7486073  0.062004284   -3.2383423     1.489735   408501 
 5293000   0.92554157   -3.2400776   -1.7478614  0.057004442   -3.2400776    1.4922162   408488 
 5294000   0.92572407   -3.2389387   -1.7463807  0.058049324   -3.2389387     1.492558   408475 
 5295000   0.92654337    -3.239904   -1.7459739  0.057981484    -3.239904    1.4939301   408461 
 5296000   0.92636746   -3.2401111   -1.7464171  0.055323287   -3.2401111     1.493694   408448 
 5297000   0.92459331   -3.2382799    -1.747399  0.054817715   -3.2382799    1.4908808   408435 
 5298000   0.92489818   -3.2400764   -1.7486529  0.055353539   -3.2400764    1.4914235   408421 
 5299000   0.92387563   -3.2365907   -1.7467686  0.062644782   -3.2365907    1.4898221   408408 
 5300000   0.92498237   -3.2390547   -1.7474005  0.055928783   -3.2390547    1.4916543   408395 
 5301000     0.924806   -3.2384457   -1.7470247  0.061454231   -3.2384457     1.491421   408381 
 5302000   0.92547983   -3.2389104   -1.7463552  0.060152155   -3.2389104    1.4925551   408368 
 5303000   0.92530823   -3.2373337   -1.7450078   0.06029661   -3.2373337    1.4923259   408355 
 5304000   0.92472337   -3.2375338      -1.7461  0.056887869   -3.2375338    1.4914338   408341 
 5305000   0.92389613   -3.2358348   -1.7456877  0.060525974   -3.2358348     1.490147   408328 
 5306000   0.92547937   -3.2380135   -1.7452653  0.059405141   -3.2380135    1.4927481   408315 
 5307000   0.92547848   -3.2391612   -1.7463633  0.060201352   -3.2391612    1.4927979   408301 
 5308000   0.92495853   -3.2388521   -1.7468453   0.05754676   -3.2388521    1.4920067   408288 
 5309000    0.9247823   -3.2395422   -1.7477722  0.057718633   -3.2395422    1.4917699   408275 
 5310000   0.92390393   -3.2369399   -1.7465357  0.058042352   -3.2369399    1.4904042   408261 
 5311000    0.9248897   -3.2383041   -1.7462623   0.05688246   -3.2383041    1.4920419   408248 
 5312000   0.92519668   -3.2385707    -1.745986  0.057086338   -3.2385707    1.4925846   408235 
 5313000   0.92383844   -3.2357965    -1.745352  0.060289782   -3.2357965    1.4904445   408221 
 5314000   0.92454531   -3.2367767   -1.7451442  0.060904324   -3.2367767    1.4916324   408208 
 5315000   0.92507587   -3.2366922   -1.7441562  0.061265357   -3.2366922     1.492536   408195 
 5316000   0.92415238   -3.2365228   -1.7454257  0.057722615   -3.2365228    1.4910971   408181 
 5317000   0.92633347   -3.2390933   -1.7444294  0.053451967   -3.2390933    1.4946639   408168 
 5318000     0.925553   -3.2386059   -1.7451538   0.05836563   -3.2386059    1.4934521   408155 
 5319000   0.92420926   -3.2379534   -1.7466183  0.057610815   -3.2379534     1.491335   408141 
 5320000   0.92331247   -3.2366325   -1.7466971  0.060416283   -3.2366325    1.4899354   408128 
 5321000   0.92322288    -3.236843   -1.7470047  0.058429112    -3.236843    1.4898383   408115 
 5322000   0.92177274   -3.2355866   -1.7480374  0.064014422   -3.2355866    1.4875492   408101 
 5323000   0.92370205   -3.2378452   -1.7471351  0.051310508   -3.2378452    1.4907102   408088 
 5324000   0.92357102    -3.238264   -1.7477178  0.055501198    -3.238264    1.4905462   408075 
 5325000   0.92545572   -3.2401598   -1.7465206   0.05920934   -3.2401598    1.4936391   408061 
 5326000   0.92227605   -3.2372592   -1.7487044  0.060633576   -3.2372592    1.4885547   408048 
 5327000   0.92440497   -3.2405842   -1.7485458   0.05475132   -3.2405842    1.4920384   408035 
 5328000   0.92529267   -3.2408714    -1.747349  0.060869784   -3.2408714    1.4935224   408021 
 5329000    0.9256114   -3.2402951   -1.7462106  0.059385875   -3.2402951    1.4940845   408008 
 5330000   0.92544845   -3.2420416   -1.7481726  0.057017203   -3.2420416     1.493869   407995 
 5331000    0.9237606   -3.2393725   -1.7481769  0.062234502   -3.2393725    1.4911957   407981 
 5332000   0.92503058   -3.2411158   -1.7478225  0.061046128   -3.2411158    1.4932933   407968 
 5333000    0.9245474   -3.2400377   -1.7474768  0.057379851   -3.2400377    1.4925609   407955 
 5334000   0.92603626   -3.2426259   -1.7476101  0.059173843   -3.2426259    1.4950158   407941 
 5335000   0.92390254    -3.239487   -1.7478684  0.065611148    -3.239487    1.4916185   407928 
 5336000   0.92510283   -3.2415091   -1.7479051   0.05944799   -3.2415091     1.493604   407915 
 5337000   0.92332176    -3.238407   -1.7476274  0.062890114    -3.238407    1.4907796   407901 
 5338000   0.92483196   -3.2419123   -1.7486468   0.06206989   -3.2419123    1.4932655   407888 
 5339000   0.92399679   -3.2405838   -1.7486192  0.060892687   -3.2405838    1.4919646   407875 
 5340000   0.92404565   -3.2413766    -1.749282  0.056878515   -3.2413766    1.4920947   407861 
 5341000   0.92307074   -3.2396343   -1.7490664   0.05653031   -3.2396343    1.4905679   407848 
 5342000   0.92310368   -3.2398013   -1.7491327   0.05667677   -3.2398013    1.4906687   407835 
 5343000   0.92244041   -3.2377184   -1.7480697  0.057128185   -3.2377184    1.4896487   407821 
 5344000   0.92265162   -3.2394334   -1.7493961  0.057187799   -3.2394334    1.4900373   407808 
 5345000   0.92288397     -3.23902     -1.74856  0.055062416     -3.23902      1.49046   407795 
 5346000   0.92343606   -3.2415567   -1.7501538  0.053971719   -3.2415567    1.4914029   407781 
 5347000   0.92286883   -3.2393432   -1.7488089  0.054493393   -3.2393432    1.4905343   407768 
 5348000    0.9227762    -3.237986   -1.7475538  0.055049081    -3.237986    1.4904322   407755 
 5349000   0.92171255   -3.2365721   -1.7478068  0.061278065   -3.2365721    1.4887653   407741 
 5350000   0.92102395    -3.235455   -1.7477544  0.061885429    -3.235455    1.4877005   407728 
 5351000   0.92325853   -3.2371305   -1.7457729  0.061097477   -3.2371305    1.4913575   407715 
 5352000   0.92440479    -3.238691   -1.7454306  0.060335266    -3.238691    1.4932604   407701 
 5353000    0.9235407   -3.2368032   -1.7448911  0.058901712   -3.2368032    1.4919121   407688 
 5354000   0.92451128   -3.2369656    -1.743438  0.058942829   -3.2369656    1.4935276   407675 
 5355000   0.92507822   -3.2392596   -1.7447647  0.060651531   -3.2392596    1.4944949   407661 
 5356000   0.92292566   -3.2375194   -1.7464545  0.058870276   -3.2375194    1.4910649   407648 
 5357000   0.92350567   -3.2386103   -1.7465608  0.060194293   -3.2386103    1.4920495   407635 
 5358000   0.92432083   -3.2394959   -1.7460781  0.060427537   -3.2394959    1.4934178   407621 
 5359000   0.92287883   -3.2374636   -1.7463281   0.05563237   -3.2374636    1.4911355   407608 
 5360000    0.9255332   -3.2415914   -1.7461195  0.055913059   -3.2415914     1.495472   407595 
 5361000   0.92309879   -3.2384072   -1.7468174   0.05814713   -3.2384072    1.4915897   407581 
 5362000   0.92303831   -3.2392588   -1.7477192  0.053202269   -3.2392588    1.4915396   407568 
 5363000   0.92087164   -3.2356816   -1.7475957  0.062452649   -3.2356816    1.4880859   407555 
 5364000   0.92288761    -3.238227   -1.7468322  0.058911211    -3.238227    1.4913949   407541 
 5365000   0.92294639   -3.2385778   -1.7470403  0.058265872   -3.2385778    1.4915374   407528 
 5366000   0.92322622   -3.2401522    -1.748115  0.057989711   -3.2401522    1.4920372   407515 
 5367000   0.92333016   -3.2398193   -1.7475628  0.056025968   -3.2398193    1.4922565   407501 
 5368000   0.92176217   -3.2382856   -1.7485157  0.058631791   -3.2382856    1.4897699   407488 
 5369000   0.92244982   -3.2378985   -1.7469697  0.062496604   -3.2378985    1.4909288   407475 
 5370000   0.92395352    -3.240697   -1.7472865  0.058654954    -3.240697    1.4934105   407461 
 5371000   0.92423376   -3.2406872   -1.7467761  0.063045212   -3.2406872    1.4939111   407448 
 5372000   0.92307708   -3.2389619   -1.7468728  0.066095309   -3.2389619    1.4920891   407435 
 5373000    0.9232762   -3.2406798   -1.7482175  0.059539941   -3.2406798    1.4924623   407421 
 5374000   0.92475634   -3.2449799   -1.7500773   0.05801192   -3.2449799    1.4949026   407408 
 5375000   0.92467046   -3.2437848   -1.7489734  0.059556873   -3.2437848    1.4948115   407395 
 5376000   0.92429264   -3.2436487   -1.7493966  0.049520896   -3.2436487     1.494252   407381 
 5377000   0.92416899   -3.2436643   -1.7495644  0.061456415   -3.2436643    1.4940998   407368 
 5378000   0.92246406   -3.2426896   -1.7512985  0.059161865   -3.2426896    1.4913911   407355 
 5379000   0.92336649   -3.2434895   -1.7505881  0.059196522   -3.2434895    1.4929014   407341 
 5380000   0.92362319   -3.2446473   -1.7512832  0.059464153   -3.2446473    1.4933641   407328 
 5381000   0.92356189   -3.2447799   -1.7514673  0.063578383   -3.2447799    1.4933126   407315 
 5382000   0.92228084   -3.2439042   -1.7526116  0.059062016   -3.2439042    1.4912925   407301 
 5383000   0.92460769   -3.2456182   -1.7505155  0.055082619   -3.2456182    1.4951027   407288 
 5384000   0.92197474   -3.2422496   -1.7513568  0.062498571   -3.2422496    1.4908927   407275 
 5385000   0.92441693   -3.2459533     -1.75106  0.054553201   -3.2459533    1.4948933   407261 
 5386000   0.92458831   -3.2456127   -1.7503945  0.057148615   -3.2456127    1.4952182   407248 
 5387000   0.92311795   -3.2439914   -1.7511033   0.05872137   -3.2439914     1.492888   407235 
 5388000   0.92234217   -3.2430634   -1.7513787  0.060526466   -3.2430634    1.4916847   407221 
 5389000   0.92210666   -3.2431675   -1.7518161  0.058237642   -3.2431675    1.4913514   407208 
 5390000   0.92368323   -3.2438257   -1.7498768  0.060477238   -3.2438257    1.4939489   407195 
 5391000    0.9242058   -3.2452912   -1.7504457  0.063933445   -3.2452912    1.4948455   407181 
 5392000   0.92313302   -3.2418118   -1.7486538  0.060656248   -3.2418118     1.493158   407168 
 5393000   0.92341978   -3.2421231   -1.7484535  0.062042259   -3.2421231    1.4936696   407155 
 5394000   0.92195474   -3.2408677   -1.7495166  0.057739687   -3.2408677    1.4913511   407141 
 5395000   0.92188766   -3.2396891   -1.7483989  0.063145692   -3.2396891    1.4912902   407128 
 5396000   0.92163486   -3.2385917   -1.7476629  0.057058321   -3.2385917    1.4909289   407115 
 5397000   0.92215522   -3.2403996   -1.7485777  0.053699636   -3.2403996     1.491822   407101 
 5398000   0.92284423   -3.2408283    -1.747844  0.055831483   -3.2408283    1.4929843   407088 
 5399000   0.92196628    -3.240099   -1.7484874  0.063901235    -3.240099    1.4916116   407075 
 5400000   0.92123046   -3.2398572   -1.7493849  0.055418506   -3.2398572    1.4904724   407061 
 5401000   0.92155111   -3.2385688     -1.74753  0.055334945   -3.2385688    1.4910388   407048 
 5402000   0.92141835   -3.2387017   -1.7478302  0.059833106   -3.2387017    1.4908716   407035 
 5403000   0.92059207   -3.2369409    -1.747355  0.053822021   -3.2369409    1.4895859   407021 
 5404000   0.91942208   -3.2352754   -1.7475351  0.057508444   -3.2352754    1.4877403   407008 
 5405000    0.9212319   -3.2388472   -1.7481308  0.058543023   -3.2388472    1.4907164   406995 
 5406000    0.9225484   -3.2379744   -1.7450763  0.060276325   -3.2379744    1.4928981   406981 
 5407000   0.92153844   -3.2361502   -1.7448389  0.056676763   -3.2361502    1.4913114   406968 
 5408000   0.92141546   -3.2353181   -1.7441581  0.059509271   -3.2353181      1.49116   406955 
 5409000   0.92200467   -3.2358728   -1.7437079  0.061857377   -3.2358728    1.4921649   406941 
 5410000   0.92231969    -3.234536   -1.7418136   0.05822593    -3.234536    1.4927224   406928 
 5411000   0.92476094   -3.2383343   -1.7416131  0.055462963   -3.2383343    1.4967212   406915 
 5412000   0.92324057   -3.2363548   -1.7420429  0.058040988   -3.2363548    1.4943119   406901 
 5413000   0.92293957   -3.2372756   -1.7434032  0.061097712   -3.2372756    1.4938724   406888 
 5414000   0.92229712   -3.2365833    -1.743703  0.055105023   -3.2365833    1.4928803   406875 
 5415000   0.92101871   -3.2342956   -1.7434334   0.06110048   -3.2342956    1.4908623   406861 
 5416000   0.92137911    -3.235557   -1.7440637  0.056223667    -3.235557    1.4914933   406848 
 5417000   0.92005692   -3.2334297   -1.7440292  0.056589951   -3.2334297    1.4894006   406835 
 5418000   0.91963387    -3.233278    -1.744511  0.059774557    -3.233278     1.488767   406821 
 5419000     0.920233     -3.23348   -1.7436955  0.056126529     -3.23348    1.4897845   406808 
 5420000   0.92018746    -3.232918   -1.7431596  0.060693101    -3.232918    1.4897584   406795 
 5421000   0.92102639   -3.2338119    -1.742644  0.058519746   -3.2338119    1.4911679   406781 
 5422000   0.92074711   -3.2333295   -1.7425661  0.055272482   -3.2333295    1.4907634   406768 
 5423000   0.92214414   -3.2359006   -1.7428276  0.062018149   -3.2359006     1.493073   406755 
 5424000   0.92202353   -3.2350563   -1.7421272  0.058157938   -3.2350563    1.4929291   406741 
 5425000   0.92058216   -3.2350775   -1.7444346  0.056475744   -3.2350775    1.4906429   406728 
 5426000    0.9197356   -3.2340952   -1.7447755  0.056842326   -3.2340952    1.4893197   406715 
 5427000   0.92127554   -3.2362043   -1.7443397  0.059182534   -3.2362043    1.4918647   406701 
 5428000   0.92164619   -3.2373156    -1.744803  0.059908135   -3.2373156    1.4925126   406688 
 5429000   0.92194546   -3.2360305   -1.7429855  0.064804122   -3.2360305     1.493045   406675 
 5430000   0.92076823   -3.2350202   -1.7438303  0.060683786   -3.2350202    1.4911898   406661 
 5431000   0.92178603   -3.2375039    -1.744618  0.057219419   -3.2375039    1.4928859   406648 
 5432000   0.92117338   -3.2373089   -1.7453675  0.056105816   -3.2373089    1.4919414   406635 
 5433000   0.92058364   -3.2356333   -1.7445958  0.059588439   -3.2356333    1.4910375   406621 
 5434000   0.92224024   -3.2384098   -1.7446413   0.05659536   -3.2384098    1.4937684   406608 
 5435000   0.92034077   -3.2358598   -1.7451203  0.059489502   -3.2358598    1.4907395   406595 
 5436000   0.91991155   -3.2367166   -1.7466211  0.054610652   -3.2367166    1.4900956   406581 
 5437000   0.92033147   -3.2365647   -1.7457412  0.062037271   -3.2365647    1.4908234   406568 
 5438000   0.92037698   -3.2368398   -1.7458949  0.057964131   -3.2368398    1.4909448   406555 
 5439000   0.91942551   -3.2364946   -1.7470398  0.055750753   -3.2364946    1.4894548   406541 
 5440000   0.91937316   -3.2380235   -1.7486059  0.057473731   -3.2380235    1.4894176   406528 
 5441000   0.91880825   -3.2363482   -1.7477982  0.059383514   -3.2363482    1.4885501   406515 
 5442000   0.91943822   -3.2381462   -1.7485242  0.051743836   -3.2381462     1.489622   406501 
 5443000   0.91844843   -3.2367254   -1.7486594  0.057641264   -3.2367254     1.488066   406488 
 5444000   0.91895536    -3.238868   -1.7499331  0.053696573    -3.238868    1.4889349   406475 
 5445000   0.91891628   -3.2382054   -1.7492826  0.052086683   -3.2382054    1.4889228   406461 
 5446000   0.92100269    -3.242181   -1.7498298  0.052886402    -3.242181    1.4923512   406448 
 5447000   0.91965001    -3.238957   -1.7487499  0.057508399    -3.238957     1.490207   406435 
 5448000   0.92140753   -3.2414552   -1.7483488  0.061233767   -3.2414552    1.4931064   406421 
 5449000   0.92194946   -3.2427011   -1.7486687  0.060135095   -3.2427011    1.4940323   406408 
 5450000   0.92192868   -3.2426182   -1.7485717  0.055069093   -3.2426182    1.4940465   406395 
 5451000    0.9215028   -3.2405073   -1.7470995  0.062854424   -3.2405073    1.4934077   406381 
 5452000   0.92080754   -3.2408435   -1.7485148    0.0555859   -3.2408435    1.4923287   406368 
 5453000   0.91989491   -3.2396806   -1.7487833  0.059562211   -3.2396806    1.4908973   406355 
 5454000   0.92030591   -3.2411907   -1.7495758  0.056196393   -3.2411907    1.4916148   406341 
 5455000   0.91907897   -3.2394312   -1.7497573  0.057201393   -3.2394312    1.4896739   406328 
 5456000   0.91973696   -3.2412446   -1.7504565  0.064139765   -3.2412446    1.4907881   406315 
 5457000   0.91913113   -3.2411253   -1.7512679  0.056433236   -3.2411253    1.4898575   406301 
 5458000    0.9199458   -3.2440914   -1.7528657  0.057460524   -3.2440914    1.4912257   406288 
 5459000   0.91883924   -3.2411474   -1.7516678  0.061627399   -3.2411474    1.4894796   406275 
 5460000   0.91993055   -3.2442766   -1.7529765  0.062156084   -3.2442766    1.4913001   406261 
 5461000   0.91899186   -3.2419745   -1.7521484  0.058255804   -3.2419745     1.489826   406248 
 5462000   0.91849886   -3.2419841   -1.7529096  0.062378516   -3.2419841    1.4890745   406235 
 5463000   0.91896033   -3.2431111   -1.7532371  0.058859879   -3.2431111    1.4898739   406221 
 5464000   0.91788559   -3.2390113   -1.7508322   0.05950649   -3.2390113    1.4881791   406208 
 5465000   0.91761738    -3.239806   -1.7520142  0.059119721    -3.239806    1.4877919   406195 
 5466000   0.91758216     -3.24032   -1.7525339  0.056627458     -3.24032    1.4877861   406181 
 5467000     0.917209   -3.2391078   -1.7518791  0.056616972   -3.2391078    1.4872286   406168 
 5468000   0.91903975   -3.2411202   -1.7508754  0.055269872   -3.2411202    1.4902448   406155 
 5469000   0.91938394   -3.2421249   -1.7512705  0.054082016   -3.2421249    1.4908543   406141 
 5470000   0.91918074   -3.2414078   -1.7508352  0.055066843   -3.2414078    1.4905725   406128 
 5471000   0.91967074   -3.2422099   -1.7507951  0.057041967   -3.2422099    1.4914149   406115 
 5472000   0.91978771   -3.2415303   -1.7498743   0.05764335   -3.2415303     1.491656   406101 
 5473000   0.91955936   -3.2418188   -1.7504854  0.055129398   -3.2418188    1.4913334   406088 
 5474000   0.92055308   -3.2428296   -1.7498368  0.057771973   -3.2428296    1.4929928   406075 
 5475000   0.92047341   -3.2423854   -1.7494703  0.053988226   -3.2423854    1.4929151   406061 
 5476000   0.91962111    -3.241187   -1.7496066  0.057182237    -3.241187    1.4915805   406048 
 5477000   0.92045598   -3.2419519   -1.7489695  0.061431007   -3.2419519    1.4929824   406035 
 5478000   0.91839682   -3.2399532   -1.7502594  0.057222084   -3.2399532    1.4896938   406021 
 5479000   0.91877264   -3.2390609   -1.7487098  0.055342658   -3.2390609    1.4903511   406008 
 5480000   0.91833767   -3.2379774   -1.7482842  0.055984812   -3.2379774    1.4896932   405995 
 5481000    0.9188216   -3.2378126    -1.747283  0.056682791   -3.2378126    1.4905297   405981 
 5482000   0.92082251    -3.240419   -1.7465956  0.063064704    -3.240419    1.4938234   405968 
 5483000   0.91996966   -3.2385089   -1.7460213  0.058518828   -3.2385089    1.4924876   405955 
 5484000   0.91992506   -3.2380693   -1.7456026  0.060933491   -3.2380693    1.4924668   405941 
 5485000   0.91804435   -3.2340888   -1.7446255   0.05784136   -3.2340888    1.4894632   405928 
 5486000   0.91947401     -3.23527   -1.7434394  0.058364176     -3.23527    1.4918305   405915 
 5487000    0.9193004   -3.2349533    -1.743353  0.054497198   -3.2349533    1.4916003   405901 
 5488000    0.9193865   -3.2351513   -1.7433635  0.055856387   -3.2351513    1.4917878   405888 
 5489000   0.92026784   -3.2362436    -1.742978  0.060606489   -3.2362436    1.4932657   405875 
 5490000   0.91935783   -3.2352681   -1.7434277  0.064307039   -3.2352681    1.4918405   405861 
 5491000   0.91968694   -3.2356451   -1.7432227  0.057424978   -3.2356451    1.4924223   405848 
 5492000   0.91840475   -3.2342149   -1.7438255  0.056380414   -3.2342149    1.4903894   405835 
 5493000   0.91854598    -3.236029   -1.7453589  0.055421287    -3.236029      1.49067   405821 
 5494000   0.91866643   -3.2361097   -1.7451965  0.058084002   -3.2361097    1.4909132   405808 
 5495000    0.9175462   -3.2330754   -1.7439325  0.058734882   -3.2330754    1.4891429   405795 
 5496000   0.91699187   -3.2327212   -1.7444266  0.052785426   -3.2327212    1.4882946   405781 
 5497000    0.9173403   -3.2347635   -1.7458557  0.051332726   -3.2347635    1.4889078   405768 
 5498000   0.91839736   -3.2365886   -1.7459174  0.052982843   -3.2365886    1.4906713   405755 
 5499000   0.91763402   -3.2345027    -1.745019  0.054421562   -3.2345027    1.4894837   405741 
 5500000   0.91863656   -3.2355671   -1.7444083  0.058194669   -3.2355671    1.4911587   405728 
 5501000   0.91685652    -3.233545    -1.745228  0.058481681    -3.233545     1.488317   405715 
 5502000   0.91756944   -3.2355316   -1.7460059  0.053510856   -3.2355316    1.4895257   405701 
 5503000   0.91624552   -3.2340697   -1.7466455  0.050970914   -3.2340697    1.4874242   405688 
 5504000    0.9172972   -3.2369213   -1.7477422  0.053080648   -3.2369213    1.4891792   405675 
 5505000    0.9164198     -3.23618   -1.7483739  0.057169717     -3.23618    1.4878061   405661 
 5506000   0.91722697   -3.2365989   -1.7474346  0.053776375   -3.2365989    1.4891643   405648 
 5507000   0.91796526   -3.2393567    -1.748946  0.056128625   -3.2393567    1.4904107   405635 
 5508000   0.91807975   -3.2374551   -1.7468071   0.05926447   -3.2374551     1.490648   405621 
 5509000   0.91949316   -3.2396643   -1.7466735  0.059744404   -3.2396643    1.4929908   405608 
 5510000   0.91955648   -3.2401913   -1.7470499  0.062223494   -3.2401913    1.4931414   405595 
 5511000   0.91984676   -3.2418583   -1.7481939  0.055690734   -3.2418583    1.4936643   405581 
 5512000   0.91886252   -3.2407104   -1.7485965  0.058131119   -3.2407104    1.4921139   405568 
 5513000   0.91956033   -3.2416513   -1.7483563  0.058913066   -3.2416513     1.493295   405555 
 5514000   0.91984697   -3.2427408   -1.7489287  0.060190019   -3.2427408     1.493812   405541 
 5515000   0.91836435   -3.2415804   -1.7501283  0.059323566   -3.2415804    1.4914521   405528 
 5516000   0.92047754   -3.2442321   -1.7493002  0.061243133   -3.2442321    1.4949319   405515 
 5517000   0.91805235    -3.242258   -1.7512133  0.057023294    -3.242258    1.4910446   405501 
 5518000   0.91919308   -3.2446183   -1.7516731  0.064375305   -3.2446183    1.4929452   405488 
 5519000        0.919   -3.2439362   -1.7512568   0.05979906   -3.2439362    1.4926795   405475 
 5520000   0.91762334   -3.2422856   -1.7517907  0.057778244   -3.2422856    1.4904949   405461 
 5521000   0.91669075    -3.241656   -1.7526281  0.061764041    -3.241656    1.4890278   405448 
 5522000    0.9165118    -3.242605   -1.7538201  0.059385126    -3.242605    1.4887849   405435 
 5523000   0.91635126   -3.2425124   -1.7539369  0.058592831   -3.2425124    1.4885755   405421 
 5524000   0.91657798    -3.242941   -1.7539494  0.061420545    -3.242941    1.4889916   405408 
 5525000   0.91701041   -3.2433525   -1.7536107  0.060740599   -3.2433525    1.4897418   405395 
 5526000   0.91570869   -3.2420034   -1.7543249  0.057440764   -3.2420034    1.4876785   405381 
 5527000   0.91520475   -3.2413775     -1.75447  0.055955011   -3.2413775    1.4869074   405368 
 5528000   0.91535986   -3.2406868   -1.7534796  0.057031636   -3.2406868    1.4872071   405355 
 5529000   0.91955904    -3.246914   -1.7528327  0.059167681    -3.246914    1.4940813   405341 
 5530000   0.91838601   -3.2441916   -1.7519684   0.05726762   -3.2441916    1.4922232   405328 
 5531000   0.91783636    -3.244621   -1.7532431  0.054731821    -3.244621    1.4913779   405315 
 5532000   0.91815674   -3.2439964   -1.7520463  0.061450021   -3.2439964    1.4919501   405301 
 5533000   0.91547585   -3.2400747   -1.7524332  0.060381762   -3.2400747    1.4876415   405288 
 5534000   0.91709066   -3.2414555   -1.7511421  0.060224972   -3.2414555    1.4903133   405275 
 5535000   0.91775269   -3.2405494   -1.7491087  0.059139407   -3.2405494    1.4914407   405261 
 5536000    0.9180813   -3.2412894   -1.7492668  0.056311434   -3.2412894    1.4920226   405248 
 5537000   0.91741705   -3.2410306   -1.7500397  0.055112399   -3.2410306    1.4909909   405235 
 5538000   0.91724007   -3.2409683   -1.7502135  0.055237798   -3.2409683    1.4907548   405221 
 5539000   0.91656578    -3.240283   -1.7505764  0.058997989    -3.240283    1.4897067   405208 
 5540000   0.91691371   -3.2407978   -1.7504778  0.056049015   -3.2407978      1.49032   405195 
 5541000   0.91816989   -3.2410466   -1.7486333  0.057692384   -3.2410466    1.4924133   405181 
 5542000   0.91712628   -3.2402355   -1.7494707  0.057966203   -3.2402355    1.4907648   405168 
 5543000   0.91668129   -3.2396698   -1.7495805  0.057106657   -3.2396698    1.4900893   405155 
 5544000   0.91723465   -3.2393879   -1.7483475  0.056804843   -3.2393879    1.4910403   405141 
 5545000   0.91664025   -3.2379597   -1.7478378  0.057463442   -3.2379597    1.4901219   405128 
 5546000   0.91579234   -3.2367835   -1.7479922  0.057869714   -3.2367835    1.4887913   405115 
 5547000   0.91647999   -3.2372681   -1.7473075  0.060136709   -3.2372681    1.4899607   405101 
 5548000   0.91737026   -3.2379965   -1.7465406  0.060263324   -3.2379965    1.4914559   405088 
 5549000   0.91692081   -3.2376631   -1.7468901   0.06090976   -3.2376631     1.490773   405075 
 5550000     0.916134   -3.2368117   -1.7472665  0.059246468   -3.2368117    1.4895453   405061 
 5551000    0.9154854   -3.2370271   -1.7484886  0.056109959   -3.2370271    1.4885385   405048 
 5552000   0.91431278   -3.2341774   -1.7474979  0.053158571   -3.2341774    1.4866796   405035 
 5553000   0.91466323     -3.23462   -1.7473192  0.053172282     -3.23462    1.4873008   405021 
 5554000    0.9147085   -3.2340247   -1.7466026  0.054000824   -3.2340247    1.4874222   405008 
 5555000   0.91460235   -3.2328185   -1.7455212  0.056979555   -3.2328185    1.4872973   404995 
 5556000   0.91510671   -3.2354751   -1.7473062  0.055288466   -3.2354751    1.4881689   404981 
 5557000   0.91568795   -3.2354871   -1.7463251  0.054383841   -3.2354871    1.4891619   404968 
 5558000   0.91550228   -3.2372945   -1.7483867  0.053456544   -3.2372945    1.4889078   404955 
 5559000   0.91562706   -3.2379335   -1.7487714  0.051521149   -3.2379335    1.4891622   404941 
 5560000   0.91689215   -3.2375266    -1.746259  0.060348292   -3.2375266    1.4912676   404928 
 5561000   0.91623367    -3.236357   -1.7461125  0.060855841    -3.236357    1.4902444   404915 
 5562000    0.9186813   -3.2398375   -1.7455603  0.059773145   -3.2398375    1.4942772   404901 
 5563000   0.91754335   -3.2388747   -1.7464006  0.055434863   -3.2388747    1.4924742   404888 
 5564000   0.91637961   -3.2379359   -1.7473068  0.061233217   -3.2379359    1.4906291   404875 
 5565000   0.91646249   -3.2375742   -1.7467588  0.058740145   -3.2375742    1.4908154   404861 
 5566000   0.91743266   -3.2388364   -1.7463948  0.063638157   -3.2388364    1.4924415   404848 
 5567000   0.91802004   -3.2396331   -1.7461881    0.0616988   -3.2396331     1.493445   404835 
 5568000   0.91770552   -3.2404081   -1.7474231  0.056611627   -3.2404081     1.492985   404821 
 5569000   0.91884428   -3.2435418   -1.7486561  0.055230873   -3.2435418    1.4948856   404808 
 5570000   0.91683239   -3.2406377   -1.7489774  0.063091377   -3.2406377    1.4916603   404795 
 5571000   0.91731084    -3.240691   -1.7482007  0.052417569    -3.240691    1.4924904   404781 
 5572000   0.91567302   -3.2383996   -1.7485262  0.056879092   -3.2383996    1.4898734   404768 
 5573000   0.91720621   -3.2402469   -1.7478309  0.060388329   -3.2402469     1.492416   404755 
 5574000   0.91528941   -3.2388115   -1.7494629  0.057520379   -3.2388115    1.4893486   404741 
 5575000   0.91458172   -3.2374891   -1.7492442  0.054856519   -3.2374891    1.4882449   404728 
 5576000   0.91540512   -3.2380255   -1.7483929   0.05685584   -3.2380255    1.4896326   404715 
 5577000   0.91512632    -3.237938   -1.7487075  0.060980302    -3.237938    1.4892304   404701 
 5578000    0.9173329   -3.2404328   -1.7475635  0.057338766   -3.2404328    1.4928693   404688 
 5579000   0.91612194    -3.238393   -1.7474465  0.057672714    -3.238393    1.4909464   404675 
 5580000   0.91514384   -3.2368712    -1.747465  0.060261663   -3.2368712    1.4894062   404661 
 5581000   0.91630731   -3.2381022   -1.7467546  0.065183798   -3.2381022    1.4913476   404648 
 5582000   0.91657609    -3.238082    -1.746249  0.059641949    -3.238082     1.491833   404635 
 5583000   0.91511576   -3.2362883   -1.7467806  0.063657163   -3.2362883    1.4895077   404621 
 5584000   0.91561632    -3.236516   -1.7461457  0.059070817    -3.236516    1.4903703   404608 
 5585000   0.91500215   -3.2353086   -1.7458901  0.061181018   -3.2353086    1.4894185   404595 
 5586000   0.91581536   -3.2370968    -1.746303  0.059263237   -3.2370968    1.4907938   404581 
 5587000   0.91282138   -3.2340732   -1.7481054  0.052441608   -3.2340732    1.4859678   404568 
 5588000   0.91294677   -3.2340306   -1.7478109  0.053426846   -3.2340306    1.4862197   404555 
 5589000   0.91392775    -3.235147   -1.7472789  0.053923947    -3.235147    1.4878682   404541 
 5590000   0.91467751   -3.2368474   -1.7477107  0.061842807   -3.2368474    1.4891366   404528 
 5591000   0.91353001   -3.2340557   -1.7467394  0.055032552   -3.2340557    1.4873162   404515 
 5592000   0.91465999    -3.237001   -1.7477935  0.054234064    -3.237001    1.4892075   404501 
 5593000    0.9144984   -3.2368075   -1.7478152   0.05361544   -3.2368075    1.4889923   404488 
 5594000   0.91475523   -3.2352063    -1.745748  0.053998386   -3.2352063    1.4894583   404475 
 5595000   0.91495854   -3.2349676   -1.7451267  0.055646621   -3.2349676    1.4898409   404461 
 5596000   0.91538431   -3.2367406   -1.7461585   0.05555422   -3.2367406    1.4905821   404448 
 5597000   0.91460378   -3.2356408   -1.7462818  0.062217481   -3.2356408     1.489359   404435 
 5598000    0.9135741   -3.2340201   -1.7462864  0.062037845   -3.2340201    1.4877337   404421 
 5599000   0.91378445   -3.2362721   -1.7481479  0.058801443   -3.2362721    1.4881241   404408 
 5600000   0.91329379   -3.2342007   -1.7468278  0.057228518   -3.2342007    1.4873729   404395 
 5601000   0.91363297   -3.2332615   -1.7452847  0.055984043   -3.2332615    1.4879768   404381 
 5602000   0.91287203   -3.2346247   -1.7478394  0.055953854   -3.2346247    1.4867853   404368 
 5603000   0.91291287   -3.2356474   -1.7487478  0.063945833   -3.2356474    1.4868996   404355 
 5604000   0.91354531   -3.2376092    -1.749628  0.053491893   -3.2376092    1.4879812   404341 
 5605000    0.9139491    -3.237305   -1.7486183   0.05828358    -3.237305    1.4886868   404328 
 5606000    0.9136192   -3.2369464   -1.7487492  0.061998932   -3.2369464    1.4881972   404315 
 5607000   0.91389619   -3.2379065   -1.7492065  0.052756967   -3.2379065       1.4887   404301 
 5608000   0.91552199   -3.2408088   -1.7494126  0.056089207   -3.2408088    1.4913963   404288 
 5609000    0.9133119   -3.2377975   -1.7499536  0.055190048   -3.2377975    1.4878439   404275 
 5610000   0.91365507   -3.2395374   -1.7510829  0.051545293   -3.2395374    1.4884545   404261 
 5611000   0.91317995   -3.2400975   -1.7523692  0.050864779   -3.2400975    1.4877283   404248 
 5612000   0.91297119   -3.2382165   -1.7507805   0.05793337   -3.2382165     1.487436   404235 
 5613000   0.91381497    -3.239762   -1.7508997  0.058823381    -3.239762    1.4888623   404221 
 5614000   0.91484241   -3.2412758   -1.7506916  0.055209466   -3.2412758    1.4905842   404208 
 5615000   0.91645182   -3.2418362   -1.7485817  0.060552649   -3.2418362    1.4932545   404195 
 5616000    0.9147727   -3.2388197   -1.7482495    0.0604038   -3.2388197    1.4905702   404181 
 5617000    0.9154415   -3.2396801   -1.7479721   0.05443701   -3.2396801    1.4917079   404168 
 5618000   0.91652226    -3.242882   -1.7493649  0.056867196    -3.242882    1.4935171   404155 
 5619000    0.9137185   -3.2393303   -1.7503305  0.059374482   -3.2393303    1.4889998   404141 
 5620000   0.91399926   -3.2402399   -1.7507346  0.060297743   -3.2402399    1.4895052   404128 
 5621000   0.91353554   -3.2403401   -1.7515427  0.058611242   -3.2403401    1.4887974   404115 
 5622000   0.91468837   -3.2415689    -1.750841  0.059998928   -3.2415689    1.4907279   404101 
 5623000   0.91254435   -3.2399271   -1.7526456  0.058442995   -3.2399271    1.4872814   404088 
 5624000   0.91363432   -3.2413313   -1.7522255  0.061289445   -3.2413313    1.4891058   404075 
 5625000   0.91304366   -3.2417896   -1.7535949  0.056391316   -3.2417896    1.4881947   404061 
 5626000   0.91480805   -3.2436881   -1.7525696  0.059085978   -3.2436881    1.4911185   404048 
 5627000   0.91324435   -3.2415445   -1.7529269  0.056113471   -3.2415445    1.4886176   404035 
 5628000   0.91376852   -3.2427004   -1.7531768  0.051309126   -3.2427004    1.4895236   404021 
 5629000   0.91298422   -3.2392146   -1.7509216  0.058026669   -3.2392146     1.488293   404008 
 5630000   0.91449457    -3.242253   -1.7514499  0.057854481    -3.242253    1.4908031   403995 
 5631000   0.91343564   -3.2401156   -1.7509872  0.054997797   -3.2401156    1.4891284   403981 
 5632000   0.91346932   -3.2400191   -1.7507879  0.057182457   -3.2400191    1.4892312   403968 
 5633000   0.91434684   -3.2399227   -1.7492128  0.058849602   -3.2399227    1.4907098   403955 
 5634000   0.91367473    -3.240256   -1.7505903  0.059101875    -3.240256    1.4896657   403941 
 5635000   0.91166863   -3.2382029   -1.7517602  0.059182673   -3.2382029    1.4864427   403928 
 5636000   0.91230658   -3.2412382   -1.7537075  0.059858991   -3.2412382    1.4875308   403915 
 5637000   0.91220347   -3.2404067   -1.7529925  0.055271168   -3.2404067    1.4874142   403901 
 5638000   0.91301659   -3.2416295   -1.7528415   0.05445238   -3.2416295     1.488788   403888 
 5639000   0.91113072   -3.2393681   -1.7536074  0.057791204   -3.2393681    1.4857606   403875 
 5640000   0.91080942   -3.2388834   -1.7535952  0.053289859   -3.2388834    1.4852882   403861 
 5641000   0.91088751   -3.2374999   -1.7520365  0.057619389   -3.2374999    1.4854634   403848 
 5642000   0.91081021   -3.2378919   -1.7525068     0.054587   -3.2378919    1.4853851   403835 
 5643000   0.91187406   -3.2398812   -1.7527095  0.052299239   -3.2398812    1.4871716   403821 
 5644000   0.91098519   -3.2404331   -1.7546633  0.056543469   -3.2404331    1.4857698   403808 
 5645000    0.9118899   -3.2408286   -1.7535354  0.057442759   -3.2408286    1.4872932   403795 
 5646000   0.91418948   -3.2432508   -1.7521553  0.059454211   -3.2432508    1.4910956   403781 
 5647000   0.91244648   -3.2399174   -1.7516169  0.059344834   -3.2399174    1.4883005   403768 
 5648000   0.91272564   -3.2412182   -1.7524144  0.057525229   -3.2412182    1.4888038   403755 
 5649000   0.91433563   -3.2426544   -1.7511727  0.058432331   -3.2426544    1.4914817   403741 
 5650000    0.9131848   -3.2424108   -1.7527584  0.058728385   -3.2424108    1.4896524   403728 
 5651000   0.91279311   -3.2426329   -1.7535715  0.060908037   -3.2426329    1.4890614   403715 
 5652000   0.91263783    -3.241803   -1.7529433  0.056317063    -3.241803    1.4888597   403701 
 5653000    0.9115877    -3.241078   -1.7538836  0.055580561    -3.241078    1.4871944   403688 
 5654000   0.91323093   -3.2420477   -1.7521244   0.06216686   -3.2420477    1.4899232   403675 
 5655000   0.91311074   -3.2409663   -1.7511875  0.063999175   -3.2409663    1.4897788   403661 
 5656000   0.91304695   -3.2417511   -1.7520284   0.05568702   -3.2417511    1.4897227   403648 
 5657000   0.91246326   -3.2417567   -1.7529384  0.055615899   -3.2417567    1.4888183   403635 
 5658000   0.91298608   -3.2414172   -1.7516941  0.062128755   -3.2414172     1.489723   403621 
 5659000   0.91375378   -3.2422762   -1.7512525  0.060403896   -3.2422762    1.4910237   403608 
 5660000   0.91277685   -3.2413803   -1.7519027  0.060026607   -3.2413803    1.4894776   403595 
 5661000   0.91272766   -3.2411098   -1.7516608  0.055674082   -3.2411098     1.489449   403581 
 5662000    0.9104903    -3.238522   -1.7526763  0.053583955    -3.238522    1.4858458   403568 
 5663000   0.91279061    -3.244019   -1.7543713  0.054852113    -3.244019    1.4896477   403555 
 5664000   0.90985107   -3.2381501   -1.7532481  0.058163793   -3.2381501    1.4849019   403541 
 5665000   0.91160829   -3.2404703   -1.7526526  0.055851944   -3.2404703    1.4878177   403528 
 5666000   0.91114063   -3.2408249   -1.7537225   0.05506509   -3.2408249    1.4871024   403515 
 5667000   0.91094081   -3.2384794   -1.7516515  0.061135675   -3.2384794    1.4868278   403501 
 5668000    0.9143147   -3.2444529   -1.7520701  0.051513655   -3.2444529    1.4923827   403488 
 5669000    0.9120462   -3.2405815   -1.7518536  0.054221302   -3.2405815    1.4887279   403475 
 5670000   0.91077424    -3.238407   -1.7517037  0.055757125    -3.238407    1.4867033   403461 
 5671000   0.91108296   -3.2385214   -1.7512663  0.059065055   -3.2385214    1.4872552   403448 
 5672000    0.9119222   -3.2399095   -1.7512364  0.061872558   -3.2399095    1.4886731   403435 
 5673000   0.91407292   -3.2419093   -1.7496734  0.057203391   -3.2419093    1.4922359   403421 
 5674000   0.91314152    -3.242159   -1.7513956   0.05219179    -3.242159    1.4907634   403408 
 5675000   0.91206826   -3.2407836   -1.7517244   0.05633725   -3.2407836    1.4890592   403395 
 5676000   0.91222976   -3.2403835    -1.751009  0.054664454   -3.2403835    1.4893746   403381 
 5677000   0.91263154   -3.2412619   -1.7511833  0.057210856   -3.2412619    1.4900785   403368 
 5678000   0.91237339   -3.2402906   -1.7505856  0.056673712   -3.2402906    1.4897051   403355 
 5679000   0.91240644   -3.2409179   -1.7511072  0.057173455   -3.2409179    1.4898107   403341 
 5680000   0.91062872   -3.2382999    -1.751344  0.054345603   -3.2382999    1.4869559   403328 
 5681000   0.91004221   -3.2366104   -1.7505643  0.055919135   -3.2366104    1.4860461   403315 
 5682000   0.91271073   -3.2394236   -1.7489682  0.056029884   -3.2394236    1.4904554   403301 
 5683000   0.91150574   -3.2378523   -1.7493167   0.05739461   -3.2378523    1.4885356   403288 
 5684000   0.91156799   -3.2387883    -1.750103  0.057112301   -3.2387883    1.4886853   403275 
 5685000   0.91175232   -3.2389118   -1.7498738  0.058262259   -3.2389118     1.489038   403261 
 5686000   0.91068754   -3.2366062   -1.7492592  0.060698226   -3.2366062     1.487347   403248 
 5687000   0.91160394   -3.2385167    -1.749625  0.054395571   -3.2385167    1.4888917   403235 
 5688000   0.91146253   -3.2389791   -1.7502667  0.057817761   -3.2389791    1.4887124   403221 
 5689000   0.91073955   -3.2385817   -1.7510022  0.053387501   -3.2385817    1.4875795   403208 
 5690000   0.91079935   -3.2373396   -1.7496144  0.055439979   -3.2373396    1.4877252   403195 
 5691000   0.91077553   -3.2376401   -1.7499022  0.054255979   -3.2376401    1.4877379   403181 
 5692000   0.91245019   -3.2412279   -1.7507065  0.050575971   -3.2412279    1.4905215   403168 
 5693000   0.91221348   -3.2395785   -1.7493956  0.058856958   -3.2395785    1.4901829   403155 
 5694000   0.91151051   -3.2374505   -1.7483642  0.053442729   -3.2374505    1.4890862   403141 
 5695000     0.911706   -3.2382098   -1.7487562  0.054419999   -3.2382098    1.4894536   403128 
 5696000   0.91110353   -3.2385751   -1.7500578   0.06390073   -3.2385751    1.4885174   403115 
 5697000   0.91314922   -3.2418807   -1.7499693  0.060625782   -3.2418807    1.4919113   403101 
 5698000   0.91256767   -3.2415448   -1.7505355  0.059981469   -3.2415448    1.4910093   403088 
 5699000   0.91333666   -3.2427538     -1.75044   0.06298252   -3.2427538    1.4923138   403075 
 5700000    0.9114124   -3.2395487   -1.7503272  0.059537558   -3.2395487    1.4892215   403061 
 5701000   0.91144324   -3.2400806   -1.7507607  0.059790265   -3.2400806    1.4893199   403048 
 5702000   0.91112742     -3.23987   -1.7510181  0.059267509     -3.23987    1.4888519   403035 
 5703000    0.9118999   -3.2404525   -1.7502866  0.060513759   -3.2404525    1.4901659   403021 
 5704000   0.91144771   -3.2418916   -1.7524166  0.058107977   -3.2418916     1.489475   403008 
 5705000   0.91165426   -3.2408721   -1.7510115  0.057179965   -3.2408721    1.4898606   402995 
 5706000    0.9109736   -3.2410413   -1.7522413  0.060991493   -3.2410413       1.4888   402981 
 5707000   0.91175448   -3.2415968   -1.7514725  0.051842332   -3.2415968    1.4901242   402968 
 5708000   0.91212701   -3.2407563   -1.7499751  0.062193574   -3.2407563    1.4907812   402955 
 5709000   0.91162126   -3.2395398   -1.7495334  0.056076766   -3.2395398    1.4900063   402941 
 5710000   0.91271471   -3.2423941   -1.7505525  0.058523658   -3.2423941    1.4918417   402928 
 5711000   0.91363037   -3.2421644   -1.7487779  0.058122508   -3.2421644    1.4933865   402915 
 5712000   0.91121379     -3.23714   -1.7476518  0.060283409     -3.23714    1.4894882   402901 
 5713000   0.91179633    -3.239185   -1.7486964  0.064181778    -3.239185    1.4904885   402888 
 5714000   0.91101309   -3.2384653   -1.7492091  0.060205537   -3.2384653    1.4892562   402875 
 5715000   0.91157817   -3.2403817   -1.7501499  0.052894375   -3.2403817    1.4902318   402861 
 5716000   0.91188584   -3.2405499    -1.749767  0.056013436   -3.2405499    1.4907829   402848 
 5717000     0.909925   -3.2376846   -1.7500594  0.059967912   -3.2376846    1.4876252   402835 
 5718000    0.9113177    -3.239875   -1.7499211  0.052515094    -3.239875    1.4899539   402821 
 5719000   0.91124332   -3.2393773   -1.7494969  0.058479847   -3.2393773    1.4898804   402808 
 5720000   0.91166475   -3.2391743   -1.7485568  0.057487275   -3.2391743    1.4906175   402795 
 5721000   0.91123621   -3.2379093   -1.7479407  0.059370287   -3.2379093    1.4899686   402781 
 5722000   0.90902451   -3.2345114   -1.7481112  0.058322071   -3.2345114    1.4864002   402768 
 5723000    0.9116191   -3.2372999    -1.746609  0.055796036   -3.2372999    1.4906909   402755 
 5724000   0.91061442      -3.2361   -1.7470002   0.06006672      -3.2361    1.4890998   402741 
 5725000   0.91289797   -3.2384345   -1.7455522  0.057524511   -3.2384345    1.4928822   402728 
 5726000   0.91116969   -3.2363561    -1.746252  0.057742159   -3.2363561     1.490104   402715 
 5727000   0.91084653   -3.2367282   -1.7471008  0.059919524   -3.2367282    1.4896273   402701 
 5728000   0.91087141   -3.2359765   -1.7462604  0.056041891   -3.2359765    1.4897161   402688 
 5729000   0.91064494    -3.235966   -1.7465722  0.054810293    -3.235966    1.4893938   402675 
 5730000   0.91103115   -3.2368491   -1.7467718  0.057523112   -3.2368491    1.4900773   402661 
 5731000    0.9112948   -3.2367725   -1.7462159  0.058234865   -3.2367725    1.4905566   402648 
 5732000   0.91139341   -3.2375472   -1.7467812  0.056634718   -3.2375472     1.490766   402635 
 5733000   0.91167503   -3.2379945    -1.746716   0.05577768   -3.2379945    1.4912785   402621 
 5734000   0.91039174      -3.2368   -1.7475726  0.054604216      -3.2368    1.4892275   402608 
 5735000   0.91006125   -3.2355242   -1.7467893  0.053700423   -3.2355242    1.4887349   402595 
 5736000   0.91085493   -3.2366731    -1.746588  0.055196285   -3.2366731    1.4900851   402581 
 5737000   0.90936243   -3.2357661   -1.7480745  0.054828417   -3.2357661    1.4876915   402568 
 5738000   0.90896082   -3.2344101   -1.7473276  0.054179141   -3.2344101    1.4870825   402555 
 5739000   0.90980152   -3.2351128   -1.7466031  0.058059865   -3.2351128    1.4885097   402541 
 5740000   0.90847711   -3.2331867   -1.7467959  0.058789775   -3.2331867    1.4863909   402528 
 5741000   0.90939412   -3.2365478   -1.7486086  0.050117952   -3.2365478    1.4879393   402515 
 5742000   0.90990914   -3.2364721   -1.7476384  0.053626272   -3.2364721    1.4888337   402501 
 5743000   0.90971155    -3.235681   -1.7471225  0.060198561    -3.235681    1.4885585   402488 
 5744000   0.91051347   -3.2360233   -1.7461045  0.058454375   -3.2360233    1.4899188   402475 
 5745000   0.91034894   -3.2353794    -1.745678  0.061653501   -3.2353794    1.4897014   402461 
 5746000   0.91036098   -3.2371878   -1.7474185  0.060761815   -3.2371878    1.4897692   402448 
 5747000   0.91070266   -3.2377925    -1.747416  0.056927978   -3.2377925    1.4903765   402435 
 5748000     0.911107   -3.2374849   -1.7463948  0.057038856   -3.2374849    1.4910901   402421 
 5749000   0.91111105   -3.2386341   -1.7474892  0.052196756   -3.2386341    1.4911449   402408 
 5750000   0.91101753   -3.2399023   -1.7488623  0.056638767   -3.2399023      1.49104   402395 
 5751000   0.90948263   -3.2373171   -1.7487374  0.055412691   -3.2373171    1.4885796   402381 
 5752000    0.9122166   -3.2396602   -1.7465575  0.053940178   -3.2396602    1.4931027   402368 
 5753000   0.90911878   -3.2358785   -1.7477983   0.05925715   -3.2358785    1.4880803   402355 
 5754000   0.91037696   -3.2369506    -1.746759  0.060464252   -3.2369506    1.4901916   402341 
 5755000   0.91116928   -3.2375202   -1.7459835   0.05669668   -3.2375202    1.4915367   402328 
 5756000   0.91059266   -3.2365939   -1.7459529  0.055511258   -3.2365939     1.490641   402315 
 5757000    0.9109961   -3.2376443    -1.746291   0.05514266   -3.2376443    1.4913533   402301 
 5758000   0.91079994   -3.2381796   -1.7470992  0.057932185   -3.2381796    1.4910803   402288 
 5759000   0.90995524   -3.2372667   -1.7475211  0.060854739   -3.2372667    1.4897456   402275 
 5760000   0.91027926   -3.2382582   -1.7479303  0.057864288   -3.2382582     1.490328   402261 
 5761000   0.91063602   -3.2378911   -1.7469309  0.053859302   -3.2378911    1.4909602   402248 
 5762000   0.91059314   -3.2378368   -1.7468986  0.059355842   -3.2378368    1.4909382   402235 
 5763000   0.91064584   -3.2373513   -1.7462749  0.060949088   -3.2373513    1.4910764   402221 
 5764000   0.90989549    -3.235607   -1.7457111  0.059448235    -3.235607     1.489896   402208 
 5765000   0.90847184   -3.2350155   -1.7474026  0.055918802   -3.2350155    1.4876129   402195 
 5766000     0.908424   -3.2346236   -1.7470373  0.056655927   -3.2346236    1.4875863   402181 
 5767000   0.90917598   -3.2352619    -1.746396  0.052866178   -3.2352619    1.4888659   402168 
 5768000   0.90861392   -3.2338535     -1.74586  0.060952106   -3.2338535    1.4879935   402155 
 5769000   0.90900009   -3.2355516   -1.7468738  0.057252131   -3.2355516    1.4886778   402141 
 5770000   0.91044301    -3.237673    -1.746584  0.060350898    -3.237673    1.4910891   402128 
 5771000   0.90946143   -3.2354756   -1.7459459  0.059750996   -3.2354756    1.4895296   402115 
 5772000   0.90952921   -3.2348626   -1.7451701  0.051502646   -3.2348626    1.4896925   402101 
 5773000   0.90843121   -3.2332906   -1.7453483  0.054049184   -3.2332906    1.4879422   402088 
 5774000   0.90904028    -3.233686    -1.744698  0.054884218    -3.233686     1.488988   402075 
 5775000   0.90749641   -3.2327695   -1.7462586  0.049326654   -3.2327695    1.4865109   402061 
 5776000   0.90720682   -3.2340426    -1.747958  0.053906074   -3.2340426    1.4860846   402048 
 5777000   0.90865598   -3.2354172   -1.7469106  0.055386763   -3.2354172    1.4885066   402035 
 5778000   0.90866249    -3.235614   -1.7470449  0.051643401    -3.235614    1.4885691   402021 
 5779000    0.9097976   -3.2362825   -1.7458057  0.056063139   -3.2362825    1.4904768   402008 
 5780000   0.91106803   -3.2374904   -1.7448841  0.053275911   -3.2374904    1.4926064   401995 
 5781000   0.91174674   -3.2377375   -1.7439672  0.056763884   -3.2377375    1.4937703   401981 
 5782000   0.91107156   -3.2378365   -1.7451241  0.061271285   -3.2378365    1.4927124   401968 
 5783000   0.91291248   -3.2395912   -1.7438143  0.059251266   -3.2395912     1.495777   401955 
 5784000   0.91204216   -3.2381141   -1.7437111  0.059334722   -3.2381141     1.494403   401941 
 5785000   0.91151294   -3.2375977   -1.7440135  0.058340019   -3.2375977    1.4935842   401928 
 5786000   0.91087262    -3.236802   -1.7442188  0.055817068    -3.236802    1.4925833   401915 
 5787000   0.91087815   -3.2381105   -1.7454662  0.058001236   -3.2381105    1.4926443   401901 
 5788000   0.90885927   -3.2345328   -1.7451486  0.058753664   -3.2345328    1.4893842   401888 
 5789000   0.90923986   -3.2358487   -1.7457927  0.053944923   -3.2358487    1.4900561   401875 
 5790000   0.90907398   -3.2351642   -1.7453281  0.059662386   -3.2351642    1.4898361   401861 
 5791000   0.90751834    -3.233997   -1.7466623  0.051219441    -3.233997    1.4873348   401848 
 5792000   0.90880835   -3.2376628   -1.7481656  0.053883785   -3.2376628    1.4894972   401835 
 5793000   0.90684993   -3.2345159   -1.7481767  0.060457938   -3.2345159    1.4863392   401821 
 5794000   0.90957438   -3.2371228     -1.74627  0.056187176   -3.2371228    1.4908528   401808 
 5795000   0.90933424   -3.2366478   -1.7461404  0.054093703   -3.2366478    1.4905074   401795 
 5796000   0.90822433   -3.2347925   -1.7460524  0.055466308   -3.2347925      1.48874   401781 
 5797000   0.90779101    -3.233458   -1.7453801  0.055418005    -3.233458    1.4880779   401768 
 5798000   0.90779837   -3.2324659   -1.7443278  0.055763066   -3.2324659    1.4881381   401755 
 5799000   0.90980144   -3.2352153   -1.7437416  0.058215478   -3.2352153    1.4914737   401741 
 5800000   0.90877712   -3.2337541   -1.7439114  0.061672535   -3.2337541    1.4898427   401728 
 5801000   0.90967622   -3.2348303   -1.7434654  0.057624891   -3.2348303    1.4913649   401715 
 5802000   0.91020632   -3.2377562   -1.7454702  0.062721404   -3.2377562     1.492286   401701 
 5803000   0.90715405   -3.2326746   -1.7453447  0.061526578   -3.2326746    1.4873299   401688 
 5804000   0.90774264     -3.23517   -1.7468269    0.0561489     -3.23517    1.4883431   401675 
 5805000   0.90824297   -3.2361784   -1.7469631   0.05048544   -3.2361784    1.4892154   401661 
 5806000   0.90716498   -3.2330381   -1.7455422  0.061949912   -3.2330381     1.487496   401648 
 5807000   0.90728018   -3.2350387   -1.7473057  0.053510815   -3.2350387     1.487733   401635 
 5808000   0.90496556   -3.2303231   -1.7463338  0.053256583   -3.2303231    1.4839893   401621 
 5809000    0.9080307   -3.2357585   -1.7466947  0.052991716   -3.2357585    1.4890638   401608 
 5810000   0.90954922   -3.2374565   -1.7458542  0.052981196   -3.2374565    1.4916023   401595 
 5811000   0.90852023   -3.2354674   -1.7455007  0.054333563   -3.2354674    1.4899668   401581 
 5812000   0.90870975   -3.2351904   -1.7448646  0.059048971   -3.2351904    1.4903258   401568 
 5813000   0.91070426   -3.2385801   -1.7449348  0.058708779   -3.2385801    1.4936452   401555 
 5814000   0.91089939   -3.2387366   -1.7447192  0.060107766   -3.2387366    1.4940174   401541 
 5815000   0.90950148   -3.2357301   -1.7439572  0.057239068   -3.2357301    1.4917729   401528 
 5816000   0.90903698    -3.237676   -1.7466167  0.061286979    -3.237676    1.4910593   401515 
 5817000   0.90796891   -3.2360549   -1.7466956  0.057670233   -3.2360549    1.4893593   401501 
 5818000   0.90758434   -3.2345676   -1.7457909  0.062137691   -3.2345676    1.4887767   401488 
 5819000   0.90751547   -3.2352263   -1.7465144   0.05674131   -3.2352263    1.4887119   401475 
 5820000   0.90874737   -3.2372314   -1.7464467  0.057382201   -3.2372314    1.4907847   401461 
 5821000   0.90703883   -3.2368375   -1.7488074  0.052714827   -3.2368375    1.4880301   401448 
 5822000   0.90799811   -3.2388908   -1.7492387  0.057390967   -3.2388908    1.4896521   401435 
 5823000   0.90751748   -3.2377007   -1.7487853  0.060757469   -3.2377007    1.4889155   401421 
 5824000     0.907178   -3.2372012   -1.7487945  0.058081074   -3.2372012    1.4884067   401408 
 5825000   0.90836416   -3.2396675   -1.7492664  0.056412047   -3.2396675    1.4904011   401395 
 5826000   0.90805864   -3.2396423   -1.7496905  0.059575038   -3.2396423    1.4899518   401381 
 5827000   0.90904744   -3.2396793   -1.7480567  0.060125225   -3.2396793    1.4916225   401368 
 5828000   0.90711548   -3.2387837    -1.750283  0.056656356   -3.2387837    1.4885007   401355 
 5829000   0.90821598   -3.2389264   -1.7485679  0.060182825   -3.2389264    1.4903585   401341 
 5830000   0.90869194    -3.238296   -1.7471082  0.058425019    -3.238296    1.4911878   401328 
 5831000   0.90827155   -3.2385703   -1.7480241  0.057581672   -3.2385703    1.4905462   401315 
 5832000   0.90641407   -3.2369702   -1.7494204  0.059793446   -3.2369702    1.4875498   401301 
 5833000   0.90762161   -3.2391707   -1.7495909   0.04897281   -3.2391707    1.4895798   401288 
 5834000   0.90701753   -3.2378303   -1.7491937  0.056200577   -3.2378303    1.4886367   401275 
 5835000   0.90791992   -3.2386627    -1.748493  0.056924232   -3.2386627    1.4901697   401261 
 5836000   0.90690275   -3.2382126   -1.7496641  0.062206025   -3.2382126    1.4885484   401248 
 5837000   0.90873697   -3.2409602   -1.7493528  0.054696805   -3.2409602    1.4916074   401235 
 5838000   0.90782114   -3.2381376   -1.7479815  0.058228546   -3.2381376    1.4901561   401221 
 5839000   0.90838121    -3.239744   -1.7486203  0.058188496    -3.239744    1.4911238   401208 
 5840000   0.90666662   -3.2383133   -1.7499559  0.053191327   -3.2383133    1.4883575   401195 
 5841000   0.90669281      -3.2382   -1.7497476  0.066754432      -3.2382    1.4884524   401181 
 5842000   0.90696302   -3.2388806   -1.7499364  0.058093161   -3.2388806    1.4889442   401168 
 5843000   0.90706616   -3.2386637   -1.7495019  0.058966628   -3.2386637    1.4891618   401155 
 5844000   0.90614561    -3.239133   -1.7514305  0.053376434    -3.239133    1.4877024   401141 
 5845000   0.90613526   -3.2392478   -1.7515142  0.053567543   -3.2392478    1.4877336   401128 
 5846000   0.90556096   -3.2371782   -1.7503393  0.053890785   -3.2371782    1.4868389   401115 
 5847000   0.90584283   -3.2371742   -1.7498205   0.05817736   -3.2371742    1.4873536   401101 
 5848000   0.90645082   -3.2386435   -1.7502434   0.05668579   -3.2386435    1.4884002   401088 
 5849000   0.90536575   -3.2362143   -1.7495477  0.057363907   -3.2362143    1.4866667   401075 
 5850000    0.9055215   -3.2372505   -1.7502762  0.053817387   -3.2372505    1.4869743   401061 
 5851000   0.90638624   -3.2372074   -1.7487649  0.060740155   -3.2372074    1.4884426   401048 
 5852000   0.90580795   -3.2367031   -1.7491619  0.059748591   -3.2367031    1.4875411   401035 
 5853000    0.9068603   -3.2358594   -1.7465381  0.057678918   -3.2358594    1.4893213   401021 
 5854000   0.90735319   -3.2376277   -1.7474486  0.055403432   -3.2376277    1.4901791   401008 
 5855000   0.90538794   -3.2355024   -1.7485027  0.055016285   -3.2355024    1.4869997   400995 
 5856000   0.90722942   -3.2369859   -1.7469098  0.059443176   -3.2369859    1.4900761   400981 
 5857000   0.90659219    -3.236723   -1.7476452  0.055302899    -3.236723    1.4890778   400968 
 5858000   0.90641098   -3.2366096   -1.7477812  0.055077347   -3.2366096    1.4888284   400955 
 5859000   0.90804491   -3.2386452   -1.7470809  0.058624646   -3.2386452    1.4915643   400941 
 5860000   0.90660925   -3.2360242   -1.7467698  0.060032657   -3.2360242    1.4892544   400928 
 5861000   0.90576251   -3.2352735   -1.7473618  0.055367371   -3.2352735    1.4879117   400915 
 5862000   0.90558132   -3.2342575   -1.7465914  0.056882904   -3.2342575     1.487666   400901 
 5863000   0.90721559   -3.2361817   -1.7457826  0.056427689   -3.2361817    1.4903991   400888 
 5864000   0.90549981   -3.2350652   -1.7474365   0.05650412   -3.2350652    1.4876286   400875 
 5865000   0.90460317   -3.2332565   -1.7470491  0.061878053   -3.2332565    1.4862074   400861 
 5866000   0.90640735   -3.2357466   -1.7465267  0.058250912   -3.2357466    1.4892199   400848 
 5867000   0.90394485   -3.2334641   -1.7482419  0.056059442   -3.2334641    1.4852222   400835 
 5868000   0.90500754   -3.2332017   -1.7461815  0.052120055   -3.2332017    1.4870202   400821 
 5869000   0.90381846   -3.2328597   -1.7477452  0.057267502   -3.2328597    1.4851146   400808 
 5870000   0.90536811   -3.2355565   -1.7478473  0.055302426   -3.2355565    1.4877091   400795 
 5871000   0.90524816   -3.2352832   -1.7477192  0.051707898   -3.2352832     1.487564   400781 
 5872000   0.90312537   -3.2335197   -1.7493958  0.050953565   -3.2335197    1.4841238   400768 
 5873000   0.90440443    -3.235124     -1.74885  0.054667636    -3.235124    1.4862739   400755 
 5874000   0.90385948   -3.2346126   -1.7491823  0.052596633   -3.2346126    1.4854303   400741 
 5875000   0.90430938   -3.2357762   -1.7495583   0.05416483   -3.2357762    1.4862179   400728 
 5876000   0.90590195   -3.2358965    -1.747013   0.06039003   -3.2358965    1.4888835   400715 
 5877000   0.90593431   -3.2359521   -1.7469634   0.05630641   -3.2359521    1.4889887   400701 
 5878000   0.90570742   -3.2368294   -1.7481653  0.057859786   -3.2368294    1.4886641   400688 
 5879000   0.90433224   -3.2359761   -1.7495241  0.059692698   -3.2359761     1.486452   400675 
 5880000   0.90577124   -3.2399042   -1.7510349  0.054111988   -3.2399042    1.4888693   400661 
 5881000   0.90528776   -3.2374007   -1.7492778  0.064324143   -3.2374007    1.4881229   400648 
 5882000   0.90649821    -3.239581     -1.74942  0.057410171    -3.239581     1.490161   400635 
 5883000   0.90539449   -3.2383134   -1.7499148  0.057703447   -3.2383134    1.4883987   400621 
 5884000   0.90595781   -3.2383883   -1.7490153    0.0587048   -3.2383883     1.489373   400608 
 5885000   0.90506999   -3.2372566   -1.7492948  0.057819833   -3.2372566    1.4879618   400595 
 5886000   0.90775496    -3.240991   -1.7485629  0.056219012    -3.240991    1.4924281   400581 
 5887000   0.90617604   -3.2388177   -1.7489371  0.062316119   -3.2388177    1.4898806   400568 
 5888000   0.90499318   -3.2393855   -1.7514015  0.054731043   -3.2393855    1.4879841   400555 
 5889000   0.90511719   -3.2390184   -1.7507785  0.060193497   -3.2390184      1.48824   400541 
 5890000    0.9051303   -3.2391547   -1.7508448  0.057790482   -3.2391547    1.4883098   400528 
 5891000   0.90544921    -3.239571   -1.7506885  0.056431935    -3.239571    1.4888826   400515 
 5892000   0.90468375   -3.2382384   -1.7505625  0.048936604   -3.2382384    1.4876759   400501 
 5893000   0.90509546   -3.2393659   -1.7509647  0.058548465   -3.2393659    1.4884012   400488 
 5894000   0.90465575   -3.2366645   -1.7489381   0.05505448   -3.2366645    1.4877264   400475 
 5895000   0.90466405   -3.2364328   -1.7486408  0.058845701   -3.2364328    1.4877921   400461 
 5896000   0.90611993   -3.2382058    -1.747971  0.055198419   -3.2382058    1.4902348   400448 
 5897000   0.90611683   -3.2389424   -1.7486644  0.059263878   -3.2389424     1.490278   400435 
 5898000   0.90642859    -3.241374    -1.750531  0.055332656    -3.241374    1.4908429   400421 
 5899000   0.90518081   -3.2398801   -1.7510411  0.064126665   -3.2398801     1.488839   400408 
 5900000   0.90580234   -3.2405058   -1.7505962  0.056497465   -3.2405058    1.4899096   400395 
 5901000   0.90407614   -3.2380344   -1.7509122  0.057698811   -3.2380344    1.4871223   400381 
 5902000   0.90460112   -3.2375007   -1.7494666  0.057192637   -3.2375007    1.4880341   400368 
 5903000   0.90484591   -3.2366191   -1.7481339  0.057466217   -3.2366191    1.4884851   400355 
 5904000   0.90263051   -3.2359241   -1.7510314  0.054574238   -3.2359241    1.4848927   400341 
 5905000   0.90342543   -3.2371152   -1.7508665  0.053328852   -3.2371152    1.4862487   400328 
 5906000   0.90437427   -3.2389678   -1.7511099  0.055239283   -3.2389678    1.4878579   400315 
 5907000   0.90196794   -3.2373152   -1.7533642  0.051573886   -3.2373152     1.483951   400301 
 5908000   0.90384501   -3.2388243   -1.7517368  0.057151352   -3.2388243    1.4870875   400288 
 5909000   0.90537528   -3.2401787   -1.7505251  0.059759938   -3.2401787    1.4896536   400275 
 5910000   0.90462772   -3.2386954   -1.7502197  0.056123724   -3.2386954    1.4884757   400261 
 5911000   0.90450383   -3.2389454   -1.7506253  0.054434224   -3.2389454    1.4883202   400248 
 5912000   0.90370602   -3.2356618   -1.7486061  0.058000327   -3.2356618    1.4870557   400235 
 5913000   0.90436388   -3.2366198   -1.7484295  0.061102501   -3.2366198    1.4881903   400221 
 5914000   0.90270627    -3.235577   -1.7500662  0.056856609    -3.235577    1.4855108   400208 
 5915000   0.90505163   -3.2392816   -1.7498629  0.058450546   -3.2392816    1.4894188   400195 
 5916000   0.90469403   -3.2378769   -1.7489946  0.047324122   -3.2378769    1.4888824   400181 
 5917000   0.90365168   -3.2363055   -1.7490902  0.057442911   -3.2363055    1.4872153   400168 
 5918000   0.90424819   -3.2387406   -1.7504953  0.058829509   -3.2387406    1.4882453   400155 
 5919000   0.90465403   -3.2371905   -1.7482252  0.058323029   -3.2371905    1.4889654   400141 
 5920000   0.90536047   -3.2383614   -1.7481849   0.06099078   -3.2383614    1.4901765   400128 
 5921000   0.90492205   -3.2366229   -1.7471196  0.058178385   -3.2366229    1.4895033   400115 
 5922000   0.90571054   -3.2382926   -1.7474393  0.055286892   -3.2382926    1.4908533   400101 
 5923000   0.90547395   -3.2375697   -1.7470574  0.059235174   -3.2375697    1.4905123   400088 
 5924000   0.90443629    -3.235456   -1.7466034  0.060639285    -3.235456    1.4888526   400075 
 5925000   0.90519488   -3.2369842   -1.7468307  0.061195198   -3.2369842    1.4901535   400061 
 5926000   0.90417089    -3.236688   -1.7481719  0.059101253    -3.236688    1.4885161   400048 
 5927000   0.90545708   -3.2394614   -1.7487794  0.052821331   -3.2394614     1.490682   400035 
 5928000    0.9030211   -3.2346237   -1.7479001  0.056059041   -3.2346237    1.4867236   400021 
 5929000   0.90351709   -3.2365239   -1.7489353  0.050024681   -3.2365239    1.4875885   400008 
 5930000    0.9054796    -3.238274   -1.7474058  0.055277841    -3.238274    1.4908682   399995 
 5931000   0.90500129   -3.2371051   -1.7469723  0.054926613   -3.2371051    1.4901328   399981 
 5932000   0.90257853   -3.2350731   -1.7488812   0.05738416   -3.2350731    1.4861919   399968 
 5933000   0.90406946   -3.2359102   -1.7472149  0.054821185   -3.2359102    1.4886952   399955 
 5934000   0.90430245   -3.2364582   -1.7473272  0.056399122   -3.2364582     1.489131   399941 
 5935000   0.90453068   -3.2377183    -1.748163  0.058412534   -3.2377183    1.4895553   399928 
 5936000   0.90425226     -3.23579   -1.7466448  0.059307231     -3.23579    1.4891452   399915 
 5937000   0.90647401   -3.2386591   -1.7458028  0.055052637   -3.2386591    1.4928563   399901 
 5938000   0.90715971   -3.2398745   -1.7458404  0.059122739   -3.2398745    1.4940341   399888 
 5939000   0.90454842   -3.2359123   -1.7461303  0.059086047   -3.2359123    1.4897819   399875 
 5940000   0.90482447   -3.2360154   -1.7457267  0.053160703   -3.2360154    1.4902888   399861 
 5941000   0.90516694   -3.2376774   -1.7467761  0.056009475   -3.2376774    1.4909013   399848 
 5942000   0.90384413   -3.2360313   -1.7472604  0.058585497   -3.2360313    1.4887709   399835 
 5943000   0.90498044   -3.2379093   -1.7472145  0.057519718   -3.2379093    1.4906948   399821 
 5944000   0.90358531   -3.2375958   -1.7491507  0.055134302   -3.2375958    1.4884451   399808 
 5945000   0.90371314   -3.2382403   -1.7495363  0.057960071   -3.2382403     1.488704   399795 
 5946000   0.90489051   -3.2398584   -1.7491627  0.053928234   -3.2398584    1.4906958   399781 
 5947000   0.90396411   -3.2377545   -1.7485364  0.052278793   -3.2377545     1.489218   399768 
 5948000   0.90410252   -3.2386558   -1.7491613  0.055928212   -3.2386558    1.4894945   399755 
 5949000   0.90449012   -3.2394465   -1.7492613  0.055545201   -3.2394465    1.4901853   399741 
 5950000   0.90304207   -3.2391216   -1.7512737    0.0563355   -3.2391216    1.4878479   399728 
 5951000   0.90264614   -3.2388888   -1.7516448  0.058478769   -3.2388888     1.487244   399715 
 5952000   0.90449928      -3.2404   -1.7500505  0.054988684      -3.2404    1.4903495   399701 
 5953000   0.90480465   -3.2411516   -1.7502505  0.050648461   -3.2411516    1.4909011   399688 
 5954000   0.90279454   -3.2369702   -1.7493329  0.060812751   -3.2369702    1.4876373   399675 
 5955000    0.9033323   -3.2385518   -1.7499762  0.055063413   -3.2385518    1.4885756   399661 
 5956000   0.90520212   -3.2417004    -1.749995  0.062169359   -3.2417004    1.4917054   399648 
 5957000   0.90449757   -3.2402695   -1.7496767   0.05703116   -3.2402695    1.4905928   399635 
 5958000   0.90405679   -3.2405456    -1.750627  0.057636928   -3.2405456    1.4899186   399621 
 5959000   0.90307949   -3.2392531   -1.7508967  0.055145011   -3.2392531    1.4883564   399608 
 5960000   0.90166613   -3.2358524    -1.749777  0.056048069   -3.2358524    1.4860754   399595 
 5961000   0.90262868   -3.2369328   -1.7492189  0.053133205   -3.2369328    1.4877139   399581 
 5962000    0.9054506   -3.2406568   -1.7482432  0.056930807   -3.2406568    1.4924136   399568 
 5963000   0.90486734   -3.2391108   -1.7476101  0.054422672   -3.2391108    1.4915008   399555 
 5964000    0.9033336   -3.2384339   -1.7494091  0.056258642   -3.2384339    1.4890248   399541 
 5965000    0.9035955   -3.2387444   -1.7492394  0.059032373   -3.2387444     1.489505   399528 
 5966000   0.90359489   -3.2385206   -1.7489681  0.057779987   -3.2385206    1.4895525   399515 
 5967000   0.90461918   -3.2379732   -1.7466799  0.060992521   -3.2379732    1.4912933   399501 
 5968000   0.90411826   -3.2383978   -1.7478818  0.059768222   -3.2383978     1.490516   399488 
 5969000   0.90382222   -3.2383079   -1.7482315  0.060267148   -3.2383079    1.4900764   399475 
 5970000   0.90223816   -3.2374683   -1.7499513  0.055546245   -3.2374683     1.487517   399461 
 5971000   0.90060252   -3.2345514   -1.7496828  0.054859932   -3.2345514    1.4848687   399448 
 5972000   0.90275191     -3.23624   -1.7477791  0.053294805     -3.23624    1.4884609   399435 
 5973000   0.90158903    -3.234719   -1.7481233  0.061425403    -3.234719    1.4865956   399421 
 5974000   0.90293614   -3.2369227   -1.7480574  0.058043518   -3.2369227    1.4888653   399408 
 5975000   0.90454066   -3.2376034   -1.7460438  0.057472869   -3.2376034    1.4915596   399395 
 5976000   0.90445632   -3.2362688    -1.744796  0.060783931   -3.2362688    1.4914728   399381 
 5977000    0.9021958   -3.2346358   -1.7468423  0.060889235   -3.2346358    1.4877935   399368 
 5978000   0.90316654   -3.2366069   -1.7471641  0.052853178   -3.2366069    1.4894429   399355 
 5979000   0.90373182   -3.2362928   -1.7458654  0.059195481   -3.2362928    1.4904273   399341 
 5980000   0.90536581   -3.2379532   -1.7447825  0.057503564   -3.2379532    1.4931707   399328 
 5981000   0.90308277   -3.2348323   -1.7453784  0.060091476   -3.2348323    1.4894539   399315 
 5982000   0.90234961   -3.2357981   -1.7475013  0.054185545   -3.2357981    1.4882969   399301 
 5983000   0.90304525   -3.2360972   -1.7466045  0.052480859   -3.2360972    1.4894927   399288 
 5984000   0.90031683   -3.2320108     -1.74697  0.061033356   -3.2320108    1.4850408   399275 
 5985000   0.90052613   -3.2327298   -1.7472916  0.058537547   -3.2327298    1.4854381   399261 
 5986000   0.90123709   -3.2341687   -1.7475094  0.053769987   -3.2341687    1.4866593   399248 
 5987000   0.90182147   -3.2346359   -1.7469642  0.060158971   -3.2346359    1.4876717   399235 
 5988000   0.90211574   -3.2340661   -1.7458568  0.054260902   -3.2340661    1.4882093   399221 
 5989000   0.90363603   -3.2360836   -1.7453177  0.054916687   -3.2360836    1.4907658   399208 
 5990000    0.9025828   -3.2358624   -1.7467856  0.055576682   -3.2358624    1.4890768   399195 
 5991000   0.90275489   -3.2354235   -1.7460106  0.054691782   -3.2354235    1.4894129   399181 
 5992000   0.90289785   -3.2358285   -1.7461312  0.055399072   -3.2358285    1.4896973   399168 
 5993000   0.90269864   -3.2351638   -1.7457467   0.06105651   -3.2351638    1.4894171   399155 
 5994000   0.90339109    -3.236277    -1.745665  0.054955599    -3.236277    1.4906119   399141 
 5995000   0.90275478   -3.2353627   -1.7457522  0.061630547   -3.2353627    1.4896105   399128 
 5996000     0.903515   -3.2386424   -1.7477289  0.057043273   -3.2386424    1.4909135   399115 
 5997000   0.90191985   -3.2365356    -1.748202  0.056344057   -3.2365356    1.4883335   399101 
 5998000   0.90182072   -3.2351652   -1.7469468  0.061543093   -3.2351652    1.4882184   399088 
 5999000   0.90462555   -3.2380749   -1.7451792   0.05924003   -3.2380749    1.4928957   399075 
 6000000    0.9045133   -3.2392951   -1.7465324  0.058753918   -3.2392951    1.4927628   399061 
 6001000   0.90301668   -3.2359133   -1.7455719  0.062394954   -3.2359133    1.4903414   399048 
 6002000   0.90254258   -3.2360569   -1.7464494   0.05069466   -3.2360569    1.4896075   399035 
 6003000   0.90350203   -3.2363645   -1.7451212  0.063122214   -3.2363645    1.4912433   399021 
 6004000   0.90398386   -3.2382597   -1.7461725  0.055413981   -3.2382597    1.4920872   399008 
 6005000   0.90319604    -3.238105   -1.7472696  0.057825676    -3.238105    1.4908354   398995 
 6006000   0.90346181   -3.2383548   -1.7470283  0.056405614   -3.2383548    1.4913264   398981 
 6007000   0.90036519   -3.2351005   -1.7488372  0.059231785   -3.2351005    1.4862633   398968 
 6008000   0.90169931   -3.2376189   -1.7491048    0.0539209   -3.2376189    1.4885141   398955 
 6009000   0.89990285   -3.2337725   -1.7481718  0.054686356   -3.2337725    1.4856007   398941 
 6010000   0.90208122   -3.2374406   -1.7481953  0.054574467   -3.2374406    1.4892454   398928 
 6011000   0.90052203   -3.2360325   -1.7493128  0.059451732   -3.2360325    1.4867197   398915 
 6012000   0.90072485   -3.2363597   -1.7492529  0.057122943   -3.2363597    1.4871068   398901 
 6013000   0.90149416   -3.2388456   -1.7504202  0.054168785   -3.2388456    1.4884254   398888 
 6014000   0.90198878   -3.2367432   -1.7474526  0.055973558   -3.2367432    1.4892906   398875 
 6015000   0.90251481   -3.2365347   -1.7463232  0.064204643   -3.2365347    1.4902114   398861 
 6016000   0.90054318    -3.235126   -1.7481216  0.059677037    -3.235126    1.4870044   398848 
 6017000   0.90210229   -3.2382242   -1.7485968  0.056764577   -3.2382242    1.4896274   398835 
 6018000   0.90039276   -3.2360338   -1.7491771  0.061526932   -3.2360338    1.4868567   398821 
 6019000   0.90095383   -3.2360565   -1.7482248  0.055548752   -3.2360565    1.4878317   398808 
 6020000   0.89999477   -3.2348945   -1.7485982  0.057438896   -3.2348945    1.4862964   398795 
 6021000   0.90032701   -3.2355123   -1.7486151  0.059260959   -3.2355123    1.4868972   398781 
 6022000   0.90199396   -3.2393132   -1.7496144  0.053752909   -3.2393132    1.4896988   398768 
 6023000   0.90066142    -3.238894   -1.7513475  0.053850231    -3.238894    1.4875465   398755 
 6024000   0.90095478   -3.2381996   -1.7501163  0.055623964   -3.2381996    1.4880833   398741 
 6025000   0.90026495   -3.2356352   -1.7486428  0.050871317   -3.2356352    1.4869924   398728 
 6026000   0.90073163   -3.2374262   -1.7496145  0.059308754   -3.2374262    1.4878117   398715 
 6027000   0.90075072    -3.237493   -1.7495975  0.056429803    -3.237493    1.4878955   398701 
 6028000   0.90114437   -3.2390649   -1.7504706  0.054651829   -3.2390649    1.4885943   398688 
 6029000   0.90222521   -3.2405517   -1.7501234  0.056739937   -3.2405517    1.4904283   398675 
 6030000   0.90157031    -3.240337   -1.7509382  0.056331084    -3.240337    1.4893987   398661 
 6031000   0.90052844     -3.23945   -1.7517239   0.05767651     -3.23945    1.4877261   398648 
 6032000   0.90055593   -3.2385381    -1.750718  0.053588222   -3.2385381      1.48782   398635 
 6033000   0.90008974   -3.2368862   -1.7497841  0.059496667   -3.2368862     1.487102   398621 
 6034000   0.90194205    -3.239552    -1.749341  0.060028674    -3.239552     1.490211   398608 
 6035000   0.90184152   -3.2407896   -1.7506962  0.058758412   -3.2407896    1.4900935   398595 
 6036000   0.90236596   -3.2415153    -1.750503  0.056283711   -3.2415153    1.4910124   398581 
 6037000   0.90170962   -3.2410604   -1.7510839  0.057541476   -3.2410604    1.4899765   398568 
 6038000   0.90274848   -3.2422113   -1.7504696  0.060871553   -3.2422113    1.4917417   398555 
 6039000   0.90318017   -3.2433054   -1.7507979  0.059897669   -3.2433054    1.4925075   398541 
 6040000   0.90151069   -3.2406148   -1.7508175  0.055087249   -3.2406148    1.4897973   398528 
 6041000   0.90023262   -3.2380892   -1.7503554   0.06212344   -3.2380892    1.4877337   398515 
 6042000   0.90131617   -3.2389719   -1.7493952  0.057926227   -3.2389719    1.4895767   398501 
 6043000   0.90157427   -3.2398767   -1.7498248  0.054612728   -3.2398767    1.4900519   398488 
 6044000   0.89941069   -3.2378481   -1.7513235  0.053071643   -3.2378481    1.4865246   398475 
 6045000   0.89976823   -3.2392592   -1.7520914   0.05602439   -3.2392592    1.4871678   398461 
 6046000    0.8988725   -3.2370456   -1.7513099    0.0595827   -3.2370456    1.4857358   398448 
 6047000   0.90125462   -3.2397985   -1.7500768  0.052779274   -3.2397985    1.4897217   398435 
 6048000    0.9010283   -3.2382315   -1.7488316  0.058108311   -3.2382315       1.4894   398421 
 6049000   0.90001482   -3.2383619   -1.7505887  0.055791431   -3.2383619    1.4877732   398408 
 6050000   0.89955017   -3.2355785   -1.7485249  0.056648091   -3.2355785    1.4870537   398395 
 6051000   0.90024087   -3.2364467    -1.748199  0.059525547   -3.2364467    1.4882478   398381 
 6052000   0.90041341   -3.2381751   -1.7495935  0.058107422   -3.2381751    1.4885816   398368 
 6053000    0.9008896   -3.2384767   -1.7490593  0.055649203   -3.2384767    1.4894174   398355 
 6054000   0.90016026   -3.2372518   -1.7489879  0.052999407   -3.2372518    1.4882639   398341 
 6055000   0.90006766   -3.2377426   -1.7495832   0.05582129   -3.2377426    1.4881594   398328 
 6056000   0.89917659   -3.2354874   -1.7487528  0.056923842   -3.2354874    1.4867346   398315 
 6057000   0.89857339   -3.2349352   -1.7491457  0.059761493   -3.2349352    1.4857895   398301 
 6058000   0.89866192   -3.2357976   -1.7498132  0.054030006   -3.2357976    1.4859844   398288 
 6059000   0.89936538   -3.2367621    -1.749566  0.056314564   -3.2367621    1.4871961   398275 
 6060000   0.90102162   -3.2390543    -1.749067  0.054150741   -3.2390543    1.4899873   398261 
 6061000   0.90191101   -3.2412232   -1.7497164  0.051426676   -3.2412232    1.4915067   398248 
 6062000   0.89995763   -3.2382068   -1.7498818  0.057933322   -3.2382068     1.488325   398235 
 6063000   0.89949568   -3.2377669   -1.7501536  0.057314944   -3.2377669    1.4876133   398221 
 6064000      0.89929   -3.2364766   -1.7491549  0.056960219   -3.2364766    1.4873217   398208 
 6065000   0.89860675   -3.2363186   -1.7500784  0.054292106   -3.2363186    1.4862402   398195 
 6066000   0.89851921   -3.2362206   -1.7500729  0.055042793   -3.2362206    1.4861477   398181 
 6067000   0.89898575   -3.2360455   -1.7490777  0.056572129   -3.2360455    1.4869679   398168 
 6068000   0.90047223   -3.2365808   -1.7471056  0.061078298   -3.2365808    1.4894752   398155 
 6069000   0.89815946   -3.2353863   -1.7496844  0.057639158   -3.2353863    1.4857019   398141 
 6070000   0.89813367   -3.2346432   -1.7489355  0.058027531   -3.2346432    1.4857077   398128 
 6071000   0.89873903   -3.2363125   -1.7495548  0.057011373   -3.2363125    1.4867577   398115 
 6072000   0.89850792   -3.2377135   -1.7512858  0.053511856   -3.2377135    1.4864276   398101 
 6073000   0.89887983   -3.2370156   -1.7499242  0.057909298   -3.2370156    1.4870915   398088 
 6074000   0.89967277   -3.2381511   -1.7496992  0.057108086   -3.2381511    1.4884519   398075 
 6075000    0.8978939   -3.2388051   -1.7532439  0.054782515   -3.2388051    1.4855611   398061 
 6076000   0.89873776   -3.2407287   -1.7537228  0.053169229   -3.2407287    1.4870058   398048 
 6077000   0.89901106   -3.2389836    -1.751477  0.055135379   -3.2389836    1.4875066   398035 
 6078000   0.89839347    -3.239225    -1.752688  0.056985695    -3.239225     1.486537   398021 
 6079000   0.89803184   -3.2389334   -1.7529462  0.057049556   -3.2389334    1.4859872   398008 
 6080000   0.89861204   -3.2393327   -1.7523368  0.058238269   -3.2393327    1.4869958   397995 
 6081000   0.89910158   -3.2413302    -1.753472  0.052012894   -3.2413302    1.4878582   397981 
 6082000    0.8986554   -3.2398022   -1.7526338  0.054787382   -3.2398022    1.4871685   397968 
 6083000   0.90088708   -3.2406799   -1.7497696  0.054697413   -3.2406799    1.4909103   397955 
 6084000   0.89994727   -3.2411104    -1.751703  0.060325904   -3.2411104    1.4894074   397941 
 6085000   0.89994881   -3.2404834   -1.7510248  0.060852459   -3.2404834    1.4894586   397928 
 6086000   0.90089013   -3.2402003    -1.749135  0.060127063   -3.2402003    1.4910653   397915 
 6087000     0.899243   -3.2389007   -1.7505092  0.059849154   -3.2389007    1.4883915   397901 
 6088000    0.9001939   -3.2396919   -1.7496778  0.059821861   -3.2396919     1.490014   397888 
 6089000   0.90007762    -3.238631   -1.7487608  0.056988031    -3.238631    1.4898702   397875 
 6090000   0.89974017   -3.2396443   -1.7502802  0.060330457   -3.2396443    1.4893641   397861 
 6091000   0.89924986   -3.2392989   -1.7506978  0.060490383   -3.2392989    1.4886011   397848 
 6092000   0.89847846   -3.2379696   -1.7505969   0.05710845   -3.2379696    1.4873727   397835 
 6093000   0.89950331   -3.2389139   -1.7497922  0.054570105   -3.2389139    1.4891217   397821 
 6094000   0.89795354   -3.2377872   -1.7511826  0.050585679   -3.2377872    1.4866046   397808 
 6095000   0.89757905   -3.2369193   -1.7508861  0.052310317   -3.2369193    1.4860332   397795 
 6096000   0.89704922   -3.2350154   -1.7498071  0.059376339   -3.2350154    1.4852083   397781 
 6097000     0.897754   -3.2366979   -1.7502741  0.061363064   -3.2366979    1.4864238   397768 
 6098000    0.8977619   -3.2356625   -1.7491771  0.056081648   -3.2356625    1.4864854   397755 
 6099000    0.8991547   -3.2353609    -1.746517  0.052226253   -3.2353609     1.488844   397741 
 6100000   0.89953299   -3.2360252   -1.7465062  0.055876932   -3.2360252     1.489519   397728 
 6101000   0.89975973   -3.2365872    -1.746644  0.059645844   -3.2365872    1.4899432   397715 
 6102000   0.89992427   -3.2375198   -1.7472517  0.054919024   -3.2375198    1.4902681   397701 
 6103000   0.89998487   -3.2369728   -1.7465556  0.055538771   -3.2369728    1.4904172   397688 
 6104000   0.89939421   -3.2346008    -1.745113  0.054483657   -3.2346008    1.4894877   397675 
 6105000   0.89963849   -3.2354256   -1.7454809  0.054421165   -3.2354256    1.4899447   397661 
 6106000   0.89832266   -3.2341218   -1.7463077  0.060425875   -3.2341218    1.4878142   397648 
 6107000    0.8971687    -3.231943   -1.7459915  0.061184349    -3.231943    1.4859515   397635 
 6108000   0.89782511     -3.23405   -1.7469589   0.05663719     -3.23405    1.4870911   397621 
 6109000   0.89796987   -3.2331831   -1.7458036  0.056516137   -3.2331831    1.4873795   397608 
 6110000   0.89770725   -3.2333831     -1.74639  0.051834877   -3.2333831    1.4869931   397595 
 6111000   0.89802466   -3.2353207   -1.7477495  0.050621067   -3.2353207    1.4875712   397581 
 6112000   0.89908936   -3.2362555   -1.7468719  0.051742369   -3.2362555    1.4893836   397568 
 6113000   0.89804917   -3.2342992   -1.7465901  0.052432601   -3.2342992    1.4877091   397555 
 6114000    0.8972852    -3.233618   -1.7471221  0.054713932    -3.233618    1.4864959   397541 
 6115000   0.89644602    -3.233519   -1.7483648  0.054423638    -3.233519    1.4851542   397528 
 6116000   0.89688695   -3.2331212   -1.7471879  0.054298556   -3.2331212    1.4859333   397515 
 6117000   0.89621174   -3.2341746   -1.7493076   0.05651852   -3.2341746    1.4848669   397501 
 6118000   0.89848554   -3.2384651   -1.7497822  0.050123384   -3.2384651    1.4886829   397488 
 6119000   0.89723874   -3.2375453   -1.7508796  0.052175508   -3.2375453    1.4866657   397475 
 6120000   0.89856188     -3.23837   -1.7494594  0.055403478     -3.23837    1.4889105   397461 
 6121000   0.89737378   -3.2363519   -1.7493614  0.056484861   -3.2363519    1.4869905   397448 
 6122000    0.8964641   -3.2364634   -1.7509317  0.056495238   -3.2364634    1.4855317   397435 
 6123000   0.89796927   -3.2390032   -1.7509248  0.053768877   -3.2390032    1.4880783   397421 
 6124000   0.89769182   -3.2386077   -1.7509404   0.05870573   -3.2386077    1.4876672   397408 
 6125000   0.89812451   -3.2399418   -1.7515088  0.056767122   -3.2399418     1.488433   397395 
 6126000   0.89926015   -3.2400918   -1.7497243  0.059527461   -3.2400918    1.4903675   397381 
 6127000   0.89877304   -3.2398147   -1.7502058  0.057071825   -3.2398147     1.489609   397368 
 6128000    0.9001946   -3.2413394   -1.7493255  0.054474445   -3.2413394    1.4920138   397355 
 6129000   0.89893379   -3.2391894   -1.7492128   0.06014675   -3.2391894    1.4899766   397341 
 6130000   0.89775145   -3.2374641   -1.7493985   0.06140001   -3.2374641    1.4880656   397328 
 6131000    0.8983676    -3.241703   -1.7525674  0.059729816    -3.241703    1.4891356   397315 
 6132000   0.89869264   -3.2413098   -1.7515829  0.056823073   -3.2413098    1.4897269   397301 
 6133000   0.89764234   -3.2397862   -1.7517517  0.056890528   -3.2397862    1.4880346   397288 
 6134000   0.89787079   -3.2415498   -1.7530879  0.055856589   -3.2415498     1.488462   397275 
 6135000     0.895778   -3.2392197   -1.7541747  0.051981807   -3.2392197    1.4850449   397261 
 6136000   0.89633732   -3.2425769   -1.7565561  0.055768139   -3.2425769    1.4860208   397248 
 6137000   0.89746741   -3.2418001   -1.7538571  0.054499554   -3.2418001    1.4879431   397235 
 6138000   0.89466458   -3.2394778   -1.7561293  0.053842184   -3.2394778    1.4833484   397221 
 6139000   0.89602329    -3.241326   -1.7556762  0.052668568    -3.241326    1.4856498   397208 
 6140000   0.89439045   -3.2391272   -1.7561362  0.056603002   -3.2391272     1.482991   397195 
 6141000   0.89676447   -3.2426398     -1.75566  0.059260238   -3.2426398    1.4869798   397181 
 6142000   0.89677115    -3.241652   -1.7546124  0.057250115    -3.241652    1.4870395   397168 
 6143000   0.89641921   -3.2405351   -1.7540306  0.056655143   -3.2405351    1.4865046   397155 
 6144000   0.89757265   -3.2413209   -1.7528512  0.052599467   -3.2413209    1.4884698   397141 
 6145000   0.89725421   -3.2407107   -1.7527203  0.060996403   -3.2407107    1.4879904   397128 
 6146000   0.89726093   -3.2413802   -1.7533299  0.053724278   -3.2413802    1.4880503   397115 
 6147000   0.89867567   -3.2426692   -1.7522202  0.057473379   -3.2426692     1.490449   397101 
 6148000   0.89853587   -3.2414147   -1.7511487  0.056919324   -3.2414147     1.490266   397088 
 6149000   0.89854968   -3.2410843   -1.7507466  0.056127733   -3.2410843    1.4903377   397075 
 6150000   0.89731216    -3.240148   -1.7518104  0.053157158    -3.240148    1.4883376   397061 
 6151000   0.89699146   -3.2395884    -1.751734  0.054689646   -3.2395884    1.4878544   397048 
 6152000   0.89739252   -3.2396291   -1.7510608  0.058926806   -3.2396291    1.4885684   397035 
 6153000   0.89755988   -3.2395285     -1.75063  0.059345575   -3.2395285    1.4888985   397021 
 6154000   0.89727636    -3.239371   -1.7508941  0.056358614    -3.239371    1.4884769   397008 
 6155000   0.89647974   -3.2377702   -1.7505661    0.0599056   -3.2377702    1.4872041   396995 
 6156000   0.89788375   -3.2405492   -1.7509634  0.058003744   -3.2405492    1.4895858   396981 
 6157000   0.89729379   -3.2398244   -1.7511686  0.057228477   -3.2398244    1.4886558   396968 
 6158000   0.89679527   -3.2409227   -1.7530453  0.058346152   -3.2409227    1.4878775   396955 
 6159000   0.89578397   -3.2395544   -1.7533024  0.055480242   -3.2395544     1.486252   396941 
 6160000   0.89518832   -3.2380594    -1.752747  0.056613815   -3.2380594    1.4853124   396928 
 6161000   0.89623293   -3.2395615   -1.7524672  0.056812107   -3.2395615    1.4870943   396915 
 6162000    0.8961432   -3.2397484   -1.7527505   0.05375351   -3.2397484    1.4869979   396901 
 6163000   0.89707893   -3.2402625   -1.7516631  0.053546173   -3.2402625    1.4885993   396888 
 6164000   0.89717191   -3.2418912   -1.7530888   0.05197293   -3.2418912    1.4888024   396875 
 6165000     0.897717   -3.2426898   -1.7529303  0.054292494   -3.2426898    1.4897595   396861 
 6166000   0.89533072   -3.2385179   -1.7526698  0.053243858   -3.2385179    1.4858481   396848 
 6167000    0.8954998   -3.2398743   -1.7536969  0.056670179   -3.2398743    1.4861774   396835 
 6168000   0.89521075   -3.2404858   -1.7547357  0.048557398   -3.2404858    1.4857501   396821 
 6169000   0.89547459   -3.2392165   -1.7529798  0.062226081   -3.2392165    1.4862367   396808 
 6170000   0.89561024   -3.2403954   -1.7538849   0.04991258   -3.2403954    1.4865105   396795 
 6171000   0.89509856   -3.2406277    -1.754914  0.049638973   -3.2406277    1.4857137   396781 
 6172000   0.89544852   -3.2418078   -1.7554646  0.056336703   -3.2418078    1.4863433   396768 
 6173000   0.89461296   -3.2415734   -1.7565684  0.059171974   -3.2415734     1.485005   396755 
 6174000   0.89545225   -3.2423519   -1.7559013  0.056175008   -3.2423519    1.4864506   396741 
 6175000   0.89597138   -3.2434606   -1.7560995  0.058627955   -3.2434606    1.4873611   396728 
 6176000   0.89645148   -3.2447403   -1.7565334  0.055522512   -3.2447403    1.4882069   396715 
 6177000   0.89616085   -3.2445021   -1.7567252  0.059205386   -3.2445021    1.4877769   396701 
 6178000   0.89796037   -3.2469134   -1.7561001  0.058340353   -3.2469134    1.4908132   396688 
 6179000   0.89663036   -3.2450729    -1.756419  0.059407168   -3.2450729    1.4886539   396675 
 6180000   0.89703708   -3.2465023   -1.7571206  0.059199292   -3.2465023    1.4893817   396661 
 6181000    0.8976956   -3.2471793   -1.7566554  0.060308608   -3.2471793     1.490524   396648 
 6182000   0.89749193   -3.2465538   -1.7563192  0.064037611   -3.2465538    1.4902346   396635 
 6183000    0.8979066    -3.248104   -1.7571283   0.05867106    -3.248104    1.4909758   396621 
 6184000   0.89604235   -3.2461463   -1.7582173  0.061812498   -3.2461463     1.487929   396608 
 6185000    0.8968611   -3.2481922   -1.7588548  0.056151579   -3.2481922    1.4893374   396595 
 6186000   0.89584911   -3.2464108   -1.7587014  0.059542816   -3.2464108    1.4877094   396581 
 6187000   0.89635938   -3.2458888   -1.7572833  0.059313502   -3.2458888    1.4886055   396568 
 6188000   0.89573109   -3.2456192   -1.7580083  0.057003679   -3.2456192    1.4876109   396555 
 6189000     0.894352   -3.2448609    -1.759488  0.058796949   -3.2448609     1.485373   396541 
 6190000   0.89400127   -3.2419724   -1.7571332  0.052030111   -3.2419724    1.4848392   396528 
 6191000   0.89787723   -3.2483178   -1.7569922  0.054747344   -3.2483178    1.4913256   396515 
 6192000    0.8957084   -3.2448721   -1.7570963  0.055326462   -3.2448721    1.4877758   396501 
 6193000    0.8950182   -3.2463528   -1.7596746  0.057339364   -3.2463528    1.4866781   396488 
 6194000   0.89409432   -3.2447254   -1.7595332  0.048889144   -3.2447254    1.4851922   396475 
 6195000   0.89445979   -3.2434558    -1.757604  0.055418564   -3.2434558    1.4858518   396461 
 6196000   0.89614007   -3.2461202   -1.7574284  0.055737646   -3.2461202    1.4886918   396448 
 6197000   0.89579632   -3.2438039   -1.7556344  0.053437668   -3.2438039    1.4881696   396435 
 6198000   0.89572527   -3.2437734   -1.7556694  0.055632446   -3.2437734    1.4881041   396421 
 6199000   0.89575217    -3.243378   -1.7551805  0.055512925    -3.243378    1.4881976   396408 
 6200000   0.89436621   -3.2423005   -1.7563568  0.058689096   -3.2423005    1.4859437   396395 
 6201000   0.89547918    -3.242182   -1.7543366  0.052472526    -3.242182    1.4878454   396381 
 6202000   0.89626358   -3.2427863   -1.7535888  0.055570298   -3.2427863    1.4891975   396368 
 6203000   0.89624854   -3.2423406   -1.7531193  0.055867544   -3.2423406    1.4892214   396355 
 6204000   0.89625067   -3.2412324   -1.7519549  0.058302972   -3.2412324    1.4892775   396341 
 6205000   0.89560153   -3.2409508   -1.7527031  0.055810538   -3.2409508    1.4882476   396328 
 6206000   0.89607557   -3.2425171   -1.7534329  0.058451581   -3.2425171    1.4890842   396315 
 6207000   0.89516853   -3.2413708   -1.7537413   0.04960319   -3.2413708    1.4876295   396301 
 6208000   0.89440829   -3.2415231   -1.7551083  0.051675435   -3.2415231    1.4864148   396288 
 6209000   0.89367099   -3.2407206   -1.7554823  0.048739897   -3.2407206    1.4852382   396275 
 6210000   0.89283732   -3.2400384   -1.7561332   0.05914036   -3.2400384    1.4839051   396261 
 6211000   0.89382125    -3.242592   -1.7570028  0.053507955    -3.242592    1.4855892   396248 
 6212000   0.89579235   -3.2443834   -1.7554693  0.052255759   -3.2443834    1.4889141   396235 
 6213000   0.89542849   -3.2440167   -1.7556548  0.054763216   -3.2440167    1.4883619   396221 
 6214000   0.89464984   -3.2419684   -1.7548519  0.059115576   -3.2419684    1.4871165   396208 
 6215000   0.89522718   -3.2439165   -1.7557916  0.053980559   -3.2439165     1.488125   396195 
 6216000   0.89621302   -3.2446588   -1.7548424  0.052949288   -3.2446588    1.4898164   396181 
 6217000   0.89350391   -3.2416882   -1.7563266  0.061866039   -3.2416882    1.4853616   396168 
 6218000   0.89541472   -3.2450236   -1.7564366  0.057829364   -3.2450236     1.488587   396155 
 6219000   0.89566868    -3.245401   -1.7563392  0.055476983    -3.245401    1.4890618   396141 
 6220000   0.89683746   -3.2462253   -1.7551714   0.05442183   -3.2462253    1.4910539   396128 
 6221000   0.89597884   -3.2436946   -1.7540194  0.054524112   -3.2436946    1.4896752   396115 
 6222000    0.8973469   -3.2453424   -1.7533399  0.056611677   -3.2453424    1.4920025   396101 
 6223000   0.89551858   -3.2425162   -1.7535047  0.057845543   -3.2425162    1.4890115   396088 
 6224000   0.89756881   -3.2454886   -1.7530192  0.058084702   -3.2454886    1.4924695   396075 
 6225000   0.89605338    -3.244231   -1.7542287  0.055921971    -3.244231    1.4900023   396061 
 6226000   0.89613709    -3.243891   -1.7537006  0.054579484    -3.243891    1.4901904   396048 
 6227000   0.89625424   -3.2448626   -1.7544285   0.05599877   -3.2448626    1.4904341   396035 
 6228000   0.89474289   -3.2427603   -1.7547869  0.053870583   -3.2427603    1.4879734   396021 
 6229000   0.89447172   -3.2433547   -1.7557835  0.058288533   -3.2433547    1.4875713   396008 
 6230000   0.89437402   -3.2416331   -1.7541755  0.061603863   -3.2416331    1.4874576   395995 
 6231000   0.89452634   -3.2435933   -1.7558298  0.054320689   -3.2435933    1.4877636   395981 
 6232000   0.89426073   -3.2421261   -1.7547555  0.052184274   -3.2421261    1.4873706   395968 
 6233000   0.89441539    -3.242507   -1.7548303  0.055362437    -3.242507    1.4876767   395955 
 6234000   0.89438399    -3.242867   -1.7551899  0.052683716    -3.242867    1.4876771   395941 
 6235000   0.89410888   -3.2433935   -1.7561251  0.049986086   -3.2433935    1.4872683   395928 
 6236000   0.89337531   -3.2427055   -1.7566087  0.051188655   -3.2427055    1.4860969   395915 
 6237000   0.89440007   -3.2435324   -1.7556783  0.054147844   -3.2435324    1.4878541   395901 
 6238000   0.89341478   -3.2405308    -1.754267   0.05775018   -3.2405308    1.4862639   395888 
 6239000    0.8932887   -3.2424897   -1.7563868  0.055441815   -3.2424897    1.4861029   395875 
 6240000   0.89465902   -3.2439471   -1.7555118   0.05544591   -3.2439471    1.4884353   395861 
 6241000   0.89256108   -3.2402138   -1.7552201  0.062937725   -3.2402138    1.4849937   395848 
 6242000   0.89316034   -3.2415025   -1.7554629  0.060288007   -3.2415025    1.4860396   395835 
 6243000    0.8934614   -3.2418313   -1.7552382  0.053970397   -3.2418313     1.486593   395821 
 6244000    0.8933792   -3.2425656   -1.7560605  0.051989937   -3.2425656    1.4865051   395808 
 6245000   0.89401973   -3.2439828   -1.7563631  0.055204229   -3.2439828    1.4876197   395795 
 6246000   0.89344164   -3.2435247   -1.7568143  0.055848865   -3.2435247    1.4867104   395781 
 6247000    0.8931358   -3.2431735   -1.7569232   0.05984908   -3.2431735    1.4862503   395768 
 6248000   0.89424846    -3.244652   -1.7565013  0.057717091    -3.244652    1.4881507   395755 
 6249000   0.89401006   -3.2448088   -1.7570022  0.055911569   -3.2448088    1.4878066   395741 
 6250000   0.89421239   -3.2441202   -1.7559279  0.057120777   -3.2441202    1.4881922   395728 
 6251000   0.89458887   -3.2456663   -1.7567986  0.057707663   -3.2456663    1.4888677   395715 
 6252000   0.89478002   -3.2467689   -1.7575304  0.055843234   -3.2467689    1.4892385   395701 
 6253000   0.89379669   -3.2448576   -1.7572068  0.058348857   -3.2448576    1.4876508   395688 
 6254000   0.89547656   -3.2467517   -1.7562559  0.057436088   -3.2467517    1.4904957   395675 
 6255000   0.89498288    -3.245504   -1.7557773  0.058659611    -3.245504    1.4897267   395661 
 6256000   0.89407027   -3.2450493   -1.7567927  0.057444098   -3.2450493    1.4882566   395648 
 6257000   0.89467498   -3.2444636   -1.7551515  0.058466254   -3.2444636    1.4893121   395635 
 6258000    0.8934483   -3.2441487    -1.756826  0.060318833   -3.2441487    1.4873227   395621 
 6259000   0.89407967   -3.2448019   -1.7563792  0.059031577   -3.2448019    1.4884227   395608 
 6260000   0.89475414   -3.2452945   -1.7557001    0.0578677   -3.2452945    1.4895945   395595 
 6261000   0.89371715   -3.2450324   -1.7571117  0.062106967   -3.2450324    1.4879207   395581 
 6262000   0.89259383   -3.2430531   -1.7569537  0.056858406   -3.2430531    1.4860994   395568 
 6263000   0.89354644   -3.2443345   -1.7566002  0.056398237   -3.2443345    1.4877343   395555 
 6264000   0.89244063   -3.2423249   -1.7563791  0.056355139   -3.2423249    1.4859458   395541 
 6265000   0.89267077   -3.2425717   -1.7561939  0.058689159   -3.2425717    1.4863778   395528 
 6266000   0.89391474   -3.2429892   -1.7544911   0.05539589   -3.2429892    1.4884981   395515 
 6267000   0.89223943   -3.2413434   -1.7555824    0.0571524   -3.2413434     1.485761   395501 
 6268000   0.89386614   -3.2435693   -1.7550506  0.054656879   -3.2435693    1.4885187   395488 
 6269000   0.89316136   -3.2423777   -1.7549837  0.055010016   -3.2423777     1.487394   395475 
 6270000   0.89261632    -3.242305    -1.755766  0.051017493    -3.242305    1.4865389   395461 
 6271000   0.89150392   -3.2412104   -1.7564752  0.056501675   -3.2412104    1.4847352   395448 
 6272000   0.89356252   -3.2440139   -1.7558013  0.056421837   -3.2440139    1.4882126   395435 
 6273000    0.8931943   -3.2417134   -1.7540614  0.057413998   -3.2417134     1.487652   395421 
 6274000   0.89458329    -3.244132   -1.7541176  0.055019354    -3.244132    1.4900144   395408 
 6275000   0.89303779   -3.2424643   -1.7549752  0.056501512   -3.2424643    1.4874891   395395 
 6276000   0.89289603   -3.2421812   -1.7548755  0.054538278   -3.2421812    1.4873057   395381 
 6277000   0.89165391   -3.2413223   -1.7560368    0.0555158   -3.2413223    1.4852855   395368 
 6278000   0.89124732   -3.2414474   -1.7567904  0.055014081   -3.2414474     1.484657   395355 
 6279000   0.89087901    -3.240702   -1.7566059  0.057006863    -3.240702     1.484096   395341 
 6280000    0.8899417   -3.2404364   -1.7578531  0.057885175   -3.2404364    1.4825833   395328 
 6281000   0.89067331   -3.2411567   -1.7573057  0.055773505   -3.2411567    1.4838509   395315 
 6282000   0.89234745    -3.244112   -1.7574193  0.054098747    -3.244112    1.4866927   395301 
 6283000   0.89255245   -3.2446422   -1.7575591  0.054788975   -3.2446422    1.4870831   395288 
 6284000   0.89236918    -3.245428   -1.7586013  0.052712212    -3.245428    1.4868267   395275 
 6285000   0.89232642   -3.2435793   -1.7567711  0.052917012   -3.2435793    1.4868081   395261 
 6286000   0.89106194   -3.2415976   -1.7568476  0.062393481   -3.2415976      1.48475   395248 
 6287000   0.89203394   -3.2424831   -1.7560646  0.056784606   -3.2424831    1.4864185   395235 
 6288000   0.89205918   -3.2433742    -1.756861  0.056645522   -3.2433742    1.4865133   395221 
 6289000   0.89247338   -3.2442714    -1.757019   0.05823232   -3.2442714    1.4872524   395208 
 6290000   0.89267969   -3.2439791   -1.7563339  0.055426153   -3.2439791    1.4876451   395195 
 6291000   0.89320908   -3.2452805   -1.7567004  0.049887892   -3.2452805    1.4885801   395181 
 6292000   0.89177632   -3.2444978   -1.7582566  0.058071192   -3.2444978    1.4862412   395168 
 6293000   0.89331349   -3.2453305   -1.7564785  0.056618734   -3.2453305    1.4888521   395155 
 6294000   0.89330802   -3.2460907    -1.757195   0.05078417   -3.2460907    1.4888957   395141 
 6295000    0.8912751   -3.2417778   -1.7562215  0.057839052   -3.2417778    1.4855562   395128 
 6296000   0.89252155   -3.2437609   -1.7560782  0.060684779   -3.2437609    1.4876827   395115 
 6297000   0.89362408     -3.24481   -1.7552367  0.061010177     -3.24481    1.4895733   395101 
 6298000   0.89238592   -3.2444255   -1.7568672  0.061133889   -3.2444255    1.4875583   395088 
 6299000   0.89346777   -3.2453866   -1.7559759  0.057412492   -3.2453866    1.4894107   395075 
 6300000   0.89155759   -3.2429414   -1.7566623  0.059805587   -3.2429414    1.4862791   395061 
 6301000   0.89285354   -3.2442751   -1.7557865  0.059326734   -3.2442751    1.4884885   395048 
 6302000   0.89149754   -3.2431179   -1.7568411  0.058185088   -3.2431179    1.4862768   395035 
 6303000   0.89120176   -3.2431333    -1.757297  0.053406338   -3.2431333    1.4858364   395021 
 6304000   0.89171029   -3.2440276   -1.7572945   0.05880212   -3.2440276    1.4867331   395008 
 6305000   0.89007207   -3.2417672   -1.7577166  0.056683378   -3.2417672    1.4840506   394995 
 6306000   0.89071375   -3.2422113   -1.7570382  0.060091283   -3.2422113    1.4851731   394981 
 6307000   0.89058272   -3.2443528   -1.7593493  0.056932943   -3.2443528    1.4850035   394968 
 6308000   0.89105882   -3.2440885   -1.7582422   0.05873678   -3.2440885    1.4858463   394955 
 6309000   0.89142879   -3.2441004   -1.7575845  0.054704232   -3.2441004    1.4865159   394941 
 6310000   0.88936349   -3.2412004   -1.7580796  0.057719898   -3.2412004    1.4831207   394928 
 6311000   0.88956275   -3.2418509    -1.758349  0.048155368   -3.2418509    1.4835018   394915 
 6312000     0.890941   -3.2444725   -1.7586195  0.051145838   -3.2444725     1.485853   394901 
 6313000   0.89015974   -3.2446542   -1.7600553  0.052461437   -3.2446542    1.4845989   394888 
 6314000   0.88991515   -3.2458439   -1.7616041  0.052108295   -3.2458439    1.4842399   394875 
 6315000   0.89033939   -3.2461816   -1.7611815    0.0490943   -3.2461816    1.4850001   394861 
 6316000   0.88972478   -3.2436341   -1.7596103  0.054997318   -3.2436341    1.4840238   394848 
 6317000   0.88933847   -3.2425409   -1.7591126  0.058327563   -3.2425409    1.4834283   394835 
 6318000   0.89063573   -3.2450234   -1.7593786  0.054533532   -3.2450234    1.4856449   394821 
 6319000   0.89037824   -3.2460503   -1.7607861  0.058251162   -3.2460503    1.4852642   394808 
 6320000   0.88886999   -3.2436306   -1.7608334   0.05904932   -3.2436306    1.4827971   394795 
 6321000   0.88915671   -3.2446147   -1.7612867  0.055456474   -3.2446147     1.483328   394781 
 6322000   0.89147705   -3.2482884   -1.7610405   0.05566131   -3.2482884    1.4872479   394768 
 6323000   0.89100751   -3.2479666   -1.7614531  0.053063209   -3.2479666    1.4865135   394755 
 6324000   0.89103289   -3.2480099   -1.7614013   0.05475925   -3.2480099    1.4866086   394741 
 6325000   0.88974629   -3.2449545   -1.7604436  0.059519144   -3.2449545    1.4845109   394728 
 6326000   0.89014886   -3.2465986   -1.7613671  0.065834681   -3.2465986    1.4852315   394715 
 6327000   0.89091176   -3.2477591   -1.7612021    0.0570317   -3.2477591    1.4865571   394701 
 6328000   0.89129314   -3.2492766   -1.7620342  0.061318085   -3.2492766    1.4872424   394688 
 6329000    0.8893236   -3.2472945   -1.7632896  0.060638103   -3.2472945    1.4840049   394675 
 6330000    0.8893733   -3.2477809   -1.7636405  0.053340827   -3.2477809    1.4841405   394661 
 6331000   0.88925701   -3.2473389   -1.7633436  0.055284001   -3.2473389    1.4839953   394648 
 6332000   0.88872051   -3.2467255   -1.7635766  0.052908097   -3.2467255    1.4831488   394635 
 6333000   0.88956892   -3.2465919   -1.7619746  0.052086709   -3.2465919    1.4846174   394621 
 6334000    0.8883228   -3.2452533   -1.7626668  0.055122899   -3.2452533    1.4825866   394608 
 6335000   0.88988092   -3.2477998   -1.7625639  0.057761125   -3.2477998    1.4852359   394595 
 6336000     0.890957   -3.2491295   -1.7620448  0.056543342   -3.2491295    1.4870847   394581 
 6337000   0.89134456   -3.2483743   -1.7605937  0.060452624   -3.2483743    1.4877806   394568 
 6338000   0.89292835   -3.2487916   -1.7583183  0.058191629   -3.2487916    1.4904733   394555 
 6339000   0.89278817   -3.2483852   -1.7580931  0.056101242   -3.2483852    1.4902922   394541 
 6340000   0.89309123   -3.2493952    -1.758548  0.055206091   -3.2493952    1.4908472   394528 
 6341000   0.89224089    -3.248605   -1.7591283  0.058929743    -3.248605    1.4894768   394515 
 6342000    0.8906155   -3.2454621   -1.7586459  0.056631176   -3.2454621    1.4868162   394501 
 6343000   0.89143342   -3.2469219   -1.7586913  0.056989137   -3.2469219    1.4882307   394488 
 6344000   0.88967213   -3.2449641   -1.7596249  0.059471502   -3.2449641    1.4853392   394475 
 6345000    0.8906152   -3.2461631   -1.7591967  0.057696586   -3.2461631    1.4869664   394461 
 6346000   0.88937766   -3.2432617   -1.7583125  0.057919727   -3.2432617    1.4849492   394448 
 6347000    0.8914235   -3.2448547   -1.7564406  0.052102128   -3.2448547    1.4884141   394435 
 6348000   0.89107471   -3.2431288   -1.7552443  0.053317482   -3.2431288    1.4878845   394421 
 6349000   0.89148858   -3.2449722   -1.7563476  0.051374953   -3.2449722    1.4886246   394408 
 6350000   0.89005886   -3.2442804   -1.7579942  0.052373267   -3.2442804    1.4862862   394395 
 6351000   0.88954367   -3.2424982   -1.7570195  0.051623343   -3.2424982    1.4854787   394381 
 6352000   0.89044892   -3.2432452   -1.7562058  0.055395851   -3.2432452    1.4870394   394368 
 6353000   0.88857452   -3.2415831    -1.757625  0.053148854   -3.2415831    1.4839581   394355 
 6354000   0.88919383   -3.2403037   -1.7552586  0.053934869   -3.2403037    1.4850451   394341 
 6355000   0.88849748   -3.2402717   -1.7563407  0.052826158   -3.2402717     1.483931   394328 
 6356000   0.88839396   -3.2396781   -1.7558711    0.0559866   -3.2396781     1.483807   394315 
 6357000   0.88866273   -3.2401879   -1.7558793  0.055245394   -3.2401879    1.4843087   394301 
 6358000   0.88869141   -3.2392106   -1.7548051  0.058181955   -3.2392106    1.4844055   394288 
 6359000   0.88961362   -3.2409362   -1.7549413  0.059466536   -3.2409362    1.4859949   394275 
 6360000    0.8894924    -3.242356   -1.7565108  0.052623431    -3.242356    1.4858452   394261 
 6361000   0.88879851   -3.2407616   -1.7560266  0.051447597   -3.2407616     1.484735   394248 
 6362000   0.88892065   -3.2397318   -1.7547438  0.055119037   -3.2397318     1.484988   394235 
 6363000    0.8896005    -3.241984   -1.7558074  0.054112541    -3.241984    1.4861765   394221 
 6364000   0.88940562   -3.2405289    -1.754629  0.054308431   -3.2405289    1.4858999   394208 
 6365000   0.88958195   -3.2412371   -1.7549936  0.053785043   -3.2412371    1.4862435   394195 
 6366000   0.88719127    -3.240811    -1.758509   0.06045713    -3.240811     1.482302   394181 
 6367000   0.88859841   -3.2421877   -1.7574857  0.049360874   -3.2421877     1.484702   394168 
 6368000   0.88904693   -3.2435786   -1.7580782  0.055350589   -3.2435786    1.4855004   394155 
 6369000   0.88899652   -3.2414931   -1.7560241  0.055779144   -3.2414931     1.485469   394141 
 6370000    0.8887808    -3.241409   -1.7562516  0.054775106    -3.241409    1.4851575   394128 
 6371000    0.8895181   -3.2427486     -1.75631  0.054264705   -3.2427486    1.4864385   394115 
 6372000   0.88792319   -3.2413524   -1.7575263  0.054698359   -3.2413524    1.4838261   394101 
 6373000   0.88976265   -3.2450938   -1.7581448  0.055653552   -3.2450938    1.4869491   394088 
 6374000   0.88865998     -3.24469   -1.7595347  0.057663986     -3.24469    1.4851553   394075 
 6375000   0.88945104   -3.2464315   -1.7599013  0.059020921   -3.2464315    1.4865302   394061 
 6376000   0.88969425   -3.2458076   -1.7588219  0.053507622   -3.2458076    1.4869857   394048 
 6377000   0.88999577   -3.2462016   -1.7586629  0.056589486   -3.2462016    1.4875387   394035 
 6378000   0.89005939   -3.2471584   -1.7594605  0.056845065   -3.2471584    1.4876979   394021 
 6379000   0.88814664   -3.2446377   -1.7600879  0.052136287   -3.2446377    1.4845498   394008 
 6380000   0.88845098   -3.2451785    -1.760071  0.054803715   -3.2451785    1.4851075   393995 
 6381000   0.88870808   -3.2478817   -1.7622917  0.051967324   -3.2478817      1.48559   393981 
 6382000   0.88744671   -3.2454068   -1.7618764  0.058198498   -3.2454068    1.4835305   393968 
 6383000    0.8867876   -3.2453121   -1.7628346  0.055575386   -3.2453121    1.4824776   393955 
 6384000   0.88781731   -3.2464522   -1.7622005  0.056442356   -3.2464522    1.4842517   393941 
 6385000   0.88894619   -3.2485312   -1.7623432  0.055692681   -3.2485312     1.486188   393928 
 6386000   0.88820268   -3.2474585   -1.7624646  0.055213766   -3.2474585     1.484994   393915 
 6387000   0.88860907   -3.2477917   -1.7620654  0.053777826   -3.2477917    1.4857262   393901 
 6388000   0.89089195   -3.2519466   -1.7623543  0.056755314   -3.2519466    1.4895923   393888 
 6389000   0.88727822   -3.2466415   -1.7630425  0.056423769   -3.2466415     1.483599   393875 
 6390000   0.89044854   -3.2492232   -1.7602702  0.061051425   -3.2492232     1.488953   393861 
 6391000   0.89096132   -3.2502273   -1.7603677  0.062137548   -3.2502273    1.4898596   393848 
 6392000   0.88948263   -3.2484853   -1.7610493  0.058517301   -3.2484853     1.487436   393835 
 6393000   0.88893547   -3.2483463   -1.7617725  0.063196782   -3.2483463    1.4865739   393821 
 6394000   0.88819138   -3.2462877   -1.7609091  0.056606198   -3.2462877    1.4853786   393808 
 6395000   0.88892491   -3.2494515   -1.7627971  0.061387493   -3.2494515    1.4866544   393795 
 6396000   0.88876046   -3.2483957   -1.7619635  0.057630791   -3.2483957    1.4864322   393781 
 6397000   0.88864533   -3.2484988   -1.7622101  0.055840276   -3.2484988    1.4862887   393768 
 6398000   0.88780923   -3.2470478   -1.7621085   0.05517422   -3.2470478    1.4849393   393755 
 6399000   0.88771331   -3.2458263   -1.7609946  0.057233437   -3.2458263    1.4848317   393741 
 6400000   0.88826813   -3.2471444   -1.7613357  0.047934619   -3.2471444    1.4858087   393728 
 6401000   0.88667378   -3.2440578    -1.760867  0.055060937   -3.2440578    1.4831908   393715 
 6402000   0.88628403   -3.2425646   -1.7599729  0.058603239   -3.2425646    1.4825916   393701 
 6403000   0.88680879    -3.242523   -1.7590045  0.055656209    -3.242523    1.4835184   393688 
 6404000   0.88848401   -3.2456949    -1.759325  0.053253661   -3.2456949    1.4863699   393675 
 6405000    0.8873296   -3.2445522   -1.7600607   0.05735107   -3.2445522    1.4844915   393661 
 6406000   0.88667138   -3.2443895   -1.7609502  0.055382407   -3.2443895    1.4834393   393648 
 6407000   0.88637269   -3.2439457   -1.7609572  0.051429107   -3.2439457    1.4829885   393635 
 6408000   0.88742883   -3.2445867   -1.7597783  0.061546313   -3.2445867    1.4848084   393621 
 6409000   0.88711902   -3.2436966   -1.7593576  0.060633686   -3.2436966     1.484339   393608 
 6410000   0.88797946   -3.2445018    -1.758674  0.054734554   -3.2445018    1.4858278   393595 
 6411000   0.88805443    -3.242875   -1.7568689    0.0601819    -3.242875    1.4860061   393581 
 6412000   0.88946538     -3.24493   -1.7565138  0.057135951     -3.24493    1.4884162   393568 
 6413000   0.88777604   -3.2422652   -1.7566268  0.056114999   -3.2422652    1.4856384   393555 
 6414000    0.8880419   -3.2426417   -1.7565055  0.056746077   -3.2426417    1.4861362   393541 
 6415000   0.88744214   -3.2420388   -1.7568572  0.053984575   -3.2420388    1.4851815   393528 
 6416000   0.88860534   -3.2440512   -1.7568739  0.049020689   -3.2440512    1.4871773   393515 
 6417000   0.88768225   -3.2411674   -1.7554821  0.055492169   -3.2411674    1.4856853   393501 
 6418000   0.89011966   -3.2447176   -1.7549036  0.056388302   -3.2447176    1.4898139   393488 
 6419000   0.88789496   -3.2418347   -1.7556952  0.058876009   -3.2418347    1.4861395   393475 
 6420000   0.88798116   -3.2410531   -1.7547165  0.059323336   -3.2410531    1.4863367   393461 
 6421000   0.88883621   -3.2431512   -1.7553342  0.055192936   -3.2431512     1.487817   393448 
 6422000    0.8888242   -3.2428983   -1.7550522  0.052452168   -3.2428983    1.4878461   393435 
 6423000   0.88752229   -3.2412603   -1.7555407  0.049931023   -3.2412603    1.4857196   393421 
 6424000   0.88773756   -3.2428093   -1.7566802   0.04973173   -3.2428093    1.4861291   393408 
 6425000   0.88666683   -3.2406907    -1.756305  0.056598814   -3.2406907    1.4843857   393395 
 6426000   0.88690872   -3.2412925    -1.756449  0.058213677   -3.2412925    1.4848435   393381 
 6427000   0.88608119   -3.2395689   -1.7560618  0.057867058   -3.2395689    1.4835071   393368 
 6428000   0.88577267   -3.2404869   -1.7574474  0.053802944   -3.2404869    1.4830395   393355 
 6429000   0.88743326   -3.2428777    -1.757005  0.054816189   -3.2428777    1.4858727   393341 
 6430000   0.88797137   -3.2433006   -1.7564778   0.05798737   -3.2433006    1.4868229   393328 
 6431000     0.885928    -3.240094   -1.7566436  0.060551515    -3.240094    1.4834505   393315 
 6432000   0.88688018   -3.2413978   -1.7563001  0.058931323   -3.2413978    1.4850977   393301 
 6433000    0.8886872   -3.2419845   -1.7538117  0.056477243   -3.2419845    1.4881728   393288 
 6434000   0.88796337   -3.2417126   -1.7547028  0.051231794   -3.2417126    1.4870098   393275 
 6435000   0.88745132   -3.2424809   -1.7562756  0.056115101   -3.2424809    1.4862052   393261 
 6436000   0.88697739   -3.2421464   -1.7566858  0.050851593   -3.2421464    1.4854607   393248 
 6437000   0.88713648   -3.2417225   -1.7559463  0.055167466   -3.2417225    1.4857762   393235 
 6438000   0.88723063   -3.2435407   -1.7575539  0.054286677   -3.2435407    1.4859868   393221 
 6439000   0.88661179   -3.2435431   -1.7585437  0.051589183   -3.2435431    1.4849994   393208 
 6440000     0.887047   -3.2438146   -1.7580371  0.052990929   -3.2438146    1.4857775   393195 
 6441000   0.88742089   -3.2440552   -1.7575985  0.056332632   -3.2440552    1.4864567   393181 
 6442000   0.88790033   -3.2448177   -1.7575088  0.055511396   -3.2448177    1.4873089   393168 
 6443000    0.8885795   -3.2443236   -1.7558278  0.055123278   -3.2443236    1.4884958   393155 
 6444000   0.88862908   -3.2446686   -1.7560367  0.051919388   -3.2446686    1.4886319   393141 
 6445000    0.8884419    -3.243201   -1.7548335  0.060473902    -3.243201    1.4883675   393128 
 6446000   0.88786505    -3.244113   -1.7566626  0.060243175    -3.244113    1.4874504   393115 
 6447000   0.88620327   -3.2426258   -1.7579066  0.056654699   -3.2426258    1.4847192   393101 
 6448000   0.88683154   -3.2446992   -1.7588783  0.055222445   -3.2446992    1.4858209   393088 
 6449000   0.88745293   -3.2445581   -1.7576469  0.058669531   -3.2445581    1.4869112   393075 
 6450000    0.8859807   -3.2429101   -1.7584127  0.054556251   -3.2429101    1.4844974   393061 
 6451000   0.88654078   -3.2436119    -1.758127  0.054970705   -3.2436119     1.485485   393048 
 6452000   0.88719921   -3.2445534    -1.757916  0.053069382   -3.2445534    1.4866374   393035 
 6453000   0.88655361    -3.242106   -1.7564974  0.057568211    -3.242106    1.4856085   393021 
 6454000   0.88597898   -3.2418408   -1.7571461   0.05691902   -3.2418408    1.4846947   393008 
 6455000    0.8866544   -3.2426464   -1.7567707  0.053318523   -3.2426464    1.4858757   392995 
 6456000   0.88903292   -3.2456682   -1.7557535  0.058840351   -3.2456682    1.4899148   392981 
 6457000   0.88821485   -3.2450066   -1.7564136  0.055831536   -3.2450066     1.488593   392968 
 6458000   0.88733078   -3.2441918   -1.7570312  0.062410396   -3.2441918    1.4871606   392955 
 6459000   0.88853269   -3.2457731   -1.7565451  0.058332424   -3.2457731     1.489228   392941 
 6460000   0.88776565   -3.2446421   -1.7566505  0.053555998   -3.2446421    1.4879916   392928 
 6461000   0.88724698   -3.2418725    -1.754701  0.057134018   -3.2418725    1.4871715   392915 
 6462000   0.88750362   -3.2428657    -1.755211  0.058798246   -3.2428657    1.4876547   392901 
 6463000   0.88607655   -3.2414056   -1.7560939  0.057503762   -3.2414056    1.4853117   392888 
 6464000   0.88620608    -3.241363   -1.7557849  0.050837247    -3.241363     1.485578   392875 
 6465000   0.88677059   -3.2405127   -1.7539354  0.055264486   -3.2405127    1.4865773   392861 
 6466000   0.88694737    -3.240278   -1.7533552  0.050792161    -3.240278    1.4869229   392848 
 6467000   0.88784797    -3.242264   -1.7537821  0.053671855    -3.242264    1.4884819   392835 
 6468000   0.88682138   -3.2423559   -1.7555421  0.055148027   -3.2423559    1.4868138   392821 
 6469000   0.88590597   -3.2385179   -1.7531897  0.057910247   -3.2385179    1.4853282   392808 
 6470000   0.88697363   -3.2409407   -1.7537732  0.050870728   -3.2409407    1.4871675   392795 
 6471000   0.88650944   -3.2392942    -1.752852  0.055123044   -3.2392942    1.4864422   392781 
 6472000   0.88561709   -3.2379452   -1.7529501  0.056505573   -3.2379452    1.4849951   392768 
 6473000    0.8851319   -3.2367385   -1.7525078  0.061068689   -3.2367385    1.4842307   392755 
 6474000   0.88644856   -3.2386343   -1.7521428   0.05269802   -3.2386343    1.4864915   392741 
 6475000   0.88624276   -3.2385871   -1.7523915  0.059009407   -3.2385871    1.4861956   392728 
 6476000   0.88475149   -3.2366312   -1.7528873  0.057142023   -3.2366312    1.4837439   392715 
 6477000   0.88612431   -3.2389342    -1.752835  0.053294522   -3.2389342    1.4860991   392701 
 6478000   0.88443081   -3.2358805   -1.7525724  0.056998141   -3.2358805    1.4833081   392688 
 6479000   0.88609823   -3.2415973   -1.7554435  0.053953268   -3.2415973    1.4861538   392675 
 6480000   0.88479928   -3.2372366   -1.7532085  0.054758921   -3.2372366    1.4840281   392661 
 6481000    0.8850792   -3.2390894   -1.7545427   0.05043863   -3.2390894    1.4845467   392648 
 6482000   0.88517285    -3.239312    -1.754559  0.056191073    -3.239312     1.484753   392635 
 6483000   0.88660129   -3.2421789   -1.7549769  0.049045965   -3.2421789     1.487202   392621 
 6484000   0.88514815   -3.2402655   -1.7554518  0.055289152   -3.2402655    1.4848137   392608 
 6485000   0.88800987   -3.2433373   -1.7536739  0.057739334   -3.2433373    1.4896634   392595 
 6486000   0.88700417   -3.2411232   -1.7530938  0.064422174   -3.2411232    1.4880294   392581 
 6487000   0.88585813   -3.2405554   -1.7543993  0.059332748   -3.2405554     1.486156   392568 
 6488000   0.88663819   -3.2419945   -1.7544806  0.055293174   -3.2419945     1.487514   392555 
 6489000   0.88702817   -3.2424204   -1.7541991  0.058382458   -3.2424204    1.4882213   392541 
 6490000   0.88824726   -3.2428282   -1.7525122  0.058556709   -3.2428282     1.490316   392528 
 6491000   0.88726549   -3.2417421    -1.753024  0.058928093   -3.2417421    1.4887181   392515 
 6492000   0.88733991   -3.2427254   -1.7538294  0.052909707   -3.2427254    1.4888961   392501 
 6493000    0.8860936   -3.2430566   -1.7562026  0.057254051   -3.2430566    1.4868541   392488 
 6494000   0.88598051   -3.2431137   -1.7564002  0.057998751   -3.2431137    1.4867136   392475 
 6495000   0.88630601    -3.243966   -1.7566531  0.055598718    -3.243966    1.4873128   392461 
 6496000   0.88509267   -3.2439892   -1.7586633   0.05752759   -3.2439892    1.4853259   392448 
 6497000   0.88583994   -3.2441575   -1.7575284  0.057198051   -3.2441575    1.4866292   392435 
 6498000    0.8866633   -3.2451222   -1.7570582   0.05786819   -3.2451222     1.488064   392421 
 6499000   0.88570601   -3.2435256   -1.7570189  0.055457183   -3.2435256    1.4865067   392408 
 6500000   0.88615829   -3.2436248   -1.7563098  0.056962961   -3.2436248     1.487315   392395 
 6501000   0.88511179   -3.2421704   -1.7565588  0.064507397   -3.2421704    1.4856116   392381 
 6502000   0.88662674   -3.2451089   -1.7569053  0.057189303   -3.2451089    1.4882037   392368 
 6503000   0.88629282   -3.2431268   -1.7554343  0.053360914   -3.2431268    1.4876925   392355 
 6504000    0.8856699    -3.241043    -1.754343  0.058501542    -3.241043    1.4866999   392341 
 6505000   0.88551514   -3.2411378   -1.7546484  0.058439557   -3.2411378    1.4864894   392328 
 6506000   0.88677837   -3.2432759   -1.7546166  0.056345492   -3.2432759    1.4886593   392315 
 6507000   0.88538085   -3.2398634   -1.7534972  0.062763409   -3.2398634    1.4863663   392301 
 6508000   0.88576065   -3.2401363   -1.7530832  0.057564728   -3.2401363    1.4870531   392288 
 6509000   0.88479953   -3.2392734   -1.7537846  0.056995936   -3.2392734    1.4854888   392275 
 6510000   0.88420269   -3.2399516   -1.7554119  0.052643792   -3.2399516    1.4845398   392261 
 6511000   0.88394212   -3.2384921   -1.7543406   0.05643519   -3.2384921    1.4841515   392248 
 6512000   0.88278633   -3.2368911   -1.7546311  0.057804073   -3.2368911      1.48226   392235 
 6513000   0.88310522     -3.23699   -1.7541416  0.060890176     -3.23699    1.4828484   392221 
 6514000   0.88296653   -3.2368213   -1.7541567  0.053426035   -3.2368213    1.4826646   392208 
 6515000   0.88291329   -3.2370839   -1.7544595  0.050499148   -3.2370839    1.4826244   392195 
 6516000   0.88386378   -3.2381171   -1.7538437  0.050712379   -3.2381171    1.4842734   392181 
 6517000   0.88336216   -3.2378445   -1.7543643   0.05534387   -3.2378445    1.4834803   392168 
 6518000   0.88316638   -3.2378503   -1.7546497  0.055620471   -3.2378503    1.4832006   392155 
 6519000   0.88388134   -3.2386085   -1.7541542  0.054610053   -3.2386085    1.4844543   392141 
 6520000   0.88326523   -3.2376457   -1.7541769  0.059554707   -3.2376457    1.4834688   392128 
 6521000   0.88412368   -3.2395123   -1.7545525  0.052865482   -3.2395123    1.4849598   392115 
 6522000   0.88566889   -3.2404953   -1.7528871  0.053674985   -3.2404953    1.4876082   392101 
 6523000   0.88486383   -3.2392655   -1.7529602  0.059484089   -3.2392655    1.4863053   392088 
 6524000   0.88414259   -3.2393474   -1.7542044  0.057004078   -3.2393474    1.4851431   392075 
 6525000   0.88391698   -3.2387649   -1.7539478  0.056677352   -3.2387649    1.4848171   392061 
 6526000   0.88525702   -3.2407544    -1.753637  0.055869133   -3.2407544    1.4871174   392048 
 6527000   0.88581468   -3.2413892   -1.7532856  0.059377727   -3.2413892    1.4881036   392035 
 6528000   0.88493674   -3.2421528    -1.755471  0.056204318   -3.2421528    1.4866818   392021 
 6529000   0.88466641   -3.2412475   -1.7549705  0.053228752   -3.2412475    1.4862769   392008 
 6530000   0.88448161   -3.2417957     -1.75578  0.055396732   -3.2417957    1.4860157   391995 
 6531000    0.8852966   -3.2432948   -1.7558567  0.053668372   -3.2432948    1.4874381   391981 
 6532000   0.88637691   -3.2449443   -1.7556416  0.051266579   -3.2449443    1.4893026   391968 
 6533000   0.88436034   -3.2425934   -1.7566297  0.060481301   -3.2425934    1.4859636   391955 
 6534000   0.88472893   -3.2432916   -1.7566556  0.058988656   -3.2432916    1.4866361   391941 
 6535000   0.88338589   -3.2408365   -1.7564079  0.054143223   -3.2408365    1.4844286   391928 
 6536000    0.8834373   -3.2416519   -1.7570877   0.05364205   -3.2416519    1.4845642   391915 
 6537000    0.8835277   -3.2408226   -1.7560535  0.056513509   -3.2408226    1.4847691   391901 
 6538000    0.8841078   -3.2422085   -1.7564152  0.053826741   -3.2422085    1.4857933   391888 
 6539000   0.88379599   -3.2417177   -1.7563992  0.056811993   -3.2417177    1.4853185   391875 
 6540000   0.88591167   -3.2441057   -1.7551783  0.058145587   -3.2441057    1.4889274   391861 
 6541000    0.8830348   -3.2411876   -1.7570461  0.056968782   -3.2411876    1.4841415   391848 
 6542000   0.88350659   -3.2406099   -1.7556261  0.055500618   -3.2406099    1.4849837   391835 
 6543000    0.8838606   -3.2425216   -1.7568898  0.053541771   -3.2425216    1.4856318   391821 
 6544000   0.88287886   -3.2416485   -1.7576176  0.059894448   -3.2416485    1.4840309   391808 
 6545000   0.88411059   -3.2425602   -1.7564096  0.056446823   -3.2425602    1.4861506   391795 
 6546000   0.88431118   -3.2433849    -1.756844   0.05678859   -3.2433849     1.486541   391781 
 6547000   0.88449786    -3.244302   -1.7573979  0.056382533    -3.244302    1.4869041   391768 
 6548000   0.88451019   -3.2431326   -1.7561584  0.063979765   -3.2431326    1.4869742   391755 
 6549000   0.88384365   -3.2408969   -1.7549902  0.054840807   -3.2408969    1.4859067   391741 
 6550000   0.88427489   -3.2421302   -1.7554492  0.060314426   -3.2421302    1.4866811   391728 
 6551000   0.88171521   -3.2386338    -1.756207   0.05656829   -3.2386338    1.4824268   391715 
 6552000    0.8822328   -3.2387181   -1.7553681  0.055499034   -3.2387181      1.48335   391701 
 6553000   0.88341244    -3.241419   -1.7560363   0.05487353    -3.241419    1.4853827   391688 
 6554000   0.88273757   -3.2396725   -1.7553752  0.053286246   -3.2396725    1.4842973   391675 
 6555000   0.88340545   -3.2386718   -1.7531984  0.056142822   -3.2386718    1.4854734   391661 
 6556000    0.8838595   -3.2416547   -1.7553685  0.058203065   -3.2416547    1.4862862   391648 
 6557000   0.88399168   -3.2406088   -1.7540509  0.059366598   -3.2406088    1.4865578   391635 
 6558000    0.8846891   -3.2435037   -1.7557199  0.054407273   -3.2435037    1.4877838   391621 
 6559000   0.88436811   -3.2410936   -1.7538002  0.055712342   -3.2410936    1.4872934   391608 
 6560000   0.88512456   -3.2418703   -1.7532553  0.056496043   -3.2418703     1.488615   391595 
 6561000   0.88478763   -3.2411324   -1.7530309  0.053715711   -3.2411324    1.4881015   391581 
 6562000   0.88309918    -3.238946   -1.7536349   0.05934982    -3.238946    1.4853111   391568 
 6563000   0.88255107   -3.2385961   -1.7541576  0.055204591   -3.2385961    1.4844385   391555 
 6564000   0.88272812   -3.2398667   -1.7550773  0.058447722   -3.2398667    1.4847894   391541 
 6565000   0.88354206   -3.2414341   -1.7552263  0.058142387   -3.2414341    1.4862078   391528 
 6566000   0.88305206   -3.2402461   -1.7548133  0.055402918   -3.2402461    1.4854329   391515 
 6567000   0.88279906    -3.238996   -1.7539355  0.056803051    -3.238996    1.4850604   391501 
 6568000   0.88380697   -3.2391259   -1.7523206  0.054480764   -3.2391259    1.4868053   391488 
 6569000   0.88357676    -3.239349   -1.7528817  0.059533638    -3.239349    1.4864674   391475 
 6570000   0.88466567   -3.2417331   -1.7533806  0.052940058   -3.2417331    1.4883525   391461 
 6571000   0.88271521   -3.2404058   -1.7552854   0.05395243   -3.2404058    1.4851204   391448 
 6572000   0.88225629   -3.2393176     -1.75492  0.054247481   -3.2393176    1.4843976   391435 
 6573000   0.88350221    -3.241557   -1.7550099  0.055792388    -3.241557     1.486547   391421 
 6574000   0.88236429   -3.2386721   -1.7539904   0.05386252   -3.2386721    1.4846817   391408 
 6575000   0.88342813   -3.2404669   -1.7539457  0.048451332   -3.2404669    1.4865211   391395 
 6576000   0.88327309   -3.2408396   -1.7545262  0.055936515   -3.2408396    1.4863134   391381 
 6577000   0.88341866   -3.2398034   -1.7531957  0.052993136   -3.2398034    1.4866077   391368 
 6578000   0.88174377    -3.236943   -1.7531045   0.05808892    -3.236943    1.4838385   391355 
 6579000   0.88270654    -3.239153   -1.7536412  0.056053286    -3.239153    1.4855119   391341 
 6580000   0.88265004   -3.2394756   -1.7540094  0.054288975   -3.2394756    1.4854661   391328 
 6581000   0.88222604   -3.2394989   -1.7546971  0.058448959   -3.2394989    1.4848019   391315 
 6582000   0.88438075   -3.2420291   -1.7535476  0.059477549   -3.2420291    1.4884815   391301 
 6583000    0.8821136   -3.2388261    -1.754111  0.057921748   -3.2388261    1.4847151   391288 
 6584000   0.88421601   -3.2387758   -1.7504726  0.050789083   -3.2387758    1.4883032   391275 
 6585000    0.8849532   -3.2408019   -1.7512046  0.058046932   -3.2408019    1.4895973   391261 
 6586000   0.88478157   -3.2394203   -1.7500624  0.059227247   -3.2394203    1.4893579   391248 
 6587000   0.88316032   -3.2377108   -1.7510326  0.058477018   -3.2377108    1.4866782   391235 
 6588000   0.88419895   -3.2408732   -1.7523933  0.057002265   -3.2408732    1.4884799   391221 
 6589000   0.88457064   -3.2397408   -1.7505858  0.052048738   -3.2397408    1.4891551   391208 
 6590000   0.88228285   -3.2380403   -1.7526873  0.054655447   -3.2380403     1.485353   391195 
 6591000   0.88200266   -3.2375798   -1.7526453  0.053840648   -3.2375798    1.4849344   391181 
 6592000   0.88134667   -3.2373987   -1.7535194  0.054384401   -3.2373987    1.4838793   391168 
 6593000   0.88288857   -3.2393312   -1.7528064  0.056663402   -3.2393312    1.4865247   391155 
 6594000   0.88042325   -3.2371239   -1.7546969  0.055662527   -3.2371239    1.4824269   391141 
 6595000   0.88145027   -3.2376064   -1.7534009  0.052292716   -3.2376064    1.4842055   391128 
 6596000   0.88056345   -3.2355181   -1.7527566  0.054169674   -3.2355181    1.4827616   391115 
 6597000   0.88145886   -3.2367282   -1.7524057  0.056457695   -3.2367282    1.4843224   391101 
 6598000   0.88052654   -3.2341922   -1.7513905  0.057242368   -3.2341922    1.4828018   391088 
 6599000    0.8812573   -3.2350992   -1.7510175  0.054413681   -3.2350992    1.4840817   391075 
 6600000   0.88156831   -3.2360817   -1.7514231  0.057139184   -3.2360817    1.4846586   391061 
 6601000   0.88087811   -3.2339942   -1.7504486  0.058187833   -3.2339942    1.4835455   391048 
 6602000   0.88155918   -3.2368932   -1.7521513  0.055900879   -3.2368932    1.4847419   391035 
 6603000   0.88195507   -3.2364706   -1.7510087  0.058400777   -3.2364706    1.4854619   391021 
 6604000     0.882144   -3.2393212   -1.7534917  0.056253072   -3.2393212    1.4858295   391008 
 6605000   0.88120883   -3.2371471   -1.7528434  0.056197181   -3.2371471    1.4843037   390995 
 6606000   0.88299451   -3.2380091   -1.7506444  0.057685712   -3.2380091    1.4873647   390981 
 6607000   0.88088644   -3.2358939   -1.7520308  0.057902121   -3.2358939    1.4838631   390968 
 6608000   0.88127415   -3.2369324   -1.7523668  0.055484587   -3.2369324    1.4845656   390955 
 6609000   0.88252203   -3.2388856   -1.7521646  0.054769773   -3.2388856     1.486721   390941 
 6610000    0.8813271   -3.2360607   -1.7513033  0.058265679   -3.2360607    1.4847573   390928 
 6611000   0.88220555   -3.2384724   -1.7521857  0.058286066   -3.2384724    1.4862867   390915 
 6612000   0.88296258   -3.2397974   -1.7521821  0.055204054   -3.2397974    1.4876153   390901 
 6613000   0.88307745   -3.2402148   -1.7523565  0.056765267   -3.2402148    1.4878584   390888 
 6614000   0.88347213   -3.2391352   -1.7505624   0.05858603   -3.2391352    1.4885728   390875 
 6615000   0.88203371   -3.2368779   -1.7506755  0.055929241   -3.2368779    1.4862025   390861 
 6616000    0.8807145   -3.2349717   -1.7509428  0.059532702   -3.2349717     1.484029   390848 
 6617000   0.88217136   -3.2364361   -1.7499028  0.053213438   -3.2364361    1.4865333   390835 
 6618000   0.88355915   -3.2399859   -1.7510607  0.055732181   -3.2399859    1.4889252   390821 
 6619000   0.88232787   -3.2385157   -1.7516159  0.059490168   -3.2385157    1.4868997   390808 
 6620000   0.88117397    -3.239428   -1.7544234  0.050099596    -3.239428    1.4850046   390795 
 6621000   0.88129852   -3.2394064   -1.7541387   0.05267755   -3.2394064    1.4852677   390781 
 6622000   0.88127119   -3.2385794   -1.7533083  0.058277125   -3.2385794     1.485271   390768 
 6623000   0.88180528   -3.2395447   -1.7533241  0.052765189   -3.2395447    1.4862206   390755 
 6624000   0.88215095   -3.2383376   -1.7514811  0.053238829   -3.2383376    1.4868565   390741 
 6625000   0.88229563   -3.2397114   -1.7525616   0.05566036   -3.2397114    1.4871498   390728 
 6626000    0.8832934   -3.2408284   -1.7519472  0.060055797   -3.2408284    1.4888812   390715 
 6627000   0.88283589   -3.2412433     -1.75308  0.057301956   -3.2412433    1.4881633   390701 
 6628000    0.8832352   -3.2402293   -1.7513434  0.060126097   -3.2402293    1.4888859   390688 
 6629000   0.88204042   -3.2394519   -1.7525305    0.0573177   -3.2394519    1.4869214   390675 
 6630000   0.88293406   -3.2413593   -1.7528782  0.059455249   -3.2413593    1.4884812   390661 
 6631000   0.88285008   -3.2398003   -1.7514112  0.057334953   -3.2398003    1.4883891   390648 
 6632000     0.881572   -3.2376659    -1.751382  0.059501063   -3.2376659    1.4862839   390635 
 6633000   0.88193333   -3.2383273   -1.7513809  0.053403469   -3.2383273    1.4869464   390621 
 6634000   0.88081641   -3.2359957    -1.750883  0.051792008   -3.2359957    1.4851126   390608 
 6635000   0.88108979   -3.2378215   -1.7521985   0.05935436   -3.2378215     1.485623   390595 
 6636000     0.880367   -3.2369517   -1.7524942  0.053007457   -3.2369517    1.4844575   390581 
 6637000   0.88229818   -3.2400922   -1.7523289  0.055553174   -3.2400922    1.4877634   390568 
 6638000   0.88233606   -3.2385403   -1.7506636  0.056546437   -3.2385403    1.4878767   390555 
 6639000   0.88086254   -3.2362784   -1.7508331  0.054294544   -3.2362784    1.4854452   390541 
 6640000   0.88221297    -3.237425    -1.749653  0.048678654    -3.237425     1.487772   390528 
 6641000   0.88126411    -3.237078   -1.7508567  0.051057222    -3.237078    1.4862214   390515 
 6642000   0.87924266   -3.2351683   -1.7523029  0.053948859   -3.2351683    1.4828654   390501 
 6643000   0.88011174   -3.2362769   -1.7518963  0.049687845   -3.2362769    1.4843805   390488 
 6644000   0.87988793   -3.2361982   -1.7521457  0.056284625   -3.2361982    1.4840525   390475 
 6645000   0.87950279   -3.2364706   -1.7530145  0.054797134   -3.2364706    1.4834561   390461 
 6646000   0.88055001    -3.236128   -1.7508561  0.055364177    -3.236128    1.4852719   390448 
 6647000   0.88174346   -3.2372067   -1.7498722  0.051473022   -3.2372067    1.4873344   390435 
 6648000   0.88170308   -3.2366919   -1.7493723  0.053014671   -3.2366919    1.4873197   390421 
 6649000   0.88251572   -3.2370832   -1.7483431  0.057375652   -3.2370832    1.4887401   390408 
 6650000   0.88179689   -3.2364976   -1.7489206  0.056068843   -3.2364976     1.487577   390395 
 6651000   0.88201314   -3.2373115   -1.7493163  0.058134904   -3.2373115    1.4879951   390381 
 6652000   0.88248431   -3.2361299   -1.7472903   0.06257557   -3.2361299    1.4888396   390368 
 6653000   0.88261639   -3.2376285   -1.7485165  0.054644678   -3.2376285     1.489112   390355 
 6654000   0.88269963   -3.2383835   -1.7490777  0.053845218   -3.2383835    1.4893059   390341 
 6655000   0.88272983   -3.2375339   -1.7481275  0.049997349   -3.2375339    1.4894064   390328 
 6656000   0.88007655   -3.2344877   -1.7495086  0.055615533   -3.2344877    1.4849791   390315 
 6657000   0.88139268   -3.2389311   -1.7516779  0.055158319   -3.2389311    1.4872532   390301 
 6658000    0.8804617   -3.2370115   -1.7512797  0.057020219   -3.2370115    1.4857317   390288 
 6659000   0.88007728   -3.2367778   -1.7516452  0.057146939   -3.2367778    1.4851325   390275 
 6660000   0.88082758   -3.2380232   -1.7515712  0.056928663   -3.2380232     1.486452   390261 
 6661000   0.88013504   -3.2373451   -1.7520124  0.050480493   -3.2373451    1.4853328   390248 
 6662000   0.88121431   -3.2369747    -1.749771  0.053970664   -3.2369747    1.4872037   390235 
 6663000   0.88214732   -3.2379948   -1.7491631   0.05358583   -3.2379948    1.4888317   390221 
 6664000   0.88087556   -3.2363816   -1.7496467  0.060582322   -3.2363816    1.4867349   390208 
 6665000   0.88168119   -3.2361176   -1.7479734  0.059083585   -3.2361176    1.4881442   390195 
 6666000    0.8820896   -3.2372635   -1.7483765  0.054781778   -3.2372635    1.4888869   390181 
 6667000   0.88353232   -3.2408133   -1.7494415   0.05358092   -3.2408133    1.4913718   390168 
 6668000   0.88033623   -3.2347733   -1.7487469  0.060511949   -3.2347733    1.4860264   390155 
 6669000   0.88041644   -3.2360632   -1.7498481  0.056988372   -3.2360632    1.4862152   390141 
 6670000   0.88110185   -3.2356282   -1.7482065  0.058108285   -3.2356282    1.4874217   390128 
 6671000   0.87941168   -3.2343456   -1.7497276  0.061051413   -3.2343456     1.484618   390115 
 6672000   0.87997694   -3.2354088   -1.7497833  0.054173114   -3.2354088    1.4856255   390101 
 6673000   0.87994408   -3.2345995   -1.7489799  0.055108533   -3.2345995    1.4856196   390088 
 6674000   0.87949141   -3.2334389    -1.748534  0.053218354   -3.2334389    1.4849048   390075 
 6675000   0.88049148   -3.2358696   -1.7492229   0.05207895   -3.2358696    1.4866467   390061 
 6676000   0.87924449   -3.2330265   -1.7484358  0.055506285   -3.2330265    1.4845907   390048 
 6677000   0.88056546   -3.2334483   -1.7465776  0.056434734   -3.2334483    1.4868707   390035 
 6678000   0.88072616   -3.2352763   -1.7480809  0.052298196   -3.2352763    1.4871954   390021 
 6679000   0.88084878   -3.2344753   -1.7470232  0.053327387   -3.2344753    1.4874521   390008 
 6680000   0.88006545   -3.2339024   -1.7477236  0.057140994   -3.2339024    1.4861788   389995 
 6681000   0.88117182    -3.234668   -1.7465675  0.049574182    -3.234668    1.4881006   389981 
 6682000   0.88084409   -3.2352186   -1.7476219  0.055177234   -3.2352186    1.4875967   389968 
 6683000   0.88215741   -3.2352143     -1.74535  0.050919131   -3.2352143    1.4898643   389955 
 6684000    0.8818513   -3.2345883   -1.7451874  0.055992371   -3.2345883    1.4894008   389941 
 6685000   0.88173567   -3.2345636   -1.7453084  0.058886213   -3.2345636    1.4892552   389928 
 6686000   0.87977299    -3.232647   -1.7466573  0.057881697    -3.232647    1.4859898   389915 
 6687000   0.87971674   -3.2337055   -1.7477574  0.053014645   -3.2337055    1.4859481   389901 
 6688000   0.88058585   -3.2356152   -1.7481495  0.054260216   -3.2356152    1.4874657   389888 
 6689000   0.87934582   -3.2315977   -1.7461771  0.054199238   -3.2315977    1.4854206   389875 
 6690000   0.88025618    -3.233778   -1.7467662  0.054480136    -3.233778    1.4870118   389861 
 6691000   0.88160305    -3.235262   -1.7459252  0.051680436    -3.235262    1.4893368   389848 
 6692000   0.88180839   -3.2348874    -1.745154  0.049817952   -3.2348874    1.4897333   389835 
 6693000   0.87973549   -3.2330724   -1.7467877  0.053007522   -3.2330724    1.4862847   389821 
 6694000    0.8800804   -3.2341573   -1.7472403  0.055705922   -3.2341573     1.486917   389808 
 6695000   0.87958166   -3.2330799   -1.7469559  0.053903216   -3.2330799    1.4861239   389795 
 6696000   0.87987428   -3.2325246   -1.7458528  0.054260863   -3.2325246    1.4866718   389781 
 6697000   0.87874013   -3.2311302   -1.7463252  0.055466293   -3.2311302     1.484805   389768 
 6698000   0.88147386   -3.2359153   -1.7464415  0.054937694   -3.2359153    1.4894738   389755 
 6699000    0.8801364   -3.2336959   -1.7464286  0.051913649   -3.2336959    1.4872673   389741 
 6700000   0.88175856   -3.2346598   -1.7446017  0.057332084   -3.2346598    1.4900581   389728 
 6701000   0.87951033   -3.2327586   -1.7464501   0.05092772   -3.2327586    1.4863085   389715 
 6702000   0.88016874   -3.2330865   -1.7456119  0.056254147   -3.2330865    1.4874746   389701 
 6703000   0.88090914   -3.2349605    -1.746185  0.056291112   -3.2349605    1.4887755   389688 
 6704000   0.88039036   -3.2342377   -1.7462893  0.054474964   -3.2342377    1.4879484   389675 
 6705000   0.88010947   -3.2342456   -1.7467185  0.056822387   -3.2342456    1.4875271   389661 
 6706000   0.87997936   -3.2356579   -1.7483011  0.059634525   -3.2356579    1.4873568   389648 
 6707000   0.88145456   -3.2375945   -1.7476945  0.054650251   -3.2375945    1.4898999   389635 
 6708000   0.87924969   -3.2333808   -1.7471543  0.055199528   -3.2333808    1.4862265   389621 
 6709000   0.87865426   -3.2328573   -1.7475877  0.059543215   -3.2328573    1.4852696   389608 
 6710000   0.88067031   -3.2357776   -1.7470504  0.055238935   -3.2357776    1.4887272   389595 
 6711000   0.88013806   -3.2343946   -1.7465137  0.051520457   -3.2343946    1.4878809   389581 
 6712000   0.87925935   -3.2328951     -1.74645  0.058734105   -3.2328951     1.486445   389568 
 6713000   0.87951768   -3.2332352   -1.7463038  0.056107927   -3.2332352    1.4869314   389555 
 6714000   0.87848726   -3.2325808   -1.7473381  0.052817195   -3.2325808    1.4852427   389541 
 6715000   0.87833238   -3.2328604     -1.74783   0.05419765   -3.2328604    1.4850304   389528 
 6716000   0.87833949   -3.2317838   -1.7466918  0.051709701   -3.2317838     1.485092   389515 
 6717000    0.8784843   -3.2316101   -1.7462198  0.054061441   -3.2316101    1.4853902   389501 
 6718000   0.87808892   -3.2322689   -1.7474976  0.052260604   -3.2322689    1.4847712   389488 
 6719000   0.87914724    -3.233361   -1.7467507  0.055369537    -3.233361    1.4866104   389475 
 6720000   0.87676529   -3.2313232   -1.7486874  0.052962855   -3.2313232    1.4826359   389461 
 6721000   0.87804629   -3.2326348   -1.7477832  0.052535089   -3.2326348    1.4848516   389448 
 6722000   0.87835191   -3.2325821    -1.747164  0.054783466   -3.2325821    1.4854181   389435 
 6723000   0.87862126   -3.2342768   -1.7483498  0.053766149   -3.2342768     1.485927   389421 
 6724000   0.87885312   -3.2329827    -1.746614  0.051695689   -3.2329827    1.4863687   389408 
 6725000   0.87833244   -3.2321058   -1.7465681  0.053404957   -3.2321058    1.4855377   389395 
 6726000   0.87905998   -3.2322475   -1.7454258  0.055504744   -3.2322475    1.4868217   389381 
 6727000    0.8791109    -3.233494   -1.7465366  0.054271043    -3.233494    1.4869574   389368 
 6728000   0.87940308   -3.2336118   -1.7461104   0.05786965   -3.2336118    1.4875013   389355 
 6729000   0.87889567   -3.2328198   -1.7461233  0.056970327   -3.2328198    1.4866965   389341 
 6730000   0.87843961   -3.2327785   -1.7468038  0.060672036   -3.2327785    1.4859747   389328 
 6731000   0.88091726   -3.2353462   -1.7451306  0.062225199   -3.2353462    1.4902156   389315 
 6732000   0.87921042   -3.2333858   -1.7460041  0.060738886   -3.2333858    1.4873817   389301 
 6733000    0.8789397   -3.2337046   -1.7467312  0.056046317   -3.2337046    1.4869734   389288 
 6734000   0.87817076   -3.2311286   -1.7454065  0.057679606   -3.2311286    1.4857221   389275 
 6735000   0.87876776   -3.2320468   -1.7452612  0.053271963   -3.2320468    1.4867856   389261 
 6736000   0.87876392   -3.2321663   -1.7453375  0.053558665   -3.2321663    1.4868288   389248 
 6737000    0.8777926    -3.232228    -1.746993  0.059411324    -3.232228     1.485235   389235 
 6738000    0.8775083    -3.231057   -1.7462497  0.055845638    -3.231057    1.4848073   389221 
 6739000   0.87856656   -3.2344844   -1.7478368  0.053619439   -3.2344844    1.4866476   389208 
 6740000   0.87654718   -3.2310056   -1.7477254  0.057924514   -3.2310056    1.4832801   389195 
 6741000   0.87783081   -3.2337011   -1.7481954  0.049418671   -3.2337011    1.4855057   389181 
 6742000   0.87671811   -3.2312358   -1.7475635   0.05722315   -3.2312358    1.4836723   389168 
 6743000    0.8782651   -3.2323846   -1.7460447  0.059983845   -3.2323846    1.4863399   389155 
 6744000    0.8784837   -3.2332352   -1.7464718  0.054731785   -3.2332352    1.4867634   389141 
 6745000   0.87673734   -3.2327992   -1.7489419  0.053012173   -3.2327992    1.4838574   389128 
 6746000   0.87727397   -3.2328931   -1.7480779  0.052886114   -3.2328931    1.4848152   389115 
 6747000    0.8773261   -3.2332693   -1.7483124  0.053598685   -3.2332693    1.4849568   389101 
 6748000   0.87747129   -3.2332317   -1.7479795  0.051948963   -3.2332317    1.4852522   389088 
 6749000   0.87637469   -3.2313966   -1.7479509  0.056635925   -3.2313966    1.4834456   389075 
 6750000   0.87704622    -3.231816   -1.7471802  0.055341557    -3.231816    1.4846357   389061 
 6751000   0.87839825   -3.2331855   -1.7462114  0.058076191   -3.2331855    1.4869741   389048 
 6752000   0.87876794   -3.2364121   -1.7487624  0.056576338   -3.2364121    1.4876496   389035 
 6753000   0.87819186   -3.2355299    -1.748802  0.056561912   -3.2355299    1.4867279   389021 
 6754000   0.87867034   -3.2361776     -1.74859  0.055581113   -3.2361776    1.4875877   389008 
 6755000   0.87819048   -3.2356902   -1.7488653  0.059820671   -3.2356902    1.4868249   388995 
 6756000   0.87890852   -3.2359383   -1.7478441  0.055720865   -3.2359383    1.4880942   388981 
 6757000   0.87830688   -3.2363634   -1.7492382  0.054245228   -3.2363634    1.4871252   388968 
 6758000   0.87876359   -3.2366381   -1.7486898  0.050493123   -3.2366381    1.4879483   388955 
 6759000   0.87709113   -3.2352386   -1.7500687  0.053305376   -3.2352386    1.4851699   388941 
 6760000   0.87707226   -3.2344519   -1.7492644  0.055609839   -3.2344519    1.4851875   388928 
 6761000   0.87809989    -3.236867   -1.7498896  0.053904268    -3.236867    1.4869774   388915 
 6762000   0.87802922     -3.23683   -1.7499188  0.058315611     -3.23683    1.4869112   388901 
 6763000   0.87989015   -3.2398655   -1.7497531  0.060222004   -3.2398655    1.4901125   388888 
 6764000   0.87776847   -3.2361017   -1.7495327  0.061429992   -3.2361017     1.486569   388875 
 6765000   0.87846839     -3.23695    -1.749142  0.052947245     -3.23695     1.487808   388861 
 6766000   0.87642386   -3.2339309    -1.749536  0.059958411   -3.2339309    1.4843949   388848 
 6767000   0.87768114    -3.235842   -1.7492679  0.055256211    -3.235842    1.4865741   388835 
 6768000   0.87823991   -3.2364016   -1.7488275  0.054140911   -3.2364016     1.487574   388821 
 6769000   0.87885703   -3.2360254   -1.7473563  0.061147421   -3.2360254    1.4886691   388808 
 6770000   0.87808749   -3.2356614    -1.748246  0.055338317   -3.2356614    1.4874153   388795 
 6771000   0.87664935   -3.2359599   -1.7509273  0.054546284   -3.2359599    1.4850327   388781 
 6772000   0.87708653   -3.2352297   -1.7494067  0.053988702   -3.2352297     1.485823   388768 
 6773000   0.87900325   -3.2357903   -1.7466705  0.056491871   -3.2357903    1.4891198   388755 
 6774000   0.87891922   -3.2356084   -1.7465774  0.056618344   -3.2356084     1.489031   388741 
 6775000   0.87875684   -3.2354172   -1.7466115  0.056757464   -3.2354172    1.4888057   388728 
 6776000   0.87935753    -3.233369   -1.7434958   0.05648018    -3.233369    1.4898732   388715 
 6777000   0.87828024   -3.2307736    -1.742672  0.056421376   -3.2307736    1.4881016   388701 
 6778000   0.87798379   -3.2291694   -1.7415204  0.063059999   -3.2291694    1.4876491   388688 
 6779000    0.8782154   -3.2299765   -1.7418852  0.055202559   -3.2299765    1.4880913   388675 
 6780000   0.87814858   -3.2317699   -1.7437382  0.055955308   -3.2317699    1.4880317   388661 
 6781000   0.87699999   -3.2295105   -1.7433754   0.05822676   -3.2295105    1.4861351   388648 
 6782000   0.87716179   -3.2283322   -1.7418732  0.056264899   -3.2283322     1.486459   388635 
 6783000   0.87720976   -3.2281804   -1.7415866   0.05607022   -3.2281804    1.4865938   388621 
 6784000   0.87835881   -3.2285555   -1.7399646  0.059316542   -3.2285555    1.4885909   388608 
 6785000   0.87752261   -3.2282325    -1.741009  0.047284528   -3.2282325    1.4872235   388595 
 6786000   0.87538204    -3.225693   -1.7420439   0.05350216    -3.225693    1.4836491   388581 
 6787000   0.87517533   -3.2252637   -1.7419153  0.056774275   -3.2252637    1.4833484   388568 
 6788000   0.87714329   -3.2266812   -1.7399475   0.05649531   -3.2266812    1.4867337   388555 
 6789000   0.87607779   -3.2237719   -1.7387907   0.05792303   -3.2237719    1.4849812   388541 
 6790000   0.87720615    -3.226074   -1.7391305  0.059870376    -3.226074    1.4869435   388528 
 6791000   0.87620575   -3.2259225    -1.740625  0.049766629   -3.2259225    1.4852975   388515 
 6792000   0.87670756   -3.2265922   -1.7403905  0.054861164   -3.2265922    1.4862017   388501 
 6793000   0.87621836   -3.2260507   -1.7406286  0.053811051   -3.2260507    1.4854221   388488 
 6794000   0.87631746   -3.2255879   -1.7399481  0.056670449   -3.2255879    1.4856398   388475 
 6795000    0.8750776   -3.2236397   -1.7400485  0.047360268   -3.2236397    1.4835913   388461 
 6796000   0.87498084   -3.2239809    -1.740504  0.053754212   -3.2239809    1.4834769   388448 
 6797000   0.87552839   -3.2252485   -1.7407936  0.054296028   -3.2252485    1.4844549   388435 
 6798000   0.87491649   -3.2247664   -1.7412955   0.05141274   -3.2247664    1.4834709   388421 
 6799000   0.87578531   -3.2265931   -1.7415993  0.053997451   -3.2265931    1.4849937   388408 
 6800000   0.87742856   -3.2295107   -1.7416809  0.053845556   -3.2295107    1.4878298   388395 
 6801000   0.87663099   -3.2276354   -1.7411044  0.054375612   -3.2276354     1.486531   388381 
 6802000   0.87836377   -3.2300039   -1.7404847   0.05765907   -3.2300039    1.4895192   388368 
 6803000    0.8783214   -3.2304236   -1.7409264  0.056198859   -3.2304236    1.4894972   388355 
 6804000   0.87931776    -3.232474   -1.7412334  0.057135792    -3.232474    1.4912406   388341 
 6805000   0.87815617   -3.2322794   -1.7429588  0.055827478   -3.2322794    1.4893205   388328 
 6806000   0.87744588    -3.232496   -1.7443303  0.056597185    -3.232496    1.4881657   388315 
 6807000   0.87625025   -3.2305092   -1.7443177  0.056540219   -3.2305092    1.4861915   388301 
 6808000   0.87636454   -3.2318995   -1.7454644  0.057301044   -3.2318995    1.4864351   388288 
 6809000   0.87658592   -3.2324395   -1.7455791  0.054967571   -3.2324395    1.4868604   388275 
 6810000   0.87667233   -3.2328933   -1.7458327  0.054825071   -3.2328933    1.4870606   388261 
 6811000   0.87619782   -3.2318099   -1.7455044  0.058630504   -3.2318099    1.4863055   388248 
 6812000   0.87707331   -3.2323042   -1.7444638  0.057696147   -3.2323042    1.4878404   388235 
 6813000   0.87787184   -3.2354477    -1.746199  0.060277473   -3.2354477    1.4892487   388221 
 6814000    0.8780644   -3.2347596   -1.7451344  0.055379035   -3.2347596    1.4896252   388208 
 6815000   0.87648161   -3.2326448   -1.7456549  0.063064376   -3.2326448    1.4869899   388195 
 6816000   0.87901406   -3.2358317   -1.7444916   0.05722704   -3.2358317      1.49134   388181 
 6817000    0.8770815   -3.2335514   -1.7454403   0.05979923   -3.2335514    1.4881111   388168 
 6818000   0.87828005   -3.2359376   -1.7457431  0.055439276   -3.2359376    1.4901945   388155 
 6819000   0.87732074   -3.2341819   -1.7455614  0.056893966   -3.2341819    1.4886205   388141 
 6820000   0.87735021   -3.2351279   -1.7464075  0.057334388   -3.2351279    1.4887204   388128 
 6821000   0.87604965   -3.2326039   -1.7460406  0.058034666   -3.2326039    1.4865634   388115 
 6822000   0.87496403   -3.2313869   -1.7466122  0.056119364   -3.2313869    1.4847747   388101 
 6823000   0.87601758   -3.2313078   -1.7446954  0.052661212   -3.2313078    1.4866124   388088 
 6824000   0.87609431   -3.2315652   -1.7447728  0.053604333   -3.2315652    1.4867924   388075 
 6825000   0.87545565   -3.2303539   -1.7445918  0.056996155   -3.2303539    1.4857621   388061 
 6826000   0.87728018   -3.2319107   -1.7430023  0.057586887   -3.2319107    1.4889085   388048 
 6827000   0.87674119   -3.2304896    -1.742446  0.052296995   -3.2304896    1.4880436   388035 
 6828000   0.87650629   -3.2313306    -1.743632  0.055303515   -3.2313306    1.4876985   388021 
 6829000   0.87681298   -3.2308671   -1.7425982  0.051561605   -3.2308671     1.488269   388008 
 6830000   0.87538986   -3.2280143   -1.7421111  0.053426151   -3.2280143    1.4859032   387995 
 6831000   0.87498375   -3.2277182   -1.7424508  0.058330853   -3.2277182    1.4852674   387981 
 6832000   0.87621444   -3.2279022   -1.7404959  0.055761088   -3.2279022    1.4874064   387968 
 6833000    0.8753257   -3.2283474      -1.7424  0.056449537   -3.2283474    1.4859475   387955 
 6834000   0.87397784   -3.2266281   -1.7429151  0.056150162   -3.2266281    1.4837129   387941 
 6835000   0.87306119   -3.2248806   -1.7426742  0.054809776   -3.2248806    1.4822064   387928 
 6836000   0.87264855   -3.2239303   -1.7423748  0.052611493   -3.2239303    1.4815555   387915 
 6837000   0.87450131   -3.2280297   -1.7432751  0.051346358   -3.2280297    1.4847547   387901 
 6838000   0.87452756   -3.2280115   -1.7431625  0.055390603   -3.2280115     1.484849   387888 
 6839000   0.87615529   -3.2299991   -1.7423365  0.056778946   -3.2299991    1.4876626   387875 
 6840000   0.87599895   -3.2286339   -1.7411831  0.055503935   -3.2286339    1.4874508   387861 
 6841000   0.87553862   -3.2288341   -1.7421151  0.053087206   -3.2288341     1.486719   387848 
 6842000   0.87637295   -3.2291823   -1.7409967  0.050848431   -3.2291823    1.4881856   387835 
 6843000   0.87583596   -3.2293282   -1.7420008  0.052940339   -3.2293282    1.4873274   387821 
 6844000   0.87625305   -3.2296592   -1.7415736  0.058822373   -3.2296592    1.4880856   387808 
 6845000   0.87433151   -3.2264154   -1.7415432  0.055886982   -3.2264154    1.4848721   387795 
 6846000   0.87519003   -3.2274556   -1.7410718  0.055659519   -3.2274556    1.4863838   387781 
 6847000   0.87590722   -3.2290337    -1.741382  0.059211595   -3.2290337    1.4876517   387768 
 6848000   0.87571828   -3.2288793   -1.7414986  0.056183584   -3.2288793    1.4873807   387755 
 6849000    0.8755008   -3.2298493   -1.7427843  0.054830088   -3.2298493     1.487065   387741 
 6850000   0.87430533   -3.2300454   -1.7449612  0.056209477   -3.2300454    1.4850843   387728 
 6851000   0.87435388   -3.2292542   -1.7440377  0.059700613   -3.2292542    1.4852165   387715 
 6852000   0.87406577   -3.2292471   -1.7444664  0.049509436   -3.2292471    1.4847807   387701 
 6853000   0.87524813   -3.2302465   -1.7434074  0.054155701   -3.2302465    1.4868391   387688 
 6854000   0.87389348    -3.230438   -1.7458504  0.051173018    -3.230438    1.4845876   387675 
 6855000   0.87343142   -3.2287384   -1.7448822  0.051586165   -3.2287384    1.4838562   387661 
 6856000   0.87355839   -3.2298562   -1.7457345  0.050603663   -3.2298562    1.4841217   387648 
 6857000   0.87425193   -3.2303727   -1.7450229   0.05499061   -3.2303727    1.4853498   387635 
 6858000   0.87594365   -3.2324732   -1.7441954  0.056840815   -3.2324732    1.4882778   387621 
 6859000   0.87659259   -3.2320528   -1.7426225  0.055980331   -3.2320528    1.4894303   387608 
 6860000   0.87687729   -3.2310461   -1.7410821   0.05992826   -3.2310461    1.4899641   387595 
 6861000   0.87714966   -3.2314155   -1.7409348  0.060863111   -3.2314155    1.4904807   387581 
 6862000   0.87572435   -3.2304017    -1.742293  0.058051636   -3.2304017    1.4881087   387568 
 6863000   0.87493817    -3.230533   -1.7437104  0.055665615    -3.230533    1.4868226   387555 
 6864000   0.87377994   -3.2290646   -1.7441566  0.052784584   -3.2290646     1.484908   387541 
 6865000   0.87468315    -3.229564   -1.7430712  0.050575866    -3.229564    1.4864928   387528 
 6866000   0.87527634   -3.2299187   -1.7423679  0.056444157   -3.2299187    1.4875508   387515 
 6867000   0.87659633   -3.2330888   -1.7432408  0.056692003   -3.2330888     1.489848   387501 
 6868000   0.87702503   -3.2319947   -1.7413681  0.058421329   -3.2319947    1.4906266   387488 
 6869000   0.87523686   -3.2301096   -1.7424724  0.055860246   -3.2301096    1.4876373   387475 
 6870000    0.8749971   -3.2300887   -1.7428052  0.060225529   -3.2300887    1.4872835   387461 
 6871000   0.87466818   -3.2293838   -1.7426095  0.053976262   -3.2293838    1.4867743   387448 
 6872000   0.87320085   -3.2275488   -1.7432189  0.055555316   -3.2275488    1.4843299   387435 
 6873000    0.8761317   -3.2299851   -1.7406193  0.057018109   -3.2299851    1.4893658   387421 
 6874000   0.87609149   -3.2300659   -1.7407185  0.058228892   -3.2300659    1.4893474   387408 
 6875000   0.87457447   -3.2277674    -1.740949  0.061336218   -3.2277674    1.4868184   387395 
 6876000   0.87403042   -3.2272682   -1.7413211  0.053747407   -3.2272682    1.4859472   387381 
 6877000   0.87329504   -3.2265118    -1.741765  0.055617148   -3.2265118    1.4847467   387368 
 6878000   0.87381207   -3.2257534   -1.7400777  0.057757062   -3.2257534    1.4856757   387355 
 6879000   0.87494329   -3.2281182   -1.7404655  0.053623248   -3.2281182    1.4876527   387341 
 6880000   0.87401732   -3.2252021   -1.7390739  0.051645413   -3.2252021    1.4861282   387328 
 6881000   0.87383602   -3.2267656   -1.7408958  0.053705225   -3.2267656    1.4858698   387315 
 6882000   0.87525957   -3.2265301   -1.7381859  0.057652294   -3.2265301    1.4883442   387301 
 6883000   0.87497224   -3.2270589   -1.7391533   0.05592817   -3.2270589    1.4879056   387288 
 6884000   0.87424086   -3.2257266   -1.7390149  0.056437593   -3.2257266    1.4867117   387275 
 6885000    0.8741939   -3.2254884   -1.7388028   0.05465257   -3.2254884    1.4866856   387261 
 6886000   0.87415869   -3.2266483   -1.7399727  0.058348126   -3.2266483    1.4866757   387248 
 6887000   0.87438473   -3.2262932   -1.7391833  0.056672806   -3.2262932      1.48711   387235 
 6888000   0.87397337    -3.225798   -1.7393339  0.055414424    -3.225798    1.4864641   387221 
 6889000   0.87314503    -3.225463   -1.7403579  0.057839368    -3.225463    1.4851051   387208 
 6890000    0.8740686   -3.2264477   -1.7397218  0.052205057   -3.2264477    1.4867259   387195 
 6891000   0.87512164   -3.2269886   -1.7384177  0.056572606   -3.2269886    1.4885709   387181 
 6892000   0.87516612   -3.2273435    -1.738647  0.055861763   -3.2273435    1.4886965   387168 
 6893000   0.87537218   -3.2272326   -1.7381355  0.059536938   -3.2272326     1.489097   387155 
 6894000   0.87543802   -3.2279288   -1.7386659  0.060944847   -3.2279288    1.4892629   387141 
 6895000   0.87531338   -3.2280676   -1.7389667  0.056088987   -3.2280676    1.4891009   387128 
 6896000   0.87511174   -3.2281273   -1.7393195  0.052857038   -3.2281273    1.4888078   387115 
 6897000    0.8753619    -3.228095   -1.7388077  0.056755758    -3.228095    1.4892873   387101 
 6898000    0.8760483   -3.2294902   -1.7389851  0.055996513   -3.2294902    1.4905051   387088 
 6899000   0.87560044    -3.230084   -1.7402908  0.054631203    -3.230084    1.4897932   387075 
 6900000   0.87313703   -3.2260375   -1.7403819  0.064478082   -3.2260375    1.4856555   387061 
 6901000   0.87561895   -3.2289795   -1.7390509  0.051289124   -3.2289795    1.4899286   387048 
 6902000   0.87260531   -3.2258041   -1.7409536  0.056261609   -3.2258041    1.4848505   387035 
 6903000   0.87280973    -3.225567   -1.7403149  0.058807823    -3.225567    1.4852521   387021 
 6904000   0.87399101   -3.2274395   -1.7401272  0.053100956   -3.2274395    1.4873122   387008 
 6905000   0.87494571   -3.2289716   -1.7399846  0.054063155   -3.2289716    1.4889869   386995 
 6906000   0.87468518   -3.2278956   -1.7392982  0.057488007   -3.2278956    1.4885974   386981 
 6907000   0.87346544   -3.2275293   -1.7409578  0.053409667   -3.2275293    1.4865715   386968 
 6908000    0.8741177   -3.2275643   -1.7398327  0.055661468   -3.2275643    1.4877316   386955 
 6909000     0.875832   -3.2302062    -1.739503  0.053194464   -3.2302062    1.4907032   386941 
 6910000   0.87374789   -3.2255199    -1.738314  0.052571511   -3.2255199    1.4872059   386928 
 6911000   0.87407065   -3.2253986   -1.7375933   0.05358417   -3.2253986    1.4878053   386915 
 6912000   0.87428706      -3.2273   -1.7390724  0.060952873      -3.2273    1.4882275   386901 
 6913000   0.87397504   -3.2281442   -1.7403978  0.060074871   -3.2281442    1.4877464   386888 
 6914000   0.87217142   -3.2263148   -1.7415888  0.057157855   -3.2263148     1.484726   386875 
 6915000   0.87326424   -3.2288586   -1.7422184  0.051388929   -3.2288586    1.4866402   386861 
 6916000   0.87161592    -3.226638    -1.742754  0.053219689    -3.226638    1.4838839   386848 
 6917000   0.87331321   -3.2305647   -1.7437412  0.050304423   -3.2305647    1.4868234   386835 
 6918000   0.87279008   -3.2285107   -1.7425241  0.054856599   -3.2285107    1.4859866   386821 
 6919000    0.8709655    -3.225376    -1.742446  0.056415034    -3.225376      1.48293   386808 
 6920000   0.87347244   -3.2302515   -1.7430032   0.05257282   -3.2302515    1.4872483   386795 
 6921000   0.87346491   -3.2305345   -1.7432451  0.057332369   -3.2305345    1.4872893   386781 
 6922000   0.87259651   -3.2296634   -1.7438028  0.055934852   -3.2296634    1.4858606   386768 
 6923000   0.87327757   -3.2306696   -1.7435993  0.055793833   -3.2306696    1.4870703   386755 
 6924000   0.87261171   -3.2309409   -1.7449506  0.053515184   -3.2309409    1.4859902   386741 
 6925000   0.87363271   -3.2307033   -1.7429243  0.055768795   -3.2307033    1.4877789   386728 
 6926000   0.87382263   -3.2311568   -1.7430044  0.055580608   -3.2311568    1.4881524   386715 
 6927000   0.87315629   -3.2309554    -1.743884  0.061203606   -3.2309554    1.4870714   386701 
 6928000   0.87410318   -3.2318467   -1.7431126  0.060194951   -3.2318467    1.4887341   386688 
 6929000   0.87336094   -3.2313981   -1.7438781  0.058484466   -3.2313981      1.48752   386675 
 6930000   0.87270852   -3.2309226     -1.74446  0.062068272   -3.2309226    1.4864626   386661 
 6931000    0.8752199   -3.2334536   -1.7426633  0.060137341   -3.2334536    1.4907903   386648 
 6932000   0.87420321   -3.2321305    -1.743022  0.059809073   -3.2321305    1.4891086   386635 
 6933000   0.87424772   -3.2325587   -1.7433204  0.059829945   -3.2325587    1.4892383   386621 
 6934000   0.87454068   -3.2330619   -1.7432745  0.059317399   -3.2330619    1.4897875   386608 
 6935000   0.87469549   -3.2324859   -1.7423847  0.058187716   -3.2324859    1.4901013   386595 
 6936000   0.87350221   -3.2315793    -1.743457  0.056049607   -3.2315793    1.4881223   386581 
 6937000   0.87371881   -3.2316487   -1.7431073  0.055153937   -3.2316487    1.4885414   386568 
 6938000   0.87451877   -3.2327119   -1.7427575  0.053810446   -3.2327119    1.4899544   386555 
 6939000   0.87303123   -3.2295708   -1.7420969  0.056874785   -3.2295708    1.4874739   386541 
 6940000   0.87244841   -3.2288847   -1.7423539  0.051837991   -3.2288847    1.4865309   386528 
 6941000    0.8735231   -3.2305595   -1.7421475  0.053027288   -3.2305595     1.488412   386515 
 6942000   0.87206501   -3.2280808   -1.7420994  0.055009704   -3.2280808    1.4859814   386501 
 6943000   0.87146003   -3.2265997   -1.7415992   0.05224497   -3.2265997    1.4850005   386488 
 6944000   0.87112535   -3.2247253   -1.7402452  0.053612336   -3.2247253    1.4844801   386475 
 6945000   0.87220372   -3.2254177   -1.7390461  0.052794255   -3.2254177    1.4863716   386461 
 6946000   0.87224142   -3.2253866   -1.7389008  0.046228379   -3.2253866    1.4864858   386448 
 6947000   0.87219394   -3.2272086   -1.7407537  0.053127994   -3.2272086    1.4864549   386435 
 6948000   0.87186064   -3.2260238   -1.7400831  0.051975336   -3.2260238    1.4859407   386421 
 6949000   0.87142203   -3.2261934   -1.7409502  0.054765319   -3.2261934    1.4852432   386408 
 6950000   0.87178899   -3.2258678   -1.7399492  0.050980887   -3.2258678    1.4859186   386395 
 6951000   0.87213864   -3.2259626   -1.7393942  0.047285901   -3.2259626    1.4865684   386381 
 6952000   0.87056771   -3.2223365   -1.7383959  0.059241869   -3.2223365    1.4839407   386368 
 6953000   0.87141084   -3.2235685   -1.7381406  0.055906192   -3.2235685    1.4854278   386355 
 6954000   0.87313928   -3.2261749   -1.7377468  0.053535357   -3.2261749    1.4884281   386341 
 6955000   0.87201092   -3.2255908   -1.7390362  0.055086343   -3.2255908    1.4865546   386328 
 6956000   0.87402725   -3.2298744   -1.7398323  0.055248678   -3.2298744    1.4900421   386315 
 6957000   0.87335176   -3.2299689   -1.7410244  0.057967128   -3.2299689    1.4889445   386301 
 6958000   0.87173047   -3.2275155   -1.7412851  0.056574399   -3.2275155    1.4862304   386288 
 6959000    0.8712099   -3.2264889    -1.741096  0.050125232   -3.2264889    1.4853929   386275 
 6960000    0.8721256   -3.2269967   -1.7399887   0.05770462   -3.2269967     1.487008   386261 
 6961000   0.87218034   -3.2250064    -1.737855  0.058443761   -3.2250064    1.4871514   386248 
 6962000   0.87246437   -3.2271178   -1.7394321  0.055611712   -3.2271178    1.4876858   386235 
 6963000    0.8715588   -3.2261253   -1.7399298  0.055771715   -3.2261253    1.4861955   386221 
 6964000   0.87209065   -3.2278245    -1.740672  0.059174236   -3.2278245    1.4871525   386208 
 6965000   0.87267958   -3.2285954   -1.7403885  0.063468442   -3.2285954    1.4882069   386195 
 6966000   0.87397737   -3.2295985   -1.7391244  0.059600805   -3.2295985     1.490474   386181 
 6967000   0.87351232   -3.2306314   -1.7409003  0.058258897   -3.2306314    1.4897311   386168 
 6968000   0.87319255   -3.2295266   -1.7402907  0.054787442   -3.2295266    1.4892359   386155 
 6969000   0.87383554   -3.2303119   -1.7399254  0.058269309   -3.2303119    1.4903865   386141 
 6970000   0.87231472   -3.2293489   -1.7415061  0.053817269   -3.2293489    1.4878428   386128 
 6971000   0.87237992   -3.2313465   -1.7433424  0.053142549   -3.2313465    1.4880041   386115 
 6972000   0.87132815   -3.2305649   -1.7443009  0.052872491   -3.2305649     1.486264   386101 
 6973000   0.87145445   -3.2316137   -1.7450842   0.05366977   -3.2316137    1.4865295   386088 
 6974000   0.87077212   -3.2305971   -1.7451816  0.054441894   -3.2305971    1.4854156   386075 
 6975000   0.87104108   -3.2315671   -1.7456389  0.056120341   -3.2315671    1.4859282   386061 
 6976000   0.87226776   -3.2336598   -1.7455889  0.056722018   -3.2336598     1.488071   386048 
 6977000   0.87101972   -3.2322704   -1.7462785  0.055047238   -3.2322704    1.4859919   386035 
 6978000   0.87178842   -3.2328934   -1.7455362  0.053675756   -3.2328934    1.4873573   386021 
 6979000   0.87198605   -3.2326526   -1.7449081  0.052773739   -3.2326526    1.4877445   386008 
 6980000   0.87068917   -3.2306307   -1.7450488  0.057703392   -3.2306307    1.4855819   385995 
 6981000   0.87188705   -3.2320817    -1.744402  0.055715136   -3.2320817    1.4876797   385981 
 6982000   0.87156123   -3.2330114   -1.7458375  0.055633442   -3.2330114    1.4871738   385968 
 6983000   0.87063543   -3.2316329   -1.7459888  0.057229952   -3.2316329    1.4856442   385955 
 6984000   0.87112239   -3.2325636   -1.7460345  0.056412073   -3.2325636     1.486529   385941 
 6985000   0.87295546   -3.2343708   -1.7446636   0.05852476   -3.2343708    1.4897072   385928 
 6986000    0.8710285   -3.2320733   -1.7456043  0.059981041   -3.2320733    1.4864689   385915 
 6987000    0.8719796   -3.2334831   -1.7453371   0.05698196   -3.2334831     1.488146   385901 
 6988000   0.87038781   -3.2319388   -1.7464593  0.052124222   -3.2319388    1.4854795   385888 
 6989000   0.87038262   -3.2333282   -1.7478076  0.057188352   -3.2333282    1.4855207   385875 
 6990000   0.87151477   -3.2356633   -1.7481564  0.053304342   -3.2356633    1.4875069   385861 
 6991000   0.86977709   -3.2327171    -1.748126  0.057500278   -3.2327171    1.4845911   385848 
 6992000   0.87070534   -3.2353577   -1.7491321  0.048993245   -3.2353577    1.4862255   385835 
 6993000   0.86998321   -3.2338602   -1.7488134   0.05596967   -3.2338602    1.4850468   385821 
 6994000    0.8721655   -3.2360631    -1.747241  0.058232256   -3.2360631    1.4888221   385808 
 6995000   0.87104772   -3.2337566   -1.7467925  0.057874833   -3.2337566    1.4869641   385795 
 6996000   0.87114024   -3.2342462   -1.7470701  0.054796495   -3.2342462     1.487176   385781 
 6997000   0.87112837   -3.2355124   -1.7483065  0.054969938   -3.2355124    1.4872059   385768 
 6998000   0.87167582   -3.2344941   -1.7463034  0.055448154   -3.2344941    1.4881906   385755 
 6999000   0.87220628   -3.2357545   -1.7466042  0.061905721   -3.2357545    1.4891503   385741 
 7000000   0.87241812   -3.2358957   -1.7463335  0.052104339   -3.2358957    1.4895622   385728 
 7001000   0.87243925     -3.23593   -1.7462815  0.055503549     -3.23593    1.4896485   385715 
 7002000   0.87148691   -3.2351312   -1.7470548  0.061127343   -3.2351312    1.4880764   385701 
 7003000   0.87163314   -3.2353815   -1.7470053   0.05159113   -3.2353815    1.4883763   385688 
 7004000   0.87125101   -3.2338644   -1.7460905  0.058118107   -3.2338644    1.4877739   385675 
 7005000   0.87250627   -3.2353407   -1.7453692   0.05963948   -3.2353407    1.4899715   385661 
 7006000   0.87048227   -3.2330679   -1.7465027  0.053452743   -3.2330679    1.4865653   385648 
 7007000   0.87046566   -3.2328304   -1.7462434  0.059851318   -3.2328304     1.486587   385635 
 7008000   0.87141701   -3.2338029   -1.7455371  0.052049127   -3.2338029    1.4882658   385621 
 7009000   0.87064655   -3.2340282   -1.7470282  0.059881022   -3.2340282        1.487   385608 
 7010000   0.86972166   -3.2327908   -1.7473203   0.06061898   -3.2327908    1.4854705   385595 
 7011000   0.87113968   -3.2352729   -1.7473264   0.05938533   -3.2352729    1.4879465   385581 
 7012000    0.8717686   -3.2352305   -1.7461597  0.055697884   -3.2352305    1.4890709   385568 
 7013000   0.86883142   -3.2311063   -1.7470024  0.052311034   -3.2311063    1.4841039   385555 
 7014000   0.86780333   -3.2307939   -1.7483924  0.052082792   -3.2307939    1.4824016   385541 
 7015000     0.868273   -3.2309184   -1.7476645  0.051819659   -3.2309184    1.4832539   385528 
 7016000    0.8685179   -3.2309647   -1.7472424  0.051217302   -3.2309647    1.4837223   385515 
 7017000   0.86943647    -3.232842   -1.7474965   0.05335197    -3.232842    1.4853455   385501 
 7018000   0.86835736    -3.230094    -1.746542  0.055490029    -3.230094     1.483552   385488 
 7019000   0.86819919   -3.2316215   -1.7482897  0.055232491   -3.2316215    1.4833317   385475 
 7020000   0.87063678   -3.2331687   -1.7456182  0.055447869   -3.2331687    1.4875504   385461 
 7021000   0.87224147   -3.2352545    -1.744912  0.053774958   -3.2352545    1.4903424   385448 
 7022000   0.86987802   -3.2326096   -1.7462553  0.055594232   -3.2326096    1.4863543   385435 
 7023000   0.87102143   -3.2335097   -1.7451476  0.057251361   -3.2335097    1.4883621   385421 
 7024000   0.87012732   -3.2335561   -1.7466717  0.048331291   -3.2335561    1.4868844   385408 
 7025000   0.86974928   -3.2317605    -1.745472  0.053546813   -3.2317605    1.4862885   385395 
 7026000   0.87007918    -3.232148   -1.7452417  0.053563627    -3.232148    1.4869063   385381 
 7027000   0.87007035   -3.2311379   -1.7441965  0.057859036   -3.2311379    1.4869414   385368 
 7028000   0.87051043   -3.2322149   -1.7444712  0.060675271   -3.2322149    1.4877437   385355 
 7029000   0.86994797   -3.2326853   -1.7458489  0.056616054   -3.2326853    1.4868364   385341 
 7030000   0.87157491   -3.2365871   -1.7469198  0.057720219   -3.2365871    1.4896673   385328 
 7031000   0.87087301   -3.2343245   -1.7458066  0.060569815   -3.2343245    1.4885178   385315 
 7032000   0.87079562    -3.235277   -1.7468373  0.055098773    -3.235277    1.4884396   385301 
 7033000   0.86948818   -3.2355381   -1.7492831  0.050782395   -3.2355381     1.486255   385288 
 7034000   0.86855309   -3.2332792   -1.7485725  0.057030994   -3.2332792    1.4847067   385275 
 7035000    0.8683692   -3.2345468   -1.7501005  0.051864444   -3.2345468    1.4844463   385261 
 7036000    0.8690343   -3.2338907   -1.7482573  0.056737593   -3.2338907    1.4856334   385248 
 7037000   0.86950627   -3.2344749   -1.7479845  0.054780276   -3.2344749    1.4864904   385235 
 7038000   0.86915762   -3.2357139   -1.7497655  0.057301902   -3.2357139    1.4859484   385221 
 7039000   0.86755957   -3.2335953    -1.750329  0.059547276   -3.2335953    1.4832663   385208 
 7040000   0.86845536    -3.236043    -1.751195  0.052156315    -3.236043     1.484848   385195 
 7041000   0.86875767   -3.2354625   -1.7500436  0.057012096   -3.2354625    1.4854188   385181 
 7042000   0.86878652   -3.2346863    -1.749168  0.058931252   -3.2346863    1.4855183   385168 
 7043000   0.86842925   -3.2339503   -1.7489928  0.058033942   -3.2339503    1.4849575   385155 
 7044000   0.86841964   -3.2343025   -1.7493074  0.056712354   -3.2343025    1.4849951   385141 
 7045000   0.86811323   -3.2338804   -1.7493591  0.057844918   -3.2338804    1.4845212   385128 
 7046000   0.86883489   -3.2357102   -1.7499048  0.058835193   -3.2357102    1.4858055   385115 
 7047000   0.86845991   -3.2342093   -1.7489911  0.055432299   -3.2342093    1.4852182   385101 
 7048000   0.86858642   -3.2340708   -1.7485861  0.055150562   -3.2340708    1.4854847   385088 
 7049000   0.86843043   -3.2340854   -1.7488174  0.055087402   -3.2340854    1.4852681   385075 
 7050000   0.87004451   -3.2360284   -1.7479457  0.058155243   -3.2360284    1.4880827   385061 
 7051000   0.87053798   -3.2359825   -1.7470055  0.056856711   -3.2359825     1.488977   385048 
 7052000   0.87012851   -3.2340525   -1.7457256  0.058989433   -3.2340525    1.4883269   385035 
 7053000    0.8692934   -3.2347521   -1.7477995  0.056306003   -3.2347521    1.4869525   385021 
 7054000   0.86955441   -3.2342222    -1.746773  0.057243951   -3.2342222    1.4874492   385008 
 7055000     0.868409    -3.233575   -1.7480349  0.055046897    -3.233575      1.48554   384995 
 7056000   0.86531662   -3.2302347   -1.7499308  0.058271644   -3.2302347    1.4803039   384981 
 7057000   0.86695558   -3.2332078   -1.7500501  0.055215439   -3.2332078    1.4831578   384968 
 7058000   0.86840102   -3.2358264   -1.7501457  0.052070882   -3.2358264    1.4856807   384955 
 7059000    0.8678101   -3.2317698    -1.747046  0.055719618   -3.2317698    1.4847238   384941 
 7060000   0.86867783   -3.2331485   -1.7468899   0.05874642   -3.2331485    1.4862586   384928 
 7061000   0.86933655   -3.2340314   -1.7465955  0.054002355   -3.2340314    1.4874358   384915 
 7062000   0.86864291   -3.2320399   -1.7457368  0.054465995   -3.2320399    1.4863031   384901 
 7063000   0.86961974   -3.2334211   -1.7453964  0.058171029   -3.2334211    1.4880247   384888 
 7064000   0.86882566   -3.2322731   -1.7455569   0.05546951   -3.2322731    1.4867162   384875 
 7065000   0.86823817   -3.2325258   -1.7467609  0.058891686   -3.2325258    1.4857649   384861 
 7066000   0.86853933   -3.2334818   -1.7471513  0.055105287   -3.2334818    1.4863305   384848 
 7067000   0.86721811    -3.231721   -1.7476014  0.055086384    -3.231721    1.4841196   384835 
 7068000   0.86733765   -3.2320896   -1.7477114  0.051012766   -3.2320896    1.4843782   384821 
 7069000    0.8675091   -3.2322319   -1.7475101  0.052066355   -3.2322319    1.4847218   384808 
 7070000   0.86611001   -3.2293045   -1.7469271  0.057812861   -3.2293045    1.4823773   384795 
 7071000   0.86496224   -3.2295563   -1.7490896  0.058412494   -3.2295563    1.4804668   384781 
 7072000   0.86608762    -3.230823   -1.7483799  0.054069367    -3.230823     1.482443   384768 
 7073000   0.86766394   -3.2339152   -1.7487239  0.054857371   -3.2339152    1.4851913   384755 
 7074000   0.86659439   -3.2314998   -1.7480852  0.053197924   -3.2314998    1.4834146   384741 
 7075000   0.86558769   -3.2310705   -1.7493291  0.057230291   -3.2310705    1.4817414   384728 
 7076000   0.86712745   -3.2332561   -1.7488288  0.054536428   -3.2332561    1.4844273   384715 
 7077000    0.8680777   -3.2336239   -1.7475158   0.05260825   -3.2336239    1.4861082   384701 
 7078000   0.86701661   -3.2329576   -1.7486158  0.056931651   -3.2329576    1.4843418   384688 
 7079000   0.86629086   -3.2313431   -1.7481937  0.055963912   -3.2313431    1.4831494   384675 
 7080000   0.86818858   -3.2345219   -1.7480694  0.051163857   -3.2345219    1.4864525   384661 
 7081000   0.87023791   -3.2359431   -1.7459315   0.05478829   -3.2359431    1.4900116   384648 
 7082000   0.86887239   -3.2359535   -1.7482296  0.052633898   -3.2359535    1.4877239   384635 
 7083000   0.86964057   -3.2355677   -1.7464744  0.053241833   -3.2355677    1.4890934   384621 
 7084000   0.86840041   -3.2346772   -1.7476571  0.058950606   -3.2346772    1.4870201   384608 
 7085000   0.86931562    -3.235398   -1.7467604   0.05590899    -3.235398    1.4886376   384595 
 7086000   0.86950349   -3.2380433   -1.7490298  0.056081244   -3.2380433    1.4890135   384581 
 7087000   0.86787344   -3.2352495   -1.7489772  0.054094748   -3.2352495    1.4862723   384568 
 7088000   0.86801769   -3.2360687   -1.7494991  0.055298646   -3.2360687    1.4865696   384555 
 7089000   0.86815244   -3.2361111   -1.7492566  0.050002772   -3.2361111    1.4868545   384541 
 7090000   0.86828958   -3.2360211   -1.7488815  0.056805938   -3.2360211    1.4871396   384528 
 7091000    0.8677888   -3.2356386   -1.7493064  0.054709381   -3.2356386    1.4863322   384515 
 7092000   0.86784871    -3.235878   -1.7493891  0.059156465    -3.235878    1.4864889   384501 
 7093000   0.86772564   -3.2349159   -1.7485875  0.055153832   -3.2349159    1.4863284   384488 
 7094000   0.86811896   -3.2351394    -1.748087  0.058202928   -3.2351394    1.4870524   384475 
 7095000   0.86831088    -3.236466   -1.7490307    0.0529817    -3.236466    1.4874353   384461 
 7096000   0.86718514   -3.2342988   -1.7487417  0.056448894   -3.2342988    1.4855571   384448 
 7097000   0.86687051   -3.2330164   -1.7479481   0.05605958   -3.2330164    1.4850683   384435 
 7098000   0.86593719   -3.2335742   -1.7500507  0.059481691   -3.2335742    1.4835235   384421 
 7099000   0.86571408   -3.2333224    -1.750131  0.057116755   -3.2333224    1.4831914   384408 
 7100000     0.866701    -3.234468   -1.7495356  0.055566924    -3.234468    1.4849325   384395 
 7101000   0.86681917   -3.2345485   -1.7493595  0.054262296   -3.2345485     1.485189   384381 
 7102000   0.86747757   -3.2355978   -1.7492305  0.051699521   -3.2355978    1.4863674   384368 
 7103000   0.86556872   -3.2317223   -1.7485755  0.054088339   -3.2317223    1.4831468   384355 
 7104000   0.86803445   -3.2353626   -1.7479365  0.056610445   -3.2353626     1.487426   384341 
 7105000   0.86679443   -3.2334854    -1.748134  0.057894315   -3.2334854    1.4853514   384328 
 7106000   0.86777403   -3.2349482   -1.7478678  0.054889762   -3.2349482    1.4870804   384315 
 7107000   0.86715271   -3.2337654   -1.7476957  0.057791595   -3.2337654    1.4860698   384301 
 7108000    0.8677388   -3.2334152   -1.7462907  0.059451453   -3.2334152    1.4871245   384288 
 7109000   0.86894395   -3.2343524   -1.7451122  0.051930959   -3.2343524    1.4892402   384275 
 7110000   0.86640606   -3.2314416   -1.7464968  0.057258292   -3.2314416    1.4849448   384261 
 7111000    0.8669516   -3.2312932   -1.7453631  0.056120285   -3.2312932    1.4859301   384248 
 7112000   0.86754452   -3.2320106    -1.745014  0.057183257   -3.2320106    1.4869966   384235 
 7113000   0.86607535   -3.2298119   -1.7452794  0.056538142   -3.2298119    1.4845325   384221 
 7114000   0.86675655   -3.2327619   -1.7470115  0.056879791   -3.2327619    1.4857504   384208 
 7115000   0.86531119   -3.2312481    -1.747925  0.056736773   -3.2312481     1.483323   384195 
 7116000   0.86653139   -3.2318439    -1.746375  0.051824506   -3.2318439    1.4854689   384181 
 7117000   0.86604761    -3.231058   -1.7463682  0.053300441    -3.231058    1.4846898   384168 
 7118000   0.86536538   -3.2303615   -1.7467912  0.053066957   -3.2303615    1.4835704   384155 
 7119000   0.86636055   -3.2308279   -1.7454972   0.05362517   -3.2308279    1.4853306   384141 
 7120000   0.86497188   -3.2289753   -1.7459753  0.054128527   -3.2289753        1.483   384128 
 7121000   0.86673612   -3.2317607   -1.7456856  0.054768457   -3.2317607    1.4860751   384115 
 7122000   0.86770908   -3.2329476   -1.7451501  0.051286584   -3.2329476    1.4877975   384101 
 7123000   0.86603652   -3.2310875   -1.7461075  0.057508967   -3.2310875      1.48498   384088 
 7124000   0.86735398   -3.2327507   -1.7454613  0.058986377   -3.2327507    1.4872894   384075 
 7125000   0.86728218   -3.2323257   -1.7451053  0.059131961   -3.2323257    1.4872204   384061 
 7126000     0.867484     -3.23397   -1.7463532  0.057270163     -3.23397    1.4876169   384048 
 7127000   0.86665727    -3.233696   -1.7474466  0.055303291    -3.233696    1.4862495   384035 
 7128000   0.86679185   -3.2334124    -1.746878  0.057855507   -3.2334124    1.4865345   384021 
 7129000   0.86588212   -3.2347275   -1.7497029  0.057407701   -3.2347275    1.4850245   384008 
 7130000   0.86569281    -3.235005   -1.7502549  0.053473517    -3.235005    1.4847501   383995 
 7131000   0.86409025   -3.2313821   -1.7493264  0.054985013   -3.2313821    1.4820556   383981 
 7132000   0.86602064   -3.2342611   -1.7488442   0.05431192   -3.2342611    1.4854168   383968 
 7133000   0.86461677   -3.2314245   -1.7483654  0.057429371   -3.2314245    1.4830591   383955 
 7134000    0.8659125   -3.2330971   -1.7477613  0.053902953   -3.2330971    1.4853358   383941 
 7135000   0.86753075   -3.2360767   -1.7479147  0.057834243   -3.2360767     1.488162   383928 
 7136000   0.86641106   -3.2345697    -1.748278  0.060718081   -3.2345697    1.4862916   383915 
 7137000    0.8682931   -3.2367776   -1.7472031  0.057726859   -3.2367776    1.4895745   383901 
 7138000   0.86672096   -3.2342759   -1.7473481  0.060461643   -3.2342759    1.4869278   383888 
 7139000   0.86928618    -3.238678   -1.7472988  0.056660161    -3.238678    1.4913792   383875 
 7140000    0.8675282   -3.2350601   -1.7466427  0.053083507   -3.2350601    1.4884174   383861 
 7141000   0.86370906   -3.2283962   -1.7464811  0.057084382   -3.2283962    1.4819151   383848 
 7142000   0.86523384    -3.231981   -1.7473995   0.05273452    -3.231981    1.4845815   383835 
 7143000   0.86699108    -3.234646   -1.7469951  0.056415807    -3.234646    1.4876509   383821 
 7144000   0.86591319   -3.2327483   -1.7468966  0.054611718   -3.2327483    1.4858517   383808 
 7145000   0.86690423   -3.2344956   -1.7468929  0.053190824   -3.2344956    1.4876026   383795 
 7146000   0.86543307   -3.2320592   -1.7469269  0.050301741   -3.2320592    1.4851323   383781 
 7147000   0.86684079   -3.2341894    -1.746591  0.053890706   -3.2341894    1.4875984   383768 
 7148000   0.86665677   -3.2335494   -1.7462164  0.056077961   -3.2335494     1.487333   383755 
 7149000   0.86692102   -3.2332268    -1.745386  0.054213451   -3.2332268    1.4878408   383741 
 7150000   0.86500027    -3.228941   -1.7443463   0.05696697    -3.228941    1.4845946   383728 
 7151000   0.86633525   -3.2301639   -1.7432277  0.056718056   -3.2301639    1.4869362   383715 
 7152000   0.86593872   -3.2303003   -1.7439904  0.057993448   -3.2303003    1.4863099   383701 
 7153000   0.86589138   -3.2319149   -1.7456359  0.055345746   -3.2319149     1.486279   383688 
 7154000   0.86533985   -3.2287482   -1.7433656  0.056591188   -3.2287482    1.4853826   383675 
 7155000   0.86586433   -3.2303719   -1.7440348  0.058436264   -3.2303719    1.4863371   383661 
 7156000   0.86595606    -3.231902    -1.745357  0.052519072    -3.231902     1.486545   383648 
 7157000   0.86486626   -3.2318656   -1.7471412  0.051364984   -3.2318656    1.4847245   383635 
 7158000   0.86455642   -3.2305239   -1.7462772  0.053174532   -3.2305239    1.4842467   383621 
 7159000    0.8641097   -3.2293929   -1.7458629  0.052588046   -3.2293929    1.4835301   383608 
 7160000   0.86461551   -3.2290145   -1.7445657  0.058156805   -3.2290145    1.4844488   383595 
 7161000   0.86454113   -3.2291705   -1.7447953  0.054026126   -3.2291705    1.4843752   383581 
 7162000   0.86565473   -3.2312573   -1.7449196  0.054762346   -3.2312573    1.4863376   383568 
 7163000   0.86453151   -3.2303209   -1.7458615  0.056014764   -3.2303209    1.4844593   383555 
 7164000   0.86539759   -3.2311651   -1.7451644  0.052751418   -3.2311651    1.4860007   383541 
 7165000    0.8655718   -3.2302096   -1.7438594  0.057099804   -3.2302096    1.4863502   383528 
 7166000   0.86474974   -3.2287552   -1.7437662  0.056576094   -3.2287552    1.4849889   383515 
 7167000   0.86465941   -3.2277775   -1.7428895  0.053911046   -3.2277775     1.484888   383501 
 7168000   0.86517942   -3.2300577   -1.7442262  0.052079393   -3.2300577    1.4858314   383488 
 7169000   0.86584978   -3.2308069   -1.7437738  0.055284696   -3.2308069    1.4870331   383475 
 7170000   0.86571553   -3.2332795   -1.7464227  0.059187679   -3.2332795    1.4868568   383461 
 7171000   0.86557531   -3.2321517   -1.7454853  0.057329105   -3.2321517    1.4866664   383448 
 7172000   0.86559846   -3.2309335   -1.7441769  0.058007728   -3.2309335    1.4867565   383435 
 7173000   0.86684266   -3.2331478   -1.7441998   0.05590119   -3.2331478    1.4889479   383421 
 7174000   0.86611988   -3.2307444   -1.7429875  0.060952998   -3.2307444    1.4877569   383408 
 7175000    0.8661551   -3.2310045   -1.7431366  0.060280244   -3.2310045    1.4878678   383395 
 7176000    0.8663787   -3.2329977   -1.7446915  0.052995812   -3.2329977    1.4883063   383381 
 7177000   0.86563504   -3.2311943   -1.7441151   0.05946452   -3.2311943    1.4870792   383368 
 7178000   0.86453272   -3.2314835   -1.7462476  0.051712651   -3.2314835    1.4852359   383355 
 7179000   0.86482303   -3.2308444   -1.7450555  0.057643102   -3.2308444    1.4857889   383341 
 7180000   0.86504555   -3.2323054   -1.7460838  0.058858077   -3.2323054    1.4862216   383328 
 7181000   0.86601338   -3.2325729   -1.7446381   0.05716737   -3.2325729    1.4879349   383315 
 7182000   0.86469945   -3.2323005   -1.7465688  0.054093974   -3.2323005    1.4857316   383301 
 7183000   0.86336536   -3.2316544   -1.7481647  0.057742834   -3.2316544    1.4834897   383288 
 7184000    0.8641538   -3.2310345   -1.7461397  0.055662714   -3.2310345    1.4848948   383275 
 7185000   0.86426479   -3.2319472   -1.7468074  0.053002734   -3.2319472    1.4851398   383261 
 7186000   0.86529594   -3.2314362   -1.7444741  0.052998407   -3.2314362    1.4869621   383248 
 7187000   0.86514664   -3.2319992   -1.7452432  0.055345603   -3.2319992     1.486756   383235 
 7188000   0.86478688   -3.2316214   -1.7454294  0.056124012   -3.2316214     1.486192   383221 
 7189000   0.86469136   -3.2302924   -1.7442141  0.052365229   -3.2302924    1.4860783   383208 
 7190000   0.86662872    -3.231557   -1.7420986  0.053495007    -3.231557    1.4894584   383195 
 7191000   0.86486023   -3.2290478   -1.7425746   0.05364265   -3.2290478    1.4864732   383181 
 7192000   0.86751202    -3.231885   -1.7408034  0.056752391    -3.231885    1.4910816   383168 
 7193000   0.86586257   -3.2304424   -1.7421454  0.055651319   -3.2304424     1.488297   383155 
 7194000   0.86604347   -3.2307303   -1.7420679  0.056597925   -3.2307303    1.4886623   383141 
 7195000   0.86379055    -3.228356   -1.7435159  0.058865134    -3.228356    1.4848401   383128 
 7196000   0.86482202   -3.2310161   -1.7443525  0.051258015   -3.2310161    1.4866636   383115 
 7197000   0.86563378   -3.2307007   -1.7425872  0.057655211   -3.2307007    1.4881134   383101 
 7198000   0.86490137   -3.2309364   -1.7440316   0.05497563   -3.2309364    1.4869048   383088 
 7199000   0.86307048   -3.2274357   -1.7436281  0.050937072   -3.2274357    1.4838076   383075 
 7200000   0.86311204   -3.2289546   -1.7450213  0.050037716   -3.2289546    1.4839333   383061 
 7201000   0.86344302   -3.2283097    -1.743757  0.053185684   -3.2283097    1.4845527   383048 
 7202000   0.86389246   -3.2298759   -1.7445001  0.054533245   -3.2298759    1.4853758   383035 
 7203000   0.86451561   -3.2297745   -1.7432729  0.055573568   -3.2297745    1.4865016   383021 
 7204000   0.86382202   -3.2289787   -1.7436193   0.05582925   -3.2289787    1.4853594   383008 
 7205000   0.86469275   -3.2288464   -1.7419393  0.059515785   -3.2288464    1.4869071   382995 
 7206000   0.86510187   -3.2287779   -1.7411129  0.056697404   -3.2287779     1.487665   382981 
 7207000   0.86575369   -3.2287958   -1.7399593    0.0584591   -3.2287958    1.4888365   382968 
 7208000   0.86464415   -3.2290051   -1.7420262  0.054105254   -3.2290051    1.4869789   382955 
 7209000    0.8651094   -3.2289622   -1.7411288  0.058452417   -3.2289622    1.4878334   382941 
 7210000   0.86485056   -3.2289803   -1.7415416  0.054067245   -3.2289803    1.4874387   382928 
 7211000   0.86380298   -3.2270879   -1.7414005  0.059082297   -3.2270879    1.4856874   382915 
 7212000   0.86399138   -3.2273504   -1.7412846  0.055937739   -3.2273504    1.4860658   382901 
 7213000    0.8635253   -3.2282283   -1.7429137  0.052026521   -3.2282283    1.4853146   382888 
 7214000   0.86463795   -3.2283371   -1.7410582  0.057811411   -3.2283371    1.4872789   382875 
 7215000   0.86528026   -3.2281671   -1.7397289  0.056850786   -3.2281671    1.4884382   382861 
 7216000   0.86467659   -3.2270235   -1.7395732  0.056186442   -3.2270235    1.4874503   382848 
 7217000   0.86523653   -3.2299264   -1.7414624   0.05624846   -3.2299264     1.488464   382835 
 7218000   0.86387384   -3.2269976   -1.7408235  0.058630768   -3.2269976    1.4861741   382821 
 7219000    0.8658609   -3.2287604   -1.7391172   0.05671916   -3.2287604    1.4896432   382808 
 7220000   0.86533433   -3.2285543   -1.7397665  0.062388158   -3.2285543    1.4887878   382795 
 7221000   0.86500086    -3.229355   -1.7410865  0.051278312    -3.229355    1.4882685   382781 
 7222000   0.86427226   -3.2280321   -1.7409666  0.052034574   -3.2280321    1.4870654   382768 
 7223000   0.86260824   -3.2262701   -1.7420174  0.055391658   -3.2262701    1.4842528   382755 
 7224000   0.86203966   -3.2248192   -1.7414905  0.056084143   -3.2248192    1.4833287   382741 
 7225000    0.8631595   -3.2246676   -1.7393615  0.057662641   -3.2246676    1.4853061   382728 
 7226000   0.86350969   -3.2271661    -1.741207  0.054510424   -3.2271661    1.4859591   382715 
 7227000   0.86460179     -3.22833   -1.7404371  0.057777756     -3.22833    1.4878929   382701 
 7228000   0.86463465   -3.2283354   -1.7403354  0.051810003   -3.2283354        1.488   382688 
 7229000   0.86361231   -3.2261019   -1.7398108  0.060954296   -3.2261019    1.4862911   382675 
 7230000   0.86365353   -3.2272847   -1.7408683  0.058384933   -3.2272847    1.4864164   382661 
 7231000   0.86409792   -3.2265677    -1.739336    0.0587958   -3.2265677    1.4872317   382648 
 7232000   0.86448907   -3.2269099   -1.7389544  0.052123863   -3.2269099    1.4879555   382635 
 7233000   0.86410108   -3.2267497   -1.7394076   0.05266336   -3.2267497    1.4873421   382621 
 7234000   0.86258262   -3.2259493   -1.7411704     0.052613   -3.2259493    1.4847789   382608 
 7235000   0.86271814   -3.2254614   -1.7403988  0.053509807   -3.2254614    1.4850626   382595 
 7236000   0.86257774   -3.2253575   -1.7404822  0.053603995   -3.2253575    1.4848753   382581 
 7237000   0.86356988   -3.2280175   -1.7413837  0.060497585   -3.2280175    1.4866337   382568 
 7238000   0.86421324   -3.2277323   -1.7399405  0.056778869   -3.2277323    1.4877918   382555 
 7239000   0.86302227   -3.2260535   -1.7402576  0.051597957   -3.2260535    1.4857959   382541 
 7240000   0.86306274   -3.2251435   -1.7392274  0.054857397   -3.2251435     1.485916   382528 
 7241000   0.86319121   -3.2252983   -1.7391106  0.053124288   -3.2252983    1.4861877   382515 
 7242000   0.86324356   -3.2261008   -1.7397685  0.053966642   -3.2261008    1.4863323   382501 
 7243000   0.86204405   -3.2249183   -1.7406009  0.058331674   -3.2249183    1.4843174   382488 
 7244000   0.86242096   -3.2263841   -1.7413672  0.052092152   -3.2263841    1.4850168   382475 
 7245000   0.86289609   -3.2246524    -1.738763  0.053651705   -3.2246524    1.4858894   382461 
 7246000   0.86302886   -3.2250383   -1.7388698  0.054728686   -3.2250383    1.4861685   382448 
 7247000    0.8622657   -3.2237196   -1.7388148  0.053569872   -3.2237196    1.4849048   382435 
 7248000   0.86236469   -3.2240146   -1.7388849  0.054952557   -3.2240146    1.4851296   382421 
 7249000   0.86264834   -3.2232558   -1.7375872  0.055922951   -3.2232558    1.4856686   382408 
 7250000   0.86398333   -3.2250294    -1.737011  0.056763289   -3.2250294    1.4880184   382395 
 7251000   0.86490971   -3.2256927   -1.7360243  0.058209223   -3.2256927    1.4896684   382381 
 7252000   0.86290738   -3.2239713   -1.7377011  0.055068118   -3.2239713    1.4862702   382368 
 7253000   0.86372522   -3.2258628   -1.7381334  0.050236264   -3.2258628    1.4877294   382355 
 7254000   0.86128927   -3.2218785   -1.7382905  0.054471608   -3.2218785     1.483588   382341 
 7255000   0.86271965   -3.2225516   -1.7364493  0.055495762   -3.2225516    1.4861023   382328 
 7256000   0.86151758    -3.221773   -1.7376909  0.053623901    -3.221773    1.4840821   382315 
 7257000   0.86155588   -3.2221896   -1.7379871  0.054492173   -3.2221896    1.4842025   382301 
 7258000   0.86231916   -3.2239577   -1.7383898  0.049771745   -3.2239577    1.4855679   382288 
 7259000   0.86146176   -3.2223365   -1.7381952  0.056211738   -3.2223365    1.4841413   382275 
 7260000   0.86154064   -3.2216498   -1.7373183  0.051907503   -3.2216498    1.4843315   382261 
 7261000   0.86333071   -3.2225346   -1.7350684  0.055074918   -3.2225346    1.4874662   382248 
 7262000   0.86303495   -3.2224669   -1.7354597  0.057874941   -3.2224669    1.4870072   382235 
 7263000   0.86268612   -3.2233955   -1.7369349  0.052468514   -3.2233955    1.4864606   382221 
 7264000   0.86260752   -3.2237874   -1.7374117  0.053828482   -3.2237874    1.4863757   382208 
 7265000   0.86115912   -3.2202665   -1.7363361  0.058181591   -3.2202665    1.4839304   382195 
 7266000   0.86167625   -3.2217385   -1.7368626  0.053421081   -3.2217385    1.4848759   382181 
 7267000   0.86153561    -3.220531    -1.735847  0.058689555    -3.220531    1.4846841   382168 
 7268000   0.86138074   -3.2200585   -1.7355908  0.057238527   -3.2200585    1.4844677   382155 
 7269000   0.86315097   -3.2227116   -1.7351387  0.049872431   -3.2227116    1.4875729   382141 
 7270000   0.86470202   -3.2242207    -1.733924  0.052844647   -3.2242207    1.4902967   382128 
 7271000   0.86355685   -3.2234427    -1.735069  0.060474722   -3.2234427    1.4883737   382115 
 7272000   0.86254623   -3.2211555   -1.7344692  0.053839991   -3.2211555    1.4866863   382101 
 7273000   0.86328039   -3.2233046   -1.7353023  0.054054766   -3.2233046    1.4880023   382088 
 7274000    0.8629019   -3.2215945    -1.734194  0.053351987   -3.2215945    1.4874005   382075 
 7275000   0.86311212   -3.2210443   -1.7332268  0.055440132   -3.2210443    1.4878174   382061 
 7276000   0.86257319   -3.2208691   -1.7339301  0.058156626   -3.2208691     1.486939   382048 
 7277000   0.86235139   -3.2221463    -1.735539  0.054527386   -3.2221463    1.4866073   382035 
 7278000   0.86259753   -3.2219248   -1.7348388  0.060364515   -3.2219248    1.4870861   382021 
 7279000   0.86351914   -3.2244811   -1.7357555  0.053007598   -3.2244811    1.4887255   382008 
 7280000   0.86193051   -3.2213533    -1.735316  0.056935628   -3.2213533    1.4860373   381995 
 7281000   0.86277947   -3.2223024    -1.734747   0.05890448   -3.2223024    1.4875555   381981 
 7282000   0.86252914   -3.2218789   -1.7347044  0.056555958   -3.2218789    1.4871745   381968 
 7283000    0.8620918   -3.2218436   -1.7353726  0.059854245   -3.2218436     1.486471   381955 
 7284000   0.86223308   -3.2205008   -1.7337317  0.058208459   -3.2205008    1.4867691   381941 
 7285000   0.86356375   -3.2216246   -1.7325103  0.060472957   -3.2216246    1.4891143   381928 
 7286000   0.86465405    -3.223557   -1.7325118  0.046543709    -3.223557    1.4910452   381915 
 7287000   0.86265153   -3.2200773   -1.7324308  0.056826199   -3.2200773    1.4876465   381901 
 7288000   0.86166981    -3.218992   -1.7329879  0.058612343    -3.218992    1.4860041   381888 
 7289000   0.86213922   -3.2213174   -1.7344532  0.054190161   -3.2213174    1.4868642   381875 
 7290000   0.86031843   -3.2195029   -1.7357245  0.054585616   -3.2195029    1.4837784   381861 
 7291000    0.8611908   -3.2192226   -1.7338891  0.055575556   -3.2192226    1.4853336   381848 
 7292000   0.86077287   -3.2171088   -1.7324455  0.057848543   -3.2171088    1.4846633   381835 
 7293000   0.86355082   -3.2207352   -1.7312259  0.055995926   -3.2207352    1.4895093   381821 
 7294000   0.86256904   -3.2220446   -1.7341781  0.052130502   -3.2220446    1.4878665   381808 
 7295000   0.86215002   -3.2218624    -1.734668  0.057444493   -3.2218624    1.4871944   381795 
 7296000   0.86183651   -3.2214994   -1.7347913  0.057383149   -3.2214994    1.4867081   381781 
 7297000   0.86143195   -3.2209528    -1.734892  0.056997475   -3.2209528    1.4860608   381768 
 7298000   0.86110317    -3.219671   -1.7341267  0.056006575    -3.219671    1.4855442   381755 
 7299000   0.86173513   -3.2203922   -1.7337033  0.052681854   -3.2203922     1.486689   381741 
 7300000   0.86141782   -3.2209255   -1.7347333  0.051945745   -3.2209255    1.4861922   381728 
 7301000   0.86151614   -3.2217441   -1.7353317  0.055632797   -3.2217441    1.4864124   381715 
 7302000    0.8615536   -3.2224863   -1.7359547  0.059718686   -3.2224863    1.4865316   381701 
 7303000   0.86195956    -3.222885   -1.7356023  0.059637042    -3.222885    1.4872827   381688 
 7304000   0.86187676   -3.2230966   -1.7359061  0.055962303   -3.2230966    1.4871905   381675 
 7305000   0.86221716   -3.2240528   -1.7362205  0.054301793   -3.2240528    1.4878324   381661 
 7306000   0.86197924   -3.2233962   -1.7359237   0.05622453   -3.2233962    1.4874725   381648 
 7307000   0.86191631   -3.2238535   -1.7364389  0.054281397   -3.2238535    1.4874146   381635 
 7308000   0.86138708   -3.2242682   -1.7377124  0.055744988   -3.2242682    1.4865558   381621 
 7309000   0.86193393   -3.2248395   -1.7372892  0.052755159   -3.2248395    1.4875502   381608 
 7310000   0.86272913   -3.2267673   -1.7377939  0.056136948   -3.2267673    1.4889733   381595 
 7311000   0.86003568   -3.2239362   -1.7395571  0.054739642   -3.2239362    1.4843792   381581 
 7312000   0.86057394   -3.2241994   -1.7388406  0.051661221   -3.2241994    1.4853588   381568 
 7313000   0.85968448   -3.2237081    -1.739834  0.045920887   -3.2237081    1.4838741   381555 
 7314000   0.86054623   -3.2239217   -1.7385056  0.052626181   -3.2239217    1.4854161   381541 
 7315000   0.86048654    -3.225817   -1.7404533  0.055943031    -3.225817    1.4853637   381528 
 7316000   0.86136571   -3.2265829    -1.739651  0.053093045   -3.2265829    1.4869319   381515 
 7317000   0.86027405   -3.2252113   -1.7401093  0.058197144   -3.2252113     1.485102   381501 
 7318000   0.86209942   -3.2273769   -1.7390731  0.056213346   -3.2273769    1.4883038   381488 
 7319000   0.86138239   -3.2269326   -1.7398159  0.056531657   -3.2269326    1.4871167   381475 
 7320000   0.86134527   -3.2289217   -1.7418146   0.05326012   -3.2289217    1.4871072   381461 
 7321000   0.85995924   -3.2269498    -1.742185  0.058891335   -3.2269498    1.4847648   381448 
 7322000   0.86009521   -3.2251999   -1.7401497   0.05721588   -3.2251999    1.4850502   381435 
 7323000   0.86017527   -3.2267478   -1.7415049   0.05466044   -3.2267478    1.4852429   381421 
 7324000   0.86007129   -3.2265836   -1.7414696  0.056345669   -3.2265836     1.485114   381408 
 7325000   0.85998454   -3.2276719   -1.7426572  0.052823805   -3.2276719    1.4850148   381395 
 7326000   0.86064078   -3.2268104   -1.7406078  0.055527059   -3.2268104    1.4862025   381381 
 7327000   0.86264145   -3.2295967   -1.7398885  0.059506357   -3.2295967    1.4897082   381368 
 7328000   0.86080858   -3.2270886    -1.740495  0.055896601   -3.2270886    1.4865936   381355 
 7329000   0.85841736   -3.2239073   -1.7413888  0.055992327   -3.2239073    1.4825185   381341 
 7330000   0.86139659   -3.2286682   -1.7409537  0.057882807   -3.2286682    1.4877145   381328 
 7331000   0.85912374   -3.2253349   -1.7414953  0.060710723   -3.2253349    1.4838396   381315 
 7332000    0.8592498   -3.2256524   -1.7415406  0.056370733   -3.2256524    1.4841118   381301 
 7333000   0.85998864   -3.2261663   -1.7407277  0.051210508   -3.2261663    1.4854386   381288 
 7334000   0.85906071   -3.2228649   -1.7389785  0.052201554   -3.2228649    1.4838864   381275 
 7335000   0.85988665   -3.2247174   -1.7393498  0.054485996   -3.2247174    1.4853676   381261 
 7336000    0.8599775   -3.2267533   -1.7411781  0.057789766   -3.2267533    1.4855752   381248 
 7337000   0.85842353   -3.2248353   -1.7418939   0.05635448   -3.2248353    1.4829414   381235 
 7338000   0.85902151   -3.2232893   -1.7392604  0.056363451   -3.2232893    1.4840289   381221 
 7339000   0.86025878   -3.2240949   -1.7378778  0.057328997   -3.2240949     1.486217   381208 
 7340000   0.86041544      -3.2247   -1.7381616  0.054105941      -3.2247    1.4865384   381195 
 7341000   0.86016283   -3.2229598   -1.7368032  0.056237788   -3.2229598    1.4861565   381181 
 7342000   0.86163986   -3.2246676   -1.7359083  0.058972537   -3.2246676    1.4887593   381168 
 7343000   0.86136571   -3.2257214   -1.7373851  0.052851433   -3.2257214    1.4883363   381155 
 7344000   0.85935425   -3.2221284   -1.7372131  0.054309649   -3.2221284    1.4849153   381141 
 7345000   0.85957573   -3.2227154   -1.7373667  0.054140834   -3.2227154    1.4853487   381128 
 7346000   0.85843499   -3.2206306   -1.7372025  0.055743108   -3.2206306    1.4834281   381115 
 7347000   0.86122287   -3.2245685   -1.7362681  0.057022152   -3.2245685    1.4883004   381101 
 7348000   0.85925282    -3.220954   -1.7360074  0.056068249    -3.220954    1.4849466   381088 
 7349000   0.85930316   -3.2210519   -1.7359676  0.053123614   -3.2210519    1.4850842   381075 
 7350000    0.8597854   -3.2223953   -1.7364231  0.051217532   -3.2223953    1.4859722   381061 
 7351000   0.85833116    -3.220412   -1.7369025  0.055329179    -3.220412    1.4835095   381048 
 7352000   0.85765486   -3.2199766   -1.7375855   0.05507844   -3.2199766    1.4823912   381035 
 7353000   0.85863374   -3.2228928   -1.7387552  0.052040204   -3.2228928    1.4841376   381021 
 7354000   0.85769033   -3.2207061   -1.7381485  0.052461243   -3.2207061    1.4825575   381008 
 7355000   0.85742334   -3.2194306    -1.737284  0.056996109   -3.2194306    1.4821466   380995 
 7356000   0.85909771   -3.2215073   -1.7364118  0.050298993   -3.2215073    1.4850955   380981 
 7357000   0.85819764   -3.2193562    -1.735766  0.054731229   -3.2193562    1.4835902   380968 
 7358000    0.8611513   -3.2247466   -1.7359996  0.050594486   -3.2247466    1.4887471   380955 
 7359000   0.85974027   -3.2214222   -1.7350599  0.056728247   -3.2214222    1.4863623   380941 
 7360000   0.85933047   -3.2218485    -1.736144   0.05679043   -3.2218485    1.4857045   380928 
 7361000   0.85818351   -3.2199455   -1.7361733  0.058327313   -3.2199455    1.4837722   380915 
 7362000   0.85862747   -3.2208702   -1.7362758  0.052479098   -3.2208702    1.4845943   380901 
 7363000   0.85904531   -3.2208885    -1.735521   0.04993307   -3.2208885    1.4853675   380888 
 7364000   0.85903792    -3.221121   -1.7357156  0.055573362    -3.221121    1.4854054   380875 
 7365000   0.85910582   -3.2223506   -1.7367731  0.054686874   -3.2223506    1.4855774   380861 
 7366000   0.86029242     -3.22387   -1.7361899   0.05162372     -3.22387    1.4876801   380848 
 7367000   0.85799593   -3.2225661   -1.7388067  0.053273558   -3.2225661    1.4837595   380835 
 7368000   0.85869911   -3.2239205   -1.7388904  0.051994888   -3.2239205    1.4850301   380821 
 7369000   0.85812223   -3.2237211    -1.739638  0.049683473   -3.2237211    1.4840831   380808 
 7370000   0.85759179   -3.2237683   -1.7405519  0.051304185   -3.2237683    1.4832164   380795 
 7371000   0.85880185    -3.225713   -1.7403492  0.055842768    -3.225713    1.4853638   380781 
 7372000   0.85907994   -3.2266922   -1.7407967  0.056832903   -3.2266922    1.4858955   380768 
 7373000   0.85906013   -3.2250559   -1.7391439  0.054908903   -3.2250559     1.485912   380755 
 7374000    0.8595072    -3.226295   -1.7395551  0.057812908    -3.226295    1.4867399   380741 
 7375000   0.85887363   -3.2261575   -1.7404628  0.052493986   -3.2261575    1.4856947   380728 
 7376000   0.85898469   -3.2273186    -1.741381  0.057082426   -3.2273186    1.4859376   380715 
 7377000   0.85752254   -3.2262122   -1.7427494  0.056133259   -3.2262122    1.4834628   380701 
 7378000   0.85667168   -3.2251452   -1.7431038   0.05319524   -3.2251452    1.4820415   380688 
 7379000   0.85798387   -3.2255088   -1.7411466  0.057341568   -3.2255088    1.4843622   380675 
 7380000   0.85778942   -3.2264535   -1.7423731  0.054424245   -3.2264535    1.4840804   380661 
 7381000   0.85640723   -3.2256541   -1.7439144  0.055490113   -3.2256541    1.4817397   380648 
 7382000   0.85698101   -3.2280926   -1.7453095  0.055391052   -3.2280926     1.482783   380635 
 7383000     0.857314   -3.2286323   -1.7452185  0.053360176   -3.2286323    1.4834138   380621 
 7384000   0.85892034    -3.229558   -1.7433141  0.050941229    -3.229558     1.486244   380608 
 7385000    0.8571516   -3.2281443   -1.7449102  0.056999369   -3.2281443    1.4832341   380595 
 7386000   0.85707697   -3.2276687   -1.7445093  0.058433486   -3.2276687    1.4831595   380581 
 7387000   0.86005994   -3.2314335   -1.7430612  0.057767343   -3.2314335    1.4883723   380568 
 7388000   0.85858836   -3.2291796   -1.7433032  0.059943234   -3.2291796    1.4858764   380555 
 7389000   0.85736224   -3.2269703   -1.7431612  0.058900926   -3.2269703    1.4838091   380541 
 7390000   0.85748675   -3.2285782   -1.7445029   0.05700438   -3.2285782    1.4840753   380528 
 7391000   0.85815684   -3.2295137    -1.744228  0.053326939   -3.2295137    1.4852858   380515 
 7392000   0.85731547   -3.2284584   -1.7445743  0.052386893   -3.2284584    1.4838841   380501 
 7393000   0.85784961   -3.2293134    -1.744454  0.060452006   -3.2293134    1.4848594   380488 
 7394000   0.85904642   -3.2295366   -1.7425548  0.051354848   -3.2295366    1.4869818   380475 
 7395000   0.85789057   -3.2277799   -1.7427442  0.056830258   -3.2277799    1.4850357   380461 
 7396000   0.85870508   -3.2292951   -1.7427987  0.055592284   -3.2292951    1.4864964   380448 
 7397000   0.85695937   -3.2264191    -1.742894  0.060582869   -3.2264191    1.4835251   380435 
 7398000   0.85908846   -3.2298184   -1.7425528  0.055062648   -3.2298184    1.4872656   380421 
 7399000    0.8584548   -3.2283019   -1.7420825  0.057361668   -3.2283019    1.4862194   380408 
 7400000   0.85826586   -3.2278009   -1.7418578   0.05867754   -3.2278009    1.4859431   380395 
 7401000   0.85877782   -3.2299519   -1.7430678  0.055017747   -3.2299519    1.4868842   380381 
 7402000   0.85844937   -3.2283757   -1.7420094  0.056035784   -3.2283757    1.4863663   380368 
 7403000   0.85652998    -3.224684   -1.7415904  0.057801433    -3.224684    1.4830936   380355 
 7404000   0.85708041   -3.2273321   -1.7432308  0.059758693   -3.2273321    1.4841013   380341 
 7405000   0.85772766   -3.2270876   -1.7418148  0.054763017   -3.2270876    1.4852729   380328 
 7406000   0.85896797   -3.2279904   -1.7405189  0.055639904   -3.2279904    1.4874715   380315 
 7407000   0.85809329   -3.2259207   -1.7399092  0.055110677   -3.2259207    1.4860115   380301 
 7408000   0.85753149   -3.2247412   -1.7396518  0.055341228   -3.2247412    1.4850894   380288 
 7409000   0.85696834   -3.2244158   -1.7402509  0.050146575   -3.2244158    1.4841648   380275 
 7410000   0.85651195   -3.2238188   -1.7403898  0.051604651   -3.2238188     1.483429   380261 
 7411000   0.85695758   -3.2245491   -1.7402975  0.055078114   -3.2245491    1.4842516   380248 
 7412000   0.85788758    -3.227086   -1.7411728  0.052026339    -3.227086    1.4859131   380235 
 7413000    0.8578979   -3.2269413   -1.7409556  0.054997221   -3.2269413    1.4859857   380221 
 7414000   0.85924529   -3.2279197   -1.7395493  0.052908002   -3.2279197    1.4883705   380208 
 7415000   0.85651653   -3.2238314   -1.7401369  0.052483351   -3.2238314    1.4836945   380195 
 7416000    0.8565483   -3.2244263   -1.7406221  0.054530716   -3.2244263    1.4838041   380181 
 7417000   0.85692513   -3.2234185   -1.7389108  0.054630232   -3.2234185    1.4845077   380168 
 7418000   0.85759381   -3.2248703   -1.7391534  0.057472349   -3.2248703    1.4857169   380155 
 7419000    0.8573733   -3.2243096   -1.7389201  0.052988949   -3.2243096    1.4853896   380141 
 7420000   0.85769018   -3.2247697   -1.7387803  0.058859436   -3.2247697    1.4859894   380128 
 7421000   0.85835028   -3.2260554   -1.7388715  0.056075616   -3.2260554    1.4871839   380115 
 7422000    0.8559025   -3.2232428   -1.7402453  0.060924882   -3.2232428    1.4829975   380101 
 7423000   0.85841491   -3.2285831   -1.7411816  0.053394471   -3.2285831    1.4874015   380088 
 7424000   0.85736344   -3.2249947   -1.7393643  0.058438709   -3.2249947    1.4856304   380075 
 7425000   0.85812426   -3.2260764   -1.7390729  0.056424789   -3.2260764    1.4870035   380061 
 7426000   0.85809295    -3.225485   -1.7384848  0.059440577    -3.225485    1.4870002   380048 
 7427000   0.85657391   -3.2252397   -1.7408212  0.054476781   -3.2252397    1.4844186   380035 
 7428000   0.85641947   -3.2251368   -1.7409312  0.060781926   -3.2251368    1.4842056   380021 
 7429000   0.85893545   -3.2300248    -1.741408  0.052827993   -3.2300248    1.4886168   380008 
 7430000   0.85796417   -3.2292088   -1.7422244  0.057210672   -3.2292088    1.4869844   379995 
 7431000    0.8570615   -3.2267971   -1.7413225  0.058994351   -3.2267971    1.4854746   379981 
 7432000   0.85758853   -3.2267301   -1.7402912  0.053354319   -3.2267301    1.4864389   379968 
 7433000   0.85811401    -3.228527   -1.7411264  0.053202253    -3.228527    1.4874006   379955 
 7434000   0.85814014   -3.2292917    -1.741791  0.056515643   -3.2292917    1.4875007   379941 
 7435000   0.85653969   -3.2262934   -1.7415161  0.056817194   -3.2262934    1.4847773   379928 
 7436000   0.85787152   -3.2281442   -1.7410074  0.054892016   -3.2281442    1.4871369   379915 
 7437000    0.8582894   -3.2288441    -1.740928  0.055987955   -3.2288441    1.4879161   379901 
 7438000   0.85676913   -3.2276809   -1.7423495  0.059808602   -3.2276809    1.4853314   379888 
 7439000   0.85602001   -3.2274405    -1.743357  0.055265236   -3.2274405    1.4840835   379875 
 7440000   0.85663586   -3.2280592   -1.7428533  0.055041588   -3.2280592    1.4852059   379861 
 7441000   0.85756556   -3.2288564   -1.7419877  0.058568291   -3.2288564    1.4868687   379848 
 7442000   0.85696701   -3.2285855   -1.7427037  0.056316127   -3.2285855    1.4858818   379835 
 7443000    0.8574932   -3.2275129    -1.740664  0.056102222   -3.2275129    1.4868489   379821 
 7444000   0.85822843   -3.2292542   -1.7410795  0.057504846   -3.2292542    1.4881747   379808 
 7445000   0.85785148   -3.2275593   -1.7399873  0.055035748   -3.2275593     1.487572   379795 
 7446000   0.85823238    -3.227512   -1.7392247  0.057921368    -3.227512    1.4882874   379781 
 7447000   0.85763829   -3.2273056   -1.7399976  0.053516953   -3.2273056     1.487308   379768 
 7448000   0.85716975   -3.2256139   -1.7390675  0.049535957   -3.2256139    1.4865464   379755 
 7449000   0.85708743   -3.2252772   -1.7388188  0.056932628   -3.2252772    1.4864584   379741 
 7450000   0.85628896   -3.2241061   -1.7389816   0.06162999   -3.2241061    1.4851245   379728 
 7451000   0.85624235   -3.2248543   -1.7397599  0.055234174   -3.2248543    1.4850945   379715 
 7452000   0.85465598   -3.2224498   -1.7400521  0.051762528   -3.2224498    1.4823977   379701 
 7453000   0.85657886   -3.2239491   -1.7381653  0.052956647   -3.2239491    1.4857838   379688 
 7454000   0.85669015   -3.2227004   -1.7366727   0.05088469   -3.2227004    1.4860277   379675 
 7455000   0.85490058   -3.2198697   -1.7368915   0.05602501   -3.2198697    1.4829782   379661 
 7456000   0.85763563   -3.2239818   -1.7362083  0.056272313   -3.2239818    1.4877735   379648 
 7457000   0.85706095   -3.2220837   -1.7352562  0.055528675   -3.2220837    1.4868275   379635 
 7458000   0.85535428   -3.2191509   -1.7352294  0.058908054   -3.2191509    1.4839215   379621 
 7459000   0.85617912   -3.2218926   -1.7364892  0.049422364   -3.2218926    1.4854034   379608 
 7460000   0.85435062   -3.2184201   -1.7361382   0.05430331   -3.2184201    1.4822818   379595 
 7461000   0.85617922   -3.2199115   -1.7344022  0.055336281   -3.2199115    1.4855092   379581 
 7462000   0.85626169   -3.2212325   -1.7355293  0.049006607   -3.2212325    1.4857032   379568 
 7463000   0.85561754   -3.2196517   -1.7350153  0.052793016   -3.2196517    1.4846364   379555 
 7464000   0.85611797   -3.2192982   -1.7337387   0.05185006   -3.2192982    1.4855595   379541 
 7465000   0.85509003   -3.2195528   -1.7357262  0.049577705   -3.2195528    1.4838266   379528 
 7466000   0.85660519   -3.2213029   -1.7347962  0.055071718   -3.2213029    1.4865068   379515 
 7467000   0.85616678    -3.220725   -1.7349242  0.054642584    -3.220725    1.4858008   379501 
 7468000   0.85652375   -3.2223633   -1.7358921  0.058235425   -3.2223633    1.4864712   379488 
 7469000   0.85528596   -3.2209518   -1.7365779  0.053524539   -3.2209518    1.4843739   379475 
 7470000   0.85541927   -3.2193864   -1.7347264  0.056263232   -3.2193864      1.48466   379461 
 7471000   0.85579754   -3.2219261   -1.7365586  0.054175932   -3.2219261    1.4853674   379448 
 7472000   0.85774721   -3.2238606   -1.7350582  0.055738539   -3.2238606    1.4888024   379435 
 7473000   0.85771164   -3.2235181   -1.7347226  0.057450195   -3.2235181    1.4887956   379421 
 7474000   0.85700943   -3.2214658   -1.7338381  0.057892779   -3.2214658    1.4876277   379408 
 7475000   0.85767489   -3.2222777   -1.7334438  0.052875935   -3.2222777    1.4888338   379395 
 7476000   0.85847974    -3.224051    -1.733765  0.057613846    -3.224051    1.4902859   379381 
 7477000   0.85835554   -3.2232142   -1.7330928  0.059096437   -3.2232142    1.4901214   379368 
 7478000   0.85742044   -3.2219092   -1.7333602  0.057314866   -3.2219092    1.4885491   379355 
 7479000   0.85687878   -3.2208438   -1.7331802  0.054721788   -3.2208438    1.4876636   379341 
 7480000   0.85556417   -3.2199112    -1.734479   0.05754531   -3.2199112    1.4854322   379328 
 7481000   0.85630396   -3.2220079   -1.7352404  0.056201187   -3.2220079    1.4867675   379315 
 7482000   0.85669207   -3.2236744   -1.7361781  0.056801929   -3.2236744    1.4874963   379301 
 7483000   0.85667244   -3.2239975   -1.7364843  0.051289818   -3.2239975    1.4875132   379288 
 7484000   0.85647431    -3.221779   -1.7345589  0.058462502    -3.221779    1.4872201   379275 
 7485000   0.85550284    -3.219598   -1.7340099  0.054794428    -3.219598    1.4855881   379261 
 7486000   0.85629782   -3.2207761   -1.7337566   0.05088022   -3.2207761    1.4870195   379248 
 7487000   0.85537571   -3.2197082   -1.7342391  0.053339513   -3.2197082    1.4854691   379235 
 7488000   0.85491191   -3.2198854   -1.7351669  0.054803087   -3.2198854    1.4847185   379221 
 7489000    0.8547917   -3.2199628   -1.7354022   0.05200676   -3.2199628    1.4845606   379208 
 7490000   0.85501545   -3.2190046   -1.7340045  0.055101592   -3.2190046    1.4850001   379195 
 7491000     0.854784   -3.2195485   -1.7348955  0.051388701   -3.2195485     1.484653   379181 
 7492000   0.85493434   -3.2198883   -1.7349233  0.049744988   -3.2198883     1.484965   379168 
 7493000    0.8549542   -3.2191489   -1.7340985  0.057559421   -3.2191489    1.4850504   379155 
 7494000   0.85509151    -3.219713   -1.7343692  0.052965283    -3.219713    1.4853438   379141 
 7495000   0.85559085   -3.2211437   -1.7348816  0.052877866   -3.2211437    1.4862621   379128 
 7496000   0.85651996    -3.221508   -1.7335809  0.049389535    -3.221508    1.4879271   379115 
 7497000   0.85454372   -3.2177047   -1.7331558  0.057677248   -3.2177047    1.4845488   379101 
 7498000   0.85422825   -3.2177045   -1.7336529  0.052908884   -3.2177045    1.4840517   379088 
 7499000   0.85534488   -3.2184453   -1.7324027  0.056176117   -3.2184453    1.4860426   379075 
 7500000    0.8564354   -3.2206547   -1.7326625  0.050712468   -3.2206547    1.4879921   379061 
 7501000   0.85504697   -3.2200086   -1.7343778  0.052685368   -3.2200086    1.4856308   379048 
 7502000   0.85456233     -3.22095   -1.7361103  0.056538916     -3.22095    1.4848397   379035 
 7503000   0.85486278   -3.2202626    -1.734846  0.058906055   -3.2202626    1.4854166   379021 
 7504000   0.85553652   -3.2214933    -1.734855   0.05670959   -3.2214933    1.4866383   379008 
 7505000   0.85621372    -3.222716   -1.7348499  0.053682426    -3.222716    1.4878661   378995 
 7506000   0.85673638    -3.222699   -1.7338697  0.058175402    -3.222699    1.4888293   378981 
 7507000   0.85517236   -3.2205478   -1.7343855  0.060542935   -3.2205478    1.4861623   378968 
 7508000     0.858032   -3.2251201    -1.733937   0.05705123   -3.2251201    1.4911831   378955 
 7509000   0.85586488   -3.2222516   -1.7347798  0.058311863   -3.2222516    1.4874718   378941 
 7510000   0.85444357   -3.2196237   -1.7345712  0.057555574   -3.2196237    1.4850525   378928 
 7511000   0.85408407   -3.2201344   -1.7356558  0.059500676   -3.2201344    1.4844786   378915 
 7512000   0.85321929   -3.2206697   -1.7376393  0.059828661   -3.2206697    1.4830304   378901 
 7513000   0.85389808   -3.2225701    -1.738309  0.056114369   -3.2225701    1.4842611   378888 
 7514000   0.85464686   -3.2219441   -1.7363305  0.055639751   -3.2219441    1.4856137   378875 
 7515000   0.85499449   -3.2206258    -1.734353  0.058405289   -3.2206258    1.4862729   378861 
 7516000   0.85395839   -3.2197813   -1.7352586  0.056623181   -3.2197813    1.4845227   378848 
 7517000   0.85454874   -3.2198684   -1.7342685  0.052758228   -3.2198684    1.4855999   378835 
 7518000   0.85522764   -3.2209194   -1.7340843  0.052738298   -3.2209194    1.4868351   378821 
 7519000   0.85366984   -3.2194012   -1.7352234  0.055951915   -3.2194012    1.4841778   378808 
 7520000   0.85414594   -3.2211243   -1.7360678  0.055446751   -3.2211243    1.4850565   378795 
 7521000   0.85433328    -3.220783   -1.7353459  0.054551709    -3.220783    1.4854371   378781 
 7522000   0.85459121   -3.2222084   -1.7362719  0.056605866   -3.2222084    1.4859366   378768 
 7523000   0.85429365   -3.2226921   -1.7372219  0.052817328   -3.2226921    1.4854702   378755 
 7524000   0.85468644   -3.2214252   -1.7352171  0.053590002   -3.2214252    1.4862081   378741 
 7525000   0.85502057   -3.2218825   -1.7350423  0.053932022   -3.2218825    1.4868401   378728 
 7526000   0.85432314   -3.2214949   -1.7358166  0.055859111   -3.2214949    1.4856783   378715 
 7527000    0.8528848   -3.2205372   -1.7373053  0.053704947   -3.2205372    1.4832319   378701 
 7528000   0.85544157   -3.2256025   -1.7378732   0.05359104   -3.2256025    1.4877294   378688 
 7529000   0.85511115   -3.2247118    -1.737506  0.055216416   -3.2247118    1.4872058   378675 
 7530000   0.85498615   -3.2219538   -1.7349105  0.059531082   -3.2219538    1.4870434   378661 
 7531000   0.85399328   -3.2206868   -1.7353193  0.060045109   -3.2206868    1.4853675   378648 
 7532000   0.85559397   -3.2231209   -1.7349181  0.056617924   -3.2231209    1.4882027   378635 
 7533000   0.85536763   -3.2217916   -1.7339275   0.05851291   -3.2217916     1.487864   378621 
 7534000   0.85418924   -3.2214205   -1.7355552  0.054912786   -3.2214205    1.4858653   378608 
 7535000    0.8540709    -3.221574   -1.7358635  0.053023831    -3.221574    1.4857105   378595 
 7536000   0.85376753   -3.2213033   -1.7360656  0.058052751   -3.2213033    1.4852377   378581 
 7537000   0.85449071   -3.2228573   -1.7363106  0.058270713   -3.2228573    1.4865468   378568 
 7538000   0.85550185   -3.2243665   -1.7360095  0.052454307   -3.2243665    1.4883569   378555 
 7539000      0.85353   -3.2195467   -1.7345654  0.059988279   -3.2195467    1.4849813   378541 
 7540000   0.85351619   -3.2196544   -1.7346461  0.056966077   -3.2196544    1.4850083   378528 
 7541000   0.85387267   -3.2212206   -1.7355411  0.058431783   -3.2212206    1.4856796   378515 
 7542000   0.85379553   -3.2211789   -1.7355786  0.055266543   -3.2211789    1.4856003   378501 
 7543000   0.85340346    -3.219948   -1.7349789  0.056038129    -3.219948    1.4849691   378488 
 7544000   0.85347255   -3.2209146   -1.7357743  0.054851279   -3.2209146    1.4851403   378475 
 7545000    0.8549305   -3.2228485   -1.7351162  0.054733947   -3.2228485    1.4877324   378461 
 7546000   0.85354419    -3.220244   -1.7348731  0.057374628    -3.220244    1.4853709   378448 
 7547000   0.85315423   -3.2209178   -1.7361745  0.053516432   -3.2209178    1.4847433   378435 
 7548000   0.85312821   -3.2196673   -1.7349143  0.052828512   -3.2196673     1.484753   378421 
 7549000   0.85492511   -3.2241402   -1.7362088  0.051188662   -3.2241402    1.4879314   378408 
 7550000   0.85321406   -3.2207223   -1.7357179  0.049478876   -3.2207223    1.4850044   378395 
 7551000   0.85345529   -3.2217971   -1.7363179  0.051291885   -3.2217971    1.4854792   378381 
 7552000   0.85250102   -3.2192296   -1.7353604  0.052290198   -3.2192296    1.4838693   378368 
 7553000   0.85237746     -3.21996   -1.7362549  0.051355097     -3.21996    1.4837052   378355 
 7554000   0.85305997   -3.2210488   -1.7361007  0.057681498   -3.2210488    1.4849481   378341 
 7555000   0.85416113   -3.2214023   -1.7344862  0.057181018   -3.2214023    1.4869161   378328 
 7556000   0.85386618   -3.2215651   -1.7351114  0.056853891   -3.2215651    1.4864537   378315 
 7557000   0.85312445   -3.2215461   -1.7363287  0.056971647   -3.2215461    1.4852174   378301 
 7558000     0.853939   -3.2236668   -1.7369802  0.054347465   -3.2236668    1.4866866   378288 
 7559000   0.85336794   -3.2212316   -1.7354882  0.057835389   -3.2212316    1.4857434   378275 
 7560000    0.8536423   -3.2213554   -1.7350793  0.056956401   -3.2213554    1.4862761   378261 
 7561000   0.85391501    -3.221107    -1.734305  0.051422684    -3.221107     1.486802   378248 
 7562000   0.85435082   -3.2235302   -1.7359182  0.056746049   -3.2235302     1.487612   378235 
 7563000    0.8540804   -3.2227944   -1.7355983  0.057545782   -3.2227944    1.4871961   378221 
 7564000   0.85299463   -3.2215178   -1.7361612   0.05900899   -3.2215178    1.4853566   378208 
 7565000   0.85328414   -3.2222253   -1.7363136  0.052938786   -3.2222253    1.4859118   378195 
 7566000   0.85392261   -3.2218226    -1.734744  0.052519695   -3.2218226    1.4870787   378181 
 7567000   0.85386279   -3.2210179   -1.7339923  0.057692366   -3.2210179    1.4870256   378168 
 7568000   0.85366996   -3.2192343   -1.7324934  0.055934849   -3.2192343    1.4867409   378155 
 7569000   0.85236811   -3.2193276    -1.734799  0.058116986   -3.2193276    1.4845286   378141 
 7570000    0.8528133   -3.2204947   -1.7351397  0.054552009   -3.2204947     1.485355   378128 
 7571000   0.85351604   -3.2227801   -1.7361501  0.054258165   -3.2227801    1.4866301   378115 
 7572000   0.85168957   -3.2199887    -1.736485  0.055167127   -3.2199887    1.4835037   378101 
 7573000   0.85304993    -3.221622   -1.7356976  0.055780924    -3.221622    1.4859243   378088 
 7574000    0.8530085    -3.220927   -1.7350238   0.05659264    -3.220927    1.4859032   378075 
 7575000   0.85220829   -3.2199251   -1.7353608  0.050567648   -3.2199251    1.4845643   378061 
 7576000   0.85155326    -3.218189   -1.7347148  0.055869857    -3.218189    1.4834742   378048 
 7577000   0.85101403   -3.2182112   -1.7356254  0.054192526   -3.2182112    1.4825858   378035 
 7578000    0.8525742   -3.2192141   -1.7338553  0.054953327   -3.2192141    1.4853589   378021 
 7579000   0.85378655   -3.2223092    -1.734787  0.057819392   -3.2223092    1.4875222   378008 
 7580000   0.85518662   -3.2237193   -1.7337066  0.059205355   -3.2237193    1.4900127   377995 
 7581000   0.85514258   -3.2219551    -1.731964  0.060654538   -3.2219551    1.4899912   377981 
 7582000   0.85529109   -3.2222181   -1.7319169  0.052832371   -3.2222181    1.4903012   377968 
 7583000   0.85476822   -3.2222714   -1.7328301  0.058547169   -3.2222714    1.4894413   377955 
 7584000   0.85548359   -3.2240328   -1.7332897  0.056434597   -3.2240328    1.4907431   377941 
 7585000    0.8539956   -3.2225563   -1.7343549    0.0555259   -3.2225563    1.4882014   377928 
 7586000   0.85349352   -3.2217175     -1.73434   0.05527588   -3.2217175    1.4873776   377915 
 7587000   0.85139678    -3.218634   -1.7348554  0.058644704    -3.218634    1.4837786   377901 
 7588000   0.85293394   -3.2203349   -1.7338263   0.05744598   -3.2203349    1.4865086   377888 
 7589000   0.85187782   -3.2210226   -1.7363036  0.054179296   -3.2210226     1.484719   377875 
 7590000   0.85060919   -3.2195377   -1.7369748  0.050988195   -3.2195377    1.4825629   377861 
 7591000   0.84938478   -3.2177754   -1.7372957  0.052352512   -3.2177754    1.4804798   377848 
 7592000   0.85046113   -3.2191372   -1.7367303  0.054016287   -3.2191372    1.4824069   377835 
 7593000     0.849888   -3.2191985   -1.7377357  0.055533501   -3.2191985    1.4814628   377821 
 7594000   0.85089829   -3.2214154   -1.7381405  0.048531427   -3.2214154    1.4832748   377808 
 7595000   0.85053097   -3.2195788   -1.7368932  0.055047146   -3.2195788    1.4826856   377795 
 7596000   0.85154124   -3.2230322   -1.7385305  0.058314664   -3.2230322    1.4845017   377781 
 7597000   0.85198596    -3.222875   -1.7375469  0.057017951    -3.222875    1.4853281   377768 
 7598000   0.85154113   -3.2226974   -1.7380937  0.053651516   -3.2226974    1.4846037   377755 
 7599000   0.85154082   -3.2215089   -1.7368507  0.048195326   -3.2215089    1.4846582   377741 
 7600000   0.85071973   -3.2198564   -1.7365788  0.053105554   -3.2198564    1.4832777   377728 
 7601000   0.85161511   -3.2226661   -1.7377762   0.05507349   -3.2226661    1.4848899   377715 
 7602000   0.85053804   -3.2203467   -1.7372798  0.058549683   -3.2203467    1.4830669   377701 
 7603000   0.85138459   -3.2231229   -1.7385288  0.053371073   -3.2231229    1.4845941   377688 
 7604000   0.85185206   -3.2226755   -1.7372152  0.055311684   -3.2226755    1.4854604   377675 
 7605000   0.85171067   -3.2227867   -1.7375178  0.055729282   -3.2227867    1.4852689   377661 
 7606000   0.85285802   -3.2247798   -1.7374589  0.060334153   -3.2247798    1.4873209   377648 
 7607000   0.85183931   -3.2240087   -1.7384132   0.05848685   -3.2240087    1.4855955   377635 
 7608000   0.85328302   -3.2265721   -1.7384036  0.056540294   -3.2265721    1.4881685   377621 
 7609000   0.85130912   -3.2240949   -1.7393179  0.058692133   -3.2240949     1.484777   377608 
 7610000   0.85098516   -3.2241878   -1.7399247  0.058230016   -3.2241878    1.4842631   377595 
 7611000    0.8505734   -3.2243444   -1.7407445  0.052355714   -3.2243444    1.4835999   377581 
 7612000    0.8511259   -3.2253811   -1.7407663  0.051847796   -3.2253811    1.4846147   377568 
 7613000   0.85032281   -3.2239732   -1.7407082  0.057198246   -3.2239732     1.483265   377555 
 7614000   0.85107678   -3.2264536   -1.7418184  0.059516747   -3.2264536    1.4846352   377541 
 7615000   0.85123561   -3.2282776   -1.7433142  0.056940954   -3.2282776    1.4849634   377528 
 7616000   0.85011954   -3.2252981   -1.7422306  0.050661688   -3.2252981    1.4830675   377515 
 7617000   0.85194865    -3.226296   -1.7399824  0.054059378    -3.226296    1.4863136   377501 
 7618000     0.853814   -3.2283914   -1.7387723  0.059291592   -3.2283914    1.4896192   377488 
 7619000   0.85325375   -3.2270215   -1.7383285  0.055025459   -3.2270215     1.488693   377475 
 7620000    0.8510854   -3.2227533   -1.7377884  0.056650325   -3.2227533    1.4849649   377461 
 7621000   0.85224355   -3.2254584   -1.7384216  0.057784365   -3.2254584    1.4870368   377448 
 7622000   0.85293792    -3.226003   -1.7377033  0.055582735    -3.226003    1.4882997   377435 
 7623000   0.85208738   -3.2267578   -1.7398871  0.057284276   -3.2267578    1.4868707   377421 
 7624000   0.85008516   -3.2238296   -1.7404017  0.053249287   -3.2238296     1.483428   377408 
 7625000   0.85151669   -3.2256875   -1.7397103  0.051707925   -3.2256875    1.4859772   377395 
 7626000   0.85160132   -3.2245133   -1.7383333  0.054528039   -3.2245133      1.48618   377381 
 7627000   0.85160461   -3.2243531   -1.7381161  0.055517258   -3.2243531     1.486237   377368 
 7628000   0.85103153   -3.2219046   -1.7366166  0.053892652   -3.2219046     1.485288   377355 
 7629000   0.85027067    -3.220673   -1.7366579  0.055287997    -3.220673    1.4840152   377341 
 7630000   0.85070763   -3.2200522   -1.7352232  0.053084824   -3.2200522     1.484829   377328 
 7631000   0.85103878   -3.2208064   -1.7353482   0.05129867   -3.2208064    1.4854581   377315 
 7632000   0.84969654      -3.2191   -1.7359296  0.059827897      -3.2191    1.4831703   377301 
 7633000   0.85061054   -3.2198591   -1.7350422  0.056601015   -3.2198591    1.4848169   377288 
 7634000   0.85087903   -3.2226628    -1.737326  0.055236769   -3.2226628    1.4853367   377275 
 7635000   0.84884999   -3.2171211   -1.7352714  0.062174346   -3.2171211    1.4818497   377261 
 7636000    0.8501746   -3.2177484   -1.7335352  0.056837338   -3.2177484    1.4842133   377248 
 7637000   0.84954455   -3.2186768   -1.7355124  0.059894549   -3.2186768    1.4831645   377235 
 7638000   0.84946516   -3.2186311   -1.7355502  0.047508214   -3.2186311    1.4830809   377221 
 7639000   0.85151102   -3.2196063   -1.7329023  0.055663087   -3.2196063     1.486704   377208 
 7640000   0.84940883   -3.2167888   -1.7337041    0.0520937   -3.2167888    1.4830848   377195 
 7641000    0.8520017   -3.2193293   -1.7316621  0.056533714   -3.2193293    1.4876672   377181 
 7642000    0.8504834    -3.217811   -1.7327437  0.055852633    -3.217811    1.4850673   377168 
 7643000   0.85133305   -3.2178026   -1.7312005  0.057261947   -3.2178026    1.4866021   377155 
 7644000   0.85226363   -3.2200483    -1.731766  0.056479221   -3.2200483    1.4882824   377141 
 7645000   0.85169205   -3.2194869   -1.7321514   0.05962759   -3.2194869    1.4873355   377128 
 7646000   0.85193309    -3.219112   -1.7313043   0.05316675    -3.219112    1.4878077   377115 
 7647000   0.84993431   -3.2168809   -1.7325088  0.057120218   -3.2168809    1.4843722   377101 
 7648000   0.84928527    -3.216283   -1.7329932  0.059154393    -3.216283    1.4832898   377088 
 7649000    0.8499844    -3.217736    -1.733174   0.05411979    -3.217736     1.484562   377075 
 7650000   0.84833572   -3.2163513   -1.7346138  0.056539405   -3.2163513    1.4817375   377061 
 7651000   0.85072767    -3.221231   -1.7352644  0.054517938    -3.221231    1.4859666   377048 
 7652000    0.8480473   -3.2173136   -1.7359778  0.054615755   -3.2173136    1.4813359   377035 
 7653000   0.84953943   -3.2196992   -1.7357018   0.05119632   -3.2196992    1.4839974   377021 
 7654000   0.84904976   -3.2173155   -1.7341223   0.05300896   -3.2173155    1.4831932   377008 
 7655000   0.84878696    -3.217923   -1.7351378  0.055625169    -3.217923    1.4827852   376995 
 7656000   0.85014101   -3.2201064   -1.7349006   0.05104361   -3.2201064    1.4852058   376981 
 7657000   0.85033159    -3.221364    -1.735774  0.055707184    -3.221364      1.48559   376968 
 7658000   0.85012631   -3.2207029   -1.7354204  0.059847106   -3.2207029    1.4852826   376955 
 7659000   0.85055752   -3.2214273   -1.7353362  0.059166046   -3.2214273    1.4860911   376941 
 7660000   0.85075238   -3.2213187   -1.7348359  0.055367256   -3.2213187    1.4864829   376928 
 7661000   0.85053478    -3.220905   -1.7347511  0.052834565    -3.220905    1.4861539   376915 
 7662000     0.848337   -3.2177999   -1.7354311  0.056591048   -3.2177999    1.4823687   376901 
 7663000   0.85103962   -3.2233741   -1.7362316  0.051775248   -3.2233741    1.4871426   376888 
 7664000   0.84973882   -3.2215811   -1.7366604  0.053399408   -3.2215811    1.4849207   376875 
 7665000   0.84869904   -3.2203238    -1.737165  0.056674715   -3.2203238    1.4831588   376861 
 7666000   0.84877904   -3.2211638    -1.737814  0.054077341   -3.2211638    1.4833498   376848 
 7667000    0.8503978   -3.2228817   -1.7366516  0.049254445   -3.2228817      1.48623   376835 
 7668000    0.8490274   -3.2203011    -1.736411  0.054150908   -3.2203011    1.4838901   376821 
 7669000   0.84837274   -3.2206237   -1.7378266  0.053944672   -3.2206237    1.4827971   376808 
 7670000   0.84904807   -3.2228507    -1.738822  0.052149206   -3.2228507    1.4840286   376795 
 7671000   0.84879502   -3.2221044    -1.738463  0.060337572   -3.2221044    1.4836415   376781 
 7672000   0.84922805   -3.2211552   -1.7367056  0.055900987   -3.2211552    1.4844496   376768 
 7673000   0.84955591   -3.2220538   -1.7369799   0.05436684   -3.2220538    1.4850739   376755 
 7674000   0.85002937   -3.2226742   -1.7367174  0.056257583   -3.2226742    1.4859568   376741 
 7675000   0.85030302   -3.2227818   -1.7362954  0.054255741   -3.2227818    1.4864864   376728 
 7676000   0.85001522   -3.2224812   -1.7364466  0.057789196   -3.2224812    1.4860346   376715 
 7677000    0.8486588   -3.2211087   -1.7373903  0.060189611   -3.2211087    1.4837184   376701 
 7678000   0.84835343   -3.2212897    -1.738054  0.058968897   -3.2212897    1.4832357   376688 
 7679000   0.84852528   -3.2206112   -1.7370238  0.055631001   -3.2206112    1.4835873   376675 
 7680000   0.84976528    -3.221478   -1.7356673  0.058004243    -3.221478    1.4858106   376661 
 7681000   0.84809357   -3.2194319    -1.736493  0.061397271   -3.2194319    1.4829388   376648 
 7682000   0.84803627   -3.2210101   -1.7381203  0.056557325   -3.2210101    1.4828898   376635 
 7683000   0.84935033   -3.2227497   -1.7375069  0.054639207   -3.2227497    1.4852428   376621 
 7684000   0.84751946   -3.2219223   -1.7398299  0.055374542   -3.2219223    1.4820924   376608 
 7685000    0.8473875   -3.2207272   -1.7388144  0.052197165   -3.2207272    1.4819128   376595 
 7686000   0.84725513   -3.2206912   -1.7389548  0.055690291   -3.2206912    1.4817364   376581 
 7687000   0.84834181    -3.221114    -1.737426  0.053396404    -3.221114     1.483688   376568 
 7688000   0.84941427   -3.2227053   -1.7370903  0.054569148   -3.2227053     1.485615   376555 
 7689000   0.84804781   -3.2195587   -1.7362785   0.05272246   -3.2195587    1.4832802   376541 
 7690000   0.84903803   -3.2200739   -1.7350105  0.053886069   -3.2200739    1.4850634   376528 
 7691000   0.84860536   -3.2196299    -1.735272  0.055762132   -3.2196299    1.4843579   376515 
 7692000   0.84847538   -3.2192759   -1.7350902  0.053822119   -3.2192759    1.4841857   376501 
 7693000    0.8494073   -3.2208478   -1.7349807  0.056924337   -3.2208478    1.4858672   376488 
 7694000   0.84828717   -3.2190997   -1.7351407  0.056265471   -3.2190997     1.483959   376475 
 7695000   0.84867927   -3.2204548   -1.7357547  0.051811079   -3.2204548    1.4847001   376461 
 7696000   0.84673683   -3.2168947   -1.7355416   0.06015296   -3.2168947    1.4813531   376448 
 7697000   0.84914114   -3.2202044   -1.7345937   0.05522403   -3.2202044    1.4856107   376435 
 7698000   0.84908965   -3.2209362   -1.7353604  0.054083391   -3.2209362    1.4855759   376421 
 7699000   0.84884118   -3.2206629   -1.7354705  0.053204117   -3.2206629    1.4851924   376408 
 7700000   0.84702405   -3.2181153    -1.736051  0.058435525   -3.2181153    1.4820642   376395 
 7701000   0.84829059   -3.2199462   -1.7356106  0.051451452   -3.2199462    1.4843356   376381 
 7702000     0.847874   -3.2200011   -1.7363433  0.052061505   -3.2200011    1.4836579   376368 
 7703000   0.84889795   -3.2211744   -1.7356735  0.053022174   -3.2211744    1.4855009   376355 
 7704000   0.84738161   -3.2182226   -1.7353199   0.05566232   -3.2182226    1.4829026   376341 
 7705000   0.84916925   -3.2200037   -1.7339214   0.05691195   -3.2200037    1.4860823   376328 
 7706000    0.8478648   -3.2174591   -1.7336084  0.059325662   -3.2174591    1.4838507   376315 
 7707000   0.84939748    -3.219748   -1.7331596  0.055901224    -3.219748    1.4865884   376301 
 7708000   0.85054302   -3.2226793   -1.7340346  0.056721582   -3.2226793    1.4886447   376288 
 7709000   0.84826146   -3.2186071   -1.7339044  0.055375074   -3.2186071    1.4847027   376275 
 7710000   0.84855515   -3.2198166   -1.7345446  0.060466561   -3.2198166     1.485272   376261 
 7711000   0.84930075   -3.2215158   -1.7348874  0.052185197   -3.2215158    1.4866285   376248 
 7712000   0.84876886   -3.2213901   -1.7356413   0.05417434   -3.2213901    1.4857488   376235 
 7713000   0.84912436   -3.2228574    -1.736431  0.055832826   -3.2228574    1.4864264   376221 
 7714000   0.84880015    -3.221825   -1.7359149  0.056662911    -3.221825    1.4859102   376208 
 7715000   0.84897611    -3.221733   -1.7354634  0.056506519    -3.221733    1.4862696   376195 
 7716000   0.84739356   -3.2182251   -1.7346708  0.056171719   -3.2182251    1.4835543   376181 
 7717000    0.8484374   -3.2198896   -1.7344565   0.05635971   -3.2198896    1.4854331   376168 
 7718000   0.84735906   -3.2191264     -1.73553  0.054109492   -3.2191264    1.4835964   376155 
 7719000   0.84776531   -3.2182313   -1.7338684  0.053886948   -3.2182313    1.4843629   376141 
 7720000   0.84871734   -3.2196041   -1.7335229  0.055756462   -3.2196041    1.4860812   376128 
 7721000   0.84861948   -3.2184662   -1.7325049  0.053141581   -3.2184662    1.4859612   376115 
 7722000   0.84886982   -3.2189972   -1.7325423  0.050179786   -3.2189972    1.4864549   376101 
 7723000   0.84952289    -3.220153    -1.732503  0.058671935    -3.220153    1.4876499   376088 
 7724000   0.85006169   -3.2207999    -1.732155  0.045854006   -3.2207999    1.4886449   376075 
 7725000   0.84926706   -3.2196474   -1.7323387  0.056893296   -3.2196474    1.4873087   376061 
 7726000   0.84706843   -3.2156226   -1.7321131  0.054391526   -3.2156226    1.4835095   376048 
 7727000   0.84861791   -3.2166491   -1.7303745  0.051787424   -3.2166491    1.4862746   376035 
 7728000   0.84721761   -3.2152378   -1.7313604  0.053070872   -3.2152378    1.4838774   376021 
 7729000   0.84754974   -3.2159279   -1.7314175  0.052584028   -3.2159279    1.4845104   376008 
 7730000   0.84649268    -3.213554   -1.7308438  0.052913885    -3.213554    1.4827102   375995 
 7731000   0.84516158   -3.2135536   -1.7331199  0.054439238   -3.2135536    1.4804338   375981 
 7732000   0.84695584   -3.2158461   -1.7322181  0.047918544   -3.2158461     1.483628   375968 
 7733000   0.84768835   -3.2154945    -1.730532  0.054141901   -3.2154945    1.4849625   375955 
 7734000   0.84603617    -3.213482   -1.7313586  0.057082129    -3.213482    1.4821234   375941 
 7735000   0.84798528   -3.2161669   -1.7305776  0.052661663   -3.2161669    1.4855893   375928 
 7736000   0.84815788   -3.2162302   -1.7302871   0.04941337   -3.2162302    1.4859431   375915 
 7737000   0.84808187   -3.2142464   -1.7283811  0.055323846   -3.2142464    1.4858653   375901 
 7738000   0.84667945    -3.214555   -1.7310956  0.057492422    -3.214555    1.4834595   375888 
 7739000    0.8482816   -3.2177299   -1.7314119  0.057182403   -3.2177299     1.486318   375875 
 7740000   0.84641279   -3.2166314   -1.7335326  0.056362336   -3.2166314    1.4830988   375861 
 7741000   0.84665573   -3.2157969   -1.7322211  0.053559184   -3.2157969    1.4835758   375848 
 7742000   0.84643987   -3.2166006   -1.7333517  0.051745858   -3.2166006    1.4832489   375835 
 7743000   0.84559802   -3.2148584   -1.7330296  0.053619859   -3.2148584    1.4818288   375821 
 7744000   0.84676864   -3.2177988   -1.7338672  0.053837277   -3.2177988    1.4839316   375808 
 7745000   0.84627844   -3.2164532   -1.7333293  0.060951914   -3.2164532    1.4831238   375795 
 7746000   0.84962426    -3.221608    -1.732565  0.057809503    -3.221608    1.4890429   375781 
 7747000   0.84877053   -3.2214818   -1.7338836  0.053766535   -3.2214818    1.4875981   375768 
 7748000   0.84841123   -3.2198524   -1.7328325  0.057849745   -3.2198524    1.4870199   375755 
 7749000   0.84690065    -3.218014   -1.7335864  0.059745823    -3.218014    1.4844276   375741 
 7750000   0.84774241   -3.2180523   -1.7320979  0.060204321   -3.2180523    1.4859544   375728 
 7751000   0.84888756    -3.220773   -1.7327598  0.050694888    -3.220773    1.4880131   375715 
 7752000   0.84694876   -3.2183875   -1.7337176  0.055866655   -3.2183875    1.4846699   375701 
 7753000   0.84693137   -3.2201437   -1.7354528  0.053397946   -3.2201437    1.4846908   375688 
 7754000   0.84688416   -3.2196683   -1.7350089   0.05342048   -3.2196683    1.4846594   375675 
 7755000   0.84753708   -3.2212769   -1.7354174  0.051061938   -3.2212769    1.4858595   375661 
 7756000   0.84667849   -3.2203852   -1.7359796  0.053447215   -3.2203852    1.4844056   375648 
 7757000   0.84521605   -3.2194785   -1.7375856  0.057500781   -3.2194785    1.4818929   375635 
 7758000   0.84580548    -3.219826   -1.7368444  0.048949609    -3.219826    1.4829816   375621 
 7759000   0.84631482   -3.2200914   -1.7361654  0.055115762   -3.2200914     1.483926   375608 
 7760000   0.84533227   -3.2184501   -1.7361956  0.048262893   -3.2184501    1.4822545   375595 
 7761000    0.8453199   -3.2181048   -1.7358167  0.050470213   -3.2181048    1.4822881   375581 
 7762000   0.84516915   -3.2175398   -1.7354648  0.054053721   -3.2175398     1.482075   375568 
 7763000   0.84697296   -3.2200765   -1.7347869  0.055716443   -3.2200765    1.4852896   375555 
 7764000   0.84673564   -3.2195583   -1.7346295  0.048845318   -3.2195583    1.4849288   375541 
 7765000   0.84695151   -3.2204195   -1.7350607  0.054822603   -3.2204195    1.4853587   375528 
 7766000   0.84793857   -3.2215888   -1.7344475  0.056417523   -3.2215888    1.4871413   375515 
 7767000   0.84701762   -3.2204184   -1.7348369  0.054827819   -3.2204184    1.4855815   375501 
 7768000   0.84597489   -3.2194955   -1.7356915  0.052282866   -3.2194955     1.483804   375488 
 7769000   0.84593127   -3.2199745   -1.7361956  0.053830093   -3.2199745    1.4837789   375475 
 7770000   0.84560864   -3.2180524   -1.7347841   0.05446759   -3.2180524    1.4832683   375461 
 7771000   0.84634306   -3.2191234   -1.7345155   0.05229755   -3.2191234    1.4846079   375448 
 7772000   0.84547593   -3.2189324   -1.7357942   0.05547788   -3.2189324    1.4831382   375435 
 7773000   0.84672614   -3.2214661   -1.7360794  0.060008832   -3.2214661    1.4853867   375421 
 7774000   0.84759393    -3.223207   -1.7362464  0.053170897    -3.223207    1.4869605   375408 
 7775000   0.84453377    -3.218754   -1.7371107  0.054555606    -3.218754    1.4816433   375395 
 7776000   0.84588264   -3.2202387   -1.7361736  0.052577233   -3.2202387    1.4840651   375381 
 7777000   0.84613901   -3.2208219   -1.7362556  0.055981605   -3.2208219    1.4845663   375368 
 7778000   0.84745812   -3.2224728   -1.7355406  0.057394937   -3.2224728    1.4869322   375355 
 7779000   0.84742014   -3.2210905   -1.7341694  0.060098768   -3.2210905     1.486921   375341 
 7780000   0.84788389   -3.2201891   -1.7324028  0.056694409   -3.2201891    1.4877863   375328 
 7781000   0.84764964   -3.2209972   -1.7335704  0.061482619   -3.2209972    1.4874268   375315 
 7782000   0.84871217   -3.2231605   -1.7338137   0.05894418   -3.2231605    1.4893468   375301 
 7783000    0.8488147   -3.2229614   -1.7333831  0.056927301   -3.2229614    1.4895783   375288 
 7784000    0.8470925    -3.220773   -1.7341654  0.061294098    -3.220773    1.4866076   375275 
 7785000   0.84733634   -3.2202085   -1.7331176   0.05584217   -3.2202085     1.487091   375261 
 7786000   0.84717906   -3.2202685   -1.7334021  0.054935709   -3.2202685    1.4868664   375248 
 7787000   0.84630324   -3.2188757    -1.733495  0.061689925   -3.2188757    1.4853808   375235 
 7788000   0.84458877   -3.2156113   -1.7331844  0.053577578   -3.2156113    1.4824269   375221 
 7789000   0.84503894   -3.2174434   -1.7341749  0.051858564   -3.2174434    1.4832685   375208 
 7790000   0.84630162   -3.2187834   -1.7332471  0.056569509   -3.2187834    1.4855363   375195 
 7791000   0.84422326   -3.2155879   -1.7336446  0.057347774   -3.2155879    1.4819434   375181 
 7792000   0.84478655   -3.2161802   -1.7331966     0.056013   -3.2161802    1.4829836   375168 
 7793000   0.84497885   -3.2167331   -1.7333605  0.050773733   -3.2167331    1.4833725   375155 
 7794000   0.84429096   -3.2150695   -1.7328493  0.049455914   -3.2150695    1.4822202   375141 
 7795000   0.84610073   -3.2161874   -1.7307385  0.052104743   -3.2161874    1.4854489   375128 
 7796000   0.84464007   -3.2148456   -1.7319097  0.052132929   -3.2148456    1.4829359   375115 
 7797000   0.84433336   -3.2144498   -1.7319971  0.056569834   -3.2144498    1.4824527   375101 
 7798000   0.84528127   -3.2157612   -1.7315928  0.054773262   -3.2157612    1.4841685   375088 
 7799000   0.84528908   -3.2148968   -1.7306631  0.057317764   -3.2148968    1.4842336   375075 
 7800000   0.84439982   -3.2136603   -1.7309327  0.054726061   -3.2136603    1.4827275   375061 
 7801000    0.8444566   -3.2140654   -1.7311867  0.054160692   -3.2140654    1.4828787   375048 
 7802000   0.84419115   -3.2134176   -1.7309537  0.055768604   -3.2134176    1.4824639   375035 
 7803000   0.84444853   -3.2156399   -1.7326687  0.047089329   -3.2156399    1.4829712   375021 
 7804000   0.84330261   -3.2152692    -1.734259  0.054742162   -3.2152692    1.4810102   375008 
 7805000   0.84355066   -3.2138163   -1.7323192  0.056367596   -3.2138163    1.4814972   374995 
 7806000   0.84395907   -3.2147337    -1.732464  0.052990947   -3.2147337    1.4822698   374981 
 7807000   0.84496037   -3.2155322   -1.7314524   0.05113768   -3.2155322    1.4840798   374968 
 7808000   0.84572072    -3.217044   -1.7315772  0.060202765    -3.217044    1.4854668   374955 
 7809000   0.84585624   -3.2189177   -1.7331574  0.046981035   -3.2189177    1.4857603   374941 
 7810000   0.84439741   -3.2173293     -1.73408   0.05262435   -3.2173293    1.4832493   374928 
 7811000   0.84515544   -3.2188246   -1.7341923  0.055580784   -3.2188246    1.4846323   374915 
 7812000   0.84574328   -3.2193178   -1.7335974  0.054879116   -3.2193178    1.4857204   374901 
 7813000   0.84456745   -3.2191935   -1.7354873  0.057161525   -3.2191935    1.4837063   374888 
 7814000   0.84699636   -3.2248249      -1.7368  0.053637162   -3.2248249    1.4880249   374875 
 7815000   0.84721648   -3.2241339   -1.7356667  0.055585717   -3.2241339    1.4884672   374861 
 7816000   0.84663982   -3.2236019   -1.7360963  0.060718173   -3.2236019    1.4875056   374848 
 7817000   0.84741806   -3.2244677    -1.735543  0.057495741   -3.2244677    1.4889246   374835 
 7818000   0.84638651   -3.2248296   -1.7376619   0.06015258   -3.2248296    1.4871677   374821 
 7819000   0.84500823   -3.2223097   -1.7375122   0.05676927   -3.2223097    1.4847975   374808 
 7820000    0.8458013    -3.222989   -1.7367465  0.061310785    -3.222989    1.4862426   374795 
 7821000   0.84525587    -3.223758   -1.7384184  0.056636213    -3.223758    1.4853396   374781 
 7822000   0.84699487   -3.2266566   -1.7382095  0.055517948   -3.2266566    1.4884471   374768 
 7823000   0.84482104   -3.2223141   -1.7376356  0.057774262   -3.2223141    1.4846785   374755 
 7824000   0.84519819   -3.2247878    -1.739391  0.051084815   -3.2247878    1.4853968   374741 
 7825000   0.84293051   -3.2200931   -1.7386303  0.055856803   -3.2200931    1.4814628   374728 
 7826000   0.84318401    -3.219882   -1.7379222  0.056122752    -3.219882    1.4819598   374715 
 7827000   0.84467199   -3.2214924   -1.7368619  0.050806078   -3.2214924    1.4846305   374701 
 7828000   0.84326208   -3.2207173   -1.7385135  0.053662573   -3.2207173    1.4822038   374688 
 7829000   0.84337982   -3.2198006   -1.7373384  0.052635751   -3.2198006    1.4824622   374675 
 7830000   0.84496979   -3.2196298   -1.7343173   0.05914452   -3.2196298    1.4853125   374661 
 7831000   0.84423134   -3.2192275   -1.7351617  0.054293796   -3.2192275    1.4840659   374648 
 7832000   0.84412682   -3.2179443   -1.7340107  0.056391033   -3.2179443    1.4839336   374635 
 7833000   0.84413266   -3.2179491   -1.7339497  0.054570251   -3.2179491    1.4839994   374621 
 7834000   0.84395253   -3.2169346   -1.7332004  0.057229832   -3.2169346    1.4837342   374608 
 7835000   0.84514606   -3.2172804   -1.7313964  0.053713166   -3.2172804    1.4858841   374595 
 7836000   0.84266394   -3.2139135    -1.732338   0.05320602   -3.2139135    1.4815755   374581 
 7837000   0.84320967   -3.2162906   -1.7337041   0.05514455   -3.2162906    1.4825865   374568 
 7838000   0.84285635   -3.2160868   -1.7340701  0.051969387   -3.2160868    1.4820167   374555 
 7839000   0.84329826   -3.2171621   -1.7343129  0.047772791   -3.2171621    1.4828491   374541 
 7840000   0.84371628   -3.2171676   -1.7335319  0.054922351   -3.2171676    1.4836357   374528 
 7841000   0.84363627   -3.2158262   -1.7322797  0.053643514   -3.2158262    1.4835465   374515 
 7842000   0.84439795   -3.2153389   -1.7303975  0.051191724   -3.2153389    1.4849414   374501 
 7843000   0.84340333   -3.2144843   -1.7312405   0.05714832   -3.2144843    1.4832438   374488 
 7844000   0.84565401   -3.2169332   -1.7296797  0.053078688   -3.2169332    1.4872536   374475 
 7845000   0.84540292   -3.2164339   -1.7295663  0.052873032   -3.2164339    1.4868675   374461 
 7846000   0.84356529   -3.2137804   -1.7300933  0.056050758   -3.2137804    1.4836871   374448 
 7847000   0.84397612   -3.2150872    -1.730626  0.053590167   -3.2150872    1.4844612   374435 
 7848000   0.84206707   -3.2130377   -1.7318789  0.051951759   -3.2130377    1.4811588   374421 
 7849000   0.84328508   -3.2154168   -1.7320641  0.052282042   -3.2154168    1.4833527   374408 
 7850000   0.84423165   -3.2160516   -1.7309823  0.054804993   -3.2160516    1.4850693   374395 
 7851000   0.84245516   -3.2138665   -1.7318668  0.055054408   -3.2138665    1.4819997   374381 
 7852000   0.84323874   -3.2153378   -1.7319082  0.058504884   -3.2153378    1.4834297   374368 
 7853000   0.84358187   -3.2153494   -1.7312645  0.055506438   -3.2153494    1.4840848   374355 
 7854000   0.84380943   -3.2147339   -1.7301931  0.057738515   -3.2147339    1.4845407   374341 
 7855000   0.84423103   -3.2137517   -1.7284177  0.058406534   -3.2137517     1.485334   374328 
 7856000   0.84350055   -3.2127115   -1.7286111  0.060313686   -3.2127115    1.4841004   374315 
 7857000   0.84491111   -3.2161834   -1.7295456  0.054375705   -3.2161834    1.4866378   374301 
 7858000   0.84475411   -3.2148733   -1.7284601  0.048483733   -3.2148733    1.4864132   374288 
 7859000   0.84350786   -3.2133536   -1.7290817  0.057311874   -3.2133536    1.4842718   374275 
 7860000   0.84421614   -3.2159683   -1.7303945  0.050909705   -3.2159683    1.4855737   374261 
 7861000   0.84193771   -3.2134451   -1.7318293  0.060176294   -3.2134451    1.4816158   374248 
 7862000   0.84455404   -3.2173472   -1.7310756  0.050092942   -3.2173472    1.4862716   374235 
 7863000    0.8428899    -3.215477   -1.7320785  0.055326038    -3.215477    1.4833985   374221 
 7864000    0.8420592    -3.214153    -1.732165  0.057774921    -3.214153     1.481988   374208 
 7865000   0.84349447   -3.2167688   -1.7322032  0.053360128   -3.2167688    1.4845656   374195 
 7866000   0.84352319   -3.2182789   -1.7336072  0.050731656   -3.2182789    1.4846717   374181 
 7867000    0.8425035   -3.2162028   -1.7332744  0.055131278   -3.2162028    1.4829285   374168 
 7868000   0.84261683   -3.2161181   -1.7329386  0.053922454   -3.2161181    1.4831795   374155 
 7869000   0.84228729   -3.2169511   -1.7342962  0.050462524   -3.2169511    1.4826549   374141 
 7870000   0.84090249   -3.2128086   -1.7325399  0.052988491   -3.2128086    1.4802687   374128 
 7871000   0.84216893   -3.2150789   -1.7325294  0.057503033   -3.2150789    1.4825496   374115 
 7872000   0.84138942   -3.2140603   -1.7328275  0.062926195   -3.2140603    1.4812328   374101 
 7873000   0.84441513   -3.2184721    -1.731861  0.053131014   -3.2184721    1.4866111   374088 
 7874000   0.84304938   -3.2164473   -1.7321891  0.057566738   -3.2164473    1.4842582   374075 
 7875000   0.84368676   -3.2176844   -1.7322485  0.059404209   -3.2176844     1.485436   374061 
 7876000   0.84450437   -3.2182334   -1.7313063  0.058663751   -3.2182334    1.4869272   374048 
 7877000   0.84530388   -3.2200972   -1.7317106  0.058339168   -3.2200972    1.4883866   374035 
 7878000   0.84462138   -3.2162521   -1.7290115  0.058976609   -3.2162521    1.4872405   374021 
 7879000   0.84439371   -3.2166822   -1.7297909  0.053277952   -3.2166822    1.4868913   374008 
 7880000   0.84469515   -3.2174324   -1.7299586   0.05621858   -3.2174324    1.4874738   373995 
 7881000   0.84202313   -3.2137513   -1.7309273  0.057671017   -3.2137513     1.482824   373981 
 7882000   0.84359068   -3.2164426   -1.7308065  0.050545829   -3.2164426    1.4856362   373968 
 7883000   0.84195783    -3.213222   -1.7304098  0.061060078    -3.213222    1.4828121   373955 
 7884000   0.84336174   -3.2145322    -1.729192  0.056403793   -3.2145322    1.4853402   373941 
 7885000   0.84139556   -3.2112864   -1.7293576  0.060303705   -3.2112864    1.4819289   373928 
 7886000   0.84063859   -3.2114449   -1.7307977  0.052263809   -3.2114449    1.4806471   373915 
 7887000   0.84123427   -3.2116597   -1.7299079  0.053757574   -3.2116597    1.4817518   373901 
 7888000    0.8409259   -3.2130937   -1.7318336  0.055367288   -3.2130937    1.4812601   373888 
 7889000   0.84103784    -3.212044   -1.7305352  0.054788018    -3.212044    1.4815088   373875 
 7890000   0.84173583    -3.214077   -1.7312831  0.052451558    -3.214077    1.4827939   373861 
 7891000   0.84195281   -3.2132594   -1.7300317   0.04999731   -3.2132594    1.4832277   373848 
 7892000   0.84100464   -3.2114966   -1.7298877  0.053338782   -3.2114966    1.4816089   373835 
 7893000   0.84028555    -3.211624   -1.7312266  0.051728829    -3.211624    1.4803975   373821 
 7894000   0.84081522   -3.2117798   -1.7303976  0.049880771   -3.2117798    1.4813821   373808 
 7895000   0.84063614   -3.2105713   -1.7294532  0.051354709   -3.2105713    1.4811181   373795 
 7896000    0.8418625   -3.2131861   -1.7298517  0.054653253   -3.2131861    1.4833344   373781 
 7897000   0.84384633   -3.2161528   -1.7292712   0.05519024   -3.2161528    1.4868816   373768 
 7898000   0.84419006   -3.2155337   -1.7279947  0.056847231   -3.2155337     1.487539   373755 
 7899000   0.84490593   -3.2162142    -1.727358  0.053263357   -3.2162142    1.4888562   373741 
 7900000   0.84316795    -3.212885   -1.7270398   0.06219844    -3.212885    1.4858453   373728 
 7901000   0.84270807   -3.2130543   -1.7279678  0.050086774   -3.2130543    1.4850865   373715 
 7902000   0.84324661   -3.2146073    -1.728516  0.059863374   -3.2146073    1.4860912   373701 
 7903000   0.84308692   -3.2148263   -1.7289648  0.050207233   -3.2148263    1.4858615   373688 
 7904000   0.84242664   -3.2141244   -1.7293749  0.057697158   -3.2141244    1.4847495   373675 
 7905000   0.84249503   -3.2142025   -1.7292769  0.053061861   -3.2142025    1.4849256   373661 
 7906000   0.84266846   -3.2163164   -1.7310334  0.053698896   -3.2163164     1.485283   373648 
 7907000   0.84214566     -3.21489   -1.7304768  0.055851285     -3.21489    1.4844132   373635 
 7908000   0.84224399   -3.2163379   -1.7316958  0.053612822   -3.2163379    1.4846421   373621 
 7909000   0.84244569    -3.214432   -1.7293827  0.056673711    -3.214432    1.4850493   373608 
 7910000   0.84280622   -3.2150461   -1.7293095  0.056477355   -3.2150461    1.4857366   373595 
 7911000   0.84338178   -3.2149896   -1.7281827  0.055457023   -3.2149896    1.4868069   373581 
 7912000   0.84078849   -3.2123672   -1.7300804  0.055182205   -3.2123672    1.4822867   373568 
 7913000   0.84266171   -3.2144398    -1.728799  0.056430444   -3.2144398    1.4856409   373555 
 7914000   0.84266136   -3.2143843   -1.7286883  0.051729284   -3.2143843    1.4856959   373541 
 7915000   0.84381927   -3.2157185   -1.7279293  0.057510643   -3.2157185    1.4877892   373528 
 7916000   0.84178739   -3.2132136   -1.7289553  0.055925691   -3.2132136    1.4842583   373515 
 7917000   0.84116127   -3.2121905   -1.7289805  0.054241147   -3.2121905      1.48321   373501 
 7918000   0.84283061   -3.2136884   -1.7274832  0.052892774   -3.2136884    1.4862052   373488 
 7919000   0.84180251   -3.2121303   -1.7276863  0.056083327   -3.2121303     1.484444   373475 
 7920000   0.84053234   -3.2121722   -1.7299125  0.054289188   -3.2121722    1.4822597   373461 
 7921000    0.8409395   -3.2122822   -1.7292528  0.053249519   -3.2122822    1.4830293   373448 
 7922000   0.83973656   -3.2108503   -1.7298908  0.055347704   -3.2108503    1.4809595   373435 
 7923000   0.83925813   -3.2109909   -1.7308197  0.054403391   -3.2109909    1.4801712   373421 
 7924000   0.84139272   -3.2145184   -1.7305308  0.052143233   -3.2145184    1.4839876   373408 
 7925000   0.84051829   -3.2107279    -1.728231  0.052947324   -3.2107279    1.4824969   373395 
 7926000   0.84109405   -3.2118039   -1.7282358  0.055628724   -3.2118039    1.4835681   373381 
 7927000   0.84268366   -3.2140163   -1.7275926  0.054640843   -3.2140163    1.4864237   373368 
 7928000   0.84004914   -3.2117999   -1.7299718  0.051655873   -3.2117999    1.4818282   373355 
 7929000    0.8402191   -3.2135521   -1.7313686  0.052358585   -3.2135521    1.4821836   373341 
 7930000    0.8410176   -3.2133007   -1.7296569  0.056309719   -3.2133007    1.4836438   373328 
 7931000   0.84189184   -3.2144589   -1.7292211  0.057488523   -3.2144589    1.4852378   373315 
 7932000   0.84050096   -3.2122338   -1.7293942  0.057284719   -3.2122338    1.4828397   373301 
 7933000   0.84016741   -3.2118917   -1.7295889  0.057996243   -3.2118917    1.4823028   373288 
 7934000   0.84063226   -3.2131388   -1.7299642  0.051901135   -3.2131388    1.4831746   373275 
 7935000   0.84085051   -3.2143179   -1.7307025  0.055537678   -3.2143179    1.4836153   373261 
 7936000    0.8420066   -3.2147699    -1.729063  0.058132623   -3.2147699    1.4857069   373248 
 7937000   0.84302173   -3.2165385   -1.7289886   0.05281241   -3.2165385    1.4875499   373235 
 7938000   0.84018951   -3.2121344   -1.7295264  0.053263348   -3.2121344    1.4826079   373221 
 7939000   0.84317908   -3.2181622    -1.730227  0.052717847   -3.2181622    1.4879352   373208 
 7940000   0.84234121    -3.216687   -1.7301787  0.056351332    -3.216687    1.4865084   373195 
 7941000   0.84349775    -3.217735   -1.7291298  0.061531049    -3.217735    1.4886052   373181 
 7942000   0.84270645   -3.2162894   -1.7290289  0.058161662   -3.2162894    1.4872605   373168 
 7943000   0.84356923    -3.216947   -1.7281119  0.059358495    -3.216947    1.4888351   373155 
 7944000   0.84200398    -3.214427   -1.7282987   0.05650121    -3.214427    1.4861283   373141 
 7945000   0.84281227   -3.2176861   -1.7300793   0.05822224   -3.2176861    1.4876067   373128 
 7946000   0.84110068   -3.2158349   -1.7311974  0.058664576   -3.2158349    1.4846374   373115 
 7947000   0.84064042    -3.213734   -1.7298533  0.057825954    -3.213734    1.4838807   373101 
 7948000   0.84081193   -3.2160457   -1.7318105  0.052370573   -3.2160457    1.4842352   373088 
 7949000   0.84049439   -3.2149804   -1.7312541  0.053612431   -3.2149804    1.4837263   373075 
 7950000   0.83994114   -3.2160942   -1.7332889  0.053097872   -3.2160942    1.4828053   373061 
 7951000   0.84046192   -3.2172351   -1.7334587  0.054803832   -3.2172351    1.4837764   373048 
 7952000   0.83946524   -3.2144255    -1.732357  0.054204602   -3.2144255    1.4820685   373035 
 7953000   0.84020843    -3.214845   -1.7314087  0.052602816    -3.214845    1.4834362   373021 
 7954000   0.84118545   -3.2153537   -1.7301407   0.05192257   -3.2153537     1.485213   373008 
 7955000   0.83941751   -3.2119134   -1.7297703  0.054061498   -3.2119134    1.4821431   372995 
 7956000   0.83870815   -3.2124311   -1.7314848  0.057579186   -3.2124311    1.4809462   372981 
 7957000   0.83972367   -3.2125172   -1.7297262  0.057368335   -3.2125172     1.482791   372968 
 7958000    0.8398596   -3.2127875   -1.7297047   0.05506339   -3.2127875    1.4830828   372955 
 7959000   0.84107766   -3.2147644    -1.729475  0.055754142   -3.2147644    1.4852895   372941 
 7960000   0.83989969   -3.2130565   -1.7297956  0.055537994   -3.2130565    1.4832609   372928 
 7961000   0.84129631   -3.2149152    -1.729136  0.052950875   -3.2149152    1.4857792   372915 
 7962000   0.84004788   -3.2134299   -1.7297998  0.057031335   -3.2134299    1.4836301   372901 
 7963000   0.83890826   -3.2112561   -1.7295871  0.054154243   -3.2112561     1.481669   372888 
 7964000   0.83949786   -3.2123306   -1.7295685  0.052053521   -3.2123306     1.482762   372875 
 7965000   0.83775014   -3.2114241   -1.7316934  0.052916247   -3.2114241    1.4797307   372861 
 7966000   0.83952897   -3.2132164   -1.7302921   0.05075074   -3.2132164    1.4829244   372848 
 7967000   0.83988982   -3.2135538   -1.7299403  0.050537552   -3.2135538    1.4836135   372835 
 7968000   0.83982623   -3.2144385   -1.7308816  0.053888286   -3.2144385    1.4835569   372821 
 7969000   0.84068238   -3.2149135   -1.7297925  0.054200011   -3.2149135    1.4851211   372808 
 7970000   0.84026276   -3.2143102   -1.7298787  0.055573161   -3.2143102    1.4844315   372795 
 7971000   0.84016473   -3.2145801    -1.730266  0.053808262   -3.2145801    1.4843141   372781 
 7972000   0.84157005   -3.2156903   -1.7288416  0.055601124   -3.2156903    1.4868487   372768 
 7973000    0.8412283   -3.2153919   -1.7290952  0.058780329   -3.2153919    1.4862968   372755 
 7974000   0.84025106   -3.2147541   -1.7301282  0.057211991   -3.2147541    1.4846259   372741 
 7975000   0.84169378   -3.2176608   -1.7304339  0.050859864   -3.2176608    1.4872269   372728 
 7976000   0.84022799   -3.2178983   -1.7332096   0.05848982   -3.2178983    1.4846887   372715 
 7977000   0.84061857   -3.2188301   -1.7333954  0.053330879   -3.2188301    1.4854347   372701 
 7978000   0.83975473   -3.2164911   -1.7325312  0.058275032   -3.2164911      1.48396   372688 
 7979000   0.83914261   -3.2156918   -1.7327618  0.058589213   -3.2156918      1.48293   372675 
 7980000   0.83945858   -3.2164517   -1.7329076  0.051779651   -3.2164517    1.4835441   372661 
 7981000   0.83940984   -3.2155506   -1.7320409  0.053628168   -3.2155506    1.4835097   372648 
 7982000   0.83950551   -3.2166939   -1.7329633  0.051783763   -3.2166939    1.4837305   372635 
 7983000   0.84036035   -3.2173058   -1.7320086  0.053534765   -3.2173058    1.4852972   372621 
 7984000   0.84186226   -3.2197113   -1.7317077  0.059441494   -3.2197113    1.4880037   372608 
 7985000   0.84137045   -3.2186256   -1.7314394  0.056226374   -3.2186256    1.4871863   372595 
 7986000   0.84035716   -3.2175121   -1.7320611  0.059563819   -3.2175121     1.485451   372581 
 7987000     0.841405   -3.2189825   -1.7316274  0.058667736   -3.2189825    1.4873551   372568 
 7988000   0.84111661   -3.2183214   -1.7314242   0.06243381   -3.2183214    1.4868972   372555 
 7989000   0.84054564    -3.217441   -1.7314973  0.052647896    -3.217441    1.4859437   372541 
 7990000   0.83952279   -3.2162089   -1.7320216  0.056700649   -3.2162089    1.4841873   372528 
 7991000    0.8404074   -3.2171565   -1.7313535  0.051154394   -3.2171565     1.485803   372515 
 7992000   0.83919814    -3.213807   -1.7300862  0.058578004    -3.213807    1.4837209   372501 
 7993000   0.84132462   -3.2170601   -1.7295277  0.052185878   -3.2170601    1.4875324   372488 
 7994000   0.84004744   -3.2152913   -1.7299651  0.055011587   -3.2152913    1.4853261   372475 
 7995000   0.83984518   -3.2152456   -1.7302213  0.051812529   -3.2152456    1.4850243   372461 
 7996000   0.83935647   -3.2134203   -1.7292083  0.054661319   -3.2134203     1.484212   372448 
 7997000    0.8396204   -3.2147929   -1.7300624  0.055804056   -3.2147929    1.4847305   372435 
 7998000   0.83988709   -3.2168063   -1.7315483  0.051446079   -3.2168063    1.4852579   372421 
 7999000   0.83936292   -3.2133922   -1.7290094  0.053130617   -3.2133922    1.4843828   372408 
 8000000   0.83850802   -3.2113975   -1.7284748  0.061069918   -3.2113975    1.4829227   372395 
Loop time of 7058.18 on 192 procs for 5000000 steps with 372395 atoms

Performance: 306027.746 tau/day, 708.398 timesteps/s
99.1% CPU use with 192 MPI tasks x 1 OpenMP threads

MPI task timing breakdown:
Section |  min time  |  avg time  |  max time  |%varavg|  %CPU | %total
-----------------------------------------------------------------------
Pair    | 1300       | 2911.6     | 3201.2     |1082.1 |  99.1 | 41.25
Bond    | 3.1409     | 3.3735     | 3.5354     |   3.7 | 100.0 |  0.05
Neigh   | 879        | 1508.4     | 1709.6     | 573.1 |  99.5 | 21.37
Comm    | 1279.6     | 1972.3     | 4265.4     |1876.0 |  98.9 | 27.94
Output  | 284.97     | 285.88     | 285.9      |   0.4 |  98.8 |  4.05
Modify  | 175.44     | 263.24     | 642.83     | 929.4 |  99.1 |  3.73
Other   |            | 113.4      |            |       |       |  1.61

Nlocal:        1939.56 ave        2238 max        1644 min
Histogram: 2 2 3 14 74 80 12 1 2 2
Nghost:        3084.71 ave        3413 max        2309 min
Histogram: 11 31 5 1 0 0 1 11 65 67
Neighs:        52036.0 ave       61195 max       10713 min
Histogram: 7 7 9 1 0 0 0 2 56 110

Total # of neighbors = 9990906
Ave neighs/atom = 26.828787
Ave special neighs/atom = 0.0000000
Neighbor list builds = 533333
Dangerous builds = 463333

write_restart   restart_write.dat
System init for write_restart ...
write_data	data.write
System init for write_data ...
WARNING: Not all mixed pair coeffs generated from mixing. Use write_data with 'pair ij' option to store all pair coeffs. (src/write_data.cpp:312)

Total wall time: 1:57:41
