LAMMPS (24 Dec 2020)
OMP_NUM_THREADS environment is not set. Defaulting to 1 thread. (src/comm.cpp:94)
  using 1 OpenMP thread(s) per MPI task
#Read the equilibrated lj fluid and add nanocubes

units           lj
atom_style      full
atom_modify     map array first cubes
dimension       3
boundary        p p f
pair_style      lj/smooth/linear 2.0

variable        sigma           equal 1.0
variable        epsilon         equal 1.0
read_restart	restart.dat.5000000
Reading restart file ...
  restart file = 24 Dec 2020, LAMMPS = 24 Dec 2020
WARNING: Restart file used different # of processors: 192 vs. 288 (src/read_restart.cpp:697)
  restoring atom style full from restart
  orthogonal box = (0.0000000 0.0000000 0.0000000) to (80.000000 80.000000 160.00000)
  6 by 4 by 12 MPI processor grid
  restoring pair style lj/smooth/linear from restart
  439061 atoms
Finding 1-2 1-3 1-4 neighbors ...
  special bond factors lj:    0        0        0       
  special bond factors coul:  0        0        0       
     0 = max # of 1-2 neighbors
     0 = max # of 1-3 neighbors
     0 = max # of 1-4 neighbors
     1 = max # of special neighbors
  special bonds CPU = 2.436 seconds
  read_restart CPU = 2.873 seconds

group		solvent type 1
439061 atoms in group solvent

read_data	data_64.cubes group cubes add append
Reading data file ...
  orthogonal box = (0.0000000 0.0000000 0.0000000) to (80.000000 80.000000 160.00000)
  6 by 4 by 12 MPI processor grid
WARNING: Pair style in data file differs from currently defined pair style (src/read_data.cpp:588)
  reading atoms ...
  73152 atoms
  reading velocities ...
  73152 velocities
Finding 1-2 1-3 1-4 neighbors ...
  special bond factors lj:    0        0        0       
  special bond factors coul:  0        0        0       
     0 = max # of 1-2 neighbors
     0 = max # of 1-3 neighbors
     0 = max # of 1-4 neighbors
     1 = max # of special neighbors
  special bonds CPU = 0.047 seconds
  read_data CPU = 0.218 seconds

group 		hull  type 2
28544 atoms in group hull
group 		dummy type 3
44608 atoms in group dummy

neighbor      0.4 bin
neigh_modify  exclude molecule/intra cubes


pair_modify   shift yes

pair_coeff    1 1 1.0 1.0 #solvent
pair_coeff    2 2 1.0 1.0 1.12 #np
pair_coeff    3 3 0.0 0.0 0.0 #dummy
pair_coeff    2 3 0.0 0.0 0.0 #np dummy
pair_coeff    1 2 ${eps} ${sig} ${nscut} #np solvent
pair_coeff    1 2 2.0 ${sig} ${nscut} 
pair_coeff    1 2 2.0 1.0 ${nscut} 
pair_coeff    1 2 2.0 1.0 4.0 
pair_coeff    1 3 0.0 0.0 2.5 #dummy solvent

# delete solvent where the cubes are
delete_atoms  overlap 2.0 solvent cubes
System init for delete_atoms ...
Neighbor list info ...
  update every 1 steps, delay 10 steps, check yes
  max neighbors/atom: 2000, page size: 100000
  master list distance cutoff = 4.4
  ghost atom cutoff = 4.4
  binsize = 2.2, bins = 37 37 73
  2 neighbor lists, perpetual/occasional/extra = 1 1 0
  (1) command delete_atoms, occasional
      attributes: full, newton on
      pair build: full/bin
      stencil: full/bin/3d
      bin: standard
  (2) pair lj/smooth/linear, perpetual
      attributes: half, newton on
      pair build: half/bin/newton
      stencil: half/bin/3d/newton
      bin: standard
WARNING: Delete_atoms cutoff > minimum neighbor cutoff (src/delete_atoms.cpp:307)
WARNING: Ignoring 'compress yes' for molecular system (src/delete_atoms.cpp:125)
Deleted 85864 atoms, new total = 426349



pair_coeff    1 1 1.0 1.0 #solvent
pair_coeff    2 2 1.0 1.0 1.12 #np
pair_coeff    3 3 0.0 0.0 0.0 #dummy
pair_coeff    2 3 0.0 0.0 0.0 #np dummy
pair_coeff    1 2 ${eps} ${sig} ${nscut} #np solvent
pair_coeff    1 2 2.0 ${sig} ${nscut} 
pair_coeff    1 2 2.0 1.0 ${nscut} 
pair_coeff    1 2 2.0 1.0 4.0 
pair_coeff    1 3 0.0 0.0 0.0 #dummy solvent


comm_modify   mode multi cutoff/multi 1 2.0 cutoff/multi 2 2.0 cutoff/multi 3 6.95

reset_timestep 	0

balance 	1.05 shift z 10 1.05
Balancing ...
Neighbor list info ...
  update every 1 steps, delay 10 steps, check yes
  max neighbors/atom: 2000, page size: 100000
  master list distance cutoff = 4.4
  ghost atom cutoff = 6.95
  binsize = 2.2, bins = 37 37 73
  1 neighbor lists, perpetual/occasional/extra = 1 0 0
  (1) pair lj/smooth/linear, perpetual
      attributes: half, newton on
      pair build: half/bin/newton
      stencil: half/bin/3d/newton
      bin: standard
 rebalancing time: 0.004 seconds
  iteration count = 4
  initial/final maximal load/proc = 2230.0000 2237.0000
  initial/final imbalance factor  = 1.5063715 1.5111001
  x cuts: 0.0000000 0.16666667 0.33333333 0.50000000 0.66666667 0.83333333 1.0000000
  y cuts: 0.0000000 0.25000000 0.50000000 0.75000000 1.0000000
  z cuts: 0.0000000 0.057291667 0.11979167 0.17187500 0.23958333 0.28125000 0.34375000 0.41145833 0.46354167 0.51562500 0.59895833 0.64583333 1.0000000

####################### WALLS ###########################

variable       epsilonWall equal 2*${epsilon}
variable       epsilonWall equal 2*1
variable       repulsive   equal   0.7147*${sigma}
variable       repulsive   equal   0.7147*1
variable       full	   equal   3*${sigma}
variable       full	   equal   3*1
region         lowWall block EDGE EDGE EDGE EDGE EDGE 2

fix            topWall all wall/lj93 zhi EDGE 	       ${epsilonWall} ${sigma} ${repulsive} units box
fix            topWall all wall/lj93 zhi EDGE 	       2 ${sigma} ${repulsive} units box
fix            topWall all wall/lj93 zhi EDGE 	       2 1 ${repulsive} units box
fix            topWall all wall/lj93 zhi EDGE 	       2 1 0.7147 units box
fix            lowSol solvent wall/lj93 zlo EDGE                ${epsilonWall} ${sigma} ${full} units box
fix            lowSol solvent wall/lj93 zlo EDGE                2 ${sigma} ${full} units box
fix            lowSol solvent wall/lj93 zlo EDGE                2 1 ${full} units box
fix            lowSol solvent wall/lj93 zlo EDGE                2 1 3 units box
fix 	       lowCub cubes wall/lj93 zlo EDGE                ${epsilonWall} ${sigma} ${repulsive} units box
fix 	       lowCub cubes wall/lj93 zlo EDGE                2 ${sigma} ${repulsive} units box
fix 	       lowCub cubes wall/lj93 zlo EDGE                2 1 ${repulsive} units box
fix 	       lowCub cubes wall/lj93 zlo EDGE                2 1 0.7147 units box


###################### COMPUTES ##########################

compute        bin1 solvent chunk/atom bin/1d z lower 1.0 units box


######################  FIXES ############################


fix             peclet solvent ave/chunk 10 10 10000 bin1 density/number norm                  none ave one file density.profile

fix              temp solvent ave/chunk 10 10 10000 bin1 temp norm                  none ave one file temp.profile

fix             1 cubes rigid/nve/small molecule
  create bodies CPU = 0.026 seconds
  64 rigid bodies with 73152 atoms
  6.9282032 = max distance from body owner to body atom

fix             2 solvent nve# temp ${temp} ${temp} 10


## Thermostat
region          regthermo block EDGE EDGE EDGE EDGE 0 15
group           thermo dynamic solvent region regthermo every 1000
dynamic group thermo defined
fix             3 thermo langevin ${temp} ${temp} 10 156453
fix             3 thermo langevin 0.6 ${temp} 10 156453
fix             3 thermo langevin 0.6 0.6 10 156453


#### Load balancing

fix             bal all balance 1000 1.05 shift z 10 1.05

############### Diagnostics and computes ###################

compute        	com cubes          rigid/local   1 mol x y z
compute        	quat cubes         rigid/local   1 mol quatw quati quatj quatk

compute 	cc2 cubes 	   chunk/atom 	 molecule
compute 	msd cubes 	   msd/chunk 	 cc2

fix 		msd all ave/time  1 1 10000 c_msd[*] file dump.msd ave one mode vector

dump            1 all custom 500000 dump.lammpstrj id mol type x y z
dump		cubetrj hull custom 500000 cubes.lammpstrj id mol type x y z
dump            com cubes local 10000 dump.*.xyz c_com[*]
dump	        xyz hull xyz 100000 cubes.xyz
dump            quat cubes      local 10000 dump.*.quat c_quat[*]
#dump		mol cubes molfile 10000 mol.xyz xyz


dump            2 all image 10000 image.*.png type type zoom 1.5 size 1280 720
dump_modify     2 pad 8
dump		image cubes image 10000 image_cubes.*.png type type zoom 1.5 size 1280 720
dump_modify	image pad 8
dump            3 all movie 5000 movie.avi type type zoom 1.5 size 1280 720
dump		4 cubes movie 5000 movie_cubes.avi type type size 1280 720


thermo          1000
thermo_style    custom step temp epair evdwl etotal press pe ke atoms

restart         1000000 restart.dat
timestep        0.005
timer           full
New timer settings: style=full  mode=nosync  timeout=off

run 		5000000
Per MPI rank memory allocation (min/avg/max) = 13.91 | 19.38 | 22.63 Mbytes
Step Temp E_pair E_vdwl TotEng Press PotEng KinEng Atoms 
       0   0.61139669   -1.8592307   -1.8592307   -1.0992156 0.0084954809   -1.8592307   0.76001512   426349 
    1000   0.71755005    -1.996949    -1.996949   -1.1049768  0.077328253    -1.996949   0.89197226   426349 
    2000   0.75997147   -2.0616585   -2.0616585    -1.116953   0.12810965   -2.0616585   0.94470549   426349 
    3000    0.7748468   -2.0922301   -2.0922301   -1.1290334   0.14799916   -2.0922301   0.96319672   426349 
    4000    0.7758954   -2.1076826   -2.1076826   -1.1431824   0.15980944   -2.1076826   0.96450021   426349 
    5000   0.77277073   -2.1187867   -2.1187867   -1.1581707    0.1569923   -2.1187867   0.96061599   426349 
    6000    0.7665572   -2.1249113   -2.1249113   -1.1720192   0.13964799   -2.1249113   0.95289208   426349 
    7000   0.76052381   -2.1311262   -2.1311262   -1.1857341   0.14550358   -2.1311262   0.94539209   426349 
    8000   0.75313615   -2.1340742   -2.1340742   -1.1978656   0.12759061   -2.1340742   0.93620863   426349 
    9000   0.74822953   -2.1389072   -2.1389072   -1.2087979   0.12668747   -2.1389072   0.93010931   426349 
   10000   0.74140731   -2.1382926   -2.1382926   -1.2166639   0.10865271   -2.1382926   0.92162874   426349 
   11000   0.73570554   -2.1387054   -2.1387054   -1.2241645   0.11198817   -2.1387054   0.91454099   426349 
   12000   0.73229243   -2.1389287   -2.1389287   -1.2286305   0.10200179   -2.1389287   0.91029822   426349 
   13000   0.72717139   -2.1369823   -2.1369823     -1.23305   0.10744636   -2.1369823   0.90393236   426349 
   14000   0.72271693   -2.1347993   -2.1347993   -1.2364042   0.10086048   -2.1347993    0.8983951   426349 
   15000   0.71885771   -2.1335498   -2.1335498   -1.2399521  0.088567678   -2.1335498   0.89359779   426349 
   16000   0.71693125   -2.1332871   -2.1332871   -1.2420841  0.088932352   -2.1332871   0.89120304   426349 
   17000   0.71394495   -2.1319437   -2.1319437   -1.2444529   0.08408937   -2.1319437   0.88749083   426349 
   18000   0.71207227   -2.1305695   -2.1305695   -1.2454066  0.088458517   -2.1305695   0.88516294   426349 
   19000   0.71201201   -2.1320113   -2.1320113   -1.2469233  0.085433833   -2.1320113   0.88508804   426349 
   20000   0.71119189   -2.1324628   -2.1324628   -1.2483943  0.082112221   -2.1324628   0.88406856   426349 
   21000   0.70994497   -2.1310623   -2.1310623   -1.2485438   0.09267943   -2.1310623   0.88251854   426349 
   22000   0.70924824   -2.1311363   -2.1311363   -1.2494839  0.088322466   -2.1311363   0.88165245   426349 
   23000   0.70894884   -2.1316229   -2.1316229   -1.2503427  0.082095228   -2.1316229   0.88128026   426349 
   24000   0.70933825   -2.1325371   -2.1325371   -1.2507727  0.085699617   -2.1325371   0.88176433   426349 
   25000    0.7081526   -2.1324435   -2.1324435    -1.252153  0.085191009   -2.1324435   0.88029048   426349 
   26000   0.70941547   -2.1345985   -2.1345985   -1.2527382   0.09685408   -2.1345985   0.88186032   426349 
   27000   0.70996163   -2.1353594   -2.1353594   -1.2528201  0.093766056   -2.1353594   0.88253925   426349 
   28000   0.71020283   -2.1366111   -2.1366111    -1.253772  0.091288512   -2.1366111   0.88283908   426349 
   29000    0.7103393    -2.137536    -2.137536   -1.2545273  0.092358369    -2.137536   0.88300871   426349 
   30000   0.70977466   -2.1375227   -2.1375227   -1.2552158    0.0911019   -2.1375227   0.88230682   426349 
   31000   0.71205299   -2.1406153   -2.1406153   -1.2554764  0.094683739   -2.1406153   0.88513897   426349 
   32000   0.70950159   -2.1385363   -2.1385363   -1.2565689  0.086974949   -2.1385363   0.88196737   426349 
   33000   0.70851578   -2.1375198   -2.1375198   -1.2567778  0.088710715   -2.1375198   0.88074194   426349 
   34000   0.71216901   -2.1428756   -2.1428756   -1.2575924  0.083004757   -2.1428756   0.88528319   426349 
   35000   0.71025635   -2.1406759   -2.1406759   -1.2577703  0.098106363   -2.1406759    0.8829056   426349 
   36000   0.71048997   -2.1418686   -2.1418686   -1.2586726  0.095977845   -2.1418686   0.88319601   426349 
   37000   0.71004257   -2.1419506   -2.1419506   -1.2593107  0.084976607   -2.1419506   0.88263986   426349 
   38000   0.70892023    -2.141329    -2.141329   -1.2600843  0.088604799    -2.141329    0.8812447   426349 
   39000   0.70951429   -2.1432314   -2.1432314   -1.2612483  0.081722978   -2.1432314   0.88198317   426349 
   40000   0.70839232    -2.141872    -2.141872   -1.2612835  0.097541432    -2.141872   0.88058846   426349 
   41000   0.70867528   -2.1425454   -2.1425454   -1.2616052  0.083598703   -2.1425454   0.88094021   426349 
   42000   0.70797049   -2.1423172   -2.1423172   -1.2622531  0.088905775   -2.1423172    0.8800641   426349 
   43000   0.70595288   -2.1403976   -2.1403976   -1.2628415   0.09455473   -2.1403976   0.87755605   426349 
   44000   0.70508872   -2.1404357   -2.1404357   -1.2639539  0.072110951   -2.1404357   0.87648183   426349 
   45000    0.7043208   -2.1396828   -2.1396828   -1.2641556  0.087696826   -2.1396828   0.87552724   426349 
   46000   0.70329411    -2.139588    -2.139588    -1.265337  0.072227535    -2.139588   0.87425098   426349 
   47000   0.70391994   -2.1406659   -2.1406659    -1.265637  0.079764213   -2.1406659   0.87502895   426349 
   48000   0.70201067   -2.1395308   -2.1395308   -1.2668753  0.082614109   -2.1395308   0.87265556   426349 
   49000   0.70154763   -2.1387977   -2.1387977   -1.2667177  0.085865363   -2.1387977   0.87207996   426349 
   50000    0.7014541   -2.1394233   -2.1394233   -1.2674596  0.082966172   -2.1394233   0.87196371   426349 
   51000   0.70019274   -2.1395861   -2.1395861   -1.2691903  0.088244389   -2.1395861   0.87039573   426349 
   52000   0.70013064   -2.1404701   -2.1404701   -1.2701516  0.086876168   -2.1404701   0.87031853   426349 
   53000     0.700271   -2.1414867   -2.1414867   -1.2709937  0.088677057   -2.1414867   0.87049302   426349 
   54000   0.69961379   -2.1431337   -2.1431337   -1.2734576  0.075439794   -2.1431337   0.86967605   426349 
   55000   0.69965242   -2.1455006   -2.1455006   -1.2757766  0.091478044   -2.1455006   0.86972407   426349 
   56000   0.69971503   -2.1474401   -2.1474401   -1.2776382  0.091272449   -2.1474401    0.8698019   426349 
   57000   0.69869968   -2.1494048   -2.1494048    -1.280865   0.10011099   -2.1494048   0.86853974   426349 
   58000    0.6980254   -2.1502164   -2.1502164   -1.2825148   0.08651322   -2.1502164   0.86770155   426349 
   59000   0.69699719   -2.1515417   -2.1515417   -1.2851183  0.087827542   -2.1515417    0.8664234   426349 
   60000   0.69692857   -2.1526501   -2.1526501    -1.286312  0.085778746   -2.1526501   0.86633811   426349 
   61000    0.6975259   -2.1551923   -2.1551923   -1.2881116  0.094388148   -2.1551923   0.86708063   426349 
   62000   0.69720356   -2.1574304   -2.1574304   -1.2907505  0.093952158   -2.1574304   0.86667994   426349 
   63000   0.69832398   -2.1608516   -2.1608516   -1.2927789  0.092271261   -2.1608516   0.86807272   426349 
   64000   0.69745446   -2.1618387   -2.1618387   -1.2948469  0.097426404   -2.1618387   0.86699183   426349 
   65000   0.69767858   -2.1646936   -2.1646936   -1.2974231  0.091599791   -2.1646936   0.86727042   426349 
   66000   0.69713354   -2.1656425   -2.1656425   -1.2990496  0.094546122   -2.1656425    0.8665929   426349 
   67000   0.69671738   -2.1670709   -2.1670709   -1.3009953  0.089339009   -2.1670709   0.86607558   426349 
   68000   0.69722726   -2.1701834   -2.1701834    -1.303474  0.079671781   -2.1701834    0.8667094   426349 
   69000   0.69603804   -2.1707653   -2.1707653   -1.3055342  0.085476472   -2.1707653    0.8652311   426349 
   70000   0.69602163   -2.1715601   -2.1715601   -1.3063494  0.094445419   -2.1715601   0.86521071   426349 
   71000   0.69618103    -2.173468    -2.173468   -1.3080592   0.10080016    -2.173468   0.86540886   426349 
   72000    0.6953184   -2.1740937   -2.1740937   -1.3097571  0.096263887   -2.1740937   0.86433653   426349 
   73000   0.69408406   -2.1742545   -2.1742545   -1.3114523  0.085555604   -2.1742545   0.86280215   426349 
   74000   0.69461448   -2.1764276   -2.1764276   -1.3129661  0.085677324   -2.1764276   0.86346151   426349 
   75000   0.69409222   -2.1772976   -2.1772976   -1.3144853  0.082722377   -2.1772976    0.8628123   426349 
   76000   0.69349981   -2.1780322   -2.1780322   -1.3159564  0.092469569   -2.1780322   0.86207588   426349 
   77000   0.69205007   -2.1768003   -2.1768003   -1.3165265  0.084544544   -2.1768003   0.86027375   426349 
   78000   0.69051655   -2.1764811   -2.1764811   -1.3181137  0.095554969   -2.1764811   0.85836745   426349 
   79000   0.69041839   -2.1771047   -2.1771047   -1.3188593  0.085003019   -2.1771047   0.85824543   426349 
   80000    0.6885714   -2.1760186   -2.1760186   -1.3200691  0.086565723   -2.1760186   0.85594947   426349 
   81000   0.68868361    -2.177476    -2.177476   -1.3213871  0.083217905    -2.177476   0.85608895   426349 
   82000   0.68721919   -2.1767958   -2.1767958   -1.3225272  0.080492508   -2.1767958   0.85426857   426349 
   83000   0.68652596    -2.176862    -2.176862   -1.3234552  0.083474423    -2.176862   0.85340683   426349 
   84000    0.6856264   -2.1765263   -2.1765263   -1.3242377  0.075131568   -2.1765263    0.8522886   426349 
   85000   0.68526412   -2.1770058   -2.1770058   -1.3251675  0.090104952   -2.1770058   0.85183826   426349 
   86000   0.68343294   -2.1739504   -2.1739504   -1.3243884     0.074901   -2.1739504   0.84956196   426349 
   87000   0.68400562   -2.1755846   -2.1755846   -1.3253108  0.084899716   -2.1755846   0.85027384   426349 
   88000   0.68250294   -2.1752977   -2.1752977   -1.3268918  0.074460782   -2.1752977   0.84840589   426349 
   89000   0.68200035   -2.1756781   -2.1756781    -1.327897  0.087943751   -2.1756781   0.84778113   426349 
   90000   0.68225038   -2.1763092   -2.1763092   -1.3282172  0.078344242   -2.1763092   0.84809193   426349 
   91000   0.68187949   -2.1757914   -2.1757914   -1.3281605  0.075213326   -2.1757914   0.84763089   426349 
   92000   0.68007862   -2.1734511   -2.1734511   -1.3280589  0.075213691   -2.1734511   0.84539227   426349 
   93000   0.68084535   -2.1747164   -2.1747164   -1.3283711  0.080928953   -2.1747164   0.84634537   426349 
   94000    0.6787039     -2.17333     -2.17333   -1.3296466  0.069675409     -2.17333   0.84368337   426349 
   95000   0.67853756   -2.1740798   -2.1740798   -1.3306032  0.077324693   -2.1740798    0.8434766   426349 
   96000   0.67796833    -2.173919    -2.173919     -1.33115   0.08079046    -2.173919   0.84276901   426349 
   97000   0.67810557   -2.1748385   -2.1748385   -1.3318989  0.069475921   -2.1748385    0.8429396   426349 
   98000   0.67851571   -2.1754489   -2.1754489   -1.3319994   0.08047187   -2.1754489   0.84344944   426349 
   99000   0.67822461   -2.1749045   -2.1749045   -1.3318169  0.067104722   -2.1749045   0.84308759   426349 
  100000   0.67866538   -2.1765028   -2.1765028   -1.3328673  0.076864783   -2.1765028    0.8436355   426349 
  101000   0.67857139   -2.1769044   -2.1769044   -1.3333858  0.069427485   -2.1769044   0.84351866   426349 
  102000   0.67772479   -2.1769896   -2.1769896   -1.3345234  0.084092195   -2.1769896   0.84246626   426349 
  103000   0.67850291    -2.178323    -2.178323   -1.3348895  0.067621982    -2.178323   0.84343353   426349 
  104000   0.67822522   -2.1778376   -2.1778376   -1.3347493  0.081874465   -2.1778376   0.84308835   426349 
  105000   0.67795902   -2.1791485   -2.1791485   -1.3363911  0.064427247   -2.1791485   0.84275743   426349 
  106000   0.67716488   -2.1789765   -2.1789765   -1.3372063  0.067563404   -2.1789765   0.84177025   426349 
  107000   0.67721036   -2.1794722   -2.1794722   -1.3376454  0.069183641   -2.1794722   0.84182679   426349 
  108000   0.67580287   -2.1783029   -2.1783029   -1.3382258  0.074883994   -2.1783029   0.84007717   426349 
  109000   0.67727794   -2.1809378   -2.1809378    -1.339027  0.073008106   -2.1809378    0.8419108   426349 
  110000   0.67563789   -2.1798853   -2.1798853   -1.3400132   0.07145136   -2.1798853   0.83987208   426349 
  111000   0.67623673   -2.1813518   -2.1813518   -1.3407353  0.071074329   -2.1813518   0.84061648   426349 
  112000   0.67559841   -2.1804081   -2.1804081   -1.3405851   0.08026234   -2.1804081     0.839823   426349 
  113000   0.67714924   -2.1834933   -2.1834933   -1.3417424  0.068521302   -2.1834933   0.84175081   426349 
  114000   0.67707652   -2.1840429   -2.1840429   -1.3423825  0.070173715   -2.1840429   0.84166042   426349 
  115000   0.67755192   -2.1860456   -2.1860456   -1.3437942  0.068580997   -2.1860456   0.84225137   426349 
  116000   0.67631978   -2.1846414   -2.1846414   -1.3439217  0.075629611   -2.1846414   0.84071973   426349 
  117000   0.67597531   -2.1843237   -2.1843237   -1.3440321  0.071961145   -2.1843237   0.84029152   426349 
  118000   0.67494363   -2.1837002   -2.1837002   -1.3446912  0.073539241   -2.1837002   0.83900906   426349 
  119000   0.67634014   -2.1873975   -2.1873975   -1.3466525  0.070878374   -2.1873975   0.84074504   426349 
  120000   0.67586111   -2.1864205   -2.1864205    -1.346271  0.069990788   -2.1864205   0.84014957   426349 
  121000    0.6755613   -2.1874831   -2.1874831   -1.3477062  0.071154744   -2.1874831   0.83977687   426349 
  122000   0.67650134   -2.1889124   -2.1889124   -1.3479669  0.080429197   -2.1889124   0.84094542   426349 
  123000   0.67612108   -2.1898317   -2.1898317    -1.349359  0.077945779   -2.1898317   0.84047272   426349 
  124000   0.67681167   -2.1911531   -2.1911531   -1.3498219  0.083272366   -2.1911531   0.84133119   426349 
  125000   0.67654759   -2.1917914   -2.1917914   -1.3507884  0.073878881   -2.1917914   0.84100292   426349 
  126000   0.67644156   -2.1925238   -2.1925238   -1.3516527  0.076854887   -2.1925238    0.8408711   426349 
  127000   0.67518275   -2.1919154   -2.1919154   -1.3526091  0.069919584   -2.1919154    0.8393063   426349 
  128000   0.67519777   -2.1931005   -2.1931005   -1.3537755  0.082342722   -2.1931005   0.83932498   426349 
  129000    0.6753307   -2.1937704   -2.1937704   -1.3542802  0.075168497   -2.1937704   0.83949022   426349 
  130000   0.67606359   -2.1958871   -2.1958871   -1.3554859  0.078809322   -2.1958871   0.84040126   426349 
  131000   0.67643887   -2.1968989   -2.1968989   -1.3560311  0.075995597   -2.1968989   0.84086776   426349 
  132000   0.67648051   -2.1983918   -2.1983918   -1.3574723  0.084068466   -2.1983918   0.84091953   426349 
  133000   0.67557949   -2.1973328   -2.1973328   -1.3575333  0.080797861   -2.1973328   0.83979949   426349 
  134000    0.6775684   -2.2004365   -2.2004365   -1.3581647  0.072317234   -2.2004365   0.84227186   426349 
  135000    0.6767043   -2.2001851   -2.2001851   -1.3589874   0.08077523   -2.2001851   0.84119772   426349 
  136000   0.67622326   -2.1996983   -2.1996983   -1.3590985  0.071239527   -2.1996983   0.84059975   426349 
  137000   0.67466351   -2.1986188   -2.1986188   -1.3599579  0.075518673   -2.1986188   0.83866085   426349 
  138000   0.67545098   -2.2003355   -2.2003355   -1.3606958  0.076354019   -2.2003355   0.83963974   426349 
  139000   0.67644709   -2.2027459   -2.2027459   -1.3618679  0.083562555   -2.2027459   0.84087799   426349 
  140000   0.67536651   -2.2023847   -2.2023847     -1.36285  0.079782413   -2.2023847   0.83953473   426349 
  141000   0.67590216   -2.2044001   -2.2044001   -1.3641995   0.08561259   -2.2044001   0.84020059   426349 
  142000   0.67489226   -2.2046126   -2.2046126   -1.3656674  0.073265475   -2.2046126    0.8389452   426349 
  143000   0.67545603   -2.2066465   -2.2066465   -1.3670004  0.078571163   -2.2066465   0.83964602   426349 
  144000   0.67430351   -2.2075836   -2.2075836   -1.3693702  0.074808051   -2.2075836   0.83821334   426349 
  145000   0.67289373   -2.2066532   -2.2066532   -1.3701923  0.072776569   -2.2066532   0.83646087   426349 
  146000   0.67352687    -2.207692    -2.207692    -1.370444  0.070188485    -2.207692   0.83724792   426349 
  147000   0.67163604   -2.2067093   -2.2067093   -1.3718119  0.083664071   -2.2067093   0.83489747   426349 
  148000   0.67388226   -2.2105828   -2.2105828   -1.3728931  0.069143013   -2.2105828    0.8376897   426349 
  149000   0.67376534    -2.210273    -2.210273   -1.3727286  0.075095432    -2.210273   0.83754436   426349 
  150000   0.67372136   -2.2107887   -2.2107887    -1.373299    0.0867184   -2.2107887   0.83748969   426349 
  151000   0.67463707   -2.2119261   -2.2119261   -1.3732981  0.066499233   -2.2119261   0.83862798   426349 
  152000   0.67379282   -2.2111689   -2.2111689   -1.3735904  0.078769399   -2.2111689   0.83757851   426349 
  153000   0.67164699   -2.2104425   -2.2104425   -1.3755314  0.070476943   -2.2104425   0.83491108   426349 
  154000   0.67212597    -2.210615    -2.210615   -1.3751085  0.075350617    -2.210615   0.83550649   426349 
  155000   0.67255198   -2.2117015   -2.2117015   -1.3756654  0.072654245   -2.2117015   0.83603605   426349 
  156000   0.67037942   -2.2094259   -2.2094259   -1.3760906  0.064867727   -2.2094259   0.83333538   426349 
  157000   0.67185371   -2.2120104   -2.2120104   -1.3768423  0.080794252   -2.2120104   0.83516805   426349 
  158000   0.67132137   -2.2118966   -2.2118966   -1.3773903  0.076526898   -2.2118966    0.8345063   426349 
  159000   0.67059639   -2.2121238   -2.2121238   -1.3785187  0.084374802   -2.2121238    0.8336051   426349 
  160000   0.66966637   -2.2119711   -2.2119711   -1.3795221  0.073868032   -2.2119711   0.83244901   426349 
  161000   0.67071435   -2.2141493   -2.2141493   -1.3803976  0.070059952   -2.2141493   0.83375172   426349 
  162000   0.66805119   -2.2121434   -2.2121434   -1.3817022   0.06613897   -2.2121434   0.83044121   426349 
  163000   0.66963451    -2.214038    -2.214038   -1.3816286  0.074786498    -2.214038    0.8324094   426349 
  164000    0.6690344   -2.2137648   -2.2137648   -1.3821014  0.065435547   -2.2137648   0.83166342   426349 
  165000   0.66904099   -2.2133624   -2.2133624   -1.3816908  0.078367039   -2.2133624   0.83167161   426349 
  166000   0.66788058   -2.2123118   -2.2123118   -1.3820826  0.066625396   -2.2123118   0.83022912   426349 
  167000   0.67019611   -2.2157402   -2.2157402   -1.3826327  0.073052423   -2.2157402   0.83310751   426349 
  168000   0.66807429   -2.2132158   -2.2132158   -1.3827459  0.068725548   -2.2132158   0.83046992   426349 
  169000   0.66832985   -2.2139136   -2.2139136   -1.3831259  0.066241237   -2.2139136   0.83078761   426349 
  170000   0.66685224    -2.213321    -2.213321   -1.3843702  0.069016854    -2.213321   0.82895082   426349 
  171000   0.66801346   -2.2150851   -2.2150851   -1.3846908  0.068832595   -2.2150851   0.83039431   426349 
  172000   0.66779821   -2.2152665   -2.2152665   -1.3851398  0.073351614   -2.2152665   0.83012673   426349 
  173000   0.66732378   -2.2153772   -2.2153772   -1.3858402  0.068407143   -2.2153772   0.82953698   426349 
  174000   0.66631391     -2.21567     -2.21567   -1.3873884  0.069710878     -2.21567   0.82828162   426349 
  175000    0.6671365   -2.2165926   -2.2165926   -1.3872885  0.067234362   -2.2165926   0.82930418   426349 
  176000    0.6672945   -2.2167973   -2.2167973   -1.3872967  0.066467607   -2.2167973   0.82950058   426349 
  177000   0.66766781   -2.2174037   -2.2174037    -1.387439  0.069099257   -2.2174037   0.82996464   426349 
  178000   0.66883782   -2.2192183   -2.2192183   -1.3877992  0.078744686   -2.2192183   0.83141906   426349 
  179000   0.66772533   -2.2191236   -2.2191236   -1.3890874  0.070445116   -2.2191236   0.83003613   426349 
  180000   0.66619615   -2.2174174   -2.2174174   -1.3892822  0.066562278   -2.2174174   0.82813525   426349 
  181000    0.6668829   -2.2185783   -2.2185783   -1.3895894  0.074349827   -2.2185783   0.82898893   426349 
  182000    0.6666788   -2.2178271   -2.2178271   -1.3890919  0.069172949   -2.2178271   0.82873522   426349 
  183000   0.66741901   -2.2193538   -2.2193538   -1.3896985  0.062778062   -2.2193538   0.82965536   426349 
  184000   0.66749395    -2.219826    -2.219826   -1.3900775  0.070703593    -2.219826   0.82974851   426349 
  185000   0.66690169   -2.2202019   -2.2202019   -1.3911897  0.059941614   -2.2202019   0.82901229   426349 
  186000   0.66679577   -2.2203335   -2.2203335   -1.3914529  0.068815366   -2.2203335   0.82888062   426349 
  187000   0.66734406   -2.2216936   -2.2216936   -1.3921315  0.074689336   -2.2216936   0.82956219   426349 
  188000   0.66591917    -2.220654    -2.220654   -1.3928631  0.072084007    -2.220654   0.82779093   426349 
  189000   0.66560002   -2.2208554   -2.2208554   -1.3934612  0.082243364   -2.2208554   0.82739421   426349 
  190000    0.6658332   -2.2213887   -2.2213887   -1.3937046  0.066455599   -2.2213887   0.82768406   426349 
  191000   0.66682444   -2.2232312   -2.2232312   -1.3943149  0.072852165   -2.2232312   0.82891626   426349 
  192000   0.66742131   -2.2241211   -2.2241211   -1.3944629  0.066383111   -2.2241211   0.82965821   426349 
  193000   0.66616752   -2.2235679   -2.2235679   -1.3954682  0.076016245   -2.2235679   0.82809966   426349 
  194000   0.66621408   -2.2239661   -2.2239661   -1.3958085  0.064189533   -2.2239661   0.82815753   426349 
  195000   0.66723771    -2.226094    -2.226094   -1.3966641   0.07340362    -2.226094   0.82942998   426349 
  196000    0.6653949   -2.2240521   -2.2240521   -1.3969129  0.070571203   -2.2240521   0.82713923   426349 
  197000   0.66533817   -2.2252872   -2.2252872   -1.3982185  0.071791015   -2.2252872    0.8270687   426349 
  198000   0.66683525   -2.2279772   -2.2279772   -1.3990475  0.072543111   -2.2279772    0.8289297   426349 
  199000    0.6664131   -2.2274809   -2.2274809   -1.3990759  0.072852745   -2.2274809   0.82840493   426349 
  200000    0.6661602   -2.2279929   -2.2279929   -1.3999023   0.06844404   -2.2279929   0.82809055   426349 
  201000     0.665656   -2.2275926   -2.2275926   -1.4001288  0.080993422   -2.2275926   0.82746379   426349 
  202000   0.66564192   -2.2280347   -2.2280347   -1.4005884  0.073049838   -2.2280347   0.82744629   426349 
  203000   0.66544121   -2.2290394   -2.2290394   -1.4018426   0.06503635   -2.2290394    0.8271968   426349 
  204000    0.6659862   -2.2305579   -2.2305579   -1.4026837  0.070667148   -2.2305579   0.82787426   426349 
  205000   0.66602754   -2.2312307   -2.2312307   -1.4033051  0.066330219   -2.2312307   0.82792565   426349 
  206000   0.66575166   -2.2322268   -2.2322268   -1.4046441  0.073787522   -2.2322268    0.8275827   426349 
  207000   0.66344257   -2.2315456   -2.2315456   -1.4068333  0.066306566   -2.2315456   0.82471233   426349 
  208000   0.66485599    -2.233266    -2.233266   -1.4067967  0.080004673    -2.233266   0.82646932   426349 
  209000   0.66438386   -2.2335496   -2.2335496   -1.4076671  0.067812117   -2.2335496   0.82588242   426349 
  210000   0.66376442   -2.2340631   -2.2340631   -1.4089507   0.07662636   -2.2340631   0.82511241   426349 
  211000   0.66475365   -2.2353066   -2.2353066   -1.4089645  0.076367398   -2.2353066    0.8263421   426349 
  212000   0.66487169   -2.2354188   -2.2354188     -1.40893  0.069310391   -2.2354188   0.82648883   426349 
  213000    0.6651654   -2.2363482   -2.2363482   -1.4094943   0.07446508   -2.2363482   0.82685394   426349 
  214000   0.66503748   -2.2367494   -2.2367494   -1.4100545  0.071204241   -2.2367494   0.82669492   426349 
  215000   0.66379698   -2.2361491   -2.2361491   -1.4109962  0.072432557   -2.2361491   0.82515288   426349 
  216000   0.66377624   -2.2362298   -2.2362298   -1.4111027  0.069199988   -2.2362298   0.82512709   426349 
  217000    0.6640147   -2.2383852   -2.2383852   -1.4129617   0.06743329   -2.2383852   0.82542352   426349 
  218000   0.66274209   -2.2368029   -2.2368029   -1.4129614   0.08098807   -2.2368029   0.82384157   426349 
  219000   0.66359812   -2.2377415   -2.2377415   -1.4128358  0.069686305   -2.2377415   0.82490568   426349 
  220000   0.66138128   -2.2356548   -2.2356548   -1.4135048  0.074037596   -2.2356548   0.82214997   426349 
  221000   0.66329123   -2.2378306   -2.2378306   -1.4133064  0.067959688   -2.2378306   0.82452419   426349 
  222000   0.66232108   -2.2382223   -2.2382223   -1.4149041  0.068760047   -2.2382223   0.82331822   426349 
  223000   0.66170169   -2.2377358   -2.2377358   -1.4151876  0.067904262   -2.2377358   0.82254826   426349 
  224000   0.66265714   -2.2396954   -2.2396954   -1.4159594  0.068357152   -2.2396954   0.82373597   426349 
  225000   0.66287542   -2.2399941   -2.2399941   -1.4159868  0.066635253   -2.2399941   0.82400731   426349 
  226000    0.6623324   -2.2389929   -2.2389929   -1.4156606  0.079283835   -2.2389929   0.82333229   426349 
  227000   0.66315488   -2.2407667   -2.2407667    -1.416412  0.067573133   -2.2407667    0.8243547   426349 
  228000   0.66274113   -2.2398604   -2.2398604     -1.41602  0.060393463   -2.2398604   0.82384037   426349 
  229000   0.66114937   -2.2390602   -2.2390602   -1.4171985  0.064625716   -2.2390602    0.8218617   426349 
  230000   0.66104818   -2.2394844   -2.2394844   -1.4177485  0.057695895   -2.2394844   0.82173591   426349 
  231000   0.66205113   -2.2415311   -2.2415311   -1.4185485  0.073968421   -2.2415311   0.82298265   426349 
  232000   0.66233167   -2.2414504   -2.2414504    -1.418119  0.066662635   -2.2414504   0.82333139   426349 
  233000    0.6617466   -2.2409272   -2.2409272   -1.4183231  0.069917729   -2.2409272   0.82260409   426349 
  234000   0.66209345    -2.241542    -2.241542   -1.4185067  0.069100847    -2.241542   0.82303526   426349 
  235000   0.66100509   -2.2406168   -2.2406168   -1.4189345  0.065761552   -2.2406168   0.82168234   426349 
  236000   0.66199547   -2.2428423   -2.2428423   -1.4199288  0.066194353   -2.2428423   0.82291346   426349 
  237000   0.66326722   -2.2439404   -2.2439404   -1.4194461  0.072864436   -2.2439404   0.82449434   426349 
  238000   0.66107577   -2.2428878   -2.2428878   -1.4211176   0.07072953   -2.2428878    0.8217702   426349 
  239000   0.66075788   -2.2436652   -2.2436652   -1.4222901  0.072919373   -2.2436652   0.82137503   426349 
  240000   0.66054631   -2.2442891   -2.2442891    -1.423177  0.075007379   -2.2442891   0.82111204   426349 
  241000   0.66116321   -2.2450495   -2.2450495   -1.4231706  0.059858746   -2.2450495    0.8218789   426349 
  242000   0.66206168   -2.2459947   -2.2459947    -1.422999  0.070766393   -2.2459947   0.82299576   426349 
  243000   0.66084089   -2.2454182   -2.2454182   -1.4239399  0.069703981   -2.2454182   0.82147823   426349 
  244000   0.66182911   -2.2474517   -2.2474517    -1.424745  0.073272556   -2.2474517   0.82270666   426349 
  245000   0.66242624   -2.2489171   -2.2489171   -1.4254682  0.070415094   -2.2489171   0.82344894   426349 
  246000   0.66039317   -2.2476997   -2.2476997    -1.426778  0.065917796   -2.2476997   0.82092167   426349 
  247000   0.66077779   -2.2488728   -2.2488728    -1.427473  0.067062647   -2.2488728   0.82139979   426349 
  248000   0.66109177   -2.2493044   -2.2493044   -1.4275143   0.06953824   -2.2493044   0.82179009   426349 
  249000   0.66026071   -2.2480126   -2.2480126   -1.4272556  0.072419109   -2.2480126   0.82075701   426349 
  250000   0.66103045   -2.2493828   -2.2493828   -1.4276689  0.069681488   -2.2493828   0.82171386   426349 
  251000   0.65968337   -2.2481961   -2.2481961   -1.4281568  0.071199277   -2.2481961   0.82003933   426349 
  252000   0.66078831   -2.2495379   -2.2495379    -1.428125  0.066191553   -2.2495379   0.82141287   426349 
  253000   0.66179534   -2.2513031   -2.2513031   -1.4286385  0.061513208   -2.2513031   0.82266468   426349 
  254000   0.65941676   -2.2491051   -2.2491051   -1.4293972  0.069151096   -2.2491051   0.81970792   426349 
  255000   0.66090333   -2.2514548   -2.2514548    -1.429899  0.076426711   -2.2514548   0.82155585   426349 
  256000   0.65928753   -2.2494119   -2.2494119   -1.4298646  0.068911112   -2.2494119   0.81954728   426349 
  257000   0.65875663   -2.2496536   -2.2496536   -1.4307663  0.070935792   -2.2496536   0.81888733   426349 
  258000   0.65888594   -2.2506566   -2.2506566   -1.4316085  0.065558154   -2.2506566   0.81904807   426349 
  259000   0.65947938   -2.2501963   -2.2501963   -1.4304105  0.061608686   -2.2501963   0.81978576   426349 
  260000   0.65958366    -2.251852    -2.251852   -1.4319367  0.067490547    -2.251852   0.81991538   426349 
  261000   0.65942973   -2.2522176   -2.2522176   -1.4324936   0.06442831   -2.2522176   0.81972403   426349 
  262000   0.65805429    -2.250996    -2.250996   -1.4329818  0.064487524    -2.250996   0.81801426   426349 
  263000   0.66035156   -2.2541469   -2.2541469    -1.433277  0.073344995   -2.2541469   0.82086995   426349 
  264000    0.6592692   -2.2527758   -2.2527758   -1.4332513  0.073687477   -2.2527758   0.81952449   426349 
  265000   0.65952425    -2.254035    -2.254035   -1.4341935  0.066019415    -2.254035   0.81984153   426349 
  266000   0.65864129   -2.2541046   -2.2541046   -1.4353607  0.068710317   -2.2541046   0.81874394   426349 
  267000   0.65971385   -2.2553685   -2.2553685   -1.4352913  0.067890225   -2.2553685   0.82007722   426349 
  268000   0.65954305   -2.2553995   -2.2553995   -1.4355346  0.069242507   -2.2553995    0.8198649   426349 
  269000   0.65820168   -2.2549188   -2.2549188   -1.4367213  0.064707352   -2.2549188   0.81819748   426349 
  270000   0.65871597   -2.2555301   -2.2555301   -1.4366933  0.072060334   -2.2555301   0.81883678   426349 
  271000   0.65864892   -2.2559169   -2.2559169   -1.4371634  0.061998734   -2.2559169   0.81875344   426349 
  272000    0.6583823   -2.2557583   -2.2557583   -1.4373363  0.068610618   -2.2557583     0.818422   426349 
  273000   0.65816223   -2.2555953   -2.2555953   -1.4374468  0.079893594   -2.2555953   0.81814844   426349 
  274000   0.65863642   -2.2569922   -2.2569922   -1.4382543  0.066710383   -2.2569922   0.81873789   426349 
  275000   0.65939031   -2.2580897   -2.2580897   -1.4384147  0.072437851   -2.2580897   0.81967503   426349 
  276000   0.65832371   -2.2576152   -2.2576152   -1.4392661  0.067540289   -2.2576152   0.81834916   426349 
  277000   0.65755821   -2.2577888   -2.2577888   -1.4403912  0.063321943   -2.2577888   0.81739759   426349 
  278000   0.65662655    -2.257964    -2.257964   -1.4417245   0.06141777    -2.257964   0.81623946   426349 
  279000    0.6581683   -2.2595149   -2.2595149   -1.4413589  0.062105412   -2.2595149   0.81815598   426349 
  280000   0.65694209   -2.2581176   -2.2581176   -1.4414859  0.078938017   -2.2581176    0.8166317   426349 
  281000   0.65751831   -2.2591111   -2.2591111   -1.4417631  0.068934592   -2.2591111   0.81734799   426349 
  282000   0.65630483   -2.2593982   -2.2593982   -1.4435586   0.05374688   -2.2593982   0.81583954   426349 
  283000   0.65689182   -2.2598755   -2.2598755   -1.4433062  0.054567173   -2.2598755   0.81656922   426349 
  284000   0.65745632   -2.2611253   -2.2611253   -1.4438544  0.066556893   -2.2611253   0.81727094   426349 
  285000   0.65762119   -2.2607491   -2.2607491   -1.4432732  0.058032981   -2.2607491   0.81747588   426349 
  286000   0.65828416   -2.2619362   -2.2619362   -1.4436362  0.063254594   -2.2619362       0.8183   426349 
  287000   0.65787162   -2.2617709   -2.2617709   -1.4439837  0.066719508   -2.2617709   0.81778718   426349 
  288000   0.65630279   -2.2604844   -2.2604844   -1.4446474  0.073158714   -2.2604844   0.81583701   426349 
  289000   0.65733692   -2.2619394   -2.2619394   -1.4448169  0.058830894   -2.2619394   0.81712251   426349 
  290000   0.65782168   -2.2619831   -2.2619831    -1.444258  0.064402838   -2.2619831    0.8177251   426349 
  291000   0.65675959   -2.2610982   -2.2610982   -1.4446933  0.070361421   -2.2610982   0.81640484   426349 
  292000   0.65694507   -2.2624129   -2.2624129   -1.4457775  0.064121647   -2.2624129   0.81663541   426349 
  293000   0.65622115   -2.2612578   -2.2612578   -1.4455223   0.07419014   -2.2612578   0.81573551   426349 
  294000   0.65608316   -2.2615648   -2.2615648   -1.4460009  0.068243712   -2.2615648   0.81556399   426349 
  295000   0.65623417   -2.2621889   -2.2621889   -1.4464372  0.069077457   -2.2621889    0.8157517   426349 
  296000   0.65650609    -2.262885    -2.262885   -1.4467953  0.058336802    -2.262885   0.81608972   426349 
  297000   0.65594911   -2.2631528   -2.2631528   -1.4477555   0.07021037   -2.2631528   0.81539735   426349 
  298000   0.65643264     -2.26455     -2.26455   -1.4485516  0.057776424     -2.26455   0.81599842   426349 
  299000   0.65568613   -2.2639428   -2.2639428   -1.4488723  0.065561499   -2.2639428   0.81507045   426349 
  300000   0.65718203   -2.2668476   -2.2668476   -1.4499176  0.069356028   -2.2668476   0.81692997   426349 
  301000   0.65561345   -2.2652358   -2.2652358   -1.4502557  0.065342368   -2.2652358   0.81498009   426349 
  302000   0.65653198   -2.2672269   -2.2672269    -1.451105  0.067114025   -2.2672269   0.81612191   426349 
  303000   0.65624011   -2.2677127   -2.2677127   -1.4519536  0.060853842   -2.2677127   0.81575909   426349 
  304000   0.65675662    -2.269672    -2.269672   -1.4532709  0.057378072    -2.269672   0.81640115   426349 
  305000   0.65526374    -2.268252    -2.268252   -1.4537067  0.067351304    -2.268252   0.81454538   426349 
  306000   0.65484948   -2.2683358   -2.2683358   -1.4543054  0.067341109   -2.2683358   0.81403042   426349 
  307000   0.65509627   -2.2693971   -2.2693971   -1.4550599  0.073685147   -2.2693971    0.8143372   426349 
  308000    0.6557347   -2.2704478   -2.2704478    -1.455317  0.067906979   -2.2704478   0.81513083   426349 
  309000   0.65592284   -2.2699493   -2.2699493   -1.4545846  0.066674813   -2.2699493    0.8153647   426349 
  310000   0.65567754   -2.2713018   -2.2713018   -1.4562421  0.073670415   -2.2713018   0.81505977   426349 
  311000   0.65551222   -2.2720731   -2.2720731   -1.4572188  0.074543639   -2.2720731   0.81485426   426349 
  312000   0.65448714   -2.2715483   -2.2715483   -1.4579683  0.066895979   -2.2715483   0.81358001   426349 
  313000   0.65623496   -2.2737761   -2.2737761   -1.4580235  0.071012595   -2.2737761   0.81575268   426349 
  314000   0.65520335    -2.272177    -2.272177   -1.4577067  0.061523685    -2.272177   0.81447031   426349 
  315000   0.65507704    -2.272387    -2.272387   -1.4580737   0.06397818    -2.272387    0.8143133   426349 
  316000    0.6531727   -2.2704585   -2.2704585   -1.4585125  0.061233489   -2.2704585   0.81194606   426349 
  317000    0.6543254   -2.2729795   -2.2729795   -1.4596005  0.052010354   -2.2729795   0.81337894   426349 
  318000   0.65335803   -2.2719173   -2.2719173   -1.4597409  0.062682671   -2.2719173   0.81217643   426349 
  319000    0.6541384    -2.273779    -2.273779   -1.4606326   0.05377265    -2.273779   0.81314649   426349 
  320000    0.6526097   -2.2730587   -2.2730587   -1.4618125  0.066087519   -2.2730587    0.8112462   426349 
  321000   0.65408392   -2.2746108   -2.2746108    -1.461532   0.07570384   -2.2746108   0.81307877   426349 
  322000   0.65490881    -2.275711    -2.275711   -1.4616068  0.073960349    -2.275711   0.81410417   426349 
  323000   0.65450971   -2.2756487   -2.2756487   -1.4620406  0.075800705   -2.2756487   0.81360806   426349 
  324000   0.65472536   -2.2766694   -2.2766694   -1.4627932  0.066954102   -2.2766694   0.81387614   426349 
  325000   0.65362829   -2.2760094   -2.2760094    -1.463497  0.071512323   -2.2760094   0.81251239   426349 
  326000   0.65443227   -2.2766939   -2.2766939   -1.4631821  0.064488201   -2.2766939    0.8135118   426349 
  327000   0.65475979   -2.2780413   -2.2780413   -1.4641223   0.06705348   -2.2780413   0.81391893   426349 
  328000   0.65383458   -2.2773728   -2.2773728    -1.464604  0.066387463   -2.2773728   0.81276882   426349 
  329000   0.65414042   -2.2784929   -2.2784929   -1.4653439  0.067114352   -2.2784929     0.813149   426349 
  330000   0.65306541    -2.277201    -2.277201   -1.4653883   0.06195236    -2.277201   0.81181268   426349 
  331000   0.65486686   -2.2792721   -2.2792721     -1.46522  0.061838203   -2.2792721   0.81405203   426349 
  332000    0.6532606   -2.2777198   -2.2777198   -1.4656645  0.066073131   -2.2777198   0.81205531   426349 
  333000    0.6531566    -2.277913    -2.277913    -1.465987  0.060694115    -2.277913   0.81192604   426349 
  334000   0.65440398   -2.2786487   -2.2786487   -1.4651721  0.071581545   -2.2786487   0.81347663   426349 
  335000   0.65361907   -2.2778653   -2.2778653   -1.4653643  0.059712939   -2.2778653   0.81250092   426349 
  336000   0.65354653   -2.2787752   -2.2787752   -1.4663644  0.060430359   -2.2787752   0.81241075   426349 
  337000   0.65340651   -2.2794617   -2.2794617    -1.467225  0.056722559   -2.2794617    0.8122367   426349 
  338000   0.65308453   -2.2788271   -2.2788271   -1.4669907  0.065791505   -2.2788271   0.81183644   426349 
  339000   0.65265361   -2.2778631   -2.2778631   -1.4665623  0.059130375   -2.2778631   0.81130078   426349 
  340000   0.65317756   -2.2791428   -2.2791428   -1.4671907  0.069989031   -2.2791428   0.81195209   426349 
  341000   0.65249407   -2.2789815   -2.2789815   -1.4678791   0.06498797   -2.2789815   0.81110246   426349 
  342000    0.6519744   -2.2787563   -2.2787563   -1.4682999  0.065045501   -2.2787563   0.81045646   426349 
  343000   0.65220648   -2.2793764   -2.2793764   -1.4686315  0.065369186   -2.2793764   0.81074496   426349 
  344000   0.65367367   -2.2806908   -2.2806908    -1.468122  0.065052681   -2.2806908    0.8125688   426349 
  345000    0.6529195   -2.2806515   -2.2806515   -1.4690202  0.066184852   -2.2806515   0.81163131   426349 
  346000   0.65186777   -2.2803666   -2.2803666   -1.4700426  0.074787121   -2.2803666   0.81032392   426349 
  347000   0.65190635   -2.2804594   -2.2804594   -1.4700875  0.059228363   -2.2804594   0.81037187   426349 
  348000   0.65270592   -2.2824336   -2.2824336   -1.4710678  0.059033376   -2.2824336   0.81136581   426349 
  349000   0.65221456   -2.2819271   -2.2819271   -1.4711721  0.053893253   -2.2819271     0.810755   426349 
  350000   0.65316076    -2.283474    -2.283474   -1.4715428  0.066038893    -2.283474   0.81193121   426349 
  351000   0.65293146   -2.2828678   -2.2828678   -1.4712217  0.071918354   -2.2828678   0.81164617   426349 
  352000   0.65145039   -2.2810916   -2.2810916   -1.4712865  0.057071095   -2.2810916   0.80980508   426349 
  353000   0.65340313   -2.2838867   -2.2838867   -1.4716542  0.052359614   -2.2838867   0.81223249   426349 
  354000   0.65138398   -2.2819481   -2.2819481   -1.4722255  0.078680821   -2.2819481   0.80972253   426349 
  355000   0.65249065   -2.2836272   -2.2836272    -1.472529  0.063779766   -2.2836272   0.81109821   426349 
  356000   0.65302016   -2.2851185   -2.2851185   -1.4733621  0.066330881   -2.2851185   0.81175643   426349 
  357000   0.65215583   -2.2840309   -2.2840309   -1.4733489  0.059337996   -2.2840309     0.810682   426349 
  358000   0.65303827   -2.2854662   -2.2854662   -1.4736872  0.061442459   -2.2854662   0.81177895   426349 
  359000    0.6526324   -2.2846198   -2.2846198   -1.4733454  0.076066854   -2.2846198   0.81127442   426349 
  360000   0.65310307   -2.2858039   -2.2858039   -1.4739444   0.06508089   -2.2858039   0.81185949   426349 
  361000   0.65108115   -2.2846868   -2.2846868   -1.4753407  0.061481524   -2.2846868   0.80934608   426349 
  362000   0.65223215   -2.2862877   -2.2862877   -1.4755108  0.063269745   -2.2862877   0.81077687   426349 
  363000   0.65041837   -2.2843006   -2.2843006   -1.4757784  0.064796237   -2.2843006   0.80852219   426349 
  364000   0.65107438   -2.2850255   -2.2850255   -1.4756878  0.067368086   -2.2850255   0.80933767   426349 
  365000   0.65188082   -2.2866661   -2.2866661    -1.476326  0.066446405   -2.2866661   0.81034014   426349 
  366000   0.65173169   -2.2863903   -2.2863903   -1.4762355  0.072671675   -2.2863903   0.81015476   426349 
  367000   0.65223681   -2.2859415   -2.2859415   -1.4751589  0.074463935   -2.2859415   0.81078266   426349 
  368000   0.65344567   -2.2886278   -2.2886278   -1.4763425  0.062696199   -2.2886278   0.81228537   426349 
  369000   0.65289448   -2.2879867   -2.2879867   -1.4763865  0.066103652   -2.2879867    0.8116002   426349 
  370000   0.65251396   -2.2886902   -2.2886902    -1.477563  0.069760477   -2.2886902   0.81112718   426349 
  371000   0.65159282   -2.2881336   -2.2881336   -1.4781514  0.061719291   -2.2881336   0.80998213   426349 
  372000   0.65317555   -2.2902014   -2.2902014   -1.4782518  0.055863465   -2.2902014   0.81194959   426349 
  373000   0.65188308   -2.2894188   -2.2894188   -1.4790759  0.069859283   -2.2894188   0.81034295   426349 
  374000   0.65117771   -2.2893263   -2.2893263   -1.4798602  0.067561715   -2.2893263   0.80946611   426349 
  375000   0.65176151   -2.2899472   -2.2899472   -1.4797553  0.069076813   -2.2899472   0.81019183   426349 
  376000   0.65123132   -2.2891711   -2.2891711   -1.4796383  0.057248604   -2.2891711   0.80953276   426349 
  377000   0.65138655   -2.2907923   -2.2907923   -1.4810666  0.063771604   -2.2907923   0.80972572   426349 
  378000   0.65018941     -2.28967     -2.28967   -1.4814324  0.065598557     -2.28967   0.80823758   426349 
  379000   0.65028968   -2.2896433   -2.2896433    -1.481281   0.06847162   -2.2896433   0.80836222   426349 
  380000   0.65022252   -2.2906626   -2.2906626   -1.4823838  0.063066787   -2.2906626   0.80827874   426349 
  381000   0.65030285   -2.2909447   -2.2909447   -1.4825661  0.059350194   -2.2909447    0.8083786   426349 
  382000   0.65084527   -2.2913275   -2.2913275   -1.4822746  0.058490185   -2.2913275   0.80905287   426349 
  383000   0.65110199   -2.2921017   -2.2921017   -1.4827297  0.059111278   -2.2921017   0.80937199   426349 
  384000   0.65060447    -2.291993    -2.291993   -1.4832395  0.066751301    -2.291993   0.80875353   426349 
  385000   0.64967107   -2.2912555   -2.2912555   -1.4836622  0.058068412   -2.2912555   0.80759325   426349 
  386000   0.64990943     -2.29157     -2.29157   -1.4836804  0.055324325     -2.29157   0.80788955   426349 
  387000   0.64994442    -2.292208    -2.292208    -1.484275  0.067594109    -2.292208   0.80793305   426349 
  388000   0.64900543   -2.2907464   -2.2907464   -1.4839806  0.067411174   -2.2907464   0.80676579   426349 
  389000   0.65138826   -2.2935376   -2.2935376   -1.4838097  0.059385466   -2.2935376   0.80972785   426349 
  390000   0.65099554   -2.2930351   -2.2930351   -1.4837954  0.054031678   -2.2930351   0.80923966   426349 
  391000   0.65142191   -2.2944604   -2.2944604   -1.4846907  0.061369411   -2.2944604   0.80976968   426349 
  392000   0.65000485   -2.2930285   -2.2930285   -1.4850203   0.07157206   -2.2930285   0.80800816   426349 
  393000   0.65096113   -2.2947532   -2.2947532   -1.4855563  0.063463549   -2.2947532   0.80919689   426349 
  394000   0.65110243    -2.294083    -2.294083   -1.4847105  0.068482087    -2.294083   0.80937254   426349 
  395000   0.65005557   -2.2929976   -2.2929976   -1.4849264   0.06282047   -2.2929976   0.80807121   426349 
  396000   0.65001168   -2.2933918   -2.2933918   -1.4853751  0.060187954   -2.2933918   0.80801665   426349 
  397000   0.65009488   -2.2932572   -2.2932572   -1.4851372  0.054569659   -2.2932572   0.80812007   426349 
  398000   0.65021115   -2.2929529   -2.2929529   -1.4846883  0.069028566   -2.2929529   0.80826461   426349 
  399000   0.65092902   -2.2946059   -2.2946059   -1.4854489  0.068557868   -2.2946059   0.80915697   426349 
  400000   0.65078855   -2.2944942   -2.2944942   -1.4855118  0.058738325   -2.2944942   0.80898236   426349 
  401000   0.64849028   -2.2927671   -2.2927671   -1.4866417  0.064822763   -2.2927671   0.80612543   426349 
  402000   0.64926791   -2.2942277   -2.2942277   -1.4871356  0.066702776   -2.2942277   0.80709208   426349 
  403000   0.64919982   -2.2945685   -2.2945685   -1.4875611  0.065272219   -2.2945685   0.80700744   426349 
  404000    0.6487108   -2.2936766   -2.2936766   -1.4872771  0.061010581   -2.2936766   0.80639954   426349 
  405000   0.65062433   -2.2959835   -2.2959835   -1.4872053  0.070787489   -2.2959835   0.80877822   426349 
  406000   0.64950202   -2.2950797   -2.2950797   -1.4876966  0.064059352   -2.2950797    0.8073831   426349 
  407000   0.64903309   -2.2950365   -2.2950365   -1.4882363  0.057006709   -2.2950365   0.80680019   426349 
  408000   0.64932269   -2.2961799   -2.2961799   -1.4890198  0.057680707   -2.2961799   0.80716018   426349 
  409000   0.64935907   -2.2969804   -2.2969804    -1.489775  0.070369369   -2.2969804    0.8072054   426349 
  410000   0.64913662   -2.2973873   -2.2973873   -1.4904584  0.062187464   -2.2973873   0.80692888   426349 
  411000   0.64770792   -2.2966206   -2.2966206   -1.4914678  0.072899062   -2.2966206   0.80515289   426349 
  412000   0.64855613   -2.2976955   -2.2976955   -1.4914882  0.058352892   -2.2976955   0.80620728   426349 
  413000   0.64917769   -2.2983423   -2.2983423   -1.4913623  0.053344404   -2.2983423   0.80697993   426349 
  414000   0.64834916   -2.2984989   -2.2984989   -1.4925489  0.059987262   -2.2984989      0.80595   426349 
  415000     0.647935   -2.2992273   -2.2992273   -1.4937921  0.070518031   -2.2992273   0.80543517   426349 
  416000   0.64974256   -2.3018527   -2.3018527   -1.4941706   0.06049293   -2.3018527   0.80768211   426349 
  417000   0.64765387   -2.2998149   -2.2998149   -1.4947292  0.059062344   -2.2998149    0.8050857   426349 
  418000   0.64836876   -2.3001322   -2.3001322   -1.4941578  0.054012544   -2.3001322   0.80597437   426349 
  419000   0.64876704   -2.3011066   -2.3011066   -1.4946372  0.064130639   -2.3011066   0.80646946   426349 
  420000   0.64866521   -2.3003507   -2.3003507   -1.4940078  0.064509224   -2.3003507   0.80634288   426349 
  421000   0.64819127   -2.3005965   -2.3005965   -1.4948427  0.067901331   -2.3005965   0.80575374   426349 
  422000   0.64862917   -2.3016928   -2.3016928   -1.4953947  0.058822743   -2.3016928   0.80629808   426349 
  423000   0.64793691   -2.3015465   -2.3015465   -1.4961089  0.059571483   -2.3015465   0.80543754   426349 
  424000     0.649004   -2.3034528   -2.3034528   -1.4966888   0.07481916   -2.3034528   0.80676403   426349 
  425000   0.64885967   -2.3034002   -2.3034002   -1.4968156  0.063333432   -2.3034002   0.80658461   426349 
  426000   0.64653961   -2.3004112   -2.3004112   -1.4967106  0.060910346   -2.3004112   0.80370059   426349 
  427000   0.64721562   -2.3017341   -2.3017341   -1.4971932  0.068035773   -2.3017341   0.80454092   426349 
  428000   0.64804491   -2.3027865   -2.3027865   -1.4972147  0.069897219   -2.3027865    0.8055718   426349 
  429000   0.64642303   -2.3007947   -2.3007947    -1.497239  0.067985385   -2.3007947   0.80355567   426349 
  430000   0.64783852    -2.302918    -2.302918   -1.4976027  0.067809278    -2.302918   0.80531524   426349 
  431000   0.64759089    -2.303272    -2.303272   -1.4982646  0.066407295    -2.303272   0.80500742   426349 
  432000   0.64817102   -2.3038325   -2.3038325    -1.498104  0.068537149   -2.3038325   0.80572855   426349 
  433000   0.64823738   -2.3050103   -2.3050103   -1.4991992  0.062839961   -2.3050103   0.80581105   426349 
  434000   0.64704193   -2.3043834   -2.3043834   -1.5000584  0.063142352   -2.3043834   0.80432502   426349 
  435000   0.64733513   -2.3047406   -2.3047406   -1.5000511  0.069187738   -2.3047406   0.80468948   426349 
  436000   0.64626981   -2.3049719   -2.3049719   -1.5016067   0.06307855   -2.3049719    0.8033652   426349 
  437000   0.64652699   -2.3049517   -2.3049517   -1.5012668  0.061614263   -2.3049517    0.8036849   426349 
  438000   0.64566386   -2.3043797   -2.3043797   -1.5017678  0.061194888   -2.3043797   0.80261196   426349 
  439000   0.64675383   -2.3058678   -2.3058678   -1.5019009  0.065938192   -2.3058678   0.80396688   426349 
  440000   0.64573968   -2.3045695   -2.3045695   -1.5018633  0.055225877   -2.3045695   0.80270621   426349 
  441000   0.64687626    -2.306458    -2.306458    -1.502339  0.051789288    -2.306458   0.80411907   426349 
  442000   0.64647672   -2.3061404   -2.3061404   -1.5025179  0.065259008   -2.3061404   0.80362241   426349 
  443000   0.64683336   -2.3067018   -2.3067018    -1.502636  0.066012083   -2.3067018   0.80406574   426349 
  444000    0.6462417   -2.3056235   -2.3056235   -1.5022932  0.063752181   -2.3056235   0.80333026   426349 
  445000   0.64859995   -2.3082795   -2.3082795   -1.5020177  0.062354652   -2.3082795   0.80626175   426349 
  446000   0.64855464   -2.3085942   -2.3085942   -1.5023888  0.062291597   -2.3085942   0.80620543   426349 
  447000   0.64688334   -2.3075904   -2.3075904   -1.5034626  0.050429594   -2.3075904   0.80412787   426349 
  448000   0.64702204   -2.3081357   -2.3081357   -1.5038354  0.060958576   -2.3081357   0.80430029   426349 
  449000   0.64652256   -2.3083312   -2.3083312   -1.5046518  0.054618445   -2.3083312    0.8036794   426349 
  450000   0.64626027   -2.3072885   -2.3072885   -1.5039351  0.054471424   -2.3072885   0.80335335   426349 
  451000   0.64828462   -2.3106169   -2.3106169   -1.5047472   0.05787202   -2.3106169   0.80586978   426349 
  452000   0.64665684   -2.3085721   -2.3085721   -1.5047258  0.063374426   -2.3085721   0.80384631   426349 
  453000   0.64620816   -2.3080926   -2.3080926    -1.504804  0.053147873   -2.3080926   0.80328857   426349 
  454000   0.64671655   -2.3098218   -2.3098218   -1.5059012  0.061091109   -2.3098218   0.80392054   426349 
  455000   0.64674573    -2.309166    -2.309166   -1.5052092  0.065205045    -2.309166   0.80395681   426349 
  456000   0.64686913   -2.3096924   -2.3096924   -1.5055822  0.061718537   -2.3096924    0.8041102   426349 
  457000   0.64636852   -2.3104036   -2.3104036   -1.5069157  0.062873331   -2.3104036   0.80348791   426349 
  458000   0.64655021   -2.3103972   -2.3103972   -1.5066835  0.053013863   -2.3103972   0.80371376   426349 
  459000   0.64736102   -2.3120425   -2.3120425   -1.5073208  0.059899275   -2.3120425   0.80472166   426349 
  460000   0.64630815   -2.3114514   -2.3114514   -1.5080385  0.058810224   -2.3114514   0.80341286   426349 
  461000   0.64723282   -2.3123096   -2.3123096   -1.5077473  0.055367209   -2.3123096   0.80456231   426349 
  462000   0.64596267   -2.3118366   -2.3118366   -1.5088532  0.047497003   -2.3118366   0.80298341   426349 
  463000   0.64628061   -2.3127271   -2.3127271   -1.5093485  0.054965452   -2.3127271   0.80337863   426349 
  464000   0.64630188   -2.3141369   -2.3141369   -1.5107318  0.066870483   -2.3141369   0.80340506   426349 
  465000   0.64671354    -2.314871    -2.314871   -1.5109542  0.072728288    -2.314871   0.80391679   426349 
  466000   0.64577333   -2.3140427   -2.3140427   -1.5112946  0.056431859   -2.3140427   0.80274804   426349 
  467000   0.64643041   -2.3139419   -2.3139419   -1.5103771  0.069868805   -2.3139419   0.80356484   426349 
  468000   0.64604326   -2.3133775   -2.3133775   -1.5102939  0.058957523   -2.3133775   0.80308359   426349 
  469000   0.64552505   -2.3135231   -2.3135231   -1.5110837   0.06075697   -2.3135231    0.8024394   426349 
  470000   0.64621463   -2.3153937   -2.3153937   -1.5120971  0.059608362   -2.3153937   0.80329661   426349 
  471000   0.64665355   -2.3163821   -2.3163821   -1.5125398  0.070872739   -2.3163821   0.80384222   426349 
  472000   0.64435718   -2.3133919   -2.3133919   -1.5124043  0.065258306   -2.3133919   0.80098765   426349 
  473000   0.64510037   -2.3146671   -2.3146671   -1.5127556  0.068133884   -2.3146671   0.80191149   426349 
  474000    0.6461964   -2.3164022   -2.3164022   -1.5131282  0.064971367   -2.3164022   0.80327395   426349 
  475000   0.64647391   -2.3163492   -2.3163492   -1.5127303  0.068487356   -2.3163492   0.80361892   426349 
  476000   0.64533706   -2.3154864   -2.3154864   -1.5132806  0.058519817   -2.3154864   0.80220572   426349 
  477000   0.64604437   -2.3162837   -2.3162837   -1.5131987  0.065128423   -2.3162837   0.80308496   426349 
  478000   0.64626483   -2.3162073   -2.3162073   -1.5128483  0.071938497   -2.3162073   0.80335901   426349 
  479000   0.64441051   -2.3144253   -2.3144253   -1.5133713  0.061994508   -2.3144253   0.80105395   426349 
  480000   0.64385871   -2.3138075   -2.3138075   -1.5134395  0.061171739   -2.3138075   0.80036801   426349 
  481000   0.64543531   -2.3155947   -2.3155947   -1.5132668  0.062760673   -2.3155947   0.80232785   426349 
  482000   0.64495312   -2.3153874   -2.3153874    -1.513659  0.061223119   -2.3153874   0.80172845   426349 
  483000   0.64499397   -2.3161416   -2.3161416   -1.5143623  0.060070408   -2.3161416   0.80177923   426349 
  484000   0.64510495   -2.3163044   -2.3163044   -1.5143872  0.053893663   -2.3163044    0.8019172   426349 
  485000   0.64494072   -2.3162378   -2.3162378   -1.5145247  0.065295097   -2.3162378   0.80171304   426349 
  486000   0.64549369   -2.3169567   -2.3169567   -1.5145563   0.06197869   -2.3169567   0.80240043   426349 
  487000   0.64419361   -2.3158406   -2.3158406   -1.5150563  0.063685173   -2.3158406   0.80078432   426349 
  488000   0.64524048   -2.3178599   -2.3178599   -1.5157742  0.052005918   -2.3178599   0.80208566   426349 
  489000   0.64506607   -2.3184639   -2.3184639    -1.516595  0.051772821   -2.3184639   0.80186886   426349 
  490000   0.64433041   -2.3180895   -2.3180895   -1.5171351  0.053327074   -2.3180895   0.80095438   426349 
  491000   0.64400309    -2.318001    -2.318001   -1.5174535  0.058042509    -2.318001   0.80054749   426349 
  492000   0.64490685   -2.3184301   -2.3184301   -1.5167592  0.060174501   -2.3184301   0.80167093   426349 
  493000   0.64536539   -2.3200952   -2.3200952   -1.5178542  0.054445614   -2.3200952   0.80224094   426349 
  494000   0.64549877   -2.3215301   -2.3215301   -1.5191234  0.060910864   -2.3215301   0.80240673   426349 
  495000   0.64380749   -2.3199476   -2.3199476   -1.5196433  0.055857307   -2.3199476   0.80030434   426349 
  496000   0.64507653    -2.321098    -2.321098   -1.5192162  0.065016403    -2.321098   0.80188186   426349 
  497000   0.64484532   -2.3207189   -2.3207189   -1.5191244  0.052551533   -2.3207189   0.80159445   426349 
  498000   0.64338953   -2.3200784   -2.3200784   -1.5202936  0.054358952   -2.3200784   0.79978479   426349 
  499000   0.64589173   -2.3220502   -2.3220502    -1.519155  0.063896422   -2.3220502   0.80289523   426349 
  500000   0.64407936   -2.3203389   -2.3203389   -1.5196966  0.060163213   -2.3203389    0.8006423   426349 
  501000   0.64467228   -2.3210438   -2.3210438   -1.5196645  0.057735912   -2.3210438   0.80137935   426349 
  502000   0.64477601    -2.321612    -2.321612   -1.5201037  0.063947043    -2.321612    0.8015083   426349 
  503000   0.64314042   -2.3202584   -2.3202584   -1.5207833  0.065891703   -2.3202584   0.79947512   426349 
  504000   0.64247671   -2.3198249   -2.3198249   -1.5211748  0.057942666   -2.3198249   0.79865008   426349 
  505000   0.64301951   -2.3204123   -2.3204123   -1.5210875   0.05721926   -2.3204123   0.79932482   426349 
  506000   0.64430366   -2.3237749   -2.3237749   -1.5228537  0.052640514   -2.3237749   0.80092112   426349 
  507000    0.6443522   -2.3235312   -2.3235312   -1.5225498  0.054594344   -2.3235312   0.80098146   426349 
  508000   0.64305752   -2.3216943   -2.3216943   -1.5223223   0.06303372   -2.3216943   0.79937207   426349 
  509000    0.6440856   -2.3235096   -2.3235096   -1.5228595  0.052318294   -2.3235096   0.80065006   426349 
  510000   0.64492041   -2.3250339   -2.3250339   -1.5233461  0.065305368   -2.3250339    0.8016878   426349 
  511000   0.64314953   -2.3232733   -2.3232733   -1.5237868  0.057445032   -2.3232733   0.79948644   426349 
  512000   0.64411651   -2.3248179   -2.3248179   -1.5241294   0.06054725   -2.3248179   0.80068848   426349 
  513000   0.64342409   -2.3240108   -2.3240108    -1.524183  0.062448539   -2.3240108   0.79982774   426349 
  514000   0.64401036   -2.3249164   -2.3249164   -1.5243598  0.064245594   -2.3249164   0.80055653   426349 
  515000   0.64466782   -2.3252765   -2.3252765   -1.5239027  0.068494109   -2.3252765    0.8013738   426349 
  516000   0.64518582   -2.3252922   -2.3252922   -1.5232745  0.059982079   -2.3252922   0.80201772   426349 
  517000   0.64421417   -2.3249709   -2.3249709    -1.524161  0.070313316   -2.3249709   0.80080988   426349 
  518000   0.64399467     -2.32573     -2.32573   -1.5251929  0.061350171     -2.32573   0.80053702   426349 
  519000   0.64332676   -2.3261076   -2.3261076   -1.5264009  0.070485807   -2.3261076   0.79970675   426349 
  520000   0.64358519   -2.3265259   -2.3265259   -1.5264979  0.057676295   -2.3265259     0.800028   426349 
  521000   0.64299345    -2.325395    -2.325395   -1.5261026  0.066868446    -2.325395   0.79929242   426349 
  522000   0.64393799   -2.3263412   -2.3263412   -1.5258747  0.057643582   -2.3263412   0.80046657   426349 
  523000   0.64270818   -2.3253776   -2.3253776   -1.5264398  0.046134414   -2.3253776   0.79893781   426349 
  524000   0.64361944   -2.3264883   -2.3264883   -1.5264177  0.055626741   -2.3264883   0.80007058   426349 
  525000   0.64320825   -2.3265306   -2.3265306   -1.5269711  0.068105985   -2.3265306   0.79955944   426349 
  526000    0.6433704   -2.3268434   -2.3268434   -1.5270824  0.059686724   -2.3268434     0.799761   426349 
  527000   0.64317083   -2.3267447   -2.3267447   -1.5272318  0.053485356   -2.3267447   0.79951292   426349 
  528000   0.64400081   -2.3275583   -2.3275583   -1.5270136  0.062688798   -2.3275583   0.80054465   426349 
  529000   0.64436112   -2.3279645   -2.3279645   -1.5269719  0.057830748   -2.3279645   0.80099255   426349 
  530000   0.64249864   -2.3260555   -2.3260555   -1.5273782  0.067176943   -2.3260555   0.79867734   426349 
  531000   0.64426442   -2.3281565   -2.3281565   -1.5272841  0.063466384   -2.3281565   0.80087234   426349 
  532000   0.64295763    -2.327438    -2.327438   -1.5281901  0.055848281    -2.327438    0.7992479   426349 
  533000   0.64262544   -2.3264941   -2.3264941   -1.5276591   0.05585199   -2.3264941   0.79883496   426349 
  534000   0.64361441   -2.3272682   -2.3272682   -1.5272039  0.064539267   -2.3272682   0.80006433   426349 
  535000     0.644086   -2.3278198   -2.3278198   -1.5271692  0.058782016   -2.3278198   0.80065055   426349 
  536000   0.64429847   -2.3284417   -2.3284417    -1.527527  0.063819645   -2.3284417   0.80091467   426349 
  537000   0.64316884   -2.3274204   -2.3274204   -1.5279099  0.052205806   -2.3274204   0.79951046   426349 
  538000   0.64320757   -2.3288681   -2.3288681   -1.5293095  0.065188445   -2.3288681    0.7995586   426349 
  539000   0.64233711   -2.3278684   -2.3278684   -1.5293919  0.062281552   -2.3278684   0.79847655   426349 
  540000   0.64334167   -2.3297651   -2.3297651   -1.5300398   0.05588385   -2.3297651   0.79972529   426349 
  541000      0.64254   -2.3291675   -2.3291675   -1.5304387  0.070246295   -2.3291675   0.79872875   426349 
  542000   0.64284987   -2.3299593   -2.3299593   -1.5308453  0.056607608   -2.3299593   0.79911395   426349 
  543000    0.6427003   -2.3297925   -2.3297925   -1.5308644   0.05800781   -2.3297925   0.79892802   426349 
  544000   0.64330673   -2.3304307   -2.3304307   -1.5307488  0.059680768   -2.3304307   0.79968186   426349 
  545000   0.64300578   -2.3303372   -2.3303372   -1.5310295  0.063970626   -2.3303372   0.79930775   426349 
  546000   0.64198364   -2.3303864   -2.3303864   -1.5323492  0.063913223   -2.3303864   0.79803715   426349 
  547000   0.64145504   -2.3299277   -2.3299277   -1.5325476  0.051966662   -2.3299277   0.79738006   426349 
  548000    0.6414586    -2.330488    -2.330488   -1.5331035  0.061176466    -2.330488   0.79738448   426349 
  549000   0.64126325   -2.3303349   -2.3303349   -1.5331933  0.060492322   -2.3303349   0.79714165   426349 
  550000   0.64293662   -2.3327307   -2.3327307    -1.533509  0.061156862   -2.3327307   0.79922178   426349 
  551000   0.64309311   -2.3320196   -2.3320196   -1.5326033   0.06781194   -2.3320196   0.79941632   426349 
  552000   0.64203663   -2.3318739   -2.3318739   -1.5337708  0.059293648   -2.3318739   0.79810303   426349 
  553000    0.6429803     -2.33353     -2.33353   -1.5342539  0.057895354     -2.33353   0.79927608   426349 
  554000   0.64427901   -2.3358611   -2.3358611   -1.5349706  0.060977837   -2.3358611   0.80089049   426349 
  555000   0.64287665   -2.3346281   -2.3346281   -1.5354808  0.054489164   -2.3346281   0.79914723   426349 
  556000    0.6424577   -2.3343851   -2.3343851   -1.5357586  0.063248378   -2.3343851   0.79862644   426349 
  557000   0.64291452   -2.3352174   -2.3352174   -1.5360231  0.057977621   -2.3352174   0.79919431   426349 
  558000   0.64264281   -2.3358402   -2.3358402   -1.5369837  0.072519293   -2.3358402   0.79885656   426349 
  559000   0.64227264   -2.3352716   -2.3352716   -1.5368752  0.059175228   -2.3352716    0.7983964   426349 
  560000   0.64299456   -2.3368198   -2.3368198    -1.537526  0.062593204   -2.3368198    0.7992938   426349 
  561000   0.64199525   -2.3370254   -2.3370254   -1.5389738  0.065140082   -2.3370254   0.79805159   426349 
  562000   0.64188049   -2.3366303   -2.3366303   -1.5387214  0.058859209   -2.3366303   0.79790893   426349 
  563000   0.64189982    -2.336824    -2.336824   -1.5388911  0.060284524    -2.336824   0.79793296   426349 
  564000   0.64300323   -2.3381536   -2.3381536    -1.538849  0.060299225   -2.3381536   0.79930458   426349 
  565000   0.64207433   -2.3377956   -2.3377956   -1.5396457  0.052083125   -2.3377956   0.79814988   426349 
  566000   0.64198563   -2.3376491   -2.3376491   -1.5396094  0.058242657   -2.3376491   0.79803962   426349 
  567000   0.63896048   -2.3350737   -2.3350737   -1.5407946  0.063234393   -2.3350737   0.79427913   426349 
  568000   0.64007104   -2.3359202   -2.3359202   -1.5402605  0.051506026   -2.3359202   0.79565964   426349 
  569000   0.64059031   -2.3363561   -2.3363561   -1.5400509  0.054684522   -2.3363561   0.79630513   426349 
  570000   0.64130493   -2.3371012   -2.3371012   -1.5399077  0.056009693   -2.3371012   0.79719346   426349 
  571000   0.64101404   -2.3364913   -2.3364913   -1.5396594  0.057979872   -2.3364913   0.79683186   426349 
  572000   0.64158867   -2.3369768   -2.3369768   -1.5394306  0.054468337   -2.3369768   0.79754617   426349 
  573000   0.64129215   -2.3374345   -2.3374345   -1.5402569  0.056047035   -2.3374345   0.79717757   426349 
  574000   0.64124278   -2.3372831   -2.3372831   -1.5401669  0.055007309   -2.3372831    0.7971162   426349 
  575000   0.64001539   -2.3363844   -2.3363844   -1.5407939  0.054252963   -2.3363844   0.79559045   426349 
  576000   0.64189304   -2.3380627   -2.3380627   -1.5401382  0.059117681   -2.3380627   0.79792453   426349 
  577000   0.64056083     -2.33668     -2.33668   -1.5404115   0.05811252     -2.33668   0.79626849   426349 
  578000   0.64173272   -2.3389862   -2.3389862    -1.541261  0.055638466   -2.3389862   0.79772524   426349 
  579000   0.64061306    -2.338491    -2.338491   -1.5421576   0.05471459    -2.338491   0.79633341   426349 
  580000   0.64167473   -2.3393795   -2.3393795   -1.5417264  0.054149279   -2.3393795   0.79765315   426349 
  581000   0.64093583   -2.3390823   -2.3390823   -1.5423477  0.061737387   -2.3390823   0.79673464   426349 
  582000   0.64184948   -2.3406934   -2.3406934   -1.5428231  0.063237991   -2.3406934   0.79787038   426349 
  583000   0.64115103   -2.3403337   -2.3403337   -1.5433315  0.057638199   -2.3403337   0.79700215   426349 
  584000   0.64096572   -2.3408066   -2.3408066   -1.5440348  0.058632344   -2.3408066    0.7967718   426349 
  585000   0.63975508   -2.3393801   -2.3393801   -1.5441132  0.067184833   -2.3393801   0.79526687   426349 
  586000   0.64008916   -2.3404683   -2.3404683   -1.5447861  0.063177204   -2.3404683   0.79568216   426349 
  587000   0.64083925   -2.3415141   -2.3415141   -1.5448995  0.058199319   -2.3415141   0.79661458   426349 
  588000   0.63980086   -2.3412219   -2.3412219   -1.5458982  0.064927667   -2.3412219   0.79532378   426349 
  589000   0.64068632   -2.3413865   -2.3413865    -1.544962  0.051485551   -2.3413865   0.79642448   426349 
  590000   0.64008967   -2.3399791   -2.3399791   -1.5442963  0.055141735   -2.3399791   0.79568279   426349 
  591000   0.64082471   -2.3408321   -2.3408321   -1.5442356  0.052068423   -2.3408321    0.7965965   426349 
  592000   0.64052788   -2.3415123   -2.3415123   -1.5452848  0.048572549   -2.3415123   0.79622752   426349 
  593000   0.64178112   -2.3430824   -2.3430824   -1.5452969   0.05597993   -2.3430824   0.79778541   426349 
  594000   0.64089181    -2.342753    -2.342753   -1.5460731  0.054853696    -2.342753   0.79667992   426349 
  595000   0.64092417   -2.3425098   -2.3425098   -1.5457896  0.059416631   -2.3425098   0.79672015   426349 
  596000   0.64161958   -2.3444994   -2.3444994   -1.5469148  0.058295847   -2.3444994    0.7975846   426349 
  597000   0.64175424   -2.3448083   -2.3448083   -1.5470563  0.054558612   -2.3448083   0.79775199   426349 
  598000   0.64110383   -2.3446071   -2.3446071   -1.5476637  0.053289729   -2.3446071   0.79694348   426349 
  599000   0.64038487   -2.3439101   -2.3439101   -1.5478603  0.060711921   -2.3439101   0.79604976   426349 
  600000   0.64055737   -2.3444857   -2.3444857   -1.5482216  0.067345052   -2.3444857   0.79626418   426349 
  601000   0.63985009   -2.3448837   -2.3448837   -1.5494987  0.062330323   -2.3448837   0.79538498   426349 
  602000   0.64068738   -2.3457878   -2.3457878    -1.549362   0.06124973   -2.3457878   0.79642579   426349 
  603000   0.63996431   -2.3449906   -2.3449906   -1.5494636  0.052379399   -2.3449906   0.79552697   426349 
  604000   0.64044653   -2.3453274   -2.3453274    -1.549201  0.073654134   -2.3453274    0.7961264   426349 
  605000   0.63917019   -2.3440792   -2.3440792   -1.5495394  0.051072749   -2.3440792   0.79453981   426349 
  606000   0.64038242   -2.3461395   -2.3461395   -1.5500928  0.053657632   -2.3461395    0.7960467   426349 
  607000   0.64011596   -2.3456668   -2.3456668   -1.5499513  0.051156233   -2.3456668   0.79571547   426349 
  608000   0.63950869   -2.3450648   -2.3450648   -1.5501042  0.059890997   -2.3450648   0.79496059   426349 
  609000   0.64070922   -2.3470171   -2.3470171   -1.5505641  0.048159948   -2.3470171   0.79645295   426349 
  610000   0.64147175   -2.3483446   -2.3483446   -1.5509438  0.063268809   -2.3483446   0.79740083   426349 
  611000   0.64116291    -2.347838    -2.347838   -1.5508211  0.059466897    -2.347838   0.79701692   426349 
  612000   0.63855786   -2.3453561   -2.3453561   -1.5515775   0.05946242   -2.3453561   0.79377863   426349 
  613000   0.63953644   -2.3470673   -2.3470673   -1.5520722  0.056427735   -2.3470673   0.79499509   426349 
  614000   0.63970606   -2.3474909   -2.3474909    -1.552285  0.066519171   -2.3474909   0.79520593   426349 
  615000   0.63926565   -2.3465301   -2.3465301   -1.5518716  0.062692537   -2.3465301   0.79465848   426349 
  616000   0.63996541    -2.347765    -2.347765   -1.5522367   0.05437298    -2.347765   0.79552833   426349 
  617000    0.6394501    -2.347303    -2.347303   -1.5524152  0.053836517    -2.347303   0.79488776   426349 
  618000   0.63959514   -2.3482698   -2.3482698   -1.5532018  0.052340991   -2.3482698   0.79506806   426349 
  619000   0.63797744    -2.346521    -2.346521   -1.5534639  0.048354298    -2.346521   0.79305713   426349 
  620000   0.63907317   -2.3469398   -2.3469398   -1.5525206  0.065937337   -2.3469398    0.7944192   426349 
  621000   0.64012474   -2.3487722   -2.3487722   -1.5530458  0.056063692   -2.3487722   0.79572639   426349 
  622000   0.64055489   -2.3500011   -2.3500011     -1.55374  0.057122855   -2.3500011    0.7962611   426349 
  623000   0.63922317   -2.3490905   -2.3490905   -1.5544849  0.054111306   -2.3490905   0.79460566   426349 
  624000     0.638848   -2.3494985   -2.3494985   -1.5553592  0.052164406   -2.3494985    0.7941393   426349 
  625000   0.63936653   -2.3499364   -2.3499364   -1.5551525  0.057251099   -2.3499364   0.79478387   426349 
  626000   0.63978337   -2.3508921   -2.3508921     -1.55559  0.057018938   -2.3508921   0.79530204   426349 
  627000   0.63912185   -2.3502221   -2.3502221   -1.5557423    0.0563125   -2.3502221   0.79447971   426349 
  628000   0.63982814    -2.351778    -2.351778   -1.5564204  0.058176193    -2.351778   0.79535769   426349 
  629000   0.63974738   -2.3510336   -2.3510336   -1.5557763  0.050991081   -2.3510336   0.79525731   426349 
  630000   0.63906002   -2.3514138   -2.3514138   -1.5570109  0.068322549   -2.3514138   0.79440285   426349 
  631000   0.63948878   -2.3531443   -2.3531443   -1.5582084  0.047143661   -2.3531443   0.79493584   426349 
  632000   0.63998319   -2.3536081   -2.3536081   -1.5580577  0.053722127   -2.3536081   0.79555044   426349 
  633000   0.63766925   -2.3515535   -2.3515535   -1.5588794  0.049725021   -2.3515535   0.79267402   426349 
  634000   0.63979118   -2.3544002   -2.3544002   -1.5590885  0.065540206   -2.3544002   0.79531174   426349 
  635000   0.64110565   -2.3556852   -2.3556852   -1.5587395  0.054846622   -2.3556852   0.79694574   426349 
  636000   0.64019258   -2.3549243   -2.3549243   -1.5591136  0.060524267   -2.3549243   0.79581072   426349 
  637000   0.63913255   -2.3530646   -2.3530646   -1.5585716  0.059077977   -2.3530646   0.79449302   426349 
  638000    0.6390447   -2.3542908   -2.3542908    -1.559907  0.046245532   -2.3542908   0.79438381   426349 
  639000   0.63957319   -2.3546916   -2.3546916   -1.5596508   0.05792359   -2.3546916   0.79504077   426349 
  640000   0.63905377   -2.3545966   -2.3545966   -1.5602015  0.062216296   -2.3545966   0.79439509   426349 
  641000   0.63762758   -2.3525875   -2.3525875   -1.5599652  0.054569771   -2.3525875   0.79262222   426349 
  642000   0.63796112   -2.3529329   -2.3529329    -1.559896  0.050603835   -2.3529329   0.79303683   426349 
  643000   0.63819461   -2.3534877   -2.3534877   -1.5601606  0.055275444   -2.3534877   0.79332708   426349 
  644000   0.63824909   -2.3532576   -2.3532576   -1.5598628  0.046999418   -2.3532576   0.79339481   426349 
  645000   0.63817071   -2.3536946   -2.3536946   -1.5603972  0.051691321   -2.3536946   0.79329737   426349 
  646000   0.63657571   -2.3521766   -2.3521766   -1.5608619  0.053741371   -2.3521766   0.79131466   426349 
  647000   0.63821528   -2.3534376   -2.3534376   -1.5600848  0.067505609   -2.3534376   0.79335277   426349 
  648000   0.63690906   -2.3529277   -2.3529277   -1.5611986  0.067063132   -2.3529277   0.79172904   426349 
  649000   0.63851205   -2.3554182   -2.3554182   -1.5616965  0.053826175   -2.3554182   0.79372168   426349 
  650000    0.6390778   -2.3561271   -2.3561271   -1.5617021  0.058420289   -2.3561271   0.79442496   426349 
  651000   0.63734719   -2.3545394   -2.3545394   -1.5622657  0.051348373   -2.3545394   0.79227367   426349 
  652000   0.63899673   -2.3564215   -2.3564215   -1.5620973  0.053690888   -2.3564215   0.79432419   426349 
  653000     0.639044   -2.3561629   -2.3561629     -1.56178  0.056484677   -2.3561629   0.79438294   426349 
  654000   0.63860111   -2.3567034   -2.3567034    -1.562871  0.062508628   -2.3567034   0.79383239   426349 
  655000   0.63825202   -2.3561321   -2.3561321   -1.5627337  0.052148533   -2.3561321   0.79339845   426349 
  656000     0.638572   -2.3573315   -2.3573315   -1.5635353  0.054589596   -2.3573315   0.79379621   426349 
  657000   0.63706064   -2.3554925   -2.3554925   -1.5635751  0.058690003   -2.3554925   0.79191747   426349 
  658000   0.63781253   -2.3571342   -2.3571342   -1.5642821  0.053063372   -2.3571342   0.79285213   426349 
  659000   0.63674808   -2.3557028   -2.3557028   -1.5641739  0.064808012   -2.3557028   0.79152893   426349 
  660000   0.63698253   -2.3564131   -2.3564131   -1.5645927  0.065659528   -2.3564131   0.79182038   426349 
  661000   0.63750039   -2.3571358   -2.3571358   -1.5646716  0.064456544   -2.3571358   0.79246411   426349 
  662000   0.63791144   -2.3575476   -2.3575476   -1.5645726  0.060789303   -2.3575476   0.79297508   426349 
  663000   0.63907139   -2.3584925   -2.3584925   -1.5640756  0.060722274   -2.3584925   0.79441699   426349 
  664000   0.63751224     -2.35707     -2.35707   -1.5645912  0.057979465     -2.35707   0.79247884   426349 
  665000   0.63749482   -2.3568518   -2.3568518   -1.5643946  0.060932446   -2.3568518   0.79245719   426349 
  666000   0.63790705   -2.3564041   -2.3564041   -1.5634345  0.053683135   -2.3564041   0.79296962   426349 
  667000   0.63871875   -2.3571874   -2.3571874   -1.5632088  0.054875204   -2.3571874   0.79397864   426349 
  668000   0.63686566   -2.3563619   -2.3563619   -1.5646868  0.060707535   -2.3563619   0.79167509   426349 
  669000    0.6365168   -2.3557415   -2.3557415   -1.5645001  0.062338981   -2.3557415   0.79124143   426349 
  670000   0.63719213   -2.3563814   -2.3563814   -1.5643005  0.054769909   -2.3563814   0.79208092   426349 
  671000   0.63627686   -2.3563221   -2.3563221   -1.5653789  0.052981771   -2.3563221   0.79094317   426349 
  672000   0.63786209   -2.3574365   -2.3574365   -1.5645227  0.059477953   -2.3574365   0.79291374   426349 
  673000   0.63689681   -2.3561688   -2.3561688    -1.564455  0.056952327   -2.3561688   0.79171381   426349 
  674000    0.6374967   -2.3570398   -2.3570398   -1.5645803  0.056110961   -2.3570398   0.79245952   426349 
  675000   0.63734204   -2.3569722   -2.3569722   -1.5647049  0.056022553   -2.3569722   0.79226727   426349 
  676000     0.637422   -2.3574555   -2.3574555   -1.5650888  0.057218835   -2.3574555   0.79236666   426349 
  677000   0.63691729   -2.3571633   -2.3571633    -1.565424  0.054052836   -2.3571633   0.79173927   426349 
  678000   0.63735834   -2.3581571   -2.3581571   -1.5658696  0.057159583   -2.3581571   0.79228753   426349 
  679000   0.63667187   -2.3582308   -2.3582308   -1.5667966  0.060445745   -2.3582308   0.79143419   426349 
  680000   0.63758834   -2.3593727   -2.3593727   -1.5667992   0.04766241   -2.3593727   0.79257344   426349 
  681000   0.63772315   -2.3593945   -2.3593945   -1.5666535  0.067046393   -2.3593945   0.79274101   426349 
  682000   0.63721802   -2.3595448   -2.3595448   -1.5674317  0.059311491   -2.3595448    0.7921131   426349 
  683000   0.63795762   -2.3606466   -2.3606466   -1.5676141  0.070735339   -2.3606466   0.79303248   426349 
  684000    0.6379294   -2.3612295   -2.3612295   -1.5682321  0.053128639   -2.3612295    0.7929974   426349 
  685000   0.63531578   -2.3580874   -2.3580874   -1.5683389  0.051547952   -2.3580874   0.78974847   426349 
  686000   0.63734542   -2.3610404   -2.3610404   -1.5687689  0.060933994   -2.3610404   0.79227147   426349 
  687000   0.63560349      -2.3591      -2.3591   -1.5689939  0.055054153      -2.3591   0.79010611   426349 
  688000   0.63668531   -2.3602446   -2.3602446   -1.5687937   0.05768247   -2.3602446    0.7914509   426349 
  689000   0.63726836    -2.360567    -2.360567   -1.5683913  0.055541554    -2.360567   0.79217568   426349 
  690000   0.63554005   -2.3590518   -2.3590518   -1.5690245  0.053372825   -2.3590518   0.79002726   426349 
  691000   0.63692968   -2.3610619   -2.3610619   -1.5693073  0.053700166   -2.3610619   0.79175468   426349 
  692000   0.63822498   -2.3628054   -2.3628054   -1.5694406  0.060658633   -2.3628054   0.79336484   426349 
  693000   0.63649328   -2.3610224   -2.3610224   -1.5698102  0.056349638   -2.3610224   0.79121219   426349 
  694000   0.63694684   -2.3618475   -2.3618475   -1.5700715   0.05760951   -2.3618475   0.79177601   426349 
  695000   0.63654676   -2.3615078   -2.3615078   -1.5702291  0.052175508   -2.3615078   0.79127867   426349 
  696000   0.63753962      -2.3619      -2.3619   -1.5693872  0.049333384      -2.3619   0.79251288   426349 
  697000   0.63697418   -2.3613716   -2.3613716   -1.5695616  0.056573117   -2.3613716   0.79180999   426349 
  698000   0.63712306    -2.361779    -2.361779    -1.569784  0.050551053    -2.361779   0.79199505   426349 
  699000   0.63811935   -2.3624175   -2.3624175   -1.5691839  0.048633639   -2.3624175   0.79323353   426349 
  700000   0.63748946    -2.361476    -2.361476   -1.5690255  0.055565705    -2.361476   0.79245052   426349 
  701000   0.63768231   -2.3625155   -2.3625155   -1.5698252  0.048565729   -2.3625155   0.79269026   426349 
  702000   0.63542814   -2.3602613   -2.3602613   -1.5703732  0.057096647   -2.3602613   0.78988814   426349 
  703000   0.63600875   -2.3610916   -2.3610916   -1.5704817  0.042327366   -2.3610916   0.79060988   426349 
  704000   0.63578153   -2.3617131   -2.3617131   -1.5713856  0.053605944   -2.3617131   0.79032744   426349 
  705000   0.63633425   -2.3619576   -2.3619576   -1.5709431  0.057903776   -2.3619576   0.79101451   426349 
  706000   0.63708786   -2.3624581   -2.3624581   -1.5705068  0.064660435   -2.3624581    0.7919513   426349 
  707000   0.63645925   -2.3623436   -2.3623436   -1.5711737  0.059824068   -2.3623436   0.79116989   426349 
  708000   0.63571311   -2.3615734   -2.3615734    -1.571331  0.053604425   -2.3615734   0.79024238   426349 
  709000   0.63690593   -2.3631371   -2.3631371    -1.571412  0.050356499   -2.3631371   0.79172515   426349 
  710000   0.63662279   -2.3640202   -2.3640202    -1.572647  0.047179208   -2.3640202   0.79137319   426349 
  711000   0.63519365   -2.3624065   -2.3624065   -1.5728099  0.061037646   -2.3624065   0.78959666   426349 
  712000   0.63562417   -2.3635435   -2.3635435   -1.5734117  0.060815566   -2.3635435   0.79013182   426349 
  713000   0.63646174   -2.3640257   -2.3640257   -1.5728527   0.05917324   -2.3640257   0.79117298   426349 
  714000   0.63667201   -2.3653935   -2.3653935   -1.5739591   0.05427824   -2.3653935   0.79143437   426349 
  715000   0.63641178   -2.3651629   -2.3651629    -1.574052  0.050365791   -2.3651629   0.79111088   426349 
  716000   0.63748819   -2.3667522   -2.3667522   -1.5743032  0.051117086   -2.3667522   0.79244894   426349 
  717000   0.63571798   -2.3647575   -2.3647575   -1.5745091  0.056603676   -2.3647575   0.79024843   426349 
  718000   0.63730168   -2.3665459   -2.3665459   -1.5743288  0.054320588   -2.3665459    0.7922171   426349 
  719000   0.63756613   -2.3671783   -2.3671783   -1.5746325  0.061710798   -2.3671783   0.79254583   426349 
  720000    0.6370904   -2.3667864   -2.3667864    -1.574832  0.060473488   -2.3667864   0.79195446   426349 
  721000   0.63688156   -2.3668234   -2.3668234   -1.5751285  0.056875531   -2.3668234   0.79169485   426349 
  722000   0.63732029   -2.3679721   -2.3679721   -1.5757319  0.048198628   -2.3679721   0.79224023   426349 
  723000   0.63662407   -2.3669765   -2.3669765   -1.5756017  0.046869945   -2.3669765   0.79137477   426349 
  724000   0.63490533   -2.3648688   -2.3648688   -1.5756306  0.049339596   -2.3648688   0.78923824   426349 
  725000   0.63643365   -2.3670844   -2.3670844   -1.5759464  0.050196648   -2.3670844   0.79113807   426349 
  726000   0.63692992   -2.3674598   -2.3674598   -1.5757048  0.056312517   -2.3674598   0.79175498   426349 
  727000   0.63560748   -2.3662828   -2.3662828   -1.5761717  0.055191119   -2.3662828   0.79011107   426349 
  728000   0.63653185   -2.3668219   -2.3668219   -1.5755618  0.048484556   -2.3668219   0.79126014   426349 
  729000   0.63562102     -2.36637     -2.36637   -1.5762421   0.05662525     -2.36637   0.79012791   426349 
  730000   0.63596345   -2.3668247   -2.3668247   -1.5762711  0.061712836   -2.3668247   0.79055357   426349 
  731000   0.63557521   -2.3663126   -2.3663126   -1.5762416  0.053717618   -2.3663126   0.79007096   426349 
  732000   0.63556901   -2.3664798   -2.3664798   -1.5764166   0.06390638   -2.3664798   0.79006325   426349 
  733000   0.63516386   -2.3662501   -2.3662501   -1.5766905  0.061684223   -2.3662501   0.78955962   426349 
  734000   0.63766029    -2.369548    -2.369548   -1.5768851  0.049145771    -2.369548   0.79266288   426349 
  735000   0.63533597   -2.3672345   -2.3672345   -1.5774609  0.064881375   -2.3672345   0.78977356   426349 
  736000   0.63487661   -2.3674874   -2.3674874   -1.5782849  0.052521555   -2.3674874   0.78920254   426349 
  737000    0.6350247   -2.3681572   -2.3681572   -1.5787705  0.051591754   -2.3681572   0.78938663   426349 
  738000   0.63618589    -2.369684    -2.369684   -1.5788539  0.058466017    -2.369684   0.79083008   426349 
  739000   0.63405888   -2.3662487   -2.3662487   -1.5780626  0.058116059   -2.3662487   0.78818604   426349 
  740000   0.63452095   -2.3672194   -2.3672194    -1.578459  0.063329058   -2.3672194   0.78876043   426349 
  741000   0.63535961   -2.3689068   -2.3689068   -1.5791038  0.059907303   -2.3689068   0.78980295   426349 
  742000   0.63518433   -2.3688398   -2.3688398   -1.5792547   0.04860082   -2.3688398   0.78958506   426349 
  743000   0.63512224   -2.3691204   -2.3691204   -1.5796125  0.057467971   -2.3691204   0.78950788   426349 
  744000   0.63495288   -2.3688807   -2.3688807   -1.5795833  0.052056516   -2.3688807   0.78929736   426349 
  745000   0.63531761   -2.3695138   -2.3695138   -1.5797631  0.053356554   -2.3695138   0.78975074   426349 
  746000   0.63476915   -2.3690384   -2.3690384   -1.5799694  0.047227228   -2.3690384   0.78906896   426349 
  747000   0.63591137   -2.3705608   -2.3705608   -1.5800719  0.053415456   -2.3705608   0.79048883   426349 
  748000   0.63465479   -2.3703787   -2.3703787   -1.5814519  0.048478412   -2.3703787    0.7889268   426349 
  749000   0.63635383   -2.3714854   -2.3714854   -1.5804465  0.053924905   -2.3714854   0.79103884   426349 
  750000   0.63636192   -2.3713486   -2.3713486   -1.5802997  0.055691975   -2.3713486    0.7910489   426349 
  751000   0.63588519   -2.3710215   -2.3710215   -1.5805652  0.050430003   -2.3710215   0.79045629   426349 
  752000   0.63537422   -2.3710363   -2.3710363   -1.5812152  0.061089261   -2.3710363   0.78982111   426349 
  753000   0.63633744   -2.3718964   -2.3718964   -1.5808779  0.055429584   -2.3718964   0.79101847   426349 
  754000   0.63645897   -2.3724351   -2.3724351   -1.5812655  0.057772711   -2.3724351   0.79116954   426349 
  755000    0.6360083   -2.3718326   -2.3718326   -1.5812233  0.060032396   -2.3718326   0.79060932   426349 
  756000   0.63717315   -2.3742325   -2.3742325   -1.5821752  0.055399985   -2.3742325   0.79205733   426349 
  757000   0.63621488   -2.3734277   -2.3734277   -1.5825616  0.063560913   -2.3734277   0.79086612   426349 
  758000   0.63486527   -2.3727623   -2.3727623   -1.5835738  0.052522807   -2.3727623   0.78918845   426349 
  759000   0.63579843   -2.3739572   -2.3739572   -1.5836088  0.055829301   -2.3739572   0.79034844   426349 
  760000   0.63600673   -2.3745778   -2.3745778   -1.5839704  0.058095374   -2.3745778   0.79060738   426349 
  761000   0.63507489   -2.3743707   -2.3743707   -1.5849216    0.0555065   -2.3743707   0.78944903   426349 
  762000   0.63519155   -2.3744343   -2.3744343   -1.5848402  0.055493009   -2.3744343   0.78959403   426349 
  763000   0.63466423   -2.3733232   -2.3733232   -1.5843847  0.067887422   -2.3733232   0.78893854   426349 
  764000   0.63559548   -2.3743755   -2.3743755   -1.5842794  0.058325739   -2.3743755   0.79009615   426349 
  765000   0.63469466   -2.3736623   -2.3736623    -1.584686  0.056379164   -2.3736623   0.78897636   426349 
  766000   0.63436884   -2.3735736   -2.3735736   -1.5850022  0.059094376   -2.3735736   0.78857135   426349 
  767000   0.63557401   -2.3745523   -2.3745523   -1.5844828  0.056945531   -2.3745523   0.79006947   426349 
  768000   0.63449205   -2.3735545   -2.3735545     -1.58483  0.051800138   -2.3735545   0.78872451   426349 
  769000   0.63517574   -2.3742758   -2.3742758   -1.5847014  0.057912599   -2.3742758   0.78957438   426349 
  770000    0.6346599   -2.3741163   -2.3741163   -1.5851831  0.065593252   -2.3741163   0.78893316   426349 
  771000   0.63593422     -2.37545     -2.37545   -1.5849327  0.057797957     -2.37545   0.79051724   426349 
  772000   0.63543789    -2.374805    -2.374805   -1.5849048  0.058009834    -2.374805   0.78990026   426349 
  773000   0.63491633   -2.3744758   -2.3744758   -1.5852239  0.060759818   -2.3744758   0.78925191   426349 
  774000   0.63499037   -2.3746106   -2.3746106   -1.5852666  0.046121932   -2.3746106   0.78934395   426349 
  775000    0.6360491   -2.3760327   -2.3760327   -1.5853727    0.0518642   -2.3760327   0.79066005   426349 
  776000   0.63535628   -2.3753414   -2.3753414   -1.5855426  0.048949519   -2.3753414   0.78979881   426349 
  777000   0.63508795   -2.3755104   -2.3755104   -1.5860451  0.058656505   -2.3755104   0.78946526   426349 
  778000   0.63559461   -2.3757266   -2.3757266   -1.5856315  0.057022807   -2.3757266   0.79009508   426349 
  779000   0.63592353   -2.3760075   -2.3760075   -1.5855036  0.048807962   -2.3760075   0.79050395   426349 
  780000    0.6355134   -2.3758704   -2.3758704   -1.5858763  0.061517563   -2.3758704   0.78999412   426349 
  781000   0.63577135     -2.37636     -2.37636   -1.5860452  0.060121753     -2.37636   0.79031477   426349 
  782000   0.63467527   -2.3754437   -2.3754437   -1.5864914  0.058495551   -2.3754437   0.78895226   426349 
  783000   0.63499157   -2.3769213   -2.3769213   -1.5875758  0.053530427   -2.3769213   0.78934545   426349 
  784000   0.63465436   -2.3768413   -2.3768413   -1.5879151  0.053786284   -2.3768413   0.78892627   426349 
  785000   0.63462273   -2.3768354   -2.3768354   -1.5879485  0.048083423   -2.3768354   0.78888695   426349 
  786000   0.63476038   -2.3769086   -2.3769086   -1.5878506  0.054320107   -2.3769086   0.78905807   426349 
  787000   0.63492949    -2.377058    -2.377058   -1.5877897  0.060133014    -2.377058   0.78926828   426349 
  788000   0.63566082   -2.3779094   -2.3779094    -1.587732  0.058546323   -2.3779094   0.79017738   426349 
  789000   0.63531966   -2.3774445   -2.3774445   -1.5876912  0.051120154   -2.3774445   0.78975329   426349 
  790000   0.63568625   -2.3786232   -2.3786232   -1.5884143  0.055318566   -2.3786232   0.79020899   426349 
  791000    0.6358904   -2.3785841   -2.3785841   -1.5881213  0.050825056   -2.3785841   0.79046276   426349 
  792000   0.63530624   -2.3784636   -2.3784636   -1.5887269  0.055359219   -2.3784636   0.78973661   426349 
  793000    0.6352826   -2.3784033   -2.3784033    -1.588696  0.059837205   -2.3784033   0.78970722   426349 
  794000   0.63516569   -2.3793645   -2.3793645   -1.5898026  0.050870897   -2.3793645   0.78956189   426349 
  795000   0.63520112    -2.379781    -2.379781   -1.5901751  0.063611842    -2.379781   0.78960594   426349 
  796000   0.63624046   -2.3803729   -2.3803729   -1.5894749   0.05463468   -2.3803729   0.79089792   426349 
  797000   0.63570001   -2.3793085   -2.3793085   -1.5890824  0.059500549   -2.3793085   0.79022609   426349 
  798000   0.63463354   -2.3795433   -2.3795433   -1.5906429  0.060555005   -2.3795433   0.78890039   426349 
  799000   0.63401232   -2.3798377   -2.3798377   -1.5917095   0.05701948   -2.3798377   0.78812816   426349 
  800000   0.63434538   -2.3792324   -2.3792324   -1.5906902  0.051684628   -2.3792324   0.78854218   426349 
  801000   0.63495731   -2.3798028   -2.3798028      -1.5905  0.059516573   -2.3798028   0.78930286   426349 
  802000   0.63411975   -2.3792117   -2.3792117     -1.59095  0.063256013   -2.3792117   0.78826171   426349 
  803000   0.63486216   -2.3808803   -2.3808803   -1.5916957  0.062433813   -2.3808803   0.78918458   426349 
  804000   0.63461803   -2.3814593   -2.3814593   -1.5925782  0.060923994   -2.3814593    0.7888811   426349 
  805000   0.63351616   -2.3805106   -2.3805106   -1.5929992  0.049692423   -2.3805106   0.78751139   426349 
  806000   0.63263241   -2.3793091   -2.3793091   -1.5928962  0.054158236   -2.3793091   0.78641282   426349 
  807000    0.6339971   -2.3807888   -2.3807888   -1.5926796  0.066925025   -2.3807888   0.78810924   426349 
  808000   0.63437974   -2.3816857   -2.3816857   -1.5931008   0.05191649   -2.3816857   0.78858489   426349 
  809000   0.63441408   -2.3818182   -2.3818182   -1.5931906  0.055600799   -2.3818182   0.78862758   426349 
  810000   0.63418162   -2.3816899   -2.3816899   -1.5933513  0.046258849   -2.3816899   0.78833861   426349 
  811000   0.63478999   -2.3816704   -2.3816704   -1.5925755  0.056081866   -2.3816704   0.78909487   426349 
  812000   0.63373789   -2.3812823   -2.3812823   -1.5934953  0.054968763   -2.3812823   0.78778703   426349 
  813000   0.63428175   -2.3822647   -2.3822647   -1.5938017  0.059458053   -2.3822647   0.78846309   426349 
  814000     0.634581   -2.3825767   -2.3825767   -1.5937417  0.061875679   -2.3825767   0.78883508   426349 
  815000   0.63363909   -2.3816941   -2.3816941   -1.5940299  0.059236823   -2.3816941   0.78766421   426349 
  816000   0.63440654   -2.3821025   -2.3821025   -1.5934843  0.059545605   -2.3821025    0.7886182   426349 
  817000   0.63449206   -2.3824665   -2.3824665   -1.5937419  0.051772405   -2.3824665   0.78872452   426349 
  818000   0.63447231   -2.3819286   -2.3819286   -1.5932286   0.05355066   -2.3819286   0.78869996   426349 
  819000   0.63454279   -2.3830473   -2.3830473   -1.5942597  0.064033361   -2.3830473   0.78878758   426349 
  820000    0.6350074   -2.3834281   -2.3834281    -1.594063  0.065546832   -2.3834281   0.78936513   426349 
  821000   0.63515562   -2.3838808   -2.3838808   -1.5943314  0.058460983   -2.3838808   0.78954937   426349 
  822000   0.63380842   -2.3831204   -2.3831204   -1.5952457  0.055539728   -2.3831204   0.78787469   426349 
  823000   0.63479548   -2.3842474   -2.3842474   -1.5951457  0.062132468   -2.3842474   0.78910169   426349 
  824000   0.63425608   -2.3842471   -2.3842471   -1.5958159   0.04568242   -2.3842471   0.78843117   426349 
  825000   0.63435274   -2.3846893   -2.3846893    -1.596138  0.053605683   -2.3846893   0.78855133   426349 
  826000   0.63441977   -2.3853155   -2.3853155   -1.5966809  0.058060612   -2.3853155   0.78863465   426349 
  827000   0.63427973   -2.3849559   -2.3849559   -1.5964954  0.057219891   -2.3849559   0.78846057   426349 
  828000   0.63358654   -2.3848505   -2.3848505   -1.5972516  0.051070628   -2.3848505   0.78759889   426349 
  829000   0.63265807   -2.3834409   -2.3834409   -1.5969962  0.051320976   -2.3834409   0.78644472   426349 
  830000   0.63400187    -2.384393    -2.384393   -1.5962778  0.053876483    -2.384393   0.78811517   426349 
  831000   0.63393044   -2.3831856   -2.3831856   -1.5951592  0.056559888   -2.3831856   0.78802638   426349 
  832000   0.63342058   -2.3831917   -2.3831917   -1.5957992   0.05885939   -2.3831917   0.78739258   426349 
  833000   0.63321049   -2.3832353   -2.3832353   -1.5961038  0.052680578   -2.3832353   0.78713142   426349 
  834000   0.63363678   -2.3837749   -2.3837749   -1.5961135    0.0426013   -2.3837749   0.78766134   426349 
  835000   0.63306042   -2.3834395   -2.3834395   -1.5964946  0.055520338   -2.3834395   0.78694487   426349 
  836000   0.63295223   -2.3831379   -2.3831379   -1.5963275  0.056170985   -2.3831379   0.78681038   426349 
  837000   0.63369226   -2.3846318   -2.3846318   -1.5969015  0.052175031   -2.3846318    0.7877303   426349 
  838000   0.63372847   -2.3850063   -2.3850063    -1.597231  0.061345155   -2.3850063   0.78777531   426349 
  839000   0.63324716   -2.3840222   -2.3840222   -1.5968452  0.057068541   -2.3840222     0.787177   426349 
  840000   0.63325486    -2.385192    -2.385192   -1.5980054  0.050750787    -2.385192   0.78718657   426349 
  841000   0.63353183   -2.3854144   -2.3854144   -1.5978835  0.060574488   -2.3854144   0.78753088   426349 
  842000   0.63361599   -2.3861314   -2.3861314    -1.598496  0.049414233   -2.3861314   0.78763549   426349 
  843000   0.63326742   -2.3852045   -2.3852045   -1.5980023  0.050998769   -2.3852045   0.78720219   426349 
  844000    0.6340043   -2.3869482   -2.3869482     -1.59883  0.055068348   -2.3869482   0.78811819   426349 
  845000   0.63330535   -2.3860609   -2.3860609   -1.5988116  0.052990373   -2.3860609   0.78724933   426349 
  846000   0.63314417   -2.3870704   -2.3870704   -1.6000214  0.051467235   -2.3870704   0.78704898   426349 
  847000   0.63215976    -2.385995    -2.385995   -1.6001698  0.046935573    -2.385995   0.78582528   426349 
  848000   0.63369936   -2.3881266   -2.3881266   -1.6003875  0.054163847   -2.3881266   0.78773913   426349 
  849000   0.63376066   -2.3877623   -2.3877623    -1.599947  0.060856412   -2.3877623   0.78781533   426349 
  850000    0.6322673   -2.3864666   -2.3864666   -1.6005077  0.048872755   -2.3864666   0.78595896   426349 
  851000   0.63287891   -2.3870186   -2.3870186   -1.6002993  0.049254963   -2.3870186   0.78671924   426349 
  852000   0.63347521   -2.3883989   -2.3883989   -1.6009384   0.05152262   -2.3883989   0.78746049   426349 
  853000   0.63215665   -2.3872957   -2.3872957   -1.6014743   0.05306149   -2.3872957   0.78582142   426349 
  854000   0.63258698   -2.3883102   -2.3883102   -1.6019539  0.060562498   -2.3883102   0.78635635   426349 
  855000   0.63330402   -2.3896376   -2.3896376   -1.6023899  0.054345912   -2.3896376   0.78724768   426349 
  856000    0.6325138   -2.3884295   -2.3884295   -1.6021641  0.049945121   -2.3884295   0.78626538   426349 
  857000   0.63288864   -2.3889799   -2.3889799   -1.6022486  0.051653749   -2.3889799   0.78673133   426349 
  858000   0.63154271   -2.3879106   -2.3879106   -1.6028524  0.048272212   -2.3879106   0.78505823   426349 
  859000   0.63252442   -2.3889863   -2.3889863   -1.6027077  0.046335811   -2.3889863   0.78627859   426349 
  860000   0.63175156   -2.3886907   -2.3886907   -1.6033728  0.058102447   -2.3886907   0.78531785   426349 
  861000   0.63337908   -2.3908858   -2.3908858   -1.6035448  0.046679127   -2.3908858   0.78734099   426349 
  862000   0.63323119   -2.3900683   -2.3900683   -1.6029112  0.059189239   -2.3900683   0.78715715   426349 
  863000   0.63339998   -2.3906327   -2.3906327   -1.6032658  0.062148208   -2.3906327   0.78736697   426349 
  864000   0.63206933   -2.3885541   -2.3885541   -1.6028412  0.058737846   -2.3885541   0.78571287   426349 
  865000   0.63219535    -2.389168    -2.389168   -1.6032984  0.056649264    -2.389168   0.78586952   426349 
  866000   0.63192069   -2.3898828   -2.3898828   -1.6043547   0.05229895   -2.3898828    0.7855281   426349 
  867000   0.63247664    -2.390509    -2.390509   -1.6042898  0.051704661    -2.390509   0.78621919   426349 
  868000   0.63163901   -2.3900761   -2.3900761   -1.6048982  0.051017733   -2.3900761   0.78517795   426349 
  869000   0.63204907   -2.3908379   -2.3908379   -1.6051502  0.052363825   -2.3908379   0.78568768   426349 
  870000   0.63282095   -2.3921198   -2.3921198   -1.6054726  0.065007535   -2.3921198   0.78664719   426349 
  871000   0.63178614   -2.3908841   -2.3908841   -1.6055232  0.061634688   -2.3908841   0.78536085   426349 
  872000   0.63067055   -2.3898916   -2.3898916   -1.6059175  0.052177465   -2.3898916   0.78397407   426349 
  873000   0.63248001   -2.3921312   -2.3921312   -1.6059078  0.055721818   -2.3921312   0.78622337   426349 
  874000    0.6333109   -2.3940478   -2.3940478   -1.6067916   0.05571746   -2.3940478   0.78725625   426349 
  875000   0.63305951   -2.3944526   -2.3944526   -1.6075089  0.052997611   -2.3944526   0.78694374   426349 
  876000   0.63201328   -2.3934309   -2.3934309   -1.6077877   0.05495148   -2.3934309   0.78564319   426349 
  877000    0.6320197   -2.3938323   -2.3938323   -1.6081811  0.056418701   -2.3938323   0.78565118   426349 
  878000   0.63335199   -2.3951474   -2.3951474   -1.6078401  0.054172107   -2.3951474   0.78730731   426349 
  879000   0.63203662   -2.3943719   -2.3943719   -1.6086997  0.059576028   -2.3943719   0.78567221   426349 
  880000   0.63075068   -2.3932034   -2.3932034   -1.6091297   0.05228117   -2.3932034   0.78407368   426349 
  881000   0.63168975   -2.3944653   -2.3944653   -1.6092243  0.052316127   -2.3944653   0.78524102   426349 
  882000   0.63244592   -2.3951121   -2.3951121   -1.6089311  0.049303454   -2.3951121     0.786181   426349 
  883000   0.63184868   -2.3937351   -2.3937351   -1.6082965  0.055535484   -2.3937351   0.78543858   426349 
  884000   0.63253477   -2.3943418   -2.3943418   -1.6080503  0.061826071   -2.3943418   0.78629144   426349 
  885000   0.63232351   -2.3950021   -2.3950021   -1.6089733  0.050307341   -2.3950021   0.78602883   426349 
  886000   0.63055437   -2.3934565   -2.3934565   -1.6096269   0.04608743   -2.3934565   0.78382965   426349 
  887000   0.62935545   -2.3910314   -2.3910314   -1.6086921   0.04929419   -2.3910314   0.78233929   426349 
  888000   0.63027886   -2.3922524   -2.3922524   -1.6087652   0.04985824   -2.3922524   0.78348717   426349 
  889000   0.62985221   -2.3931047   -2.3931047   -1.6101479  0.065426365   -2.3931047   0.78295681   426349 
  890000    0.6309974    -2.394213    -2.394213   -1.6098326   0.05518488    -2.394213   0.78438037   426349 
  891000   0.63010393   -2.3940186   -2.3940186   -1.6107489  0.059088763   -2.3940186   0.78326971   426349 
  892000   0.63042196    -2.395376    -2.395376    -1.611711  0.048893858    -2.395376   0.78366506   426349 
  893000   0.62935775   -2.3940378   -2.3940378   -1.6116957  0.051056246   -2.3940378   0.78234216   426349 
  894000   0.63002048    -2.394274    -2.394274   -1.6111081  0.054668261    -2.394274   0.78316598   426349 
  895000   0.63094453   -2.3945733   -2.3945733   -1.6102587   0.06043083   -2.3945733   0.78431465   426349 
  896000   0.63131671   -2.3954244   -2.3954244   -1.6106471  0.049268772   -2.3954244    0.7847773   426349 
  897000   0.63189748   -2.3959137   -2.3959137   -1.6104144  0.061252954   -2.3959137   0.78549925   426349 
  898000   0.63239403   -2.3964557   -2.3964557   -1.6103392  0.047350998   -2.3964557    0.7861165   426349 
  899000   0.63201343   -2.3964388   -2.3964388   -1.6107954  0.059985242   -2.3964388   0.78564338   426349 
  900000   0.63162221   -2.3955143   -2.3955143   -1.6103572  0.051405173   -2.3955143   0.78515706   426349 
  901000   0.63061289   -2.3948726   -2.3948726   -1.6109702  0.053847394   -2.3948726    0.7839024   426349 
  902000   0.63096328   -2.3950108   -2.3950108   -1.6106728     0.049553   -2.3950108   0.78433796   426349 
  903000   0.63131466   -2.3965232   -2.3965232   -1.6117484  0.053056739   -2.3965232   0.78477476   426349 
  904000    0.6313968    -2.396231    -2.396231   -1.6113542  0.054032911    -2.396231   0.78487686   426349 
  905000   0.63194827   -2.3969641   -2.3969641   -1.6114017  0.055548978   -2.3969641   0.78556238   426349 
  906000   0.63157575   -2.3965987   -2.3965987   -1.6114994   0.04790654   -2.3965987   0.78509931   426349 
  907000   0.63089169   -2.3960055   -2.3960055   -1.6117566  0.038684573   -2.3960055   0.78424896   426349 
  908000   0.63049017   -2.3958451   -2.3958451   -1.6120952  0.053696623   -2.3958451   0.78374984   426349 
  909000   0.63113446   -2.3964231   -2.3964231   -1.6118723  0.059253051   -2.3964231   0.78455075   426349 
  910000   0.63248048   -2.3980744   -2.3980744   -1.6118504  0.047085841   -2.3980744   0.78622396   426349 
  911000   0.63123874   -2.3975753   -2.3975753   -1.6128949  0.050694755   -2.3975753   0.78468038   426349 
  912000   0.63114592   -2.3979823   -2.3979823   -1.6134173    0.0539049   -2.3979823   0.78456499   426349 
  913000   0.63210891   -2.3990626   -2.3990626   -1.6133006  0.046720091   -2.3990626   0.78576207   426349 
  914000   0.63146034   -2.3981421   -2.3981421   -1.6131862  0.055684633   -2.3981421   0.78495584   426349 
  915000   0.63153765   -2.3985578   -2.3985578   -1.6135059  0.054906763   -2.3985578   0.78505195   426349 
  916000     0.631485   -2.3987934   -2.3987934   -1.6138069  0.055728531   -2.3987934   0.78498649   426349 
  917000   0.63120454   -2.3991985   -2.3991985   -1.6145606  0.054314848   -2.3991985   0.78463787   426349 
  918000   0.63074391   -2.3983012   -2.3983012   -1.6142359  0.056308722   -2.3983012   0.78406526   426349 
  919000   0.63107762   -2.3991448   -2.3991448   -1.6146647  0.057707626   -2.3991448   0.78448009   426349 
  920000   0.63108415   -2.3983349   -2.3983349   -1.6138467  0.058632979   -2.3983349   0.78448821   426349 
  921000   0.62991525   -2.3979233   -2.3979233   -1.6148881  0.060643126   -2.3979233   0.78303517   426349 
  922000    0.6314379   -2.3991183   -2.3991183   -1.6141904  0.047221896   -2.3991183   0.78492795   426349 
  923000   0.63043842   -2.3984986   -2.3984986   -1.6148131  0.048996679   -2.3984986   0.78368551   426349 
  924000   0.63111194   -2.4002255   -2.4002255   -1.6157028  0.059854895   -2.4002255   0.78452276   426349 
  925000   0.63125535   -2.4000258   -2.4000258   -1.6153248  0.057926137   -2.4000258   0.78470103   426349 
  926000   0.63056483   -2.3991241   -2.3991241   -1.6152815  0.043565702   -2.3991241   0.78384265   426349 
  927000   0.63212641   -2.4019286   -2.4019286   -1.6161448  0.043000893   -2.4019286   0.78578383   426349 
  928000    0.6306608   -2.4006546   -2.4006546   -1.6166926  0.051311832   -2.4006546   0.78396195   426349 
  929000   0.63091159   -2.4005143   -2.4005143   -1.6162406  0.057574067   -2.4005143   0.78427371   426349 
  930000   0.63074907   -2.4005974   -2.4005974   -1.6165257  0.048403313   -2.4005974   0.78407168   426349 
  931000   0.62948899   -2.3996996   -2.3996996   -1.6171943  0.054237339   -2.3996996    0.7825053   426349 
  932000   0.62954583   -2.4004452   -2.4004452   -1.6178693  0.050189729   -2.4004452   0.78257595   426349 
  933000   0.62987569   -2.4006213   -2.4006213   -1.6176354  0.060555996   -2.4006213   0.78298599   426349 
  934000   0.63043871   -2.4010094   -2.4010094   -1.6173236  0.046316382   -2.4010094   0.78368588   426349 
  935000   0.63055886   -2.4018745   -2.4018745   -1.6180393  0.044555357   -2.4018745   0.78383524   426349 
  936000   0.63006935   -2.4008447   -2.4008447    -1.617618  0.041355196   -2.4008447   0.78322673   426349 
  937000   0.63111833   -2.4013523   -2.4013523   -1.6168216  0.046596016   -2.4013523    0.7845307   426349 
  938000   0.62991835   -2.4011079   -2.4011079   -1.6180689  0.053096603   -2.4011079   0.78303903   426349 
  939000   0.62917193   -2.3999192   -2.3999192    -1.617808  0.051300322   -2.3999192   0.78211117   426349 
  940000   0.63064623   -2.4018093   -2.4018093   -1.6178655  0.057079137   -2.4018093   0.78394384   426349 
  941000   0.63004439   -2.4013166   -2.4013166   -1.6181209  0.046857682   -2.4013166    0.7831957   426349 
  942000   0.63011721   -2.4018068   -2.4018068   -1.6185205  0.049640071   -2.4018068   0.78328623   426349 
  943000   0.63059269   -2.4015286   -2.4015286   -1.6176513  0.051113206   -2.4015286   0.78387728   426349 
  944000    0.6308201   -2.4022377   -2.4022377   -1.6180777  0.057572764   -2.4022377   0.78415997   426349 
  945000    0.6316016   -2.4029556   -2.4029556   -1.6178241  0.048444064   -2.4029556   0.78513145   426349 
  946000   0.63052856    -2.401441    -2.401441   -1.6176434  0.051292352    -2.401441   0.78379756   426349 
  947000   0.63042928   -2.4021638   -2.4021638   -1.6184897  0.053180599   -2.4021638   0.78367416   426349 
  948000   0.63036179   -2.4024777   -2.4024777   -1.6188875  0.043690059   -2.4024777   0.78359025   426349 
  949000   0.63037232   -2.4024827   -2.4024827   -1.6188793  0.061617299   -2.4024827   0.78360335   426349 
  950000   0.63001984    -2.402576    -2.402576   -1.6194108  0.050189565    -2.402576   0.78316519   426349 
  951000   0.63124662   -2.4039268   -2.4039268   -1.6192366  0.043756083   -2.4039268   0.78469017   426349 
  952000    0.6292787   -2.4021949   -2.4021949    -1.619951  0.044833173   -2.4021949    0.7822439   426349 
  953000   0.62942469   -2.4028625   -2.4028625   -1.6204372  0.050181968   -2.4028625   0.78242537   426349 
  954000   0.62788528   -2.4011563   -2.4011563   -1.6206446  0.051612237   -2.4011563   0.78051176   426349 
  955000   0.62869281   -2.4011078   -2.4011078   -1.6195922  0.053534201   -2.4011078   0.78151559   426349 
  956000   0.62821721   -2.4013574   -2.4013574    -1.620433  0.046465455   -2.4013574   0.78092438   426349 
  957000   0.63007489   -2.4030286   -2.4030286   -1.6197949  0.046346549   -2.4030286   0.78323362   426349 
  958000   0.63044255   -2.4037517   -2.4037517    -1.620061  0.055515828   -2.4037517   0.78369065   426349 
  959000    0.6298675   -2.4026972   -2.4026972   -1.6197214  0.056212696   -2.4026972   0.78297582   426349 
  960000   0.63091971   -2.4045671   -2.4045671   -1.6202833  0.048775376   -2.4045671    0.7842838   426349 
  961000   0.62936409   -2.4027949   -2.4027949   -1.6204449    0.0574292   -2.4027949   0.78235004   426349 
  962000   0.62984467   -2.4042222   -2.4042222   -1.6212748  0.058189778   -2.4042222   0.78294744   426349 
  963000   0.62899486   -2.4039677   -2.4039677   -1.6220767  0.052751725   -2.4039677   0.78189106   426349 
  964000   0.63075317   -2.4062747   -2.4062747   -1.6221979  0.061106653   -2.4062747   0.78407678   426349 
  965000   0.63050341   -2.4061967   -2.4061967   -1.6224304  0.051950743   -2.4061967    0.7837663   426349 
  966000   0.62899477   -2.4048496   -2.4048496   -1.6229586  0.062483216   -2.4048496   0.78189094   426349 
  967000   0.62940461   -2.4047393   -2.4047393   -1.6223389  0.060606617   -2.4047393   0.78240041   426349 
  968000   0.62949254   -2.4051644   -2.4051644   -1.6226547  0.054958612   -2.4051644   0.78250971   426349 
  969000     0.629207   -2.4048788   -2.4048788    -1.622724  0.060314195   -2.4048788   0.78215476   426349 
  970000   0.62993105   -2.4060632   -2.4060632   -1.6230083  0.060243266   -2.4060632   0.78305482   426349 
  971000   0.62954675   -2.4050737   -2.4050737   -1.6224965  0.052712845   -2.4050737   0.78257711   426349 
  972000   0.62875935   -2.4052601   -2.4052601   -1.6236618  0.046792575   -2.4052601    0.7815983   426349 
  973000   0.62812208   -2.4052161   -2.4052161     -1.62441  0.052261696   -2.4052161   0.78080612   426349 
  974000   0.62754382   -2.4042875   -2.4042875   -1.6242002  0.042808045   -2.4042875   0.78008729   426349 
  975000   0.62854239   -2.4050576   -2.4050576    -1.623729   0.05099902   -2.4050576    0.7813286   426349 
  976000   0.62898143   -2.4057593   -2.4057593    -1.623885  0.046543595   -2.4057593   0.78187437   426349 
  977000   0.62947841   -2.4058326   -2.4058326   -1.6233404  0.051195379   -2.4058326   0.78249214   426349 
  978000   0.63003219   -2.4070199   -2.4070199   -1.6238394  0.053513462   -2.4070199   0.78318054   426349 
  979000   0.62900333   -2.4055938   -2.4055938   -1.6236922  0.051561312   -2.4055938   0.78190159   426349 
  980000   0.62809265   -2.4057835   -2.4057835    -1.625014   0.04824644   -2.4057835   0.78076954   426349 
  981000    0.6281364   -2.4057433   -2.4057433   -1.6249193  0.045811438   -2.4057433   0.78082392   426349 
  982000   0.63037471   -2.4090824   -2.4090824   -1.6254761  0.040928635   -2.4090824   0.78360633   426349 
  983000   0.62915491   -2.4081459   -2.4081459   -1.6260559  0.045640107   -2.4081459   0.78209001   426349 
  984000   0.62827041   -2.4065104   -2.4065104   -1.6255199   0.04795051   -2.4065104   0.78099051   426349 
  985000    0.6304358   -2.4089858   -2.4089858   -1.6253035  0.058227768   -2.4089858   0.78368226   426349 
  986000   0.63071389    -2.408301    -2.408301   -1.6242731  0.058219609    -2.408301   0.78402795   426349 
  987000   0.63038386   -2.4081054   -2.4081054   -1.6244877  0.053324614   -2.4081054    0.7836177   426349 
  988000   0.62999873   -2.4077381   -2.4077381   -1.6245991  0.058261754   -2.4077381   0.78313894   426349 
  989000   0.63050384   -2.4082874   -2.4082874   -1.6245205  0.060197854   -2.4082874   0.78376683   426349 
  990000   0.63016974   -2.4079324   -2.4079324   -1.6245809  0.049566962   -2.4079324   0.78335152   426349 
  991000   0.62985224   -2.4081304   -2.4081304   -1.6251736  0.060733271   -2.4081304   0.78295684   426349 
  992000   0.62889366   -2.4080634   -2.4080634   -1.6262981   0.05580763   -2.4080634   0.78176526   426349 
  993000   0.62834226   -2.4070097   -2.4070097   -1.6259299  0.052042908   -2.4070097   0.78107982   426349 
  994000    0.6292602   -2.4080161   -2.4080161   -1.6257952  0.049600068   -2.4080161    0.7822209   426349 
  995000   0.62919804   -2.4078707   -2.4078707   -1.6257271  0.048412662   -2.4078707   0.78214363   426349 
  996000   0.62696127   -2.4061128   -2.4061128   -1.6267496  0.042952408   -2.4061128   0.77936314   426349 
  997000   0.62893136   -2.4090383   -2.4090383   -1.6272262  0.052172764   -2.4090383   0.78181213   426349 
  998000   0.62864127   -2.4085134   -2.4085134   -1.6270619  0.043363643   -2.4085134   0.78145151   426349 
  999000    0.6293087   -2.4101324   -2.4101324   -1.6278512  0.059208526   -2.4101324   0.78228118   426349 
 1000000   0.62856859   -2.4089508   -2.4089508   -1.6275896  0.060192367   -2.4089508   0.78136116   426349 
 1001000   0.62943834   -2.4098284   -2.4098284   -1.6273861  0.059787054   -2.4098284   0.78244234   426349 
 1002000   0.62844579    -2.409068    -2.409068   -1.6278595  0.045992362    -2.409068   0.78120852   426349 
 1003000   0.62961912   -2.4104626   -2.4104626   -1.6277956  0.059282217   -2.4104626   0.78266706   426349 
 1004000    0.6291244   -2.4102014   -2.4102014   -1.6281493   0.05194266   -2.4102014   0.78205208   426349 
 1005000   0.62896607   -2.4099693   -2.4099693    -1.628114  0.055569327   -2.4099693   0.78185527   426349 
 1006000   0.62977419   -2.4107796   -2.4107796   -1.6279198  0.049364976   -2.4107796   0.78285982   426349 
 1007000    0.6295602   -2.4105341   -2.4105341   -1.6279402  0.053753377   -2.4105341   0.78259382   426349 
 1008000   0.63068308   -2.4117309   -2.4117309   -1.6277413  0.049697734   -2.4117309   0.78398964   426349 
 1009000   0.63002151    -2.411653    -2.411653   -1.6284857  0.063934494    -2.411653   0.78316726   426349 
 1010000   0.63029236    -2.412436    -2.412436    -1.628932  0.051681783    -2.412436   0.78350395   426349 
 1011000   0.62961124   -2.4118242   -2.4118242    -1.629167  0.051037134   -2.4118242   0.78265727   426349 
 1012000    0.6289551   -2.4112348   -2.4112348   -1.6293932  0.046414149   -2.4112348   0.78184163   426349 
 1013000   0.62981922   -2.4132836   -2.4132836   -1.6303678  0.048750638   -2.4132836   0.78291581   426349 
 1014000   0.62858817   -2.4120821   -2.4120821   -1.6306966  0.047135741   -2.4120821   0.78138551   426349 
 1015000   0.62866238   -2.4125826   -2.4125826   -1.6311048  0.054710389   -2.4125826   0.78147776   426349 
 1016000   0.62810694    -2.412218    -2.412218   -1.6314307  0.049282178    -2.412218    0.7807873   426349 
 1017000   0.62897177   -2.4134666   -2.4134666   -1.6316042  0.052402649   -2.4134666   0.78186235   426349 
 1018000   0.62920608   -2.4136498   -2.4136498   -1.6314962  0.056968409   -2.4136498   0.78215361   426349 
 1019000   0.63012155   -2.4145215   -2.4145215   -1.6312299  0.061956746   -2.4145215   0.78329163   426349 
 1020000   0.62875035   -2.4135677   -2.4135677   -1.6319805  0.042808724   -2.4135677   0.78158711   426349 
 1021000   0.62939862   -2.4152191   -2.4152191   -1.6328262  0.046674284   -2.4152191   0.78239296   426349 
 1022000   0.62913072   -2.4149004   -2.4149004   -1.6328404  0.056807935   -2.4149004   0.78205995   426349 
 1023000   0.62849223   -2.4136238   -2.4136238   -1.6323576  0.057637635   -2.4136238   0.78126624   426349 
 1024000   0.62884127   -2.4140755   -2.4140755   -1.6323754  0.060397258   -2.4140755   0.78170013   426349 
 1025000   0.62904825   -2.4142296   -2.4142296   -1.6322722  0.047225208   -2.4142296   0.78195742   426349 
 1026000   0.62964429    -2.416178    -2.416178   -1.6334796  0.054078747    -2.416178   0.78269835   426349 
 1027000   0.62914694   -2.4148629   -2.4148629   -1.6327828  0.052334521   -2.4148629    0.7820801   426349 
 1028000   0.62850533   -2.4146186   -2.4146186   -1.6333361  0.059760086   -2.4146186   0.78128253   426349 
 1029000   0.62859595   -2.4151118   -2.4151118   -1.6337166  0.057986747   -2.4151118   0.78139518   426349 
 1030000   0.62712065   -2.4137422   -2.4137422   -1.6341809  0.052977496   -2.4137422   0.77956127   426349 
 1031000   0.62709241   -2.4140252   -2.4140252    -1.634499    0.0584778   -2.4140252   0.77952616   426349 
 1032000   0.62757981   -2.4152619   -2.4152619   -1.6351299  0.050364917   -2.4152619   0.78013204   426349 
 1033000   0.62888015   -2.4160561   -2.4160561   -1.6343076  0.051816035   -2.4160561   0.78174847   426349 
 1034000   0.62721148   -2.4146879   -2.4146879   -1.6350137  0.052077813   -2.4146879   0.77967418   426349 
 1035000   0.62773772   -2.4146667   -2.4146667   -1.6343384  0.056515891   -2.4146667   0.78032833   426349 
 1036000   0.62877166    -2.415234    -2.415234   -1.6336204   0.05139418    -2.415234    0.7816136   426349 
 1037000   0.62922786   -2.4164348   -2.4164348   -1.6342541  0.053638944   -2.4164348   0.78218069   426349 
 1038000   0.62840784   -2.4152785   -2.4152785   -1.6341171  0.051594568   -2.4152785   0.78116135   426349 
 1039000   0.62814923   -2.4158697   -2.4158697   -1.6350298  0.047203886   -2.4158697   0.78083987   426349 
 1040000   0.62872014   -2.4156608   -2.4156608   -1.6341112  0.045829055   -2.4156608   0.78154955   426349 
 1041000   0.62836377   -2.4160512   -2.4160512   -1.6349447  0.047987327   -2.4160512   0.78110655   426349 
 1042000   0.62866978   -2.4164428   -2.4164428   -1.6349559  0.053334578   -2.4164428   0.78148696   426349 
 1043000   0.62692118   -2.4153518   -2.4153518   -1.6360385  0.057003456   -2.4153518   0.77931331   426349 
 1044000   0.62696208   -2.4149651   -2.4149651   -1.6356009  0.047043186   -2.4149651   0.77936414   426349 
 1045000   0.62706762    -2.415459    -2.415459   -1.6359636  0.049060413    -2.415459   0.77949534   426349 
 1046000   0.62709902   -2.4162914   -2.4162914   -1.6367571  0.045594302   -2.4162914   0.77953438   426349 
 1047000   0.62701674   -2.4156429   -2.4156429   -1.6362108  0.049165028   -2.4156429    0.7794321   426349 
 1048000   0.62799058   -2.4180246   -2.4180246   -1.6373819  0.050379221   -2.4180246   0.78064266   426349 
 1049000   0.62727482   -2.4172624   -2.4172624   -1.6375095   0.04666388   -2.4172624   0.77975291   426349 
 1050000   0.62797444    -2.418409    -2.418409   -1.6377864  0.047956584    -2.418409    0.7806226   426349 
 1051000   0.62753613   -2.4173007   -2.4173007    -1.637223  0.047596092   -2.4173007   0.78007774   426349 
 1052000   0.62670313   -2.4161709   -2.4161709   -1.6371287  0.041951846   -2.4161709   0.77904225   426349 
 1053000   0.62715224   -2.4167192   -2.4167192   -1.6371187  0.059591283   -2.4167192   0.77960053   426349 
 1054000   0.62807533   -2.4178157   -2.4178157   -1.6370677  0.048316687   -2.4178157   0.78074801   426349 
 1055000   0.62761618   -2.4173864   -2.4173864   -1.6372092  0.052821576   -2.4173864   0.78017725   426349 
 1056000   0.62828398    -2.418901    -2.418901   -1.6378937  0.047002224    -2.418901   0.78100737   426349 
 1057000    0.6285546   -2.4185911   -2.4185911   -1.6372474  0.054418985   -2.4185911   0.78134377   426349 
 1058000   0.62873034   -2.4184719   -2.4184719   -1.6369097  0.051620747   -2.4184719   0.78156224   426349 
 1059000   0.62811624   -2.4181291   -2.4181291   -1.6373302  0.044150106   -2.4181291   0.78079886   426349 
 1060000   0.62822133   -2.4184457   -2.4184457   -1.6375162  0.042234324   -2.4184457    0.7809295   426349 
 1061000   0.62849001   -2.4192981   -2.4192981   -1.6380346  0.053966158   -2.4192981   0.78126349   426349 
 1062000   0.62763707   -2.4183704   -2.4183704   -1.6381672  0.057567485   -2.4183704   0.78020321   426349 
 1063000   0.62729843   -2.4187085   -2.4187085   -1.6389262  0.047086639   -2.4187085   0.77978225   426349 
 1064000   0.62677938   -2.4180407   -2.4180407   -1.6389037  0.059215575   -2.4180407   0.77913704   426349 
 1065000   0.62707665   -2.4188883   -2.4188883   -1.6393818  0.052217319   -2.4188883   0.77950657   426349 
 1066000   0.62688883   -2.4183654   -2.4183654   -1.6390923  0.045421391   -2.4183654   0.77927309   426349 
 1067000   0.62735294   -2.4200874   -2.4200874   -1.6402374  0.047584045   -2.4200874   0.77985002   426349 
 1068000   0.62721821   -2.4202284   -2.4202284   -1.6405459  0.047759739   -2.4202284   0.77968253   426349 
 1069000   0.62937074   -2.4221296   -2.4221296   -1.6397713   0.04571212   -2.4221296    0.7823583   426349 
 1070000   0.62716754   -2.4192711   -2.4192711   -1.6396515  0.057703423   -2.4192711   0.77961955   426349 
 1071000    0.6277409   -2.4201204   -2.4201204   -1.6397881  0.051803226   -2.4201204   0.78033228   426349 
 1072000   0.62757763   -2.4201222   -2.4201222   -1.6399928  0.055661612   -2.4201222   0.78012933   426349 
 1073000   0.62726566    -2.420322    -2.420322   -1.6405805  0.043814479    -2.420322   0.77974152   426349 
 1074000   0.62669609   -2.4201509   -2.4201509   -1.6411174  0.055009368   -2.4201509    0.7790335   426349 
 1075000    0.6267569   -2.4204115   -2.4204115   -1.6413024  0.044526931   -2.4204115   0.77910909   426349 
 1076000    0.6270297   -2.4208713   -2.4208713   -1.6414231  0.050667134   -2.4208713    0.7794482   426349 
 1077000   0.62652548   -2.4206914   -2.4206914     -1.64187  0.050244686   -2.4206914   0.77882142   426349 
 1078000    0.6266732   -2.4203113   -2.4203113   -1.6413062  0.047857975   -2.4203113   0.77900505   426349 
 1079000   0.62777532   -2.4215492   -2.4215492   -1.6411741  0.051632744   -2.4215492   0.78037506   426349 
 1080000   0.62749357   -2.4216996   -2.4216996   -1.6416748  0.046737458   -2.4216996   0.78002483   426349 
 1081000   0.62763988   -2.4223921   -2.4223921   -1.6421853  0.052190564   -2.4223921   0.78020671   426349 
 1082000   0.62765503   -2.4222771   -2.4222771   -1.6420515  0.058619211   -2.4222771   0.78022555   426349 
 1083000   0.62726226   -2.4218991   -2.4218991   -1.6421618   0.05499572   -2.4218991    0.7797373   426349 
 1084000   0.62665429   -2.4204179   -2.4204179   -1.6414364  0.046197027   -2.4204179   0.77898154   426349 
 1085000   0.62859276   -2.4232028   -2.4232028   -1.6418115  0.055060998   -2.4232028   0.78139121   426349 
 1086000   0.62761354   -2.4224838   -2.4224838   -1.6423098  0.056424002   -2.4224838   0.78017396   426349 
 1087000   0.62669005   -2.4222696   -2.4222696   -1.6432436  0.064995364   -2.4222696     0.779026   426349 
 1088000   0.62692099    -2.422115    -2.422115    -1.642802  0.052389908    -2.422115   0.77931307   426349 
 1089000   0.62796673   -2.4233786   -2.4233786   -1.6427656  0.045987574   -2.4233786   0.78061301   426349 
 1090000   0.62697227   -2.4221319   -2.4221319   -1.6427551  0.057359026   -2.4221319   0.77937681   426349 
 1091000   0.62633609    -2.422056    -2.422056     -1.64347   0.05158805    -2.422056   0.77858599   426349 
 1092000   0.62760244   -2.4232255   -2.4232255   -1.6430653  0.057015824   -2.4232255   0.78016017   426349 
 1093000   0.62763757   -2.4234716   -2.4234716   -1.6432677  0.051443356   -2.4234716   0.78020384   426349 
 1094000   0.62567053   -2.4225863   -2.4225863   -1.6448277  0.054655535   -2.4225863   0.77775865   426349 
 1095000    0.6262807   -2.4228323   -2.4228323   -1.6443151  0.056794287   -2.4228323   0.77851714   426349 
 1096000   0.62696082    -2.423413    -2.423413   -1.6440504  0.049894588    -2.423413   0.77936258   426349 
 1097000    0.6264218   -2.4224193   -2.4224193   -1.6437267  0.048681617   -2.4224193   0.77869254   426349 
 1098000   0.62570454   -2.4210063   -2.4210063   -1.6432054  0.059313292   -2.4210063   0.77780092   426349 
 1099000   0.62637944   -2.4229123   -2.4229123   -1.6442725   0.04836729   -2.4229123   0.77863988   426349 
 1100000   0.62603103   -2.4217251   -2.4217251   -1.6435183  0.049461375   -2.4217251   0.77820677   426349 
 1101000   0.62606072   -2.4225182   -2.4225182   -1.6442745  0.054087488   -2.4225182   0.77824368   426349 
 1102000   0.62709958   -2.4228237   -2.4228237   -1.6432886  0.055071348   -2.4228237   0.77953507   426349 
 1103000   0.62712305   -2.4239344   -2.4239344   -1.6443702  0.057294987   -2.4239344   0.77956424   426349 
 1104000   0.62661881   -2.4235985   -2.4235985   -1.6446611  0.056505864   -2.4235985   0.77893743   426349 
 1105000   0.62659542   -2.4233584   -2.4233584     -1.64445  0.046653223   -2.4233584   0.77890836   426349 
 1106000   0.62677062   -2.4232095   -2.4232095   -1.6440834   0.04655977   -2.4232095   0.77912615   426349 
 1107000   0.62701286   -2.4238157   -2.4238157   -1.6443884   0.05710364   -2.4238157   0.77942727   426349 
 1108000   0.62729577   -2.4242516   -2.4242516   -1.6444727   0.05547866   -2.4242516   0.77977895   426349 
 1109000   0.62708088   -2.4249385   -2.4249385   -1.6454267  0.051615498   -2.4249385   0.77951182   426349 
 1110000   0.62623865   -2.4232978   -2.4232978    -1.644833  0.049014231   -2.4232978   0.77846487   426349 
 1111000   0.62721242   -2.4239819   -2.4239819   -1.6443066  0.053365396   -2.4239819   0.77967534   426349 
 1112000   0.62702268   -2.4244482   -2.4244482   -1.6450087  0.042757187   -2.4244482   0.77943948   426349 
 1113000   0.62695736   -2.4237047   -2.4237047   -1.6443464  0.050157302   -2.4237047   0.77935828   426349 
 1114000   0.62708718    -2.424243    -2.424243   -1.6447233  0.051156841    -2.424243   0.77951965   426349 
 1115000    0.6270392   -2.4241584   -2.4241584   -1.6446984  0.053450631   -2.4241584   0.77946002   426349 
 1116000   0.62712269   -2.4243147   -2.4243147   -1.6447509  0.045997644   -2.4243147    0.7795638   426349 
 1117000   0.62661252   -2.4239866   -2.4239866    -1.645057  0.047828104   -2.4239866   0.77892962   426349 
 1118000   0.62517476   -2.4231896   -2.4231896   -1.6460472  0.048469651   -2.4231896   0.77714237   426349 
 1119000   0.62592799   -2.4246819   -2.4246819   -1.6466032  0.049936032   -2.4246819    0.7780787   426349 
 1120000   0.62569581   -2.4245302   -2.4245302   -1.6467401   0.03494318   -2.4245302   0.77779007   426349 
 1121000   0.62584297   -2.4252825   -2.4252825   -1.6473095  0.048176232   -2.4252825     0.777973   426349 
 1122000   0.62521279   -2.4250762   -2.4250762   -1.6478866  0.059008953   -2.4250762   0.77718964   426349 
 1123000   0.62586167   -2.4262731   -2.4262731   -1.6482768  0.058524458   -2.4262731   0.77799625   426349 
 1124000   0.62760353   -2.4269821   -2.4269821   -1.6468206   0.04582155   -2.4269821   0.78016153   426349 
 1125000     0.626087   -2.4258716   -2.4258716   -1.6475952  0.051282036   -2.4258716   0.77827635   426349 
 1126000   0.62586233   -2.4262399   -2.4262399   -1.6482429  0.044264869   -2.4262399   0.77799707   426349 
 1127000   0.62763382   -2.4280149   -2.4280149   -1.6478157  0.051434113   -2.4280149   0.78019918   426349 
 1128000   0.62629277   -2.4264941   -2.4264941   -1.6479619  0.045501259   -2.4264941   0.77853214   426349 
 1129000   0.62821326   -2.4284243   -2.4284243   -1.6475049  0.058100914   -2.4284243   0.78091946   426349 
 1130000   0.62783804   -2.4280902   -2.4280902   -1.6476372  0.058127996   -2.4280902   0.78045304   426349 
 1131000   0.62707106   -2.4281144   -2.4281144   -1.6486148  0.057367338   -2.4281144   0.77949962   426349 
 1132000   0.62613687   -2.4267698   -2.4267698   -1.6484315  0.043250401   -2.4267698   0.77833834   426349 
 1133000   0.62792806   -2.4294146   -2.4294146   -1.6488497  0.057297711   -2.4294146   0.78056494   426349 
 1134000   0.62721601   -2.4290428   -2.4290428    -1.649363  0.052272966   -2.4290428    0.7796798   426349 
 1135000   0.62418969   -2.4258416   -2.4258416   -1.6499238  0.047863851   -2.4258416   0.77591785   426349 
 1136000   0.62541802   -2.4277814   -2.4277814   -1.6503366  0.050693729   -2.4277814   0.77744476   426349 
 1137000   0.62574411   -2.4284262   -2.4284262   -1.6505761   0.06050448   -2.4284262   0.77785012   426349 
 1138000   0.62525239   -2.4278828   -2.4278828    -1.650644  0.055942542   -2.4278828   0.77723887   426349 
 1139000   0.62528707   -2.4273547   -2.4273547   -1.6500727   0.05547835   -2.4273547   0.77728197   426349 
 1140000   0.62585455   -2.4285108   -2.4285108   -1.6505234  0.054159773   -2.4285108   0.77798739   426349 
 1141000   0.62634099   -2.4291366   -2.4291366   -1.6505445  0.048315211   -2.4291366   0.77859209   426349 
 1142000   0.62544151    -2.428221    -2.428221    -1.650747  0.045930703    -2.428221   0.77747396   426349 
 1143000   0.62715073   -2.4299808   -2.4299808   -1.6503821  0.049681884   -2.4299808   0.77959866   426349 
 1144000    0.6270671   -2.4300504   -2.4300504   -1.6505557  0.041777692   -2.4300504   0.77949469   426349 
 1145000   0.62643225   -2.4297704   -2.4297704   -1.6510648  0.051722746   -2.4297704   0.77870552   426349 
 1146000   0.62721084   -2.4308596   -2.4308596   -1.6511863  0.038023823   -2.4308596   0.77967338   426349 
 1147000    0.6266611   -2.4306938   -2.4306938   -1.6517038  0.044753713   -2.4306938      0.77899   426349 
 1148000   0.62635474   -2.4301668   -2.4301668   -1.6515576  0.047423323   -2.4301668   0.77860917   426349 
 1149000   0.62791885   -2.4323132   -2.4323132   -1.6517597  0.049385428   -2.4323132   0.78055349   426349 
 1150000   0.62639525   -2.4303602   -2.4303602   -1.6517006  0.043248477   -2.4303602   0.77865953   426349 
 1151000   0.62665155    -2.430387    -2.430387   -1.6514088  0.052908847    -2.430387   0.77897813   426349 
 1152000   0.62611657    -2.430123    -2.430123   -1.6518098  0.051460397    -2.430123   0.77831311   426349 
 1153000    0.6262366   -2.4307321   -2.4307321   -1.6522698  0.049864029   -2.4307321   0.77846231   426349 
 1154000   0.62437059    -2.429204    -2.429204   -1.6530613  0.062631372    -2.429204   0.77614272   426349 
 1155000   0.62530093   -2.4300655   -2.4300655   -1.6527663  0.050722167   -2.4300655   0.77729921   426349 
 1156000   0.62640055   -2.4321412   -2.4321412   -1.6534751  0.049054637   -2.4321412   0.77866612   426349 
 1157000    0.6276781   -2.4326896   -2.4326896   -1.6524354  0.045694781   -2.4326896   0.78025422   426349 
 1158000   0.62641243   -2.4314006   -2.4314006   -1.6527197  0.045524077   -2.4314006   0.77868089   426349 
 1159000   0.62682184   -2.4316155   -2.4316155   -1.6524256  0.059693486   -2.4316155   0.77918982   426349 
 1160000   0.62627549   -2.4308784   -2.4308784   -1.6523678  0.046803772   -2.4308784   0.77851067   426349 
 1161000   0.62647871   -2.4313714   -2.4313714   -1.6526081  0.056730694   -2.4313714   0.77876329   426349 
 1162000   0.62599245   -2.4301352   -2.4301352   -1.6519764  0.044550444   -2.4301352   0.77815881   426349 
 1163000   0.62551252   -2.4304407   -2.4304407   -1.6528785  0.048852724   -2.4304407   0.77756223   426349 
 1164000   0.62492962   -2.4296837   -2.4296837   -1.6528461  0.052287163   -2.4296837   0.77683763   426349 
 1165000    0.6249353   -2.4291679   -2.4291679   -1.6523232  0.053611019   -2.4291679    0.7768447   426349 
 1166000   0.62474114    -2.430232    -2.430232   -1.6536287    0.0490991    -2.430232   0.77660334   426349 
 1167000   0.62559672   -2.4314867   -2.4314867   -1.6538198  0.042544021   -2.4314867    0.7776669   426349 
 1168000   0.62502776   -2.4314569   -2.4314569   -1.6544973  0.053377645   -2.4314569   0.77695963   426349 
 1169000    0.6259964   -2.4328643   -2.4328643   -1.6547006   0.04433733   -2.4328643   0.77816373   426349 
 1170000   0.62508948   -2.4311124   -2.4311124    -1.654076  0.051826378   -2.4311124   0.77703635   426349 
 1171000   0.62521993   -2.4318921   -2.4318921   -1.6546936  0.053076074   -2.4318921   0.77719852   426349 
 1172000    0.6262629   -2.4328086   -2.4328086   -1.6543135  0.047978528   -2.4328086   0.77849501   426349 
 1173000   0.62537189   -2.4316014   -2.4316014    -1.654214  0.057915267   -2.4316014   0.77738741   426349 
 1174000   0.62599941   -2.4327153   -2.4327153   -1.6545478   0.04761622   -2.4327153   0.77816747   426349 
 1175000   0.62624919   -2.4327097   -2.4327097   -1.6542317  0.043607264   -2.4327097   0.77847797   426349 
 1176000    0.6265617    -2.432554    -2.432554   -1.6536875  0.048014926    -2.432554   0.77886644   426349 
 1177000   0.62505126   -2.4315421   -2.4315421   -1.6545533   0.04616132   -2.4315421   0.77698885   426349 
 1178000   0.62576381    -2.432512    -2.432512   -1.6546374  0.041887417    -2.432512    0.7778746   426349 
 1179000   0.62575678    -2.432474    -2.432474   -1.6546081  0.054273804    -2.432474   0.77786587   426349 
 1180000    0.6260827   -2.4326391   -2.4326391   -1.6543681   0.04383905   -2.4326391   0.77827101   426349 
 1181000   0.62587082   -2.4323487   -2.4323487   -1.6543411  0.049059422   -2.4323487   0.77800762   426349 
 1182000   0.62494035   -2.4313856   -2.4313856   -1.6545347  0.058087303   -2.4313856   0.77685097   426349 
 1183000   0.62464028   -2.4314297   -2.4314297   -1.6549517   0.04489786   -2.4314297   0.77647797   426349 
 1184000   0.62591984   -2.4328511   -2.4328511   -1.6547825  0.049508848   -2.4328511   0.77806856   426349 
 1185000    0.6248675   -2.4325479   -2.4325479   -1.6557875  0.053206015   -2.4325479   0.77676042   426349 
 1186000    0.6246532   -2.4315459   -2.4315459   -1.6550519   0.04659185   -2.4315459   0.77649403   426349 
 1187000   0.62480841   -2.4322968   -2.4322968   -1.6556099   0.05046108   -2.4322968   0.77668696   426349 
 1188000   0.62615107   -2.4335324   -2.4335324   -1.6551764   0.04786558   -2.4335324   0.77835599   426349 
 1189000   0.62586359   -2.4334451   -2.4334451   -1.6554465  0.052677108   -2.4334451   0.77799863   426349 
 1190000   0.62563073   -2.4331743   -2.4331743   -1.6554651  0.049264204   -2.4331743   0.77770917   426349 
 1191000   0.62588813   -2.4330769   -2.4330769   -1.6550478  0.046441942   -2.4330769   0.77802914   426349 
 1192000   0.62719261   -2.4340756   -2.4340756   -1.6544249  0.055519411   -2.4340756   0.77965071   426349 
 1193000   0.62664176   -2.4333521   -2.4333521   -1.6543862  0.050072572   -2.4333521   0.77896597   426349 
 1194000   0.62703849   -2.4345575   -2.4345575   -1.6550983  0.043115985   -2.4345575   0.77945913   426349 
 1195000   0.62605101   -2.4339153   -2.4339153   -1.6556837  0.054288628   -2.4339153   0.77823161   426349 
 1196000   0.62550268   -2.4332158   -2.4332158   -1.6556658  0.052362158   -2.4332158   0.77754999   426349 
 1197000    0.6252935   -2.4330102   -2.4330102   -1.6557202  0.047673287   -2.4330102   0.77728996   426349 
 1198000   0.62544323   -2.4330768   -2.4330768   -1.6556007  0.057000757   -2.4330768   0.77747609   426349 
 1199000   0.62669948   -2.4351421   -2.4351421   -1.6561044   0.04409366   -2.4351421   0.77903771   426349 
 1200000   0.62530906   -2.4341292   -2.4341292   -1.6568199  0.051828405   -2.4341292   0.77730931   426349 
 1201000   0.62639841   -2.4353728   -2.4353728   -1.6567093  0.056498548   -2.4353728   0.77866346   426349 
 1202000   0.62429972   -2.4334296   -2.4334296    -1.657375  0.052947757   -2.4334296   0.77605462   426349 
 1203000    0.6242031   -2.4335098   -2.4335098   -1.6575753  0.049801083   -2.4335098   0.77593452   426349 
 1204000   0.62448741   -2.4337097   -2.4337097   -1.6574218  0.038579682   -2.4337097   0.77628794   426349 
 1205000    0.6246379   -2.4339331   -2.4339331   -1.6574581  0.051227992   -2.4339331   0.77647501   426349 
 1206000   0.62518255   -2.4352015   -2.4352015   -1.6580494  0.042245367   -2.4352015   0.77715205   426349 
 1207000   0.62466964   -2.4334831   -2.4334831   -1.6569686  0.050724604   -2.4334831   0.77651446   426349 
 1208000   0.62711649   -2.4366248   -2.4366248   -1.6570687  0.050321739   -2.4366248   0.77955609   426349 
 1209000   0.62674186   -2.4363325   -2.4363325   -1.6572421  0.053192778   -2.4363325   0.77909039   426349 
 1210000    0.6247934   -2.4339787   -2.4339787   -1.6573104  0.041791621   -2.4339787   0.77666831   426349 
 1211000   0.62462811   -2.4342822   -2.4342822   -1.6578194  0.052891479   -2.4342822   0.77646284   426349 
 1212000   0.62424545   -2.4342427   -2.4342427   -1.6582555  0.047354781   -2.4342427   0.77598716   426349 
 1213000   0.62470145   -2.4361436   -2.4361436   -1.6595896  0.045647793   -2.4361436     0.776554   426349 
 1214000   0.62482009   -2.4369324   -2.4369324   -1.6602309  0.051594869   -2.4369324   0.77670148   426349 
 1215000    0.6247382   -2.4367707   -2.4367707   -1.6601711  0.053094349   -2.4367707   0.77659968   426349 
 1216000   0.62574246   -2.4372374   -2.4372374   -1.6593894  0.057452527   -2.4372374   0.77784806   426349 
 1217000   0.62562793   -2.4373211   -2.4373211   -1.6596154  0.055636555   -2.4373211    0.7777057   426349 
 1218000   0.62626037   -2.4372332   -2.4372332   -1.6587413  0.051359923   -2.4372332   0.77849187   426349 
 1219000   0.62656081   -2.4377154   -2.4377154     -1.65885  0.056107929   -2.4377154   0.77886534   426349 
 1220000   0.62528612   -2.4367531   -2.4367531   -1.6594723   0.05201547   -2.4367531   0.77728079   426349 
 1221000   0.62483287   -2.4371262   -2.4371262   -1.6604089  0.045892049   -2.4371262   0.77671737   426349 
 1222000   0.62366235   -2.4362638   -2.4362638   -1.6610015  0.041761134   -2.4362638   0.77526232   426349 
 1223000   0.62463596   -2.4379329   -2.4379329   -1.6614603  0.052159035   -2.4379329   0.77647259   426349 
 1224000   0.62424836   -2.4378859   -2.4378859   -1.6618952  0.047855063   -2.4378859   0.77599077   426349 
 1225000   0.62524409     -2.43814     -2.43814   -1.6609114  0.057545605     -2.43814   0.77722855   426349 
 1226000    0.6247721   -2.4381832   -2.4381832   -1.6615414  0.059396635   -2.4381832   0.77664183   426349 
 1227000   0.62339803   -2.4368781   -2.4368781   -1.6619444  0.053889153   -2.4368781   0.77493375   426349 
 1228000   0.62445123   -2.4382942   -2.4382942   -1.6620512  0.038542163   -2.4382942   0.77624295   426349 
 1229000   0.62454537   -2.4377935   -2.4377935   -1.6614336  0.055002518   -2.4377935   0.77635999   426349 
 1230000   0.62518621   -2.4387139   -2.4387139   -1.6615573  0.045454043   -2.4387139    0.7771566   426349 
 1231000   0.62449507   -2.4385274   -2.4385274   -1.6622299  0.053679266   -2.4385274   0.77629746   426349 
 1232000    0.6253921    -2.438818    -2.438818   -1.6614054  0.050381928    -2.438818   0.77741254   426349 
 1233000   0.62474346   -2.4388419   -2.4388419   -1.6622357  0.055260131   -2.4388419   0.77660622   426349 
 1234000   0.62529019   -2.4396582   -2.4396582   -1.6623723  0.050828255   -2.4396582   0.77728585   426349 
 1235000   0.62521288   -2.4396734   -2.4396734   -1.6624837  0.056691829   -2.4396734   0.77718975   426349 
 1236000   0.62511787   -2.4398726   -2.4398726   -1.6628009  0.058636524   -2.4398726   0.77707164   426349 
 1237000   0.62522765   -2.4408566   -2.4408566   -1.6636484  0.047448779   -2.4408566   0.77720811   426349 
 1238000   0.62523578   -2.4407758   -2.4407758   -1.6635576  0.049370125   -2.4407758   0.77721821   426349 
 1239000   0.62489455   -2.4400432   -2.4400432   -1.6632492  0.045562446   -2.4400432   0.77679404   426349 
 1240000   0.62543087   -2.4407035   -2.4407035   -1.6632428  0.047380854   -2.4407035   0.77746073   426349 
 1241000   0.62491403   -2.4404167   -2.4404167   -1.6635985  0.056039251   -2.4404167   0.77681825   426349 
 1242000   0.62620025   -2.4418961   -2.4418961   -1.6634789  0.057263011   -2.4418961   0.77841714   426349 
 1243000   0.62463569   -2.4407211   -2.4407211   -1.6642488  0.039478255   -2.4407211   0.77647225   426349 
 1244000   0.62685336   -2.4433586   -2.4433586   -1.6641296  0.034468737   -2.4433586     0.779229   426349 
 1245000   0.62599198   -2.4417332   -2.4417332   -1.6635749  0.054452847   -2.4417332   0.77815824   426349 
 1246000   0.62482376   -2.4404865   -2.4404865   -1.6637805  0.046550303   -2.4404865   0.77670605   426349 
 1247000   0.62401202   -2.4391364   -2.4391364   -1.6634394  0.056981665   -2.4391364   0.77569699   426349 
 1248000   0.62446228   -2.4404485   -2.4404485   -1.6641918  0.052487151   -2.4404485    0.7762567   426349 
 1249000   0.62343691   -2.4395184   -2.4395184   -1.6645364  0.046093395   -2.4395184   0.77498208   426349 
 1250000   0.62509123   -2.4417097   -2.4417097   -1.6646712  0.048125203   -2.4417097   0.77703853   426349 
 1251000   0.62422945   -2.4403256   -2.4403256   -1.6643583  0.054204333   -2.4403256   0.77596727   426349 
 1252000   0.62407602   -2.4398156   -2.4398156   -1.6640391  0.046486398   -2.4398156   0.77577655   426349 
 1253000   0.62568095   -2.4426423   -2.4426423   -1.6648707  0.045889765   -2.4426423   0.77777159   426349 
 1254000   0.62461804     -2.44083     -2.44083   -1.6643797  0.053289243     -2.44083   0.77645031   426349 
 1255000   0.62338453   -2.4396348   -2.4396348   -1.6647179  0.053880188   -2.4396348   0.77491696   426349 
 1256000   0.62413209   -2.4404214   -2.4404214   -1.6645752  0.055084908   -2.4404214   0.77584624   426349 
 1257000   0.62347076   -2.4402052   -2.4402052   -1.6651811  0.058824154   -2.4402052   0.77502416   426349 
 1258000   0.62349328    -2.440831    -2.440831   -1.6657788  0.049299203    -2.440831   0.77505215   426349 
 1259000   0.62398063   -2.4410275   -2.4410275   -1.6653695  0.048414367   -2.4410275   0.77565796   426349 
 1260000   0.62384687   -2.4402989   -2.4402989   -1.6648072  0.049869765   -2.4402989   0.77549169   426349 
 1261000   0.62416601   -2.4410167   -2.4410167   -1.6651283  0.038939304   -2.4410167   0.77588841   426349 
 1262000   0.62521778   -2.4414553   -2.4414553   -1.6642595  0.050825715   -2.4414553   0.77719585   426349 
 1263000    0.6251961    -2.441725    -2.441725   -1.6645561  0.035638929    -2.441725   0.77716889   426349 
 1264000   0.62399945   -2.4400162   -2.4400162   -1.6643349  0.047521256   -2.4400162   0.77568136   426349 
 1265000   0.62404785   -2.4407234   -2.4407234   -1.6649819   0.04232308   -2.4407234   0.77574153   426349 
 1266000   0.62418517   -2.4407246   -2.4407246   -1.6648123  0.050412884   -2.4407246   0.77591223   426349 
 1267000   0.62451136   -2.4418449   -2.4418449   -1.6655272    0.0491156   -2.4418449   0.77631771   426349 
 1268000   0.62474251   -2.4428777   -2.4428777   -1.6662727  0.056803266   -2.4428777   0.77660505   426349 
 1269000   0.62383004    -2.441799    -2.441799   -1.6663282  0.050022285    -2.441799   0.77547077   426349 
 1270000   0.62495752   -2.4434281   -2.4434281   -1.6665557   0.05033559   -2.4434281   0.77687232   426349 
 1271000   0.62423631   -2.4434995   -2.4434995   -1.6675237  0.054748147   -2.4434995    0.7759758   426349 
 1272000   0.62333223   -2.4425489   -2.4425489   -1.6676969  0.047565057   -2.4425489   0.77485196   426349 
 1273000   0.62500899   -2.4445518   -2.4445518   -1.6676155  0.051254391   -2.4445518   0.77693629   426349 
 1274000   0.62369302   -2.4430414   -2.4430414    -1.667741  0.045162567   -2.4430414   0.77530045   426349 
 1275000   0.62443166   -2.4433192   -2.4433192   -1.6671005  0.048048083   -2.4433192   0.77621864   426349 
 1276000   0.62446256   -2.4431831   -2.4431831    -1.666926  0.042471852   -2.4431831   0.77625704   426349 
 1277000   0.62512046   -2.4443542   -2.4443542   -1.6672793  0.047345592   -2.4443542   0.77707487   426349 
 1278000   0.62588597   -2.4447967   -2.4447967   -1.6667702  0.038412258   -2.4447967   0.77802646   426349 
 1279000   0.62517609   -2.4443599   -2.4443599   -1.6672159  0.045823937   -2.4443599   0.77714402   426349 
 1280000   0.62522168    -2.444541    -2.444541   -1.6673404   0.04347348    -2.444541   0.77720069   426349 
 1281000   0.62509258   -2.4442801   -2.4442801   -1.6672399    0.0479934   -2.4442801   0.77704021   426349 
 1282000   0.62583597    -2.445526    -2.445526   -1.6675617  0.040781118    -2.445526   0.77796431   426349 
 1283000   0.62406127   -2.4444234   -2.4444234   -1.6686651  0.043193234   -2.4444234   0.77575821   426349 
 1284000   0.62360079   -2.4440191   -2.4440191   -1.6688333   0.05129433   -2.4440191   0.77518579   426349 
 1285000   0.62326394   -2.4428916   -2.4428916   -1.6681246  0.044511466   -2.4428916   0.77476707   426349 
 1286000   0.62373559   -2.4444296   -2.4444296   -1.6690762   0.05471331   -2.4444296   0.77535337   426349 
 1287000   0.62390465   -2.4437433   -2.4437433   -1.6681797  0.057688071   -2.4437433   0.77556351   426349 
 1288000   0.62453672   -2.4444927   -2.4444927   -1.6681435  0.049560922   -2.4444927   0.77634923   426349 
 1289000   0.62385114   -2.4440964   -2.4440964   -1.6685994  0.040124872   -2.4440964     0.775497   426349 
 1290000   0.62423282   -2.4451421   -2.4451421   -1.6691707  0.054528906   -2.4451421   0.77597146   426349 
 1291000   0.62446489   -2.4460438   -2.4460438   -1.6697839  0.054256742   -2.4460438   0.77625993   426349 
 1292000   0.62480161     -2.44712     -2.44712   -1.6704415  0.055143132     -2.44712   0.77667851   426349 
 1293000    0.6236877   -2.4462684   -2.4462684   -1.6709745  0.046190701   -2.4462684   0.77529383   426349 
 1294000   0.62359187   -2.4456271   -2.4456271   -1.6704524  0.049831189   -2.4456271    0.7751747   426349 
 1295000   0.62369691   -2.4459774   -2.4459774   -1.6706721  0.051647093   -2.4459774   0.77530528   426349 
 1296000   0.62397388   -2.4464309   -2.4464309   -1.6707813  0.046356343   -2.4464309   0.77564958   426349 
 1297000    0.6248114   -2.4474692   -2.4474692   -1.6707785  0.046157164   -2.4474692   0.77669067   426349 
 1298000   0.62315463   -2.4454495   -2.4454495   -1.6708183  0.046775324   -2.4454495   0.77463118   426349 
 1299000   0.62439492   -2.4469557   -2.4469557   -1.6707828  0.045342345   -2.4469557   0.77617296   426349 
 1300000   0.62389373    -2.445729    -2.445729   -1.6701791  0.049943107    -2.445729   0.77554994   426349 
 1301000   0.62526423   -2.4473546   -2.4473546    -1.670101  0.046822315   -2.4473546   0.77725358   426349 
 1302000   0.62408931   -2.4465786   -2.4465786   -1.6707855  0.042725349   -2.4465786   0.77579306   426349 
 1303000   0.62371655   -2.4465001   -2.4465001   -1.6711704  0.043425431   -2.4465001   0.77532969   426349 
 1304000   0.62400103    -2.446993    -2.446993   -1.6713096  0.041745391    -2.446993   0.77568333   426349 
 1305000   0.62295637   -2.4462871   -2.4462871   -1.6719024  0.042886781   -2.4462871   0.77438473   426349 
 1306000   0.62371056   -2.4465311   -2.4465311   -1.6712088  0.043018554   -2.4465311   0.77532224   426349 
 1307000   0.62302938   -2.4454391   -2.4454391   -1.6709636  0.049941443   -2.4454391   0.77447549   426349 
 1308000   0.62356623   -2.4473118   -2.4473118   -1.6721689  0.049449677   -2.4473118   0.77514284   426349 
 1309000    0.6220418   -2.4454713   -2.4454713   -1.6722234  0.048477417   -2.4454713   0.77324785   426349 
 1310000   0.62336774   -2.4469386   -2.4469386   -1.6720425  0.045025869   -2.4469386   0.77489609   426349 
 1311000    0.6231359   -2.4468483   -2.4468483   -1.6722404  0.049178585   -2.4468483   0.77460789   426349 
 1312000   0.62394742   -2.4482208   -2.4482208   -1.6726041  0.048956513   -2.4482208   0.77561669   426349 
 1313000   0.62335527   -2.4470276   -2.4470276    -1.672147  0.045882419   -2.4470276    0.7748806   426349 
 1314000   0.62444416   -2.4488938   -2.4488938   -1.6726596  0.042065911   -2.4488938   0.77623417   426349 
 1315000    0.6236555    -2.447659    -2.447659   -1.6724052  0.052315069    -2.447659   0.77525381   426349 
 1316000   0.62394995   -2.4486502   -2.4486502   -1.6730303  0.042542443   -2.4486502   0.77561983   426349 
 1317000   0.62355476   -2.4481102   -2.4481102   -1.6729816  0.041698204   -2.4481102   0.77512858   426349 
 1318000   0.62349645   -2.4484598   -2.4484598   -1.6734037  0.045271632   -2.4484598   0.77505609   426349 
 1319000   0.62374069   -2.4480879   -2.4480879   -1.6727282  0.054253249   -2.4480879    0.7753597   426349 
 1320000   0.62307815   -2.4475869   -2.4475869   -1.6730508  0.044882199   -2.4475869   0.77453611   426349 
 1321000   0.62487159   -2.4497149   -2.4497149   -1.6729494  0.049341465   -2.4497149    0.7767655   426349 
 1322000   0.62365566   -2.4481032   -2.4481032   -1.6728492  0.043726802   -2.4481032   0.77525401   426349 
 1323000    0.6232393    -2.448264    -2.448264   -1.6735276  0.046993398    -2.448264   0.77473643   426349 
 1324000    0.6238143   -2.4495341   -2.4495341   -1.6740828  0.043328278   -2.4495341   0.77545121   426349 
 1325000   0.62392167   -2.4499481   -2.4499481   -1.6743635  0.049306552   -2.4499481   0.77558468   426349 
 1326000   0.62339188   -2.4502321   -2.4502321   -1.6753059  0.046289059   -2.4502321   0.77492611   426349 
 1327000   0.62291766   -2.4494818   -2.4494818   -1.6751452  0.054063997   -2.4494818   0.77433661   426349 
 1328000   0.62364684    -2.450421    -2.450421   -1.6751779  0.052053628    -2.450421   0.77524304   426349 
 1329000   0.62327174   -2.4503883   -2.4503883   -1.6756115  0.055134334   -2.4503883   0.77477676   426349 
 1330000   0.62406477   -2.4516422   -2.4516422   -1.6758797  0.045837415   -2.4516422   0.77576256   426349 
 1331000   0.62379116   -2.4511938   -2.4511938   -1.6757713  0.045220392   -2.4511938   0.77542243   426349 
 1332000    0.6245357   -2.4530354   -2.4530354   -1.6766874  0.048878568   -2.4530354   0.77634796   426349 
 1333000   0.62366977   -2.4513142   -2.4513142   -1.6760427  0.049422691   -2.4513142   0.77527154   426349 
 1334000   0.62464917   -2.4526602   -2.4526602   -1.6761712  0.044861445   -2.4526602   0.77648901   426349 
 1335000    0.6244937   -2.4527866   -2.4527866   -1.6764908  0.044670804   -2.4527866   0.77629575   426349 
 1336000   0.62285876   -2.4508943   -2.4508943   -1.6766309  0.043421493   -2.4508943   0.77426339   426349 
 1337000   0.62441433   -2.4523183   -2.4523183   -1.6761212  0.053197268   -2.4523183   0.77619709   426349 
 1338000   0.62400605   -2.4513082   -2.4513082   -1.6756186  0.048039102   -2.4513082   0.77568957   426349 
 1339000   0.62205784    -2.449414    -2.449414   -1.6761462  0.054516909    -2.449414   0.77326778   426349 
 1340000   0.62218826   -2.4500605   -2.4500605   -1.6766306  0.050705382   -2.4500605   0.77342991   426349 
 1341000   0.62421876   -2.4520457   -2.4520457   -1.6760917  0.042661753   -2.4520457   0.77595397   426349 
 1342000   0.62341625   -2.4513597   -2.4513597   -1.6764033  0.049351274   -2.4513597   0.77495639   426349 
 1343000   0.62302722    -2.450977    -2.450977   -1.6765042  0.042867584    -2.450977   0.77447281   426349 
 1344000   0.62350595   -2.4519923   -2.4519923   -1.6769244  0.045957583   -2.4519923    0.7750679   426349 
 1345000   0.62374556   -2.4522022   -2.4522022   -1.6768364  0.046112031   -2.4522022   0.77536576   426349 
 1346000   0.62359296   -2.4522718   -2.4522718   -1.6770958  0.048153265   -2.4522718   0.77517606   426349 
 1347000   0.62280299   -2.4513781   -2.4513781   -1.6771841  0.055158446   -2.4513781   0.77419406   426349 
 1348000    0.6226375   -2.4515428   -2.4515428   -1.6775544  0.044218326   -2.4515428   0.77398835   426349 
 1349000   0.62333845   -2.4529008   -2.4529008   -1.6780412   0.04770856   -2.4529008   0.77485968   426349 
 1350000   0.62206763   -2.4514308   -2.4514308   -1.6781508  0.054461883   -2.4514308   0.77327995   426349 
 1351000   0.62227598   -2.4513651   -2.4513651   -1.6778261  0.051369817   -2.4513651   0.77353895   426349 
 1352000   0.62184111   -2.4514054   -2.4514054    -1.678407   0.04985714   -2.4514054   0.77299838   426349 
 1353000   0.62371822   -2.4540664   -2.4540664   -1.6787346  0.044571139   -2.4540664   0.77533177   426349 
 1354000   0.62271824    -2.452849    -2.452849   -1.6787603   0.05241139    -2.452849   0.77408872   426349 
 1355000   0.62401878   -2.4538307   -2.4538307   -1.6781253  0.052565633   -2.4538307   0.77570539   426349 
 1356000   0.62336658   -2.4531553   -2.4531553   -1.6782606  0.044094744   -2.4531553   0.77489466   426349 
 1357000   0.62337106   -2.4534166   -2.4534166   -1.6785164   0.05001486   -2.4534166   0.77490022   426349 
 1358000   0.62275793   -2.4524035   -2.4524035   -1.6782655  0.052589348   -2.4524035   0.77413805   426349 
 1359000   0.62246421   -2.4529337   -2.4529337   -1.6791608  0.052784476   -2.4529337   0.77377293   426349 
 1360000   0.62277981   -2.4532677   -2.4532677   -1.6791024  0.054001402   -2.4532677   0.77416526   426349 
 1361000   0.62232003     -2.45236     -2.45236   -1.6787663  0.043801922     -2.45236   0.77359371   426349 
 1362000   0.62194417   -2.4526856   -2.4526856   -1.6795591  0.045623728   -2.4526856   0.77312649   426349 
 1363000   0.62118089   -2.4524819   -2.4524819   -1.6803042  0.040974155   -2.4524819   0.77217766   426349 
 1364000   0.62044202   -2.4516375   -2.4516375   -1.6803784  0.041896945   -2.4516375   0.77125918   426349 
 1365000   0.62218433   -2.4529425   -2.4529425   -1.6795175  0.054602053   -2.4529425   0.77342502   426349 
 1366000   0.62190541   -2.4513949   -2.4513949   -1.6783166  0.053805032   -2.4513949    0.7730783   426349 
 1367000   0.62319122   -2.4528735   -2.4528735   -1.6781968  0.042948011   -2.4528735   0.77467666   426349 
 1368000   0.62110355   -2.4501362   -2.4501362   -1.6780547  0.046714979   -2.4501362   0.77208152   426349 
 1369000   0.62252234    -2.452314    -2.452314   -1.6784688  0.051648815    -2.452314    0.7738452   426349 
 1370000   0.62118745    -2.451207    -2.451207   -1.6790211  0.044773829    -2.451207   0.77218582   426349 
 1371000   0.62138308   -2.4521695   -2.4521695   -1.6797405  0.045888564   -2.4521695     0.772429   426349 
 1372000   0.62132851   -2.4517443   -2.4517443   -1.6793832  0.051838232   -2.4517443   0.77236117   426349 
 1373000   0.62220116   -2.4530236   -2.4530236   -1.6795777  0.041318538   -2.4530236   0.77344595   426349 
 1374000   0.62303519   -2.4540103   -2.4540103   -1.6795275   0.04482053   -2.4540103   0.77448271   426349 
 1375000   0.62261379   -2.4540107   -2.4540107   -1.6800518  0.046325868   -2.4540107   0.77395888   426349 
 1376000   0.62161895   -2.4533913   -2.4533913   -1.6806691  0.043161595   -2.4533913   0.77272221   426349 
 1377000   0.62233817   -2.4547663   -2.4547663     -1.68115  0.043160861   -2.4547663   0.77361625   426349 
 1378000   0.62245852   -2.4546614   -2.4546614   -1.6808955  0.043882714   -2.4546614   0.77376586   426349 
 1379000   0.62254097   -2.4547276   -2.4547276   -1.6808593  0.056183722   -2.4547276   0.77386835   426349 
 1380000   0.62115141    -2.453226    -2.453226    -1.681085  0.036384001    -2.453226   0.77214102   426349 
 1381000   0.62188731    -2.454004    -2.454004   -1.6809482  0.052467296    -2.454004    0.7730558   426349 
 1382000   0.62221856   -2.4551596   -2.4551596    -1.681692  0.050103196   -2.4551596   0.77346757   426349 
 1383000   0.62256798   -2.4556578   -2.4556578   -1.6817559  0.043963796   -2.4556578   0.77390193   426349 
 1384000   0.62288659   -2.4561842   -2.4561842   -1.6818862  0.043717761   -2.4561842   0.77429798   426349 
 1385000   0.62149102   -2.4542624   -2.4542624   -1.6816992  0.049938941   -2.4542624   0.77256318   426349 
 1386000   0.62228381   -2.4558259   -2.4558259   -1.6822772  0.050644467   -2.4558259   0.77354869   426349 
 1387000   0.62125282   -2.4545513   -2.4545513   -1.6822842  0.041830385   -2.4545513   0.77226709   426349 
 1388000   0.62183412   -2.4548722   -2.4548722   -1.6818826  0.046304367   -2.4548722   0.77298968   426349 
 1389000   0.62312827   -2.4564345   -2.4564345   -1.6818361  0.053671602   -2.4564345   0.77459842   426349 
 1390000   0.62220093   -2.4544427   -2.4544427    -1.680997   0.05628703   -2.4544427   0.77344566   426349 
 1391000   0.62337305   -2.4550399   -2.4550399   -1.6801372  0.050117872   -2.4550399   0.77490269   426349 
 1392000   0.62267762   -2.4546863   -2.4546863    -1.680648  0.059927111   -2.4546863   0.77403822   426349 
 1393000   0.62226454   -2.4547123   -2.4547123   -1.6811876  0.044229781   -2.4547123   0.77352473   426349 
 1394000   0.62208262    -2.455013    -2.455013   -1.6817144  0.053448577    -2.455013   0.77329858   426349 
 1395000   0.62032721   -2.4530614   -2.4530614   -1.6819449  0.036281276   -2.4530614   0.77111648   426349 
 1396000   0.62233949   -2.4554574   -2.4554574   -1.6818395  0.040828725   -2.4554574   0.77361789   426349 
 1397000   0.62281932   -2.4555654   -2.4555654    -1.681351  0.047345871   -2.4555654   0.77421436   426349 
 1398000   0.62323521   -2.4559002   -2.4559002   -1.6811689  0.049863798   -2.4559002   0.77473135   426349 
 1399000   0.62183513   -2.4543917   -2.4543917   -1.6814008  0.053314804   -2.4543917   0.77299094   426349 
 1400000   0.62259992   -2.4555915   -2.4555915   -1.6816498  0.040036669   -2.4555915   0.77394163   426349 
 1401000   0.62239607   -2.4558344   -2.4558344   -1.6821461  0.051089956   -2.4558344   0.77368823   426349 
 1402000   0.62197236    -2.455127    -2.455127   -1.6819655   0.04112489    -2.455127   0.77316152   426349 
 1403000   0.62132909   -2.4551477   -2.4551477   -1.6827858  0.044709961   -2.4551477   0.77236189   426349 
 1404000   0.62277456   -2.4572998   -2.4572998   -1.6831411  0.047010392   -2.4572998   0.77415872   426349 
 1405000   0.62177823   -2.4559904   -2.4559904   -1.6830702   0.03901674   -2.4559904   0.77292021   426349 
 1406000   0.62132211   -2.4552877   -2.4552877   -1.6829345  0.054873169   -2.4552877   0.77235321   426349 
 1407000   0.62294212   -2.4568809   -2.4568809   -1.6825139  0.044735554   -2.4568809   0.77436702   426349 
 1408000   0.62263015   -2.4556758   -2.4556758   -1.6816966  0.050202757   -2.4556758   0.77397922   426349 
 1409000   0.62131806   -2.4544983   -2.4544983   -1.6821502  0.056492736   -2.4544983   0.77234817   426349 
 1410000   0.62151505   -2.4558702   -2.4558702   -1.6832771  0.053542673   -2.4558702   0.77259305   426349 
 1411000   0.62114105   -2.4548682   -2.4548682   -1.6827401  0.047862455   -2.4548682   0.77212814   426349 
 1412000    0.6220207   -2.4557192   -2.4557192   -1.6824976  0.050427603   -2.4557192   0.77322162   426349 
 1413000    0.6223117   -2.4560702   -2.4560702   -1.6824868  0.052858692   -2.4560702   0.77358336   426349 
 1414000   0.62205294   -2.4556648   -2.4556648   -1.6824031   0.05410696   -2.4556648   0.77326169   426349 
 1415000   0.62220531   -2.4565848   -2.4565848   -1.6831337  0.044537085   -2.4565848    0.7734511   426349 
 1416000   0.62349078   -2.4589276   -2.4589276   -1.6838786  0.048642521   -2.4589276   0.77504905   426349 
 1417000   0.62279811   -2.4578194   -2.4578194   -1.6836314  0.056885685   -2.4578194     0.774188   426349 
 1418000   0.62231214   -2.4575735   -2.4575735   -1.6839896  0.051082361   -2.4575735    0.7735839   426349 
 1419000   0.62149685    -2.456564    -2.456564   -1.6839936  0.047657133    -2.456564   0.77257043   426349 
 1420000   0.62138113   -2.4560875   -2.4560875   -1.6836609  0.046119776   -2.4560875   0.77242658   426349 
 1421000   0.62060262   -2.4562404   -2.4562404   -1.6847815  0.045818859   -2.4562404   0.77145883   426349 
 1422000   0.62068801   -2.4568328   -2.4568328   -1.6852678  0.052691632   -2.4568328   0.77156497   426349 
 1423000    0.6212868   -2.4578077   -2.4578077   -1.6854984  0.045155244   -2.4578077   0.77230932   426349 
 1424000   0.62155262   -2.4582359   -2.4582359   -1.6855962  0.047850636   -2.4582359   0.77263975   426349 
 1425000   0.62141692   -2.4578635   -2.4578635   -1.6853924  0.043754766   -2.4578635   0.77247107   426349 
 1426000   0.62133027   -2.4580987   -2.4580987   -1.6857353  0.048081642   -2.4580987   0.77236336   426349 
 1427000   0.62218985   -2.4587292   -2.4587292   -1.6852973  0.043677165   -2.4587292   0.77343189   426349 
 1428000   0.62261981   -2.4586263   -2.4586263     -1.68466  0.048269979   -2.4586263   0.77396636   426349 
 1429000   0.62332331   -2.4593898   -2.4593898    -1.684549  0.041733716   -2.4593898   0.77484086   426349 
 1430000   0.62294156   -2.4591564   -2.4591564   -1.6847901  0.048677349   -2.4591564   0.77436631   426349 
 1431000   0.62269686    -2.458841    -2.458841   -1.6847789  0.044804895    -2.458841   0.77406214   426349 
 1432000   0.62337474   -2.4595607   -2.4595607   -1.6846559  0.055421776   -2.4595607   0.77490479   426349 
 1433000   0.62413559   -2.4605749   -2.4605749   -1.6847243  0.050782057   -2.4605749   0.77585059   426349 
 1434000   0.62378704   -2.4605244   -2.4605244   -1.6851071  0.048139747   -2.4605244   0.77541732   426349 
 1435000   0.62283877   -2.4597914   -2.4597914   -1.6855529  0.053419452   -2.4597914   0.77423855   426349 
 1436000    0.6210322    -2.458888    -2.458888   -1.6868951  0.050045639    -2.458888   0.77199284   426349 
 1437000   0.62300629   -2.4608036   -2.4608036   -1.6863568  0.039562144   -2.4608036   0.77444678   426349 
 1438000   0.62183648    -2.459925    -2.459925   -1.6869324  0.055016313    -2.459925   0.77299261   426349 
 1439000    0.6207544   -2.4588159   -2.4588159   -1.6871684  0.042104744   -2.4588159   0.77164751   426349 
 1440000   0.62186053    -2.459624    -2.459624   -1.6866014  0.040886767    -2.459624   0.77302252   426349 
 1441000   0.62117407   -2.4590905   -2.4590905   -1.6869213  0.053188205   -2.4590905   0.77216918   426349 
 1442000   0.62089607   -2.4586369   -2.4586369   -1.6868133  0.046439989   -2.4586369   0.77182361   426349 
 1443000   0.62160696   -2.4593107   -2.4593107   -1.6866034  0.051655193   -2.4593107    0.7727073   426349 
 1444000    0.6211432   -2.4577994   -2.4577994   -1.6856686  0.048223471   -2.4577994   0.77213081   426349 
 1445000   0.62169263   -2.4592035   -2.4592035   -1.6863897  0.045491937   -2.4592035    0.7728138   426349 
 1446000   0.62168051   -2.4593064   -2.4593064   -1.6865076  0.039388768   -2.4593064   0.77279873   426349 
 1447000   0.62286379   -2.4602645   -2.4602645   -1.6859949  0.038708182   -2.4602645   0.77426965   426349 
 1448000   0.62189133     -2.45938     -2.45938   -1.6863192  0.051669989     -2.45938    0.7730608   426349 
 1449000   0.62219981   -2.4595698   -2.4595698   -1.6861255  0.047849307   -2.4595698   0.77344426   426349 
 1450000   0.62191346   -2.4591998   -2.4591998   -1.6861115  0.048229599   -2.4591998    0.7730883   426349 
 1451000   0.62254532   -2.4599387   -2.4599387    -1.686065  0.049910708   -2.4599387   0.77387376   426349 
 1452000   0.62258836   -2.4609167   -2.4609167   -1.6869894  0.061288156   -2.4609167   0.77392727   426349 
 1453000   0.62239983    -2.461355    -2.461355   -1.6876621  0.046412505    -2.461355   0.77369291   426349 
 1454000   0.62160615   -2.4602202   -2.4602202   -1.6875139  0.043303994   -2.4602202   0.77270629   426349 
 1455000   0.62211215     -2.46104     -2.46104   -1.6877047  0.043918984     -2.46104    0.7733353   426349 
 1456000   0.62257681    -2.461724    -2.461724   -1.6878111  0.047165032    -2.461724   0.77391291   426349 
 1457000   0.62222628   -2.4619342   -2.4619342   -1.6884571  0.041160709   -2.4619342   0.77347717   426349 
 1458000   0.62149823    -2.460668    -2.460668   -1.6880958  0.046545817    -2.460668   0.77257214   426349 
 1459000   0.62163467   -2.4605299   -2.4605299   -1.6877882  0.048375356   -2.4605299   0.77274175   426349 
 1460000   0.62241101   -2.4624444   -2.4624444   -1.6887376  0.044886674   -2.4624444   0.77370681   426349 
 1461000   0.62147371   -2.4614407   -2.4614407    -1.688899  0.049241448   -2.4614407   0.77254166   426349 
 1462000   0.62117981   -2.4612295   -2.4612295   -1.6890531  0.054877552   -2.4612295   0.77217633   426349 
 1463000   0.62240029   -2.4623672   -2.4623672   -1.6886737  0.049404413   -2.4623672   0.77369347   426349 
 1464000   0.62081664   -2.4606678   -2.4606678    -1.688943  0.048537756   -2.4606678   0.77172487   426349 
 1465000   0.62097629   -2.4609094   -2.4609094   -1.6889861  0.045859039   -2.4609094   0.77192333   426349 
 1466000    0.6212087   -2.4613007   -2.4613007   -1.6890885  0.051946676   -2.4613007   0.77221224   426349 
 1467000     0.621801   -2.4626797   -2.4626797   -1.6897312  0.047707855   -2.4626797   0.77294851   426349 
 1468000   0.62226391   -2.4638982   -2.4638982   -1.6903742  0.045662699   -2.4638982   0.77352394   426349 
 1469000   0.62127807   -2.4625535   -2.4625535    -1.690255  0.044079382   -2.4625535   0.77229847   426349 
 1470000   0.62242325   -2.4639073   -2.4639073   -1.6901853  0.052860082   -2.4639073   0.77372202   426349 
 1471000   0.62258796   -2.4652012   -2.4652012   -1.6912744  0.052361198   -2.4652012   0.77392677   426349 
 1472000   0.62260051   -2.4648901   -2.4648901   -1.6909477  0.046982628   -2.4648901   0.77394237   426349 
 1473000   0.62308141   -2.4651612   -2.4651612    -1.690621  0.052102249   -2.4651612   0.77454017   426349 
 1474000   0.62201393   -2.4650196   -2.4650196   -1.6918064  0.044895308   -2.4650196    0.7732132   426349 
 1475000   0.62151705   -2.4647202   -2.4647202   -1.6921247  0.053865444   -2.4647202   0.77259554   426349 
 1476000    0.6236967   -2.4668524   -2.4668524   -1.6915474  0.046488624   -2.4668524   0.77530502   426349 
 1477000   0.62115453   -2.4644817   -2.4644817   -1.6923368  0.036376716   -2.4644817    0.7721449   426349 
 1478000   0.62193898   -2.4656466   -2.4656466   -1.6925265  0.050326347   -2.4656466   0.77312003   426349 
 1479000   0.62111874   -2.4647659   -2.4647659   -1.6926655  0.055401194   -2.4647659    0.7721004   426349 
 1480000   0.62260843   -2.4665379   -2.4665379   -1.6925857  0.050069793   -2.4665379   0.77395221   426349 
 1481000   0.62111154   -2.4644346   -2.4644346   -1.6923432  0.051972339   -2.4644346   0.77209145   426349 
 1482000   0.62029535   -2.4636506   -2.4636506   -1.6925737  0.046077509   -2.4636506   0.77107687   426349 
 1483000   0.62259208   -2.4659392   -2.4659392   -1.6920073  0.040267654   -2.4659392   0.77393188   426349 
 1484000   0.62253986    -2.465419    -2.465419    -1.691552  0.052058415    -2.465419   0.77386697   426349 
 1485000    0.6215695   -2.4638059   -2.4638059   -1.6911452  0.045428639   -2.4638059   0.77266074   426349 
 1486000   0.62070693   -2.4633171   -2.4633171   -1.6917286  0.050275958   -2.4633171   0.77158849   426349 
 1487000   0.62214859   -2.4654696   -2.4654696    -1.692089  0.045598691   -2.4654696    0.7733806   426349 
 1488000   0.62197998   -2.4653522   -2.4653522   -1.6921812  0.047314477   -2.4653522     0.773171   426349 
 1489000   0.61999972   -2.4628539   -2.4628539   -1.6921445  0.038940381   -2.4628539   0.77070938   426349 
 1490000   0.62161665   -2.4646684   -2.4646684   -1.6919491    0.0477272   -2.4646684   0.77271935   426349 
 1491000   0.61950698   -2.4620302   -2.4620302   -1.6919333  0.052169189   -2.4620302   0.77009686   426349 
 1492000   0.62119188   -2.4637756   -2.4637756   -1.6915843  0.043524443   -2.4637756   0.77219132   426349 
 1493000   0.62172227   -2.4645261   -2.4645261   -1.6916755  0.048377027   -2.4645261   0.77285064   426349 
 1494000   0.62052572   -2.4629235   -2.4629235   -1.6915602  0.042021596   -2.4629235   0.77136323   426349 
 1495000   0.62120611   -2.4642315   -2.4642315   -1.6920225   0.03774893   -2.4642315   0.77220902   426349 
 1496000   0.62141416   -2.4640122   -2.4640122   -1.6915446   0.04816329   -2.4640122   0.77246764   426349 
 1497000   0.62046808   -2.4627398   -2.4627398   -1.6914482  0.047321297   -2.4627398   0.77129159   426349 
 1498000   0.62162007   -2.4643393   -2.4643393   -1.6916157  0.046615646   -2.4643393    0.7727236   426349 
 1499000   0.62098716   -2.4637259   -2.4637259    -1.691789  0.038490945   -2.4637259   0.77193684   426349 
 1500000   0.62084022   -2.4634682   -2.4634682    -1.691714  0.045523695   -2.4634682   0.77175419   426349 
 1501000   0.62128281   -2.4646355   -2.4646355   -1.6923312  0.042012681   -2.4646355   0.77230437   426349 
 1502000   0.62164187   -2.4652092   -2.4652092   -1.6924585  0.045575667   -2.4652092    0.7727507   426349 
 1503000   0.62184377   -2.4663465   -2.4663465   -1.6933448  0.045359313   -2.4663465   0.77300168   426349 
 1504000   0.62188336   -2.4659484   -2.4659484   -1.6928975  0.052937183   -2.4659484   0.77305089   426349 
 1505000   0.62243968   -2.4678643   -2.4678643   -1.6941218  0.048045667   -2.4678643   0.77374244   426349 
 1506000   0.62228421   -2.4672904   -2.4672904   -1.6937412  0.035411459   -2.4672904   0.77354918   426349 
 1507000    0.6214533   -2.4660264   -2.4660264   -1.6935101  0.043891608   -2.4660264   0.77251629   426349 
 1508000   0.62204138   -2.4667739   -2.4667739   -1.6935266  0.050094717   -2.4667739   0.77324732   426349 
 1509000    0.6210325   -2.4658502   -2.4658502    -1.693857  0.040204567   -2.4658502    0.7719932   426349 
 1510000   0.62219027   -2.4673009   -2.4673009   -1.6938685  0.046693056   -2.4673009    0.7734324   426349 
 1511000   0.62200282    -2.467889    -2.467889   -1.6946896  0.041728955    -2.467889   0.77319939   426349 
 1512000   0.62171592   -2.4675321   -2.4675321   -1.6946893  0.050231292   -2.4675321   0.77284276   426349 
 1513000   0.62223296   -2.4680967   -2.4680967   -1.6946113  0.059242192   -2.4680967   0.77348548   426349 
 1514000   0.62105426    -2.466929    -2.466929   -1.6949088  0.051744215    -2.466929   0.77202025   426349 
 1515000    0.6213958   -2.4670749   -2.4670749     -1.69463  0.044680583   -2.4670749   0.77244482   426349 
 1516000    0.6200702   -2.4652327   -2.4652327   -1.6944357  0.052111429   -2.4652327   0.77079699   426349 
 1517000   0.62150901   -2.4666478   -2.4666478   -1.6940623  0.045048015   -2.4666478   0.77258554   426349 
 1518000   0.62215883     -2.46675     -2.46675   -1.6933566  0.047076196     -2.46675   0.77339332   426349 
 1519000   0.61997307   -2.4649752   -2.4649752    -1.694299   0.03414684   -2.4649752   0.77067625   426349 
 1520000   0.61979644   -2.4651534   -2.4651534   -1.6946967  0.042040727   -2.4651534   0.77045669   426349 
 1521000   0.62029982   -2.4651882   -2.4651882   -1.6941058   0.04896804   -2.4651882   0.77108243   426349 
 1522000   0.61972769   -2.4652781   -2.4652781   -1.6949069  0.052731664   -2.4652781   0.77037122   426349 
 1523000   0.61975886   -2.4647403   -2.4647403   -1.6943304  0.044170402   -2.4647403   0.77040997   426349 
 1524000   0.62027702   -2.4655959   -2.4655959   -1.6945418  0.054941284   -2.4655959   0.77105408   426349 
 1525000   0.61936183   -2.4647722   -2.4647722   -1.6948557  0.045047506   -2.4647722   0.76991643   426349 
 1526000    0.6209188   -2.4661949   -2.4661949    -1.694343  0.040685471   -2.4661949   0.77185186   426349 
 1527000   0.62079265    -2.465898    -2.465898    -1.694203  0.052262434    -2.465898   0.77169505   426349 
 1528000   0.61982788   -2.4652936   -2.4652936   -1.6947978  0.052933445   -2.4652936   0.77049577   426349 
 1529000     0.619124   -2.4641022   -2.4641022   -1.6944814  0.045296567   -2.4641022   0.76962079   426349 
 1530000   0.62039068   -2.4650005   -2.4650005   -1.6938051  0.049848219   -2.4650005   0.77119537   426349 
 1531000   0.62059847   -2.4654968   -2.4654968   -1.6940431  0.043937179   -2.4654968   0.77145367   426349 
 1532000   0.62176713   -2.4660715   -2.4660715    -1.693165  0.043802832   -2.4660715   0.77290641   426349 
 1533000   0.62058861   -2.4651326   -2.4651326   -1.6936912  0.044603171   -2.4651326   0.77144141   426349 
 1534000   0.62122274    -2.466815    -2.466815   -1.6945853  0.041257678    -2.466815   0.77222968   426349 
 1535000   0.62102046   -2.4666821   -2.4666821   -1.6947039  0.038027383   -2.4666821   0.77197824   426349 
 1536000   0.62273293   -2.4684727   -2.4684727   -1.6943657  0.048851004   -2.4684727   0.77410698   426349 
 1537000   0.62244122   -2.4681936   -2.4681936   -1.6944493  0.053355387   -2.4681936   0.77374436   426349 
 1538000   0.62151483   -2.4669516   -2.4669516   -1.6943588  0.048116031   -2.4669516   0.77259278   426349 
 1539000   0.62203566   -2.4680021   -2.4680021   -1.6947619  0.047660587   -2.4680021   0.77324022   426349 
 1540000   0.62279572   -2.4693438   -2.4693438   -1.6951588  0.040604165   -2.4693438   0.77418503   426349 
 1541000   0.62138758   -2.4677675   -2.4677675   -1.6953329   0.04497076   -2.4677675    0.7724346   426349 
 1542000   0.62135404   -2.4669456   -2.4669456   -1.6945527  0.043822723   -2.4669456    0.7723929   426349 
 1543000   0.62028674   -2.4659722   -2.4659722   -1.6949061  0.048524875   -2.4659722   0.77106617   426349 
 1544000   0.62125909   -2.4665157   -2.4665157   -1.6942409  0.043103498   -2.4665157   0.77227488   426349 
 1545000   0.62039017   -2.4656592   -2.4656592   -1.6944644  0.056237641   -2.4656592   0.77119474   426349 
 1546000   0.62107017   -2.4671264   -2.4671264   -1.6950864  0.041916354   -2.4671264   0.77204003   426349 
 1547000   0.62060388   -2.4675737   -2.4675737   -1.6961133  0.042375869   -2.4675737    0.7714604   426349 
 1548000   0.61986906   -2.4661206   -2.4661206   -1.6955736  0.045402435   -2.4661206   0.77054695   426349 
 1549000   0.61959459   -2.4661323   -2.4661323   -1.6959266  0.043221956   -2.4661323   0.77020576   426349 
 1550000   0.62004979    -2.466283    -2.466283   -1.6955113  0.046356716    -2.466283   0.77077162   426349 
 1551000   0.61997683   -2.4664005   -2.4664005   -1.6957195  0.050724157   -2.4664005   0.77068092   426349 
 1552000   0.62039492   -2.4675729   -2.4675729   -1.6963723  0.052214373   -2.4675729   0.77120064   426349 
 1553000   0.61914092   -2.4669682   -2.4669682   -1.6973264  0.042285334   -2.4669682   0.76964182   426349 
 1554000   0.62039312   -2.4681883   -2.4681883   -1.6969899  0.048896788   -2.4681883    0.7711984   426349 
 1555000   0.62134644   -2.4689499   -2.4689499   -1.6965664  0.049405809   -2.4689499   0.77238346   426349 
 1556000   0.62125355   -2.4695381   -2.4695381   -1.6972701  0.047288734   -2.4695381   0.77226798   426349 
 1557000   0.62206296   -2.4703057   -2.4703057   -1.6970315  0.050421143   -2.4703057   0.77327415   426349 
 1558000   0.62088769   -2.4693294   -2.4693294   -1.6975162  0.052315367   -2.4693294   0.77181319   426349 
 1559000    0.6210308   -2.4696119   -2.4696119   -1.6976208  0.045106424   -2.4696119   0.77199109   426349 
 1560000   0.62155065   -2.4704829   -2.4704829   -1.6978456  0.045491542   -2.4704829   0.77263731   426349 
 1561000   0.62046256    -2.468954    -2.468954   -1.6976692  0.045916836    -2.468954   0.77128473   426349 
 1562000   0.62236512   -2.4709744   -2.4709744   -1.6973246  0.050260608   -2.4709744   0.77364976   426349 
 1563000   0.62181731   -2.4696271   -2.4696271   -1.6966583  0.045222318   -2.4696271   0.77296878   426349 
 1564000   0.62110176   -2.4702998   -2.4702998   -1.6982205  0.045646116   -2.4702998   0.77207931   426349 
 1565000   0.62076908   -2.4698699   -2.4698699   -1.6982042  0.052141141   -2.4698699   0.77166575   426349 
 1566000   0.62036789   -2.4702476   -2.4702476   -1.6990805  0.045716422   -2.4702476   0.77116704   426349 
 1567000   0.62140167   -2.4719648   -2.4719648   -1.6995127  0.040838387   -2.4719648   0.77245212   426349 
 1568000   0.62161531    -2.471526    -2.471526   -1.6988083  0.042990806    -2.471526   0.77271768   426349 
 1569000   0.61949145   -2.4692107   -2.4692107   -1.6991332  0.042341848   -2.4692107   0.77007756   426349 
 1570000   0.62076886   -2.4712503   -2.4712503   -1.6995848  0.045459297   -2.4712503   0.77166548   426349 
 1571000   0.61974451   -2.4702721   -2.4702721     -1.69988  0.046811256   -2.4702721   0.77039212   426349 
 1572000     0.620268   -2.4705696   -2.4705696   -1.6995268  0.048682874   -2.4705696   0.77104286   426349 
 1573000   0.62062583   -2.4713543   -2.4713543   -1.6998666  0.052845925   -2.4713543   0.77148768   426349 
 1574000   0.62212782   -2.4728145   -2.4728145   -1.6994597  0.031759621   -2.4728145   0.77335477   426349 
 1575000   0.62000305   -2.4705112   -2.4705112   -1.6997977   0.04672309   -2.4705112   0.77071352   426349 
 1576000   0.62110471    -2.471775    -2.471775    -1.699692  0.046374959    -2.471775   0.77208296   426349 
 1577000   0.62180971   -2.4721384   -2.4721384    -1.699179  0.044739881   -2.4721384   0.77295934   426349 
 1578000   0.62034603   -2.4701691   -2.4701691   -1.6990293  0.051905148   -2.4701691   0.77113987   426349 
 1579000   0.62110437   -2.4708129   -2.4708129   -1.6987304  0.045077797   -2.4708129   0.77208255   426349 
 1580000   0.62048288   -2.4714327   -2.4714327   -1.7001227  0.036158575   -2.4714327   0.77130998   426349 
 1581000   0.62101249   -2.4716803   -2.4716803    -1.699712  0.043791352   -2.4716803   0.77196833   426349 
 1582000   0.62107545   -2.4725135   -2.4725135   -1.7004669  0.041700921   -2.4725135    0.7720466   426349 
 1583000   0.61949302   -2.4704632   -2.4704632   -1.7003837  0.041738598   -2.4704632    0.7700795   426349 
 1584000   0.62005495   -2.4716574   -2.4716574   -1.7008794   0.05583256   -2.4716574   0.77077803   426349 
 1585000   0.62017359   -2.4715974   -2.4715974   -1.7006719  0.054690309   -2.4715974   0.77092551   426349 
 1586000   0.62021844   -2.4719216   -2.4719216   -1.7009403  0.048290673   -2.4719216   0.77098127   426349 
 1587000    0.6202609   -2.4715063   -2.4715063   -1.7004722  0.052193399   -2.4715063   0.77103405   426349 
 1588000   0.61889517   -2.4699847   -2.4699847   -1.7006483  0.046192486   -2.4699847   0.76933634   426349 
 1589000   0.62039514   -2.4715574   -2.4715574   -1.7003565  0.045227642   -2.4715574   0.77120091   426349 
 1590000   0.62037464   -2.4720954   -2.4720954   -1.7009199  0.047783757   -2.4720954   0.77117543   426349 
 1591000   0.61987853   -2.4713774   -2.4713774   -1.7008187  0.048214549   -2.4713774   0.77055873   426349 
 1592000   0.62096822   -2.4730528   -2.4730528   -1.7011395  0.045093122   -2.4730528    0.7719133   426349 
 1593000   0.62001116   -2.4723071   -2.4723071   -1.7015835  0.043734964   -2.4723071   0.77072359   426349 
 1594000   0.61947332   -2.4714728   -2.4714728   -1.7014178    0.0413696   -2.4714728   0.77005502   426349 
 1595000   0.62064186   -2.4732194   -2.4732194   -1.7017118   0.05513059   -2.4732194    0.7715076   426349 
 1596000   0.61967802   -2.4724743   -2.4724743   -1.7021648  0.046813101   -2.4724743   0.77030948   426349 
 1597000   0.62007575   -2.4737377   -2.4737377   -1.7029339  0.031980391   -2.4737377   0.77080388   426349 
 1598000   0.61992357   -2.4735611   -2.4735611   -1.7029464  0.053536697   -2.4735611   0.77061471   426349 
 1599000   0.62075861    -2.474569    -2.474569   -1.7029163  0.052438503    -2.474569   0.77165273   426349 
 1600000   0.61938061   -2.4736731   -2.4736731   -1.7037333  0.045878074   -2.4736731   0.76993978   426349 
 1601000   0.62113735    -2.475034    -2.475034   -1.7029105  0.055400672    -2.475034   0.77212354   426349 
 1602000   0.62119249   -2.4757452   -2.4757452   -1.7035531  0.050600255   -2.4757452   0.77219209   426349 
 1603000   0.61937486   -2.4742393   -2.4742393   -1.7043067  0.045440953   -2.4742393   0.76993263   426349 
 1604000   0.62008786    -2.475552    -2.475552   -1.7047331  0.038979002    -2.475552   0.77081894   426349 
 1605000   0.61968986   -2.4754499   -2.4754499   -1.7051257  0.046830736   -2.4754499    0.7703242   426349 
 1606000   0.61907494   -2.4749697   -2.4749697   -1.7054099  0.047719006   -2.4749697    0.7695598   426349 
 1607000    0.6202193   -2.4764566   -2.4764566   -1.7054743   0.05020574   -2.4764566   0.77098233   426349 
 1608000   0.61974296   -2.4746931   -2.4746931   -1.7043029  0.041496339   -2.4746931    0.7703902   426349 
 1609000   0.61963713   -2.4746069   -2.4746069   -1.7043482  0.041022361   -2.4746069   0.77025865   426349 
 1610000   0.62014745   -2.4753131   -2.4753131   -1.7044201  0.056623515   -2.4753131   0.77089301   426349 
 1611000   0.62074298   -2.4755071   -2.4755071   -1.7038738  0.055051463   -2.4755071   0.77163331   426349 
 1612000   0.62030076   -2.4759405   -2.4759405   -1.7048569  0.051270927   -2.4759405    0.7710836   426349 
 1613000   0.61908483   -2.4746685   -2.4746685   -1.7050964  0.042884781   -2.4746685   0.76957209   426349 
 1614000   0.61966656   -2.4763108   -2.4763108   -1.7060155  0.040285358   -2.4763108   0.77029523   426349 
 1615000   0.61897747   -2.4749848   -2.4749848   -1.7055461  0.051265297   -2.4749848   0.76943864   426349 
 1616000   0.62025175   -2.4766315   -2.4766315   -1.7056088  0.030013457   -2.4766315   0.77102267   426349 
 1617000   0.61896873   -2.4745003   -2.4745003   -1.7050726  0.036962293   -2.4745003   0.76942777   426349 
 1618000   0.61910542   -2.4757429   -2.4757429   -1.7061452  0.045553874   -2.4757429   0.76959769   426349 
 1619000   0.61910611   -2.4760106   -2.4760106   -1.7064121  0.049502306   -2.4760106   0.76959854   426349 
 1620000    0.6196967    -2.476181    -2.476181   -1.7058483  0.049895587    -2.476181   0.77033269   426349 
 1621000   0.61856563   -2.4755569   -2.4755569   -1.7066302  0.043806989   -2.4755569   0.76892669   426349 
 1622000   0.61759967   -2.4747276   -2.4747276   -1.7070017  0.047376065   -2.4747276   0.76772592   426349 
 1623000   0.62089803   -2.4789031   -2.4789031   -1.7070771   0.05500164   -2.4789031   0.77182605   426349 
 1624000   0.61979579   -2.4778302   -2.4778302   -1.7073744  0.048602107   -2.4778302   0.77045587   426349 
 1625000   0.61956877   -2.4774405   -2.4774405   -1.7072669  0.049571538   -2.4774405   0.77017367   426349 
 1626000   0.61990514   -2.4771479   -2.4771479   -1.7065561  0.044331197   -2.4771479    0.7705918   426349 
 1627000   0.62027962   -2.4778825   -2.4778825   -1.7068252  0.042627522   -2.4778825   0.77105732   426349 
 1628000   0.62085833   -2.4779741   -2.4779741   -1.7061974  0.052470397   -2.4779741    0.7717767   426349 
 1629000   0.62043115   -2.4778341   -2.4778341   -1.7065884  0.050576104   -2.4778341   0.77124567   426349 
 1630000   0.62024296   -2.4783574   -2.4783574   -1.7073457  0.053027805   -2.4783574   0.77101174   426349 
 1631000   0.61976085   -2.4772699   -2.4772699   -1.7068575  0.047695641   -2.4772699   0.77041244   426349 
 1632000   0.61878898   -2.4760776   -2.4760776   -1.7068733  0.045733872   -2.4760776   0.76920433   426349 
 1633000   0.61866264   -2.4767084   -2.4767084   -1.7076611  0.039523668   -2.4767084   0.76904728   426349 
 1634000   0.61855355   -2.4767903   -2.4767903   -1.7078786  0.045395907   -2.4767903   0.76891167   426349 
 1635000   0.61970837   -2.4789056   -2.4789056   -1.7085584  0.044691976   -2.4789056   0.77034721   426349 
 1636000    0.6184437   -2.4770789   -2.4770789   -1.7083038  0.045554609   -2.4770789   0.76877512   426349 
 1637000   0.62005525   -2.4786154   -2.4786154    -1.707837  0.042550636   -2.4786154    0.7707784   426349 
 1638000   0.61983251   -2.4782507   -2.4782507   -1.7077492  0.039938763   -2.4782507   0.77050153   426349 
 1639000   0.62028306   -2.4782867   -2.4782867   -1.7072251  0.057462866   -2.4782867   0.77106159   426349 
 1640000   0.61956713   -2.4773461   -2.4773461   -1.7071744  0.041708198   -2.4773461   0.77017163   426349 
 1641000   0.61971898   -2.4780437   -2.4780437   -1.7076834  0.045782913   -2.4780437   0.77036039   426349 
 1642000   0.61936859    -2.477779    -2.477779   -1.7078542  0.058083774    -2.477779   0.76992483   426349 
 1643000   0.62019821   -2.4786225   -2.4786225   -1.7076664  0.050118651   -2.4786225   0.77095611   426349 
 1644000   0.61920201   -2.4775567   -2.4775567    -1.707839  0.048954802   -2.4775567   0.76971776   426349 
 1645000    0.6204214    -2.479678    -2.479678   -1.7084445  0.044287079    -2.479678   0.77123356   426349 
 1646000   0.62052351   -2.4798342   -2.4798342   -1.7084737  0.042695904   -2.4798342   0.77136049   426349 
 1647000   0.61977368   -2.4786673   -2.4786673   -1.7082389  0.038084726   -2.4786673   0.77042839   426349 
 1648000   0.61871725   -2.4764849   -2.4764849   -1.7073697  0.041491575   -2.4764849   0.76911516   426349 
 1649000   0.61987294   -2.4782697   -2.4782697   -1.7077179  0.044192372   -2.4782697   0.77055178   426349 
 1650000   0.61947024   -2.4780997   -2.4780997   -1.7080485   0.04540395   -2.4780997   0.77005119   426349 
 1651000   0.61974215   -2.4786537   -2.4786537   -1.7082645  0.046834655   -2.4786537   0.77038919   426349 
 1652000   0.61928578   -2.4788806   -2.4788806   -1.7090587  0.045276227   -2.4788806   0.76982189   426349 
 1653000   0.61886207   -2.4775082   -2.4775082    -1.708213  0.051263363   -2.4775082   0.76929519   426349 
 1654000   0.61936252   -2.4785441   -2.4785441   -1.7086269  0.053907501   -2.4785441   0.76991728   426349 
 1655000   0.61893564   -2.4774042   -2.4774042   -1.7080175  0.048906075   -2.4774042   0.76938664   426349 
 1656000   0.61941798   -2.4775725   -2.4775725   -1.7075863  0.047618418   -2.4775725   0.76998623   426349 
 1657000   0.61932881   -2.4779499   -2.4779499   -1.7080745  0.047241689   -2.4779499   0.76987538   426349 
 1658000   0.61823248   -2.4765375   -2.4765375   -1.7080249  0.038470682   -2.4765375   0.76851256   426349 
 1659000   0.61976349    -2.477941    -2.477941   -1.7075253   0.04859411    -2.477941   0.77041573   426349 
 1660000   0.61845832   -2.4770208   -2.4770208   -1.7082276  0.049431002   -2.4770208   0.76879329   426349 
 1661000   0.61751502   -2.4758918   -2.4758918   -1.7082711  0.043529558   -2.4758918    0.7676207   426349 
 1662000   0.61812577   -2.4774486   -2.4774486   -1.7090687  0.034876388   -2.4774486    0.7683799   426349 
 1663000   0.61862156   -2.4781831   -2.4781831   -1.7091869  0.046959154   -2.4781831   0.76899621   426349 
 1664000   0.61719124   -2.4769744   -2.4769744   -1.7097562  0.042768835   -2.4769744    0.7672182   426349 
 1665000   0.61834875   -2.4788129   -2.4788129   -1.7101559  0.044211297   -2.4788129   0.76865708   426349 
 1666000   0.61950815   -2.4799818   -2.4799818   -1.7098835  0.049107751   -2.4799818   0.77009832   426349 
 1667000   0.61897229   -2.4793176   -2.4793176   -1.7098854  0.043034947   -2.4793176    0.7694322   426349 
 1668000     0.619725   -2.4797842   -2.4797842   -1.7094163  0.047045611   -2.4797842   0.77036788   426349 
 1669000   0.61994763    -2.479773    -2.479773   -1.7091284   0.04733359    -2.479773   0.77064462   426349 
 1670000   0.61991397   -2.4799646   -2.4799646   -1.7093618  0.049999147   -2.4799646   0.77060278   426349 
 1671000   0.62030448   -2.4807214   -2.4807214   -1.7096332  0.040423477   -2.4807214   0.77108822   426349 
 1672000   0.62054019   -2.4813397   -2.4813397   -1.7099585  0.043422804   -2.4813397   0.77138122   426349 
 1673000   0.61964898   -2.4801209   -2.4801209   -1.7098475  0.047596487   -2.4801209   0.77027338   426349 
 1674000   0.61972341   -2.4803239   -2.4803239    -1.709958  0.049626825   -2.4803239    0.7703659   426349 
 1675000   0.61975063   -2.4806961   -2.4806961   -1.7102963  0.052850211   -2.4806961   0.77039974   426349 
 1676000   0.61865264    -2.479937    -2.479937   -1.7109021  0.043903247    -2.479937   0.76903484   426349 
 1677000   0.61981681   -2.4808348   -2.4808348   -1.7103528  0.055000459   -2.4808348     0.770482   426349 
 1678000   0.61956002   -2.4805873   -2.4805873   -1.7104245  0.044805615   -2.4805873    0.7701628   426349 
 1679000   0.61990735   -2.4813088   -2.4813088   -1.7107142  0.051517574   -2.4813088   0.77059456   426349 
 1680000   0.61955957   -2.4813715   -2.4813715   -1.7112092  0.046486643   -2.4813715   0.77016224   426349 
 1681000   0.61804173   -2.4799039   -2.4799039   -1.7116285   0.03451548   -2.4799039   0.76827543   426349 
 1682000   0.61816278   -2.4797317   -2.4797317   -1.7113058  0.044240054   -2.4797317   0.76842592   426349 
 1683000   0.61839953   -2.4798873   -2.4798873   -1.7111671   0.05163147   -2.4798873   0.76872021   426349 
 1684000   0.61840456   -2.4802655   -2.4802655   -1.7115391  0.035805813   -2.4802655   0.76872647   426349 
 1685000   0.61934466   -2.4808844   -2.4808844   -1.7109894  0.049209646   -2.4808844   0.76989509   426349 
 1686000   0.61947432   -2.4810979   -2.4810979   -1.7110416  0.044021924   -2.4810979   0.77005626   426349 
 1687000   0.61902611   -2.4804007   -2.4804007   -1.7109016  0.050001209   -2.4804007    0.7694991   426349 
 1688000   0.61806014   -2.4792189   -2.4792189   -1.7109206  0.049079768   -2.4792189   0.76829832   426349 
 1689000   0.61883711   -2.4803832   -2.4803832    -1.711119  0.039680028   -2.4803832   0.76926416   426349 
 1690000   0.61996632   -2.4828671   -2.4828671   -1.7121992  0.043915085   -2.4828671   0.77066786   426349 
 1691000   0.61845243    -2.481598    -2.481598    -1.712812  0.054676016    -2.481598   0.76878597   426349 
 1692000   0.61807999   -2.4815824   -2.4815824   -1.7132594  0.045771535   -2.4815824   0.76832299   426349 
 1693000   0.61908317   -2.4830292   -2.4830292   -1.7134592  0.038388082   -2.4830292   0.76957003   426349 
 1694000   0.61806061   -2.4814494   -2.4814494   -1.7131505  0.041819212   -2.4814494   0.76829891   426349 
 1695000   0.61771155   -2.4818086   -2.4818086   -1.7139436  0.046875157   -2.4818086     0.767865   426349 
 1696000   0.61975683   -2.4828591   -2.4828591   -1.7124517  0.043795828   -2.4828591   0.77040744   426349 
 1697000   0.61890742   -2.4815176   -2.4815176    -1.712166  0.052714484   -2.4815176   0.76935156   426349 
 1698000   0.62054992    -2.484222    -2.484222   -1.7128287  0.041981003    -2.484222   0.77139332   426349 
 1699000   0.61869495   -2.4814938   -2.4814938   -1.7124064  0.046968595   -2.4814938   0.76908745   426349 
 1700000   0.62038202   -2.4836628   -2.4836628   -1.7124782  0.044532204   -2.4836628    0.7711846   426349 
 1701000    0.6191368   -2.4813395   -2.4813395   -1.7117028  0.042292681   -2.4813395   0.76963669   426349 
 1702000   0.61861396   -2.4814317   -2.4814317   -1.7124449  0.041912542   -2.4814317   0.76898677   426349 
 1703000   0.61893592   -2.4825283   -2.4825283   -1.7131413  0.032259878   -2.4825283   0.76938699   426349 
 1704000   0.61873179   -2.4810808   -2.4810808   -1.7119476  0.049817668   -2.4810808   0.76913324   426349 
 1705000   0.61829097   -2.4808488   -2.4808488   -1.7122635  0.038374321   -2.4808488   0.76858527   426349 
 1706000   0.61940703   -2.4822587   -2.4822587   -1.7122861  0.042679616   -2.4822587   0.76997262   426349 
 1707000    0.6192642   -2.4813304   -2.4813304   -1.7115354  0.048353077   -2.4813304   0.76979507   426349 
 1708000   0.62001909   -2.4824562   -2.4824562   -1.7117227  0.047832356   -2.4824562   0.77073345   426349 
 1709000   0.61904096   -2.4812771   -2.4812771   -1.7117595   0.04992672   -2.4812771   0.76951756   426349 
 1710000   0.62005607   -2.4823079   -2.4823079   -1.7115285  0.048020733   -2.4823079   0.77077943   426349 
 1711000   0.61967422   -2.4826816   -2.4826816   -1.7123769  0.047293472   -2.4826816   0.77030475   426349 
 1712000   0.61884212   -2.4820935   -2.4820935   -1.7128231  0.048660775   -2.4820935   0.76927039   426349 
 1713000   0.61848848   -2.4819437   -2.4819437   -1.7131129  0.041756173   -2.4819437   0.76883079   426349 
 1714000   0.61849139   -2.4818778   -2.4818778   -1.7130434   0.04525525   -2.4818778    0.7688344   426349 
 1715000   0.61811144   -2.4817131   -2.4817131    -1.713351   0.04116073   -2.4817131    0.7683621   426349 
 1716000   0.61827685   -2.4816734   -2.4816734   -1.7131057  0.053290934   -2.4816734   0.76856771   426349 
 1717000   0.61826607   -2.4821126   -2.4821126   -1.7135583  0.046771418   -2.4821126   0.76855431   426349 
 1718000   0.61847831   -2.4822169   -2.4822169   -1.7133988  0.040036212   -2.4822169   0.76881814   426349 
 1719000   0.61844164   -2.4824732   -2.4824732   -1.7137006  0.043049975   -2.4824732   0.76877256   426349 
 1720000   0.61785345   -2.4828498   -2.4828498   -1.7148084  0.041484933   -2.4828498   0.76804139   426349 
 1721000   0.61885426   -2.4834933   -2.4834933   -1.7142078  0.031358896   -2.4834933   0.76928548   426349 
 1722000   0.61832569   -2.4822192   -2.4822192   -1.7135908  0.036266924   -2.4822192   0.76862842   426349 
 1723000   0.61926922   -2.4829441   -2.4829441   -1.7131427  0.046270534   -2.4829441   0.76980131   426349 
 1724000   0.61915466   -2.4827185   -2.4827185   -1.7130596  0.045652952   -2.4827185   0.76965889   426349 
 1725000   0.61879277   -2.4827724   -2.4827724   -1.7135633  0.051240827   -2.4827724   0.76920904   426349 
 1726000   0.61979115    -2.484747    -2.484747   -1.7142969  0.046380055    -2.484747   0.77045011   426349 
 1727000   0.61952015   -2.4836309   -2.4836309   -1.7135177  0.048425641   -2.4836309   0.77011323   426349 
 1728000   0.61946424    -2.484465    -2.484465   -1.7144213  0.041214759    -2.484465   0.77004373   426349 
 1729000   0.61988766   -2.4838531   -2.4838531    -1.713283  0.048810433   -2.4838531   0.77057007   426349 
 1730000    0.6193742   -2.4835137   -2.4835137   -1.7135819  0.043551718   -2.4835137    0.7699318   426349 
 1731000   0.61861519   -2.4837289   -2.4837289   -1.7147406  0.030896307   -2.4837289   0.76898829   426349 
 1732000   0.61832497    -2.483017    -2.483017   -1.7143895  0.050371205    -2.483017   0.76862753   426349 
 1733000   0.61861842   -2.4834667   -2.4834667   -1.7144744   0.03591636   -2.4834667    0.7689923   426349 
 1734000   0.61851516   -2.4834218   -2.4834218   -1.7145579  0.042964633   -2.4834218   0.76886395   426349 
 1735000     0.617947   -2.4828227   -2.4828227    -1.714665  0.044464212   -2.4828227   0.76815768   426349 
 1736000   0.61778738   -2.4822797   -2.4822797   -1.7143205  0.035641037   -2.4822797   0.76795926   426349 
 1737000   0.61733349   -2.4811649   -2.4811649   -1.7137699  0.050691781   -2.4811649   0.76739504   426349 
 1738000   0.61764185   -2.4813312   -2.4813312   -1.7135528   0.03949106   -2.4813312   0.76777836   426349 
 1739000   0.61736118   -2.4807432   -2.4807432   -1.7133137  0.033326752   -2.4807432   0.76742946   426349 
 1740000   0.61800954   -2.4818217   -2.4818217   -1.7135863  0.047948437   -2.4818217   0.76823543   426349 
 1741000   0.61726796   -2.4816769   -2.4816769   -1.7143634  0.041902018   -2.4816769   0.76731357   426349 
 1742000   0.61692156   -2.4808634   -2.4808634   -1.7139804  0.043340195   -2.4808634   0.76688297   426349 
 1743000    0.6181864   -2.4822166   -2.4822166   -1.7137614  0.037437735   -2.4822166   0.76845527   426349 
 1744000   0.61820824   -2.4825722   -2.4825722   -1.7140898  0.046383356   -2.4825722   0.76848243   426349 
 1745000   0.61784131   -2.4824188   -2.4824188   -1.7143925  0.045655856   -2.4824188    0.7680263   426349 
 1746000    0.6182551   -2.4828358   -2.4828358   -1.7142951  0.042294673   -2.4828358   0.76854068   426349 
 1747000   0.61910979   -2.4841926   -2.4841926   -1.7145894  0.050959357   -2.4841926   0.76960312   426349 
 1748000   0.61841083   -2.4837954   -2.4837954   -1.7150611  0.047213259   -2.4837954   0.76873426   426349 
 1749000   0.61927492   -2.4857575   -2.4857575   -1.7159491  0.046291136   -2.4857575   0.76980839   426349 
 1750000   0.61845622   -2.4841403   -2.4841403   -1.7153496  0.048668007   -2.4841403   0.76879068   426349 
 1751000    0.6179288    -2.483799    -2.483799    -1.715664  0.041452589    -2.483799   0.76813505   426349 
 1752000   0.61796802    -2.484306    -2.484306   -1.7161221  0.039774513    -2.484306   0.76818381   426349 
 1753000   0.61814044    -2.484276    -2.484276   -1.7158778  0.039620418    -2.484276   0.76839814   426349 
 1754000   0.61759553   -2.4834062   -2.4834062   -1.7156855   0.05320618   -2.4834062   0.76772078   426349 
 1755000   0.61823194   -2.4837964   -2.4837964   -1.7152845   0.05225814   -2.4837964   0.76851189   426349 
 1756000   0.61963228   -2.4858421   -2.4858421   -1.7155895  0.044393698   -2.4858421   0.77025262   426349 
 1757000    0.6196796   -2.4858845   -2.4858845   -1.7155731  0.042896441   -2.4858845   0.77031144   426349 
 1758000   0.61841883   -2.4857654   -2.4857654   -1.7170212  0.047812981   -2.4857654    0.7687442   426349 
 1759000   0.61832182   -2.4856789   -2.4856789   -1.7170553  0.049716513   -2.4856789   0.76862361   426349 
 1760000   0.61880543    -2.486744    -2.486744   -1.7175193  0.040511104    -2.486744   0.76922478   426349 
 1761000   0.61875677   -2.4858784   -2.4858784   -1.7167141  0.050812381   -2.4858784   0.76916429   426349 
 1762000   0.61818626   -2.4866351   -2.4866351     -1.71818  0.050384401   -2.4866351    0.7684551   426349 
 1763000     0.618604   -2.4869215   -2.4869215   -1.7179471  0.045784216   -2.4869215   0.76897439   426349 
 1764000   0.61688182     -2.48471     -2.48471   -1.7178764   0.04556681     -2.48471   0.76683358   426349 
 1765000   0.61743542   -2.4854194   -2.4854194   -1.7178976  0.036473388   -2.4854194   0.76752175   426349 
 1766000   0.61911172   -2.4882217   -2.4882217   -1.7186162  0.051042638   -2.4882217   0.76960552   426349 
 1767000   0.61906881   -2.4889218   -2.4889218   -1.7193696  0.038056471   -2.4889218   0.76955218   426349 
 1768000     0.617217   -2.4866351   -2.4866351   -1.7193849  0.049211049   -2.4866351   0.76725023   426349 
 1769000   0.61860279   -2.4882752   -2.4882752   -1.7193023  0.047526114   -2.4882752   0.76897289   426349 
 1770000   0.61737182   -2.4873187   -2.4873187    -1.719876  0.042914559   -2.4873187   0.76744269   426349 
 1771000   0.61734916   -2.4877982   -2.4877982   -1.7203837  0.049481701   -2.4877982   0.76741451   426349 
 1772000   0.61639871   -2.4865024   -2.4865024   -1.7202694  0.043368041   -2.4865024   0.76623303   426349 
 1773000   0.61746087   -2.4871362   -2.4871362   -1.7195829  0.040202177   -2.4871362   0.76755338   426349 
 1774000   0.61707164   -2.4870941   -2.4870941   -1.7200246  0.049925874   -2.4870941   0.76706954   426349 
 1775000    0.6170609   -2.4868243   -2.4868243   -1.7197682  0.046272905   -2.4868243   0.76705618   426349 
 1776000   0.61764114   -2.4881349   -2.4881349   -1.7203574  0.038741882   -2.4881349   0.76777747   426349 
 1777000   0.61810496   -2.4886739   -2.4886739   -1.7203198  0.045832723   -2.4886739   0.76835404   426349 
 1778000   0.61791782   -2.4887626   -2.4887626   -1.7206412  0.050690295   -2.4887626    0.7681214   426349 
 1779000   0.61811253   -2.4882086   -2.4882086   -1.7198452  0.051370308   -2.4882086   0.76836344   426349 
 1780000   0.61916164   -2.4887285   -2.4887285   -1.7190609  0.047868186   -2.4887285   0.76966758   426349 
 1781000   0.62097566    -2.491206    -2.491206   -1.7192834  0.041799514    -2.491206   0.77192255   426349 
 1782000   0.61880109   -2.4894075   -2.4894075   -1.7201881  0.042423375   -2.4894075   0.76921938   426349 
 1783000   0.61766388   -2.4883309   -2.4883309   -1.7205251  0.048587631   -2.4883309   0.76780574   426349 
 1784000   0.61939057   -2.4899858   -2.4899858   -1.7200336  0.046449967   -2.4899858   0.76995216   426349 
 1785000   0.61767595   -2.4885338   -2.4885338   -1.7207131  0.041593262   -2.4885338   0.76782074   426349 
 1786000   0.61762844   -2.4887197   -2.4887197    -1.720958   0.04163406   -2.4887197   0.76776169   426349 
 1787000    0.6175794   -2.4886817   -2.4886817   -1.7209809  0.043903603   -2.4886817   0.76770073   426349 
 1788000   0.61755843   -2.4886306   -2.4886306    -1.720956  0.037028105   -2.4886306   0.76767466   426349 
 1789000   0.61914544   -2.4908758   -2.4908758   -1.7212283  0.044937001   -2.4908758   0.76964743   426349 
 1790000   0.61935012   -2.4898138   -2.4898138   -1.7199119  0.046552523   -2.4898138   0.76990187   426349 
 1791000   0.61818753   -2.4892315   -2.4892315   -1.7207748  0.054580003   -2.4892315   0.76845668   426349 
 1792000    0.6195564   -2.4899179   -2.4899179   -1.7197596   0.04081079   -2.4899179    0.7701583   426349 
 1793000   0.61882575    -2.489217    -2.489217   -1.7199669  0.038620819    -2.489217   0.76925003   426349 
 1794000   0.61889106    -2.488919    -2.488919   -1.7195878  0.050133808    -2.488919   0.76933122   426349 
 1795000   0.61714351   -2.4881446   -2.4881446   -1.7209858  0.043534929   -2.4881446   0.76715888   426349 
 1796000   0.61702016   -2.4877188   -2.4877188   -1.7207132   0.04530796   -2.4877188   0.76700554   426349 
 1797000    0.6180371   -2.4891234   -2.4891234   -1.7208537  0.052206045   -2.4891234   0.76826968   426349 
 1798000    0.6170155    -2.488335    -2.488335   -1.7213352  0.036641641    -2.488335   0.76699975   426349 
 1799000   0.61807856   -2.4895937   -2.4895937   -1.7212725  0.029928859   -2.4895937   0.76832122   426349 
 1800000   0.61728575   -2.4888371   -2.4888371   -1.7215014   0.05020867   -2.4888371   0.76733569   426349 
 1801000   0.61799483   -2.4902256   -2.4902256   -1.7220085   0.04050354   -2.4902256   0.76821714   426349 
 1802000   0.61847195    -2.490465    -2.490465   -1.7216548  0.038956309    -2.490465   0.76881024   426349 
 1803000   0.61762227   -2.4894311   -2.4894311   -1.7216771  0.044865978   -2.4894311   0.76775402   426349 
 1804000   0.61793444   -2.4895592   -2.4895592   -1.7214171  0.038016667   -2.4895592   0.76814206   426349 
 1805000   0.61801181   -2.4899798   -2.4899798   -1.7217415  0.042641451   -2.4899798   0.76823825   426349 
 1806000   0.61809104   -2.4904136   -2.4904136   -1.7220768  0.041088184   -2.4904136   0.76833673   426349 
 1807000   0.61862187   -2.4910612   -2.4910612   -1.7220646  0.044433255   -2.4910612    0.7689966   426349 
 1808000   0.61908149   -2.4922146   -2.4922146   -1.7226467  0.043046649   -2.4922146   0.76956795   426349 
 1809000   0.61679522   -2.4902077   -2.4902077   -1.7234817  0.036564033   -2.4902077   0.76672592   426349 
 1810000   0.61715487   -2.4904559   -2.4904559   -1.7232829  0.048521658   -2.4904559     0.767173   426349 
 1811000   0.61770108   -2.4908936   -2.4908936   -1.7230417  0.037701693   -2.4908936   0.76785198   426349 
 1812000   0.61564743   -2.4882305   -2.4882305   -1.7229314  0.048807997   -2.4882305   0.76529913   426349 
 1813000   0.61705457   -2.4901185   -2.4901185   -1.7230702  0.053247303   -2.4901185   0.76704832   426349 
 1814000   0.61811573   -2.4917136   -2.4917136   -1.7233462  0.045072626   -2.4917136   0.76836742   426349 
 1815000   0.61793942   -2.4913331   -2.4913331   -1.7231848  0.045790485   -2.4913331   0.76814826   426349 
 1816000   0.61737362   -2.4912414   -2.4912414   -1.7237964  0.039758766   -2.4912414   0.76744492   426349 
 1817000   0.61673184   -2.4902502   -2.4902502   -1.7236031  0.039961434   -2.4902502   0.76664714   426349 
 1818000   0.61782927   -2.4916717   -2.4916717   -1.7236603  0.042365098   -2.4916717   0.76801133   426349 
 1819000    0.6182556   -2.4919828   -2.4919828   -1.7234415  0.039527967   -2.4919828   0.76854129   426349 
 1820000    0.6179156   -2.4915469   -2.4915469   -1.7234282  0.036734269   -2.4915469   0.76811864   426349 
 1821000   0.61757355   -2.4909531   -2.4909531   -1.7232596  0.035842261   -2.4909531   0.76769345   426349 
 1822000   0.61715204   -2.4901861   -2.4901861   -1.7230167  0.039849353   -2.4901861   0.76716948   426349 
 1823000   0.61719582   -2.4899997   -2.4899997   -1.7227758  0.047144472   -2.4899997    0.7672239   426349 
 1824000   0.61642112   -2.4886749   -2.4886749    -1.722414  0.044963704   -2.4886749   0.76626089   426349 
 1825000    0.6172558   -2.4899189   -2.4899189   -1.7226205  0.053886161   -2.4899189   0.76729847   426349 
 1826000   0.61692353   -2.4899503   -2.4899503   -1.7230649  0.042639519   -2.4899503   0.76688542   426349 
 1827000   0.61714523   -2.4902021   -2.4902021    -1.723041  0.034879807   -2.4902021   0.76716101   426349 
 1828000   0.61683466   -2.4898464   -2.4898464   -1.7230714  0.042167112   -2.4898464   0.76677496   426349 
 1829000   0.61694928   -2.4891495   -2.4891495   -1.7222321  0.035421621   -2.4891495   0.76691743   426349 
 1830000   0.61677013   -2.4900638   -2.4900638   -1.7233691  0.048517585   -2.4900638   0.76669474   426349 
 1831000   0.61718023   -2.4900815   -2.4900815    -1.722877  0.039694671   -2.4900815   0.76720452   426349 
 1832000   0.61617486   -2.4891206   -2.4891206   -1.7231658  0.029864228   -2.4891206   0.76595477   426349 
 1833000   0.61721684   -2.4909456   -2.4909456   -1.7236955  0.047694153   -2.4909456   0.76725004   426349 
 1834000   0.61740702   -2.4913665   -2.4913665   -1.7238801  0.048942221   -2.4913665   0.76748645   426349 
 1835000   0.61789306   -2.4923633   -2.4923633   -1.7242727  0.040924296   -2.4923633   0.76809063   426349 
 1836000   0.61837676   -2.4938662   -2.4938662   -1.7251743  0.041912481   -2.4938662    0.7686919   426349 
 1837000    0.6173213   -2.4925224   -2.4925224   -1.7251425   0.04810678   -2.4925224   0.76737988   426349 
 1838000   0.61737454   -2.4931302   -2.4931302   -1.7256841  0.037842339   -2.4931302   0.76744606   426349 
 1839000   0.61762908   -2.4934993   -2.4934993   -1.7257368  0.044369994   -2.4934993   0.76776248   426349 
 1840000   0.61788296   -2.4937516   -2.4937516   -1.7256735  0.037392556   -2.4937516   0.76807807   426349 
 1841000   0.61741066   -2.4937656   -2.4937656   -1.7262746   0.05600611   -2.4937656   0.76749097   426349 
 1842000   0.61742671   -2.4941123   -2.4941123   -1.7266013  0.048046424   -2.4941123   0.76751092   426349 
 1843000     0.615633    -2.492853    -2.492853   -1.7275718  0.044944322    -2.492853    0.7652812   426349 
 1844000   0.61669434   -2.4939544   -2.4939544   -1.7273539  0.042939264   -2.4939544   0.76660052   426349 
 1845000    0.6158502   -2.4926712   -2.4926712     -1.72712  0.041874624   -2.4926712    0.7655512   426349 
 1846000   0.61747408   -2.4927859   -2.4927859   -1.7252161  0.040643018   -2.4927859    0.7675698   426349 
 1847000   0.61706287   -2.4922382   -2.4922382   -1.7251796  0.050808171   -2.4922382   0.76705864   426349 
 1848000   0.61764304   -2.4926136   -2.4926136   -1.7248337   0.04930884   -2.4926136   0.76777983   426349 
 1849000   0.61738507   -2.4923074   -2.4923074   -1.7248483  0.048071699   -2.4923074   0.76745916   426349 
 1850000   0.61766467   -2.4925861   -2.4925861   -1.7247793  0.050114792   -2.4925861   0.76780673   426349 
 1851000   0.61783711    -2.493335    -2.493335   -1.7253139    0.0406747    -2.493335   0.76802108   426349 
 1852000   0.61534065   -2.4898016   -2.4898016   -1.7248838   0.04023161   -2.4898016   0.76491778   426349 
 1853000   0.61650167   -2.4917709   -2.4917709   -1.7254099  0.035860688   -2.4917709   0.76636102   426349 
 1854000   0.61637786   -2.4924251   -2.4924251    -1.726218  0.038240758   -2.4924251   0.76620711   426349 
 1855000   0.61740042   -2.4937842   -2.4937842    -1.726306  0.044870549   -2.4937842   0.76747824   426349 
 1856000   0.61685005   -2.4923652   -2.4923652   -1.7255711  0.034850107   -2.4923652   0.76679408   426349 
 1857000   0.61696412   -2.4928335   -2.4928335   -1.7258976  0.040846623   -2.4928335   0.76693589   426349 
 1858000   0.61551243   -2.4907071   -2.4907071   -1.7255758  0.041030916   -2.4907071   0.76513132   426349 
 1859000   0.61688564   -2.4918472   -2.4918472   -1.7250089  0.052335282   -2.4918472   0.76683833   426349 
 1860000    0.6176833    -2.493002    -2.493002   -1.7251721  0.044219773    -2.493002   0.76782988   426349 
 1861000   0.61768235   -2.4933572   -2.4933572   -1.7255285  0.038273607   -2.4933572    0.7678287   426349 
 1862000   0.61759752     -2.49324     -2.49324   -1.7255168    0.0386248     -2.49324   0.76772325   426349 
 1863000   0.61666169   -2.4928858   -2.4928858   -1.7263258  0.039964284   -2.4928858   0.76655993   426349 
 1864000   0.61704502   -2.4932347   -2.4932347   -1.7261983  0.050061922   -2.4932347   0.76703644   426349 
 1865000   0.61585918   -2.4915705   -2.4915705   -1.7260081  0.044588769   -2.4915705   0.76556235   426349 
 1866000   0.61784468   -2.4935705   -2.4935705     -1.72554   0.04501524   -2.4935705   0.76803049   426349 
 1867000   0.61711884    -2.493408    -2.493408   -1.7262798  0.044262312    -2.493408   0.76712821   426349 
 1868000   0.61650628   -2.4925296   -2.4925296   -1.7261628  0.045631346   -2.4925296   0.76636675   426349 
 1869000   0.61824013   -2.4957103   -2.4957103   -1.7271883  0.048954522   -2.4957103   0.76852206   426349 
 1870000   0.61559947   -2.4929035   -2.4929035    -1.727664  0.031745993   -2.4929035   0.76523951   426349 
 1871000   0.61621515   -2.4935616   -2.4935616   -1.7275568  0.047083141   -2.4935616   0.76600485   426349 
 1872000   0.61656899   -2.4942673   -2.4942673   -1.7278226  0.040366001   -2.4942673    0.7664447   426349 
 1873000   0.61743482   -2.4949231   -2.4949231   -1.7274021  0.036092327   -2.4949231     0.767521   426349 
 1874000   0.61670201   -2.4946024   -2.4946024   -1.7279923   0.04746378   -2.4946024   0.76661006   426349 
 1875000   0.61757759    -2.495627    -2.495627   -1.7279285  0.047493657    -2.495627   0.76769847   426349 
 1876000   0.61660325   -2.4945726   -2.4945726   -1.7280853  0.043032595   -2.4945726   0.76648729   426349 
 1877000    0.6170125   -2.4958914   -2.4958914   -1.7288954  0.038988295   -2.4958914   0.76699603   426349 
 1878000   0.61723086   -2.4962714   -2.4962714    -1.729004  0.051674115   -2.4962714   0.76726746   426349 
 1879000   0.61781936   -2.4964272   -2.4964272   -1.7284281  0.048529914   -2.4964272   0.76799902   426349 
 1880000   0.61701484   -2.4954446   -2.4954446   -1.7284456  0.047635554   -2.4954446   0.76699893   426349 
 1881000    0.6178267   -2.4964929   -2.4964929   -1.7284848  0.042929463   -2.4964929   0.76800814   426349 
 1882000   0.61754782   -2.4963706   -2.4963706   -1.7287092  0.040264045   -2.4963706   0.76766147   426349 
 1883000   0.61695147   -2.4961849   -2.4961849   -1.7292647  0.042885239   -2.4961849   0.76692016   426349 
 1884000   0.61580478    -2.495341    -2.495341   -1.7298463  0.038269401    -2.495341   0.76549473   426349 
 1885000   0.61765744   -2.4975686   -2.4975686   -1.7297708  0.050255601   -2.4975686   0.76779774   426349 
 1886000   0.61668035   -2.4958436   -2.4958436   -1.7292604  0.034673147   -2.4958436   0.76658313   426349 
 1887000   0.61745139   -2.4973039   -2.4973039   -1.7297623  0.042725301   -2.4973039    0.7675416   426349 
 1888000   0.61610094   -2.4959335   -2.4959335   -1.7300706  0.052235582   -2.4959335   0.76586288   426349 
 1889000   0.61726334   -2.4976659   -2.4976659    -1.730358  0.045687074   -2.4976659   0.76730784   426349 
 1890000   0.61689377   -2.4977982   -2.4977982   -1.7309498  0.047101662   -2.4977982   0.76684843   426349 
 1891000   0.61741974   -2.4982166   -2.4982166   -1.7307143   0.04294091   -2.4982166   0.76750226   426349 
 1892000   0.61760618   -2.4982257   -2.4982257   -1.7304917  0.040416292   -2.4982257   0.76773401   426349 
 1893000    0.6179661   -2.4991304   -2.4991304    -1.730949  0.046020672   -2.4991304   0.76818142   426349 
 1894000   0.61719923   -2.4985029   -2.4985029   -1.7312747  0.038051297   -2.4985029   0.76722814   426349 
 1895000   0.61674502   -2.4979771   -2.4979771   -1.7313136  0.046392767   -2.4979771   0.76666352   426349 
 1896000   0.61759904   -2.4991665   -2.4991665   -1.7314413  0.041291473   -2.4991665   0.76772514   426349 
 1897000   0.61731617   -2.4989277   -2.4989277   -1.7315542  0.041085992   -2.4989277    0.7673735   426349 
 1898000   0.61709535   -2.4988305   -2.4988305   -1.7317315  0.038236984   -2.4988305   0.76709902   426349 
 1899000   0.61837037   -2.4997265   -2.4997265   -1.7310426  0.052744471   -2.4997265   0.76868397   426349 
 1900000    0.6177185   -2.4985999   -2.4985999   -1.7307263  0.046653503   -2.4985999   0.76787364   426349 
 1901000   0.61743168   -2.4991539   -2.4991539   -1.7316368  0.051569507   -2.4991539   0.76751709   426349 
 1902000   0.61642718   -2.4987732   -2.4987732   -1.7325047  0.043669074   -2.4987732   0.76626842   426349 
 1903000   0.61693829   -2.4992985   -2.4992985   -1.7323948  0.045965905   -2.4992985   0.76690377   426349 
 1904000   0.61718878   -2.4985113   -2.4985113   -1.7312961  0.042639779   -2.4985113   0.76721515   426349 
 1905000   0.61640869    -2.498129    -2.498129   -1.7318836  0.043092611    -2.498129   0.76624544   426349 
 1906000   0.61576552   -2.4972497   -2.4972497   -1.7318038  0.035979381   -2.4972497   0.76544593   426349 
 1907000   0.61470088   -2.4973377   -2.4973377   -1.7332152  0.047246545   -2.4973377   0.76412249   426349 
 1908000   0.61502405   -2.4977736   -2.4977736   -1.7332494  0.038837881   -2.4977736   0.76452421   426349 
 1909000   0.61607601   -2.4986025   -2.4986025   -1.7327706   0.04428974   -2.4986025   0.76583188   426349 
 1910000   0.61559638   -2.4982275   -2.4982275   -1.7329918   0.04342992   -2.4982275   0.76523567   426349 
 1911000   0.61701279   -2.4999862   -2.4999862   -1.7329898  0.044251189   -2.4999862   0.76699639   426349 
 1912000   0.61725831    -2.500581    -2.500581   -1.7332794  0.054545037    -2.500581   0.76730159   426349 
 1913000   0.61690319   -2.5011748   -2.5011748   -1.7343146  0.037028749   -2.5011748   0.76686014   426349 
 1914000   0.61688018   -2.5017012   -2.5017012   -1.7348697  0.054085795   -2.5017012   0.76683153   426349 
 1915000   0.61653382   -2.5015153   -2.5015153   -1.7351143  0.044566415   -2.5015153   0.76640098   426349 
 1916000   0.61773657   -2.5036041   -2.5036041    -1.735708  0.042836911   -2.5036041    0.7678961   426349 
 1917000   0.61661457   -2.5026154   -2.5026154   -1.7361141  0.042405692   -2.5026154   0.76650136   426349 
 1918000    0.6174485   -2.5036058   -2.5036058   -1.7360678  0.046529968   -2.5036058   0.76753801   426349 
 1919000   0.61737335   -2.5036416   -2.5036416   -1.7361971  0.048699574   -2.5036416   0.76744459   426349 
 1920000   0.61813056   -2.5045985   -2.5045985   -1.7362126  0.044248934   -2.5045985   0.76838586   426349 
 1921000   0.61757385    -2.504884    -2.504884   -1.7371902  0.041905222    -2.504884   0.76769383   426349 
 1922000   0.61806849   -2.5048044   -2.5048044   -1.7364957  0.037997202   -2.5048044    0.7683087   426349 
 1923000   0.61648889    -2.503874    -2.503874   -1.7375289  0.048566195    -2.503874   0.76634513   426349 
 1924000   0.61602115   -2.5035213   -2.5035213   -1.7377576  0.049206162   -2.5035213   0.76576369   426349 
 1925000   0.61673207   -2.5052287   -2.5052287   -1.7385812  0.036949495   -2.5052287   0.76664742   426349 
 1926000    0.6167744   -2.5049359   -2.5049359   -1.7382359   0.04496877   -2.5049359   0.76670005   426349 
 1927000    0.6165183   -2.5040767   -2.5040767    -1.737695  0.050943605   -2.5040767   0.76638169   426349 
 1928000   0.61613054   -2.5034801   -2.5034801   -1.7375804  0.039789355   -2.5034801   0.76589967   426349 
 1929000   0.61638063   -2.5039663   -2.5039663   -1.7377557  0.039308907   -2.5039663   0.76621056   426349 
 1930000   0.61608353   -2.5022575   -2.5022575   -1.7364163  0.048891509   -2.5022575   0.76584124   426349 
 1931000   0.61530282   -2.5012981   -2.5012981   -1.7364273  0.044582248   -2.5012981   0.76487075   426349 
 1932000   0.61466958   -2.5001549   -2.5001549   -1.7360713  0.044898214   -2.5001549   0.76408358   426349 
 1933000   0.61567206   -2.5010362   -2.5010362   -1.7357064  0.044907598   -2.5010362   0.76532975   426349 
 1934000    0.6166138   -2.5016329   -2.5016329   -1.7351325  0.032339318   -2.5016329    0.7665004   426349 
 1935000   0.61568218   -2.5004146   -2.5004146   -1.7350723  0.044557972   -2.5004146   0.76534233   426349 
 1936000   0.61591095   -2.5006041   -2.5006041   -1.7349774   0.03463403   -2.5006041   0.76562671   426349 
 1937000   0.61437507   -2.4986637   -2.4986637   -1.7349462  0.039439097   -2.4986637   0.76371748   426349 
 1938000   0.61558907   -2.5002406   -2.5002406    -1.735014  0.043108097   -2.5002406   0.76522659   426349 
 1939000   0.61625342   -2.5003088   -2.5003088   -1.7342563  0.041594833   -2.5003088   0.76605242   426349 
 1940000   0.61630664   -2.5003031   -2.5003031   -1.7341845  0.038433566   -2.5003031   0.76611858   426349 
 1941000   0.61589768   -2.5003577   -2.5003577   -1.7347475  0.045907995   -2.5003577   0.76561021   426349 
 1942000   0.61698954   -2.5021362   -2.5021362   -1.7351687  0.041580023   -2.5021362   0.76696748   426349 
 1943000   0.61664124   -2.5021144   -2.5021144   -1.7355799  0.031474837   -2.5021144   0.76653451   426349 
 1944000   0.61407982   -2.4986372   -2.4986372   -1.7352867  0.039011593   -2.4986372   0.76335047   426349 
 1945000   0.61526484   -2.5007816   -2.5007816    -1.735958  0.047490615   -2.5007816   0.76482355   426349 
 1946000   0.61458292   -2.5001476   -2.5001476   -1.7361718  0.039793119   -2.5001476   0.76397586   426349 
 1947000   0.61606783   -2.5017146   -2.5017146   -1.7358929   0.04125756   -2.5017146   0.76582172   426349 
 1948000   0.61640609   -2.5022365   -2.5022365   -1.7359942  0.029784994   -2.5022365   0.76624221   426349 
 1949000   0.61663382   -2.5024708   -2.5024708   -1.7359455  0.030430289   -2.5024708   0.76652529   426349 
 1950000   0.61694233   -2.5020249   -2.5020249   -1.7351161  0.041765131   -2.5020249   0.76690879   426349 
 1951000   0.61654511    -2.502214    -2.502214   -1.7357989  0.050755283    -2.502214   0.76641502   426349 
 1952000   0.61698101   -2.5021772   -2.5021772   -1.7352203  0.047304886   -2.5021772   0.76695688   426349 
 1953000    0.6178354   -2.5041477   -2.5041477   -1.7361288  0.036541293   -2.5041477   0.76801895   426349 
 1954000   0.61897103   -2.5060719   -2.5060719   -1.7366413  0.045832471   -2.5060719   0.76943063   426349 
 1955000   0.61752235   -2.5039974   -2.5039974   -1.7363676  0.032043532   -2.5039974   0.76762981   426349 
 1956000   0.61615569   -2.5030612   -2.5030612   -1.7371303   0.03992729   -2.5030612   0.76593093   426349 
 1957000   0.61619462   -2.5035773   -2.5035773    -1.737598  0.045552314   -2.5035773   0.76597933   426349 
 1958000   0.61717602   -2.5054928   -2.5054928   -1.7382935  0.050542747   -2.5054928   0.76719929   426349 
 1959000   0.61563135   -2.5038441   -2.5038441    -1.738565    0.0322434   -2.5038441   0.76527914   426349 
 1960000   0.61610966   -2.5052335   -2.5052335   -1.7393598  0.044538131   -2.5052335   0.76587372   426349 
 1961000   0.61607684   -2.5043843   -2.5043843   -1.7385514  0.043606294   -2.5043843   0.76583293   426349 
 1962000   0.61656175   -2.5059169   -2.5059169   -1.7394812  0.035443741   -2.5059169   0.76643571   426349 
 1963000   0.61614142   -2.5049942   -2.5049942    -1.739081  0.040693423   -2.5049942    0.7659132   426349 
 1964000   0.61574561   -2.5048436   -2.5048436   -1.7394224  0.043856876   -2.5048436   0.76542117   426349 
 1965000    0.6165724    -2.506327    -2.506327   -1.7398781  0.042578877    -2.506327   0.76644894   426349 
 1966000   0.61555315   -2.5047177   -2.5047177   -1.7395357  0.049080341   -2.5047177   0.76518194   426349 
 1967000   0.61485706   -2.5041363   -2.5041363   -1.7398197  0.043738702   -2.5041363   0.76431663   426349 
 1968000   0.61594356   -2.5059626   -2.5059626   -1.7402953  0.041654488   -2.5059626   0.76566725   426349 
 1969000    0.6157403   -2.5052917   -2.5052917   -1.7398771  0.044739984   -2.5052917   0.76541457   426349 
 1970000   0.61382244   -2.5034313   -2.5034313   -1.7404007  0.037953434   -2.5034313   0.76303052   426349 
 1971000   0.61581277   -2.5058919   -2.5058919   -1.7403872  0.041718779   -2.5058919   0.76550466   426349 
 1972000   0.61576953   -2.5053895   -2.5053895   -1.7399386  0.035905406   -2.5053895   0.76545091   426349 
 1973000   0.61528679   -2.5047599   -2.5047599   -1.7399091   0.04421883   -2.5047599   0.76485083   426349 
 1974000   0.61598172   -2.5051718   -2.5051718   -1.7394571  0.044824118   -2.5051718   0.76571468   426349 
 1975000   0.61608606    -2.504685    -2.504685   -1.7388406    0.0366696    -2.504685   0.76584438   426349 
 1976000   0.61665049   -2.5057085   -2.5057085   -1.7391625  0.035232064   -2.5057085   0.76654601   426349 
 1977000    0.6160162   -2.5049389   -2.5049389   -1.7391814  0.048001282   -2.5049389   0.76575754   426349 
 1978000   0.61601624   -2.5048606   -2.5048606    -1.739103   0.03795803   -2.5048606   0.76575759   426349 
 1979000   0.61697243    -2.505938    -2.505938   -1.7389918   0.04235119    -2.505938   0.76694622   426349 
 1980000   0.61627834    -2.506366    -2.506366   -1.7402826  0.038440811    -2.506366   0.76608341   426349 
 1981000   0.61585804   -2.5052103   -2.5052103   -1.7396493  0.041322394   -2.5052103   0.76556093   426349 
 1982000   0.61634123   -2.5065526   -2.5065526    -1.740391  0.045230383   -2.5065526   0.76616158   426349 
 1983000    0.6160007   -2.5059216   -2.5059216   -1.7401833  0.045624292   -2.5059216   0.76573828   426349 
 1984000   0.61537589   -2.5056459   -2.5056459   -1.7406843  0.046476924   -2.5056459   0.76496158   426349 
 1985000   0.61618677   -2.5065664   -2.5065664   -1.7405968  0.041525846   -2.5065664   0.76596957   426349 
 1986000   0.61583539    -2.505501    -2.505501   -1.7399682   0.05037212    -2.505501   0.76553278   426349 
 1987000   0.61622687   -2.5059835   -2.5059835   -1.7399641  0.049410322   -2.5059835   0.76601943   426349 
 1988000   0.61568285   -2.5060358   -2.5060358   -1.7406927  0.042722778   -2.5060358   0.76534316   426349 
 1989000   0.61537939   -2.5062998   -2.5062998   -1.7413339  0.041261963   -2.5062998   0.76496594   426349 
 1990000   0.61411125   -2.5044467   -2.5044467   -1.7410572  0.045166398   -2.5044467   0.76338954   426349 
 1991000   0.61522294   -2.5063456   -2.5063456   -1.7415742  0.049354162   -2.5063456   0.76477146   426349 
 1992000   0.61548578   -2.5062554   -2.5062554   -1.7411572  0.047192087   -2.5062554   0.76509818   426349 
 1993000    0.6164455   -2.5067382   -2.5067382    -1.740447  0.052682956   -2.5067382   0.76629119   426349 
 1994000   0.61565416   -2.5060679   -2.5060679   -1.7407604  0.048475096   -2.5060679    0.7653075   426349 
 1995000   0.61466616    -2.505091    -2.505091   -1.7410117   0.03887244    -2.505091   0.76407934   426349 
 1996000   0.61655761   -2.5074567   -2.5074567   -1.7410261  0.031963985   -2.5074567   0.76643056   426349 
 1997000   0.61634579   -2.5072092   -2.5072092   -1.7410419  0.039237673   -2.5072092   0.76616725   426349 
 1998000   0.61538862   -2.5063704   -2.5063704    -1.741393  0.047869464   -2.5063704   0.76497741   426349 
 1999000   0.61522568   -2.5060249   -2.5060249   -1.7412501  0.052067656   -2.5060249   0.76477486   426349 
 2000000   0.61644256   -2.5072477   -2.5072477   -1.7409601  0.050319845   -2.5072477   0.76628754   426349 
 2001000   0.61494867   -2.5056906   -2.5056906   -1.7412601  0.046522296   -2.5056906   0.76443052   426349 
 2002000   0.61514759   -2.5053576   -2.5053576   -1.7406798  0.048292047   -2.5053576   0.76467779   426349 
 2003000   0.61572153   -2.5064816   -2.5064816   -1.7410904  0.044227631   -2.5064816   0.76539124   426349 
 2004000   0.61473203   -2.5062037   -2.5062037   -1.7420424  0.033067001   -2.5062037   0.76416121   426349 
 2005000   0.61405329    -2.505156    -2.505156   -1.7418386  0.045769965    -2.505156   0.76331749   426349 
 2006000   0.61464293   -2.5055037   -2.5055037   -1.7414532  0.037262693   -2.5055037   0.76405045   426349 
 2007000   0.61553502   -2.5067117   -2.5067117   -1.7415524  0.052980403   -2.5067117   0.76515939   426349 
 2008000     0.615402   -2.5066816   -2.5066816   -1.7416876   0.03913374   -2.5066816   0.76499405   426349 
 2009000   0.61562234   -2.5068123   -2.5068123   -1.7415444  0.044612062   -2.5068123   0.76526795   426349 
 2010000   0.61483495   -2.5062282   -2.5062282    -1.741939  0.041419039   -2.5062282   0.76428915   426349 
 2011000    0.6153585   -2.5073125   -2.5073125   -1.7423726  0.046233976   -2.5073125   0.76493996   426349 
 2012000   0.61484741   -2.5068219   -2.5068219   -1.7425173  0.041097548   -2.5068219   0.76430464   426349 
 2013000   0.61575469   -2.5075513   -2.5075513   -1.7421188   0.04338684   -2.5075513   0.76543247   426349 
 2014000    0.6156696   -2.5081208   -2.5081208   -1.7427942  0.043172644   -2.5081208   0.76532669   426349 
 2015000    0.6151711   -2.5078687   -2.5078687   -1.7431617    0.0415623   -2.5078687   0.76470702   426349 
 2016000   0.61555472   -2.5081342   -2.5081342   -1.7429503   0.04514679   -2.5081342   0.76518388   426349 
 2017000   0.61548054   -2.5083941   -2.5083941   -1.7433024  0.039300227   -2.5083941   0.76509168   426349 
 2018000   0.61492035   -2.5086661   -2.5086661   -1.7442708  0.046468295   -2.5086661   0.76439531   426349 
 2019000   0.61537652   -2.5085628   -2.5085628   -1.7436004  0.036001384   -2.5085628   0.76496236   426349 
 2020000    0.6148835   -2.5080341   -2.5080341   -1.7436846  0.056229442   -2.5080341    0.7643495   426349 
 2021000   0.61631137   -2.5095876   -2.5095876   -1.7434631  0.057187276   -2.5095876   0.76612446   426349 
 2022000   0.61687567   -2.5094536   -2.5094536   -1.7426277  0.036254422   -2.5094536   0.76682594   426349 
 2023000   0.61719346   -2.5098864   -2.5098864   -1.7426654  0.044396715   -2.5098864   0.76722098   426349 
 2024000   0.61568293   -2.5086474   -2.5086474   -1.7433041  0.043714777   -2.5086474   0.76534326   426349 
 2025000   0.61652393   -2.5103011   -2.5103011   -1.7439124  0.038376319   -2.5103011   0.76638868   426349 
 2026000    0.6159194   -2.5098567   -2.5098567   -1.7442195  0.055173846   -2.5098567   0.76563721   426349 
 2027000   0.61576339   -2.5102105   -2.5102105   -1.7447672  0.044644352   -2.5102105   0.76544327   426349 
 2028000    0.6152959   -2.5094468   -2.5094468   -1.7445846  0.043618656   -2.5094468   0.76486214   426349 
 2029000   0.61541998    -2.509795    -2.509795   -1.7447786   0.03757031    -2.509795   0.76501639   426349 
 2030000   0.61519339     -2.50994     -2.50994   -1.7452053  0.038500126     -2.50994   0.76473472   426349 
 2031000   0.61548131   -2.5097295   -2.5097295   -1.7446369  0.042474624   -2.5097295   0.76509264   426349 
 2032000   0.61392908   -2.5076826   -2.5076826   -1.7445195  0.036144553   -2.5076826   0.76316309   426349 
 2033000   0.61537314   -2.5091544   -2.5091544   -1.7441962  0.045601641   -2.5091544   0.76495816   426349 
 2034000   0.61552719   -2.5095881   -2.5095881   -1.7444385  0.047261851   -2.5095881   0.76514966   426349 
 2035000   0.61520045   -2.5088701   -2.5088701   -1.7441266  0.047160891   -2.5088701    0.7647435   426349 
 2036000   0.61506564   -2.5078209   -2.5078209   -1.7432449  0.047367935   -2.5078209   0.76457592   426349 
 2037000   0.61683452   -2.5100091   -2.5100091   -1.7432343  0.034136053   -2.5100091   0.76677478   426349 
 2038000   0.61547195   -2.5089968   -2.5089968   -1.7439158  0.036112778   -2.5089968   0.76508099   426349 
 2039000   0.61596426   -2.5092513   -2.5092513   -1.7435583  0.041358878   -2.5092513   0.76569297   426349 
 2040000   0.61488278   -2.5092171   -2.5092171   -1.7448685  0.036030875   -2.5092171   0.76434861   426349 
 2041000   0.61428855   -2.5077068   -2.5077068   -1.7440969  0.041875732   -2.5077068   0.76360993   426349 
 2042000   0.61543037    -2.508873    -2.508873   -1.7438437  0.040862667    -2.508873   0.76502931   426349 
 2043000   0.61507454   -2.5079522   -2.5079522   -1.7433652  0.050859475   -2.5079522   0.76458698   426349 
 2044000    0.6152656    -2.509258    -2.509258   -1.7444335  0.046114827    -2.509258   0.76482449   426349 
 2045000   0.61514936   -2.5096557   -2.5096557   -1.7449757  0.039199932   -2.5096557   0.76467999   426349 
 2046000   0.61494589   -2.5098235   -2.5098235   -1.7453965  0.044267466   -2.5098235   0.76442706   426349 
 2047000   0.61555758   -2.5109338   -2.5109338   -1.7457464  0.046920194   -2.5109338   0.76518743   426349 
 2048000   0.61568029   -2.5110862   -2.5110862   -1.7457462  0.033138958   -2.5110862   0.76533997   426349 
 2049000   0.61499271   -2.5106806   -2.5106806   -1.7461953  0.045098423   -2.5106806   0.76448525   426349 
 2050000   0.61561437   -2.5111337   -2.5111337   -1.7458757  0.043711861   -2.5111337   0.76525803   426349 
 2051000   0.61590157   -2.5110029   -2.5110029   -1.7453879  0.039435454   -2.5110029   0.76561505   426349 
 2052000   0.61739756   -2.5128302   -2.5128302   -1.7453555  0.053187938   -2.5128302   0.76747468   426349 
 2053000   0.61563635   -2.5119232   -2.5119232   -1.7466378  0.047080964   -2.5119232   0.76528535   426349 
 2054000    0.6150821   -2.5106559   -2.5106559   -1.7460595   0.04552649   -2.5106559   0.76459638   426349 
 2055000   0.61625176   -2.5124058   -2.5124058   -1.7463554  0.046122653   -2.5124058   0.76605036   426349 
 2056000   0.61432064   -2.5108055   -2.5108055   -1.7471557  0.055305981   -2.5108055   0.76364982   426349 
 2057000   0.61449755   -2.5107923   -2.5107923   -1.7469225  0.048247771   -2.5107923   0.76386974   426349 
 2058000   0.61483303   -2.5110459   -2.5110459   -1.7467592  0.042407352   -2.5110459   0.76428676   426349 
 2059000   0.61625683   -2.5128621   -2.5128621   -1.7468054  0.039718083   -2.5128621   0.76605667   426349 
 2060000   0.61403073   -2.5102555   -2.5102555   -1.7469661  0.036929687   -2.5102555   0.76328944   426349 
 2061000   0.61569947   -2.5115854   -2.5115854   -1.7462215  0.037303812   -2.5115854   0.76536382   426349 
 2062000   0.61531202   -2.5110732   -2.5110732    -1.746191  0.037536433   -2.5110732   0.76488219   426349 
 2063000   0.61628662   -2.5121907   -2.5121907    -1.746097  0.045573692   -2.5121907   0.76609369   426349 
 2064000   0.61617364   -2.5123005   -2.5123005   -1.7463473  0.040859089   -2.5123005   0.76595325   426349 
 2065000   0.61504511   -2.5118047   -2.5118047   -1.7472543  0.031392303   -2.5118047   0.76455039   426349 
 2066000   0.61477759   -2.5122448   -2.5122448    -1.748027  0.039957309   -2.5122448   0.76421785   426349 
 2067000   0.61464282   -2.5123103   -2.5123103   -1.7482599   0.04299819   -2.5123103   0.76405032   426349 
 2068000   0.61427766   -2.5109391   -2.5109391   -1.7473427  0.047904556   -2.5109391    0.7635964   426349 
 2069000   0.61558692   -2.5122565   -2.5122565   -1.7470326   0.04054618   -2.5122565   0.76522391   426349 
 2070000   0.61518421   -2.5121591   -2.5121591   -1.7474358  0.049703512   -2.5121591   0.76472331   426349 
 2071000   0.61651612   -2.5140404   -2.5140404   -1.7476614  0.041225115   -2.5140404   0.76637899   426349 
 2072000   0.61557764   -2.5127326   -2.5127326   -1.7475202  0.043918617   -2.5127326   0.76521237   426349 
 2073000   0.61468621   -2.5120524   -2.5120524   -1.7479482  0.048610067   -2.5120524   0.76410426   426349 
 2074000    0.6151698   -2.5122313   -2.5122313   -1.7475259  0.046293196   -2.5122313    0.7647054   426349 
 2075000   0.61478567   -2.5118775   -2.5118775   -1.7476496  0.044782979   -2.5118775   0.76422789   426349 
 2076000   0.61441722   -2.5115439   -2.5115439    -1.747774  0.046904548   -2.5115439   0.76376988   426349 
 2077000   0.61589594   -2.5136543   -2.5136543   -1.7480462  0.035658021   -2.5136543   0.76560805   426349 
 2078000   0.61626495   -2.5143417   -2.5143417   -1.7482749  0.040550672   -2.5143417   0.76606675   426349 
 2079000   0.61654845   -2.5139724   -2.5139724   -1.7475533   0.05047505   -2.5139724   0.76641916   426349 
 2080000   0.61542517   -2.5127246   -2.5127246   -1.7477018  0.044766882   -2.5127246   0.76502285   426349 
 2081000   0.61592597   -2.5136013   -2.5136013    -1.747956  0.033537612   -2.5136013   0.76564537   426349 
 2082000   0.61551425   -2.5122082   -2.5122082   -1.7470746  0.045277609   -2.5122082   0.76513358   426349 
 2083000   0.61558902   -2.5124274   -2.5124274   -1.7472009  0.041093291   -2.5124274   0.76522652   426349 
 2084000   0.61513317   -2.5117696   -2.5117696   -1.7471098  0.034662067   -2.5117696   0.76465987   426349 
 2085000   0.61492445   -2.5122234   -2.5122234   -1.7478229  0.041819231   -2.5122234   0.76440041   426349 
 2086000   0.61446506   -2.5112475   -2.5112475   -1.7474181  0.041163584   -2.5112475   0.76382935   426349 
 2087000   0.61560641   -2.5125446   -2.5125446   -1.7472965  0.042378523   -2.5125446   0.76524814   426349 
 2088000   0.61464045   -2.5116168   -2.5116168   -1.7475694  0.035716414   -2.5116168   0.76404737   426349 
 2089000   0.61483304   -2.5115476   -2.5115476   -1.7472609  0.043004077   -2.5115476   0.76428677   426349 
 2090000   0.61570346   -2.5129829   -2.5129829   -1.7476141  0.038303642   -2.5129829   0.76536878   426349 
 2091000    0.6144856   -2.5124401   -2.5124401   -1.7485852  0.040102795   -2.5124401   0.76385489   426349 
 2092000   0.61430683   -2.5118187   -2.5118187    -1.748186  0.042288312   -2.5118187   0.76363266   426349 
 2093000     0.614943   -2.5125847   -2.5125847   -1.7481612   0.04925363   -2.5125847   0.76442346   426349 
 2094000   0.61579904   -2.5138544   -2.5138544   -1.7483668   0.04697544   -2.5138544   0.76548759   426349 
 2095000   0.61554668   -2.5137752   -2.5137752   -1.7486013  0.040327699   -2.5137752   0.76517388   426349 
 2096000   0.61575818   -2.5138848   -2.5138848    -1.748448  0.044753138   -2.5138848    0.7654368   426349 
 2097000   0.61530373   -2.5127736   -2.5127736   -1.7479017  0.047418084   -2.5127736   0.76487189   426349 
 2098000   0.61634109   -2.5144995   -2.5144995   -1.7483381  0.041312592   -2.5144995   0.76616141   426349 
 2099000   0.61606843   -2.5143561   -2.5143561   -1.7485336  0.037001749   -2.5143561   0.76582247   426349 
 2100000   0.61548024   -2.5124367   -2.5124367   -1.7473454  0.038179198   -2.5124367    0.7650913   426349 
 2101000   0.61575094   -2.5128128   -2.5128128    -1.747385  0.047237672   -2.5128128   0.76542781   426349 
 2102000   0.61464609   -2.5118952   -2.5118952   -1.7478408  0.042845484   -2.5118952   0.76405438   426349 
 2103000   0.61578501   -2.5137782   -2.5137782    -1.748308  0.045991403   -2.5137782   0.76547015   426349 
 2104000   0.61546534   -2.5133427   -2.5133427   -1.7482699   0.04503809   -2.5133427   0.76507278   426349 
 2105000   0.61482764   -2.5128569   -2.5128569   -1.7485768  0.045245383   -2.5128569   0.76428006   426349 
 2106000   0.61416818   -2.5125637   -2.5125637   -1.7491034  0.041862793   -2.5125637    0.7634603   426349 
 2107000   0.61452068   -2.5130649   -2.5130649   -1.7491664  0.039128191   -2.5130649   0.76389849   426349 
 2108000   0.61476857   -2.5133697   -2.5133697   -1.7491631  0.033836322   -2.5133697   0.76420664   426349 
 2109000    0.6137025    -2.512313    -2.512313   -1.7494316  0.044225242    -2.512313   0.76288142   426349 
 2110000   0.61590455    -2.514763    -2.514763   -1.7491443  0.047340691    -2.514763   0.76561876   426349 
 2111000   0.61564931   -2.5147679   -2.5147679   -1.7494664  0.046406473   -2.5147679   0.76530146   426349 
 2112000   0.61480699   -2.5134572   -2.5134572   -1.7492028  0.045875207   -2.5134572   0.76425439   426349 
 2113000   0.61516453   -2.5134605   -2.5134605   -1.7487616  0.042292648   -2.5134605   0.76469885   426349 
 2114000   0.61620457    -2.514426    -2.514426   -1.7484343    0.0422796    -2.514426    0.7659917   426349 
 2115000   0.61649665   -2.5155935   -2.5155935   -1.7492387  0.039717893   -2.5155935   0.76635478   426349 
 2116000   0.61646741   -2.5150257   -2.5150257   -1.7487073  0.043605561   -2.5150257   0.76631843   426349 
 2117000   0.61408531    -2.513186    -2.513186   -1.7498287  0.046008007    -2.513186   0.76335728   426349 
 2118000   0.61542328   -2.5152735   -2.5152735    -1.750253  0.036843991   -2.5152735   0.76502049   426349 
 2119000   0.61531102   -2.5150362   -2.5150362   -1.7501552  0.039886865   -2.5150362   0.76488095   426349 
 2120000   0.61588927   -2.5148926   -2.5148926   -1.7492928  0.056036915   -2.5148926   0.76559975   426349 
 2121000   0.61654094   -2.5150195   -2.5150195   -1.7486097  0.045687746   -2.5150195   0.76640983   426349 
 2122000   0.61618111   -2.5153645   -2.5153645    -1.749402  0.041698402   -2.5153645   0.76596253   426349 
 2123000   0.61578082   -2.5148168   -2.5148168   -1.7493519  0.038136407   -2.5148168   0.76546495   426349 
 2124000   0.61575805   -2.5150982   -2.5150982   -1.7496616   0.04271668   -2.5150982   0.76543664   426349 
 2125000   0.61484949   -2.5136506   -2.5136506   -1.7493434  0.045022777   -2.5136506   0.76430723   426349 
 2126000    0.6149956   -2.5135693   -2.5135693   -1.7490805  0.035866279   -2.5135693   0.76448886   426349 
 2127000   0.61432224   -2.5130816   -2.5130816   -1.7494298  0.041445352   -2.5130816   0.76365181   426349 
 2128000   0.61468954   -2.5127008   -2.5127008   -1.7485924  0.040011314   -2.5127008   0.76410839   426349 
 2129000   0.61459822   -2.5135629   -2.5135629    -1.749568  0.039002777   -2.5135629   0.76399488   426349 
 2130000   0.61666558   -2.5153835   -2.5153835   -1.7488187  0.031972997   -2.5153835   0.76656477   426349 
 2131000   0.61432624   -2.5130035   -2.5130035   -1.7493467  0.042696974   -2.5130035   0.76365678   426349 
 2132000   0.61568576   -2.5142771   -2.5142771   -1.7489303  0.038124298   -2.5142771   0.76534677   426349 
 2133000   0.61559717   -2.5160817   -2.5160817   -1.7508451  0.038318392   -2.5160817   0.76523665   426349 
 2134000   0.61493558   -2.5148913   -2.5148913   -1.7504771  0.041695477   -2.5148913   0.76441425   426349 
 2135000   0.61519679   -2.5152304   -2.5152304   -1.7504914  0.036666226   -2.5152304   0.76473894   426349 
 2136000   0.61595206   -2.5161046   -2.5161046   -1.7504268  0.039357837   -2.5161046    0.7656778   426349 
 2137000   0.61538802   -2.5151574   -2.5151574   -1.7501807  0.038683616   -2.5151574   0.76497666   426349 
 2138000   0.61489549   -2.5145524   -2.5145524   -1.7501879  0.044348548   -2.5145524   0.76436441   426349 
 2139000   0.61502353    -2.514843    -2.514843   -1.7503195  0.048477201    -2.514843   0.76452357   426349 
 2140000   0.61393504   -2.5136613   -2.5136613   -1.7504908  0.049074931   -2.5136613   0.76317049   426349 
 2141000   0.61379686   -2.5130167   -2.5130167   -1.7500179  0.042550088   -2.5130167   0.76299873   426349 
 2142000   0.61558597   -2.5150041   -2.5150041   -1.7497814  0.046185529   -2.5150041   0.76522273   426349 
 2143000    0.6144553   -2.5136214   -2.5136214   -1.7498042   0.04794048   -2.5136214   0.76381721   426349 
 2144000   0.61529561   -2.5143959   -2.5143959   -1.7495341  0.040175331   -2.5143959   0.76486179   426349 
 2145000    0.6151487   -2.5148234   -2.5148234   -1.7501442  0.039811794   -2.5148234   0.76467917   426349 
 2146000   0.61499441   -2.5139212   -2.5139212   -1.7494339  0.036753339   -2.5139212   0.76448737   426349 
 2147000   0.61400695   -2.5134335   -2.5134335   -1.7501736  0.042438568   -2.5134335   0.76325988   426349 
 2148000   0.61572257    -2.514264    -2.514264   -1.7488715  0.038525035    -2.514264   0.76539254   426349 
 2149000   0.61404566    -2.512588    -2.512588     -1.74928  0.039741789    -2.512588     0.763308   426349 
 2150000   0.61524392   -2.5128205   -2.5128205    -1.748023  0.034080945   -2.5128205   0.76479753   426349 
 2151000   0.61440023   -2.5123728   -2.5123728   -1.7486241  0.047631605   -2.5123728   0.76374876   426349 
 2152000   0.61458881   -2.5129777   -2.5129777   -1.7489945  0.035872548   -2.5129777   0.76398318   426349 
 2153000   0.61409124    -2.512504    -2.512504   -1.7491393  0.036867708    -2.512504   0.76336466   426349 
 2154000   0.61594967   -2.5156384   -2.5156384   -1.7499636  0.041978162   -2.5156384   0.76567483   426349 
 2155000   0.61442606    -2.513597    -2.513597   -1.7498161  0.041760163    -2.513597   0.76378087   426349 
 2156000   0.61456348   -2.5141933   -2.5141933   -1.7502416  0.042017559   -2.5141933    0.7639517   426349 
 2157000   0.61455439   -2.5147558   -2.5147558   -1.7508154  0.033367806   -2.5147558   0.76394039   426349 
 2158000   0.61466202   -2.5146238   -2.5146238   -1.7505496  0.047041003   -2.5146238   0.76407418   426349 
 2159000   0.61485962   -2.5146582   -2.5146582   -1.7503384  0.050062765   -2.5146582   0.76431982   426349 
 2160000   0.61561954   -2.5154666   -2.5154666   -1.7502022  0.046458075   -2.5154666   0.76526447   426349 
 2161000   0.61577302   -2.5160681   -2.5160681   -1.7506128  0.041200202   -2.5160681   0.76545525   426349 
 2162000   0.61542884   -2.5156091   -2.5156091   -1.7505817  0.042630919   -2.5156091    0.7650274   426349 
 2163000   0.61571602     -2.51642     -2.51642   -1.7510356  0.046732517     -2.51642   0.76538439   426349 
 2164000   0.61618987   -2.5157707   -2.5157707   -1.7497973  0.044906668   -2.5157707   0.76597342   426349 
 2165000   0.61612449   -2.5164251   -2.5164251    -1.750533  0.054068503   -2.5164251   0.76589215   426349 
 2166000   0.61610114   -2.5163395   -2.5163395   -1.7504764  0.039610562   -2.5163395   0.76586313   426349 
 2167000   0.61518657   -2.5154118   -2.5154118   -1.7506856  0.050256419   -2.5154118   0.76472624   426349 
 2168000   0.61523826   -2.5159933   -2.5159933   -1.7512028   0.05412914   -2.5159933    0.7647905   426349 
 2169000   0.61585243   -2.5163578   -2.5163578   -1.7508039  0.041868757   -2.5163578   0.76555396   426349 
 2170000   0.61506044   -2.5164568   -2.5164568   -1.7518873  0.038212228   -2.5164568   0.76456945   426349 
 2171000   0.61499248   -2.5167848   -2.5167848   -1.7522999  0.034361379   -2.5167848   0.76448497   426349 
 2172000    0.6151441   -2.5166641   -2.5166641   -1.7519906  0.037519456   -2.5166641   0.76467345   426349 
 2173000   0.61414673   -2.5160097   -2.5160097    -1.752576  0.040066526   -2.5160097   0.76343364   426349 
 2174000   0.61452401   -2.5173645   -2.5173645   -1.7534618  0.038228493   -2.5173645   0.76390263   426349 
 2175000   0.61426426   -2.5175979   -2.5175979   -1.7540181  0.037295199   -2.5175979   0.76357974   426349 
 2176000   0.61370063   -2.5169108   -2.5169108   -1.7540317  0.039519524   -2.5169108   0.76287911   426349 
 2177000   0.61282931   -2.5158906   -2.5158906   -1.7540946  0.033148626   -2.5158906   0.76179598   426349 
 2178000   0.61466751   -2.5185402   -2.5185402   -1.7544592  0.043170741   -2.5185402   0.76408101   426349 
 2179000   0.61410414   -2.5182291   -2.5182291   -1.7548484  0.045714978   -2.5182291   0.76338069   426349 
 2180000   0.61281107   -2.5174389   -2.5174389   -1.7556656  0.037119378   -2.5174389    0.7617733   426349 
 2181000   0.61520864   -2.5188021   -2.5188021   -1.7540484   0.04823832   -2.5188021   0.76475367   426349 
 2182000   0.61432189    -2.518175    -2.518175   -1.7545237  0.039765428    -2.518175   0.76365138   426349 
 2183000    0.6146805   -2.5191966   -2.5191966   -1.7550994  0.038587401   -2.5191966   0.76409716   426349 
 2184000   0.61499541   -2.5198018   -2.5198018   -1.7553132  0.035592935   -2.5198018   0.76448862   426349 
 2185000    0.6155455    -2.520614    -2.520614   -1.7554415  0.044237582    -2.520614   0.76517242   426349 
 2186000   0.61604818   -2.5215113   -2.5215113    -1.755714  0.041354858   -2.5215113    0.7657973   426349 
 2187000   0.61561383    -2.520447    -2.520447   -1.7551897  0.047060775    -2.520447   0.76525736   426349 
 2188000   0.61434241   -2.5185371   -2.5185371   -1.7548602  0.042432219   -2.5185371   0.76367689   426349 
 2189000    0.6158174   -2.5211806   -2.5211806   -1.7556702  0.044282949   -2.5211806   0.76551041   426349 
 2190000   0.61460362   -2.5184934   -2.5184934   -1.7544919  0.048473387   -2.5184934   0.76400159   426349 
 2191000   0.61449615   -2.5186859   -2.5186859   -1.7548179   0.05062706   -2.5186859     0.763868   426349 
 2192000   0.61483658    -2.518769    -2.518769   -1.7544778  0.055253605    -2.518769   0.76429118   426349 
 2193000    0.6147481    -2.518536    -2.518536   -1.7543548  0.036501043    -2.518536    0.7641812   426349 
 2194000   0.61545589   -2.5195433   -2.5195433   -1.7544823  0.038393675   -2.5195433   0.76506103   426349 
 2195000   0.61553159   -2.5195273   -2.5195273   -1.7543721  0.046186065   -2.5195273   0.76515514   426349 
 2196000   0.61437258   -2.5190159   -2.5190159   -1.7553015  0.037429886   -2.5190159   0.76371439   426349 
 2197000   0.61328869   -2.5178981   -2.5178981   -1.7555311  0.039143349   -2.5178981   0.76236703   426349 
 2198000   0.61444567   -2.5192766   -2.5192766   -1.7554714  0.036207866   -2.5192766   0.76380525   426349 
 2199000    0.6136866   -2.5184616   -2.5184616      -1.7556   0.03965687   -2.5184616   0.76286166   426349 
 2200000   0.61445661   -2.5188772   -2.5188772   -1.7550584  0.035392642   -2.5188772   0.76381884   426349 
 2201000   0.61471032   -2.5191917   -2.5191917   -1.7550575  0.047618285   -2.5191917   0.76413423   426349 
 2202000   0.61560683   -2.5204726   -2.5204726    -1.755224  0.046095359   -2.5204726   0.76524866   426349 
 2203000   0.61500922   -2.5197901   -2.5197901   -1.7552843  0.037883493   -2.5197901   0.76450578   426349 
 2204000   0.61419812   -2.5191814   -2.5191814   -1.7556838  0.044137134   -2.5191814   0.76349752   426349 
 2205000   0.61518668   -2.5204544   -2.5204544    -1.755728  0.044880049   -2.5204544   0.76472638   426349 
 2206000   0.61398381   -2.5183357   -2.5183357   -1.7551046  0.047022953   -2.5183357   0.76323111   426349 
 2207000   0.61461359   -2.5198778   -2.5198778   -1.7558638  0.051534984   -2.5198778   0.76401398   426349 
 2208000   0.61473408   -2.5203262   -2.5203262   -1.7561624  0.039747743   -2.5203262   0.76416376   426349 
 2209000   0.61466173   -2.5204786   -2.5204786   -1.7564048  0.041732467   -2.5204786   0.76407382   426349 
 2210000   0.61496946   -2.5200187   -2.5200187   -1.7555624  0.054217715   -2.5200187   0.76445637   426349 
 2211000   0.61491982    -2.519566    -2.519566   -1.7551713   0.04244432    -2.519566   0.76439465   426349 
 2212000    0.6162241    -2.521256    -2.521256     -1.75524  0.047264741    -2.521256   0.76601597   426349 
 2213000   0.61568938   -2.5211484   -2.5211484   -1.7557971  0.027313331   -2.5211484   0.76535128   426349 
 2214000   0.61469536    -2.520095    -2.520095   -1.7559793  0.041855435    -2.520095   0.76411563   426349 
 2215000   0.61360063   -2.5196639   -2.5196639   -1.7569091  0.039971385   -2.5196639    0.7627548   426349 
 2216000    0.6138887   -2.5197645   -2.5197645   -1.7566516  0.031152987   -2.5197645   0.76311288   426349 
 2217000   0.61489854   -2.5203435   -2.5203435   -1.7559753  0.039539063   -2.5203435    0.7643682   426349 
 2218000   0.61390459   -2.5205067   -2.5205067    -1.757374  0.040267541   -2.5205067   0.76313263   426349 
 2219000   0.61417446   -2.5204206   -2.5204206   -1.7569525  0.040845335   -2.5204206    0.7634681   426349 
 2220000   0.61505829   -2.5209175   -2.5209175   -1.7563507  0.029918411   -2.5209175   0.76456678   426349 
 2221000   0.61476919    -2.521541    -2.521541   -1.7573336  0.038772379    -2.521541   0.76420741   426349 
 2222000   0.61409041   -2.5204618   -2.5204618   -1.7570982   0.03968358   -2.5204618   0.76336363   426349 
 2223000   0.61310968   -2.5192939   -2.5192939   -1.7571494  0.046435837   -2.5192939   0.76214451   426349 
 2224000   0.61365655   -2.5200839   -2.5200839   -1.7572595   0.03706269   -2.5200839   0.76282431   426349 
 2225000   0.61475882   -2.5205569   -2.5205569   -1.7563624  0.044636413   -2.5205569   0.76419452   426349 
 2226000   0.61490359    -2.521471    -2.521471   -1.7570965  0.040372683    -2.521471   0.76437448   426349 
 2227000    0.6147541   -2.5216871   -2.5216871   -1.7574984  0.037038236   -2.5216871   0.76418865   426349 
 2228000   0.61486632   -2.5222366   -2.5222366   -1.7579084  0.042770068   -2.5222366   0.76432815   426349 
 2229000   0.61480736   -2.5220879   -2.5220879   -1.7578331  0.039964186   -2.5220879   0.76425486   426349 
 2230000   0.61594888   -2.5232498   -2.5232498    -1.757576  0.054106404   -2.5232498   0.76567385   426349 
 2231000   0.61581236   -2.5224303   -2.5224303   -1.7569261  0.042513881   -2.5224303   0.76550415   426349 
 2232000   0.61481508    -2.521197    -2.521197   -1.7569326  0.050536849    -2.521197   0.76426445   426349 
 2233000   0.61339648   -2.5203768   -2.5203768   -1.7578757  0.046203369   -2.5203768   0.76250102   426349 
 2234000   0.61487234   -2.5229572   -2.5229572   -1.7586215  0.044307326   -2.5229572   0.76433563   426349 
 2235000   0.61518952   -2.5231718   -2.5231718   -1.7584419  0.044870498   -2.5231718   0.76472991   426349 
 2236000   0.61558163   -2.5239925   -2.5239925   -1.7587752   0.03708103   -2.5239925   0.76521733   426349 
 2237000   0.61439547   -2.5222955   -2.5222955   -1.7585527  0.042487989   -2.5222955   0.76374285   426349 
 2238000   0.61331867   -2.5214426   -2.5214426   -1.7590383  0.046534983   -2.5214426    0.7624043   426349 
 2239000   0.61402674   -2.5225131   -2.5225131   -1.7592286  0.036100944   -2.5225131   0.76328448   426349 
 2240000   0.61515183   -2.5239783   -2.5239783   -1.7592952  0.041194821   -2.5239783   0.76468306   426349 
 2241000   0.61340034   -2.5216433   -2.5216433   -1.7591375  0.044899248   -2.5216433   0.76250582   426349 
 2242000   0.61376854   -2.5223046   -2.5223046   -1.7593411  0.044901279   -2.5223046   0.76296352   426349 
 2243000     0.613404   -2.5213708   -2.5213708   -1.7588604  0.042885011   -2.5213708   0.76251037   426349 
 2244000   0.61503662   -2.5224861   -2.5224861   -1.7579462  0.044734002   -2.5224861   0.76453985   426349 
 2245000   0.61559863    -2.523605    -2.523605   -1.7583665  0.041870837    -2.523605   0.76523847   426349 
 2246000   0.61450289   -2.5214756   -2.5214756   -1.7575992  0.041756921   -2.5214756   0.76387637   426349 
 2247000   0.61438097   -2.5212555   -2.5212555   -1.7575307  0.046606694   -2.5212555   0.76372482   426349 
 2248000   0.61447259   -2.5217832   -2.5217832   -1.7579445  0.044839691   -2.5217832   0.76383871   426349 
 2249000   0.61275737   -2.5195927   -2.5195927   -1.7578861  0.046691737   -2.5195927   0.76170656   426349 
 2250000   0.61292563   -2.5202108   -2.5202108   -1.7582951  0.041107271   -2.5202108   0.76191571   426349 
 2251000   0.61387907   -2.5217073   -2.5217073   -1.7586064  0.043764589   -2.5217073   0.76310091   426349 
 2252000    0.6137577   -2.5221941   -2.5221941    -1.759244  0.046969753   -2.5221941   0.76295004   426349 
 2253000   0.61317679   -2.5216019   -2.5216019    -1.759374  0.042118277   -2.5216019   0.76222793   426349 
 2254000   0.61340955   -2.5216717   -2.5216717   -1.7591545  0.046461244   -2.5216717   0.76251727   426349 
 2255000   0.61282574   -2.5209846   -2.5209846   -1.7591931  0.053603862   -2.5209846   0.76179154   426349 
 2256000   0.61390444   -2.5215157   -2.5215157   -1.7583832  0.046683972   -2.5215157   0.76313246   426349 
 2257000   0.61520004   -2.5226425   -2.5226425   -1.7578995  0.047779418   -2.5226425   0.76474298   426349 
 2258000   0.61464555   -2.5212447   -2.5212447    -1.757191  0.045925954   -2.5212447   0.76405371   426349 
 2259000   0.61397843   -2.5213411   -2.5213411   -1.7581167  0.043157002   -2.5213411   0.76322443   426349 
 2260000   0.61536482   -2.5236219   -2.5236219   -1.7586741  0.049062796   -2.5236219   0.76494783   426349 
 2261000   0.61352825   -2.5213638   -2.5213638    -1.758699  0.053138284   -2.5213638   0.76266482   426349 
 2262000   0.61345383       -2.521       -2.521   -1.7584277  0.037826674       -2.521   0.76257231   426349 
 2263000   0.61495151   -2.5223469   -2.5223469   -1.7579129  0.044493245   -2.5223469   0.76443404   426349 
 2264000   0.61452314   -2.5223307   -2.5223307   -1.7584292  0.048537149   -2.5223307   0.76390154   426349 
 2265000    0.6151912   -2.5232707   -2.5232707   -1.7585387  0.038655082   -2.5232707     0.764732   426349 
 2266000   0.61512574   -2.5234601   -2.5234601   -1.7588095  0.042919175   -2.5234601   0.76465063   426349 
 2267000   0.61378824   -2.5219139   -2.5219139   -1.7589259  0.047468805   -2.5219139   0.76298801   426349 
 2268000   0.61492697   -2.5235513   -2.5235513   -1.7591478  0.046849734   -2.5235513   0.76440354   426349 
 2269000   0.61408273   -2.5222261   -2.5222261    -1.758872  0.041195868   -2.5222261   0.76335409   426349 
 2270000   0.61359146   -2.5217239   -2.5217239   -1.7589805  0.038314933   -2.5217239    0.7627434   426349 
 2271000   0.61429297     -2.52246     -2.52246   -1.7588446  0.043726974     -2.52246   0.76361543   426349 
 2272000   0.61463439   -2.5230639   -2.5230639   -1.7590241  0.044711352   -2.5230639   0.76403983   426349 
 2273000   0.61390015   -2.5221815   -2.5221815   -1.7590544  0.039896564   -2.5221815   0.76312712   426349 
 2274000   0.61357792   -2.5219061   -2.5219061   -1.7591795   0.03639392   -2.5219061   0.76272657   426349 
 2275000   0.61422298   -2.5235587   -2.5235587   -1.7600302  0.032672261   -2.5235587   0.76352842   426349 
 2276000   0.61302511    -2.521921    -2.521921   -1.7598816  0.034655506    -2.521921   0.76203938   426349 
 2277000   0.61321795   -2.5232676   -2.5232676   -1.7609885   0.04591323   -2.5232676   0.76227909   426349 
 2278000   0.61467115   -2.5241527   -2.5241527   -1.7600672  0.044975906   -2.5241527   0.76408553   426349 
 2279000   0.61461587    -2.525032    -2.525032   -1.7610151  0.048908697    -2.525032   0.76401682   426349 
 2280000   0.61532994   -2.5247504   -2.5247504    -1.759846  0.047530905   -2.5247504   0.76490446   426349 
 2281000   0.61546403   -2.5248241   -2.5248241   -1.7597529  0.033997792   -2.5248241   0.76507115   426349 
 2282000   0.61452469   -2.5242972   -2.5242972   -1.7603937  0.043605817   -2.5242972   0.76390347   426349 
 2283000   0.61482083   -2.5257049   -2.5257049   -1.7614333  0.044587702   -2.5257049    0.7642716   426349 
 2284000   0.61457496   -2.5249677   -2.5249677   -1.7610017  0.049293882   -2.5249677   0.76396596   426349 
 2285000   0.61509253   -2.5255323   -2.5255323   -1.7609229  0.050608903   -2.5255323   0.76460935   426349 
 2286000   0.61461152   -2.5244887   -2.5244887   -1.7604773   0.02833945   -2.5244887   0.76401141   426349 
 2287000    0.6121778   -2.5225395   -2.5225395   -1.7615534  0.041353002   -2.5225395    0.7609861   426349 
 2288000   0.61436634   -2.5252031   -2.5252031   -1.7614964  0.043133806   -2.5252031   0.76370663   426349 
 2289000   0.61531188   -2.5260222   -2.5260222   -1.7611402  0.031331403   -2.5260222   0.76488201   426349 
 2290000    0.6143496   -2.5253269   -2.5253269   -1.7616411  0.049197411   -2.5253269   0.76368582   426349 
 2291000   0.61373718   -2.5257768   -2.5257768   -1.7628522  0.037458181   -2.5257768   0.76292454   426349 
 2292000   0.61235144   -2.5242357   -2.5242357   -1.7630337  0.042830111   -2.5242357   0.76120195   426349 
 2293000   0.61319816   -2.5258081   -2.5258081   -1.7635536  0.031355464   -2.5258081   0.76225449   426349 
 2294000   0.61336555   -2.5260815   -2.5260815   -1.7636189  0.037731761   -2.5260815   0.76246257   426349 
 2295000   0.61330843   -2.5261348   -2.5261348   -1.7637433  0.045631567   -2.5261348   0.76239156   426349 
 2296000   0.61230304   -2.5250965   -2.5250965   -1.7639547  0.040512424   -2.5250965   0.76114179   426349 
 2297000   0.61361192   -2.5267757   -2.5267757   -1.7640069  0.050584016   -2.5267757   0.76276883   426349 
 2298000   0.61287761   -2.5260859   -2.5260859   -1.7642299  0.040043633   -2.5260859   0.76185603   426349 
 2299000   0.61436342   -2.5276537   -2.5276537   -1.7639507   0.04316239   -2.5276537     0.763703   426349 
 2300000   0.61456009   -2.5288653   -2.5288653   -1.7649179  0.036600765   -2.5288653   0.76394748   426349 
 2301000   0.61275296   -2.5259515   -2.5259515   -1.7642504  0.056913305   -2.5259515   0.76170108   426349 
 2302000   0.61406383   -2.5277501   -2.5277501   -1.7644195  0.048582758   -2.5277501   0.76333058   426349 
 2303000   0.61413662    -2.527561    -2.527561   -1.7641399  0.043703902    -2.527561   0.76342107   426349 
 2304000    0.6134495   -2.5269759   -2.5269759    -1.764409  0.036191014   -2.5269759   0.76256693   426349 
 2305000   0.61400181   -2.5275534   -2.5275534   -1.7642999   0.04188421   -2.5275534   0.76325349   426349 
 2306000   0.61567494   -2.5295375   -2.5295375   -1.7642042  0.047532076   -2.5295375   0.76533332   426349 
 2307000   0.61457772   -2.5288737   -2.5288737   -1.7649043  0.047363412   -2.5288737   0.76396939   426349 
 2308000     0.614113   -2.5281612   -2.5281612   -1.7647695  0.041600765   -2.5281612   0.76339171   426349 
 2309000   0.61372335   -2.5279561   -2.5279561   -1.7650488   0.04395776   -2.5279561   0.76290734   426349 
 2310000   0.61224491   -2.5261535   -2.5261535    -1.765084  0.037726472   -2.5261535   0.76106953   426349 
 2311000   0.61207143   -2.5262798   -2.5262798   -1.7654259  0.046226827   -2.5262798   0.76085388   426349 
 2312000   0.61383161    -2.528919    -2.528919   -1.7658771  0.033701835    -2.528919   0.76304192   426349 
 2313000   0.61317317   -2.5282773   -2.5282773   -1.7660539  0.038756897   -2.5282773   0.76222343   426349 
 2314000   0.61261654   -2.5269821   -2.5269821   -1.7654506  0.038867257   -2.5269821   0.76153149   426349 
 2315000   0.61155339   -2.5258871   -2.5258871   -1.7656772    0.0412588   -2.5258871    0.7602099   426349 
 2316000     0.611942   -2.5264257   -2.5264257   -1.7657327  0.039901429   -2.5264257   0.76069299   426349 
 2317000   0.61253735   -2.5266986   -2.5266986   -1.7652655  0.047812063   -2.5266986   0.76143306   426349 
 2318000   0.61165749   -2.5259849   -2.5259849   -1.7656455  0.046302653   -2.5259849   0.76033932   426349 
 2319000   0.61417347   -2.5277787   -2.5277787   -1.7643118   0.04366346   -2.5277787   0.76346687   426349 
 2320000   0.61239222   -2.5266367   -2.5266367   -1.7653841  0.036454377   -2.5266367   0.76125265   426349 
 2321000   0.61213818   -2.5267906   -2.5267906   -1.7658538  0.030948698   -2.5267906   0.76093685   426349 
 2322000    0.6127366    -2.527904    -2.527904   -1.7662233  0.038697927    -2.527904   0.76168074   426349 
 2323000   0.61313707    -2.527695    -2.527695   -1.7655165  0.028755688    -2.527695   0.76217856   426349 
 2324000   0.61260793    -2.526689    -2.526689   -1.7651682  0.031863423    -2.526689   0.76152079   426349 
 2325000   0.61292067   -2.5274757   -2.5274757   -1.7655662  0.033161154   -2.5274757   0.76190955   426349 
 2326000   0.61315957   -2.5277258   -2.5277258   -1.7655193  0.039308011   -2.5277258   0.76220652   426349 
 2327000   0.61363442   -2.5290641   -2.5290641   -1.7662673  0.040057677   -2.5290641    0.7627968   426349 
 2328000   0.61321967    -2.528347    -2.528347   -1.7660657  0.049931729    -2.528347   0.76228123   426349 
 2329000   0.61479252   -2.5297855   -2.5297855   -1.7655491  0.040665747   -2.5297855   0.76423641   426349 
 2330000    0.6139892   -2.5285086   -2.5285086   -1.7652708  0.042194923   -2.5285086   0.76323781   426349 
 2331000   0.61424889   -2.5291537   -2.5291537   -1.7655931  0.034371028   -2.5291537   0.76356063   426349 
 2332000   0.61553999   -2.5317029   -2.5317029   -1.7665373  0.037771633   -2.5317029   0.76516557   426349 
 2333000   0.61473504   -2.5302682   -2.5302682   -1.7661033  0.043282953   -2.5302682   0.76416496   426349 
 2334000   0.61390407   -2.5293367   -2.5293367   -1.7662047  0.042181499   -2.5293367     0.763132   426349 
 2335000   0.61339976   -2.5291377   -2.5291377   -1.7666326  0.048035333   -2.5291377    0.7625051   426349 
 2336000   0.61461092   -2.5306499   -2.5306499   -1.7666393  0.038243543   -2.5306499   0.76401066   426349 
 2337000   0.61342267   -2.5298366   -2.5298366   -1.7673031  0.048647592   -2.5298366   0.76253357   426349 
 2338000   0.61314069   -2.5294909   -2.5294909   -1.7673078   0.04685086   -2.5294909   0.76218305   426349 
 2339000   0.61370886   -2.5297504   -2.5297504   -1.7668611  0.034820777   -2.5297504   0.76288933   426349 
 2340000   0.61362708    -2.529813    -2.529813   -1.7670253  0.039215322    -2.529813   0.76278767   426349 
 2341000   0.61265068    -2.528402    -2.528402   -1.7668281  0.042699035    -2.528402   0.76157393   426349 
 2342000   0.61318138   -2.5284999   -2.5284999   -1.7662663  0.044246641   -2.5284999   0.76223363   426349 
 2343000   0.61305746   -2.5275258   -2.5275258   -1.7654462  0.041718454   -2.5275258   0.76207959   426349 
 2344000   0.61392646   -2.5292446   -2.5292446   -1.7660848  0.037456913   -2.5292446   0.76315982   426349 
 2345000   0.61395957   -2.5288938   -2.5288938   -1.7656928  0.035386897   -2.5288938   0.76320098   426349 
 2346000   0.61428711   -2.5296648   -2.5296648   -1.7660566  0.033023473   -2.5296648   0.76360815   426349 
 2347000   0.61366421    -2.529466    -2.529466   -1.7666322  0.034390695    -2.529466   0.76283383   426349 
 2348000   0.61413204   -2.5296289   -2.5296289   -1.7662135   0.03394843   -2.5296289   0.76341538   426349 
 2349000   0.61354066   -2.5284978   -2.5284978   -1.7658176  0.043859121   -2.5284978   0.76268025   426349 
 2350000    0.6126296   -2.5277285   -2.5277285   -1.7661807  0.046222613   -2.5277285   0.76154773   426349 
 2351000   0.61280772   -2.5281318   -2.5281318   -1.7663626  0.040251524   -2.5281318   0.76176915   426349 
 2352000    0.6140535   -2.5287573   -2.5287573   -1.7654395  0.048993084   -2.5287573   0.76331775   426349 
 2353000    0.6139736    -2.529719    -2.529719   -1.7665006  0.043646049    -2.529719   0.76321842   426349 
 2354000   0.61279133   -2.5285186   -2.5285186   -1.7667698  0.039349875   -2.5285186   0.76174877   426349 
 2355000   0.61267846   -2.5279139   -2.5279139   -1.7663054  0.029492426   -2.5279139   0.76160846   426349 
 2356000   0.61398582   -2.5291878   -2.5291878   -1.7659542  0.040991755   -2.5291878   0.76323361   426349 
 2357000   0.61428796     -2.52974     -2.52974   -1.7661308  0.043421075     -2.52974    0.7636092   426349 
 2358000   0.61403884   -2.5295652   -2.5295652   -1.7662657   0.04453129   -2.5295652   0.76329952   426349 
 2359000   0.61324891   -2.5293423   -2.5293423   -1.7670247  0.037612344   -2.5293423   0.76231758   426349 
 2360000   0.61300953    -2.529494    -2.529494    -1.767474  0.040158998    -2.529494   0.76202001   426349 
 2361000   0.61294831   -2.5297319   -2.5297319    -1.767788  0.051297708   -2.5297319   0.76194391   426349 
 2362000   0.61424943   -2.5309421   -2.5309421   -1.7673808  0.045754091   -2.5309421    0.7635613   426349 
 2363000   0.61429242   -2.5305268   -2.5305268   -1.7669121  0.037857673   -2.5305268   0.76361474   426349 
 2364000    0.6140492    -2.530586    -2.530586   -1.7672736  0.039047476    -2.530586   0.76331241   426349 
 2365000   0.61417282   -2.5309454   -2.5309454   -1.7674793  0.042314603   -2.5309454   0.76346608   426349 
 2366000   0.61360597   -2.5312648   -2.5312648   -1.7685034  0.030319815   -2.5312648   0.76276143   426349 
 2367000   0.61277766   -2.5300108   -2.5300108    -1.768279  0.040711956   -2.5300108   0.76173178   426349 
 2368000   0.61301952   -2.5297956   -2.5297956   -1.7677632  0.042349024   -2.5297956   0.76203243   426349 
 2369000   0.61296528   -2.5302541   -2.5302541   -1.7682891  0.030267601   -2.5302541     0.761965   426349 
 2370000   0.61245317   -2.5289689   -2.5289689   -1.7676405  0.039453832   -2.5289689    0.7613284   426349 
 2371000   0.61212559    -2.529255    -2.529255   -1.7683338  0.041666665    -2.529255    0.7609212   426349 
 2372000   0.61405041   -2.5310358   -2.5310358   -1.7677219  0.039956335   -2.5310358   0.76331391   426349 
 2373000   0.61421196   -2.5317527   -2.5317527    -1.768238  0.044878023   -2.5317527   0.76351472   426349 
 2374000   0.61399589     -2.53154     -2.53154   -1.7682938    0.0508395     -2.53154   0.76324614   426349 
 2375000   0.61284924   -2.5292786   -2.5292786   -1.7674578  0.042468854   -2.5292786   0.76182076   426349 
 2376000   0.61309813   -2.5299964   -2.5299964   -1.7678663  0.046680541   -2.5299964   0.76213015   426349 
 2377000   0.61326638   -2.5302705   -2.5302705   -1.7679312  0.048729586   -2.5302705   0.76233929   426349 
 2378000    0.6129246   -2.5296737   -2.5296737   -1.7677593   0.05891589   -2.5296737   0.76191443   426349 
 2379000   0.61273342   -2.5297679   -2.5297679   -1.7680911  0.038680003   -2.5297679   0.76167678   426349 
 2380000   0.61255686   -2.5302278   -2.5302278   -1.7687704  0.035862806   -2.5302278    0.7614573   426349 
 2381000   0.61269009   -2.5297421   -2.5297421   -1.7681192  0.046458593   -2.5297421   0.76162291   426349 
 2382000   0.61249749   -2.5299046   -2.5299046   -1.7685211  0.036400639   -2.5299046    0.7613835   426349 
 2383000   0.61243347   -2.5300037   -2.5300037   -1.7686998  0.044526297   -2.5300037   0.76130392   426349 
 2384000    0.6124997   -2.5298892   -2.5298892   -1.7685029  0.048949991   -2.5298892   0.76138625   426349 
 2385000   0.61291261   -2.5313171   -2.5313171   -1.7694175  0.041177854   -2.5313171   0.76189953   426349 
 2386000   0.61225868   -2.5303424   -2.5303424   -1.7692558  0.039586749   -2.5303424   0.76108664   426349 
 2387000     0.612113   -2.5299064   -2.5299064   -1.7690009  0.039067943   -2.5299064   0.76090555   426349 
 2388000   0.61179664   -2.5303011   -2.5303011   -1.7697888  0.040737165   -2.5303011   0.76051228   426349 
 2389000   0.61214642   -2.5303139   -2.5303139   -1.7693668  0.035420937   -2.5303139    0.7609471   426349 
 2390000   0.61227692   -2.5309478   -2.5309478   -1.7698385  0.036743552   -2.5309478   0.76110931   426349 
 2391000   0.61441477   -2.5336896   -2.5336896   -1.7699227  0.033627367   -2.5336896   0.76376684   426349 
 2392000   0.61281719   -2.5320379   -2.5320379    -1.770257  0.046387669   -2.5320379   0.76178091   426349 
 2393000   0.61279396   -2.5320286   -2.5320286   -1.7702765  0.049754569   -2.5320286   0.76175204   426349 
 2394000   0.61198341   -2.5313552   -2.5313552   -1.7706108  0.038228628   -2.5313552   0.76074446   426349 
 2395000   0.61227768   -2.5320515   -2.5320515   -1.7709413  0.043265774   -2.5320515   0.76111025   426349 
 2396000   0.61248883   -2.5321405   -2.5321405   -1.7707678  0.038000085   -2.5321405   0.76137274   426349 
 2397000   0.61371125   -2.5327763   -2.5327763    -1.769884  0.042382558   -2.5327763    0.7628923   426349 
 2398000   0.61634502   -2.5354499   -2.5354499   -1.7692836   0.04909248   -2.5354499   0.76616629   426349 
 2399000    0.6153853    -2.534038    -2.534038   -1.7690647  0.045519785    -2.534038   0.76497328   426349 
 2400000   0.61493052   -2.5342559   -2.5342559   -1.7698479  0.047646841   -2.5342559   0.76440796   426349 
 2401000   0.61431535   -2.5335492   -2.5335492    -1.769906  0.043533237   -2.5335492   0.76364325   426349 
 2402000   0.61425179   -2.5332748   -2.5332748   -1.7697105  0.037320532   -2.5332748   0.76356424   426349 
 2403000   0.61433522   -2.5331753   -2.5331753   -1.7695074  0.040202716   -2.5331753   0.76366794   426349 
 2404000    0.6141341   -2.5333938   -2.5333938   -1.7699759  0.043186284   -2.5333938   0.76341795   426349 
 2405000    0.6137403   -2.5328753   -2.5328753   -1.7699469  0.040855649   -2.5328753   0.76292842   426349 
 2406000   0.61321577    -2.532312    -2.532312   -1.7700357  0.033974721    -2.532312   0.76227638   426349 
 2407000   0.61398805   -2.5333897   -2.5333897   -1.7701533  0.042965591   -2.5333897   0.76323639   426349 
 2408000   0.61392701   -2.5333169   -2.5333169   -1.7701564  0.038714342   -2.5333169   0.76316051   426349 
 2409000   0.61410129   -2.5332137   -2.5332137   -1.7698366  0.050338788   -2.5332137   0.76337716   426349 
 2410000   0.61316733   -2.5320013   -2.5320013   -1.7697851  0.045078532   -2.5320013   0.76221616   426349 
 2411000   0.61364986   -2.5330993   -2.5330993   -1.7702833  0.040628695   -2.5330993     0.762816   426349 
 2412000   0.61300958   -2.5320292   -2.5320292   -1.7700091  0.039061167   -2.5320292   0.76202007   426349 
 2413000   0.61268234   -2.5321254   -2.5321254   -1.7705121  0.038829424   -2.5321254   0.76161328   426349 
 2414000   0.61181824    -2.531635    -2.531635   -1.7710959  0.035620747    -2.531635   0.76053914   426349 
 2415000   0.61286399   -2.5329105   -2.5329105   -1.7710715  0.057147021   -2.5329105   0.76183909   426349 
 2416000   0.61262333   -2.5320619   -2.5320619   -1.7705219  0.042175366   -2.5320619   0.76153993   426349 
 2417000   0.61242578    -2.531392    -2.531392   -1.7700977  0.045385105    -2.531392   0.76129436   426349 
 2418000   0.61276161   -2.5318382   -2.5318382   -1.7701263  0.038085883   -2.5318382   0.76171182   426349 
 2419000   0.61298729   -2.5316451   -2.5316451   -1.7696527  0.040570162   -2.5316451   0.76199237   426349 
 2420000    0.6145863   -2.5331553   -2.5331553   -1.7691753  0.048907899   -2.5331553   0.76398006   426349 
 2421000   0.61356409   -2.5322424   -2.5322424    -1.769533  0.042802414   -2.5322424   0.76270938   426349 
 2422000   0.61435637   -2.5339317   -2.5339317   -1.7702374  0.037550408   -2.5339317   0.76369424   426349 
 2423000    0.6131169   -2.5328575   -2.5328575    -1.770704   0.03807061   -2.5328575   0.76215348   426349 
 2424000    0.6125473   -2.5309008   -2.5309008   -1.7694553  0.050535714   -2.5309008   0.76144542   426349 
 2425000   0.61312795   -2.5318877   -2.5318877   -1.7697205  0.049912445   -2.5318877   0.76216721   426349 
 2426000   0.61366015   -2.5327887   -2.5327887   -1.7699599  0.043881677   -2.5327887   0.76282879   426349 
 2427000   0.61358948   -2.5332641   -2.5332641   -1.7705231  0.045263811   -2.5332641   0.76274093   426349 
 2428000   0.61308833   -2.5329524   -2.5329524   -1.7708345  0.037242409   -2.5329524   0.76211796   426349 
 2429000   0.61217291   -2.5323206   -2.5323206   -1.7713406  0.045541244   -2.5323206   0.76098003   426349 
 2430000   0.61316094   -2.5334746   -2.5334746   -1.7712663  0.038574499   -2.5334746   0.76220823   426349 
 2431000   0.61258177   -2.5329712   -2.5329712   -1.7714829  0.031569517   -2.5329712   0.76148826   426349 
 2432000   0.61306156   -2.5331996   -2.5331996   -1.7711149  0.044676425   -2.5331996   0.76208468   426349 
 2433000   0.61323518   -2.5333258   -2.5333258   -1.7710253  0.048904442   -2.5333258   0.76230051   426349 
 2434000    0.6132649   -2.5335695   -2.5335695   -1.7712321  0.035662167   -2.5335695   0.76233746   426349 
 2435000   0.61245407    -2.532522    -2.532522   -1.7711925  0.042020138    -2.532522   0.76132952   426349 
 2436000   0.61262041   -2.5327258   -2.5327258   -1.7711895  0.044851636   -2.5327258    0.7615363   426349 
 2437000   0.61295352    -2.533686    -2.533686   -1.7717356  0.038986211    -2.533686   0.76195038   426349 
 2438000   0.61319541   -2.5346505   -2.5346505   -1.7723994  0.036140038   -2.5346505   0.76225107   426349 
 2439000    0.6121186   -2.5346137   -2.5346137   -1.7737012  0.042989328   -2.5346137   0.76091251   426349 
 2440000   0.61268201   -2.5354519   -2.5354519    -1.773839  0.040377786   -2.5354519   0.76161287   426349 
 2441000     0.612776   -2.5352522   -2.5352522   -1.7735224  0.046645523   -2.5352522   0.76172971   426349 
 2442000   0.61199362   -2.5345933   -2.5345933   -1.7738361  0.045434016   -2.5345933   0.76075715   426349 
 2443000   0.61374949   -2.5359168   -2.5359168   -1.7729769  0.047507885   -2.5359168   0.76293983   426349 
 2444000   0.61379161   -2.5366606   -2.5366606   -1.7736684  0.047022907   -2.5366606    0.7629922   426349 
 2445000   0.61416852   -2.5369029   -2.5369029   -1.7734422  0.051846147   -2.5369029   0.76346072   426349 
 2446000   0.61487834   -2.5376698   -2.5376698   -1.7733267  0.045458956   -2.5376698   0.76434309   426349 
 2447000   0.61401796   -2.5361419   -2.5361419   -1.7728683  0.040071709   -2.5361419   0.76327357   426349 
 2448000   0.61396477   -2.5363289   -2.5363289   -1.7731215  0.044283356   -2.5363289   0.76320745   426349 
 2449000   0.61329353   -2.5349852   -2.5349852   -1.7726121  0.032831044   -2.5349852   0.76237304   426349 
 2450000   0.61360488   -2.5350921   -2.5350921    -1.772332  0.041215625   -2.5350921   0.76276007   426349 
 2451000   0.61383355   -2.5357583   -2.5357583    -1.772714  0.043997564   -2.5357583   0.76304433   426349 
 2452000   0.61311044   -2.5353023   -2.5353023   -1.7731568  0.042720993   -2.5353023   0.76214545   426349 
 2453000    0.6129189   -2.5353107   -2.5353107   -1.7734034  0.039467192   -2.5353107   0.76190735   426349 
 2454000   0.61208358   -2.5343514   -2.5343514   -1.7734824  0.045878818   -2.5343514   0.76086898   426349 
 2455000   0.61274643   -2.5368675   -2.5368675   -1.7751745  0.039943286   -2.5368675   0.76169295   426349 
 2456000   0.61327973   -2.5369496   -2.5369496   -1.7745937  0.041529334   -2.5369496   0.76235588   426349 
 2457000   0.61342833   -2.5367694   -2.5367694   -1.7742288  0.038762299   -2.5367694   0.76254061   426349 
 2458000   0.61112994   -2.5337323   -2.5337323   -1.7740488  0.040149178   -2.5337323   0.75968353   426349 
 2459000   0.61187411   -2.5351093   -2.5351093   -1.7745007  0.043439482   -2.5351093   0.76060859   426349 
 2460000   0.61303959   -2.5360426   -2.5360426   -1.7739852   0.03722284   -2.5360426   0.76205737   426349 
 2461000   0.61185329    -2.534496    -2.534496   -1.7739133  0.038800518    -2.534496   0.76058271   426349 
 2462000   0.61262129   -2.5347334   -2.5347334   -1.7731961  0.041117456   -2.5347334   0.76153739   426349 
 2463000    0.6131059   -2.5356449   -2.5356449   -1.7735051  0.049697484   -2.5356449   0.76213981   426349 
 2464000   0.61280363   -2.5348427   -2.5348427   -1.7730786  0.044034063   -2.5348427   0.76176406   426349 
 2465000   0.61234449   -2.5340745   -2.5340745   -1.7728812  0.039633207   -2.5340745   0.76119331   426349 
 2466000   0.61354612   -2.5359637   -2.5359637   -1.7732767  0.040971052   -2.5359637   0.76268703   426349 
 2467000    0.6119044   -2.5341107   -2.5341107   -1.7734645   0.03993443   -2.5341107   0.76064624   426349 
 2468000   0.61264624   -2.5344501   -2.5344501   -1.7728817  0.045231958   -2.5344501   0.76156842   426349 
 2469000   0.61371129   -2.5353699   -2.5353699   -1.7724776  0.045698521   -2.5353699   0.76289235   426349 
 2470000   0.61304904   -2.5344368   -2.5344368   -1.7723677  0.046171978   -2.5344368   0.76206913   426349 
 2471000   0.61441512   -2.5359896   -2.5359896   -1.7722223  0.036463761   -2.5359896   0.76376727   426349 
 2472000   0.61305299   -2.5346414   -2.5346414   -1.7725673  0.028591434   -2.5346414   0.76207403   426349 
 2473000   0.61286381   -2.5349586   -2.5349586   -1.7731198  0.042951535   -2.5349586   0.76183887   426349 
 2474000   0.61389962   -2.5362187   -2.5362187   -1.7730922  0.046108169   -2.5362187   0.76312646   426349 
 2475000    0.6131156   -2.5348066   -2.5348066   -1.7726547  0.038956934   -2.5348066   0.76215187   426349 
 2476000   0.61268893    -2.535205    -2.535205   -1.7735835  0.039836337    -2.535205   0.76162148   426349 
 2477000    0.6129374   -2.5355815   -2.5355815   -1.7736512  0.038162055   -2.5355815   0.76193034   426349 
 2478000   0.61196867   -2.5344339   -2.5344339   -1.7737078   0.03609578   -2.5344339   0.76072614   426349 
 2479000   0.61226387   -2.5351064   -2.5351064   -1.7740133  0.032523796   -2.5351064   0.76109309   426349 
 2480000    0.6132402   -2.5367553   -2.5367553   -1.7744486   0.03801644   -2.5367553   0.76230675   426349 
 2481000   0.61191824   -2.5353107   -2.5353107   -1.7746473  0.045508018   -2.5353107   0.76066344   426349 
 2482000   0.61213852   -2.5352461   -2.5352461   -1.7743088  0.035633893   -2.5352461   0.76093728   426349 
 2483000   0.61204589   -2.5349322   -2.5349322   -1.7741101  0.034340831   -2.5349322   0.76082212   426349 
 2484000   0.61279233   -2.5350967   -2.5350967   -1.7733467  0.041715305   -2.5350967   0.76175001   426349 
 2485000   0.61321799   -2.5358715   -2.5358715   -1.7735923  0.040927336   -2.5358715   0.76227914   426349 
 2486000   0.61228209   -2.5358336   -2.5358336   -1.7747179  0.044195307   -2.5358336   0.76111575   426349 
 2487000   0.61314753   -2.5375944   -2.5375944   -1.7754029  0.040675151   -2.5375944   0.76219156   426349 
 2488000   0.61218003   -2.5367534   -2.5367534   -1.7757645  0.037905514   -2.5367534   0.76098888   426349 
 2489000   0.61371289   -2.5386392   -2.5386392   -1.7757449  0.033577397   -2.5386392   0.76289434   426349 
 2490000   0.61170789   -2.5370722   -2.5370722   -1.7766702  0.031751067   -2.5370722   0.76040197   426349 
 2491000    0.6134277   -2.5386769   -2.5386769   -1.7761371  0.041704999   -2.5386769   0.76253983   426349 
 2492000   0.61382356   -2.5386377   -2.5386377   -1.7756057   0.04683735   -2.5386377   0.76303192   426349 
 2493000   0.61329945   -2.5379734   -2.5379734    -1.775593  0.039322773   -2.5379734    0.7623804   426349 
 2494000   0.61319794   -2.5389357   -2.5389357   -1.7766814  0.035915208   -2.5389357   0.76225421   426349 
 2495000   0.61212661   -2.5375291   -2.5375291   -1.7766067  0.046007807   -2.5375291   0.76092246   426349 
 2496000    0.6120715   -2.5375404   -2.5375404   -1.7766864  0.032237826   -2.5375404   0.76085397   426349 
 2497000   0.61223717   -2.5378744   -2.5378744   -1.7768144  0.051238556   -2.5378744    0.7610599   426349 
 2498000   0.61372008   -2.5390587   -2.5390587   -1.7761554  0.042092255   -2.5390587   0.76290329   426349 
 2499000   0.61234178   -2.5373976   -2.5373976   -1.7762077  0.042455654   -2.5373976   0.76118995   426349 
 2500000   0.61346546   -2.5382644   -2.5382644   -1.7756777  0.050548498   -2.5382644   0.76258676   426349 
 2501000    0.6127503   -2.5374588   -2.5374588    -1.775761  0.043631239   -2.5374588   0.76169777   426349 
 2502000   0.61287705   -2.5377415   -2.5377415   -1.7758862  0.041243452   -2.5377415   0.76185532   426349 
 2503000    0.6136954   -2.5392371   -2.5392371   -1.7763645  0.035314376   -2.5392371    0.7628726   426349 
 2504000   0.61241854   -2.5379233   -2.5379233    -1.776638  0.037570671   -2.5379233   0.76128536   426349 
 2505000   0.61194266   -2.5374274   -2.5374274   -1.7767336  0.039896994   -2.5374274    0.7606938   426349 
 2506000   0.61140625   -2.5371071   -2.5371071   -1.7770801   0.04249676   -2.5371071     0.760027   426349 
 2507000   0.61277035   -2.5383509   -2.5383509   -1.7766282  0.036071509   -2.5383509   0.76172268   426349 
 2508000   0.61160795   -2.5368482   -2.5368482   -1.7765705  0.038305177   -2.5368482   0.76027773   426349 
 2509000   0.61278159   -2.5386919   -2.5386919   -1.7769552  0.038448433   -2.5386919   0.76173666   426349 
 2510000     0.611449   -2.5374421   -2.5374421   -1.7773619  0.040854743   -2.5374421   0.76008014   426349 
 2511000   0.61174502   -2.5377699   -2.5377699   -1.7773218   0.04520636   -2.5377699   0.76044812   426349 
 2512000   0.61238243   -2.5381503   -2.5381503   -1.7769098  0.043886239   -2.5381503   0.76124047   426349 
 2513000    0.6117072   -2.5372571   -2.5372571    -1.776856  0.046326346   -2.5372571   0.76040111   426349 
 2514000    0.6118764   -2.5375057   -2.5375057   -1.7768943  0.046205901   -2.5375057   0.76061143   426349 
 2515000   0.61265307   -2.5379289   -2.5379289    -1.776352  0.039581208   -2.5379289    0.7615769   426349 
 2516000   0.61379232    -2.539376    -2.539376   -1.7763829  0.040254842    -2.539376   0.76299308   426349 
 2517000   0.61238428   -2.5378991   -2.5378991   -1.7766563   0.04395905   -2.5378991   0.76124277   426349 
 2518000   0.61281908   -2.5388325   -2.5388325   -1.7770493  0.049516116   -2.5388325   0.76178327   426349 
 2519000   0.61247282   -2.5382524   -2.5382524   -1.7768996  0.039114601   -2.5382524   0.76135284   426349 
 2520000   0.61229798   -2.5371517   -2.5371517   -1.7760162  0.044860385   -2.5371517   0.76113549   426349 
 2521000   0.61164627   -2.5367847   -2.5367847   -1.7764593   0.04622559   -2.5367847   0.76032537   426349 
 2522000   0.61312201   -2.5385623   -2.5385623   -1.7764025  0.046636677   -2.5385623   0.76215983   426349 
 2523000   0.61442873    -2.539919    -2.539919   -1.7761348  0.041143574    -2.539919   0.76378419   426349 
 2524000   0.61264523   -2.5379917   -2.5379917   -1.7764246  0.046650493   -2.5379917   0.76156715   426349 
 2525000   0.61419464    -2.540188    -2.540188   -1.7766948  0.033943997    -2.540188   0.76349319   426349 
 2526000    0.6127975   -2.5390744   -2.5390744    -1.777318   0.03986836   -2.5390744   0.76175643   426349 
 2527000   0.61326736   -2.5402552   -2.5402552   -1.7779147  0.049752983   -2.5402552   0.76234051   426349 
 2528000   0.61275456   -2.5400308   -2.5400308   -1.7783278  0.023190065   -2.5400308   0.76170305   426349 
 2529000   0.61273794   -2.5393572   -2.5393572   -1.7776747  0.042866234   -2.5393572    0.7616824   426349 
 2530000   0.61295716    -2.539856    -2.539856   -1.7779011  0.036317044    -2.539856   0.76195491   426349 
 2531000   0.61137887   -2.5377412   -2.5377412   -1.7777482  0.048005632   -2.5377412   0.75999296   426349 
 2532000   0.61246037   -2.5397905   -2.5397905   -1.7784531  0.039959483   -2.5397905   0.76133736   426349 
 2533000   0.61306605   -2.5395223   -2.5395223    -1.777432  0.043516211   -2.5395223   0.76209026   426349 
 2534000   0.61330554   -2.5399057   -2.5399057   -1.7775178  0.034595972   -2.5399057   0.76238798   426349 
 2535000   0.61205418   -2.5386644   -2.5386644   -1.7778319   0.02924172   -2.5386644   0.76083243   426349 
 2536000   0.61174195   -2.5382541   -2.5382541   -1.7778097  0.038572183   -2.5382541   0.76044431   426349 
 2537000   0.61287588   -2.5396598   -2.5396598   -1.7778059  0.039594023   -2.5396598   0.76185387   426349 
 2538000    0.6128122   -2.5394702   -2.5394702   -1.7776955  0.049403026   -2.5394702   0.76177471   426349 
 2539000   0.61174643   -2.5384608   -2.5384608   -1.7780109  0.045524247   -2.5384608   0.76044988   426349 
 2540000   0.61176823   -2.5394647   -2.5394647   -1.7789877  0.046013114   -2.5394647   0.76047698   426349 
 2541000   0.61248951   -2.5400737   -2.5400737   -1.7787001  0.046334046   -2.5400737   0.76137358   426349 
 2542000   0.61304035   -2.5404029   -2.5404029   -1.7783446  0.038383452   -2.5404029   0.76205832   426349 
 2543000   0.61233587   -2.5392917   -2.5392917   -1.7781091  0.055372188   -2.5392917   0.76118259   426349 
 2544000   0.61186176   -2.5394554   -2.5394554   -1.7788621   0.03412229   -2.5394554   0.76059324   426349 
 2545000   0.61299734   -2.5398945   -2.5398945   -1.7778897  0.042388825   -2.5398945   0.76200486   426349 
 2546000   0.61341711   -2.5395929   -2.5395929   -1.7770662  0.042156813   -2.5395929   0.76252667   426349 
 2547000   0.61261493   -2.5394073   -2.5394073   -1.7778778  0.044241744   -2.5394073   0.76152949   426349 
 2548000   0.61278482   -2.5396328   -2.5396328   -1.7778921  0.048936284   -2.5396328   0.76174068   426349 
 2549000   0.61293474   -2.5405134   -2.5405134   -1.7785864  0.031142187   -2.5405134   0.76192704   426349 
 2550000   0.61121734   -2.5387947   -2.5387947   -1.7790025  0.046361969   -2.5387947   0.75979217   426349 
 2551000   0.61232235   -2.5401137   -2.5401137   -1.7789479  0.036708676   -2.5401137   0.76116579   426349 
 2552000   0.61372614   -2.5411249   -2.5411249   -1.7782141  0.041940962   -2.5411249   0.76291081   426349 
 2553000   0.61204346   -2.5398931   -2.5398931    -1.779074  0.041722162   -2.5398931   0.76081911   426349 
 2554000    0.6121453   -2.5398526   -2.5398526   -1.7789069  0.047649879   -2.5398526    0.7609457   426349 
 2555000   0.61355169   -2.5410611   -2.5410611   -1.7783672   0.04379841   -2.5410611   0.76269396   426349 
 2556000   0.61309296   -2.5413112   -2.5413112   -1.7791875  0.044909507   -2.5413112   0.76212371   426349 
 2557000    0.6121221   -2.5408247   -2.5408247   -1.7799079   0.04341484   -2.5408247   0.76091686   426349 
 2558000   0.61287702   -2.5419353   -2.5419353     -1.78008  0.046142497   -2.5419353   0.76185529   426349 
 2559000   0.61247085    -2.541517    -2.541517   -1.7801666  0.043581931    -2.541517   0.76135038   426349 
 2560000   0.61299264   -2.5415819   -2.5415819   -1.7795829  0.040336205   -2.5415819   0.76199901   426349 
 2561000   0.61222595   -2.5412684   -2.5412684   -1.7802224  0.032471088   -2.5412684   0.76104595   426349 
 2562000   0.61132695   -2.5406111   -2.5406111   -1.7806827  0.034993703   -2.5406111   0.75992843   426349 
 2563000   0.61249009   -2.5418972   -2.5418972   -1.7805229  0.048270814   -2.5418972    0.7613743   426349 
 2564000    0.6127594   -2.5424565   -2.5424565   -1.7807475  0.043067718   -2.5424565   0.76170908   426349 
 2565000   0.61156736   -2.5411688   -2.5411688   -1.7809415  0.040699437   -2.5411688   0.76022728   426349 
 2566000    0.6120482   -2.5412795   -2.5412795   -1.7804545  0.036584237   -2.5412795     0.760825   426349 
 2567000   0.61223082   -2.5418454   -2.5418454   -1.7807934  0.047517763   -2.5418454     0.761052   426349 
 2568000   0.61152644   -2.5413754   -2.5413754    -1.781199  0.046575084   -2.5413754   0.76017641   426349 
 2569000   0.61272643   -2.5430407   -2.5430407   -1.7813726  0.036399076   -2.5430407   0.76166809   426349 
 2570000    0.6129541   -2.5433363   -2.5433363   -1.7813852  0.043445416   -2.5433363   0.76195111   426349 
 2571000   0.61244903   -2.5428755   -2.5428755   -1.7815523  0.040170544   -2.5428755   0.76132326   426349 
 2572000   0.61386668   -2.5443991   -2.5443991   -1.7813136  0.046210292   -2.5443991   0.76308551   426349 
 2573000   0.61332415   -2.5434777   -2.5434777   -1.7810666  0.056983834   -2.5434777    0.7624111   426349 
 2574000   0.61290048    -2.543605    -2.543605   -1.7817205  0.047428764    -2.543605   0.76188445   426349 
 2575000   0.61253461   -2.5436144   -2.5436144   -1.7821847  0.037188285   -2.5436144   0.76142964   426349 
 2576000   0.61240148   -2.5431699   -2.5431699   -1.7819057  0.041778858   -2.5431699   0.76126416   426349 
 2577000   0.61209722   -2.5423511   -2.5423511   -1.7814652   0.03942046   -2.5423511   0.76088594   426349 
 2578000   0.61233133   -2.5434861   -2.5434861   -1.7823091  0.044948401   -2.5434861   0.76117695   426349 
 2579000   0.61159679   -2.5427885   -2.5427885   -1.7825246  0.032053945   -2.5427885   0.76026386   426349 
 2580000   0.61231467   -2.5434553   -2.5434553    -1.782299  0.041118019   -2.5434553   0.76115624   426349 
 2581000   0.61208305   -2.5435329   -2.5435329   -1.7826646  0.041808225   -2.5435329   0.76086832   426349 
 2582000   0.61229639   -2.5437406   -2.5437406   -1.7826071   0.04583306   -2.5437406   0.76113352   426349 
 2583000   0.61107466   -2.5421878   -2.5421878    -1.782573  0.039664396   -2.5421878   0.75961481   426349 
 2584000    0.6117925   -2.5436859   -2.5436859   -1.7831788  0.035970639   -2.5436859   0.76050715   426349 
 2585000   0.61069011   -2.5424187   -2.5424187   -1.7832819  0.042846564   -2.5424187   0.75913678   426349 
 2586000   0.61148045   -2.5442194   -2.5442194   -1.7841002  0.039974131   -2.5442194   0.76011924   426349 
 2587000   0.61142251   -2.5434514   -2.5434514   -1.7834041  0.042678738   -2.5434514   0.76004722   426349 
 2588000   0.61092195   -2.5420473   -2.5420473   -1.7826223   0.04317522   -2.5420473   0.75942498   426349 
 2589000   0.61083514   -2.5412568   -2.5412568   -1.7819398   0.04023076   -2.5412568   0.75931706   426349 
 2590000   0.61238164   -2.5438958   -2.5438958   -1.7826563  0.034184909   -2.5438958   0.76123949   426349 
 2591000   0.61082654   -2.5423124   -2.5423124   -1.7830061  0.042746729   -2.5423124   0.75930638   426349 
 2592000   0.61282629   -2.5449064   -2.5449064   -1.7831142  0.042563317   -2.5449064   0.76179223   426349 
 2593000   0.61226817   -2.5442445   -2.5442445   -1.7831461  0.043079737   -2.5442445   0.76109844   426349 
 2594000   0.61096285    -2.542743    -2.542743   -1.7832672  0.044751724    -2.542743   0.75947583   426349 
 2595000   0.61252326   -2.5441583   -2.5441583   -1.7827428   0.04071913   -2.5441583   0.76141554   426349 
 2596000    0.6120614    -2.543409    -2.543409   -1.7825676  0.034484181    -2.543409    0.7608414   426349 
 2597000   0.61272554   -2.5446575   -2.5446575   -1.7829905  0.043186045   -2.5446575   0.76166699   426349 
 2598000   0.61209369   -2.5439146   -2.5439146   -1.7830331   0.03854689   -2.5439146   0.76088154   426349 
 2599000   0.61290177   -2.5453291   -2.5453291    -1.783443  0.048944651   -2.5453291   0.76188605   426349 
 2600000   0.61322672   -2.5455945   -2.5455945   -1.7833045  0.048184849   -2.5455945   0.76228999   426349 
 2601000   0.61467256   -2.5470015   -2.5470015   -1.7829142  0.050732018   -2.5470015   0.76408729   426349 
 2602000   0.61242629   -2.5445818   -2.5445818   -1.7832868  0.041606795   -2.5445818   0.76129499   426349 
 2603000   0.61270252    -2.545483    -2.545483   -1.7838446  0.042604041    -2.545483   0.76163837   426349 
 2604000   0.61138633   -2.5438286   -2.5438286   -1.7838264  0.039771956   -2.5438286   0.76000224   426349 
 2605000   0.61123808   -2.5437175   -2.5437175   -1.7838995  0.033172283   -2.5437175   0.75981796   426349 
 2606000   0.61135203   -2.5446648   -2.5446648   -1.7847053   0.03835055   -2.5446648    0.7599596   426349 
 2607000   0.61296972   -2.5455075   -2.5455075   -1.7835369  0.030079796   -2.5455075   0.76197053   426349 
 2608000   0.61069714   -2.5429146   -2.5429146   -1.7837691  0.043517823   -2.5429146   0.75914552   426349 
 2609000   0.61098001   -2.5434084   -2.5434084   -1.7839113  0.037389523   -2.5434084   0.75949716   426349 
 2610000   0.61062398   -2.5426838   -2.5426838   -1.7836292  0.032923122   -2.5426838   0.75905458   426349 
 2611000   0.61185422   -2.5441057   -2.5441057   -1.7835218  0.044417937   -2.5441057   0.76058386   426349 
 2612000   0.61200777   -2.5440081   -2.5440081   -1.7832334  0.039140829   -2.5440081   0.76077474   426349 
 2613000   0.61152779   -2.5431118   -2.5431118   -1.7829337  0.043009234   -2.5431118   0.76017809   426349 
 2614000   0.61056622   -2.5418515   -2.5418515   -1.7828687   0.03883696   -2.5418515   0.75898278   426349 
 2615000   0.61066201   -2.5425006   -2.5425006   -1.7833988  0.042521499   -2.5425006   0.75910186   426349 
 2616000   0.61146766      -2.5435      -2.5435   -1.7833967  0.044928159      -2.5435   0.76010334   426349 
 2617000   0.61133854   -2.5439334   -2.5439334   -1.7839906  0.049985254   -2.5439334   0.75994283   426349 
 2618000   0.61300597   -2.5449545   -2.5449545   -1.7829389   0.03697102   -2.5449545   0.76201558   426349 
 2619000   0.61206121   -2.5441398   -2.5441398   -1.7832986  0.048271273   -2.5441398   0.76084117   426349 
 2620000   0.61263429   -2.5449648   -2.5449648   -1.7834112  0.035529829   -2.5449648   0.76155356   426349 
 2621000   0.61319382   -2.5453775   -2.5453775   -1.7831284  0.036755851   -2.5453775    0.7622491   426349 
 2622000   0.61201551   -2.5446213   -2.5446213   -1.7838369  0.040470191   -2.5446213   0.76078437   426349 
 2623000   0.61338067   -2.5464328   -2.5464328   -1.7839515   0.03094332   -2.5464328   0.76248136   426349 
 2624000   0.61169149   -2.5442679   -2.5442679   -1.7838863  0.047710897   -2.5442679   0.76038158   426349 
 2625000   0.61295671   -2.5460772   -2.5460772   -1.7841229  0.039487428   -2.5460772   0.76195435   426349 
 2626000   0.61169708   -2.5459871   -2.5459871   -1.7855986  0.045112872   -2.5459871   0.76038852   426349 
 2627000   0.61177589   -2.5458835   -2.5458835    -1.785397   0.04383576   -2.5458835   0.76048649   426349 
 2628000   0.61202289   -2.5454693   -2.5454693   -1.7846757  0.040796835   -2.5454693   0.76079353   426349 
 2629000   0.61298695   -2.5473432   -2.5473432   -1.7853512  0.042966631   -2.5473432   0.76199194   426349 
 2630000   0.61119175   -2.5452728   -2.5452728   -1.7855124   0.03611998   -2.5452728   0.75976036   426349 
 2631000   0.61142143   -2.5457326   -2.5457326   -1.7856867  0.040807042   -2.5457326   0.76004587   426349 
 2632000   0.61156147   -2.5462485   -2.5462485   -1.7860285  0.038723078   -2.5462485   0.76021996   426349 
 2633000   0.61119947   -2.5457073   -2.5457073   -1.7859373  0.042231407   -2.5457073   0.75976995   426349 
 2634000   0.61184678   -2.5457614   -2.5457614   -1.7851868  0.037550708   -2.5457614   0.76057462   426349 
 2635000   0.61230218   -2.5459325   -2.5459325   -1.7847918  0.043665974   -2.5459325   0.76114071   426349 
 2636000   0.61252007   -2.5461451   -2.5461451   -1.7847335  0.043557035   -2.5461451   0.76141157   426349 
 2637000   0.61183891   -2.5459817   -2.5459817   -1.7854169  0.034902151   -2.5459817   0.76056484   426349 
 2638000    0.6124437   -2.5463528   -2.5463528   -1.7850362  0.043505732   -2.5463528   0.76131664   426349 
 2639000   0.61240259    -2.546228    -2.546228   -1.7849624  0.047928627    -2.546228   0.76126554   426349 
 2640000   0.61165025   -2.5456141   -2.5456141   -1.7852838  0.042800767   -2.5456141   0.76033031   426349 
 2641000    0.6115499    -2.545904    -2.545904   -1.7856984  0.047921937    -2.545904   0.76020557   426349 
 2642000   0.61300869   -2.5477333   -2.5477333   -1.7857143  0.044617163   -2.5477333   0.76201896   426349 
 2643000   0.61186233   -2.5465358   -2.5465358   -1.7859418  0.046994601   -2.5465358   0.76059395   426349 
 2644000   0.61227311   -2.5465806   -2.5465806    -1.785476  0.051260389   -2.5465806   0.76110458   426349 
 2645000   0.61270969    -2.547247    -2.547247   -1.7855997  0.046778106    -2.547247   0.76164728   426349 
 2646000   0.61219082   -2.5459588   -2.5459588   -1.7849565    0.0471096   -2.5459588   0.76100229   426349 
 2647000   0.61288657   -2.5468778   -2.5468778   -1.7850107  0.039131315   -2.5468778   0.76186716   426349 
 2648000   0.61222491   -2.5469283   -2.5469283   -1.7858837  0.034107488   -2.5469283   0.76104466   426349 
 2649000   0.61128362   -2.5464834   -2.5464834   -1.7866088   0.04685886   -2.5464834   0.75987457   426349 
 2650000   0.61130778   -2.5460556   -2.5460556    -1.786151  0.041266127   -2.5460556    0.7599046   426349 
 2651000   0.61202315   -2.5472247   -2.5472247   -1.7864308  0.044273277   -2.5472247   0.76079386   426349 
 2652000    0.6119904   -2.5471772   -2.5471772    -1.786424  0.044955931   -2.5471772   0.76075315   426349 
 2653000   0.61239098   -2.5467454   -2.5467454   -1.7854943  0.046050948   -2.5467454    0.7612511   426349 
 2654000   0.61276255   -2.5469178   -2.5469178   -1.7852048  0.048710598   -2.5469178   0.76171299   426349 
 2655000   0.61318078   -2.5473962   -2.5473962   -1.7851633  0.042769832   -2.5473962   0.76223288   426349 
 2656000   0.61132241   -2.5456543   -2.5456543   -1.7857315  0.041567652   -2.5456543   0.75992278   426349 
 2657000   0.61166119   -2.5460427   -2.5460427   -1.7856988  0.047870479   -2.5460427   0.76034392   426349 
 2658000   0.61271748   -2.5472809   -2.5472809   -1.7856239  0.040404667   -2.5472809   0.76165697   426349 
 2659000   0.61124677   -2.5452463   -2.5452463   -1.7854176  0.040273166   -2.5452463   0.75982876   426349 
 2660000   0.61257903   -2.5465665   -2.5465665   -1.7850817   0.03444527   -2.5465665   0.76148486   426349 
 2661000   0.61111292   -2.5455451   -2.5455451   -1.7858827  0.047923142   -2.5455451   0.75966237   426349 
 2662000    0.6106956   -2.5454969   -2.5454969   -1.7863533  0.030983791   -2.5454969   0.75914361   426349 
 2663000   0.61025402   -2.5451012   -2.5451012   -1.7865065  0.039167778   -2.5451012   0.75859469   426349 
 2664000   0.61043701   -2.5457576   -2.5457576   -1.7869355  0.028358259   -2.5457576   0.75882216   426349 
 2665000   0.61045471     -2.54583     -2.54583   -1.7869858  0.048089794     -2.54583   0.75884416   426349 
 2666000   0.61092401   -2.5462464   -2.5462464   -1.7868189  0.049165268   -2.5462464   0.75942755   426349 
 2667000   0.61004984    -2.545566    -2.545566   -1.7872252  0.037623139    -2.545566   0.75834087   426349 
 2668000   0.61117842   -2.5467143   -2.5467143   -1.7869705  0.038792351   -2.5467143   0.75974379   426349 
 2669000   0.61128279   -2.5473392   -2.5473392   -1.7874657  0.035883341   -2.5473392   0.75987353   426349 
 2670000   0.61090014   -2.5466707   -2.5466707   -1.7872728   0.04380088   -2.5466707   0.75939787   426349 
 2671000   0.61186439   -2.5476787   -2.5476787   -1.7870822   0.03833238   -2.5476787    0.7605965   426349 
 2672000   0.61042796   -2.5469002   -2.5469002   -1.7880892  0.038519428   -2.5469002   0.75881091   426349 
 2673000   0.60990564   -2.5465311   -2.5465311   -1.7883695  0.040114141   -2.5465311   0.75816162   426349 
 2674000   0.60954627   -2.5466151   -2.5466151   -1.7889002  0.044368578   -2.5466151    0.7577149   426349 
 2675000   0.61087565   -2.5484827   -2.5484827   -1.7891153  0.044563735   -2.5484827   0.75936742   426349 
 2676000   0.61145531   -2.5488494   -2.5488494   -1.7887614  0.044241284   -2.5488494   0.76008799   426349 
 2677000   0.61112149   -2.5490182   -2.5490182   -1.7893451  0.034192646   -2.5490182   0.75967303   426349 
 2678000   0.61256061   -2.5503115   -2.5503115   -1.7888495  0.032472733   -2.5503115   0.76146197   426349 
 2679000   0.61281966   -2.5497778   -2.5497778   -1.7879938  0.038896344   -2.5497778   0.76178398   426349 
 2680000   0.61202036    -2.549733    -2.549733   -1.7889426  0.048188594    -2.549733    0.7607904   426349 
 2681000   0.61051155   -2.5487121   -2.5487121   -1.7897973  0.029209583   -2.5487121   0.75891482   426349 
 2682000   0.61191874   -2.5495659   -2.5495659   -1.7889019   0.03008393   -2.5495659   0.76066407   426349 
 2683000   0.61157119   -2.5496885   -2.5496885   -1.7894564  0.044154465   -2.5496885   0.76023204   426349 
 2684000    0.6111291   -2.5485152   -2.5485152   -1.7888327  0.048623718   -2.5485152   0.75968249   426349 
 2685000   0.61168871   -2.5493393   -2.5493393   -1.7889612  0.033698541   -2.5493393   0.76037812   426349 
 2686000   0.61173445   -2.5496258   -2.5496258   -1.7891909   0.03374354   -2.5496258   0.76043499   426349 
 2687000   0.61097954   -2.5489551   -2.5489551   -1.7894585  0.042550429   -2.5489551   0.75949657   426349 
 2688000   0.61090694   -2.5490962   -2.5490962   -1.7896899  0.034251979   -2.5490962   0.75940632   426349 
 2689000   0.61144524   -2.5504594   -2.5504594   -1.7903839  0.047198348   -2.5504594   0.76007547   426349 
 2690000   0.61125656   -2.5501829   -2.5501829    -1.790342  0.041871232   -2.5501829   0.75984093   426349 
 2691000   0.61046249   -2.5490568   -2.5490568   -1.7902029  0.046769973   -2.5490568   0.75885383   426349 
 2692000   0.61102398   -2.5498477   -2.5498477   -1.7902959  0.046772756   -2.5498477   0.75955181   426349 
 2693000   0.60994073   -2.5485916   -2.5485916   -1.7903864  0.046123273   -2.5485916   0.75820525   426349 
 2694000   0.61102801   -2.5500868   -2.5500868     -1.79053  0.037390411   -2.5500868   0.75955682   426349 
 2695000   0.61018543   -2.5486335   -2.5486335    -1.790124  0.042458597   -2.5486335   0.75850942   426349 
 2696000   0.60965697    -2.548446    -2.548446   -1.7905935  0.040618323    -2.548446   0.75785251   426349 
 2697000   0.60975102   -2.5479768   -2.5479768   -1.7900074  0.045203838   -2.5479768   0.75796942   426349 
 2698000   0.61042839    -2.549149    -2.549149   -1.7903376  0.043806323    -2.549149   0.75881145   426349 
 2699000   0.61030425   -2.5487772   -2.5487772   -1.7901201  0.037397734   -2.5487772   0.75865713   426349 
 2700000   0.61130816   -2.5497582   -2.5497582   -1.7898531  0.035547234   -2.5497582   0.75990507   426349 
 2701000   0.60999198   -2.5486224   -2.5486224   -1.7903535  0.047126695   -2.5486224   0.75826895   426349 
 2702000   0.61005339   -2.5494407   -2.5494407   -1.7910954  0.034132018   -2.5494407   0.75834528   426349 
 2703000   0.61003531   -2.5496044   -2.5496044   -1.7912816  0.041696154   -2.5496044   0.75832281   426349 
 2704000   0.61022297   -2.5496491   -2.5496491    -1.791093  0.040599704   -2.5496491    0.7585561   426349 
 2705000   0.61088471    -2.550346    -2.550346   -1.7909673  0.038641365    -2.550346   0.75937869   426349 
 2706000    0.6105925   -2.5500869   -2.5500869   -1.7910714  0.042337674   -2.5500869   0.75901545   426349 
 2707000   0.61162292   -2.5500845   -2.5500845   -1.7897882   0.03025229   -2.5500845   0.76029634   426349 
 2708000   0.61066075   -2.5489083   -2.5489083   -1.7898081  0.043177439   -2.5489083   0.75910028   426349 
 2709000   0.61167338   -2.5504405   -2.5504405   -1.7900814  0.033233432   -2.5504405   0.76035906   426349 
 2710000    0.6107993   -2.5491314   -2.5491314   -1.7898589  0.033425956   -2.5491314   0.75927251   426349 
 2711000   0.61233623    -2.551003    -2.551003     -1.78982  0.040162431    -2.551003   0.76118304   426349 
 2712000   0.61070901   -2.5492472   -2.5492472   -1.7900869  0.037080848   -2.5492472   0.75916027   426349 
 2713000   0.61036171   -2.5490459   -2.5490459   -1.7903174  0.049977625   -2.5490459   0.75872855   426349 
 2714000   0.61097756    -2.549929    -2.549929   -1.7904349  0.032690463    -2.549929   0.75949411   426349 
 2715000    0.6117539   -2.5504916   -2.5504916   -1.7900324  0.038783537   -2.5504916   0.76045916   426349 
 2716000   0.61064964   -2.5494214   -2.5494214    -1.790335  0.036034184   -2.5494214   0.75908647   426349 
 2717000   0.61184848   -2.5502055   -2.5502055   -1.7896288   0.03396728   -2.5502055   0.76057673   426349 
 2718000   0.61231158   -2.5507848   -2.5507848   -1.7896324  0.044164773   -2.5507848    0.7611524   426349 
 2719000   0.61185345   -2.5500995   -2.5500995   -1.7895166  0.049238828   -2.5500995   0.76058291   426349 
 2720000   0.61219196   -2.5503094   -2.5503094   -1.7893057  0.039215255   -2.5503094    0.7610037   426349 
 2721000   0.61178915   -2.5497043   -2.5497043   -1.7892013  0.045269988   -2.5497043   0.76050297   426349 
 2722000   0.61197207   -2.5499592   -2.5499592   -1.7892288  0.043199335   -2.5499592   0.76073036   426349 
 2723000   0.61104145   -2.5496616   -2.5496616   -1.7900881  0.040379131   -2.5496616   0.75957353   426349 
 2724000   0.60999094   -2.5481369   -2.5481369   -1.7898693  0.040506561   -2.5481369   0.75826766   426349 
 2725000   0.61136258   -2.5498761   -2.5498761   -1.7899033   0.03505203   -2.5498761   0.75997272   426349 
 2726000   0.61163616   -2.5499919   -2.5499919   -1.7896791  0.032798812   -2.5499919    0.7603128   426349 
 2727000   0.61092799   -2.5489431   -2.5489431   -1.7895106  0.039393325   -2.5489431   0.75943249   426349 
 2728000   0.61150804   -2.5498063   -2.5498063   -1.7896527  0.037815516   -2.5498063   0.76015354   426349 
 2729000   0.61152977   -2.5499969   -2.5499969   -1.7898164  0.035237722   -2.5499969   0.76018055   426349 
 2730000   0.61177406   -2.5512298   -2.5512298   -1.7907456  0.045603656   -2.5512298   0.76048423   426349 
 2731000   0.61167034   -2.5509235   -2.5509235   -1.7905682  0.038211405   -2.5509235   0.76035529   426349 
 2732000   0.61033813   -2.5490136   -2.5490136   -1.7903144  0.030004737   -2.5490136   0.75869925   426349 
 2733000   0.61096408   -2.5495721   -2.5495721   -1.7900947  0.036537325   -2.5495721   0.75947735   426349 
 2734000   0.61031581   -2.5496144   -2.5496144   -1.7909429  0.029660389   -2.5496144    0.7586715   426349 
 2735000   0.61129031   -2.5509496   -2.5509496   -1.7910667  0.037317732   -2.5509496   0.75988288   426349 
 2736000   0.61047607   -2.5495266   -2.5495266   -1.7906559  0.042487376   -2.5495266   0.75887071   426349 
 2737000   0.61114679    -2.550944    -2.550944   -1.7912395  0.041622603    -2.550944   0.75970448   426349 
 2738000   0.61104022   -2.5509898   -2.5509898   -1.7914178  0.047314444   -2.5509898     0.759572   426349 
 2739000   0.61157302   -2.5516357   -2.5516357   -1.7914014  0.043639619   -2.5516357   0.76023431   426349 
 2740000   0.61148666   -2.5509637   -2.5509637   -1.7908368  0.040050238   -2.5509637   0.76012696   426349 
 2741000   0.61184299   -2.5516378   -2.5516378   -1.7910679  0.039437855   -2.5516378   0.76056991   426349 
 2742000   0.61229743   -2.5523002   -2.5523002   -1.7911653  0.043436092   -2.5523002   0.76113482   426349 
 2743000   0.61087189   -2.5504259   -2.5504259   -1.7910632  0.045943358   -2.5504259   0.75936275   426349 
 2744000    0.6118343   -2.5521038   -2.5521038   -1.7915447   0.03497842   -2.5521038    0.7605591   426349 
 2745000   0.61227267   -2.5526728   -2.5526728   -1.7915687  0.039785732   -2.5526728   0.76110403   426349 
 2746000   0.61136182    -2.551262    -2.551262   -1.7912902  0.045866284    -2.551262   0.75997178   426349 
 2747000   0.61101403   -2.5510052   -2.5510052   -1.7914657  0.044501891   -2.5510052   0.75953945   426349 
 2748000   0.61137718   -2.5508383   -2.5508383   -1.7908474  0.046762442   -2.5508383   0.75999087   426349 
 2749000   0.61109945   -2.5504956   -2.5504956   -1.7908499   0.04215551   -2.5504956   0.75964562   426349 
 2750000   0.61003463   -2.5498969   -2.5498969    -1.791575  0.047415864   -2.5498969   0.75832197   426349 
 2751000   0.61100468   -2.5509325   -2.5509325   -1.7914046  0.039520075   -2.5509325   0.75952782   426349 
 2752000   0.61078052   -2.5499296   -2.5499296   -1.7906804  0.033414528   -2.5499296   0.75924917   426349 
 2753000   0.61034062   -2.5502697   -2.5502697   -1.7915673  0.039948041   -2.5502697   0.75870234   426349 
 2754000    0.6111503   -2.5501604   -2.5501604   -1.7904515  0.047391997   -2.5501604   0.75970883   426349 
 2755000   0.61096656   -2.5502131   -2.5502131   -1.7907326  0.038010771   -2.5502131   0.75948043   426349 
 2756000    0.6111493   -2.5498657   -2.5498657   -1.7901581  0.040568308   -2.5498657   0.75970759   426349 
 2757000   0.61136541   -2.5501702   -2.5501702    -1.790194  0.043350488   -2.5501702   0.75997624   426349 
 2758000    0.6109946   -2.5494265   -2.5494265   -1.7899113  0.041300248   -2.5494265   0.75951529   426349 
 2759000    0.6114467   -2.5496278   -2.5496278   -1.7895505  0.042597573   -2.5496278   0.76007728   426349 
 2760000   0.61113896   -2.5496005   -2.5496005   -1.7899058  0.043167537   -2.5496005   0.75969474   426349 
 2761000   0.61030881   -2.5497828   -2.5497828     -1.79112   0.03759604   -2.5497828   0.75866279   426349 
 2762000   0.61159229   -2.5510937   -2.5510937   -1.7908354  0.047050572   -2.5510937   0.76025827   426349 
 2763000   0.61030033   -2.5490742   -2.5490742   -1.7904219  0.034224755   -2.5490742   0.75865226   426349 
 2764000   0.61021442   -2.5496557   -2.5496557   -1.7911103   0.04120727   -2.5496557   0.75854546   426349 
 2765000   0.60970384   -2.5496084   -2.5496084   -1.7916977  0.042668506   -2.5496084   0.75791077   426349 
 2766000   0.61045584   -2.5506009   -2.5506009   -1.7917553  0.036023241   -2.5506009   0.75884556   426349 
 2767000    0.6101254   -2.5505311   -2.5505311   -1.7920963  0.043297867   -2.5505311   0.75843481   426349 
 2768000   0.61069649   -2.5512678   -2.5512678   -1.7921231  0.041030842   -2.5512678   0.75914472   426349 
 2769000   0.60942776   -2.5501761   -2.5501761   -1.7926085  0.039471979   -2.5501761   0.75756759   426349 
 2770000   0.60949021   -2.5495252   -2.5495252   -1.7918799  0.035486758   -2.5495252   0.75764521   426349 
 2771000   0.61172585   -2.5524701   -2.5524701   -1.7920459  0.032519956   -2.5524701   0.76042429   426349 
 2772000   0.61114774   -2.5518637   -2.5518637    -1.792158  0.036771224   -2.5518637   0.75970566   426349 
 2773000   0.61195806   -2.5525719   -2.5525719    -1.791859   0.03585907   -2.5525719   0.76071295   426349 
 2774000   0.61075207   -2.5508011   -2.5508011   -1.7915873  0.049380763   -2.5508011   0.75921381   426349 
 2775000   0.61302843   -2.5528473   -2.5528473   -1.7908038  0.041809183   -2.5528473    0.7620435   426349 
 2776000   0.61136049   -2.5519194   -2.5519194   -1.7919493  0.036684704   -2.5519194   0.75997011   426349 
 2777000   0.61099928   -2.5514101   -2.5514101    -1.791889  0.042949607   -2.5514101    0.7595211   426349 
 2778000    0.6108485    -2.551278    -2.551278   -1.7919443  0.040554675    -2.551278   0.75933368   426349 
 2779000   0.61033999   -2.5512238   -2.5512238   -1.7925222  0.040240004   -2.5512238   0.75870156   426349 
 2780000   0.61230461   -2.5532473   -2.5532473   -1.7921035  0.031891172   -2.5532473   0.76114374   426349 
 2781000    0.6121645    -2.553371    -2.553371   -1.7924015  0.038205166    -2.553371   0.76096957   426349 
 2782000   0.61079818   -2.5511755   -2.5511755   -1.7919044  0.036336766   -2.5511755   0.75927112   426349 
 2783000   0.61188243   -2.5524238   -2.5524238   -1.7918048  0.038290411   -2.5524238   0.76061894   426349 
 2784000   0.61282079   -2.5530504   -2.5530504    -1.791265  0.041310327   -2.5530504    0.7617854   426349 
 2785000   0.61116698   -2.5512078   -2.5512078   -1.7914783  0.038548493   -2.5512078   0.75972957   426349 
 2786000     0.610705   -2.5517682   -2.5517682   -1.7926129  0.039680059   -2.5517682   0.75915529   426349 
 2787000    0.6115145   -2.5523005   -2.5523005   -1.7921389  0.042490039   -2.5523005   0.76016156   426349 
 2788000   0.60923519   -2.5498231   -2.5498231   -1.7924949  0.036097651   -2.5498231    0.7573282   426349 
 2789000   0.60964128   -2.5510116   -2.5510116   -1.7931786  0.035301929   -2.5510116     0.757833   426349 
 2790000   0.61013674   -2.5509836   -2.5509836   -1.7925347  0.039034238   -2.5509836    0.7584489   426349 
 2791000   0.61143842   -2.5525643   -2.5525643   -1.7924973  0.034177441   -2.5525643   0.76006699   426349 
 2792000   0.60943726   -2.5501626   -2.5501626   -1.7925832  0.046547072   -2.5501626   0.75757939   426349 
 2793000   0.60973061   -2.5501472   -2.5501472   -1.7922031  0.038092814   -2.5501472   0.75794404   426349 
 2794000   0.60971796   -2.5504618   -2.5504618   -1.7925334  0.034377246   -2.5504618   0.75792832   426349 
 2795000   0.61082525   -2.5516688   -2.5516688   -1.7923641   0.03370056   -2.5516688   0.75930477   426349 
 2796000   0.61026487   -2.5515541   -2.5515541   -1.7929459  0.030685094   -2.5515541   0.75860818   426349 
 2797000   0.61060023   -2.5513024   -2.5513024   -1.7922774  0.045282717   -2.5513024   0.75902505   426349 
 2798000   0.60982015   -2.5513281   -2.5513281   -1.7932728  0.035467987   -2.5513281   0.75805535   426349 
 2799000   0.61036185   -2.5516987   -2.5516987   -1.7929699  0.035377842   -2.5516987   0.75872874   426349 
 2800000     0.610867   -2.5522535   -2.5522535   -1.7928968  0.036122164   -2.5522535   0.75935668   426349 
 2801000   0.61092592   -2.5521183   -2.5521183   -1.7926884  0.039392137   -2.5521183   0.75942991   426349 
 2802000   0.61090853   -2.5520216   -2.5520216   -1.7926133  0.046400281   -2.5520216    0.7594083   426349 
 2803000   0.61118182   -2.5522343   -2.5522343   -1.7924863   0.03717224   -2.5522343   0.75974802   426349 
 2804000   0.61029188   -2.5517707   -2.5517707   -1.7931289  0.031097649   -2.5517707   0.75864176   426349 
 2805000   0.61148816   -2.5537782   -2.5537782   -1.7936494  0.044762862   -2.5537782   0.76012883   426349 
 2806000    0.6120997   -2.5549621   -2.5549621   -1.7940731  0.044764484   -2.5549621   0.76088902   426349 
 2807000    0.6115098   -2.5538072   -2.5538072   -1.7936514  0.042080902   -2.5538072   0.76015572   426349 
 2808000   0.61071063   -2.5537197   -2.5537197   -1.7945574  0.042288485   -2.5537197   0.75916229   426349 
 2809000    0.6097879    -2.553331    -2.553331   -1.7953158  0.043401699    -2.553331   0.75801527   426349 
 2810000   0.60985151   -2.5530088   -2.5530088   -1.7949145  0.036008532   -2.5530088   0.75809434   426349 
 2811000    0.6102767   -2.5534464   -2.5534464   -1.7948235  0.039026429   -2.5534464   0.75862288   426349 
 2812000   0.60998688    -2.553526    -2.553526   -1.7952634  0.040298905    -2.553526   0.75826262   426349 
 2813000   0.61111576   -2.5543234   -2.5543234   -1.7946575  0.034706658   -2.5543234    0.7596659   426349 
 2814000   0.61121613   -2.5539905   -2.5539905   -1.7941999  0.038752847   -2.5539905   0.75979066   426349 
 2815000   0.61120322   -2.5541493   -2.5541493   -1.7943747  0.042764689   -2.5541493   0.75977462   426349 
 2816000   0.61156883   -2.5541429   -2.5541429   -1.7939138  0.039350869   -2.5541429    0.7602291   426349 
 2817000   0.60982478   -2.5521629   -2.5521629   -1.7941018  0.037644738   -2.5521629   0.75806111   426349 
 2818000   0.60995729   -2.5520976   -2.5520976   -1.7938718  0.055165824   -2.5520976   0.75822583   426349 
 2819000   0.61097586   -2.5528418   -2.5528418   -1.7933498  0.032489829   -2.5528418   0.75949199   426349 
 2820000   0.60963345   -2.5519545   -2.5519545   -1.7941312  0.039537257   -2.5519545   0.75782327   426349 
 2821000   0.61235868   -2.5545905   -2.5545905   -1.7933795  0.050434621   -2.5545905   0.76121095   426349 
 2822000   0.61033645   -2.5519249   -2.5519249   -1.7932277  0.036430719   -2.5519249   0.75869715   426349 
 2823000   0.61011322    -2.552422    -2.552422   -1.7940023   0.04559609    -2.552422   0.75841967   426349 
 2824000   0.61119895   -2.5524207   -2.5524207   -1.7926513  0.043511644   -2.5524207   0.75976931   426349 
 2825000   0.61056742   -2.5519661   -2.5519661   -1.7929818  0.041618538   -2.5519661   0.75898427   426349 
 2826000   0.60842282   -2.5507066   -2.5507066   -1.7943882  0.037842667   -2.5507066   0.75631836   426349 
 2827000   0.60860388   -2.5507163   -2.5507163   -1.7941728  0.031600455   -2.5507163   0.75654344   426349 
 2828000   0.61107024   -2.5534302   -2.5534302   -1.7938209   0.04036804   -2.5534302   0.75960931   426349 
 2829000   0.61060603   -2.5522308   -2.5522308   -1.7931985  0.036111291   -2.5522308   0.75903226   426349 
 2830000   0.61173874    -2.553572    -2.553572   -1.7931316  0.040989652    -2.553572   0.76044032   426349 
 2831000   0.61105436    -2.553139    -2.553139   -1.7935494  0.037006202    -2.553139   0.75958958   426349 
 2832000   0.61079918   -2.5523742   -2.5523742   -1.7931018  0.034702533   -2.5523742   0.75927236   426349 
 2833000   0.61065643    -2.552682    -2.552682   -1.7935871  0.040879466    -2.552682   0.75909491   426349 
 2834000   0.61183196   -2.5541875   -2.5541875   -1.7936313  0.039234472   -2.5541875   0.76055619   426349 
 2835000   0.61068311   -2.5532751   -2.5532751    -1.794147  0.042971704   -2.5532751   0.75912809   426349 
 2836000   0.61198824   -2.5532707   -2.5532707   -1.7925203  0.043546862   -2.5532707   0.76075046   426349 
 2837000   0.61142188    -2.553036    -2.553036   -1.7929895  0.047405315    -2.553036   0.76004644   426349 
 2838000   0.61168327   -2.5532742   -2.5532742   -1.7929028  0.042261806   -2.5532742   0.76037137   426349 
 2839000   0.61088361   -2.5525122   -2.5525122   -1.7931348  0.041883342   -2.5525122   0.75937732   426349 
 2840000   0.61021242   -2.5523982   -2.5523982   -1.7938553  0.033177115   -2.5523982   0.75854298   426349 
 2841000   0.60999083   -2.5519505   -2.5519505    -1.793683  0.035837821   -2.5519505   0.75826752   426349 
 2842000   0.61127384   -2.5536763   -2.5536763   -1.7938139  0.046381567   -2.5536763   0.75986241   426349 
 2843000   0.61187305   -2.5534655   -2.5534655   -1.7928583  0.045598418   -2.5534655   0.76060727   426349 
 2844000   0.61096071   -2.5522613   -2.5522613   -1.7927881   0.04260729   -2.5522613   0.75947316   426349 
 2845000    0.6112454   -2.5526246   -2.5526246   -1.7927976  0.033774754   -2.5526246   0.75982705   426349 
 2846000   0.61081344    -2.552624    -2.552624   -1.7933339  0.028244715    -2.552624   0.75929009   426349 
 2847000   0.61118776   -2.5524425   -2.5524425   -1.7926871  0.048942553   -2.5524425   0.75975541   426349 
 2848000   0.61077431   -2.5517951   -2.5517951   -1.7925537  0.037896267   -2.5517951   0.75924145   426349 
 2849000   0.61009945   -2.5516352   -2.5516352   -1.7932327   0.03845128   -2.5516352   0.75840254   426349 
 2850000   0.61135011   -2.5522948   -2.5522948   -1.7923376  0.042807146   -2.5522948   0.75995722   426349 
 2851000   0.61177831   -2.5534545   -2.5534545    -1.792965  0.042428775   -2.5534545   0.76048951   426349 
 2852000   0.61145943   -2.5534045   -2.5534045   -1.7933114  0.045576914   -2.5534045   0.76009311   426349 
 2853000   0.61044846   -2.5532391   -2.5532391   -1.7944027   0.03745128   -2.5532391   0.75883639   426349 
 2854000   0.60986724   -2.5527983   -2.5527983   -1.7946845  0.035301749   -2.5527983   0.75811389   426349 
 2855000   0.60899933    -2.551562    -2.551562    -1.794527  0.047267571    -2.551562   0.75703501   426349 
 2856000   0.61019938   -2.5530819   -2.5530819   -1.7945551  0.035414226   -2.5530819   0.75852677   426349 
 2857000   0.61038603   -2.5528505   -2.5528505   -1.7940917  0.038793867   -2.5528505   0.75875878   426349 
 2858000   0.61132155   -2.5539753   -2.5539753   -1.7940536  0.037005488   -2.5539753   0.75992171   426349 
 2859000   0.61042408   -2.5523914   -2.5523914   -1.7935853  0.045939103   -2.5523914   0.75880609   426349 
 2860000    0.6108475    -2.553229    -2.553229   -1.7938966   0.04594431    -2.553229   0.75933243   426349 
 2861000   0.61021262   -2.5530371   -2.5530371   -1.7944939  0.032116298   -2.5530371   0.75854323   426349 
 2862000   0.61033662    -2.552994    -2.552994   -1.7942966  0.035905388    -2.552994   0.75869737   426349 
 2863000   0.61226016   -2.5555273   -2.5555273   -1.7944388  0.046471043   -2.5555273   0.76108848   426349 
 2864000   0.61008112   -2.5527184   -2.5527184   -1.7943386  0.039153686   -2.5527184   0.75837976   426349 
 2865000   0.61067184   -2.5542755   -2.5542755   -1.7951615  0.042748255   -2.5542755   0.75911407   426349 
 2866000   0.61008793   -2.5532368   -2.5532368   -1.7948486  0.046383237   -2.5532368   0.75838822   426349 
 2867000    0.6097281   -2.5527496   -2.5527496   -1.7948087  0.033369932   -2.5527496   0.75794093   426349 
 2868000    0.6103274   -2.5537026   -2.5537026   -1.7950166  0.038418703   -2.5537026   0.75868591   426349 
 2869000   0.61154109   -2.5545898   -2.5545898   -1.7943952  0.040092402   -2.5545898   0.76019462   426349 
 2870000   0.61088437   -2.5541421   -2.5541421   -1.7947639  0.038508762   -2.5541421   0.75937826   426349 
 2871000   0.61052696   -2.5541279   -2.5541279   -1.7951939  0.050300875   -2.5541279   0.75893397   426349 
 2872000   0.61107282    -2.554728    -2.554728   -1.7951155  0.041609602    -2.554728   0.75961252   426349 
 2873000   0.61258369   -2.5564663   -2.5564663   -1.7949756  0.043272316   -2.5564663   0.76149066   426349 
 2874000   0.61117718   -2.5550161   -2.5550161   -1.7952738  0.045304554   -2.5550161   0.75974225   426349 
 2875000   0.61193273   -2.5561102   -2.5561102   -1.7954288  0.044824979   -2.5561102   0.76068145   426349 
 2876000   0.60970622   -2.5537907   -2.5537907    -1.795877  0.042703273   -2.5537907   0.75791373   426349 
 2877000   0.60985403   -2.5537488   -2.5537488   -1.7956513  0.036183766   -2.5537488   0.75809746   426349 
 2878000   0.60917207    -2.553969    -2.553969   -1.7967193  0.042795527    -2.553969   0.75724973   426349 
 2879000   0.60904205   -2.5539227   -2.5539227   -1.7968346   0.03849396   -2.5539227   0.75708812   426349 
 2880000   0.61043661   -2.5556035   -2.5556035   -1.7967818  0.041503729   -2.5556035   0.75882166   426349 
 2881000   0.60976884   -2.5547875   -2.5547875    -1.796796  0.028988466   -2.5547875   0.75799158   426349 
 2882000   0.61165535   -2.5562867   -2.5562867     -1.79595  0.038580212   -2.5562867   0.76033666   426349 
 2883000   0.61012384   -2.5544697   -2.5544697   -1.7960368   0.04324171   -2.5544697   0.75843287   426349 
 2884000    0.6101637   -2.5548021   -2.5548021   -1.7963197  0.039415547   -2.5548021   0.75848241   426349 
 2885000   0.61061239   -2.5545999   -2.5545999   -1.7955597  0.038677783   -2.5545999   0.75904017   426349 
 2886000   0.60877898   -2.5523213   -2.5523213   -1.7955602   0.03977145   -2.5523213   0.75676109   426349 
 2887000   0.61186093   -2.5559045   -2.5559045   -1.7953123  0.044634531   -2.5559045   0.76059221   426349 
 2888000   0.61112997   -2.5557806   -2.5557806   -1.7960971  0.036215075   -2.5557806   0.75968356   426349 
 2889000   0.61089951   -2.5549156   -2.5549156   -1.7955186  0.052891411   -2.5549156   0.75939708   426349 
 2890000   0.61149311   -2.5558137   -2.5558137   -1.7956787  0.040162387   -2.5558137   0.76013498   426349 
 2891000   0.61201039   -2.5570739   -2.5570739   -1.7962959  0.044629417   -2.5570739     0.760778   426349 
 2892000   0.61124502   -2.5564925   -2.5564925   -1.7966659  0.043265542   -2.5564925   0.75982659   426349 
 2893000   0.61007493   -2.5554312   -2.5554312   -1.7970591  0.037867642   -2.5554312   0.75837207   426349 
 2894000   0.61021893   -2.5562426   -2.5562426   -1.7976915  0.046319359   -2.5562426   0.75855106   426349 
 2895000    0.6113188   -2.5575842   -2.5575842   -1.7976659  0.046118389   -2.5575842   0.75991829   426349 
 2896000   0.61038324   -2.5576892   -2.5576892   -1.7989339  0.042226539   -2.5576892   0.75875531   426349 
 2897000   0.61029708   -2.5564911   -2.5564911   -1.7978429  0.035926864   -2.5564911   0.75864822   426349 
 2898000   0.61002043   -2.5569085   -2.5569085   -1.7986042  0.044671127   -2.5569085   0.75830432   426349 
 2899000   0.61078223   -2.5563957   -2.5563957   -1.7971444  0.039934096   -2.5563957   0.75925129   426349 
 2900000   0.61016214   -2.5556112   -2.5556112   -1.7971307  0.036837036   -2.5556112   0.75848047   426349 
 2901000   0.61007263    -2.555502    -2.555502   -1.7971328  0.043537527    -2.555502   0.75836921   426349 
 2902000   0.61009766    -2.555346    -2.555346   -1.7969456  0.040526125    -2.555346   0.75840033   426349 
 2903000   0.60921486   -2.5548307   -2.5548307   -1.7975278  0.040676215   -2.5548307   0.75730293   426349 
 2904000   0.60990235   -2.5557963   -2.5557963   -1.7976388  0.043108291   -2.5557963   0.75815754   426349 
 2905000     0.610267   -2.5560926   -2.5560926   -1.7974818  0.045047146   -2.5560926   0.75861082   426349 
 2906000   0.60972637   -2.5555388   -2.5555388      -1.7976  0.050149354   -2.5555388   0.75793878   426349 
 2907000   0.61033711   -2.5565977   -2.5565977   -1.7978997  0.049351214   -2.5565977   0.75869798   426349 
 2908000   0.61099175   -2.5570854   -2.5570854   -1.7975737  0.042086594   -2.5570854   0.75951175   426349 
 2909000   0.61070813   -2.5568005   -2.5568005   -1.7976413  0.051652124   -2.5568005   0.75915918   426349 
 2910000   0.61071445   -2.5565791   -2.5565791   -1.7974121  0.030487685   -2.5565791   0.75916704   426349 
 2911000   0.61112813   -2.5579367   -2.5579367   -1.7982555  0.039279009   -2.5579367   0.75968128   426349 
 2912000   0.60985111   -2.5562124   -2.5562124   -1.7981186  0.050055826   -2.5562124   0.75809384   426349 
 2913000   0.61236945   -2.5585546   -2.5585546   -1.7973302  0.040882428   -2.5585546   0.76122433   426349 
 2914000   0.61029099    -2.555909    -2.555909   -1.7972683  0.047069071    -2.555909   0.75864064   426349 
 2915000   0.61209909   -2.5587539   -2.5587539   -1.7978656  0.043257998   -2.5587539   0.76088825   426349 
 2916000   0.61076594   -2.5579133   -2.5579133   -1.7986822  0.039415394   -2.5579133   0.75923104   426349 
 2917000   0.61194978   -2.5587255   -2.5587255   -1.7980229  0.046715568   -2.5587255   0.76070265   426349 
 2918000   0.61119794   -2.5583511   -2.5583511    -1.798583  0.038954859   -2.5583511   0.75976806   426349 
 2919000   0.60977248   -2.5576107   -2.5576107   -1.7996146  0.040381125   -2.5576107   0.75799609   426349 
 2920000   0.61148112   -2.5591509   -2.5591509   -1.7990308  0.048876809   -2.5591509   0.76012007   426349 
 2921000   0.61105297   -2.5595028   -2.5595028    -1.799915  0.041658992   -2.5595028   0.75958785   426349 
 2922000    0.6123964   -2.5599934   -2.5599934   -1.7987355  0.037613212   -2.5599934   0.76125784   426349 
 2923000   0.61191953   -2.5592432   -2.5592432   -1.7985782  0.031774817   -2.5592432   0.76066505   426349 
 2924000   0.61222906   -2.5600094   -2.5600094   -1.7989596  0.044025193   -2.5600094   0.76104982   426349 
 2925000   0.61101805   -2.5585315   -2.5585315   -1.7989871  0.038788805   -2.5585315   0.75954444   426349 
 2926000   0.61116179    -2.558685    -2.558685   -1.7989619  0.039299703    -2.558685   0.75972312   426349 
 2927000   0.61116286    -2.558901    -2.558901   -1.7991766  0.049321095    -2.558901   0.75972446   426349 
 2928000   0.61109606   -2.5588726   -2.5588726   -1.7992312  0.035645613   -2.5588726   0.75964141   426349 
 2929000    0.6098803   -2.5575911   -2.5575911   -1.7994609  0.034534996   -2.5575911   0.75813012   426349 
 2930000   0.60965614   -2.5574354   -2.5574354    -1.799584  0.041920082   -2.5574354   0.75785147   426349 
 2931000   0.60953761   -2.5574492   -2.5574492    -1.799745  0.038891227   -2.5574492   0.75770413   426349 
 2932000   0.61008071   -2.5577893   -2.5577893     -1.79941  0.042552242   -2.5577893   0.75837925   426349 
 2933000   0.60983467   -2.5571386   -2.5571386   -1.7990652   0.03775074   -2.5571386    0.7580734   426349 
 2934000   0.61134472   -2.5588015   -2.5588015    -1.798851  0.036033778   -2.5588015   0.75995052   426349 
 2935000   0.61201168   -2.5599584   -2.5599584   -1.7991788  0.037401073   -2.5599584   0.76077961   426349 
 2936000   0.61229957   -2.5592328   -2.5592328   -1.7980953  0.045740493   -2.5592328   0.76113747   426349 
 2937000   0.61183435    -2.558438    -2.558438   -1.7978788  0.044207301    -2.558438   0.76055917   426349 
 2938000   0.61137856   -2.5575427   -2.5575427   -1.7975502  0.034854394   -2.5575427   0.75999258   426349 
 2939000    0.6104407   -2.5571535   -2.5571535   -1.7983267  0.043679388   -2.5571535   0.75882674   426349 
 2940000   0.61100307   -2.5583453   -2.5583453   -1.7988195   0.03934188   -2.5583453   0.75952582   426349 
 2941000   0.61074455   -2.5579781   -2.5579781   -1.7987737  0.034718189   -2.5579781   0.75920446   426349 
 2942000   0.61041103   -2.5576769   -2.5576769    -1.798887  0.039546738   -2.5576769   0.75878987   426349 
 2943000    0.6102538    -2.557265    -2.557265   -1.7986706  0.039324893    -2.557265   0.75859441   426349 
 2944000     0.608785    -2.556264    -2.556264   -1.7994954  0.028732139    -2.556264   0.75676859   426349 
 2945000   0.60891584     -2.55635     -2.55635   -1.7994188  0.030641651     -2.55635   0.75693122   426349 
 2946000   0.61049168   -2.5588827   -2.5588827   -1.7999926  0.030196544   -2.5588827   0.75889011   426349 
 2947000   0.60896253   -2.5570164   -2.5570164   -1.8000272  0.037854794   -2.5570164   0.75698926   426349 
 2948000   0.61060649   -2.5584071   -2.5584071   -1.7993742  0.032782368   -2.5584071   0.75903284   426349 
 2949000   0.61008278   -2.5569807   -2.5569807   -1.7985989  0.038833257   -2.5569807   0.75838182   426349 
 2950000   0.61049435   -2.5577481   -2.5577481   -1.7988547  0.028789235   -2.5577481   0.75889343   426349 
 2951000   0.60992933   -2.5582727   -2.5582727   -1.8000816   0.03422058   -2.5582727   0.75819108   426349 
 2952000   0.60995645   -2.5584055   -2.5584055   -1.8001807  0.034697724   -2.5584055   0.75822479   426349 
 2953000   0.61047212   -2.5586873   -2.5586873   -1.7998215  0.048909432   -2.5586873   0.75886581   426349 
 2954000   0.61090172   -2.5588788   -2.5588788   -1.7994789  0.042396989   -2.5588788   0.75939983   426349 
 2955000   0.61030426   -2.5594239   -2.5594239   -1.8007668  0.038442822   -2.5594239   0.75865715   426349 
 2956000   0.61121816   -2.5601121   -2.5601121   -1.8003189  0.040716653   -2.5601121   0.75979319   426349 
 2957000   0.61099966   -2.5602705   -2.5602705    -1.800749  0.045832885   -2.5602705   0.75952157   426349 
 2958000   0.61170945   -2.5611333   -2.5611333   -1.8007293  0.042898491   -2.5611333   0.76040391   426349 
 2959000   0.61079102   -2.5591263   -2.5591263    -1.799864     0.041018   -2.5591263   0.75926222   426349 
 2960000   0.61169552    -2.560703    -2.560703   -1.8003164   0.04146066    -2.560703   0.76038659   426349 
 2961000   0.61067508   -2.5594355   -2.5594355   -1.8003174  0.040412064   -2.5594355    0.7591181   426349 
 2962000   0.61163995   -2.5599835   -2.5599835    -1.799666  0.037289288   -2.5599835   0.76031752   426349 
 2963000   0.61177564   -2.5601028   -2.5601028   -1.7996166  0.043092526   -2.5601028   0.76048618   426349 
 2964000   0.61070579   -2.5590218   -2.5590218   -1.7998655  0.039974768   -2.5590218   0.75915627   426349 
 2965000   0.61093091   -2.5589697   -2.5589697   -1.7995336  0.038235621   -2.5589697   0.75943612   426349 
 2966000   0.61093071   -2.5585713   -2.5585713   -1.7991354  0.043162836   -2.5585713   0.75943587   426349 
 2967000   0.61019143   -2.5580003   -2.5580003   -1.7994834  0.037665381   -2.5580003   0.75851689   426349 
 2968000   0.61021071   -2.5580773   -2.5580773   -1.7995364  0.032827486   -2.5580773   0.75854085   426349 
 2969000   0.61105441   -2.5589964   -2.5589964   -1.7994068  0.046932211   -2.5589964   0.75958964   426349 
 2970000   0.61089114   -2.5583904   -2.5583904   -1.7990037  0.044669939   -2.5583904   0.75938668   426349 
 2971000   0.61057044   -2.5581406   -2.5581406   -1.7991526  0.039079228   -2.5581406   0.75898803   426349 
 2972000   0.61083596   -2.5590103   -2.5590103   -1.7996922   0.04322984   -2.5590103   0.75931809   426349 
 2973000   0.61099333   -2.5592683   -2.5592683   -1.7997545  0.040989768   -2.5592683   0.75951372   426349 
 2974000    0.6106404    -2.558264    -2.558264    -1.799189  0.035168734    -2.558264   0.75907499   426349 
 2975000   0.60974676   -2.5572067   -2.5572067   -1.7992426  0.052684792   -2.5572067   0.75796413   426349 
 2976000   0.60976002   -2.5581843   -2.5581843   -1.8002037   0.04283576   -2.5581843   0.75798061   426349 
 2977000   0.61074013     -2.55903     -2.55903   -1.7998311  0.040503017     -2.55903   0.75919896   426349 
 2978000   0.60978405   -2.5572704   -2.5572704   -1.7992599   0.03705996   -2.5572704   0.75801048   426349 
 2979000   0.61108912   -2.5588779   -2.5588779   -1.7992451  0.041212916   -2.5588779   0.75963278   426349 
 2980000   0.61240994   -2.5601589   -2.5601589   -1.7988842  0.043668365   -2.5601589   0.76127467   426349 
 2981000   0.61092553   -2.5587573   -2.5587573   -1.7993278  0.038448955   -2.5587573   0.75942943   426349 
 2982000   0.61242601   -2.5601263   -2.5601263   -1.7988316   0.03890834   -2.5601263   0.76129465   426349 
 2983000   0.61182865   -2.5600898   -2.5600898   -1.7995378  0.033541082   -2.5600898   0.76055208   426349 
 2984000   0.61162239    -2.560109    -2.560109   -1.7998133  0.037941795    -2.560109   0.76029568   426349 
 2985000   0.61047931     -2.55888     -2.55888   -1.8000052  0.046533548     -2.55888   0.75887474   426349 
 2986000   0.61178043   -2.5605579   -2.5605579   -1.8000657  0.042752379   -2.5605579   0.76049214   426349 
 2987000   0.61118231   -2.5610663   -2.5610663   -1.8013176   0.04770664   -2.5610663   0.75974863   426349 
 2988000   0.61099924   -2.5609832   -2.5609832   -1.8014621  0.037096776   -2.5609832   0.75952106   426349 
 2989000   0.61109747   -2.5609403   -2.5609403   -1.8012971   0.04322026   -2.5609403   0.75964317   426349 
 2990000   0.60992926   -2.5597962   -2.5597962   -1.8016052  0.035781045   -2.5597962   0.75819099   426349 
 2991000   0.61063762   -2.5604962   -2.5604962   -1.8014247  0.031552607   -2.5604962   0.75907154   426349 
 2992000   0.60962751   -2.5592848   -2.5592848   -1.8014689  0.046671056   -2.5592848   0.75781589   426349 
 2993000   0.61060564   -2.5608022   -2.5608022   -1.8017705  0.047718319   -2.5608022   0.75903178   426349 
 2994000   0.60976215   -2.5597988   -2.5597988   -1.8018155  0.042182408   -2.5597988   0.75798325   426349 
 2995000   0.61121779   -2.5620067   -2.5620067    -1.802214  0.043133302   -2.5620067   0.75979274   426349 
 2996000   0.60936347   -2.5603267   -2.5603267    -1.802839  0.043384916   -2.5603267   0.75748767   426349 
 2997000   0.61162178   -2.5621369   -2.5621369   -1.8018419  0.042156806   -2.5621369   0.76029493   426349 
 2998000   0.61071837   -2.5611497   -2.5611497   -1.8019778  0.042545936   -2.5611497   0.75917192   426349 
 2999000    0.6106322   -2.5616635   -2.5616635   -1.8025987  0.034970666   -2.5616635   0.75906479   426349 
 3000000   0.61088417   -2.5625012   -2.5625012   -1.8031232   0.04347187   -2.5625012   0.75937801   426349 
 3001000   0.61033155   -2.5625922   -2.5625922   -1.8039011  0.042152955   -2.5625922   0.75869107   426349 
 3002000   0.61192149   -2.5641187   -2.5641187   -1.8034512  0.029789579   -2.5641187   0.76066749   426349 
 3003000   0.61065119    -2.563399    -2.563399   -1.8043106   0.04048684    -2.563399    0.7590884   426349 
 3004000   0.61012523    -2.562821    -2.562821   -1.8043864  0.047331629    -2.562821    0.7584346   426349 
 3005000   0.61040701   -2.5637894   -2.5637894   -1.8050045  0.046596796   -2.5637894   0.75878487   426349 
 3006000   0.60972672   -2.5638055   -2.5638055   -1.8058663  0.038461504   -2.5638055   0.75793922   426349 
 3007000   0.60958706   -2.5631133   -2.5631133   -1.8053476  0.042103522   -2.5631133   0.75776561   426349 
 3008000   0.60951169   -2.5634543   -2.5634543   -1.8057824  0.045769759   -2.5634543   0.75767191   426349 
 3009000    0.6103915   -2.5637903   -2.5637903   -1.8050247  0.044406762   -2.5637903   0.75876559   426349 
 3010000   0.60982105   -2.5636077   -2.5636077   -1.8055512  0.048594071   -2.5636077   0.75805648   426349 
 3011000   0.61019467   -2.5632084   -2.5632084   -1.8046875  0.042138781   -2.5632084   0.75852091   426349 
 3012000   0.60965844   -2.5626419   -2.5626419   -1.8047876  0.043682548   -2.5626419   0.75785434   426349 
 3013000   0.61080959   -2.5647298   -2.5647298   -1.8054444   0.03958249   -2.5647298    0.7592853   426349 
 3014000    0.6104612   -2.5640839   -2.5640839   -1.8052317  0.032745508   -2.5640839   0.75885223   426349 
 3015000   0.61042381    -2.564095    -2.564095   -1.8052893  0.036195828    -2.564095   0.75880576   426349 
 3016000   0.60914323    -2.562394    -2.562394   -1.8051801  0.046854776    -2.562394   0.75721389   426349 
 3017000   0.60979936   -2.5635593   -2.5635593   -1.8055298  0.042518301   -2.5635593   0.75802951   426349 
 3018000   0.60997048   -2.5636803   -2.5636803   -1.8054381  0.037404619   -2.5636803   0.75824223   426349 
 3019000   0.60925026   -2.5623087   -2.5623087   -1.8049617  0.047589534   -2.5623087   0.75734694   426349 
 3020000   0.61006967   -2.5632217   -2.5632217   -1.8048561  0.035399639   -2.5632217   0.75836553   426349 
 3021000   0.60871441   -2.5610839   -2.5610839   -1.8044031  0.043161112   -2.5610839   0.75668084   426349 
 3022000   0.60973194    -2.562479    -2.562479   -1.8045333   0.04042073    -2.562479   0.75794571   426349 
 3023000    0.6105434   -2.5625812   -2.5625812   -1.8036268   0.03351494   -2.5625812   0.75895441   426349 
 3024000   0.60945913   -2.5616527   -2.5616527   -1.8040462  0.041750965   -2.5616527   0.75760657   426349 
 3025000   0.60924548   -2.5607842   -2.5607842   -1.8034432  0.053631893   -2.5607842   0.75734099   426349 
 3026000   0.60999213     -2.56203     -2.56203   -1.8037608  0.041060151     -2.56203   0.75826914   426349 
 3027000   0.61000547   -2.5620837   -2.5620837    -1.803798  0.038740709   -2.5620837   0.75828572   426349 
 3028000   0.61012476   -2.5627546   -2.5627546   -1.8043206   0.04907163   -2.5627546   0.75843401   426349 
 3029000   0.60959909   -2.5620625   -2.5620625   -1.8042819  0.042741615   -2.5620625   0.75778056   426349 
 3030000   0.61115086   -2.5634406   -2.5634406    -1.803731  0.041963545   -2.5634406   0.75970953   426349 
 3031000   0.60915591   -2.5609602   -2.5609602   -1.8037305  0.050658465   -2.5609602   0.75722965   426349 
 3032000   0.60937133   -2.5612861   -2.5612861   -1.8037887  0.045568435   -2.5612861   0.75749744   426349 
 3033000   0.61023521   -2.5613234   -2.5613234   -1.8027521  0.044074646   -2.5613234   0.75857131   426349 
 3034000   0.60955644   -2.5611895   -2.5611895    -1.803462  0.048614084   -2.5611895   0.75772754   426349 
 3035000   0.60995072    -2.561977    -2.561977   -1.8037594   0.03854598    -2.561977   0.75821766   426349 
 3036000   0.61011633   -2.5625171   -2.5625171   -1.8040936  0.047524244   -2.5625171   0.75842353   426349 
 3037000   0.60919186   -2.5617864   -2.5617864    -1.804512  0.044224195   -2.5617864   0.75727434   426349 
 3038000   0.60964156   -2.5621026   -2.5621026   -1.8042693  0.042958924   -2.5621026   0.75783335   426349 
 3039000   0.61017853   -2.5637272   -2.5637272   -1.8052263  0.034925301   -2.5637272   0.75850084   426349 
 3040000   0.61014575   -2.5635179   -2.5635179   -1.8050578  0.041982856   -2.5635179    0.7584601   426349 
 3041000   0.60914276   -2.5624941   -2.5624941   -1.8052808  0.044630842   -2.5624941   0.75721331   426349 
 3042000   0.60988793   -2.5623355   -2.5623355   -1.8041959  0.038595197   -2.5623355   0.75813961   426349 
 3043000   0.60946411   -2.5616038   -2.5616038   -1.8039911  0.038927659   -2.5616038   0.75761277   426349 
 3044000   0.60943715   -2.5613394   -2.5613394   -1.8037602  0.028469777   -2.5613394   0.75757925   426349 
 3045000   0.60912865   -2.5617046   -2.5617046   -1.8045089  0.033914993   -2.5617046   0.75719576   426349 
 3046000   0.61026738   -2.5634492   -2.5634492   -1.8048379  0.032018667   -2.5634492    0.7586113   426349 
 3047000   0.61049096   -2.5636532   -2.5636532    -1.804764  0.034449587   -2.5636532   0.75888922   426349 
 3048000   0.60992017   -2.5626655   -2.5626655   -1.8044858  0.046552703   -2.5626655   0.75817969   426349 
 3049000   0.60914096   -2.5620781   -2.5620781   -1.8048671  0.040058722   -2.5620781   0.75721106   426349 
 3050000   0.60971747    -2.562963    -2.562963   -1.8050353  0.038540567    -2.562963   0.75792772   426349 
 3051000   0.61010993   -2.5637147   -2.5637147   -1.8052992   0.03512207   -2.5637147   0.75841557   426349 
 3052000    0.6100885   -2.5642062   -2.5642062   -1.8058173  0.038518558   -2.5642062   0.75838894   426349 
 3053000   0.60962216   -2.5632337   -2.5632337   -1.8054244  0.045372286   -2.5632337   0.75780923   426349 
 3054000   0.61011977   -2.5641878   -2.5641878     -1.80576  0.040007677   -2.5641878   0.75842781   426349 
 3055000   0.61076359    -2.565483    -2.565483   -1.8062549  0.039108652    -2.565483   0.75922813   426349 
 3056000   0.61048532    -2.564855    -2.564855   -1.8059728  0.040535156    -2.564855   0.75888221   426349 
 3057000   0.61044647   -2.5648221   -2.5648221   -1.8059882  0.040047305   -2.5648221   0.75883392   426349 
 3058000    0.6105714   -2.5645737   -2.5645737   -1.8055845  0.049930386   -2.5645737   0.75898922   426349 
 3059000   0.61040557   -2.5646032   -2.5646032   -1.8058201  0.051101784   -2.5646032   0.75878308   426349 
 3060000   0.61007975   -2.5641117   -2.5641117   -1.8057337  0.035012118   -2.5641117   0.75837806   426349 
 3061000   0.61030275   -2.5638044   -2.5638044   -1.8051492  0.029211847   -2.5638044   0.75865526   426349 
 3062000   0.60955581   -2.5628703   -2.5628703   -1.8051435  0.044974917   -2.5628703   0.75772675   426349 
 3063000   0.60952487   -2.5624101   -2.5624101   -1.8047218  0.028913063   -2.5624101   0.75768829   426349 
 3064000   0.60933842    -2.562047    -2.562047   -1.8045905  0.035568955    -2.562047   0.75745653   426349 
 3065000   0.60994673   -2.5624999   -2.5624999   -1.8042872  0.036779609   -2.5624999   0.75821271   426349 
 3066000   0.60932319   -2.5621236   -2.5621236    -1.804686  0.043081497   -2.5621236   0.75743759   426349 
 3067000   0.60897492   -2.5610097   -2.5610097   -1.8040051   0.03901944   -2.5610097   0.75700467   426349 
 3068000   0.60932992   -2.5615768   -2.5615768   -1.8041309  0.048449046   -2.5615768   0.75744596   426349 
 3069000   0.60910302   -2.5613781   -2.5613781   -1.8042142  0.043141198   -2.5613781    0.7571639   426349 
 3070000   0.60914296   -2.5614992   -2.5614992   -1.8042857  0.029026768   -2.5614992   0.75721355   426349 
 3071000     0.609824   -2.5624246   -2.5624246   -1.8043644  0.035218912   -2.5624246   0.75806014   426349 
 3072000     0.608725   -2.5618233   -2.5618233   -1.8051293  0.046839718   -2.5618233     0.756694   426349 
 3073000   0.61016403    -2.563483    -2.563483   -1.8050002  0.039187529    -2.563483   0.75848283   426349 
 3074000   0.60975244   -2.5620053   -2.5620053   -1.8040341  0.044854521   -2.5620053   0.75797118   426349 
 3075000     0.609595   -2.5623045   -2.5623045    -1.804529  0.040662763   -2.5623045   0.75777548   426349 
 3076000   0.60978119   -2.5622654   -2.5622654   -1.8042585  0.038468838   -2.5622654   0.75800692   426349 
 3077000   0.60955419   -2.5624288   -2.5624288   -1.8047041  0.035214443   -2.5624288   0.75772474   426349 
 3078000     0.610632   -2.5636562   -2.5636562   -1.8045917  0.042249868   -2.5636562   0.75906454   426349 
 3079000   0.61054024   -2.5633809   -2.5633809   -1.8044304  0.047504687   -2.5633809   0.75895048   426349 
 3080000   0.61019254    -2.563051    -2.563051   -1.8045327  0.034459998    -2.563051   0.75851827   426349 
 3081000    0.6099273   -2.5616123   -2.5616123   -1.8034238  0.041869512   -2.5616123   0.75818854   426349 
 3082000   0.60913322   -2.5609188   -2.5609188   -1.8037173  0.030215582   -2.5609188   0.75720144   426349 
 3083000   0.61091296   -2.5636345   -2.5636345   -1.8042207  0.036039211   -2.5636345    0.7594138   426349 
 3084000   0.60958944   -2.5619068   -2.5619068   -1.8041382  0.035174854   -2.5619068   0.75776856   426349 
 3085000   0.61097132   -2.5636031   -2.5636031   -1.8041167  0.035799099   -2.5636031   0.75948635   426349 
 3086000   0.61112882    -2.563545    -2.563545   -1.8038629  0.047984402    -2.563545   0.75968214   426349 
 3087000   0.61000958   -2.5628628   -2.5628628    -1.804572  0.046060404   -2.5628628   0.75829083   426349 
 3088000   0.61008897   -2.5620283   -2.5620283   -1.8036388  0.045828896   -2.5620283   0.75838951   426349 
 3089000   0.61034702   -2.5629174   -2.5629174   -1.8042071  0.044614479   -2.5629174    0.7587103   426349 
 3090000   0.61134956   -2.5643045   -2.5643045   -1.8043479  0.035001906   -2.5643045   0.75995653   426349 
 3091000   0.60905354   -2.5622041   -2.5622041   -1.8051017   0.03909967   -2.5622041    0.7571024   426349 
 3092000   0.60936992   -2.5630496   -2.5630496   -1.8055539  0.035663082   -2.5630496   0.75749568   426349 
 3093000   0.60867023   -2.5624272   -2.5624272   -1.8058013  0.036963841   -2.5624272   0.75662591   426349 
 3094000   0.60895668   -2.5630183   -2.5630183   -1.8060363  0.036221903   -2.5630183   0.75698199   426349 
 3095000   0.60954169   -2.5638155   -2.5638155   -1.8061063   0.03240986   -2.5638155   0.75770921   426349 
 3096000   0.60808902   -2.5619478   -2.5619478   -1.8060444  0.042396055   -2.5619478   0.75590342   426349 
 3097000   0.60876208   -2.5627076   -2.5627076   -1.8059675  0.036035843   -2.5627076   0.75674009   426349 
 3098000    0.6095141   -2.5630061   -2.5630061   -1.8053312  0.041628557   -2.5630061   0.75767491   426349 
 3099000   0.60967032   -2.5632891   -2.5632891     -1.80542  0.035945312   -2.5632891   0.75786911   426349 
 3100000   0.61102052   -2.5652751   -2.5652751   -1.8057276  0.041349903   -2.5652751   0.75954751   426349 
 3101000   0.60908555   -2.5626073   -2.5626073   -1.8054651  0.033490763   -2.5626073   0.75714218   426349 
 3102000   0.60911971   -2.5628251   -2.5628251   -1.8056405  0.044222385   -2.5628251   0.75718465   426349 
 3103000   0.60966449   -2.5632828   -2.5632828    -1.805421  0.042750021   -2.5632828   0.75786185   426349 
 3104000   0.60878685   -2.5622625   -2.5622625   -1.8054916  0.030377974   -2.5622625   0.75677088   426349 
 3105000   0.60912178    -2.563655    -2.563655   -1.8064678  0.035123705    -2.563655   0.75718722   426349 
 3106000    0.6113348   -2.5659029   -2.5659029   -1.8059647  0.047611053   -2.5659029   0.75993818   426349 
 3107000   0.60944561   -2.5636073   -2.5636073   -1.8060175  0.044529232   -2.5636073   0.75758977   426349 
 3108000    0.6105441   -2.5651266   -2.5651266   -1.8061713  0.036630614   -2.5651266   0.75895529   426349 
 3109000   0.61072477   -2.5656382   -2.5656382   -1.8064583  0.039750199   -2.5656382   0.75917987   426349 
 3110000   0.61107369   -2.5658082   -2.5658082   -1.8061946  0.042296919   -2.5658082   0.75961361   426349 
 3111000   0.61011379   -2.5657618   -2.5657618   -1.8073415  0.035155645   -2.5657618   0.75842037   426349 
 3112000   0.60960699   -2.5655931   -2.5655931   -1.8078027  0.033838186   -2.5655931   0.75779037   426349 
 3113000   0.61000125   -2.5655249   -2.5655249   -1.8072444  0.040292528   -2.5655249   0.75828048   426349 
 3114000   0.61019681   -2.5659043   -2.5659043   -1.8073808  0.045005073   -2.5659043   0.75852357   426349 
 3115000   0.61045133     -2.56639     -2.56639   -1.8075501  0.041824118     -2.56639   0.75883996   426349 
 3116000   0.60904069    -2.564144    -2.564144   -1.8070576  0.047491712    -2.564144   0.75708643   426349 
 3117000   0.60912888   -2.5645044   -2.5645044   -1.8073083  0.044825097   -2.5645044   0.75719605   426349 
 3118000   0.60995671   -2.5653439   -2.5653439   -1.8071188  0.041023302   -2.5653439    0.7582251   426349 
 3119000    0.6102055   -2.5651727   -2.5651727   -1.8066384  0.037436886   -2.5651727   0.75853437   426349 
 3120000   0.61064953    -2.565682    -2.565682   -1.8065957  0.032125003    -2.565682   0.75908633   426349 
 3121000   0.60932909   -2.5634621   -2.5634621   -1.8060172  0.041508318   -2.5634621   0.75744493   426349 
 3122000   0.60907943   -2.5637891   -2.5637891   -1.8066545   0.04750044   -2.5637891   0.75713458   426349 
 3123000   0.60884304   -2.5635638   -2.5635638   -1.8067231  0.039565484   -2.5635638   0.75684073   426349 
 3124000   0.60868566   -2.5631974   -2.5631974   -1.8065523   0.04422081   -2.5631974   0.75664509   426349 
 3125000   0.60759165   -2.5626683   -2.5626683   -1.8073831  0.034387171   -2.5626683   0.75528514   426349 
 3126000   0.60823337   -2.5637278   -2.5637278   -1.8076449  0.028826215   -2.5637278   0.75608286   426349 
 3127000   0.60816573   -2.5630193   -2.5630193   -1.8070205  0.040585708   -2.5630193   0.75599877   426349 
 3128000   0.60863029   -2.5635777   -2.5635777   -1.8070015  0.035494633   -2.5635777   0.75657626   426349 
 3129000   0.60929952   -2.5644516   -2.5644516   -1.8070435  0.037493389   -2.5644516   0.75740817   426349 
 3130000   0.60926905   -2.5647304   -2.5647304   -1.8073601  0.038545074   -2.5647304    0.7573703   426349 
 3131000   0.60941587   -2.5649754   -2.5649754   -1.8074226  0.028198561   -2.5649754    0.7575528   426349 
 3132000   0.60863875   -2.5640218   -2.5640218    -1.807435  0.037648999   -2.5640218   0.75658678   426349 
 3133000   0.60900535     -2.56456     -2.56456   -1.8075175  0.035856448     -2.56456    0.7570425   426349 
 3134000   0.60919562   -2.5643984   -2.5643984   -1.8071194  0.039078616   -2.5643984   0.75727901   426349 
 3135000   0.60958088   -2.5655024   -2.5655024   -1.8077445  0.045793091   -2.5655024   0.75775792   426349 
 3136000   0.60969525   -2.5652098   -2.5652098   -1.8073097  0.039158269   -2.5652098    0.7579001   426349 
 3137000   0.61010754   -2.5654522   -2.5654522   -1.8070396  0.032817801   -2.5654522    0.7584126   426349 
 3138000   0.61090761   -2.5664246   -2.5664246   -1.8070174   0.04175646   -2.5664246   0.75940715   426349 
 3139000   0.61087253   -2.5657649   -2.5657649   -1.8064014  0.051335857   -2.5657649   0.75936355   426349 
 3140000   0.60986329   -2.5653958   -2.5653958   -1.8072868  0.040199226   -2.5653958   0.75810898   426349 
 3141000   0.60946514   -2.5657316   -2.5657316   -1.8081176  0.041155509   -2.5657316   0.75761405   426349 
 3142000   0.60923871    -2.566503    -2.566503   -1.8091705  0.035579081    -2.566503   0.75733258   426349 
 3143000   0.60923861   -2.5663305   -2.5663305    -1.808998  0.037061138   -2.5663305   0.75733245   426349 
 3144000   0.60925229   -2.5665867   -2.5665867   -1.8092372  0.046593697   -2.5665867   0.75734946   426349 
 3145000   0.60887221   -2.5662346   -2.5662346   -1.8093576  0.037331302   -2.5662346   0.75687699   426349 
 3146000   0.60908483   -2.5672426   -2.5672426   -1.8101013  0.042186988   -2.5672426   0.75714129   426349 
 3147000   0.60903288   -2.5665689   -2.5665689   -1.8094922  0.033908087   -2.5665689   0.75707672   426349 
 3148000   0.60936505   -2.5664415   -2.5664415   -1.8089518  0.034841034   -2.5664415   0.75748962   426349 
 3149000   0.60880424   -2.5660465   -2.5660465    -1.809254  0.037603482   -2.5660465    0.7567925   426349 
 3150000   0.60799608   -2.5656244   -2.5656244   -1.8098365  0.036732371   -2.5656244   0.75578789   426349 
 3151000   0.60900985   -2.5671265   -2.5671265   -1.8100784  0.032547674   -2.5671265   0.75704809   426349 
 3152000   0.60904736   -2.5666962   -2.5666962   -1.8096014  0.028850496   -2.5666962   0.75709471   426349 
 3153000   0.60900575   -2.5665543   -2.5665543   -1.8095113  0.037281269   -2.5665543   0.75704299   426349 
 3154000   0.60836287   -2.5666725   -2.5666725   -1.8104286  0.035380687   -2.5666725   0.75624384   426349 
 3155000   0.60803752   -2.5662498   -2.5662498   -1.8104104  0.040106018   -2.5662498   0.75583941   426349 
 3156000   0.60962592   -2.5687546   -2.5687546   -1.8109407  0.031783999   -2.5687546   0.75781391   426349 
 3157000   0.61028648   -2.5698862   -2.5698862   -1.8112512  0.036635639   -2.5698862   0.75863504   426349 
 3158000   0.60928818   -2.5681677   -2.5681677   -1.8107736  0.025358542   -2.5681677   0.75739408   426349 
 3159000   0.60870321   -2.5677016   -2.5677016   -1.8110347  0.046067091   -2.5677016    0.7566669   426349 
 3160000   0.60869505   -2.5685708   -2.5685708    -1.811914  0.038836426   -2.5685708   0.75665677   426349 
 3161000   0.60785023   -2.5680612   -2.5680612   -1.8124546   0.04248944   -2.5680612   0.75560658   426349 
 3162000   0.60846635   -2.5682886   -2.5682886   -1.8119161  0.033292913   -2.5682886   0.75637247   426349 
 3163000   0.60987167    -2.568758    -2.568758   -1.8106386  0.035755933    -2.568758   0.75811939   426349 
 3164000     0.608412   -2.5676525   -2.5676525   -1.8113476   0.03807661   -2.5676525   0.75630491   426349 
 3165000    0.6096877   -2.5682542   -2.5682542   -1.8103634  0.038585061   -2.5682542    0.7578907   426349 
 3166000   0.61035447   -2.5689472   -2.5689472   -1.8102276  0.039290908   -2.5689472   0.75871956   426349 
 3167000   0.60938445   -2.5678225   -2.5678225   -1.8103088  0.037541591   -2.5678225   0.75751374   426349 
 3168000   0.61009764   -2.5683928   -2.5683928   -1.8099926  0.033842224   -2.5683928   0.75840029   426349 
 3169000   0.60902648   -2.5670142   -2.5670142   -1.8099454  0.042130368   -2.5670142   0.75706876   426349 
 3170000   0.60988335   -2.5671233   -2.5671233   -1.8089894  0.035171594   -2.5671233   0.75813392   426349 
 3171000   0.60881413   -2.5664698   -2.5664698    -1.809665  0.034927342   -2.5664698   0.75680478   426349 
 3172000   0.60966934   -2.5674309   -2.5674309    -1.809563  0.031799123   -2.5674309   0.75786789   426349 
 3173000   0.60950957   -2.5676509   -2.5676509   -1.8099816  0.041171754   -2.5676509   0.75766928   426349 
 3174000   0.60886026   -2.5671614   -2.5671614   -1.8102992  0.043367252   -2.5671614   0.75686213   426349 
 3175000      0.60941   -2.5676405   -2.5676405    -1.810095  0.030025984   -2.5676405    0.7575455   426349 
 3176000   0.60939702   -2.5681692   -2.5681692   -1.8106398  0.038250138   -2.5681692   0.75752936   426349 
 3177000   0.60952955    -2.567918    -2.567918   -1.8102239  0.033075261    -2.567918   0.75769412   426349 
 3178000   0.60911151   -2.5675153   -2.5675153   -1.8103408  0.040006099   -2.5675153   0.75717446   426349 
 3179000   0.60904657   -2.5666465   -2.5666465   -1.8095527  0.032354793   -2.5666465   0.75709373   426349 
 3180000   0.60991332   -2.5675339   -2.5675339   -1.8093628  0.042717199   -2.5675339   0.75817117   426349 
 3181000   0.60849359   -2.5660421   -2.5660421   -1.8096358  0.041359303   -2.5660421   0.75640634   426349 
 3182000   0.60989195   -2.5681601   -2.5681601   -1.8100155  0.036070742   -2.5681601   0.75814461   426349 
 3183000   0.60945436   -2.5680208   -2.5680208   -1.8104202  0.041810549   -2.5680208   0.75760064   426349 
 3184000   0.61048792   -2.5689243   -2.5689243   -1.8100388  0.031976754   -2.5689243   0.75888545   426349 
 3185000   0.61011503   -2.5683979   -2.5683979   -1.8099759  0.033086833   -2.5683979   0.75842192   426349 
 3186000    0.6095445   -2.5680314   -2.5680314   -1.8103187  0.040305549   -2.5680314    0.7577127   426349 
 3187000   0.61020744   -2.5688723   -2.5688723   -1.8103355  0.030531712   -2.5688723   0.75853679   426349 
 3188000   0.60899339   -2.5670683   -2.5670683   -1.8100407  0.032203305   -2.5670683   0.75702762   426349 
 3189000   0.61017931   -2.5693003   -2.5693003   -1.8107985  0.039376864   -2.5693003   0.75850182   426349 
 3190000   0.60974522   -2.5686442   -2.5686442    -1.810682  0.036035982   -2.5686442   0.75796221   426349 
 3191000   0.60894735   -2.5678686   -2.5678686   -1.8108982  0.037298096   -2.5678686    0.7569704   426349 
 3192000   0.60968553    -2.568332    -2.568332    -1.810444  0.036951966    -2.568332   0.75788801   426349 
 3193000   0.60939546   -2.5683248   -2.5683248   -1.8107973  0.044875016   -2.5683248   0.75752743   426349 
 3194000   0.60976384   -2.5690667   -2.5690667   -1.8110813  0.032515504   -2.5690667   0.75798535   426349 
 3195000   0.60790326   -2.5676659   -2.5676659   -1.8119934  0.026541435   -2.5676659    0.7556725   426349 
 3196000    0.6091083   -2.5687434   -2.5687434   -1.8115729  0.044580122   -2.5687434   0.75717047   426349 
 3197000   0.60845888   -2.5686801   -2.5686801   -1.8123169  0.039872511   -2.5686801   0.75636319   426349 
 3198000   0.60896644   -2.5685811   -2.5685811    -1.811587  0.032381631   -2.5685811   0.75699412   426349 
 3199000   0.61009785   -2.5700276   -2.5700276    -1.811627  0.041055497   -2.5700276   0.75840056   426349 
 3200000    0.6091143   -2.5681753   -2.5681753   -1.8109974   0.04674544   -2.5681753   0.75717793   426349 
 3201000   0.60994593   -2.5689361   -2.5689361   -1.8107244  0.042510229   -2.5689361   0.75821171   426349 
 3202000   0.60990692   -2.5688173   -2.5688173   -1.8106541  0.039718711   -2.5688173   0.75816322   426349 
 3203000   0.60896392    -2.567823    -2.567823    -1.810832  0.035505209    -2.567823   0.75699099   426349 
 3204000   0.60928863   -2.5685129   -2.5685129   -1.8111183  0.042009868   -2.5685129   0.75739463   426349 
 3205000   0.60863075   -2.5679768   -2.5679768      -1.8114  0.035551758   -2.5679768   0.75657684   426349 
 3206000   0.60939081   -2.5688896   -2.5688896   -1.8113679  0.039258916   -2.5688896   0.75752165   426349 
 3207000   0.61039717   -2.5697112   -2.5697112   -1.8109386  0.035094986   -2.5697112   0.75877264   426349 
 3208000   0.61034597   -2.5699915   -2.5699915   -1.8112826  0.042477777   -2.5699915   0.75870899   426349 
 3209000   0.60953919   -2.5694062   -2.5694062   -1.8117001  0.044147871   -2.5694062    0.7577061   426349 
 3210000   0.60848879   -2.5683979   -2.5683979   -1.8119975  0.035113873   -2.5683979   0.75640037   426349 
 3211000   0.60834895   -2.5683156   -2.5683156    -1.812089  0.047262632   -2.5683156   0.75622653   426349 
 3212000   0.60946848   -2.5689725   -2.5689725   -1.8113544  0.033242855   -2.5689725    0.7576182   426349 
 3213000   0.60887396   -2.5680204   -2.5680204   -1.8111413  0.033642348   -2.5680204   0.75687917   426349 
 3214000   0.60946526   -2.5690578   -2.5690578   -1.8114436  0.045633974   -2.5690578    0.7576142   426349 
 3215000   0.60980061   -2.5688469   -2.5688469   -1.8108158  0.046461783   -2.5688469   0.75803106   426349 
 3216000    0.6109283   -2.5704602   -2.5704602   -1.8110273  0.042756425   -2.5704602   0.75943287   426349 
 3217000   0.60947745   -2.5683893   -2.5683893   -1.8107599  0.039219335   -2.5683893   0.75762935   426349 
 3218000   0.60969268   -2.5677016   -2.5677016   -1.8098047  0.036040691   -2.5677016    0.7578969   426349 
 3219000   0.61011075   -2.5686123   -2.5686123   -1.8101957  0.034477992   -2.5686123   0.75841659   426349 
 3220000   0.60903486   -2.5676935   -2.5676935   -1.8106143  0.040060959   -2.5676935   0.75707918   426349 
 3221000   0.60879989   -2.5669774   -2.5669774   -1.8101903  0.035058041   -2.5669774   0.75678709   426349 
 3222000   0.60902507     -2.56723     -2.56723    -1.810163  0.031985304     -2.56723     0.757067   426349 
 3223000   0.60992007   -2.5681723   -2.5681723   -1.8099927  0.032991088   -2.5681723   0.75817956   426349 
 3224000    0.6100848   -2.5677534   -2.5677534    -1.809369  0.030209776   -2.5677534   0.75838434   426349 
 3225000     0.609285   -2.5666718   -2.5666718   -1.8092817   0.03765463   -2.5666718   0.75739012   426349 
 3226000   0.60962932   -2.5668462   -2.5668462   -1.8090281   0.03166686   -2.5668462   0.75781814   426349 
 3227000   0.60923525     -2.56623     -2.56623   -1.8089018  0.042123778     -2.56623   0.75732827   426349 
 3228000   0.60945094   -2.5673937   -2.5673937   -1.8097973  0.036866219   -2.5673937    0.7575964   426349 
 3229000   0.60881346   -2.5673161   -2.5673161   -1.8105121  0.037534184   -2.5673161   0.75680396   426349 
 3230000   0.60874199   -2.5665758   -2.5665758   -1.8098606  0.036210198   -2.5665758   0.75671512   426349 
 3231000   0.60946149   -2.5676538   -2.5676538   -1.8100443  0.040569883   -2.5676538   0.75760951   426349 
 3232000   0.60854575   -2.5670171   -2.5670171   -1.8105459  0.037652174   -2.5670171   0.75647117   426349 
 3233000    0.6092678   -2.5678824   -2.5678824   -1.8105137  0.036577011   -2.5678824   0.75736874   426349 
 3234000   0.60889525   -2.5686256   -2.5686256     -1.81172  0.039441201   -2.5686256   0.75690562   426349 
 3235000    0.6088314   -2.5688386   -2.5688386   -1.8120123  0.037619767   -2.5688386   0.75682626   426349 
 3236000   0.60944645   -2.5693993   -2.5693993   -1.8118085  0.033058339   -2.5693993   0.75759082   426349 
 3237000   0.60735283   -2.5673032   -2.5673032    -1.812315  0.040569355   -2.5673032   0.75498828   426349 
 3238000   0.60817104   -2.5687192   -2.5687192   -1.8127138  0.044876909   -2.5687192   0.75600537   426349 
 3239000   0.60903887   -2.5697987   -2.5697987   -1.8127145  0.029647111   -2.5697987   0.75708416   426349 
 3240000   0.60863585   -2.5697592   -2.5697592   -1.8131761  0.047574845   -2.5697592   0.75658317   426349 
 3241000   0.60876349   -2.5702729   -2.5702729   -1.8135311  0.050528404   -2.5702729   0.75674183   426349 
 3242000    0.6083021    -2.569902    -2.569902   -1.8137337  0.043752578    -2.569902    0.7561683   426349 
 3243000   0.60895397   -2.5700165   -2.5700165   -1.8130379  0.036284159   -2.5700165   0.75697862   426349 
 3244000    0.6099592   -2.5705782   -2.5705782     -1.81235  0.035743851   -2.5705782    0.7582282   426349 
 3245000   0.61071996   -2.5713733   -2.5713733   -1.8121994  0.046092055   -2.5713733   0.75917389   426349 
 3246000   0.60977697   -2.5700877   -2.5700877    -1.812086  0.046421756   -2.5700877   0.75800168   426349 
 3247000   0.61158321   -2.5726067   -2.5726067   -1.8123597  0.040485872   -2.5726067   0.76024697   426349 
 3248000    0.6102208   -2.5708697   -2.5708697   -1.8123163  0.042042479   -2.5708697   0.75855339   426349 
 3249000    0.6103754    -2.571528    -2.571528   -1.8127825   0.04699081    -2.571528   0.75874557   426349 
 3250000   0.60965653   -2.5708766   -2.5708766   -1.8130246  0.045040162   -2.5708766   0.75785196   426349 
 3251000    0.6093821   -2.5699665   -2.5699665   -1.8124557   0.03632727   -2.5699665   0.75751082   426349 
 3252000   0.60814126   -2.5689243   -2.5689243   -1.8129559  0.038129622   -2.5689243   0.75596836   426349 
 3253000   0.60933775   -2.5702472   -2.5702472   -1.8127915  0.041685627   -2.5702472   0.75745569   426349 
 3254000   0.60842382   -2.5689194   -2.5689194   -1.8125998  0.035759995   -2.5689194    0.7563196   426349 
 3255000   0.61071697   -2.5719123   -2.5719123   -1.8127421  0.041675419   -2.5719123   0.75917017   426349 
 3256000   0.60936662   -2.5704495   -2.5704495   -1.8129579  0.040280381   -2.5704495   0.75749158   426349 
 3257000   0.60899808   -2.5699416   -2.5699416   -1.8129082  0.029820004   -2.5699416   0.75703346   426349 
 3258000    0.6090222   -2.5694656   -2.5694656   -1.8124022  0.032850802   -2.5694656   0.75706343   426349 
 3259000    0.6092612   -2.5692392   -2.5692392   -1.8118787  0.031119601   -2.5692392   0.75736054   426349 
 3260000   0.60930483   -2.5685719   -2.5685719   -1.8111571  0.039601186   -2.5685719   0.75741478   426349 
 3261000   0.60907148   -2.5686996   -2.5686996   -1.8115749  0.038112944   -2.5686996   0.75712469   426349 
 3262000   0.60933087   -2.5691458   -2.5691458   -1.8116987  0.041504718   -2.5691458   0.75744714   426349 
 3263000   0.60860211   -2.5681056   -2.5681056   -1.8115644  0.036513048   -2.5681056   0.75654123   426349 
 3264000   0.60917077   -2.5693908   -2.5693908   -1.8121427  0.035783183   -2.5693908   0.75724813   426349 
 3265000    0.6091743   -2.5706389   -2.5706389   -1.8133864  0.034069688   -2.5706389   0.75725251   426349 
 3266000   0.60890088   -2.5696229   -2.5696229   -1.8127102  0.035899786   -2.5696229   0.75691263   426349 
 3267000   0.60855478   -2.5689744   -2.5689744    -1.812492  0.041775267   -2.5689744   0.75648239   426349 
 3268000   0.60941693   -2.5704545   -2.5704545   -1.8129004  0.046096416   -2.5704545   0.75755411   426349 
 3269000   0.60948148   -2.5709551   -2.5709551   -1.8133207  0.042519487   -2.5709551   0.75763436   426349 
 3270000   0.60956439   -2.5714796   -2.5714796   -1.8137422  0.034434844   -2.5714796   0.75773742   426349 
 3271000   0.60883686   -2.5703669   -2.5703669   -1.8135339  0.037656602   -2.5703669   0.75683305   426349 
 3272000   0.60908918   -2.5711089   -2.5711089   -1.8139622  0.039605215   -2.5711089    0.7571467   426349 
 3273000   0.60858648   -2.5706681   -2.5706681   -1.8141463   0.03882626   -2.5706681    0.7565218   426349 
 3274000   0.60988074    -2.571933    -2.571933   -1.8138023  0.037601819    -2.571933   0.75813067   426349 
 3275000   0.61004205   -2.5722156   -2.5722156   -1.8138844  0.039941077   -2.5722156   0.75833119   426349 
 3276000   0.60917453   -2.5720318   -2.5720318    -1.814779  0.045101942   -2.5720318    0.7572528   426349 
 3277000   0.60910229   -2.5725804   -2.5725804   -1.8154174  0.030204321   -2.5725804   0.75716299   426349 
 3278000   0.60878646   -2.5725442   -2.5725442   -1.8157738  0.042732397   -2.5725442   0.75677039   426349 
 3279000   0.60846504   -2.5726426   -2.5726426   -1.8162717  0.045240284   -2.5726426   0.75637084   426349 
 3280000   0.60892934   -2.5727251   -2.5727251   -1.8157771  0.047014135   -2.5727251     0.756948   426349 
 3281000   0.60882169   -2.5716058   -2.5716058   -1.8147916  0.035743214   -2.5716058   0.75681418   426349 
 3282000   0.60968544   -2.5728678   -2.5728678   -1.8149799  0.036422074   -2.5728678   0.75788789   426349 
 3283000   0.60914849   -2.5723437   -2.5723437   -1.8151233  0.044956888   -2.5723437   0.75722042   426349 
 3284000   0.60967162   -2.5721024   -2.5721024   -1.8142317  0.044411516   -2.5721024   0.75787072   426349 
 3285000   0.60990689   -2.5726503   -2.5726503   -1.8144871  0.037177752   -2.5726503   0.75816318   426349 
 3286000   0.61015266   -2.5732335   -2.5732335   -1.8147648  0.044254066   -2.5732335   0.75846869   426349 
 3287000     0.608756    -2.571583    -2.571583   -1.8148505  0.046572481    -2.571583   0.75673253   426349 
 3288000   0.60910281   -2.5720746   -2.5720746    -1.814911   0.03772442   -2.5720746   0.75716364   426349 
 3289000   0.60861842   -2.5720137   -2.5720137   -1.8154522  0.031534004   -2.5720137   0.75656151   426349 
 3290000   0.60869855   -2.5724739   -2.5724739   -1.8158128  0.047059151   -2.5724739   0.75666111   426349 
 3291000   0.60780331   -2.5711845   -2.5711845   -1.8156363  0.038698301   -2.5711845   0.75554826   426349 
 3292000   0.60824093   -2.5713935   -2.5713935   -1.8153012  0.040508921   -2.5713935   0.75609226   426349 
 3293000   0.60839611    -2.571129    -2.571129   -1.8148439  0.027868927    -2.571129   0.75628516   426349 
 3294000   0.60822195   -2.5709711   -2.5709711   -1.8149025  0.038242931   -2.5709711   0.75606867   426349 
 3295000   0.60885349   -2.5718875   -2.5718875   -1.8150337  0.032858172   -2.5718875   0.75685372   426349 
 3296000   0.60877285   -2.5717737   -2.5717737   -1.8150202  0.041469258   -2.5717737   0.75675347   426349 
 3297000   0.60875469   -2.5716507   -2.5716507   -1.8149198  0.045626165   -2.5716507    0.7567309   426349 
 3298000   0.60851358   -2.5720742   -2.5720742    -1.815643  0.044193519   -2.5720742   0.75643118   426349 
 3299000   0.60937521   -2.5732315   -2.5732315   -1.8157292  0.044897257   -2.5732315   0.75750225   426349 
 3300000   0.60783387     -2.57152     -2.57152   -1.8159337  0.044530665     -2.57152   0.75558625   426349 
 3301000    0.6081901   -2.5724075   -2.5724075   -1.8163784  0.044069638   -2.5724075   0.75602907   426349 
 3302000    0.6095208   -2.5733436   -2.5733436   -1.8156604  0.029701164   -2.5733436   0.75768324   426349 
 3303000   0.60865474   -2.5728725   -2.5728725   -1.8162658  0.034802388   -2.5728725   0.75660665   426349 
 3304000   0.60870998   -2.5731318   -2.5731318   -1.8164565  0.029272851   -2.5731318   0.75667533   426349 
 3305000   0.60899061   -2.5738713   -2.5738713   -1.8168471  0.035604764   -2.5738713   0.75702417   426349 
 3306000    0.6099623    -2.575487    -2.575487   -1.8172549  0.046418946    -2.575487   0.75823206   426349 
 3307000   0.61061642   -2.5753303   -2.5753303   -1.8162851  0.039130199   -2.5753303   0.75904518   426349 
 3308000   0.60998297   -2.5750134   -2.5750134   -1.8167556  0.033694058   -2.5750134   0.75825775   426349 
 3309000   0.61022663   -2.5750663   -2.5750663   -1.8165056  0.032801487   -2.5750663   0.75856064   426349 
 3310000    0.6087941   -2.5737786   -2.5737786   -1.8169988  0.042347833   -2.5737786   0.75677989   426349 
 3311000   0.60913111   -2.5731804   -2.5731804   -1.8159816  0.047481349   -2.5731804   0.75719882   426349 
 3312000   0.60947614   -2.5743288   -2.5743288   -1.8167011  0.039146375   -2.5743288   0.75762773   426349 
 3313000   0.60968464   -2.5751667   -2.5751667   -1.8172798  0.041751708   -2.5751667    0.7578869   426349 
 3314000   0.60956222   -2.5758603   -2.5758603   -1.8181256  0.038649166   -2.5758603   0.75773472   426349 
 3315000   0.60942814   -2.5765477   -2.5765477   -1.8189797  0.039097565   -2.5765477   0.75756806   426349 
 3316000   0.60788287   -2.5743858   -2.5743858   -1.8187386  0.038050178   -2.5743858   0.75564716   426349 
 3317000   0.60789164   -2.5743299   -2.5743299   -1.8186719  0.048716176   -2.5743299   0.75565806   426349 
 3318000   0.60870004   -2.5749919   -2.5749919   -1.8183289   0.03978133   -2.5749919   0.75666297   426349 
 3319000   0.60839545   -2.5741582   -2.5741582   -1.8178739  0.038307007   -2.5741582   0.75628433   426349 
 3320000    0.6080996   -2.5731521   -2.5731521   -1.8172355  0.037862326   -2.5731521   0.75591657   426349 
 3321000   0.60841235   -2.5742917   -2.5742917   -1.8179863  0.035810694   -2.5742917   0.75630535   426349 
 3322000   0.60806024   -2.5739415   -2.5739415   -1.8180739  0.037412902   -2.5739415   0.75586764   426349 
 3323000    0.6092538    -2.574894    -2.574894   -1.8175426   0.03488162    -2.574894   0.75735134   426349 
 3324000   0.60922204   -2.5737115   -2.5737115   -1.8163996  0.038255712   -2.5737115   0.75731185   426349 
 3325000   0.60866549   -2.5733005   -2.5733005   -1.8166804  0.040196269   -2.5733005   0.75662002   426349 
 3326000   0.60843089   -2.5727169   -2.5727169   -1.8163885  0.041439612   -2.5727169   0.75632839   426349 
 3327000   0.60896949   -2.5734239   -2.5734239    -1.816426  0.039488634   -2.5734239   0.75699792   426349 
 3328000   0.60925717   -2.5742787   -2.5742787   -1.8169232  0.034642161   -2.5742787   0.75735553   426349 
 3329000   0.60776186   -2.5740187   -2.5740187    -1.818522  0.038344814   -2.5740187   0.75549674   426349 
 3330000   0.60797461   -2.5743938   -2.5743938   -1.8186326  0.046290379   -2.5743938   0.75576121   426349 
 3331000   0.60817864   -2.5739128   -2.5739128    -1.817898  0.030061357   -2.5739128   0.75601482   426349 
 3332000   0.60767665   -2.5732701   -2.5732701   -1.8178793  0.046547222   -2.5732701   0.75539081   426349 
 3333000   0.60794381   -2.5735563   -2.5735563   -1.8178333  0.030636438   -2.5735563   0.75572292   426349 
 3334000    0.6071138   -2.5725627   -2.5725627   -1.8178715  0.030912376   -2.5725627   0.75469114   426349 
 3335000   0.60836949   -2.5742924   -2.5742924   -1.8180404  0.040803064   -2.5742924   0.75625207   426349 
 3336000   0.60853066   -2.5740149   -2.5740149   -1.8175625  0.036832933   -2.5740149   0.75645241   426349 
 3337000   0.60817853   -2.5739614   -2.5739614   -1.8179467  0.039467526   -2.5739614   0.75601469   426349 
 3338000   0.60892815   -2.5749232   -2.5749232   -1.8179767  0.035948211   -2.5749232   0.75694653   426349 
 3339000   0.60771134   -2.5736329   -2.5736329    -1.818199  0.037149319   -2.5736329   0.75543393   426349 
 3340000   0.60823862   -2.5742227   -2.5742227   -1.8181333  0.037623879   -2.5742227   0.75608938   426349 
 3341000   0.60852457   -2.5750365   -2.5750365   -1.8185917   0.03089813   -2.5750365   0.75644484   426349 
 3342000   0.60749772   -2.5740187   -2.5740187   -1.8188503  0.040046219   -2.5740187   0.75516838   426349 
 3343000   0.60801808   -2.5750248   -2.5750248   -1.8192096  0.044313401   -2.5750248   0.75581524   426349 
 3344000   0.60787662   -2.5754736   -2.5754736   -1.8198342  0.030224577   -2.5754736   0.75563939   426349 
 3345000   0.60808438   -2.5761335   -2.5761335   -1.8202358  0.043474637   -2.5761335   0.75589765   426349 
 3346000   0.60885658    -2.576551    -2.576551   -1.8196934  0.030269441    -2.576551   0.75685756   426349 
 3347000   0.60868575   -2.5770257   -2.5770257   -1.8203805  0.043644737   -2.5770257    0.7566452   426349 
 3348000   0.60937422   -2.5771955   -2.5771955   -1.8196945  0.041847991   -2.5771955   0.75750102   426349 
 3349000   0.60717128    -2.575165    -2.575165   -1.8204024  0.038060383    -2.575165    0.7547626   426349 
 3350000   0.60782801   -2.5755227   -2.5755227   -1.8199437  0.029256856   -2.5755227   0.75557897   426349 
 3351000   0.60741364    -2.575678    -2.575678   -1.8206141  0.036353367    -2.575678   0.75506387   426349 
 3352000   0.60735374   -2.5753027   -2.5753027   -1.8203133  0.040045787   -2.5753027   0.75498941   426349 
 3353000   0.60869076   -2.5767383   -2.5767383   -1.8200869  0.037228251   -2.5767383   0.75665143   426349 
 3354000   0.60931966   -2.5767965   -2.5767965   -1.8193633  0.040815356   -2.5767965   0.75743321   426349 
 3355000   0.60850989   -2.5768683   -2.5768683   -1.8204417  0.040202618   -2.5768683    0.7564266   426349 
 3356000   0.60945273    -2.577789    -2.577789   -1.8201904  0.041487686    -2.577789   0.75759862   426349 
 3357000   0.60896032   -2.5767404   -2.5767404   -1.8197539  0.034224767   -2.5767404   0.75698651   426349 
 3358000    0.6087187   -2.5757037   -2.5757037   -1.8190175  0.037968116   -2.5757037   0.75668617   426349 
 3359000    0.6089489   -2.5758383   -2.5758383    -1.818866  0.035775697   -2.5758383   0.75697232   426349 
 3360000   0.60922637   -2.5764048   -2.5764048   -1.8190876   0.04433321   -2.5764048   0.75731724   426349 
 3361000   0.60822612   -2.5752318   -2.5752318   -1.8191579  0.043111635   -2.5752318   0.75607384   426349 
 3362000   0.60863715    -2.574532    -2.574532   -1.8179472  0.034540752    -2.574532   0.75658479   426349 
 3363000   0.60761639   -2.5731038   -2.5731038   -1.8177879  0.044343502   -2.5731038    0.7553159   426349 
 3364000   0.60784373   -2.5740584   -2.5740584   -1.8184599  0.037426705   -2.5740584    0.7555985   426349 
 3365000   0.60683918   -2.5731389   -2.5731389   -1.8187892  0.037159588   -2.5731389   0.75434977   426349 
 3366000   0.60732433   -2.5733191   -2.5733191   -1.8183662  0.042969549   -2.5733191   0.75495285   426349 
 3367000   0.60714057   -2.5729103   -2.5729103   -1.8181859   0.03073384   -2.5729103   0.75472442   426349 
 3368000   0.60849005   -2.5733491   -2.5733491   -1.8169471  0.046355504   -2.5733491   0.75640193   426349 
 3369000   0.60776643   -2.5725323   -2.5725323   -1.8170299  0.035352608   -2.5725323   0.75550241   426349 
 3370000   0.60740602   -2.5725764   -2.5725764    -1.817522  0.032405818   -2.5725764    0.7550544   426349 
 3371000   0.60877465   -2.5732003   -2.5732003   -1.8164446  0.035192086   -2.5732003   0.75675571   426349 
 3372000   0.60915533   -2.5739182   -2.5739182   -1.8166893  0.036313631   -2.5739182   0.75722893   426349 
 3373000   0.60765991   -2.5729454   -2.5729454   -1.8175754  0.030561494   -2.5729454      0.75537   426349 
 3374000   0.60809335   -2.5734384   -2.5734384   -1.8175296  0.034524424   -2.5734384   0.75590881   426349 
 3375000   0.60867095   -2.5750158   -2.5750158    -1.818389  0.036170908   -2.5750158   0.75662681   426349 
 3376000   0.60873577   -2.5749187   -2.5749187   -1.8182114  0.032867672   -2.5749187   0.75670738   426349 
 3377000   0.60906963   -2.5752455   -2.5752455   -1.8181231  0.027951307   -2.5752455    0.7571224   426349 
 3378000   0.60768492    -2.573679    -2.573679   -1.8182779   0.03558825    -2.573679   0.75540109   426349 
 3379000   0.60919453   -2.5761166   -2.5761166   -1.8188389  0.039536675   -2.5761166   0.75727766   426349 
 3380000   0.60915069   -2.5757293   -2.5757293   -1.8185062  0.044741009   -2.5757293   0.75722316   426349 
 3381000   0.60883992   -2.5751133   -2.5751133   -1.8182765  0.051245463   -2.5751133   0.75683685   426349 
 3382000   0.60926089   -2.5755513   -2.5755513   -1.8181911  0.046644504   -2.5755513   0.75736014   426349 
 3383000   0.60832473   -2.5754752   -2.5754752   -1.8192788  0.046240926   -2.5754752   0.75619643   426349 
 3384000   0.60967767   -2.5764084   -2.5764084   -1.8185302  0.046030447   -2.5764084   0.75787824   426349 
 3385000   0.60981587   -2.5774172   -2.5774172   -1.8193671  0.042889924   -2.5774172   0.75805004   426349 
 3386000   0.60985003   -2.5765453   -2.5765453   -1.8184528  0.040103541   -2.5765453    0.7580925   426349 
 3387000   0.60775565   -2.5745286   -2.5745286   -1.8190396  0.034665003   -2.5745286   0.75548902   426349 
 3388000   0.60952518   -2.5759403   -2.5759403   -1.8182517  0.046760325   -2.5759403   0.75768868   426349 
 3389000   0.60760449   -2.5740793   -2.5740793   -1.8187782  0.038477323   -2.5740793   0.75530112   426349 
 3390000    0.6082003   -2.5756918   -2.5756918   -1.8196501  0.047397841   -2.5756918   0.75604175   426349 
 3391000     0.608149   -2.5748437   -2.5748437   -1.8188658  0.038272086   -2.5748437   0.75597798   426349 
 3392000     0.608404   -2.5752026   -2.5752026   -1.8189076  0.035084348   -2.5752026   0.75629497   426349 
 3393000   0.60903334   -2.5757006   -2.5757006   -1.8186234  0.040264693   -2.5757006   0.75707729   426349 
 3394000   0.60821377   -2.5753731   -2.5753731   -1.8193146  0.042484315   -2.5753731   0.75605849   426349 
 3395000   0.60871518   -2.5746331   -2.5746331   -1.8179514  0.030157594   -2.5746331   0.75668178   426349 
 3396000   0.60845703   -2.5742398   -2.5742398   -1.8178789  0.026533208   -2.5742398   0.75636089   426349 
 3397000   0.60764113   -2.5736663   -2.5736663   -1.8183197  0.034762948   -2.5736663   0.75534666   426349 
 3398000   0.60717025   -2.5731401   -2.5731401   -1.8183787  0.045870151   -2.5731401   0.75476132   426349 
 3399000   0.60705662    -2.572302    -2.572302   -1.8176819  0.037326886    -2.572302   0.75462007   426349 
 3400000   0.60719615   -2.5724853   -2.5724853   -1.8176918  0.037170951   -2.5724853   0.75479351   426349 
 3401000   0.60874671   -2.5742991   -2.5742991   -1.8175781  0.045664961   -2.5742991   0.75672098   426349 
 3402000   0.60903439   -2.5743796   -2.5743796   -1.8173011  0.040238462   -2.5743796    0.7570786   426349 
 3403000   0.60822351   -2.5736229   -2.5736229   -1.8175523  0.044969275   -2.5736229    0.7560706   426349 
 3404000   0.60914836   -2.5737845   -2.5737845   -1.8165642  0.030805087   -2.5737845   0.75722027   426349 
 3405000   0.60908234   -2.5735261   -2.5735261   -1.8163879  0.032649384   -2.5735261    0.7571382   426349 
 3406000   0.60931376   -2.5738933   -2.5738933   -1.8164674  0.038039376   -2.5738933   0.75742586   426349 
 3407000   0.60942838   -2.5738959   -2.5738959   -1.8163275  0.038852362   -2.5738959   0.75756835   426349 
 3408000   0.60956824   -2.5745448   -2.5745448   -1.8168026  0.043886268   -2.5745448   0.75774221   426349 
 3409000   0.60759353   -2.5729871   -2.5729871   -1.8176996  0.041662227   -2.5729871   0.75528749   426349 
 3410000   0.60938681   -2.5743505   -2.5743505   -1.8168338  0.032792703   -2.5743505   0.75751668   426349 
 3411000   0.60781213    -2.572558    -2.572558   -1.8169987  0.043073308    -2.572558   0.75555923   426349 
 3412000   0.60886244   -2.5730456   -2.5730456   -1.8161807  0.041956927   -2.5730456   0.75686484   426349 
 3413000    0.6084058   -2.5733212   -2.5733212    -1.817024  0.040891325   -2.5733212    0.7562972   426349 
 3414000   0.60925982   -2.5744213   -2.5744213   -1.8170625  0.036262425   -2.5744213   0.75735881   426349 
 3415000   0.60804886   -2.5729046   -2.5729046   -1.8170511  0.048085696   -2.5729046   0.75585349   426349 
 3416000   0.60962388   -2.5753016   -2.5753016   -1.8174903   0.02956066   -2.5753016   0.75781137   426349 
 3417000   0.60986741   -2.5761665   -2.5761665   -1.8180524  0.040443178   -2.5761665    0.7581141   426349 
 3418000   0.60978112   -2.5756927   -2.5756927   -1.8176858  0.043392154   -2.5756927   0.75800684   426349 
 3419000    0.6088422   -2.5740969   -2.5740969   -1.8172572  0.034414324   -2.5740969   0.75683969   426349 
 3420000   0.60905192   -2.5743265   -2.5743265   -1.8172261  0.036490052   -2.5743265   0.75710038   426349 
 3421000   0.60838111   -2.5745544   -2.5745544   -1.8182879  0.032438983   -2.5745544   0.75626652   426349 
 3422000   0.60835053   -2.5750162   -2.5750162   -1.8187877  0.038511315   -2.5750162    0.7562285   426349 
 3423000   0.60804318   -2.5750128   -2.5750128   -1.8191663  0.034314655   -2.5750128   0.75584644   426349 
 3424000   0.60818802   -2.5751274   -2.5751274   -1.8191009  0.026438178   -2.5751274   0.75602648   426349 
 3425000   0.60840927    -2.575057    -2.575057   -1.8187555  0.034861122    -2.575057   0.75630151   426349 
 3426000   0.60893573   -2.5764978   -2.5764978   -1.8195419   0.03253502   -2.5764978   0.75695595   426349 
 3427000   0.60907578   -2.5754239   -2.5754239   -1.8182938  0.043070133   -2.5754239   0.75713004   426349 
 3428000   0.60879486   -2.5751485   -2.5751485   -1.8183677  0.037659635   -2.5751485   0.75678084   426349 
 3429000   0.60958644   -2.5763542   -2.5763542   -1.8185893  0.046865461   -2.5763542   0.75776483   426349 
 3430000   0.60957521   -2.5764817   -2.5764817   -1.8187308  0.029330045   -2.5764817   0.75775088   426349 
 3431000   0.60874559   -2.5755283   -2.5755283   -1.8188087   0.04428862   -2.5755283   0.75671959   426349 
 3432000   0.60878511   -2.5753988   -2.5753988   -1.8186301  0.041048475   -2.5753988   0.75676872   426349 
 3433000   0.60936515   -2.5758533   -2.5758533   -1.8183635  0.042801654   -2.5758533   0.75748976   426349 
 3434000   0.60973088   -2.5765297   -2.5765297   -1.8185853  0.033885278   -2.5765297   0.75794438   426349 
 3435000   0.60978867   -2.5775826   -2.5775826   -1.8195664  0.044005308   -2.5775826   0.75801622   426349 
 3436000   0.60978942   -2.5774337   -2.5774337   -1.8194165  0.036370065   -2.5774337   0.75801715   426349 
 3437000   0.61141446   -2.5795716   -2.5795716   -1.8195344  0.039216739   -2.5795716    0.7600372   426349 
 3438000   0.61016058   -2.5785075   -2.5785075   -1.8200289  0.032115381   -2.5785075   0.75847854   426349 
 3439000   0.60902034   -2.5781871   -2.5781871    -1.821126  0.039184986   -2.5781871   0.75706112   426349 
 3440000   0.60799491   -2.5769039   -2.5769039   -1.8211175  0.029457036   -2.5769039   0.75578643   426349 
 3441000   0.60749466   -2.5757587   -2.5757587   -1.8205942  0.034003281   -2.5757587   0.75516458   426349 
 3442000   0.60872619    -2.577593    -2.577593   -1.8208975  0.043408413    -2.577593   0.75669547   426349 
 3443000   0.60859426   -2.5785919   -2.5785919   -1.8220604  0.041169879   -2.5785919   0.75653147   426349 
 3444000   0.60768723   -2.5775502   -2.5775502   -1.8221462  0.038816107   -2.5775502   0.75540397   426349 
 3445000   0.60882423   -2.5784076   -2.5784076   -1.8215902  0.043664863   -2.5784076   0.75681735   426349 
 3446000   0.60863837   -2.5775052   -2.5775052   -1.8209189  0.038123575   -2.5775052   0.75658631   426349 
 3447000   0.60874376    -2.578495    -2.578495   -1.8217777  0.040985165    -2.578495   0.75671732   426349 
 3448000   0.60696139   -2.5760733   -2.5760733   -1.8215717  0.034939752   -2.5760733   0.75450169   426349 
 3449000   0.60932903   -2.5784159   -2.5784159   -1.8209711   0.03699168   -2.5784159   0.75744486   426349 
 3450000   0.60781163   -2.5765657   -2.5765657   -1.8210071  0.032218836   -2.5765657    0.7555586   426349 
 3451000   0.60825118    -2.578086    -2.578086    -1.821981  0.036074619    -2.578086   0.75610499   426349 
 3452000   0.60921495   -2.5787547   -2.5787547   -1.8214517  0.046150774   -2.5787547   0.75730304   426349 
 3453000   0.60886008   -2.5782852   -2.5782852   -1.8214233  0.037379596   -2.5782852   0.75686191   426349 
 3454000   0.60760006   -2.5767475   -2.5767475   -1.8214519  0.029967335   -2.5767475   0.75529561   426349 
 3455000   0.60866668   -2.5781227   -2.5781227   -1.8215012  0.034067522   -2.5781227    0.7566215   426349 
 3456000   0.60710059   -2.5766094   -2.5766094   -1.8219347  0.039752672   -2.5766094   0.75467472   426349 
 3457000   0.60725328   -2.5774862   -2.5774862   -1.8226217  0.045761173   -2.5774862   0.75486453   426349 
 3458000   0.60830356   -2.5777964   -2.5777964   -1.8216263  0.041707112   -2.5777964   0.75617011   426349 
 3459000    0.6070787   -2.5767016   -2.5767016   -1.8220541  0.039881791   -2.5767016   0.75464751   426349 
 3460000   0.60865909   -2.5786791   -2.5786791    -1.822067  0.038082906   -2.5786791   0.75661207   426349 
 3461000   0.60901902   -2.5793006   -2.5793006   -1.8222411  0.041457491   -2.5793006   0.75705949   426349 
 3462000   0.60822361   -2.5784491   -2.5784491   -1.8223784  0.044956097   -2.5784491   0.75607072   426349 
 3463000   0.60977587   -2.5803769   -2.5803769   -1.8223766  0.033821379   -2.5803769   0.75800032   426349 
 3464000   0.60758582   -2.5778138   -2.5778138   -1.8225359  0.032460232   -2.5778138    0.7552779   426349 
 3465000   0.60863036   -2.5788596   -2.5788596   -1.8222832  0.040555677   -2.5788596   0.75657635   426349 
 3466000    0.6081577   -2.5776949   -2.5776949   -1.8217061  0.051333814   -2.5776949    0.7559888   426349 
 3467000   0.60925841   -2.5790527   -2.5790527   -1.8216956  0.044325324   -2.5790527   0.75735707   426349 
 3468000   0.60961602   -2.5790109   -2.5790109   -1.8212093  0.033489462   -2.5790109    0.7578016   426349 
 3469000   0.61011276   -2.5801952   -2.5801952   -1.8217761  0.029529601   -2.5801952   0.75841909   426349 
 3470000    0.6090536   -2.5782727   -2.5782727   -1.8211702  0.035399433   -2.5782727   0.75710247   426349 
 3471000   0.60812731   -2.5774447   -2.5774447   -1.8214937  0.040525175   -2.5774447   0.75595101   426349 
 3472000   0.60815102   -2.5781375   -2.5781375    -1.822157  0.031349083   -2.5781375    0.7559805   426349 
 3473000   0.60800451   -2.5777217   -2.5777217   -1.8219233  0.036990112   -2.5777217   0.75579837   426349 
 3474000   0.60892954   -2.5792665   -2.5792665   -1.8223183   0.03851017   -2.5792665   0.75694825   426349 
 3475000   0.60863345   -2.5787319   -2.5787319   -1.8221517  0.051459284   -2.5787319   0.75658018   426349 
 3476000   0.61019041   -2.5798819   -2.5798819   -1.8213663  0.026944886   -2.5798819   0.75851561   426349 
 3477000   0.60883055   -2.5783798   -2.5783798   -1.8215546  0.032894045   -2.5783798    0.7568252   426349 
 3478000   0.60808094   -2.5782468   -2.5782468   -1.8223534  0.034384351   -2.5782468   0.75589337   426349 
 3479000   0.60777719   -2.5776152   -2.5776152   -1.8220994  0.041931369   -2.5776152   0.75551579   426349 
 3480000   0.60807006    -2.577687    -2.577687   -1.8218072  0.039180649    -2.577687   0.75587986   426349 
 3481000   0.60764149   -2.5772314   -2.5772314   -1.8218843  0.032097612   -2.5772314   0.75534711   426349 
 3482000   0.60825697   -2.5774832   -2.5774832    -1.821371  0.047414057   -2.5774832   0.75611219   426349 
 3483000   0.60779405   -2.5773638   -2.5773638   -1.8218271  0.039413257   -2.5773638   0.75553674   426349 
 3484000   0.60834868   -2.5789155   -2.5789155   -1.8226893  0.035260807   -2.5789155    0.7562262   426349 
 3485000   0.60756539    -2.577698    -2.577698   -1.8224455  0.040479012    -2.577698    0.7552525   426349 
 3486000   0.60786072   -2.5785657   -2.5785657   -1.8229461  0.039094107   -2.5785657   0.75561962   426349 
 3487000   0.60857432   -2.5783627   -2.5783627    -1.821856   0.04224248   -2.5783627   0.75650669   426349 
 3488000   0.60885283   -2.5788397   -2.5788397   -1.8219868  0.036096292   -2.5788397    0.7568529   426349 
 3489000   0.60795475    -2.577734    -2.577734   -1.8219975  0.046975501    -2.577734   0.75573651   426349 
 3490000    0.6084266   -2.5780811   -2.5780811    -1.821758  0.043412827   -2.5780811   0.75632306   426349 
 3491000   0.60775211   -2.5779395   -2.5779395   -1.8224549  0.036828112   -2.5779395   0.75548461   426349 
 3492000   0.60808829    -2.578271    -2.578271   -1.8223685  0.027874539    -2.578271   0.75590252   426349 
 3493000     0.607205   -2.5784293   -2.5784293   -1.8236248  0.035198719   -2.5784293   0.75480451   426349 
 3494000   0.60835051   -2.5795429   -2.5795429   -1.8233144   0.03093379   -2.5795429   0.75622847   426349 
 3495000   0.60767502   -2.5785759   -2.5785759   -1.8231872   0.03548861   -2.5785759   0.75538878   426349 
 3496000   0.60789176   -2.5794599   -2.5794599   -1.8238016  0.035989149   -2.5794599   0.75565821   426349 
 3497000   0.60814555   -2.5797912   -2.5797912   -1.8238175  0.041539204   -2.5797912   0.75597369   426349 
 3498000   0.60769376   -2.5791323   -2.5791323   -1.8237202  0.031606803   -2.5791323   0.75541208   426349 
 3499000    0.6071694   -2.5793959   -2.5793959   -1.8246356  0.047460035   -2.5793959   0.75476026   426349 
 3500000   0.60820074   -2.5807637   -2.5807637   -1.8247214  0.044521381   -2.5807637    0.7560423   426349 
 3501000   0.60804373   -2.5811819   -2.5811819   -1.8253347  0.045205316   -2.5811819   0.75584712   426349 
 3502000   0.60837245   -2.5808885   -2.5808885   -1.8246327  0.049508589   -2.5808885   0.75625574   426349 
 3503000   0.60819365   -2.5804957   -2.5804957   -1.8244622  0.041043071   -2.5804957   0.75603349   426349 
 3504000   0.61010036   -2.5816916   -2.5816916   -1.8232879  0.044974976   -2.5816916   0.75840368   426349 
 3505000   0.61005649   -2.5812496   -2.5812496   -1.8229004  0.044684534   -2.5812496   0.75834914   426349 
 3506000   0.60970014   -2.5812444   -2.5812444   -1.8233382  0.032335083   -2.5812444   0.75790617   426349 
 3507000   0.60975861   -2.5809065   -2.5809065   -1.8229276   0.03808277   -2.5809065   0.75797886   426349 
 3508000    0.6097407   -2.5813893   -2.5813893   -1.8234327  0.046117923   -2.5813893   0.75795659   426349 
 3509000   0.60945152   -2.5803937   -2.5803937   -1.8227966  0.042599023   -2.5803937   0.75759711   426349 
 3510000   0.60774385   -2.5791073   -2.5791073   -1.8236329  0.042013396   -2.5791073   0.75547434   426349 
 3511000   0.60934238   -2.5811897   -2.5811897   -1.8237283  0.038821631   -2.5811897   0.75746145   426349 
 3512000    0.6080528   -2.5795882   -2.5795882   -1.8237298  0.046295761   -2.5795882   0.75585839   426349 
 3513000   0.60722363   -2.5784256   -2.5784256    -1.823598  0.043832741   -2.5784256   0.75482767   426349 
 3514000   0.60824101   -2.5797962   -2.5797962   -1.8237039  0.040312999   -2.5797962   0.75609235   426349 
 3515000   0.60944448   -2.5803707   -2.5803707   -1.8227824  0.039600242   -2.5803707   0.75758837   426349 
 3516000   0.60791169   -2.5792154   -2.5792154   -1.8235324  0.042635589   -2.5792154   0.75568299   426349 
 3517000   0.60799552   -2.5792002   -2.5792002    -1.823413  0.043964013   -2.5792002   0.75578719   426349 
 3518000   0.60706015   -2.5775499   -2.5775499   -1.8229254   0.03959429   -2.5775499   0.75462445   426349 
 3519000   0.60749212   -2.5776061   -2.5776061   -1.8224447   0.03818009   -2.5776061   0.75516143   426349 
 3520000   0.60745945   -2.5773563   -2.5773563   -1.8222355  0.036081935   -2.5773563   0.75512081   426349 
 3521000   0.60786113    -2.578073    -2.578073   -1.8224529  0.039697046    -2.578073   0.75562014   426349 
 3522000   0.60719523   -2.5771084   -2.5771084   -1.8223161  0.039531722   -2.5771084   0.75479236   426349 
 3523000   0.60912731   -2.5799335   -2.5799335   -1.8227394  0.034486123   -2.5799335    0.7571941   426349 
 3524000   0.60869579   -2.5803075   -2.5803075   -1.8236498  0.038572558   -2.5803075   0.75665769   426349 
 3525000   0.60866961   -2.5798592   -2.5798592   -1.8232341  0.043394402   -2.5798592   0.75662514   426349 
 3526000   0.60947128   -2.5806882   -2.5806882   -1.8230665  0.035055171   -2.5806882   0.75762168   426349 
 3527000   0.60874511   -2.5793795   -2.5793795   -1.8226605  0.045942726   -2.5793795   0.75671899   426349 
 3528000   0.60926084   -2.5803326   -2.5803326   -1.8229725  0.035083316   -2.5803326   0.75736009   426349 
 3529000   0.60837085   -2.5797336   -2.5797336   -1.8234798  0.044019655   -2.5797336   0.75625375   426349 
 3530000   0.60977491   -2.5814395   -2.5814395   -1.8234404  0.039207585   -2.5814395   0.75799912   426349 
 3531000   0.61017478   -2.5817558   -2.5817558   -1.8232596  0.034228158   -2.5817558   0.75849619   426349 
 3532000   0.60857897   -2.5799242   -2.5799242   -1.8234117  0.038384496   -2.5799242   0.75651247   426349 
 3533000   0.60880274   -2.5800666   -2.5800666   -1.8232759   0.03373753   -2.5800666   0.75679063   426349 
 3534000   0.60973557   -2.5811829   -2.5811829   -1.8232327  0.044773596   -2.5811829   0.75795022   426349 
 3535000    0.6095337   -2.5806754   -2.5806754   -1.8229761  0.041856032   -2.5806754   0.75769928   426349 
 3536000   0.60919109   -2.5801177   -2.5801177   -1.8228443  0.046183701   -2.5801177   0.75727338   426349 
 3537000   0.61010498   -2.5815489   -2.5815489   -1.8231394  0.037380444   -2.5815489   0.75840942   426349 
 3538000   0.60891012   -2.5803445   -2.5803445   -1.8234203  0.036448949   -2.5803445   0.75692411   426349 
 3539000   0.60972926   -2.5819008   -2.5819008   -1.8239584  0.039079728   -2.5819008   0.75794237   426349 
 3540000   0.60933411   -2.5807519   -2.5807519   -1.8233007  0.040000694   -2.5807519   0.75745117   426349 
 3541000   0.60800753   -2.5794479   -2.5794479   -1.8236458  0.054966401   -2.5794479   0.75580213   426349 
 3542000   0.61021607   -2.5815945   -2.5815945    -1.823047  0.036336766   -2.5815945   0.75854752   426349 
 3543000   0.60978214   -2.5812735   -2.5812735   -1.8232654  0.035399846   -2.5812735    0.7580081   426349 
 3544000   0.60940013   -2.5810172   -2.5810172    -1.823484  0.041205355   -2.5810172   0.75753324   426349 
 3545000   0.60831896    -2.579996    -2.579996   -1.8238068  0.035615312    -2.579996   0.75618925   426349 
 3546000   0.60776807   -2.5803463   -2.5803463   -1.8248419  0.036600124   -2.5803463   0.75550446   426349 
 3547000   0.60839489   -2.5800325   -2.5800325   -1.8237489    0.0322716   -2.5800325   0.75628364   426349 
 3548000   0.60761895   -2.5786609   -2.5786609   -1.8233419  0.033874492   -2.5786609   0.75531908   426349 
 3549000   0.60870538   -2.5795102   -2.5795102   -1.8228406  0.040196272   -2.5795102   0.75666961   426349 
 3550000   0.60881841   -2.5790019   -2.5790019   -1.8221918  0.029877369   -2.5790019   0.75681011   426349 
 3551000   0.60807677   -2.5782046   -2.5782046   -1.8223164  0.040719773   -2.5782046   0.75588819   426349 
 3552000   0.60741434   -2.5778028   -2.5778028   -1.8227381  0.039072781   -2.5778028   0.75506473   426349 
 3553000   0.60764528   -2.5783111   -2.5783111   -1.8229593  0.031994832   -2.5783111   0.75535181   426349 
 3554000   0.60777343   -2.5785412   -2.5785412   -1.8230301  0.030506867   -2.5785412   0.75551112   426349 
 3555000   0.60766681   -2.5787016   -2.5787016    -1.823323   0.03684706   -2.5787016   0.75537858   426349 
 3556000   0.60763191   -2.5788173   -2.5788173   -1.8234821  0.039994364   -2.5788173   0.75533519   426349 
 3557000   0.60833946   -2.5788178   -2.5788178   -1.8226031  0.037212223   -2.5788178   0.75621474   426349 
 3558000   0.60843442   -2.5792311   -2.5792311   -1.8228983  0.036617707   -2.5792311   0.75633278   426349 
 3559000   0.60895122   -2.5803065   -2.5803065   -1.8233313  0.036027406   -2.5803065   0.75697521   426349 
 3560000   0.60880879   -2.5803878   -2.5803878   -1.8235896  0.038029814   -2.5803878   0.75679816   426349 
 3561000     0.608037    -2.579669    -2.579669   -1.8238302  0.033488181    -2.579669   0.75583875   426349 
 3562000   0.60932661     -2.58093     -2.58093   -1.8234882  0.044925073     -2.58093   0.75744185   426349 
 3563000   0.60951793    -2.581127    -2.581127   -1.8234474  0.041570088    -2.581127   0.75767967   426349 
 3564000   0.60908033   -2.5795915   -2.5795915   -1.8224558  0.040378053   -2.5795915    0.7571357   426349 
 3565000   0.60900463   -2.5805723   -2.5805723   -1.8235307  0.029301945   -2.5805723    0.7570416   426349 
 3566000   0.60744279   -2.5794633   -2.5794633   -1.8243632  0.038536238   -2.5794633   0.75510011   426349 
 3567000    0.6088204   -2.5804007   -2.5804007   -1.8235881   0.03592021   -2.5804007   0.75681258   426349 
 3568000   0.60900941   -2.5799796   -2.5799796   -1.8229321  0.040205622   -2.5799796   0.75704754   426349 
 3569000   0.60839025   -2.5792574   -2.5792574   -1.8229795  0.032361127   -2.5792574   0.75627788   426349 
 3570000    0.6097234   -2.5807677   -2.5807677   -1.8228326   0.03828634   -2.5807677   0.75793508   426349 
 3571000   0.60845207   -2.5791659   -2.5791659   -1.8228112  0.039861036   -2.5791659   0.75635472   426349 
 3572000   0.60804429   -2.5794299   -2.5794299   -1.8235821  0.038192728   -2.5794299   0.75584782   426349 
 3573000   0.60853061   -2.5796549   -2.5796549   -1.8232025  0.052289616   -2.5796549   0.75645235   426349 
 3574000   0.60779249   -2.5795236   -2.5795236   -1.8239888  0.038826738   -2.5795236    0.7555348   426349 
 3575000   0.60855758   -2.5798129   -2.5798129    -1.823327  0.041764202   -2.5798129   0.75648588   426349 
 3576000    0.6075045   -2.5791845   -2.5791845   -1.8240077  0.039700412   -2.5791845   0.75517681   426349 
 3577000   0.60760825   -2.5789941   -2.5789941   -1.8236883  0.043980275   -2.5789941   0.75530579   426349 
 3578000   0.60772997   -2.5792075   -2.5792075   -1.8237504  0.032160079   -2.5792075   0.75545709   426349 
 3579000   0.60719014   -2.5788955   -2.5788955   -1.8241094  0.025918549   -2.5788955   0.75478604   426349 
 3580000   0.60778115   -2.5794164   -2.5794164   -1.8238957  0.047293885   -2.5794164   0.75552072   426349 
 3581000   0.60707815   -2.5779056   -2.5779056   -1.8232588  0.036753377   -2.5779056   0.75464683   426349 
 3582000   0.60839715   -2.5790518   -2.5790518   -1.8227653  0.039477076   -2.5790518   0.75628645   426349 
 3583000   0.60835942   -2.5782607   -2.5782607   -1.8220211  0.046182134   -2.5782607   0.75623955   426349 
 3584000    0.6092607   -2.5789889   -2.5789889    -1.821629  0.044017149   -2.5789889   0.75735991   426349 
 3585000   0.60736453   -2.5769629   -2.5769629     -1.82196  0.035417661   -2.5769629   0.75500283   426349 
 3586000   0.60823623   -2.5787476   -2.5787476   -1.8226612  0.040488744   -2.5787476   0.75608642   426349 
 3587000   0.60897597   -2.5797778   -2.5797778   -1.8227719   0.03183703   -2.5797778   0.75700597   426349 
 3588000   0.60727358   -2.5779849   -2.5779849   -1.8230951  0.045115532   -2.5779849   0.75488976   426349 
 3589000   0.60825786   -2.5801231   -2.5801231   -1.8240098  0.025245547   -2.5801231    0.7561133   426349 
 3590000   0.60777444   -2.5797361   -2.5797361   -1.8242237  0.042125818   -2.5797361   0.75551238   426349 
 3591000   0.60711347    -2.578573    -2.578573   -1.8238823  0.041733874    -2.578573   0.75469073   426349 
 3592000   0.60728262   -2.5790423   -2.5790423   -1.8241413  0.037610865   -2.5790423   0.75490099   426349 
 3593000   0.60725514   -2.5792626   -2.5792626   -1.8243957  0.032311131   -2.5792626   0.75486684   426349 
 3594000   0.60833723   -2.5801753   -2.5801753   -1.8239633  0.038165401   -2.5801753   0.75621197   426349 
 3595000   0.60881579   -2.5813883   -2.5813883   -1.8245814  0.037450533   -2.5813883   0.75680686   426349 
 3596000   0.60875093   -2.5812885   -2.5812885   -1.8245623  0.046329255   -2.5812885   0.75672622   426349 
 3597000   0.60966061   -2.5826704   -2.5826704   -1.8248134  0.054027471   -2.5826704   0.75785703   426349 
 3598000   0.60909758   -2.5821004   -2.5821004   -1.8249433  0.033800012   -2.5821004   0.75715715   426349 
 3599000   0.60886635   -2.5815155   -2.5815155   -1.8246458  0.044221553   -2.5815155    0.7568697   426349 
 3600000   0.60942189   -2.5812837   -2.5812837   -1.8237234  0.039028987   -2.5812837   0.75756029   426349 
 3601000   0.60937386   -2.5815531   -2.5815531   -1.8240525  0.043304719   -2.5815531   0.75750058   426349 
 3602000   0.60845629   -2.5803009   -2.5803009   -1.8239409  0.043794879   -2.5803009   0.75635996   426349 
 3603000   0.60846241   -2.5815232   -2.5815232   -1.8251557  0.029207335   -2.5815232   0.75636757   426349 
 3604000    0.6087726   -2.5825756   -2.5825756   -1.8258224  0.035495628   -2.5825756   0.75675316   426349 
 3605000   0.60835012   -2.5812884   -2.5812884   -1.8250604  0.040162771   -2.5812884   0.75622799   426349 
 3606000   0.60801148   -2.5805758   -2.5805758   -1.8247688  0.032762544   -2.5805758   0.75580703   426349 
 3607000   0.60886153   -2.5813973   -2.5813973   -1.8245336  0.042206535   -2.5813973   0.75686372   426349 
 3608000   0.60861804   -2.5810206   -2.5810206   -1.8244595  0.041152455   -2.5810206   0.75656103   426349 
 3609000   0.60890487   -2.5812896   -2.5812896    -1.824372  0.030338489   -2.5812896   0.75691758   426349 
 3610000    0.6086199   -2.5813782   -2.5813782   -1.8248149  0.039655249   -2.5813782   0.75656335   426349 
 3611000   0.60783216   -2.5801946   -2.5801946   -1.8246104   0.03418547   -2.5801946   0.75558413   426349 
 3612000   0.60834192   -2.5814106   -2.5814106   -1.8251928  0.033932613   -2.5814106    0.7562178   426349 
 3613000   0.60816863   -2.5804843   -2.5804843    -1.824482  0.047086731   -2.5804843   0.75600239   426349 
 3614000   0.60898687   -2.5815927   -2.5815927   -1.8245732  0.035481897   -2.5815927   0.75701951   426349 
 3615000   0.60682598   -2.5791915   -2.5791915   -1.8248581   0.03727201   -2.5791915   0.75433336   426349 
 3616000   0.60790375   -2.5812077   -2.5812077   -1.8255346  0.045118516   -2.5812077   0.75567311   426349 
 3617000   0.60881007    -2.581432    -2.581432   -1.8246323  0.047330523    -2.581432   0.75679974   426349 
 3618000   0.60898693   -2.5822133   -2.5822133   -1.8251937  0.033700502   -2.5822133    0.7570196   426349 
 3619000   0.60825803   -2.5813578   -2.5813578   -1.8252442  0.030024911   -2.5813578   0.75611351   426349 
 3620000   0.60901145   -2.5818288   -2.5818288   -1.8247787  0.043960298   -2.5818288   0.75705008   426349 
 3621000    0.6093251   -2.5823673   -2.5823673   -1.8249274   0.03062058   -2.5823673   0.75743997   426349 
 3622000   0.60892318   -2.5819792   -2.5819792   -1.8250388  0.034133531   -2.5819792   0.75694034   426349 
 3623000   0.60806194   -2.5810181   -2.5810181   -1.8251483  0.038038017   -2.5810181   0.75586976   426349 
 3624000   0.60752885   -2.5806047   -2.5806047   -1.8253976  0.043999555   -2.5806047   0.75520709   426349 
 3625000   0.60727614    -2.579536    -2.579536   -1.8246431  0.040728835    -2.579536   0.75489294   426349 
 3626000   0.60694671   -2.5794505   -2.5794505   -1.8249671  0.048241813   -2.5794505   0.75448343   426349 
 3627000   0.60909219   -2.5815972   -2.5815972   -1.8244467  0.029216354   -2.5815972   0.75715044   426349 
 3628000   0.60874689   -2.5812566   -2.5812566   -1.8245354  0.036284241   -2.5812566    0.7567212   426349 
 3629000   0.60775777   -2.5802551   -2.5802551   -1.8247635  0.034468205   -2.5802551   0.75549165   426349 
 3630000   0.60818625   -2.5801783   -2.5801783   -1.8241541  0.033754777   -2.5801783   0.75602429   426349 
 3631000   0.60734727   -2.5796852   -2.5796852   -1.8247038  0.034931645   -2.5796852   0.75498137   426349 
 3632000   0.60812824   -2.5806508   -2.5806508   -1.8246987  0.031934456   -2.5806508   0.75595218   426349 
 3633000   0.60902261   -2.5813095   -2.5813095   -1.8242456  0.042677996   -2.5813095   0.75706394   426349 
 3634000   0.60904683   -2.5817724   -2.5817724   -1.8246783  0.031160985   -2.5817724   0.75709406   426349 
 3635000   0.60838463   -2.5815924   -2.5815924   -1.8253215  0.036361512   -2.5815924   0.75627089   426349 
 3636000   0.60817556   -2.5817451   -2.5817451   -1.8257341  0.031343927   -2.5817451   0.75601099   426349 
 3637000   0.60743342   -2.5811995   -2.5811995    -1.826111  0.034796279   -2.5811995   0.75508845   426349 
 3638000   0.60724251   -2.5803819   -2.5803819   -1.8255308  0.031021191   -2.5803819   0.75485114   426349 
 3639000   0.60899239   -2.5825921   -2.5825921   -1.8255657  0.034897206   -2.5825921   0.75702639   426349 
 3640000   0.60821467   -2.5817378   -2.5817378   -1.8256782   0.04099452   -2.5817378   0.75605962   426349 
 3641000   0.60785308    -2.581011    -2.581011   -1.8254009  0.039578386    -2.581011   0.75561013   426349 
 3642000   0.60962613   -2.5830084   -2.5830084   -1.8251942  0.035104364   -2.5830084   0.75781418   426349 
 3643000   0.60839701   -2.5818972   -2.5818972   -1.8256109  0.035419767   -2.5818972   0.75628628   426349 
 3644000   0.60826024   -2.5819934   -2.5819934   -1.8258772  0.027153758   -2.5819934   0.75611626   426349 
 3645000   0.60766447   -2.5820832   -2.5820832   -1.8267075  0.038673725   -2.5820832   0.75537568   426349 
 3646000   0.60866656   -2.5835873   -2.5835873   -1.8269659   0.03881805   -2.5835873   0.75662135   426349 
 3647000   0.60840392   -2.5832809   -2.5832809    -1.826986  0.035165791   -2.5832809   0.75629486   426349 
 3648000   0.60698852   -2.5819395   -2.5819395   -1.8274041  0.045653763   -2.5819395   0.75453541   426349 
 3649000   0.60963436   -2.5852707   -2.5852707   -1.8274463   0.03649355   -2.5852707    0.7578244   426349 
 3650000   0.60817207   -2.5824233   -2.5824233   -1.8264167   0.04182771   -2.5824233   0.75600665   426349 
 3651000   0.60992402   -2.5845738   -2.5845738   -1.8263894  0.037349873   -2.5845738   0.75818447   426349 
 3652000   0.60910653   -2.5837453   -2.5837453   -1.8265771  0.045245867   -2.5837453   0.75716826   426349 
 3653000   0.60867677   -2.5830024   -2.5830024   -1.8263683  0.035056635   -2.5830024   0.75663404   426349 
 3654000      0.60883   -2.5834687   -2.5834687   -1.8266441  0.044005246   -2.5834687   0.75682452   426349 
 3655000   0.60607643   -2.5811984   -2.5811984   -1.8277968  0.046151321   -2.5811984   0.75340161   426349 
 3656000   0.60750535   -2.5828234   -2.5828234   -1.8276455  0.040197394   -2.5828234   0.75517788   426349 
 3657000   0.60770982    -2.582239    -2.582239    -1.826807   0.03804948    -2.582239   0.75543205   426349 
 3658000    0.6080294   -2.5825758   -2.5825758   -1.8267465   0.03664266   -2.5825758    0.7558293   426349 
 3659000   0.60779169   -2.5827247   -2.5827247   -1.8271909  0.034246705   -2.5827247   0.75553382   426349 
 3660000   0.60669955   -2.5815256   -2.5815256   -1.8273494  0.031654776   -2.5815256    0.7541762   426349 
 3661000   0.60809638   -2.5835733   -2.5835733   -1.8276607  0.034249654   -2.5835733   0.75591257   426349 
 3662000   0.60825886   -2.5831671   -2.5831671   -1.8270526  0.039111294   -2.5831671   0.75611455   426349 
 3663000   0.60716094   -2.5819146   -2.5819146   -1.8271649  0.040776287   -2.5819146   0.75474974   426349 
 3664000   0.60859721   -2.5837489   -2.5837489   -1.8272137  0.028499622   -2.5837489   0.75653514   426349 
 3665000   0.60729961   -2.5821876   -2.5821876   -1.8272655  0.033795893   -2.5821876   0.75492213   426349 
 3666000   0.60811457    -2.583234    -2.583234   -1.8272988  0.032462298    -2.583234   0.75593518   426349 
 3667000   0.60666519   -2.5812787   -2.5812787   -1.8271452  0.037247429   -2.5812787   0.75413348   426349 
 3668000   0.60755594   -2.5818027   -2.5818027   -1.8265619  0.026145732   -2.5818027   0.75524075   426349 
 3669000   0.60819758   -2.5825982   -2.5825982   -1.8265598  0.037209775   -2.5825982   0.75603837   426349 
 3670000   0.61010972   -2.5842872   -2.5842872   -1.8258719  0.040532285   -2.5842872   0.75841531   426349 
 3671000   0.60912356   -2.5825879   -2.5825879   -1.8253985  0.046594367   -2.5825879   0.75718943   426349 
 3672000   0.60852286   -2.5823587   -2.5823587    -1.825916  0.039129538   -2.5823587   0.75644271   426349 
 3673000   0.60951504   -2.5834461   -2.5834461     -1.82577  0.036046386   -2.5834461   0.75767608   426349 
 3674000   0.60982238   -2.5837896   -2.5837896   -1.8257315  0.039812677   -2.5837896   0.75805813   426349 
 3675000   0.60892352   -2.5829358   -2.5829358    -1.825995  0.046453553   -2.5829358   0.75694077   426349 
 3676000   0.60775792   -2.5821786   -2.5821786   -1.8266868  0.036436787   -2.5821786   0.75549183   426349 
 3677000   0.60740665   -2.5819676   -2.5819676   -1.8269124  0.030947748   -2.5819676   0.75505518   426349 
 3678000   0.60839449   -2.5835441   -2.5835441   -1.8272609  0.024629095   -2.5835441   0.75628315   426349 
 3679000   0.60660296   -2.5821623   -2.5821623   -1.8281062  0.033317684   -2.5821623   0.75405613   426349 
 3680000   0.60702672   -2.5827015   -2.5827015   -1.8281186  0.039057592   -2.5827015    0.7545829   426349 
 3681000   0.60687728   -2.5825989   -2.5825989   -1.8282018  0.032234998   -2.5825989   0.75439713   426349 
 3682000   0.60727116   -2.5822471   -2.5822471   -1.8273603  0.023419117   -2.5822471   0.75488676   426349 
 3683000   0.60728582   -2.5823738   -2.5823738   -1.8274688  0.044437851   -2.5823738   0.75490498   426349 
 3684000   0.60763461   -2.5826079   -2.5826079   -1.8272694  0.044108972   -2.5826079   0.75533856   426349 
 3685000   0.60744824   -2.5819549   -2.5819549   -1.8268481  0.042758324   -2.5819549   0.75510688   426349 
 3686000   0.60732933   -2.5825871   -2.5825871    -1.827628  0.029858886   -2.5825871   0.75495907   426349 
 3687000   0.60758627   -2.5825247   -2.5825247   -1.8272463  0.036607306   -2.5825247   0.75527846   426349 
 3688000   0.60762994   -2.5815177   -2.5815177   -1.8261849   0.04080263   -2.5815177   0.75533275   426349 
 3689000   0.60821366   -2.5822411   -2.5822411   -1.8261828  0.038450078   -2.5822411   0.75605836   426349 
 3690000   0.60867653   -2.5830304   -2.5830304   -1.8263966  0.031298941   -2.5830304   0.75663374   426349 
 3691000   0.60748879   -2.5813954   -2.5813954   -1.8262381  0.041438901   -2.5813954   0.75515728   426349 
 3692000   0.60800748   -2.5827647   -2.5827647   -1.8269627   0.03811168   -2.5827647   0.75580206   426349 
 3693000   0.60784941   -2.5821287   -2.5821287   -1.8265231  0.032879636   -2.5821287   0.75560557   426349 
 3694000   0.60880459   -2.5823444   -2.5823444   -1.8255515  0.041014349   -2.5823444   0.75679293   426349 
 3695000   0.60929043   -2.5829122   -2.5829122   -1.8255153  0.052404168   -2.5829122   0.75739687   426349 
 3696000   0.60700538   -2.5806481   -2.5806481   -1.8260917  0.046232935   -2.5806481   0.75455637   426349 
 3697000   0.60764491   -2.5813591   -2.5813591   -1.8260078   0.05256826   -2.5813591   0.75535136   426349 
 3698000    0.6100594   -2.5848323   -2.5848323   -1.8264795   0.03182243   -2.5848323   0.75835276   426349 
 3699000   0.60875791   -2.5837343   -2.5837343   -1.8269994  0.037970017   -2.5837343    0.7567349   426349 
 3700000   0.60885652   -2.5842586   -2.5842586   -1.8274011  0.035735703   -2.5842586   0.75685748   426349 
 3701000    0.6073689   -2.5832202   -2.5832202    -1.828212  0.037724157   -2.5832202   0.75500826   426349 
 3702000   0.60657944   -2.5819832   -2.5819832   -1.8279563  0.034346575   -2.5819832    0.7540269   426349 
 3703000   0.60754646   -2.5832322   -2.5832322   -1.8280032  0.035507518   -2.5832322   0.75522898   426349 
 3704000     0.607125   -2.5834592   -2.5834592   -1.8287542  0.042260595   -2.5834592   0.75470506   426349 
 3705000   0.60813226   -2.5848138   -2.5848138   -1.8288566  0.040228363   -2.5848138   0.75595717   426349 
 3706000   0.60796682   -2.5840748   -2.5840748   -1.8283233  0.042649676   -2.5840748   0.75575151   426349 
 3707000   0.60907584     -2.58513     -2.58513   -1.8279999  0.036507419     -2.58513   0.75713011   426349 
 3708000   0.60897829   -2.5846769   -2.5846769   -1.8276681  0.041972418   -2.5846769   0.75700885   426349 
 3709000   0.60852204   -2.5837714   -2.5837714   -1.8273297  0.045553981   -2.5837714    0.7564417   426349 
 3710000   0.60867798   -2.5845236   -2.5845236   -1.8278881  0.038681697   -2.5845236   0.75663554   426349 
 3711000   0.60938418   -2.5855345   -2.5855345   -1.8280211  0.050304877   -2.5855345   0.75751341   426349 
 3712000   0.60952148   -2.5852757   -2.5852757   -1.8275917  0.038139774   -2.5852757   0.75768409   426349 
 3713000    0.6083992   -2.5837451   -2.5837451   -1.8274561  0.039021439   -2.5837451     0.756289   426349 
 3714000   0.60841868   -2.5834619   -2.5834619   -1.8271486  0.041404421   -2.5834619   0.75631322   426349 
 3715000   0.60919849   -2.5837219   -2.5837219   -1.8264393  0.032668251   -2.5837219   0.75728258   426349 
 3716000   0.60743783   -2.5815942   -2.5815942   -1.8265003  0.042960583   -2.5815942   0.75509393   426349 
 3717000   0.60716779   -2.5818963   -2.5818963   -1.8271381  0.029223214   -2.5818963   0.75475826   426349 
 3718000   0.60677078   -2.5810641   -2.5810641   -1.8267994  0.044991875   -2.5810641   0.75426474   426349 
 3719000   0.60667101   -2.5822418   -2.5822418    -1.828101  0.032765708   -2.5822418   0.75414072   426349 
 3720000   0.60644196   -2.5819256   -2.5819256   -1.8280696  0.046046184   -2.5819256   0.75385599   426349 
 3721000   0.60560482   -2.5800975   -2.5800975   -1.8272821  0.039974112   -2.5800975   0.75281536   426349 
 3722000   0.60586108   -2.5809719   -2.5809719    -1.827838  0.040147361   -2.5809719   0.75313392   426349 
 3723000   0.60697724   -2.5824321   -2.5824321   -1.8279107  0.028826965   -2.5824321   0.75452138   426349 
 3724000   0.60681113   -2.5812175   -2.5812175   -1.8269026  0.035024436   -2.5812175    0.7543149   426349 
 3725000   0.60712944   -2.5817693   -2.5817693   -1.8270587  0.047214889   -2.5817693   0.75471058   426349 
 3726000   0.60881152   -2.5823729   -2.5823729   -1.8255713  0.034804086   -2.5823729   0.75680154   426349 
 3727000   0.60813098   -2.5814807   -2.5814807   -1.8255251  0.024911856   -2.5814807   0.75595558   426349 
 3728000   0.60746028    -2.580459    -2.580459   -1.8253372  0.031861547    -2.580459   0.75512185   426349 
 3729000   0.60878378   -2.5815906   -2.5815906   -1.8248235  0.045608413   -2.5815906   0.75676707   426349 
 3730000    0.6075286   -2.5810566   -2.5810566   -1.8258498   0.04337873   -2.5810566   0.75520677   426349 
 3731000   0.60838785   -2.5821521   -2.5821521   -1.8258772   0.03452377   -2.5821521   0.75627489   426349 
 3732000   0.60842319   -2.5823984   -2.5823984   -1.8260795   0.04353128   -2.5823984   0.75631882   426349 
 3733000   0.60861966   -2.5825641   -2.5825641    -1.826001  0.031538771   -2.5825641   0.75656305   426349 
 3734000   0.60851307   -2.5826999   -2.5826999   -1.8262693  0.044407576   -2.5826999   0.75643055   426349 
 3735000   0.60802536   -2.5821524   -2.5821524   -1.8263281   0.03989526   -2.5821524   0.75582428   426349 
 3736000   0.60764629   -2.5812826   -2.5812826   -1.8259295  0.041177665   -2.5812826   0.75535307   426349 
 3737000   0.60775262   -2.5818503   -2.5818503   -1.8263651  0.033576479   -2.5818503   0.75548525   426349 
 3738000   0.60728058   -2.5806751   -2.5806751   -1.8257766  0.040662032   -2.5806751   0.75489846   426349 
 3739000   0.60907685   -2.5835594   -2.5835594   -1.8264281  0.026927637   -2.5835594   0.75713137   426349 
 3740000   0.60801892   -2.5819696   -2.5819696   -1.8261533  0.042651515   -2.5819696   0.75581628   426349 
 3741000   0.60834421   -2.5815865   -2.5815865   -1.8253659  0.038388672   -2.5815865   0.75622064   426349 
 3742000   0.60841467   -2.5819519   -2.5819519   -1.8256437  0.033833926   -2.5819519   0.75630822   426349 
 3743000   0.60851005   -2.5823493   -2.5823493   -1.8259225  0.037137355   -2.5823493   0.75642679   426349 
 3744000   0.60808224   -2.5816252   -2.5816252   -1.8257302   0.03704462   -2.5816252   0.75589499   426349 
 3745000   0.60709242   -2.5812724   -2.5812724   -1.8266079  0.031441554   -2.5812724   0.75466456   426349 
 3746000   0.60893371   -2.5829492   -2.5829492   -1.8259958  0.041962356   -2.5829492   0.75695344   426349 
 3747000   0.60821573    -2.582871    -2.582871     -1.82681  0.031592045    -2.582871   0.75606093   426349 
 3748000   0.60617355   -2.5809162   -2.5809162   -1.8273939  0.037073016   -2.5809162   0.75352233   426349 
 3749000   0.60760425   -2.5822372   -2.5822372   -1.8269364  0.041704782   -2.5822372   0.75530082   426349 
 3750000   0.60894717   -2.5831126   -2.5831126   -1.8261424  0.039182963   -2.5831126   0.75697017   426349 
 3751000   0.60844048   -2.5821237   -2.5821237   -1.8257834  0.036833863   -2.5821237   0.75634032   426349 
 3752000   0.60826469   -2.5825361   -2.5825361   -1.8264143  0.038925314   -2.5825361   0.75612179   426349 
 3753000   0.60803267   -2.5822708   -2.5822708   -1.8264374  0.031337449   -2.5822708   0.75583337   426349 
 3754000   0.60875353   -2.5833003   -2.5833003   -1.8265708  0.047732616   -2.5833003   0.75672946   426349 
 3755000   0.60713129   -2.5814306   -2.5814306   -1.8267178  0.041718444   -2.5814306   0.75471288   426349 
 3756000   0.60777849   -2.5824864   -2.5824864    -1.826969  0.038111268   -2.5824864   0.75551741   426349 
 3757000   0.60893227   -2.5833131   -2.5833131   -1.8263615  0.042953735   -2.5833131   0.75695165   426349 
 3758000   0.60875074   -2.5834301   -2.5834301   -1.8267041  0.047623775   -2.5834301     0.756726   426349 
 3759000    0.6088284   -2.5840029   -2.5840029   -1.8271804   0.03676659   -2.5840029   0.75682253   426349 
 3760000   0.60729242   -2.5810724   -2.5810724   -1.8261592  0.032171654   -2.5810724   0.75491319   426349 
 3761000   0.60763555   -2.5821622   -2.5821622   -1.8268225  0.038113987   -2.5821622   0.75533971   426349 
 3762000   0.60765133   -2.5820398   -2.5820398   -1.8266805  0.034532467   -2.5820398   0.75535934   426349 
 3763000   0.60789015   -2.5831718   -2.5831718   -1.8275155  0.037510568   -2.5831718   0.75565621   426349 
 3764000   0.60950763   -2.5845066   -2.5845066   -1.8268398  0.040887127   -2.5845066   0.75766687   426349 
 3765000   0.60731446   -2.5817889   -2.5817889   -1.8268484  0.036589115   -2.5817889   0.75494058   426349 
 3766000   0.60781797   -2.5823515   -2.5823515    -1.826785  0.038286462   -2.5823515   0.75556649   426349 
 3767000   0.60761587   -2.5823355   -2.5823355   -1.8270203  0.038133488   -2.5823355   0.75531526   426349 
 3768000   0.60850038   -2.5836001   -2.5836001   -1.8271853   0.02931027   -2.5836001   0.75641477   426349 
 3769000    0.6084577   -2.5840187   -2.5840187    -1.827657   0.03862893   -2.5840187   0.75636172   426349 
 3770000   0.60707876   -2.5823976   -2.5823976     -1.82775  0.035915978   -2.5823976   0.75464758   426349 
 3771000   0.60900058    -2.584892    -2.584892   -1.8278554    0.0430164    -2.584892   0.75703656   426349 
 3772000   0.60781033   -2.5840386   -2.5840386   -1.8284816    0.0377847   -2.5840386   0.75555699   426349 
 3773000   0.60923271   -2.5853997   -2.5853997   -1.8280745   0.04144339   -2.5853997   0.75732512   426349 
 3774000   0.60731924   -2.5840954   -2.5840954   -1.8291489  0.039796764   -2.5840954   0.75494652   426349 
 3775000   0.60672021    -2.583259    -2.583259   -1.8290572  0.044318235    -2.583259   0.75420188   426349 
 3776000   0.60826684   -2.5849941   -2.5849941   -1.8288696  0.043510049   -2.5849941   0.75612447   426349 
 3777000   0.60843674   -2.5853888   -2.5853888   -1.8290532  0.041169759   -2.5853888   0.75633566   426349 
 3778000   0.60783152   -2.5850384   -2.5850384    -1.829455  0.035360596   -2.5850384   0.75558333   426349 
 3779000   0.60840156   -2.5857831   -2.5857831   -1.8294911  0.033186296   -2.5857831   0.75629193   426349 
 3780000   0.60794518   -2.5849803   -2.5849803   -1.8292557   0.03653275   -2.5849803   0.75572461   426349 
 3781000   0.60736824   -2.5843615   -2.5843615   -1.8293541  0.035583654   -2.5843615   0.75500743   426349 
 3782000   0.60581993   -2.5835254   -2.5835254   -1.8304426   0.03583311   -2.5835254   0.75308275   426349 
 3783000    0.6081041   -2.5851517   -2.5851517   -1.8292295  0.039025501   -2.5851517   0.75592217   426349 
 3784000   0.60670829   -2.5841691   -2.5841691   -1.8299821  0.038242044   -2.5841691   0.75418706   426349 
 3785000   0.60658262   -2.5845743   -2.5845743   -1.8305435  0.046314554   -2.5845743   0.75403084   426349 
 3786000   0.60583307   -2.5843589   -2.5843589   -1.8312598  0.044738701   -2.5843589   0.75309909   426349 
 3787000   0.60727532   -2.5856815   -2.5856815   -1.8307896   0.03553046   -2.5856815   0.75489192   426349 
 3788000   0.60795516   -2.5866106   -2.5866106   -1.8308736  0.036487441   -2.5866106   0.75573703   426349 
 3789000   0.60823938    -2.587578    -2.587578   -1.8314876  0.035850173    -2.587578   0.75609033   426349 
 3790000    0.6077651   -2.5865025   -2.5865025   -1.8310017  0.037173441   -2.5865025   0.75550076   426349 
 3791000   0.60772198   -2.5856615   -2.5856615   -1.8302143  0.031137124   -2.5856615   0.75544716   426349 
 3792000    0.6077216   -2.5854979   -2.5854979   -1.8300512  0.039773586   -2.5854979   0.75544668   426349 
 3793000   0.60958842   -2.5883783   -2.5883783    -1.830611  0.027259176   -2.5883783    0.7577673   426349 
 3794000   0.60823362   -2.5872011   -2.5872011    -1.831118  0.040392092   -2.5872011   0.75608317   426349 
 3795000   0.60881411   -2.5866595   -2.5866595   -1.8298548  0.034499733   -2.5866595   0.75680476   426349 
 3796000   0.60794414    -2.584666    -2.584666   -1.8289426  0.038560804    -2.584666   0.75572332   426349 
 3797000   0.60885278   -2.5859572   -2.5859572   -1.8291044  0.033569507   -2.5859572   0.75685283   426349 
 3798000   0.60947193   -2.5868628   -2.5868628   -1.8292404  0.032360449   -2.5868628   0.75762249   426349 
 3799000   0.60741376   -2.5837921   -2.5837921   -1.8287281  0.043809279   -2.5837921   0.75506401   426349 
 3800000    0.6080004    -2.585107    -2.585107   -1.8293138  0.026097257    -2.585107   0.75579326   426349 
 3801000   0.60787353   -2.5854467   -2.5854467   -1.8298111  0.035013864   -2.5854467   0.75563554   426349 
 3802000   0.60662156   -2.5841916   -2.5841916   -1.8301123  0.032612872   -2.5841916   0.75407925   426349 
 3803000   0.60804438   -2.5861462   -2.5861462   -1.8302983  0.031996192   -2.5861462   0.75584792   426349 
 3804000   0.60822503   -2.5858048   -2.5858048   -1.8297323  0.045005629   -2.5858048   0.75607249   426349 
 3805000   0.60833692    -2.586025    -2.586025   -1.8298134  0.035925315    -2.586025   0.75621158   426349 
 3806000    0.6067145   -2.5843294   -2.5843294   -1.8301347  0.040518161   -2.5843294   0.75419478   426349 
 3807000   0.60824985   -2.5855236   -2.5855236   -1.8294203  0.042052747   -2.5855236   0.75610334   426349 
 3808000   0.60774279   -2.5850347   -2.5850347   -1.8295616  0.033688152   -2.5850347   0.75547303   426349 
 3809000   0.60875021   -2.5860017   -2.5860017   -1.8292764   0.04044963   -2.5860017   0.75672533   426349 
 3810000   0.60858705   -2.5859812   -2.5859812   -1.8294587  0.042096874   -2.5859812   0.75652251   426349 
 3811000   0.60747789   -2.5848758   -2.5848758   -1.8297321  0.042056762   -2.5848758   0.75514373   426349 
 3812000   0.60860467   -2.5861635   -2.5861635   -1.8296191  0.038955075   -2.5861635   0.75654441   426349 
 3813000   0.60791706   -2.5863957   -2.5863957    -1.830706  0.041613761   -2.5863957   0.75568965   426349 
 3814000   0.60686652   -2.5855468   -2.5855468   -1.8311631  0.045009888   -2.5855468   0.75438375   426349 
 3815000   0.60617051   -2.5836694   -2.5836694   -1.8301508  0.044050643   -2.5836694   0.75351855   426349 
 3816000   0.60720731   -2.5848953   -2.5848953   -1.8300879  0.036673268   -2.5848953   0.75480738   426349 
 3817000   0.60704204   -2.5851231   -2.5851231   -1.8305212  0.048465108   -2.5851231   0.75460193   426349 
 3818000   0.60756339   -2.5866113   -2.5866113   -1.8313613  0.033184844   -2.5866113   0.75525002   426349 
 3819000   0.60688649    -2.585873    -2.585873   -1.8314644  0.042069077    -2.585873   0.75440858   426349 
 3820000   0.60713511   -2.5862589   -2.5862589   -1.8315413  0.044002261   -2.5862589   0.75471763   426349 
 3821000   0.60682763    -2.585467    -2.585467   -1.8311316  0.041808488    -2.585467   0.75433541   426349 
 3822000   0.60681224   -2.5859446   -2.5859446   -1.8316283  0.036405866   -2.5859446   0.75431627   426349 
 3823000   0.60581479   -2.5843312   -2.5843312   -1.8312549  0.037189062   -2.5843312   0.75307637   426349 
 3824000    0.6082884   -2.5875994   -2.5875994   -1.8314482  0.035843556   -2.5875994   0.75615126   426349 
 3825000   0.60789923   -2.5866521   -2.5866521   -1.8309846  0.031330043   -2.5866521    0.7556675   426349 
 3826000    0.6091786   -2.5874448   -2.5874448   -1.8301869  0.027297999   -2.5874448   0.75725785   426349 
 3827000    0.6079792   -2.5863454   -2.5863454   -1.8305785  0.043296151   -2.5863454    0.7557669   426349 
 3828000   0.60756338   -2.5860806   -2.5860806   -1.8308306  0.037562285   -2.5860806   0.75525001   426349 
 3829000   0.60798725   -2.5869357   -2.5869357   -1.8311588  0.045979517   -2.5869357   0.75577691   426349 
 3830000   0.60696314   -2.5856261   -2.5856261   -1.8311222  0.048134233   -2.5856261   0.75450386   426349 
 3831000   0.60703912   -2.5852064   -2.5852064   -1.8306081  0.036494117   -2.5852064   0.75459831   426349 
 3832000   0.60777394   -2.5865154   -2.5865154   -1.8310036  0.034885929   -2.5865154   0.75551175   426349 
 3833000   0.60777316   -2.5866353   -2.5866353   -1.8311245   0.03775633   -2.5866353   0.75551078   426349 
 3834000   0.60694422   -2.5857602   -2.5857602   -1.8312798  0.046869851   -2.5857602   0.75448034   426349 
 3835000   0.60762267   -2.5864902   -2.5864902   -1.8311665  0.037967751   -2.5864902   0.75532371   426349 
 3836000   0.60851009   -2.5868473   -2.5868473   -1.8304204  0.043881555   -2.5868473   0.75642684   426349 
 3837000   0.60828653   -2.5867565   -2.5867565   -1.8306075  0.039217181   -2.5867565   0.75614894   426349 
 3838000   0.60797161   -2.5872095   -2.5872095    -1.831452  0.037927709   -2.5872095   0.75575747   426349 
 3839000   0.60800621   -2.5876099   -2.5876099   -1.8318094  0.036976615   -2.5876099   0.75580048   426349 
 3840000   0.60763925   -2.5865471   -2.5865471   -1.8312028  0.039171312   -2.5865471   0.75534432   426349 
 3841000   0.60913506   -2.5877075   -2.5877075   -1.8305037  0.039882273   -2.5877075   0.75720374   426349 
 3842000    0.6076119   -2.5862863   -2.5862863    -1.830976  0.030024274   -2.5862863   0.75531033   426349 
 3843000    0.6078639   -2.5874726   -2.5874726    -1.831849  0.040513159   -2.5874726   0.75562357   426349 
 3844000   0.60721711   -2.5868835   -2.5868835   -1.8320639  0.036758839   -2.5868835   0.75481957   426349 
 3845000    0.6078021   -2.5874026   -2.5874026   -1.8318559  0.032783764   -2.5874026   0.75554676   426349 
 3846000   0.60749073   -2.5876552   -2.5876552   -1.8324955  0.047342164   -2.5876552    0.7551597   426349 
 3847000   0.60774823   -2.5880859   -2.5880859   -1.8326061   0.02800256   -2.5880859   0.75547979   426349 
 3848000   0.60793759   -2.5881248   -2.5881248   -1.8324096   0.03606211   -2.5881248   0.75571519   426349 
 3849000   0.60707096    -2.586501    -2.586501   -1.8318631  0.034323805    -2.586501   0.75463789   426349 
 3850000   0.60748936   -2.5871026   -2.5871026   -1.8319446  0.041853006   -2.5871026     0.755158   426349 
 3851000   0.60662359   -2.5861531   -2.5861531   -1.8320713  0.037477183   -2.5861531   0.75408178   426349 
 3852000   0.60703629   -2.5866995   -2.5866995   -1.8321047  0.038317105   -2.5866995   0.75459479   426349 
 3853000   0.60713329   -2.5868506   -2.5868506   -1.8321352  0.038311253   -2.5868506   0.75471537   426349 
 3854000   0.60740962   -2.5870897   -2.5870897   -1.8320309  0.033798199   -2.5870897   0.75505887   426349 
 3855000   0.60680212   -2.5865214   -2.5865214   -1.8322177  0.034544777   -2.5865214   0.75430371   426349 
 3856000   0.60686664   -2.5868149   -2.5868149    -1.832431  0.035731387   -2.5868149    0.7543839   426349 
 3857000   0.60728761   -2.5877186   -2.5877186   -1.8328114  0.042147032   -2.5877186   0.75490721   426349 
 3858000   0.60817154   -2.5881012   -2.5881012   -1.8320952   0.03756369   -2.5881012     0.756006   426349 
 3859000   0.60733106   -2.5868474   -2.5868474   -1.8318862  0.042420947   -2.5868474   0.75496122   426349 
 3860000   0.60804646   -2.5878735   -2.5878735    -1.832023  0.042817204   -2.5878735   0.75585052   426349 
 3861000   0.60937221   -2.5896542   -2.5896542   -1.8321556  0.037295743   -2.5896542   0.75749853   426349 
 3862000   0.60937785   -2.5889911   -2.5889911   -1.8314856  0.035038998   -2.5889911   0.75750554   426349 
 3863000   0.60873868   -2.5882363   -2.5882363   -1.8315253  0.031163363   -2.5882363     0.756711   426349 
 3864000   0.60865711   -2.5881143   -2.5881143   -1.8315047  0.035250842   -2.5881143    0.7566096   426349 
 3865000    0.6097936   -2.5896684   -2.5896684    -1.831646   0.04301125   -2.5896684   0.75802236   426349 
 3866000   0.60803488   -2.5881008   -2.5881008   -1.8322646  0.034133602   -2.5881008   0.75583612   426349 
 3867000   0.60779623   -2.5888728   -2.5888728   -1.8333333  0.043341933   -2.5888728   0.75553946   426349 
 3868000    0.6063793   -2.5875677   -2.5875677   -1.8337896  0.047920474   -2.5875677   0.75377811   426349 
 3869000   0.60745907   -2.5890508   -2.5890508   -1.8339304  0.040639679   -2.5890508   0.75512034   426349 
 3870000   0.60763488   -2.5896414   -2.5896414   -1.8343025  0.033134942   -2.5896414   0.75533889   426349 
 3871000   0.60747169   -2.5883064   -2.5883064   -1.8331704  0.033239442   -2.5883064   0.75513603   426349 
 3872000   0.60663194   -2.5879983   -2.5879983   -1.8339061  0.041113738   -2.5879983   0.75409215   426349 
 3873000   0.60826844   -2.5894421   -2.5894421   -1.8333156  0.039541514   -2.5894421   0.75612646   426349 
 3874000   0.60776729   -2.5886399   -2.5886399   -1.8331364  0.029757505   -2.5886399   0.75550349   426349 
 3875000   0.60773119   -2.5881317   -2.5881317   -1.8326731  0.037841612   -2.5881317    0.7554586   426349 
 3876000   0.60749921   -2.5878985   -2.5878985   -1.8327283  0.037060319   -2.5878985   0.75517024   426349 
 3877000    0.6070356   -2.5872649   -2.5872649    -1.832671  0.042902793   -2.5872649   0.75459393   426349 
 3878000   0.60835054   -2.5894007   -2.5894007   -1.8331722  0.033988667   -2.5894007   0.75622851   426349 
 3879000   0.60860678   -2.5886765   -2.5886765   -1.8321294  0.037304588   -2.5886765   0.75654703   426349 
 3880000   0.60660975   -2.5866014   -2.5866014   -1.8325368  0.040699895   -2.5866014   0.75406457   426349 
 3881000   0.60646674   -2.5862694   -2.5862694   -1.8323826   0.03453301   -2.5862694    0.7538868   426349 
 3882000    0.6068632   -2.5871844   -2.5871844   -1.8328047  0.053023699   -2.5871844   0.75437962   426349 
 3883000   0.60679649   -2.5876537   -2.5876537    -1.833357  0.028413654   -2.5876537    0.7542967   426349 
 3884000   0.60669946   -2.5874052   -2.5874052   -1.8332291  0.042093969   -2.5874052   0.75417609   426349 
 3885000   0.60770878   -2.5881114   -2.5881114   -1.8326806  0.044412064   -2.5881114   0.75543076   426349 
 3886000   0.60684287   -2.5867564   -2.5867564    -1.832402  0.035228338   -2.5867564   0.75435435   426349 
 3887000   0.60693279   -2.5860943   -2.5860943   -1.8316281  0.029712326   -2.5860943   0.75446614   426349 
 3888000   0.60686458   -2.5858851   -2.5858851   -1.8315037  0.041539685   -2.5858851   0.75438135   426349 
 3889000    0.6079631   -2.5878784   -2.5878784   -1.8321315  0.036810937   -2.5878784   0.75574689   426349 
 3890000   0.60773843   -2.5884308   -2.5884308   -1.8329632   0.03267484   -2.5884308   0.75546761   426349 
 3891000   0.60600136   -2.5859399   -2.5859399   -1.8326316  0.037772419   -2.5859399   0.75330829   426349 
 3892000   0.60739826   -2.5868537   -2.5868537    -1.831809  0.042024674   -2.5868537   0.75504475   426349 
 3893000   0.60822642   -2.5880303   -2.5880303   -1.8319561  0.036681016   -2.5880303   0.75607422   426349 
 3894000   0.60715823   -2.5878706   -2.5878706   -1.8331243  0.029200784   -2.5878706   0.75474638   426349 
 3895000   0.60607368    -2.586955    -2.586955   -1.8335568  0.044463735    -2.586955    0.7533982   426349 
 3896000   0.60677813   -2.5869141   -2.5869141   -1.8326403  0.036180728   -2.5869141   0.75427388   426349 
 3897000   0.60656316   -2.5874524   -2.5874524   -1.8334457    0.0458914   -2.5874524   0.75400666   426349 
 3898000   0.60652524   -2.5885056   -2.5885056   -1.8345461  0.032916709   -2.5885056   0.75395952   426349 
 3899000   0.60782523   -2.5889719   -2.5889719   -1.8333964  0.024807764   -2.5889719   0.75557551   426349 
 3900000   0.60830513   -2.5902021   -2.5902021     -1.83403  0.040275107   -2.5902021   0.75617207   426349 
 3901000   0.60768902   -2.5890801   -2.5890801   -1.8336739  0.035115776   -2.5890801   0.75540618   426349 
 3902000   0.60882976   -2.5900095   -2.5900095   -1.8331853  0.033850621   -2.5900095   0.75682422   426349 
 3903000   0.60803624   -2.5890939   -2.5890939   -1.8332561  0.033403931   -2.5890939   0.75583781   426349 
 3904000   0.60677274   -2.5884043   -2.5884043   -1.8341372  0.044594288   -2.5884043   0.75426718   426349 
 3905000   0.60723629   -2.5877285   -2.5877285   -1.8328851  0.042628925   -2.5877285   0.75484341   426349 
 3906000   0.60759759   -2.5888235   -2.5888235   -1.8335309  0.038792017   -2.5888235   0.75529254   426349 
 3907000   0.60807577   -2.5891621   -2.5891621   -1.8332751  0.031493915   -2.5891621   0.75588695   426349 
 3908000   0.60815412   -2.5886395   -2.5886395   -1.8326552  0.038105331   -2.5886395   0.75598434   426349 
 3909000   0.60739822    -2.587866    -2.587866   -1.8328213    0.0366554    -2.587866    0.7550447   426349 
 3910000     0.606335   -2.5869778   -2.5869778   -1.8332548  0.032093753   -2.5869778   0.75372303   426349 
 3911000   0.60714602   -2.5881218   -2.5881218   -1.8333906  0.034770139   -2.5881218   0.75473119   426349 
 3912000   0.60654939   -2.5872279   -2.5872279   -1.8332384  0.036820248   -2.5872279   0.75398954   426349 
 3913000   0.60641346   -2.5867011   -2.5867011   -1.8328805  0.037823307   -2.5867011   0.75382057   426349 
 3914000   0.60674379   -2.5873697   -2.5873697   -1.8331385  0.031946807   -2.5873697   0.75423119   426349 
 3915000   0.60546468   -2.5858718   -2.5858718   -1.8332307  0.028216229   -2.5858718   0.75264116   426349 
 3916000   0.60648412   -2.5878651   -2.5878651   -1.8339567  0.031117555   -2.5878651   0.75390841   426349 
 3917000   0.60703456   -2.5883729   -2.5883729   -1.8337802  0.032259429   -2.5883729   0.75459265   426349 
 3918000   0.60586962   -2.5875604   -2.5875604   -1.8344159   0.03615848   -2.5875604   0.75314452   426349 
 3919000   0.60734289   -2.5892707   -2.5892707   -1.8342948  0.036327396   -2.5892707   0.75497592   426349 
 3920000   0.60717806   -2.5888538   -2.5888538   -1.8340828   0.03690126   -2.5888538   0.75477102   426349 
 3921000   0.60795559   -2.5907787   -2.5907787   -1.8350411  0.038917379   -2.5907787   0.75573755   426349 
 3922000   0.60748494    -2.589883    -2.589883   -1.8347305  0.045549742    -2.589883    0.7551525   426349 
 3923000    0.6071957   -2.5899207   -2.5899207   -1.8351277  0.049955596   -2.5899207   0.75479295   426349 
 3924000   0.60686249   -2.5895549   -2.5895549   -1.8351761  0.047225872   -2.5895549   0.75437874   426349 
 3925000    0.6081731   -2.5902288   -2.5902288   -1.8342209  0.046879809   -2.5902288   0.75600793   426349 
 3926000   0.60788423   -2.5893347   -2.5893347   -1.8336859  0.038048872   -2.5893347   0.75564885   426349 
 3927000   0.60844758   -2.5891206   -2.5891206   -1.8327714  0.040787863   -2.5891206   0.75634914   426349 
 3928000   0.60871706   -2.5900814   -2.5900814   -1.8333972  0.039245156   -2.5900814   0.75668412   426349 
 3929000   0.60876333   -2.5905317   -2.5905317   -1.8337901  0.033012107   -2.5905317   0.75674164   426349 
 3930000   0.60757893   -2.5888392   -2.5888392   -1.8335698   0.03865402   -2.5888392   0.75526933   426349 
 3931000   0.60819901   -2.5891079   -2.5891079   -1.8330677  0.041344634   -2.5891079   0.75604014   426349 
 3932000     0.607975   -2.5893508   -2.5893508   -1.8335891  0.023480936   -2.5893508   0.75576169   426349 
 3933000   0.60664564   -2.5873147   -2.5873147   -1.8332055  0.040266393   -2.5873147   0.75410918   426349 
 3934000   0.60675567   -2.5876165   -2.5876165   -1.8333706  0.037408296   -2.5876165   0.75424595   426349 
 3935000   0.60825077   -2.5898451   -2.5898451   -1.8337406  0.033044738   -2.5898451   0.75610448   426349 
 3936000   0.60711487   -2.5893245   -2.5893245    -1.834632  0.048341362   -2.5893245   0.75469248   426349 
 3937000    0.6061239   -2.5882119   -2.5882119   -1.8347513  0.035288396   -2.5882119   0.75346062   426349 
 3938000   0.60789502   -2.5907773   -2.5907773    -1.835115  0.033296559   -2.5907773   0.75566226   426349 
 3939000   0.60694296    -2.588914    -2.588914   -1.8344352  0.039437329    -2.588914   0.75447878   426349 
 3940000   0.60730538   -2.5887293   -2.5887293      -1.8338  0.035227493   -2.5887293    0.7549293   426349 
 3941000   0.60749892   -2.5887905   -2.5887905   -1.8336206  0.042339481   -2.5887905   0.75516988   426349 
 3942000   0.60593425    -2.587214    -2.587214   -1.8339891  0.038543439    -2.587214   0.75322487   426349 
 3943000   0.60719206   -2.5893785   -2.5893785   -1.8345901  0.033554648   -2.5893785   0.75478843   426349 
 3944000   0.60734852   -2.5892658   -2.5892658   -1.8342829  0.045769622   -2.5892658   0.75498292   426349 
 3945000   0.60763561    -2.589924    -2.589924   -1.8345842  0.030671118    -2.589924   0.75533979   426349 
 3946000   0.60655992   -2.5882581   -2.5882581   -1.8342554  0.040775312   -2.5882581   0.75400263   426349 
 3947000   0.60641343   -2.5886246   -2.5886246   -1.8348041   0.03817418   -2.5886246   0.75382053   426349 
 3948000   0.60664523   -2.5886178   -2.5886178   -1.8345091  0.040695609   -2.5886178   0.75410867   426349 
 3949000   0.60781083   -2.5900175   -2.5900175   -1.8344599  0.036494375   -2.5900175   0.75555761   426349 
 3950000   0.60779851   -2.5898716   -2.5898716   -1.8343293  0.042506118   -2.5898716    0.7555423   426349 
 3951000   0.60645365   -2.5880811   -2.5880811   -1.8342105  0.048817019   -2.5880811   0.75387053   426349 
 3952000   0.60762809   -2.5893046   -2.5893046   -1.8339741  0.038522649   -2.5893046   0.75533045   426349 
 3953000   0.60678407    -2.588813    -2.588813   -1.8345317   0.03738818    -2.588813   0.75428127   426349 
 3954000    0.6070899   -2.5888764   -2.5888764    -1.834215  0.044364942   -2.5888764   0.75466143   426349 
 3955000   0.60762123   -2.5897681   -2.5897681   -1.8344461  0.035985153   -2.5897681   0.75532192   426349 
 3956000   0.60738256   -2.5897187   -2.5897187   -1.8346935   0.03389994   -2.5897187   0.75502524   426349 
 3957000    0.6069101   -2.5881797   -2.5881797   -1.8337418  0.036562591   -2.5881797   0.75443793   426349 
 3958000   0.60711634   -2.5884851   -2.5884851   -1.8337908  0.033089806   -2.5884851    0.7546943   426349 
 3959000   0.60701184   -2.5882176   -2.5882176   -1.8336532  0.034591618   -2.5882176   0.75456439   426349 
 3960000   0.60708599    -2.588936    -2.588936   -1.8342794  0.043283707    -2.588936   0.75465657   426349 
 3961000   0.60784132   -2.5897131   -2.5897131   -1.8341176  0.044222672   -2.5897131    0.7555955   426349 
 3962000   0.60730307   -2.5892772   -2.5892772   -1.8343508   0.04111442   -2.5892772   0.75492642   426349 
 3963000   0.60859859   -2.5902526   -2.5902526   -1.8337158  0.029371367   -2.5902526   0.75653686   426349 
 3964000   0.60789656   -2.5895681   -2.5895681   -1.8339039  0.043241754   -2.5895681   0.75566418   426349 
 3965000   0.60795689   -2.5893641   -2.5893641   -1.8336249  0.045555491   -2.5893641   0.75573917   426349 
 3966000   0.60739982   -2.5898036   -2.5898036   -1.8347569  0.042735571   -2.5898036   0.75504669   426349 
 3967000   0.60624792   -2.5878578   -2.5878578    -1.834243  0.048980954   -2.5878578   0.75361479   426349 
 3968000   0.60692119   -2.5880981   -2.5880981   -1.8336463  0.036205671   -2.5880981   0.75445172   426349 
 3969000   0.60704388   -2.5886639   -2.5886639   -1.8340597   0.05010225   -2.5886639   0.75460423   426349 
 3970000   0.60640788   -2.5877337   -2.5877337   -1.8339201  0.042435644   -2.5877337   0.75381362   426349 
 3971000   0.60685901   -2.5888697   -2.5888697   -1.8344953  0.035701525   -2.5888697   0.75437442   426349 
 3972000   0.60679547   -2.5886223   -2.5886223   -1.8343269   0.03808381   -2.5886223   0.75429543   426349 
 3973000   0.60680599   -2.5883395   -2.5883395    -1.834031  0.035920424   -2.5883395   0.75430851   426349 
 3974000   0.60676967   -2.5879159   -2.5879159   -1.8336526  0.042264968   -2.5879159   0.75426336   426349 
 3975000   0.60638859   -2.5876236   -2.5876236    -1.833834  0.047380038   -2.5876236   0.75378964   426349 
 3976000   0.60670035   -2.5880175   -2.5880175   -1.8338404  0.029897762   -2.5880175    0.7541772   426349 
 3977000   0.60645309   -2.5881575   -2.5881575   -1.8342877  0.032081234   -2.5881575   0.75386983   426349 
 3978000   0.60572488   -2.5867597   -2.5867597   -1.8337951   0.02913554   -2.5867597    0.7529646   426349 
 3979000   0.60603949   -2.5865639   -2.5865639   -1.8332083  0.040690271   -2.5865639   0.75335569   426349 
 3980000   0.60820042   -2.5893912   -2.5893912   -1.8333493  0.045666439   -2.5893912    0.7560419   426349 
 3981000   0.60711895   -2.5879343   -2.5879343   -1.8332368  0.035691715   -2.5879343   0.75469755   426349 
 3982000   0.60656245    -2.587937    -2.587937   -1.8339313  0.047149317    -2.587937   0.75400577   426349 
 3983000   0.60675424   -2.5872276   -2.5872276   -1.8329834  0.034633646   -2.5872276   0.75424418   426349 
 3984000   0.60722524   -2.5887481   -2.5887481   -1.8339185  0.031965174   -2.5887481   0.75482967   426349 
 3985000   0.60666624    -2.587991    -2.587991   -1.8338563   0.03503415    -2.587991   0.75413479   426349 
 3986000   0.60723509   -2.5889189   -2.5889189    -1.834077  0.039734014   -2.5889189   0.75484192   426349 
 3987000   0.60743923   -2.5894663   -2.5894663   -1.8343706  0.031499229   -2.5894663   0.75509568   426349 
 3988000   0.60658531   -2.5882708   -2.5882708   -1.8342366  0.038796022   -2.5882708   0.75403419   426349 
 3989000   0.60804573   -2.5908982   -2.5908982   -1.8350486  0.032688944   -2.5908982    0.7558496   426349 
 3990000   0.60819286    -2.590741    -2.590741   -1.8347085  0.038413219    -2.590741    0.7560325   426349 
 3991000   0.60681942   -2.5894858   -2.5894858   -1.8351606  0.043294066   -2.5894858    0.7543252   426349 
 3992000   0.60708776    -2.590647    -2.590647   -1.8359882  0.043741563    -2.590647   0.75465877   426349 
 3993000    0.6073601   -2.5909516   -2.5909516   -1.8359543   0.03936271   -2.5909516   0.75499732   426349 
 3994000   0.60736773   -2.5906531   -2.5906531   -1.8356463  0.038484996   -2.5906531    0.7550068   426349 
 3995000   0.60721965   -2.5908841   -2.5908841   -1.8360614  0.035987715   -2.5908841   0.75482272   426349 
 3996000   0.60688549   -2.5907194   -2.5907194   -1.8363121  0.031128776   -2.5907194   0.75440734   426349 
 3997000   0.60684279   -2.5908665   -2.5908665   -1.8365122  0.038917988   -2.5908665   0.75435426   426349 
 3998000   0.60729383   -2.5908393   -2.5908393   -1.8359244  0.037201588   -2.5908393   0.75491493   426349 
 3999000   0.60751222   -2.5913211   -2.5913211   -1.8361347  0.042870999   -2.5913211   0.75518641   426349 
 4000000   0.60727521   -2.5906451   -2.5906451   -1.8357533  0.042578178   -2.5906451   0.75489179   426349 
 4001000   0.60772698   -2.5904444   -2.5904444    -1.834991  0.040940874   -2.5904444   0.75545338   426349 
 4002000   0.60802989   -2.5917534   -2.5917534   -1.8359235  0.035449307   -2.5917534   0.75582992   426349 
 4003000   0.60834942   -2.5918508   -2.5918508   -1.8356237  0.036466971   -2.5918508   0.75622712   426349 
 4004000   0.60833008   -2.5915409   -2.5915409   -1.8353378  0.044415715   -2.5915409   0.75620307   426349 
 4005000     0.608026   -2.5910061   -2.5910061    -1.835181  0.037641031   -2.5910061   0.75582508   426349 
 4006000   0.60744609   -2.5908958   -2.5908958   -1.8357916  0.039933014   -2.5908958    0.7551042   426349 
 4007000   0.60776446   -2.5916643   -2.5916643   -1.8361643  0.040893712   -2.5916643   0.75549996   426349 
 4008000   0.60649463   -2.5895399   -2.5895399   -1.8356185  0.042069129   -2.5895399   0.75392146   426349 
 4009000   0.60548762   -2.5883849   -2.5883849   -1.8357152   0.03539132   -2.5883849   0.75266967   426349 
 4010000   0.60641795   -2.5899295   -2.5899295   -1.8361034  0.033641696   -2.5899295   0.75382615   426349 
 4011000   0.60602147    -2.588856    -2.588856   -1.8355227  0.043939278    -2.588856   0.75333329   426349 
 4012000   0.60691271   -2.5894487   -2.5894487   -1.8350075  0.032047868   -2.5894487   0.75444117   426349 
 4013000   0.60821024   -2.5908641   -2.5908641     -1.83481  0.037092091   -2.5908641   0.75605411   426349 
 4014000    0.6076014   -2.5900771   -2.5900771   -1.8347799  0.043300477   -2.5900771   0.75529727   426349 
 4015000   0.60818362   -2.5907513   -2.5907513   -1.8347302  0.033095702   -2.5907513   0.75602101   426349 
 4016000   0.60732982    -2.590404    -2.590404   -1.8354444  0.032346382    -2.590404   0.75495967   426349 
 4017000   0.60633517   -2.5894333   -2.5894333     -1.83571  0.036471582   -2.5894333   0.75372324   426349 
 4018000   0.60778963   -2.5915531   -2.5915531   -1.8360219   0.03847591   -2.5915531   0.75553126   426349 
 4019000   0.60700629   -2.5902795   -2.5902795    -1.835722  0.041909834   -2.5902795    0.7545575   426349 
 4020000    0.6081273   -2.5913341   -2.5913341   -1.8353831   0.03941387   -2.5913341     0.755951   426349 
 4021000   0.60803938   -2.5908502   -2.5908502   -1.8350085  0.042136296   -2.5908502   0.75584171   426349 
 4022000   0.60839774   -2.5911797   -2.5911797   -1.8348925  0.030383308   -2.5911797   0.75628719   426349 
 4023000   0.60776672   -2.5909796   -2.5909796   -1.8354768  0.034047889   -2.5909796   0.75550278   426349 
 4024000   0.60742154   -2.5902956   -2.5902956   -1.8352219  0.042655798   -2.5902956   0.75507369   426349 
 4025000   0.60657857   -2.5897411   -2.5897411   -1.8357153  0.038180778   -2.5897411   0.75402581   426349 
 4026000   0.60629812   -2.5900042   -2.5900042    -1.836327  0.049250926   -2.5900042   0.75367719   426349 
 4027000   0.60694083   -2.5906614   -2.5906614   -1.8361852  0.050976751   -2.5906614   0.75447613   426349 
 4028000   0.60769984   -2.5915598   -2.5915598   -1.8361401  0.032967852   -2.5915598   0.75541964   426349 
 4029000   0.60773169   -2.5918138   -2.5918138   -1.8363546  0.027024978   -2.5918138   0.75545923   426349 
 4030000   0.60718949   -2.5906015   -2.5906015   -1.8358163  0.042712059   -2.5906015   0.75478523   426349 
 4031000   0.60698765   -2.5908132   -2.5908132   -1.8362788   0.03592102   -2.5908132   0.75453433   426349 
 4032000   0.60647815   -2.5899242   -2.5899242   -1.8360232  0.040103153   -2.5899242   0.75390098   426349 
 4033000   0.60649899   -2.5914228   -2.5914228   -1.8374959  0.025096613   -2.5914228   0.75392688   426349 
 4034000   0.60662735   -2.5914455   -2.5914455   -1.8373591  0.039305081   -2.5914455   0.75408645   426349 
 4035000   0.60636607    -2.591171    -2.591171   -1.8374094   0.03866165    -2.591171   0.75376166   426349 
 4036000   0.60735172   -2.5919317   -2.5919317   -1.8369448  0.038538475   -2.5919317    0.7549869   426349 
 4037000   0.60608094   -2.5913795   -2.5913795   -1.8379723  0.035397638   -2.5913795   0.75340722   426349 
 4038000   0.60653559   -2.5910317   -2.5910317   -1.8370593  0.039134868   -2.5910317   0.75397239   426349 
 4039000   0.60788997   -2.5921316   -2.5921316   -1.8364756   0.03694211   -2.5921316   0.75565599   426349 
 4040000   0.60815027   -2.5919088   -2.5919088   -1.8359292  0.037532069   -2.5919088   0.75597956   426349 
 4041000   0.60787608   -2.5913017   -2.5913017   -1.8356629  0.035054165   -2.5913017   0.75563871   426349 
 4042000   0.60703434   -2.5902256   -2.5902256   -1.8356332  0.036990908   -2.5902256   0.75459237   426349 
 4043000   0.60774007   -2.5905999   -2.5905999   -1.8351303  0.042997739   -2.5905999   0.75546965   426349 
 4044000   0.60730525   -2.5905547   -2.5905547   -1.8356255  0.039049303   -2.5905547   0.75492914   426349 
 4045000   0.60649029   -2.5902484   -2.5902484   -1.8363323  0.035560039   -2.5902484   0.75391606   426349 
 4046000    0.6070662   -2.5902389   -2.5902389    -1.835607  0.032376815   -2.5902389   0.75463197   426349 
 4047000    0.6066411   -2.5902467   -2.5902467   -1.8361432  0.035026942   -2.5902467   0.75410354   426349 
 4048000   0.60661363   -2.5902821   -2.5902821   -1.8362128  0.036530537   -2.5902821   0.75406939   426349 
 4049000    0.6056367   -2.5898282   -2.5898282   -1.8369732  0.030203193   -2.5898282   0.75285499   426349 
 4050000   0.60576661   -2.5899825   -2.5899825    -1.836966   0.03494898   -2.5899825   0.75301648   426349 
 4051000   0.60593944   -2.5907301   -2.5907301   -1.8374988  0.038593989   -2.5907301   0.75323132   426349 
 4052000   0.60665056    -2.591905    -2.591905   -1.8377897  0.040580544    -2.591905    0.7541153   426349 
 4053000   0.60823107   -2.5927604   -2.5927604   -1.8366804  0.034779393   -2.5927604      0.75608   426349 
 4054000   0.60666012   -2.5911115   -2.5911115   -1.8369843  0.042548577   -2.5911115   0.75412718   426349 
 4055000   0.60718258   -2.5925226   -2.5925226   -1.8377459  0.036656933   -2.5925226   0.75477665   426349 
 4056000    0.6076689   -2.5929629   -2.5929629   -1.8375817   0.02874566   -2.5929629   0.75538117   426349 
 4057000    0.6055905   -2.5913621   -2.5913621   -1.8385645  0.039565835   -2.5913621   0.75279756   426349 
 4058000   0.60604088    -2.592467    -2.592467   -1.8391096  0.027548644    -2.592467   0.75335742   426349 
 4059000   0.60741223   -2.5940989   -2.5940989   -1.8390368  0.045250062   -2.5940989   0.75506212   426349 
 4060000   0.60730663   -2.5932334   -2.5932334   -1.8383025  0.041258131   -2.5932334   0.75493085   426349 
 4061000   0.60737777   -2.5941878   -2.5941878   -1.8391685  0.041612082   -2.5941878   0.75501928   426349 
 4062000   0.60725627   -2.5934084   -2.5934084   -1.8385401  0.048334423   -2.5934084   0.75486825   426349 
 4063000   0.60657581   -2.5919596   -2.5919596   -1.8379372   0.03911672   -2.5919596   0.75402238   426349 
 4064000   0.60641526    -2.592731    -2.592731   -1.8389082   0.03115578    -2.592731    0.7538228   426349 
 4065000   0.60711389   -2.5928629   -2.5928629   -1.8381716   0.04080261   -2.5928629   0.75469126   426349 
 4066000   0.60657138     -2.59242     -2.59242   -1.8384031  0.044373834     -2.59242   0.75401687   426349 
 4067000   0.60721156   -2.5934505   -2.5934505   -1.8386379  0.035304287   -2.5934505   0.75481267   426349 
 4068000   0.60697948   -2.5930359   -2.5930359   -1.8385117  0.030979173   -2.5930359   0.75452418   426349 
 4069000   0.60697655   -2.5928157   -2.5928157   -1.8382952  0.039102898   -2.5928157   0.75452053   426349 
 4070000    0.6064804   -2.5921759   -2.5921759   -1.8382721  0.041510834   -2.5921759   0.75390377   426349 
 4071000   0.60677211   -2.5928849   -2.5928849   -1.8386185   0.03382089   -2.5928849    0.7542664   426349 
 4072000    0.6067726   -2.5931264   -2.5931264   -1.8388594  0.029803919   -2.5931264   0.75426701   426349 
 4073000    0.6077468   -2.5941723   -2.5941723   -1.8386943  0.032135032   -2.5941723   0.75547802   426349 
 4074000   0.60643531   -2.5925812   -2.5925812   -1.8387335  0.037118448   -2.5925812   0.75384773   426349 
 4075000   0.60592578    -2.591525    -2.591525   -1.8383107  0.036739172    -2.591525   0.75321433   426349 
 4076000   0.60743381   -2.5928061   -2.5928061   -1.8377171  0.025306918   -2.5928061   0.75508894   426349 
 4077000    0.6067462   -2.5923139   -2.5923139   -1.8380798  0.035473111   -2.5923139   0.75423418   426349 
 4078000   0.60712655   -2.5930314   -2.5930314   -1.8383244    0.0408506   -2.5930314   0.75470699   426349 
 4079000   0.60730505   -2.5930553   -2.5930553   -1.8381264  0.035946598   -2.5930553   0.75492889   426349 
 4080000   0.60752979   -2.5937507   -2.5937507   -1.8385425  0.030693908   -2.5937507   0.75520826   426349 
 4081000   0.60698093   -2.5926684   -2.5926684   -1.8381424  0.041401858   -2.5926684   0.75452598   426349 
 4082000   0.60635422   -2.5920066   -2.5920066   -1.8382597  0.042981966   -2.5920066   0.75374693   426349 
 4083000   0.60710356    -2.592135    -2.592135   -1.8374566  0.042682023    -2.592135   0.75467841   426349 
 4084000   0.60600537   -2.5916341   -2.5916341   -1.8383209  0.032182533   -2.5916341   0.75331327   426349 
 4085000   0.60657162   -2.5916191   -2.5916191    -1.837602  0.038745738   -2.5916191   0.75401718   426349 
 4086000   0.60523735    -2.589948    -2.589948   -1.8375894  0.030825454    -2.589948   0.75235857   426349 
 4087000    0.6059285   -2.5905238   -2.5905238   -1.8373061  0.034797599   -2.5905238   0.75321773   426349 
 4088000   0.60610001   -2.5903849   -2.5903849   -1.8369539  0.042110387   -2.5903849   0.75343092   426349 
 4089000   0.60678969   -2.5909295   -2.5909295   -1.8366413  0.034347042   -2.5909295   0.75428825   426349 
 4090000   0.60651631   -2.5910143   -2.5910143   -1.8370659   0.03021873   -2.5910143   0.75394841   426349 
 4091000   0.60544004   -2.5881576   -2.5881576   -1.8355471  0.039277735   -2.5881576   0.75261052   426349 
 4092000   0.60760027   -2.5908002   -2.5908002   -1.8355044  0.035493839   -2.5908002   0.75529586   426349 
 4093000   0.60649135   -2.5901398   -2.5901398   -1.8362224  0.037597024   -2.5901398   0.75391739   426349 
 4094000   0.60586468   -2.5890165   -2.5890165   -1.8358781  0.034243846   -2.5890165   0.75313839   426349 
 4095000   0.60892452   -2.5916376   -2.5916376   -1.8346956  0.031575807   -2.5916376   0.75694202   426349 
 4096000   0.60758702   -2.5908741   -2.5908741   -1.8355947  0.037464023   -2.5908741    0.7552794   426349 
 4097000   0.60621777   -2.5900548   -2.5900548   -1.8364775  0.029909256   -2.5900548   0.75357731   426349 
 4098000   0.60732668   -2.5913509   -2.5913509   -1.8363952  0.032593106   -2.5913509   0.75495577   426349 
 4099000   0.60714998   -2.5912196   -2.5912196   -1.8364835  0.034392541   -2.5912196   0.75473611   426349 
 4100000   0.60619774   -2.5898884   -2.5898884    -1.836336  0.032951099   -2.5898884    0.7535524   426349 
 4101000   0.60593494   -2.5898877   -2.5898877    -1.836662  0.033532504   -2.5898877   0.75322573   426349 
 4102000   0.60668525   -2.5911093   -2.5911093   -1.8369508   0.03910343   -2.5911093   0.75415843   426349 
 4103000   0.60641812   -2.5905162   -2.5905162   -1.8366898  0.039032979   -2.5905162   0.75382636   426349 
 4104000   0.60757753   -2.5921597   -2.5921597   -1.8368921  0.035496679   -2.5921597   0.75526759   426349 
 4105000   0.60779063   -2.5921554   -2.5921554   -1.8366229  0.031931184   -2.5921554    0.7555325   426349 
 4106000    0.6084921   -2.5922214   -2.5922214    -1.835817  0.038944109   -2.5922214   0.75640448   426349 
 4107000   0.60689749      -2.5915      -2.5915   -1.8370778  0.043503015      -2.5915   0.75442225   426349 
 4108000   0.60902581   -2.5932809   -2.5932809    -1.836213  0.045189433   -2.5932809   0.75706792   426349 
 4109000   0.60723244   -2.5910602   -2.5910602   -1.8362216  0.040070178   -2.5910602   0.75483862   426349 
 4110000   0.60708994   -2.5909537   -2.5909537   -1.8362922  0.046698688   -2.5909537   0.75466149   426349 
 4111000   0.60739322   -2.5913665   -2.5913665    -1.836328  0.042836724   -2.5913665   0.75503848   426349 
 4112000   0.60533578   -2.5896166   -2.5896166   -1.8371356  0.039175849   -2.5896166   0.75248092   426349 
 4113000   0.60643925    -2.590756    -2.590756   -1.8369033  0.036966915    -2.590756   0.75385263   426349 
 4114000    0.6073039   -2.5914372   -2.5914372   -1.8365097   0.03843949   -2.5914372   0.75492745   426349 
 4115000    0.6065731   -2.5908711   -2.5908711   -1.8368521  0.037790963   -2.5908711   0.75401901   426349 
 4116000   0.60599622   -2.5913523   -2.5913523   -1.8380504  0.042288733   -2.5913523    0.7533019   426349 
 4117000   0.60614377    -2.591015    -2.591015   -1.8375297  0.043086329    -2.591015   0.75348531   426349 
 4118000   0.60441324    -2.589926    -2.589926   -1.8385918  0.044171064    -2.589926   0.75133413   426349 
 4119000   0.60631291   -2.5916372   -2.5916372   -1.8379417  0.035529572   -2.5916372   0.75369558   426349 
 4120000   0.60680795   -2.5922254   -2.5922254   -1.8379145   0.03513242   -2.5922254   0.75431094   426349 
 4121000   0.60673688    -2.591685    -2.591685   -1.8374624  0.043721222    -2.591685    0.7542226   426349 
 4122000   0.60758847   -2.5923579   -2.5923579   -1.8370767  0.034683857   -2.5923579   0.75528119   426349 
 4123000   0.60734864   -2.5922681   -2.5922681   -1.8372851   0.02466176   -2.5922681   0.75498307   426349 
 4124000    0.6069001   -2.5921005   -2.5921005    -1.837675  0.043460405   -2.5921005    0.7544255   426349 
 4125000   0.60788394   -2.5934145   -2.5934145    -1.837766  0.040275274   -2.5934145   0.75564849   426349 
 4126000     0.606442   -2.5910508   -2.5910508   -1.8371948  0.050150391   -2.5910508   0.75385604   426349 
 4127000    0.6068337   -2.5909292   -2.5909292   -1.8365863  0.026630902   -2.5909292   0.75434296   426349 
 4128000   0.60782994   -2.5922257   -2.5922257   -1.8366443  0.033599365   -2.5922257   0.75558136   426349 
 4129000   0.60738071   -2.5912489   -2.5912489   -1.8362259  0.023766106   -2.5912489   0.75502294   426349 
 4130000   0.60786798   -2.5910458   -2.5910458   -1.8354171  0.040464275   -2.5910458   0.75562865   426349 
 4131000   0.60903711   -2.5924016   -2.5924016   -1.8353196  0.034742785   -2.5924016   0.75708197   426349 
 4132000   0.60744717   -2.5913553   -2.5913553   -1.8362497  0.036943083   -2.5913553   0.75510555   426349 
 4133000   0.60915341   -2.5937016   -2.5937016    -1.836475  0.035599205   -2.5937016   0.75722654   426349 
 4134000   0.60758732   -2.5924126   -2.5924126   -1.8371328  0.031893087   -2.5924126   0.75527977   426349 
 4135000   0.60744636   -2.5919227   -2.5919227   -1.8368181  0.040164095   -2.5919227   0.75510454   426349 
 4136000   0.60647796   -2.5913705   -2.5913705   -1.8374697  0.035128694   -2.5913705   0.75390075   426349 
 4137000   0.60676782   -2.5919032   -2.5919032   -1.8376422  0.038686557   -2.5919032   0.75426107   426349 
 4138000   0.60554781   -2.5903838   -2.5903838   -1.8376393   0.03759069   -2.5903838    0.7527445   426349 
 4139000   0.60691173    -2.591067    -2.591067   -1.8366271  0.052993299    -2.591067   0.75443995   426349 
 4140000   0.60846585   -2.5926194   -2.5926194   -1.8362475  0.033382022   -2.5926194   0.75637185   426349 
 4141000   0.60769702   -2.5913977   -2.5913977   -1.8359815  0.043318263   -2.5913977   0.75541613   426349 
 4142000   0.60657737   -2.5906163   -2.5906163    -1.836592  0.042935313   -2.5906163   0.75402431   426349 
 4143000   0.60771011    -2.592102    -2.592102   -1.8366696  0.033152095    -2.592102   0.75543241   426349 
 4144000    0.6076452   -2.5917592   -2.5917592   -1.8364074  0.033269427   -2.5917592   0.75535172   426349 
 4145000   0.60811685   -2.5925332   -2.5925332   -1.8365952  0.040542011   -2.5925332   0.75593802   426349 
 4146000   0.60760952   -2.5924996   -2.5924996   -1.8371923  0.034924885   -2.5924996   0.75530736   426349 
 4147000   0.60762932    -2.592336    -2.592336   -1.8370041  0.038755922    -2.592336   0.75533198   426349 
 4148000   0.60751428   -2.5924962   -2.5924962   -1.8373072  0.039879513   -2.5924962   0.75518897   426349 
 4149000   0.60623255   -2.5913245   -2.5913245   -1.8377288  0.040480751   -2.5913245   0.75359568   426349 
 4150000   0.60819679   -2.5940418   -2.5940418   -1.8380044  0.032360193   -2.5940418   0.75603739   426349 
 4151000   0.60568378   -2.5913408   -2.5913408   -1.8384273  0.041849396   -2.5913408   0.75291352   426349 
 4152000   0.60575635   -2.5923322   -2.5923322   -1.8393285  0.035422538   -2.5923322   0.75300372   426349 
 4153000   0.60627824   -2.5926886   -2.5926886   -1.8390361  0.033667151   -2.5926886   0.75365247   426349 
 4154000    0.6052647    -2.590931    -2.590931   -1.8385384  0.033240564    -2.590931   0.75239256   426349 
 4155000   0.60514074   -2.5916363   -2.5916363   -1.8393978  0.041158016   -2.5916363   0.75223848   426349 
 4156000   0.60665623   -2.5925745   -2.5925745   -1.8384521  0.031223197   -2.5925745   0.75412235   426349 
 4157000   0.60772655   -2.5940125   -2.5940125   -1.8385596  0.032489218   -2.5940125   0.75545285   426349 
 4158000   0.60750281   -2.5935312   -2.5935312   -1.8383565  0.031280362   -2.5935312   0.75517472   426349 
 4159000   0.60661737   -2.5921263   -2.5921263   -1.8380523  0.038853119   -2.5921263   0.75407405   426349 
 4160000   0.60744286   -2.5923963   -2.5923963   -1.8372961  0.037342028   -2.5923963    0.7551002   426349 
 4161000   0.60745532   -2.5918399   -2.5918399   -1.8367243    0.0290818   -2.5918399   0.75511568   426349 
 4162000   0.60794019   -2.5923872   -2.5923872   -1.8366688  0.037935458   -2.5923872   0.75571841   426349 
 4163000   0.60750706   -2.5920949   -2.5920949   -1.8369149  0.028414408   -2.5920949   0.75517999   426349 
 4164000   0.60651721   -2.5912239   -2.5912239   -1.8372744  0.030164013   -2.5912239   0.75394954   426349 
 4165000   0.60545563   -2.5909454   -2.5909454   -1.8383155  0.030017807   -2.5909454    0.7526299   426349 
 4166000   0.60582705   -2.5911574   -2.5911574   -1.8380658  0.026859742   -2.5911574   0.75309161   426349 
 4167000   0.60617419   -2.5914431   -2.5914431   -1.8379199  0.036167036   -2.5914431   0.75352313   426349 
 4168000   0.60593671   -2.5904028   -2.5904028   -1.8371749  0.036334525   -2.5904028   0.75322792   426349 
 4169000   0.60721581   -2.5913654   -2.5913654   -1.8365475   0.04621829   -2.5913654   0.75481795   426349 
 4170000   0.60631347   -2.5911199   -2.5911199   -1.8374236  0.046255505   -2.5911199   0.75369627   426349 
 4171000   0.60736032   -2.5917577   -2.5917577   -1.8367601  0.036203954   -2.5917577   0.75499759   426349 
 4172000   0.60739511   -2.5917084   -2.5917084   -1.8366675  0.030122283   -2.5917084   0.75504083   426349 
 4173000   0.60745856   -2.5918891   -2.5918891   -1.8367694  0.035550196   -2.5918891   0.75511971   426349 
 4174000   0.60705471   -2.5920946   -2.5920946   -1.8374769  0.039626083   -2.5920946   0.75461769   426349 
 4175000   0.60637994   -2.5916874   -2.5916874   -1.8379085  0.036860976   -2.5916874   0.75377889   426349 
 4176000   0.60663635   -2.5914781   -2.5914781   -1.8373805  0.033002348   -2.5914781   0.75409763   426349 
 4177000   0.60607964    -2.591661    -2.591661   -1.8382554  0.038072473    -2.591661   0.75340559   426349 
 4178000   0.60737643    -2.592659    -2.592659   -1.8376414  0.031709379    -2.592659   0.75501761   426349 
 4179000   0.60731757   -2.5927742   -2.5927742   -1.8378297  0.033593219   -2.5927742   0.75494445   426349 
 4180000   0.60782837   -2.5946877   -2.5946877   -1.8391083  0.040737515   -2.5946877   0.75557941   426349 
 4181000   0.60746045   -2.5937036   -2.5937036   -1.8385815  0.038453979   -2.5937036   0.75512206   426349 
 4182000   0.60776142   -2.5938461   -2.5938461   -1.8383499  0.034644328   -2.5938461   0.75549619   426349 
 4183000   0.60609181   -2.5934509   -2.5934509   -1.8400302  0.040780098   -2.5934509   0.75342073   426349 
 4184000   0.60717908   -2.5939688   -2.5939688   -1.8391965  0.034873757   -2.5939688    0.7547723   426349 
 4185000   0.60693669   -2.5940571   -2.5940571   -1.8395861  0.045907319   -2.5940571   0.75447099   426349 
 4186000   0.60812838   -2.5956321   -2.5956321   -1.8396798  0.041236074   -2.5956321   0.75595235   426349 
 4187000   0.60769358   -2.5949189   -2.5949189    -1.839507  0.039336947   -2.5949189   0.75541186   426349 
 4188000   0.60671196   -2.5934248   -2.5934248   -1.8392332  0.043436911   -2.5934248   0.75419162   426349 
 4189000   0.60737194   -2.5946358   -2.5946358   -1.8396237  0.041911003   -2.5946358   0.75501203   426349 
 4190000   0.60598015   -2.5936048   -2.5936048   -1.8403229  0.026166422   -2.5936048   0.75328192   426349 
 4191000   0.60650796   -2.5941539   -2.5941539   -1.8402158  0.042361608   -2.5941539   0.75393803   426349 
 4192000   0.60625147   -2.5932479   -2.5932479   -1.8396287   0.03762453   -2.5932479    0.7536192   426349 
 4193000   0.60645199    -2.594027    -2.594027   -1.8401585  0.034693564    -2.594027   0.75386846   426349 
 4194000    0.6063179   -2.5937832   -2.5937832   -1.8400814   0.03601311   -2.5937832   0.75370178   426349 
 4195000    0.6075973   -2.5950867   -2.5950867   -1.8397945  0.037221405   -2.5950867   0.75529217   426349 
 4196000   0.60668764   -2.5936872   -2.5936872   -1.8395258  0.042974275   -2.5936872   0.75416139   426349 
 4197000   0.60692472   -2.5938589   -2.5938589   -1.8394028  0.040471249   -2.5938589    0.7544561   426349 
 4198000   0.60665105   -2.5932597   -2.5932597   -1.8391438  0.033139231   -2.5932597   0.75411591   426349 
 4199000    0.6064967   -2.5935633   -2.5935633   -1.8396393  0.025633803   -2.5935633   0.75392403   426349 
 4200000    0.6065853     -2.59354     -2.59354   -1.8395058  0.034208348     -2.59354   0.75403417   426349 
 4201000   0.60555092   -2.5925706   -2.5925706   -1.8398222  0.035296013   -2.5925706   0.75274836   426349 
 4202000   0.60759599   -2.5946101   -2.5946101   -1.8393196  0.039299633   -2.5946101   0.75529054   426349 
 4203000   0.60607669   -2.5930709   -2.5930709    -1.839669  0.029745301   -2.5930709   0.75340193   426349 
 4204000   0.60566455   -2.5922403   -2.5922403   -1.8393507  0.037001315   -2.5922403    0.7528896   426349 
 4205000   0.60616703   -2.5933976   -2.5933976   -1.8398834  0.036416616   -2.5933976   0.75351424   426349 
 4206000   0.60671397   -2.5937771   -2.5937771    -1.839583  0.040081828   -2.5937771   0.75419412   426349 
 4207000   0.60649432   -2.5936213   -2.5936213   -1.8397002   0.02238461   -2.5936213   0.75392108   426349 
 4208000    0.6073092   -2.5951364   -2.5951364   -1.8402024  0.039297503   -2.5951364   0.75493404   426349 
 4209000   0.60570946   -2.5931359   -2.5931359   -1.8401905  0.048737225   -2.5931359   0.75294544   426349 
 4210000   0.60739168   -2.5944568   -2.5944568   -1.8394203  0.026471119   -2.5944568   0.75503657   426349 
 4211000   0.60725326    -2.593709    -2.593709   -1.8388445  0.038774317    -2.593709   0.75486451   426349 
 4212000   0.60644408   -2.5930043   -2.5930043   -1.8391456  0.045700523   -2.5930043   0.75385863   426349 
 4213000   0.60704279   -2.5938238   -2.5938238    -1.839221  0.036801383   -2.5938238   0.75460287   426349 
 4214000   0.60698223   -2.5934642   -2.5934642   -1.8389366  0.029684681   -2.5934642   0.75452759   426349 
 4215000   0.60755129   -2.5938528   -2.5938528   -1.8386178  0.034991529   -2.5938528   0.75523497   426349 
 4216000   0.60733186   -2.5939635   -2.5939635   -1.8390013  0.039985689   -2.5939635   0.75496221   426349 
 4217000   0.60641552   -2.5928975   -2.5928975   -1.8390743   0.04236578   -2.5928975   0.75382312   426349 
 4218000   0.60718505   -2.5931799   -2.5931799   -1.8384002  0.036578713   -2.5931799   0.75477971   426349 
 4219000   0.60568719   -2.5913468   -2.5913468    -1.838429  0.035711256   -2.5913468   0.75291775   426349 
 4220000   0.60708421   -2.5935782   -2.5935782   -1.8389238  0.039020876   -2.5935782   0.75465436   426349 
 4221000   0.60677941   -2.5936964   -2.5936964   -1.8394209  0.029828086   -2.5936964   0.75427547   426349 
 4222000   0.60651723   -2.5930584   -2.5930584   -1.8391088  0.040481236   -2.5930584   0.75394956   426349 
 4223000   0.60718725   -2.5938649   -2.5938649   -1.8390825  0.032912707   -2.5938649   0.75478245   426349 
 4224000   0.60735311   -2.5934491   -2.5934491   -1.8384605  0.041319738   -2.5934491   0.75498862   426349 
 4225000   0.60801139   -2.5940822   -2.5940822   -1.8382753  0.036648058   -2.5940822   0.75580692   426349 
 4226000   0.60610356   -2.5919964   -2.5919964   -1.8385611   0.03591222   -2.5919964   0.75343534   426349 
 4227000   0.60587239   -2.5918487   -2.5918487   -1.8387008  0.046478915   -2.5918487   0.75314797   426349 
 4228000   0.60714244   -2.5927267   -2.5927267       -1.838  0.025994982   -2.5927267   0.75472675   426349 
 4229000   0.60732692   -2.5936217   -2.5936217   -1.8386656  0.032347472   -2.5936217   0.75495606   426349 
 4230000   0.60608437   -2.5918136   -2.5918136   -1.8384021  0.041481151   -2.5918136   0.75341147   426349 
 4231000   0.60569273   -2.5921415   -2.5921415   -1.8392169  0.042624273   -2.5921415   0.75292465   426349 
 4232000   0.60714224   -2.5942976   -2.5942976   -1.8395711  0.029841049   -2.5942976   0.75472649   426349 
 4233000   0.60651483   -2.5939566   -2.5939566     -1.84001  0.039872652   -2.5939566   0.75394657   426349 
 4234000   0.60606701   -2.5925724   -2.5925724   -1.8391825  0.032931196   -2.5925724   0.75338989   426349 
 4235000   0.60680043   -2.5935079   -2.5935079   -1.8392063  0.038324578   -2.5935079    0.7543016   426349 
 4236000   0.60631456   -2.5931086   -2.5931086    -1.839411  0.047562333   -2.5931086   0.75369762   426349 
 4237000   0.60756593   -2.5939849   -2.5939849   -1.8387317  0.038478144   -2.5939849   0.75525318   426349 
 4238000   0.60792857   -2.5943843   -2.5943843   -1.8386803  0.034348086   -2.5943843   0.75570397   426349 
 4239000   0.60702551   -2.5934541   -2.5934541   -1.8388727  0.037473784   -2.5934541   0.75458139   426349 
 4240000   0.60805248   -2.5939146   -2.5939146   -1.8380566  0.034563563   -2.5939146     0.755858   426349 
 4241000   0.60831846   -2.5948549   -2.5948549   -1.8386663  0.043403854   -2.5948549   0.75618863   426349 
 4242000   0.60846594   -2.5948149   -2.5948149   -1.8384429  0.035955064   -2.5948149   0.75637196   426349 
 4243000    0.6078187    -2.594223    -2.594223   -1.8386556  0.036383146    -2.594223   0.75556739   426349 
 4244000   0.60759876   -2.5933395   -2.5933395   -1.8380456  0.035327649   -2.5933395   0.75529399   426349 
 4245000   0.60697127   -2.5934843   -2.5934843   -1.8389704  0.037616628   -2.5934843   0.75451397   426349 
 4246000   0.60699477   -2.5923732   -2.5923732     -1.83783  0.039371776   -2.5923732   0.75454318   426349 
 4247000   0.60700696   -2.5933545   -2.5933545   -1.8387962  0.029440768   -2.5933545   0.75455833   426349 
 4248000   0.60729412   -2.5938435   -2.5938435   -1.8389282  0.043660018   -2.5938435   0.75491529   426349 
 4249000   0.60600466   -2.5921428   -2.5921428   -1.8388304  0.034174357   -2.5921428    0.7533124   426349 
 4250000   0.60749514   -2.5940596   -2.5940596   -1.8388944  0.029496692   -2.5940596   0.75516518   426349 
 4251000   0.60729118   -2.5939501   -2.5939501   -1.8390384  0.045382189   -2.5939501   0.75491165   426349 
 4252000   0.60698854   -2.5932781   -2.5932781   -1.8387427    0.0274941   -2.5932781   0.75453544   426349 
 4253000   0.60645489   -2.5923632   -2.5923632   -1.8384912  0.036823421   -2.5923632   0.75387207   426349 
 4254000    0.6063641   -2.5929976   -2.5929976   -1.8392384  0.035456687   -2.5929976   0.75375921   426349 
 4255000   0.60663901   -2.5933829   -2.5933829    -1.839282  0.036477234   -2.5933829   0.75410094   426349 
 4256000   0.60611743   -2.5933928   -2.5933928   -1.8399402  0.036286536   -2.5933928   0.75345258   426349 
 4257000   0.60552177     -2.59229     -2.59229   -1.8395779  0.035473829     -2.59229   0.75271212   426349 
 4258000   0.60499359   -2.5914977   -2.5914977   -1.8394421  0.033712388   -2.5914977   0.75205556   426349 
 4259000   0.60626472    -2.592348    -2.592348   -1.8387123   0.04017162    -2.592348   0.75363567   426349 
 4260000   0.60637261   -2.5931271   -2.5931271   -1.8393573  0.029339416   -2.5931271   0.75376979   426349 
 4261000   0.60626442   -2.5935719   -2.5935719   -1.8399366  0.047959041   -2.5935719    0.7536353   426349 
 4262000   0.60746804   -2.5943605   -2.5943605    -1.839229  0.023777361   -2.5943605   0.75513149   426349 
 4263000   0.60776285   -2.5945541   -2.5945541   -1.8390561  0.032886121   -2.5945541   0.75549796   426349 
 4264000   0.60755025   -2.5955284   -2.5955284   -1.8402947  0.039670449   -2.5955284   0.75523369   426349 
 4265000   0.60711104   -2.5948391   -2.5948391   -1.8401514   0.04105131   -2.5948391   0.75468771   426349 
 4266000   0.60683634   -2.5945994   -2.5945994   -1.8402532   0.03644216   -2.5945994   0.75434624   426349 
 4267000    0.6075973   -2.5952713   -2.5952713   -1.8399791  0.023636414   -2.5952713   0.75529218   426349 
 4268000   0.60742809   -2.5954875   -2.5954875   -1.8404056  0.026700152   -2.5954875   0.75508184   426349 
 4269000   0.60740833   -2.5948934   -2.5948934   -1.8398361  0.028548504   -2.5948934   0.75505726   426349 
 4270000    0.6064732   -2.5944678   -2.5944678    -1.840573   0.03875314   -2.5944678   0.75389482   426349 
 4271000   0.60608641   -2.5930241   -2.5930241   -1.8396101  0.042220501   -2.5930241   0.75341402   426349 
 4272000   0.60726434   -2.5950842   -2.5950842   -1.8402059  0.039954858   -2.5950842   0.75487828   426349 
 4273000   0.60652184   -2.5939564   -2.5939564   -1.8400012   0.03573693   -2.5939564   0.75395529   426349 
 4274000   0.60796924   -2.5956487   -2.5956487   -1.8398942  0.032417012   -2.5956487   0.75575452   426349 
 4275000   0.60687219   -2.5955341   -2.5955341   -1.8411433  0.031183936   -2.5955341    0.7543908   426349 
 4276000   0.60654234   -2.5949153   -2.5949153   -1.8409345  0.037787619   -2.5949153   0.75398078   426349 
 4277000   0.60765953   -2.5963662   -2.5963662   -1.8409967  0.037107879   -2.5963662   0.75536953   426349 
 4278000   0.60649101   -2.5951024   -2.5951024   -1.8411855  0.044159071   -2.5951024   0.75391696   426349 
 4279000   0.60584719    -2.594125    -2.594125   -1.8410084  0.035501136    -2.594125   0.75311665   426349 
 4280000   0.60568073   -2.5939726   -2.5939726   -1.8410629  0.044437938   -2.5939726   0.75290972   426349 
 4281000   0.60710509   -2.5944708   -2.5944708   -1.8397905  0.030708213   -2.5944708   0.75468032   426349 
 4282000   0.60589635   -2.5931719   -2.5931719   -1.8399942  0.044073642   -2.5931719   0.75317776   426349 
 4283000   0.60570643   -2.5927942   -2.5927942   -1.8398525  0.038579085   -2.5927942   0.75294167   426349 
 4284000   0.60761299   -2.5951094   -2.5951094   -1.8397977  0.045289155   -2.5951094   0.75531168   426349 
 4285000   0.60657832   -2.5940701   -2.5940701   -1.8400446  0.029517326   -2.5940701    0.7540255   426349 
 4286000   0.60680674   -2.5948487   -2.5948487   -1.8405393  0.035883164   -2.5948487   0.75430945   426349 
 4287000   0.60609227   -2.5935007   -2.5935007   -1.8400794  0.032585328   -2.5935007   0.75342129   426349 
 4288000   0.60653031     -2.59413     -2.59413   -1.8401641  0.034676526     -2.59413   0.75396582   426349 
 4289000   0.60598413   -2.5940909   -2.5940909    -1.840804  0.032378201   -2.5940909   0.75328687   426349 
 4290000   0.60603186   -2.5944654   -2.5944654   -1.8411192  0.038077323   -2.5944654   0.75334621   426349 
 4291000   0.60676958   -2.5944959   -2.5944959   -1.8402327  0.042094738   -2.5944959   0.75426325   426349 
 4292000   0.60486968   -2.5923027   -2.5923027   -1.8404011  0.042170203   -2.5923027   0.75190152   426349 
 4293000   0.60683643   -2.5949656   -2.5949656   -1.8406192  0.037934957   -2.5949656   0.75434635   426349 
 4294000   0.60591754   -2.5936782   -2.5936782   -1.8404741  0.041957156   -2.5936782    0.7532041   426349 
 4295000   0.60701464   -2.5953259   -2.5953259    -1.840758  0.037672236   -2.5953259   0.75456788   426349 
 4296000   0.60676847   -2.5947277   -2.5947277   -1.8404658  0.042232121   -2.5947277   0.75426187   426349 
 4297000   0.60714663   -2.5961002   -2.5961002   -1.8413682  0.035932377   -2.5961002   0.75473196   426349 
 4298000   0.60674314    -2.595451    -2.595451   -1.8412206    0.0306386    -2.595451   0.75423039   426349 
 4299000   0.60671477   -2.5960157   -2.5960157   -1.8418206  0.044673216   -2.5960157   0.75419511   426349 
 4300000   0.60564128   -2.5943113   -2.5943113   -1.8414506  0.039301168   -2.5943113   0.75286069   426349 
 4301000   0.60703439   -2.5954167   -2.5954167   -1.8408243  0.041533635   -2.5954167   0.75459243   426349 
 4302000   0.60756112   -2.5962075   -2.5962075   -1.8409603  0.043954067   -2.5962075    0.7552472   426349 
 4303000   0.60690483   -2.5955805   -2.5955805   -1.8411491  0.053492244   -2.5955805   0.75443138   426349 
 4304000   0.60757248   -2.5964376   -2.5964376   -1.8411763  0.051920795   -2.5964376   0.75526132   426349 
 4305000   0.60798246    -2.596326    -2.596326   -1.8405551  0.029116591    -2.596326   0.75577096   426349 
 4306000   0.60771616   -2.5966153   -2.5966153   -1.8411754  0.037611834   -2.5966153   0.75543993   426349 
 4307000   0.60763828   -2.5957374   -2.5957374   -1.8403943  0.041645938   -2.5957374   0.75534311   426349 
 4308000   0.60670525   -2.5949721   -2.5949721   -1.8407888  0.037561347   -2.5949721   0.75418329   426349 
 4309000   0.60734025   -2.5954375   -2.5954375   -1.8404649  0.043991858   -2.5954375   0.75497264   426349 
 4310000   0.60674561   -2.5951097   -2.5951097   -1.8408763  0.038211024   -2.5951097   0.75423346   426349 
 4311000   0.60632774   -2.5946765   -2.5946765   -1.8409625  0.036393038   -2.5946765     0.753714   426349 
 4312000   0.60632301   -2.5944848   -2.5944848   -1.8407767  0.033932083   -2.5944848   0.75370813   426349 
 4313000   0.60547937   -2.5937875   -2.5937875    -1.841128  0.039496034   -2.5937875   0.75265942   426349 
 4314000    0.6065983   -2.5946029   -2.5946029   -1.8405525  0.038320402   -2.5946029   0.75405034   426349 
 4315000   0.60678017   -2.5957878   -2.5957878   -1.8415114  0.032595526   -2.5957878   0.75427641   426349 
 4316000   0.60559503   -2.5942798   -2.5942798   -1.8414766  0.040474228   -2.5942798   0.75280319   426349 
 4317000   0.60608337   -2.5947638   -2.5947638   -1.8413536   0.04060423   -2.5947638   0.75341024   426349 
 4318000   0.60650056   -2.5960644   -2.5960644   -1.8421356  0.037141566   -2.5960644   0.75392883   426349 
 4319000   0.60762841   -2.5969027   -2.5969027   -1.8415718  0.036972863   -2.5969027   0.75533085   426349 
 4320000   0.60648553   -2.5959763   -2.5959763   -1.8420662  0.039058606   -2.5959763   0.75391015   426349 
 4321000   0.60594982   -2.5958828   -2.5958828   -1.8426386  0.037582403   -2.5958828   0.75324423   426349 
 4322000   0.60578106    -2.595835    -2.595835   -1.8428006  0.034282228    -2.595835   0.75303444   426349 
 4323000   0.60715688   -2.5974022   -2.5974022   -1.8426575  0.033593974   -2.5974022   0.75474469   426349 
 4324000   0.60707844   -2.5973509   -2.5973509   -1.8427037  0.038504658   -2.5973509   0.75464719   426349 
 4325000   0.60601665   -2.5961613   -2.5961613    -1.842834  0.041219572   -2.5961613   0.75332729   426349 
 4326000   0.60841304   -2.5983484   -2.5983484   -1.8420422   0.04342605   -2.5983484    0.7563062   426349 
 4327000   0.60825504   -2.5980051   -2.5980051   -1.8418953   0.03298614   -2.5980051   0.75610979   426349 
 4328000   0.60754477   -2.5967705   -2.5967705   -1.8415436  0.040670484   -2.5967705   0.75522687   426349 
 4329000   0.60817507    -2.597191    -2.597191   -1.8411807  0.039894703    -2.597191   0.75601039   426349 
 4330000   0.60771527   -2.5969586   -2.5969586   -1.8415198  0.038738871   -2.5969586   0.75543882   426349 
 4331000   0.60739928   -2.5961778   -2.5961778   -1.8411318  0.027309155   -2.5961778   0.75504602   426349 
 4332000   0.60723906   -2.5969329   -2.5969329    -1.842086  0.038258381   -2.5969329   0.75484685   426349 
 4333000   0.60632703    -2.596152    -2.596152   -1.8424388  0.041284261    -2.596152   0.75371313   426349 
 4334000   0.60594758   -2.5955035   -2.5955035   -1.8422621  0.035801324   -2.5955035   0.75324144   426349 
 4335000   0.60583009   -2.5961316   -2.5961316   -1.8430362  0.021407264   -2.5961316   0.75309539   426349 
 4336000   0.60461407   -2.5951889   -2.5951889   -1.8436051  0.043200937   -2.5951889   0.75158377   426349 
 4337000   0.60453243   -2.5942549   -2.5942549   -1.8427727  0.032319995   -2.5942549   0.75148229   426349 
 4338000    0.6049029   -2.5944845   -2.5944845   -1.8425417  0.037462693   -2.5944845   0.75194282   426349 
 4339000   0.60681345   -2.5968585   -2.5968585   -1.8425407   0.03587353   -2.5968585   0.75431779   426349 
 4340000   0.60591014    -2.595746    -2.595746   -1.8425511  0.038069002    -2.595746    0.7531949   426349 
 4341000     0.607021   -2.5963154   -2.5963154   -1.8417396  0.031930085   -2.5963154   0.75457579   426349 
 4342000   0.60667257    -2.596096    -2.596096   -1.8419534  0.032708901    -2.596096   0.75414266   426349 
 4343000   0.60727325    -2.597376    -2.597376   -1.8424866  0.031249468    -2.597376   0.75488935   426349 
 4344000   0.60764266   -2.5974568   -2.5974568   -1.8421082  0.037465213   -2.5974568   0.75534856   426349 
 4345000   0.60787228   -2.5977387   -2.5977387   -1.8421047  0.042613798   -2.5977387   0.75563399   426349 
 4346000   0.60746221   -2.5974203   -2.5974203   -1.8422961  0.037109048   -2.5974203   0.75512425   426349 
 4347000   0.60776017   -2.5977094   -2.5977094   -1.8422148  0.034970368   -2.5977094   0.75549464   426349 
 4348000   0.60701168   -2.5968281   -2.5968281   -1.8422639  0.045276695   -2.5968281    0.7545642   426349 
 4349000   0.60860556   -2.5988184   -2.5988184   -1.8422729  0.031545451   -2.5988184   0.75654552   426349 
 4350000   0.60634113   -2.5976534   -2.5976534   -1.8439228  0.034641724   -2.5976534   0.75373065   426349 
 4351000   0.60619563    -2.596513    -2.596513   -1.8429632  0.036441859    -2.596513   0.75354978   426349 
 4352000   0.60627383   -2.5971017   -2.5971017   -1.8434547  0.044166076   -2.5971017     0.753647   426349 
 4353000    0.6062986   -2.5970478   -2.5970478     -1.84337  0.039166412   -2.5970478   0.75367779   426349 
 4354000   0.60531634   -2.5964798   -2.5964798    -1.844023  0.041531891   -2.5964798   0.75245675   426349 
 4355000   0.60694614   -2.5984862   -2.5984862   -1.8440034  0.041162511   -2.5984862   0.75448273   426349 
 4356000    0.6048574   -2.5962715   -2.5962715   -1.8443852   0.03345146   -2.5962715   0.75188625   426349 
 4357000   0.60542702   -2.5965343   -2.5965343   -1.8439399  0.038573008   -2.5965343   0.75259434   426349 
 4358000    0.6062113   -2.5974582   -2.5974582   -1.8438889  0.040666717   -2.5974582   0.75356927   426349 
 4359000   0.60610027   -2.5969757   -2.5969757   -1.8435444  0.044443785   -2.5969757   0.75343125   426349 
 4360000   0.60567232   -2.5970282   -2.5970282    -1.844129  0.034017613   -2.5970282   0.75289927   426349 
 4361000   0.60746924   -2.5990744   -2.5990744   -1.8439414   0.03910329   -2.5990744   0.75513299   426349 
 4362000   0.60706554   -2.5983687   -2.5983687   -1.8437375  0.036846491   -2.5983687   0.75463116   426349 
 4363000   0.60526573   -2.5965952   -2.5965952   -1.8442013  0.036904891   -2.5965952   0.75239384   426349 
 4364000    0.6062886   -2.5964295   -2.5964295   -1.8427641  0.030899613   -2.5964295   0.75366535   426349 
 4365000   0.60628248   -2.5964773   -2.5964773   -1.8428195  0.039753796   -2.5964773   0.75365775   426349 
 4366000   0.60675034   -2.5976208   -2.5976208   -1.8433814  0.039913814   -2.5976208   0.75423934   426349 
 4367000   0.60674213   -2.5975784   -2.5975784   -1.8433493  0.028474376   -2.5975784   0.75422913   426349 
 4368000   0.60652301   -2.5964335   -2.5964335   -1.8424768  0.036590815   -2.5964335   0.75395674   426349 
 4369000   0.60780269    -2.598121    -2.598121   -1.8425735  0.043486652    -2.598121   0.75554749   426349 
 4370000   0.60596421   -2.5954076   -2.5954076   -1.8421454  0.042879649   -2.5954076   0.75326211   426349 
 4371000   0.60687933   -2.5958523   -2.5958523   -1.8414527  0.026483884   -2.5958523   0.75439968   426349 
 4372000   0.60651711   -2.5952325   -2.5952325   -1.8412831  0.043261987   -2.5952325   0.75394942   426349 
 4373000   0.60578879   -2.5937783   -2.5937783   -1.8407343  0.035778528   -2.5937783   0.75304406   426349 
 4374000   0.60584933   -2.5940618   -2.5940618   -1.8409425  0.024180127   -2.5940618    0.7531193   426349 
 4375000   0.60617975   -2.5945416   -2.5945416   -1.8410116  0.034926044   -2.5945416   0.75353004   426349 
 4376000   0.60558124   -2.5939947   -2.5939947   -1.8412087  0.039510026   -2.5939947   0.75278605   426349 
 4377000   0.60655359   -2.5950785   -2.5950785   -1.8410837  0.035656461   -2.5950785   0.75399476   426349 
 4378000   0.60587917   -2.5936226   -2.5936226   -1.8404662  0.034141951   -2.5936226    0.7531564   426349 
 4379000   0.60632238    -2.593828    -2.593828   -1.8401207  0.033040452    -2.593828   0.75370735   426349 
 4380000   0.60701924   -2.5947543   -2.5947543   -1.8401807  0.029230991   -2.5947543    0.7545736   426349 
 4381000   0.60643753   -2.5941395   -2.5941395    -1.840289  0.029184807   -2.5941395   0.75385049   426349 
 4382000   0.60739461   -2.5954191   -2.5954191   -1.8403789  0.037162218   -2.5954191   0.75504022   426349 
 4383000   0.60597551   -2.5939669   -2.5939669   -1.8406907  0.033716896   -2.5939669   0.75327615   426349 
 4384000   0.60657918   -2.5951844   -2.5951844   -1.8411578  0.042497476   -2.5951844   0.75402656   426349 
 4385000   0.60615704    -2.594827    -2.594827   -1.8413252  0.026579106    -2.594827   0.75350182   426349 
 4386000   0.60708882   -2.5953449   -2.5953449   -1.8406848  0.038679884   -2.5953449   0.75466009   426349 
 4387000   0.60645423    -2.594782    -2.594782   -1.8409107  0.034847966    -2.594782   0.75387124   426349 
 4388000   0.60819321   -2.5959195   -2.5959195   -1.8398866  0.045903626   -2.5959195   0.75603293   426349 
 4389000   0.60741869   -2.5953712   -2.5953712    -1.840301  0.046865761   -2.5953712   0.75507014   426349 
 4390000   0.60687125   -2.5956147   -2.5956147   -1.8412251   0.04111068   -2.5956147   0.75438963   426349 
 4391000   0.60687945   -2.5952894   -2.5952894   -1.8408896  0.037661693   -2.5952894   0.75439983   426349 
 4392000    0.6067282   -2.5944947   -2.5944947   -1.8402829  0.033863715   -2.5944947   0.75421181   426349 
 4393000   0.60603487   -2.5948457   -2.5948457   -1.8414958  0.029839567   -2.5948457   0.75334995   426349 
 4394000   0.60602117   -2.5947888   -2.5947888   -1.8414558  0.047764472   -2.5947888   0.75333291   426349 
 4395000   0.60586312   -2.5949262   -2.5949262   -1.8417898  0.032054792   -2.5949262   0.75313645   426349 
 4396000   0.60484148   -2.5948946   -2.5948946   -1.8430281  0.039983386   -2.5948946   0.75186647   426349 
 4397000   0.60568977   -2.5951281   -2.5951281   -1.8422072  0.041100646   -2.5951281   0.75292096   426349 
 4398000   0.60590173   -2.5953141   -2.5953141   -1.8421297  0.039066306   -2.5953141   0.75318444   426349 
 4399000   0.60590729   -2.5952921   -2.5952921   -1.8421007  0.034404097   -2.5952921   0.75319136   426349 
 4400000   0.60653851   -2.5969422   -2.5969422   -1.8429662  0.028368913   -2.5969422   0.75397601   426349 
 4401000   0.60601197   -2.5960748   -2.5960748   -1.8427533  0.024283545   -2.5960748   0.75332148   426349 
 4402000   0.60587863   -2.5953106   -2.5953106   -1.8421549  0.038024875   -2.5953106   0.75315573   426349 
 4403000   0.60615499   -2.5951708   -2.5951708   -1.8416715  0.037573356   -2.5951708   0.75349927   426349 
 4404000   0.60587121   -2.5944899   -2.5944899   -1.8413433  0.039766538   -2.5944899   0.75314651   426349 
 4405000   0.60653036   -2.5962368   -2.5962368    -1.842271  0.037362178   -2.5962368   0.75396588   426349 
 4406000   0.60690879   -2.5962831   -2.5962831   -1.8418468  0.034073008   -2.5962831    0.7544363   426349 
 4407000   0.60693592   -2.5965122   -2.5965122   -1.8420422  0.035924525   -2.5965122   0.75447002   426349 
 4408000   0.60673163   -2.5959829   -2.5959829   -1.8417669  0.032311614   -2.5959829   0.75421608   426349 
 4409000   0.60610053   -2.5952574   -2.5952574   -1.8418258  0.051272897   -2.5952574   0.75343157   426349 
 4410000   0.60686088   -2.5965334   -2.5965334   -1.8421567   0.04017432   -2.5965334   0.75437675   426349 
 4411000   0.60677639   -2.5968433   -2.5968433   -1.8425716  0.043058824   -2.5968433   0.75427171   426349 
 4412000   0.60685397   -2.5970539   -2.5970539   -1.8426857  0.035756361   -2.5970539   0.75436815   426349 
 4413000   0.60577866   -2.5954338   -2.5954338   -1.8424024  0.033573285   -2.5954338   0.75303146   426349 
 4414000   0.60567514   -2.5960976   -2.5960976   -1.8431949  0.037329627   -2.5960976   0.75290277   426349 
 4415000   0.60567873   -2.5969598   -2.5969598   -1.8440525  0.043613861   -2.5969598   0.75290723   426349 
 4416000    0.6069389   -2.5976158   -2.5976158   -1.8431421  0.044537881   -2.5976158   0.75447372   426349 
 4417000   0.60570789   -2.5959954   -2.5959954   -1.8430519  0.036220514   -2.5959954   0.75294348   426349 
 4418000   0.60664317   -2.5965811   -2.5965811    -1.842475  0.047583209   -2.5965811   0.75410612   426349 
 4419000   0.60679307   -2.5966653   -2.5966653   -1.8423728  0.042967179   -2.5966653   0.75429245   426349 
 4420000     0.607256   -2.5975247   -2.5975247   -1.8426568  0.039674761   -2.5975247   0.75486791   426349 
 4421000   0.60599009   -2.5952056   -2.5952056   -1.8419113  0.038759302   -2.5952056   0.75329429   426349 
 4422000   0.60629644   -2.5962475   -2.5962475   -1.8425724  0.038884462   -2.5962475    0.7536751   426349 
 4423000   0.60673907   -2.5961097   -2.5961097   -1.8418844  0.035305738   -2.5961097   0.75422533   426349 
 4424000   0.60656165   -2.5953943   -2.5953943   -1.8413895  0.036818165   -2.5953943   0.75400478   426349 
 4425000   0.60764925   -2.5963755   -2.5963755   -1.8410188  0.037094745   -2.5963755   0.75535675   426349 
 4426000   0.60591423   -2.5935016   -2.5935016   -1.8403016   0.04193584   -2.5935016   0.75319998   426349 
 4427000     0.605791   -2.5940313   -2.5940313   -1.8409845  0.040824949   -2.5940313    0.7530468   426349 
 4428000    0.6059762   -2.5940278   -2.5940278   -1.8407508  0.032714653   -2.5940278   0.75327702   426349 
 4429000   0.60564912   -2.5945362   -2.5945362   -1.8416657  0.036126172   -2.5945362   0.75287043   426349 
 4430000   0.60532157   -2.5941012   -2.5941012   -1.8416379  0.029445413   -2.5941012   0.75246326   426349 
 4431000   0.60466934    -2.593176    -2.593176   -1.8415235  0.043695398    -2.593176   0.75165248   426349 
 4432000    0.6052243   -2.5939724   -2.5939724   -1.8416301  0.034143611   -2.5939724   0.75234234   426349 
 4433000   0.60585214   -2.5946656   -2.5946656   -1.8415428  0.026377267   -2.5946656    0.7531228   426349 
 4434000   0.60585367    -2.594376    -2.594376   -1.8412513  0.030053838    -2.594376    0.7531247   426349 
 4435000   0.60596614   -2.5938561   -2.5938561   -1.8405916  0.036832497   -2.5938561   0.75326451   426349 
 4436000   0.60580613   -2.5935791   -2.5935791   -1.8405135  0.030249807   -2.5935791   0.75306561   426349 
 4437000   0.60582003   -2.5942463   -2.5942463   -1.8411634  0.038238401   -2.5942463   0.75308288   426349 
 4438000   0.60629366   -2.5948785   -2.5948785   -1.8412069  0.033466787   -2.5948785   0.75367164   426349 
 4439000    0.6065704   -2.5955742   -2.5955742   -1.8415586  0.027754287   -2.5955742   0.75401565   426349 
 4440000   0.60659574   -2.5958684   -2.5958684   -1.8418212  0.034368348   -2.5958684   0.75404715   426349 
 4441000   0.60755253   -2.5978103   -2.5978103   -1.8425737  0.037318704   -2.5978103   0.75523653   426349 
 4442000   0.60720335   -2.5975315   -2.5975315    -1.842729  0.031209486   -2.5975315   0.75480246   426349 
 4443000   0.60663022   -2.5974817   -2.5974817   -1.8433917  0.045388365   -2.5974817   0.75409001   426349 
 4444000   0.60620118   -2.5973358   -2.5973358   -1.8437791  0.035980408   -2.5973358   0.75355668   426349 
 4445000   0.60704585   -2.5973197   -2.5973197    -1.842713  0.033852804   -2.5973197   0.75460667   426349 
 4446000   0.60707564   -2.5978234   -2.5978234   -1.8431797  0.028633244   -2.5978234   0.75464371   426349 
 4447000   0.60543427   -2.5956504   -2.5956504    -1.843047  0.035016796   -2.5956504   0.75260336   426349 
 4448000   0.60721234   -2.5982611   -2.5982611   -1.8434475  0.042636152   -2.5982611   0.75481364   426349 
 4449000   0.60624439   -2.5968403   -2.5968403   -1.8432299  0.037997421   -2.5968403    0.7536104   426349 
 4450000   0.60717071   -2.5983663   -2.5983663   -1.8436044  0.045569365   -2.5983663   0.75476189   426349 
 4451000   0.60782028   -2.5984771   -2.5984771   -1.8429077  0.049034345   -2.5984771   0.75556936   426349 
 4452000   0.60843698   -2.5993547   -2.5993547   -1.8430188  0.045220512   -2.5993547   0.75633596   426349 
 4453000   0.60692022   -2.5985174   -2.5985174   -1.8440668  0.037798571   -2.5985174   0.75445051   426349 
 4454000   0.60705828   -2.5984816   -2.5984816   -1.8438595  0.039730454   -2.5984816   0.75462212   426349 
 4455000   0.60613928   -2.5972521   -2.5972521   -1.8437723  0.031857484   -2.5972521   0.75347974   426349 
 4456000   0.60671067    -2.598213    -2.598213   -1.8440229  0.038490862    -2.598213   0.75419002   426349 
 4457000   0.60707196   -2.5981374   -2.5981374   -1.8434983  0.033991871   -2.5981374   0.75463913   426349 
 4458000    0.6066476    -2.597139    -2.597139   -1.8430273  0.045110346    -2.597139   0.75411162   426349 
 4459000   0.60622553   -2.5962796   -2.5962796   -1.8426927  0.038510177   -2.5962796   0.75358696   426349 
 4460000    0.6062705   -2.5960809   -2.5960809    -1.842438   0.03674608   -2.5960809   0.75364286   426349 
 4461000   0.60701887    -2.597214    -2.597214   -1.8426408  0.035532976    -2.597214   0.75457313   426349 
 4462000   0.60689344   -2.5972444   -2.5972444   -1.8428272  0.035459393   -2.5972444   0.75441722   426349 
 4463000   0.60639657   -2.5963859   -2.5963859   -1.8425863  0.030970563   -2.5963859   0.75379957   426349 
 4464000   0.60713825   -2.5969789   -2.5969789   -1.8422574  0.036892574   -2.5969789   0.75472154   426349 
 4465000   0.60734623   -2.5975541   -2.5975541    -1.842574  0.037637248   -2.5975541   0.75498008   426349 
 4466000   0.60634265   -2.5959347   -2.5959347   -1.8422022  0.035312533   -2.5959347   0.75373255   426349 
 4467000   0.60676366   -2.5968208   -2.5968208   -1.8425649  0.034442938   -2.5968208   0.75425589   426349 
 4468000   0.60624508   -2.5964046   -2.5964046   -1.8427933  0.027455152   -2.5964046   0.75361125   426349 
 4469000   0.60540155   -2.5958399   -2.5958399   -1.8432773  0.032162016   -2.5958399   0.75256268   426349 
 4470000   0.60697357   -2.5973479   -2.5973479   -1.8428311  0.030411548   -2.5973479   0.75451682   426349 
 4471000   0.60590454   -2.5963445   -2.5963445   -1.8431566  0.036245868   -2.5963445   0.75318793   426349 
 4472000   0.60683352   -2.5969759   -2.5969759   -1.8426332  0.039596141   -2.5969759   0.75434273   426349 
 4473000   0.60797322   -2.5982211   -2.5982211   -1.8424616  0.030757084   -2.5982211   0.75575947   426349 
 4474000   0.60745421   -2.5979006   -2.5979006   -1.8427863  0.040034247   -2.5979006    0.7551143   426349 
 4475000   0.60794475   -2.5990382   -2.5990382   -1.8433141  0.044456605   -2.5990382   0.75572408   426349 
 4476000    0.6074937    -2.599356    -2.599356   -1.8441926    0.0456873    -2.599356   0.75516339   426349 
 4477000   0.60699104   -2.5984364   -2.5984364   -1.8438979  0.037877542   -2.5984364   0.75453855   426349 
 4478000   0.60670272   -2.5977142   -2.5977142   -1.8435341  0.030837098   -2.5977142   0.75418013   426349 
 4479000   0.60733504    -2.597738    -2.597738   -1.8427718   0.03020013    -2.597738   0.75496616   426349 
 4480000   0.60691544   -2.5971285   -2.5971285    -1.842684  0.030763854   -2.5971285   0.75444457   426349 
 4481000   0.60626681   -2.5964902   -2.5964902   -1.8428519  0.046520038   -2.5964902   0.75363827   426349 
 4482000   0.60634844   -2.5967883   -2.5967883   -1.8430485  0.033107862   -2.5967883   0.75373974   426349 
 4483000   0.60679071   -2.5972117   -2.5972117   -1.8429221  0.045757112   -2.5972117   0.75428952   426349 
 4484000   0.60662045   -2.5968935   -2.5968935   -1.8428156  0.036032616   -2.5968935   0.75407787   426349 
 4485000   0.60604018   -2.5959921   -2.5959921   -1.8426356  0.035713121   -2.5959921   0.75335655   426349 
 4486000   0.60704155   -2.5973431   -2.5973431   -1.8427418  0.029022895   -2.5973431   0.75460133   426349 
 4487000   0.60634004    -2.596874    -2.596874   -1.8431447  0.025916839    -2.596874    0.7537293   426349 
 4488000   0.60594531   -2.5962758   -2.5962758   -1.8430372  0.040716937   -2.5962758   0.75323862   426349 
 4489000   0.60676701   -2.5973223   -2.5973223   -1.8430622  0.031301848   -2.5973223   0.75426006   426349 
 4490000   0.60715974   -2.5984207   -2.5984207   -1.8436724  0.031651792   -2.5984207   0.75474826   426349 
 4491000   0.60509102   -2.5956045   -2.5956045   -1.8434278  0.031760638   -2.5956045   0.75217666   426349 
 4492000   0.60614997   -2.5977207   -2.5977207   -1.8442277  0.034664674   -2.5977207   0.75349302   426349 
 4493000   0.60644731   -2.5980644   -2.5980644   -1.8442017  0.027949271   -2.5980644   0.75386265   426349 
 4494000   0.60617305   -2.5981799   -2.5981799   -1.8446582  0.042013351   -2.5981799   0.75352172   426349 
 4495000   0.60549887   -2.5969099   -2.5969099   -1.8442263   0.02804117   -2.5969099   0.75268365   426349 
 4496000   0.60626065   -2.5982747   -2.5982747   -1.8446441  0.028506291   -2.5982747   0.75363061   426349 
 4497000   0.60512956   -2.5964812   -2.5964812   -1.8442566  0.043578922   -2.5964812   0.75222457   426349 
 4498000   0.60685913   -2.5985102   -2.5985102   -1.8441356  0.036426459   -2.5985102   0.75437457   426349 
 4499000   0.60588999   -2.5966797   -2.5966797   -1.8435098  0.039229812   -2.5966797   0.75316986   426349 
 4500000    0.6060173   -2.5973278   -2.5973278   -1.8439996  0.028035338   -2.5973278    0.7533281   426349 
 4501000   0.60766401   -2.5995996   -2.5995996   -1.8442245  0.044016036   -2.5995996    0.7553751   426349 
 4502000   0.60671871   -2.5973991   -2.5973991   -1.8431991  0.036826796   -2.5973991   0.75420001   426349 
 4503000   0.60673369   -2.5977428   -2.5977428   -1.8435242  0.040851004   -2.5977428   0.75421864   426349 
 4504000   0.60674707   -2.5978834   -2.5978834   -1.8436481  0.038400757   -2.5978834   0.75423526   426349 
 4505000   0.60547808    -2.596458    -2.596458   -1.8438002  0.038799923    -2.596458   0.75265781   426349 
 4506000   0.60657716   -2.5982505   -2.5982505   -1.8442264  0.027988458   -2.5982505   0.75402406   426349 
 4507000   0.60580002   -2.5972331   -2.5972331   -1.8441751  0.037303757   -2.5972331   0.75305801   426349 
 4508000   0.60605359   -2.5971143   -2.5971143   -1.8437411  0.038060659   -2.5971143   0.75337321   426349 
 4509000    0.6062013   -2.5976691   -2.5976691   -1.8441122  0.032135965   -2.5976691   0.75355683   426349 
 4510000    0.6054358   -2.5967626   -2.5967626   -1.8441573   0.02806107   -2.5967626   0.75260525   426349 
 4511000   0.60513843    -2.595978    -2.595978   -1.8437424  0.035946436    -2.595978    0.7522356   426349 
 4512000   0.60594926   -2.5972182   -2.5972182   -1.8439747  0.032394156   -2.5972182   0.75324352   426349 
 4513000   0.60683052   -2.5979825   -2.5979825   -1.8436435  0.037730876   -2.5979825   0.75433901   426349 
 4514000   0.60573827   -2.5969275   -2.5969275   -1.8439463  0.041583637   -2.5969275   0.75298125   426349 
 4515000   0.60626815   -2.5978255   -2.5978255   -1.8441855  0.033917133   -2.5978255   0.75363994   426349 
 4516000   0.60562859   -2.5972744   -2.5972744   -1.8444295  0.035564092   -2.5972744   0.75284491   426349 
 4517000   0.60620317   -2.5971276   -2.5971276   -1.8435685  0.033002616   -2.5971276   0.75355915   426349 
 4518000   0.60769161   -2.5993271   -2.5993271   -1.8439177  0.032539383   -2.5993271   0.75540941   426349 
 4519000   0.60699624   -2.5982506   -2.5982506   -1.8437056  0.039065821   -2.5982506     0.754545   426349 
 4520000   0.60635907   -2.5982916   -2.5982916   -1.8445387  0.030667776   -2.5982916   0.75375295   426349 
 4521000   0.60573339   -2.5977199   -2.5977199   -1.8447447  0.041720193   -2.5977199   0.75297519   426349 
 4522000   0.60739561   -2.5989569   -2.5989569   -1.8439155  0.036556564   -2.5989569   0.75504146   426349 
 4523000   0.60674004   -2.5990753   -2.5990753   -1.8448488  0.031285629   -2.5990753   0.75422653   426349 
 4524000   0.60660835   -2.5993267   -2.5993267   -1.8452639   0.03565071   -2.5993267   0.75406282   426349 
 4525000   0.60570787   -2.5984079   -2.5984079   -1.8454645  0.029926518   -2.5984079   0.75294345   426349 
 4526000   0.60681995   -2.5998104   -2.5998104   -1.8454845  0.040301898   -2.5998104   0.75432587   426349 
 4527000   0.60639601   -2.6000909   -2.6000909   -1.8462921  0.032141186   -2.6000909   0.75379887   426349 
 4528000   0.60602397   -2.5995243   -2.5995243   -1.8461879  0.038612647   -2.5995243   0.75333639   426349 
 4529000   0.60605868   -2.5987352   -2.5987352   -1.8453557   0.04001633   -2.5987352   0.75337955   426349 
 4530000   0.60777676   -2.6006178   -2.6006178   -1.8451025  0.039276908   -2.6006178   0.75551526   426349 
 4531000   0.60651806   -2.5994462   -2.5994462   -1.8454956  0.040293846   -2.5994462   0.75395058   426349 
 4532000   0.60517328   -2.5983926   -2.5983926   -1.8461137   0.03687013   -2.5983926   0.75227892   426349 
 4533000   0.60640755   -2.5999971   -2.5999971   -1.8461839  0.027789373   -2.5999971   0.75381321   426349 
 4534000   0.60646044   -2.6004163   -2.6004163   -1.8465373  0.032203127   -2.6004163   0.75387896   426349 
 4535000   0.60586727   -2.6008174   -2.6008174   -1.8476758  0.038644816   -2.6008174    0.7531416   426349 
 4536000   0.60633802   -2.5998498   -2.5998498    -1.846123  0.043362003   -2.5998498   0.75372678   426349 
 4537000   0.60635739   -2.6007364   -2.6007364   -1.8469855  0.036067906   -2.6007364   0.75375086   426349 
 4538000   0.60576406   -2.6005311   -2.6005311   -1.8475178  0.039273763   -2.6005311    0.7530133   426349 
 4539000   0.60599009   -2.6009619   -2.6009619   -1.8476676  0.037688536   -2.6009619   0.75329428   426349 
 4540000   0.60571121   -2.6006225   -2.6006225   -1.8476749  0.040312757   -2.6006225   0.75294761   426349 
 4541000   0.60559221   -2.6006793   -2.6006793   -1.8478796  0.039393906   -2.6006793   0.75279969   426349 
 4542000   0.60574199   -2.6006361   -2.6006361   -1.8476503  0.036055092   -2.6006361   0.75298588   426349 
 4543000   0.60482308   -2.5991271   -2.5991271   -1.8472835  0.033076835   -2.5991271    0.7518436   426349 
 4544000   0.60564939   -2.5999053   -2.5999053   -1.8470345  0.030451657   -2.5999053   0.75287076   426349 
 4545000   0.60608536   -2.6006623   -2.6006623   -1.8472496  0.030478245   -2.6006623   0.75341271   426349 
 4546000    0.6068179   -2.6015336   -2.6015336   -1.8472103  0.036557631   -2.6015336   0.75432332   426349 
 4547000   0.60642157   -2.6010787   -2.6010787   -1.8472481  0.037154248   -2.6010787   0.75383065   426349 
 4548000   0.60537998    -2.599342    -2.599342   -1.8468061  0.035730941    -2.599342   0.75253587   426349 
 4549000   0.60524643   -2.5991836   -2.5991836   -1.8468138  0.052180146   -2.5991836   0.75236985   426349 
 4550000   0.60550721   -2.5997454   -2.5997454   -1.8470514  0.031957121   -2.5997454   0.75269403   426349 
 4551000   0.60553227   -2.5997127   -2.5997127   -1.8469876   0.03403351   -2.5997127   0.75272517   426349 
 4552000   0.60556787   -2.5993313   -2.5993313   -1.8465619  0.042899083   -2.5993313   0.75276943   426349 
 4553000   0.60565868   -2.6003601   -2.6003601   -1.8474778   0.03285281   -2.6003601   0.75288231   426349 
 4554000   0.60580522   -2.6007306   -2.6007306   -1.8476662  0.031051222   -2.6007306   0.75306447   426349 
 4555000   0.60626792   -2.6012485   -2.6012485   -1.8476089  0.039841351   -2.6012485   0.75363964   426349 
 4556000    0.6045328    -2.599435    -2.599435   -1.8479522  0.038561732    -2.599435   0.75148275   426349 
 4557000   0.60600031   -2.6008788   -2.6008788   -1.8475718  0.028886414   -2.6008788   0.75330698   426349 
 4558000    0.6058774   -2.5999607   -2.5999607   -1.8468065  0.039220832   -2.5999607    0.7531542   426349 
 4559000   0.60579234   -2.6003581   -2.6003581   -1.8473096  0.034340725   -2.6003581   0.75304846   426349 
 4560000   0.60631211   -2.6011508   -2.6011508   -1.8474562  0.042287565   -2.6011508   0.75369458   426349 
 4561000    0.6060301   -2.6008344   -2.6008344   -1.8474904  0.028584611   -2.6008344   0.75334402   426349 
 4562000   0.60591669   -2.6007793   -2.6007793   -1.8475763  0.034176057   -2.6007793   0.75320304   426349 
 4563000   0.60643961   -2.6016364   -2.6016364   -1.8477833  0.032517574   -2.6016364   0.75385308   426349 
 4564000   0.60564402   -2.6008064   -2.6008064   -1.8479423  0.035249869   -2.6008064   0.75286409   426349 
 4565000    0.6051736    -2.600212    -2.600212   -1.8479327  0.037631347    -2.600212   0.75227932   426349 
 4566000   0.60633974    -2.601456    -2.601456   -1.8477271  0.036806467    -2.601456   0.75372892   426349 
 4567000   0.60570466   -2.6006849   -2.6006849   -1.8477454  0.036254567   -2.6006849   0.75293947   426349 
 4568000   0.60565223   -2.5993141   -2.5993141   -1.8464398  0.036121609   -2.5993141   0.75287429   426349 
 4569000   0.60558557   -2.5991792   -2.5991792   -1.8463877  0.028795995   -2.5991792   0.75279143   426349 
 4570000   0.60639249   -2.6000843   -2.6000843   -1.8462898  0.029019455   -2.6000843   0.75379449   426349 
 4571000   0.60561977   -2.6002605   -2.6002605   -1.8474266  0.042441059   -2.6002605   0.75283394   426349 
 4572000   0.60557594   -2.6000668   -2.6000668   -1.8472874  0.038254084   -2.6000668   0.75277945   426349 
 4573000   0.60594498   -2.5996033   -2.5996033   -1.8463651  0.040772182   -2.5996033   0.75323821   426349 
 4574000   0.60670804   -2.5997048   -2.5997048    -1.845518  0.028222706   -2.5997048   0.75418675   426349 
 4575000   0.60613393   -2.5991345   -2.5991345   -1.8456614   0.03866614   -2.5991345   0.75347309   426349 
 4576000   0.60729773   -2.6005647   -2.6005647   -1.8456449  0.037924293   -2.6005647   0.75491978   426349 
 4577000    0.6059598   -2.5985377   -2.5985377   -1.8452811  0.032554149   -2.5985377   0.75325662   426349 
 4578000   0.60641101   -2.5994898   -2.5994898   -1.8456722  0.042612052   -2.5994898   0.75381752   426349 
 4579000   0.60670864   -2.5998332   -2.5998332   -1.8456457  0.026357009   -2.5998332    0.7541875   426349 
 4580000   0.60599579   -2.5988517   -2.5988517   -1.8455503  0.040760082   -2.5988517   0.75330137   426349 
 4581000   0.60652277   -2.5997052   -2.5997052   -1.8457487  0.029703798   -2.5997052   0.75395644   426349 
 4582000   0.60617117   -2.5996345   -2.5996345   -1.8461151  0.032277904   -2.5996345   0.75351938   426349 
 4583000   0.60545826    -2.598242    -2.598242   -1.8456088  0.031254672    -2.598242   0.75263317   426349 
 4584000   0.60647479   -2.5996181   -2.5996181   -1.8457213  0.039244451   -2.5996181    0.7538968   426349 
 4585000   0.60507988   -2.5984349   -2.5984349   -1.8462721  0.039547781   -2.5984349   0.75216282   426349 
 4586000   0.60508216   -2.5987008   -2.5987008   -1.8465351  0.031190104   -2.5987008   0.75216565   426349 
 4587000   0.60522013   -2.5991835   -2.5991835   -1.8468463  0.029595432   -2.5991835   0.75233716   426349 
 4588000   0.60611633   -2.6001132   -2.6001132    -1.846662  0.039952886   -2.6001132   0.75345121   426349 
 4589000     0.606939   -2.6008474   -2.6008474   -1.8463736  0.033054265   -2.6008474   0.75447385   426349 
 4590000   0.60564527   -2.5999527   -2.5999527   -1.8470871   0.04706208   -2.5999527   0.75286565   426349 
 4591000    0.6055367   -2.5995577   -2.5995577    -1.846827  0.034851937   -2.5995577   0.75273068   426349 
 4592000   0.60635076   -2.6009732   -2.6009732   -1.8472306  0.034669206   -2.6009732   0.75374262   426349 
 4593000   0.60694058   -2.6022705   -2.6022705   -1.8477947  0.044651506   -2.6022705   0.75447582   426349 
 4594000   0.60677822   -2.6020435   -2.6020435   -1.8477695  0.035296301   -2.6020435     0.754274   426349 
 4595000   0.60698582   -2.6019692   -2.6019692   -1.8474372  0.042708249   -2.6019692   0.75453205   426349 
 4596000   0.60668534   -2.6022391   -2.6022391   -1.8480806  0.038734965   -2.6022391   0.75415853   426349 
 4597000   0.60627075   -2.6016267   -2.6016267   -1.8479835   0.03728693   -2.6016267   0.75364317   426349 
 4598000   0.60567441   -2.6012985   -2.6012985   -1.8483966  0.031911099   -2.6012985   0.75290186   426349 
 4599000   0.60560488   -2.6012267   -2.6012267   -1.8484112    0.0422734   -2.6012267   0.75281544   426349 
 4600000   0.60543981   -2.6001143   -2.6001143    -1.847504  0.035599806   -2.6001143   0.75261024   426349 
 4601000    0.6045517   -2.5992247   -2.5992247   -1.8477185  0.040299731   -2.5992247   0.75150625   426349 
 4602000   0.60446093   -2.5991328   -2.5991328   -1.8477394  0.045760864   -2.5991328   0.75139342   426349 
 4603000   0.60606987   -2.6011644   -2.6011644    -1.847771  0.030702204   -2.6011644   0.75339345   426349 
 4604000   0.60506937   -2.6002425   -2.6002425   -1.8480927  0.037243785   -2.6002425   0.75214975   426349 
 4605000   0.60523918   -2.6005958   -2.6005958   -1.8482349  0.035105924   -2.6005958   0.75236084   426349 
 4606000   0.60420309   -2.5993318   -2.5993318   -1.8482589  0.032464263   -2.5993318    0.7510729   426349 
 4607000    0.6069163   -2.6023524   -2.6023524   -1.8479068  0.023457442   -2.6023524   0.75444564   426349 
 4608000   0.60473594   -2.5992098   -2.5992098   -1.8474745  0.041209146   -2.5992098   0.75173527   426349 
 4609000   0.60509233   -2.5999918   -2.5999918   -1.8478135   0.04094508   -2.5999918   0.75217829   426349 
 4610000   0.60421569    -2.598855    -2.598855   -1.8477664  0.040922848    -2.598855   0.75108857   426349 
 4611000   0.60565657   -2.5995902   -2.5995902   -1.8467105  0.037557016   -2.5995902   0.75287969   426349 
 4612000   0.60627308   -2.6001461   -2.6001461      -1.8465  0.030991206   -2.6001461   0.75364607   426349 
 4613000   0.60585828   -2.5999824   -2.5999824    -1.846852  0.029970187   -2.5999824   0.75313043   426349 
 4614000   0.60519882   -2.5993521   -2.5993521   -1.8470414  0.046907666   -2.5993521   0.75231068   426349 
 4615000   0.60636965   -2.6005576   -2.6005576   -1.8467915  0.034305077   -2.6005576   0.75376611   426349 
 4616000   0.60670672   -2.6021676   -2.6021676   -1.8479825  0.035777612   -2.6021676   0.75418511   426349 
 4617000   0.60608844   -2.6011838   -2.6011838   -1.8477673  0.027145534   -2.6011838   0.75341654   426349 
 4618000   0.60552795   -2.6010957   -2.6010957   -1.8483759  0.035880952   -2.6010957    0.7527198   426349 
 4619000   0.60626027   -2.6018984   -2.6018984   -1.8482683  0.026562295   -2.6018984   0.75363014   426349 
 4620000    0.6062776   -2.6005332   -2.6005332   -1.8468815  0.036601752   -2.6005332   0.75365168   426349 
 4621000   0.60594841    -2.600144    -2.600144   -1.8469015  0.038792085    -2.600144   0.75324247   426349 
 4622000   0.60537124   -2.5996583   -2.5996583   -1.8471332  0.036700139   -2.5996583   0.75252501   426349 
 4623000    0.6054743   -2.5991762   -2.5991762   -1.8465231  0.037913985   -2.5991762   0.75265312   426349 
 4624000   0.60693534   -2.6017366   -2.6017366   -1.8472673   0.03128557   -2.6017366    0.7544693   426349 
 4625000   0.60618417   -2.6016608   -2.6016608   -1.8481253  0.035486872   -2.6016608   0.75353554   426349 
 4626000   0.60392956   -2.5995859   -2.5995859    -1.848853  0.040712545   -2.5995859   0.75073288   426349 
 4627000   0.60381303   -2.5994835   -2.5994835   -1.8488954  0.030876454   -2.5994835   0.75058802   426349 
 4628000   0.60413326   -2.5993227   -2.5993227   -1.8483366   0.03714479   -2.5993227    0.7509861   426349 
 4629000   0.60366955    -2.599889    -2.599889   -1.8494793  0.028427195    -2.599889   0.75040966   426349 
 4630000   0.60536451   -2.6007947   -2.6007947   -1.8482781  0.036192639   -2.6007947   0.75251664   426349 
 4631000   0.60566356   -2.6013275   -2.6013275   -1.8484392  0.035232238   -2.6013275   0.75288838   426349 
 4632000   0.60472878   -2.5997176   -2.5997176   -1.8479912  0.035633831   -2.5997176   0.75172638   426349 
 4633000     0.605077   -2.5998613   -2.5998613   -1.8477021  0.042557804   -2.5998613   0.75215924   426349 
 4634000   0.60562021   -2.6015758   -2.6015758   -1.8487413  0.023926303   -2.6015758   0.75283449   426349 
 4635000   0.60596218   -2.6016848   -2.6016848   -1.8484252  0.035106411   -2.6016848   0.75325958   426349 
 4636000   0.60477778   -2.6009229   -2.6009229   -1.8491357  0.034781325   -2.6009229   0.75178729   426349 
 4637000   0.60665071    -2.603202    -2.603202   -1.8490865  0.029847646    -2.603202   0.75411548   426349 
 4638000   0.60456624   -2.6006325   -2.6006325   -1.8491082  0.026729888   -2.6006325   0.75152433   426349 
 4639000   0.60618622   -2.6021434   -2.6021434   -1.8486054  0.034162905   -2.6021434   0.75353808   426349 
 4640000   0.60677895   -2.6028672   -2.6028672   -1.8485923  0.038934109   -2.6028672    0.7542749   426349 
 4641000    0.6057499   -2.6018096   -2.6018096   -1.8488139   0.03453636   -2.6018096    0.7529957   426349 
 4642000   0.60545715   -2.6019197   -2.6019197   -1.8492879   0.04068208   -2.6019197   0.75263179   426349 
 4643000   0.60618291   -2.6030952   -2.6030952   -1.8495613  0.032783601   -2.6030952   0.75353397   426349 
 4644000   0.60537814   -2.6017805   -2.6017805   -1.8492469  0.030222005   -2.6017805   0.75253358   426349 
 4645000   0.60562954   -2.6020222   -2.6020222   -1.8491762  0.046114401   -2.6020222   0.75284608   426349 
 4646000   0.60611191   -2.6027504   -2.6027504   -1.8493047  0.037482377   -2.6027504   0.75344571   426349 
 4647000   0.60565082   -2.6021262   -2.6021262   -1.8492536  0.032884894   -2.6021262   0.75287255   426349 
 4648000   0.60692351   -2.6036211   -2.6036211   -1.8491665  0.037550449   -2.6036211    0.7544546   426349 
 4649000   0.60634078   -2.6025916   -2.6025916   -1.8488613  0.030473963   -2.6025916   0.75373022   426349 
 4650000   0.60550722   -2.6014263   -2.6014263   -1.8487323  0.038021504   -2.6014263   0.75269404   426349 
 4651000   0.60541478   -2.6014311   -2.6014311    -1.848852  0.034285833   -2.6014311   0.75257912   426349 
 4652000   0.60438097   -2.6006843   -2.6006843   -1.8493903  0.034851258   -2.6006843   0.75129402   426349 
 4653000   0.60557354   -2.6023459   -2.6023459   -1.8495694  0.028557468   -2.6023459   0.75277647   426349 
 4654000   0.60442161   -2.6006999   -2.6006999   -1.8493554  0.028571769   -2.6006999   0.75134453   426349 
 4655000   0.60544479   -2.6015697   -2.6015697   -1.8489533  0.038328814   -2.6015697   0.75261643   426349 
 4656000   0.60551252    -2.601205    -2.601205   -1.8485044  0.033878999    -2.601205   0.75270062   426349 
 4657000   0.60550689   -2.6011537   -2.6011537   -1.8484601  0.029447047   -2.6011537   0.75269363   426349 
 4658000   0.60624204   -2.6025016   -2.6025016   -1.8488941  0.036295756   -2.6025016   0.75360748   426349 
 4659000   0.60620303   -2.6012041   -2.6012041   -1.8476451  0.039231718   -2.6012041   0.75355899   426349 
 4660000   0.60623889   -2.6021374   -2.6021374   -1.8485338  0.042394802   -2.6021374   0.75360356   426349 
 4661000   0.60525272   -2.6010691   -2.6010691   -1.8486914   0.02821943   -2.6010691   0.75237767   426349 
 4662000   0.60449585   -2.6010098   -2.6010098    -1.849573  0.037460204   -2.6010098   0.75143682   426349 
 4663000   0.60603365   -2.6025294   -2.6025294    -1.849181  0.031196061   -2.6025294   0.75334843   426349 
 4664000    0.6053029   -2.6016114   -2.6016114   -1.8491713  0.033205402   -2.6016114   0.75244005   426349 
 4665000   0.60542943   -2.6018944   -2.6018944   -1.8492971  0.030748955   -2.6018944   0.75259734   426349 
 4666000   0.60543658   -2.6021735   -2.6021735   -1.8495672  0.041108401   -2.6021735   0.75260622   426349 
 4667000   0.60605125   -2.6034252   -2.6034252   -1.8500549  0.035785122   -2.6034252   0.75337031   426349 
 4668000   0.60623944   -2.6035967   -2.6035967   -1.8499924  0.039051406   -2.6035967   0.75360424   426349 
 4669000   0.60661125   -2.6042007   -2.6042007   -1.8501343  0.036048331   -2.6042007   0.75406644   426349 
 4670000   0.60616066   -2.6032695   -2.6032695   -1.8497632  0.033733832   -2.6032695   0.75350631   426349 
 4671000   0.60512979   -2.6027062   -2.6027062   -1.8504813  0.035440224   -2.6027062   0.75222487   426349 
 4672000   0.60517073   -2.6032778   -2.6032778    -1.851002  0.034154064   -2.6032778   0.75227575   426349 
 4673000   0.60582048   -2.6038032   -2.6038032   -1.8507197  0.028991969   -2.6038032   0.75308344   426349 
 4674000   0.60738997   -2.6058119   -2.6058119   -1.8507774  0.030844066   -2.6058119   0.75503445   426349 
 4675000   0.60648266   -2.6049176   -2.6049176   -1.8510111  0.038772342   -2.6049176   0.75390658   426349 
 4676000   0.60670193   -2.6055147   -2.6055147   -1.8513355  0.036965742   -2.6055147   0.75417916   426349 
 4677000   0.60668821   -2.6049633   -2.6049633   -1.8508012  0.035224648   -2.6049633    0.7541621   426349 
 4678000     0.604757   -2.6031378   -2.6031378   -1.8513763   0.04160437   -2.6031378   0.75176146   426349 
 4679000   0.60546859   -2.6030834   -2.6030834   -1.8504374  0.027472651   -2.6030834   0.75264602   426349 
 4680000   0.60418431   -2.6006422   -2.6006422   -1.8495926  0.031445727   -2.6006422   0.75104955   426349 
 4681000   0.60446455    -2.601604    -2.601604   -1.8502061  0.031408766    -2.601604   0.75139791   426349 
 4682000   0.60501372   -2.6019579   -2.6019579   -1.8498773  0.038876441   -2.6019579   0.75208058   426349 
 4683000    0.6061879   -2.6038804   -2.6038804   -1.8503402  0.044178963   -2.6038804   0.75354018   426349 
 4684000   0.60529213   -2.6031505   -2.6031505   -1.8507239  0.047028405   -2.6031505   0.75242666   426349 
 4685000   0.60567389   -2.6040248   -2.6040248   -1.8511236  0.041540649   -2.6040248   0.75290122   426349 
 4686000    0.6055036   -2.6037614   -2.6037614   -1.8510719   0.02581243   -2.6037614   0.75268953   426349 
 4687000   0.60517219    -2.603679    -2.603679   -1.8514014  0.037020467    -2.603679   0.75227757   426349 
 4688000   0.60533648   -2.6041441   -2.6041441   -1.8516623  0.040201915   -2.6041441   0.75248179   426349 
 4689000   0.60527404   -2.6042955   -2.6042955   -1.8518913  0.043393263   -2.6042955   0.75240418   426349 
 4690000   0.60476025   -2.6027559   -2.6027559   -1.8509904  0.037437546   -2.6027559   0.75176549   426349 
 4691000   0.60528269   -2.6042369   -2.6042369   -1.8518219  0.037496639   -2.6042369   0.75241493   426349 
 4692000   0.60586292   -2.6048278   -2.6048278   -1.8516916  0.035864691   -2.6048278   0.75313619   426349 
 4693000    0.6039438   -2.6037152   -2.6037152   -1.8529646  0.043382621   -2.6037152   0.75075058   426349 
 4694000   0.60527333   -2.6057459   -2.6057459   -1.8533426  0.030606056   -2.6057459   0.75240329   426349 
 4695000   0.60583007   -2.6057872   -2.6057872   -1.8526919  0.031386275   -2.6057872   0.75309536   426349 
 4696000   0.60573975   -2.6049331   -2.6049331     -1.85195   0.03897172   -2.6049331   0.75298309   426349 
 4697000   0.60645306   -2.6055268   -2.6055268    -1.851657   0.04023622   -2.6055268   0.75386979   426349 
 4698000   0.60657709   -2.6061059   -2.6061059   -1.8520819  0.034748283   -2.6061059   0.75402397   426349 
 4699000   0.60573265   -2.6050221   -2.6050221   -1.8520478  0.032165939   -2.6050221   0.75297427   426349 
 4700000   0.60602251   -2.6057823   -2.6057823   -1.8524477  0.040209009   -2.6057823   0.75333458   426349 
 4701000   0.60495356   -2.6051057   -2.6051057   -1.8530999  0.041042547   -2.6051057    0.7520058   426349 
 4702000   0.60622244   -2.6063034   -2.6063034   -1.8527203  0.038111551   -2.6063034   0.75358311   426349 
 4703000   0.60530315   -2.6047447   -2.6047447   -1.8523043  0.038939288   -2.6047447   0.75244036   426349 
 4704000   0.60515412   -2.6042409   -2.6042409   -1.8519858  0.044775924   -2.6042409    0.7522551   426349 
 4705000   0.60614253   -2.6060884   -2.6060884   -1.8526046  0.039890592   -2.6060884   0.75348378   426349 
 4706000   0.60521074   -2.6042845   -2.6042845    -1.851959  0.028134213   -2.6042845   0.75232549   426349 
 4707000   0.60547684   -2.6041932   -2.6041932    -1.851537  0.042449559   -2.6041932   0.75265628   426349 
 4708000   0.60583626   -2.6047326   -2.6047326   -1.8516295  0.031566203   -2.6047326   0.75310306   426349 
 4709000   0.60517281   -2.6038629   -2.6038629   -1.8515845   0.03633577   -2.6038629   0.75227834   426349 
 4710000   0.60491139   -2.6038579   -2.6038579   -1.8519046  0.040724407   -2.6038579   0.75195337   426349 
 4711000    0.6048895   -2.6035553   -2.6035553   -1.8516291  0.024182472   -2.6035553   0.75192617   426349 
 4712000   0.60433408   -2.6022871   -2.6022871   -1.8510514  0.038622044   -2.6022871   0.75123573   426349 
 4713000   0.60509905   -2.6030989   -2.6030989   -1.8509123  0.029715133   -2.6030989   0.75218664   426349 
 4714000   0.60544171   -2.6028803   -2.6028803   -1.8502677  0.037450284   -2.6028803   0.75261261   426349 
 4715000   0.60526139   -2.6025161   -2.6025161   -1.8501276  0.030263257   -2.6025161   0.75238845   426349 
 4716000   0.60433157    -2.601812    -2.601812   -1.8505794  0.031077226    -2.601812   0.75123261   426349 
 4717000   0.60416347   -2.6014322   -2.6014322   -1.8504085  0.026170568   -2.6014322   0.75102365   426349 
 4718000   0.60510939   -2.6022771   -2.6022771   -1.8500776  0.044551338   -2.6022771    0.7521995   426349 
 4719000   0.60555741   -2.6035121   -2.6035121   -1.8507556  0.045947238   -2.6035121   0.75275642   426349 
 4720000   0.60458771   -2.6026727   -2.6026727   -1.8511217  0.047018067   -2.6026727   0.75155101   426349 
 4721000   0.60450541   -2.6039291   -2.6039291   -1.8524804  0.036999843   -2.6039291   0.75144871   426349 
 4722000   0.60613051     -2.60473     -2.60473   -1.8512611   0.03685467     -2.60473   0.75346884   426349 
 4723000   0.60576375   -2.6036474   -2.6036474   -1.8506345  0.034087014   -2.6036474   0.75301293   426349 
 4724000   0.60557165   -2.6037832   -2.6037832   -1.8510091  0.038960111   -2.6037832   0.75277413   426349 
 4725000   0.60486922   -2.6032295   -2.6032295   -1.8513285  0.041171786   -2.6032295   0.75190096   426349 
 4726000    0.6058521   -2.6039169   -2.6039169   -1.8507942  0.037869527   -2.6039169   0.75312275   426349 
 4727000   0.60581516   -2.6043261   -2.6043261   -1.8512492  0.039098725   -2.6043261   0.75307684   426349 
 4728000   0.60533859   -2.6043929   -2.6043929   -1.8519085  0.035337141   -2.6043929   0.75248441   426349 
 4729000   0.60622471   -2.6058946   -2.6058946   -1.8523086  0.036250005   -2.6058946   0.75358593   426349 
 4730000   0.60676147   -2.6059353   -2.6059353   -1.8516821  0.038293616   -2.6059353   0.75425317   426349 
 4731000   0.60590826   -2.6050036   -2.6050036   -1.8518111  0.040399088   -2.6050036   0.75319256   426349 
 4732000   0.60587125    -2.604348    -2.604348   -1.8512015  0.038747364    -2.604348   0.75314655   426349 
 4733000   0.60505757   -2.6041101   -2.6041101    -1.851975  0.033473563   -2.6041101   0.75213509   426349 
 4734000   0.60581887   -2.6046213   -2.6046213   -1.8515398  0.040261446   -2.6046213   0.75308145   426349 
 4735000     0.605593   -2.6044792   -2.6044792   -1.8516785  0.035434836   -2.6044792   0.75280066   426349 
 4736000   0.60586053   -2.6053238   -2.6053238   -1.8521905   0.03325527   -2.6053238   0.75313323   426349 
 4737000    0.6053292   -2.6047171   -2.6047171   -1.8522443  0.034807311   -2.6047171   0.75247275   426349 
 4738000   0.60446972   -2.6041841   -2.6041841   -1.8527797  0.032148803   -2.6041841   0.75140433   426349 
 4739000   0.60387351   -2.6035417   -2.6035417   -1.8528785  0.038257221   -2.6035417    0.7506632   426349 
 4740000   0.60571974   -2.6052893   -2.6052893   -1.8523311  0.037119383   -2.6052893   0.75295821   426349 
 4741000   0.60630847   -2.6061825   -2.6061825   -1.8524925   0.04169717   -2.6061825   0.75369005   426349 
 4742000    0.6056712   -2.6048118   -2.6048118   -1.8519139  0.028862746   -2.6048118   0.75289787   426349 
 4743000   0.60575676   -2.6055949   -2.6055949   -1.8525907  0.028652442   -2.6055949   0.75300424   426349 
 4744000   0.60676485   -2.6064854   -2.6064854    -1.852228  0.033626112   -2.6064854   0.75425737   426349 
 4745000   0.60644371    -2.606693    -2.606693   -1.8528349  0.040626807    -2.606693   0.75385817   426349 
 4746000   0.60566299   -2.6059358   -2.6059358   -1.8530482  0.033302457   -2.6059358   0.75288767   426349 
 4747000   0.60609516   -2.6066223   -2.6066223   -1.8531974   0.03010536   -2.6066223   0.75342489   426349 
 4748000   0.60547698   -2.6053959   -2.6053959   -1.8527395  0.041983343   -2.6053959   0.75265645   426349 
 4749000   0.60654664   -2.6062911   -2.6062911    -1.852305  0.038384831   -2.6062911   0.75398611   426349 
 4750000   0.60496177   -2.6053836   -2.6053836   -1.8533676  0.040655666   -2.6053836   0.75201599   426349 
 4751000   0.60548275   -2.6057775   -2.6057775   -1.8531139  0.039812688   -2.6057775   0.75266362   426349 
 4752000   0.60579965   -2.6059134   -2.6059134   -1.8528559  0.037316873   -2.6059134   0.75305755   426349 
 4753000   0.60593706   -2.6062172   -2.6062172   -1.8529888  0.038406586   -2.6062172   0.75322836   426349 
 4754000   0.60585932   -2.6065758   -2.6065758    -1.853444  0.033201134   -2.6065758   0.75313172   426349 
 4755000   0.60483914   -2.6052159   -2.6052159   -1.8533524  0.048453077   -2.6052159   0.75186356   426349 
 4756000   0.60550879   -2.6049563   -2.6049563   -1.8522603  0.026472027   -2.6049563   0.75269598   426349 
 4757000   0.60644766   -2.6063785   -2.6063785   -1.8525154  0.031221978   -2.6063785   0.75386307   426349 
 4758000   0.60588875   -2.6058824   -2.6058824    -1.852714  0.029186021   -2.6058824   0.75316831   426349 
 4759000   0.60602425   -2.6068674   -2.6068674   -1.8535307  0.024346836   -2.6068674   0.75333674   426349 
 4760000   0.60594207   -2.6059715   -2.6059715   -1.8527369  0.044389921   -2.6059715   0.75323459   426349 
 4761000   0.60602635   -2.6062591   -2.6062591   -1.8529197  0.035972218   -2.6062591   0.75333936   426349 
 4762000   0.60367124   -2.6039677   -2.6039677   -1.8535559  0.040333267   -2.6039677   0.75041177   426349 
 4763000   0.60572768   -2.6063371   -2.6063371    -1.853369  0.038246949   -2.6063371   0.75296808   426349 
 4764000   0.60560931   -2.6057232   -2.6057232   -1.8529023  0.044181554   -2.6057232   0.75282094   426349 
 4765000   0.60619399   -2.6061941   -2.6061941   -1.8526464  0.043461256   -2.6061941   0.75354774   426349 
 4766000    0.6052805   -2.6053201   -2.6053201   -1.8529079   0.03602815   -2.6053201   0.75241221   426349 
 4767000   0.60549585   -2.6045022   -2.6045022   -1.8518223  0.044114561   -2.6045022   0.75267991   426349 
 4768000   0.60501218   -2.6040129   -2.6040129   -1.8519343  0.038016652   -2.6040129   0.75207866   426349 
 4769000   0.60577954   -2.6048445   -2.6048445   -1.8518119   0.03949008   -2.6048445   0.75303255   426349 
 4770000   0.60528787   -2.6038239   -2.6038239   -1.8514026  0.036412654   -2.6038239   0.75242137   426349 
 4771000   0.60535362   -2.6042783   -2.6042783   -1.8517752   0.03305061   -2.6042783    0.7525031   426349 
 4772000   0.60533744   -2.6043939   -2.6043939   -1.8519109  0.030836485   -2.6043939   0.75248299   426349 
 4773000   0.60517445   -2.6043668   -2.6043668   -1.8520865  0.030840157   -2.6043668   0.75228037   426349 
 4774000   0.60459537   -2.6040696   -2.6040696    -1.852509  0.033634021   -2.6040696   0.75156053   426349 
 4775000   0.60531721   -2.6048851   -2.6048851   -1.8524273  0.034815346   -2.6048851   0.75245784   426349 
 4776000   0.60549735   -2.6047719   -2.6047719   -1.8520901  0.036759377   -2.6047719   0.75268177   426349 
 4777000   0.60629678   -2.6060008   -2.6060008   -1.8523253  0.034512096   -2.6060008   0.75367552   426349 
 4778000   0.60544631   -2.6049981   -2.6049981   -1.8523798   0.02881151   -2.6049981   0.75261832   426349 
 4779000   0.60596879   -2.6049069   -2.6049069   -1.8516391  0.041798173   -2.6049069    0.7532678   426349 
 4780000   0.60423877   -2.6030918   -2.6030918   -1.8519746  0.031494516   -2.6030918   0.75111725   426349 
 4781000   0.60453031   -2.6040204   -2.6040204   -1.8525407  0.038512255   -2.6040204   0.75147966   426349 
 4782000   0.60563725   -2.6061057   -2.6061057   -1.8532501  0.036243924   -2.6061057   0.75285568   426349 
 4783000   0.60498824   -2.6048764   -2.6048764   -1.8528275  0.032550827   -2.6048764    0.7520489   426349 
 4784000    0.6053924   -2.6053822   -2.6053822   -1.8528309  0.039987699   -2.6053822   0.75255131   426349 
 4785000   0.60528203   -2.6058637   -2.6058637   -1.8534496  0.035269214   -2.6058637   0.75241411   426349 
 4786000   0.60441917   -2.6052586   -2.6052586   -1.8539171  0.033028672   -2.6052586    0.7513415   426349 
 4787000   0.60580162    -2.606281    -2.606281    -1.853221   0.02920965    -2.606281   0.75305999   426349 
 4788000   0.60579593   -2.6076983   -2.6076983   -1.8546454  0.042355314   -2.6076983   0.75305293   426349 
 4789000   0.60553245   -2.6072869   -2.6072869   -1.8545615  0.039574481   -2.6072869   0.75272539   426349 
 4790000   0.60589509    -2.607208    -2.607208   -1.8540318   0.02864423    -2.607208   0.75317619   426349 
 4791000   0.60652742   -2.6079514   -2.6079514   -1.8539892   0.03811589   -2.6079514   0.75396223   426349 
 4792000   0.60583225   -2.6073205   -2.6073205   -1.8542224  0.042017707   -2.6073205   0.75309807   426349 
 4793000   0.60515845   -2.6067373   -2.6067373   -1.8544768  0.046154962   -2.6067373   0.75226048   426349 
 4794000   0.60588289    -2.607907    -2.607907   -1.8547459  0.041053245    -2.607907   0.75316103   426349 
 4795000   0.60692035   -2.6087025   -2.6087025   -1.8542518   0.02969561   -2.6087025   0.75445068   426349 
 4796000   0.60671097   -2.6081021   -2.6081021   -1.8539117  0.042280043   -2.6081021   0.75419039   426349 
 4797000   0.60573846   -2.6078859   -2.6078859   -1.8549045   0.04761082   -2.6078859   0.75298149   426349 
 4798000   0.60423087   -2.6059674   -2.6059674   -1.8548599  0.041132261   -2.6059674   0.75110743   426349 
 4799000   0.60555082   -2.6080079   -2.6080079   -1.8552597  0.031641234   -2.6080079   0.75274824   426349 
 4800000   0.60465529   -2.6065756   -2.6065756   -1.8549406  0.032418633   -2.6065756   0.75163502   426349 
 4801000   0.60600253   -2.6070451   -2.6070451   -1.8537353  0.033278598   -2.6070451   0.75330975   426349 
 4802000   0.60575256   -2.6065558   -2.6065558   -1.8535568  0.044102403   -2.6065558   0.75299902   426349 
 4803000   0.60573925   -2.6063771   -2.6063771   -1.8533946  0.035717443   -2.6063771   0.75298247   426349 
 4804000   0.60595583   -2.6070097   -2.6070097    -1.853758  0.039257144   -2.6070097   0.75325169   426349 
 4805000   0.60571597   -2.6064654   -2.6064654   -1.8535118  0.041037309   -2.6064654   0.75295352   426349 
 4806000   0.60565197   -2.6068318   -2.6068318   -1.8539578  0.031600607   -2.6068318   0.75287397   426349 
 4807000   0.60475619   -2.6053507   -2.6053507   -1.8535903    0.0304484   -2.6053507   0.75176045   426349 
 4808000   0.60503545   -2.6058612   -2.6058612   -1.8537536  0.026394695   -2.6058612   0.75210758   426349 
 4809000   0.60560829   -2.6058242   -2.6058242   -1.8530045  0.032052553   -2.6058242   0.75281967   426349 
 4810000   0.60590646   -2.6052388   -2.6052388   -1.8520484  0.036709182   -2.6052388   0.75319033   426349 
 4811000   0.60581802    -2.604967    -2.604967   -1.8518867  0.036211995    -2.604967   0.75308039   426349 
 4812000   0.60665828   -2.6053648   -2.6053648   -1.8512399  0.036685001   -2.6053648   0.75412489   426349 
 4813000   0.60616868    -2.604776    -2.604776   -1.8512597  0.042566387    -2.604776   0.75351628   426349 
 4814000   0.60595004     -2.60453     -2.60453   -1.8512855  0.035095083     -2.60453    0.7532445   426349 
 4815000   0.60614369   -2.6049058   -2.6049058   -1.8514206  0.036273828   -2.6049058   0.75348522   426349 
 4816000   0.60544834    -2.604022    -2.604022   -1.8514012  0.031549031    -2.604022   0.75262084   426349 
 4817000   0.60625354   -2.6053956   -2.6053956   -1.8517738  0.033136577   -2.6053956   0.75362177   426349 
 4818000   0.60404041   -2.6031412   -2.6031412   -1.8522706   0.02318504   -2.6031412   0.75087067   426349 
 4819000   0.60587982   -2.6045662   -2.6045662    -1.851409  0.029958552   -2.6045662   0.75315721   426349 
 4820000   0.60412623    -2.601828    -2.601828   -1.8508507  0.031815424    -2.601828   0.75097735   426349 
 4821000   0.60470911   -2.6030124   -2.6030124   -1.8513105  0.034492763   -2.6030124   0.75170192   426349 
 4822000   0.60550839   -2.6040337   -2.6040337   -1.8513382   0.03216644   -2.6040337   0.75269549   426349 
 4823000   0.60547399   -2.6041479   -2.6041479   -1.8514952  0.033419264   -2.6041479   0.75265272   426349 
 4824000   0.60574022   -2.6034003   -2.6034003   -1.8504166  0.029618937   -2.6034003   0.75298368   426349 
 4825000   0.60535859   -2.6030538   -2.6030538   -1.8505445  0.048412773   -2.6030538   0.75250928   426349 
 4826000   0.60523316   -2.6025298   -2.6025298   -1.8501764  0.033834857   -2.6025298   0.75235335   426349 
 4827000   0.60530436   -2.6028412   -2.6028412   -1.8503994  0.036869683   -2.6028412   0.75244186   426349 
 4828000   0.60580841   -2.6038196   -2.6038196   -1.8507512  0.037223902   -2.6038196   0.75306844   426349 
 4829000   0.60498064   -2.6033999   -2.6033999   -1.8513604  0.027719309   -2.6033999   0.75203945   426349 
 4830000   0.60684712   -2.6059448   -2.6059448   -1.8515852  0.025718829   -2.6059448   0.75435964   426349 
 4831000   0.60562414   -2.6041988   -2.6041988   -1.8513594   0.03721829   -2.6041988   0.75283937   426349 
 4832000   0.60427728   -2.6042358   -2.6042358   -1.8530707  0.034957146   -2.6042358   0.75116512   426349 
 4833000   0.60447776   -2.6033785   -2.6033785   -1.8519642  0.036613837   -2.6033785   0.75141434   426349 
 4834000   0.60436748   -2.6033683   -2.6033683   -1.8520911  0.032479421   -2.6033683   0.75127725   426349 
 4835000   0.60554736   -2.6056025   -2.6056025   -1.8528586  0.039411043   -2.6056025   0.75274394   426349 
 4836000   0.60585475   -2.6055461   -2.6055461     -1.85242  0.031762051   -2.6055461   0.75312605   426349 
 4837000   0.60536314   -2.6057459   -2.6057459    -1.853231  0.033719525   -2.6057459   0.75251493   426349 
 4838000   0.60539508   -2.6052417   -2.6052417   -1.8526871  0.036185496   -2.6052417   0.75255463   426349 
 4839000   0.60567565   -2.6054234   -2.6054234     -1.85252  0.039871538   -2.6054234    0.7529034   426349 
 4840000   0.60628702   -2.6058521   -2.6058521   -1.8521887  0.038783232   -2.6058521   0.75366339   426349 
 4841000   0.60666182   -2.6060764   -2.6060764   -1.8519471  0.037298049   -2.6060764   0.75412929   426349 
 4842000   0.60606936   -2.6058315   -2.6058315   -1.8524387  0.031884538   -2.6058315   0.75339283   426349 
 4843000   0.60645248   -2.6060297   -2.6060297   -1.8521606  0.042571537   -2.6060297   0.75386907   426349 
 4844000   0.60573888   -2.6051268   -2.6051268   -1.8521448  0.037782828   -2.6051268   0.75298201   426349 
 4845000   0.60629806   -2.6055426   -2.6055426   -1.8518655  0.037696312   -2.6055426   0.75367712   426349 
 4846000   0.60602257   -2.6058153   -2.6058153   -1.8524806  0.035308382   -2.6058153   0.75333465   426349 
 4847000   0.60488009   -2.6039987   -2.6039987   -1.8520843  0.029733794   -2.6039987   0.75191446   426349 
 4848000   0.60451606   -2.6043635   -2.6043635   -1.8529015  0.035350899   -2.6043635   0.75146194   426349 
 4849000   0.60407875   -2.6036624   -2.6036624   -1.8527441  0.037934335   -2.6036624   0.75091833   426349 
 4850000   0.60406302   -2.6034764   -2.6034764   -1.8525777   0.02785151   -2.6034764   0.75089878   426349 
 4851000   0.60477648   -2.6042486   -2.6042486   -1.8524629  0.026599821   -2.6042486   0.75178566   426349 
 4852000   0.60518626   -2.6045687   -2.6045687   -1.8522736  0.029508036   -2.6045687   0.75229505   426349 
 4853000   0.60404815   -2.6029666   -2.6029666   -1.8520863  0.039923591   -2.6029666   0.75088029   426349 
 4854000   0.60520233   -2.6048988   -2.6048988   -1.8525837  0.030943325   -2.6048988   0.75231504   426349 
 4855000   0.60438863   -2.6032786   -2.6032786    -1.851975    0.0359992   -2.6032786   0.75130354   426349 
 4856000   0.60612831   -2.6057736   -2.6057736   -1.8523075   0.03643323   -2.6057736    0.7534661   426349 
 4857000   0.60504617   -2.6046379   -2.6046379    -1.852517  0.030049468   -2.6046379   0.75212092   426349 
 4858000   0.60460634   -2.6043059   -2.6043059   -1.8527317   0.03070335   -2.6043059   0.75157417   426349 
 4859000   0.60542199   -2.6047398   -2.6047398   -1.8521517  0.028483512   -2.6047398   0.75258808   426349 
 4860000   0.60539925   -2.6056295   -2.6056295   -1.8530697  0.028491587   -2.6056295   0.75255982   426349 
 4861000    0.6040556   -2.6035586   -2.6035586   -1.8526691  0.031883065   -2.6035586   0.75088956   426349 
 4862000    0.6051448   -2.6050579   -2.6050579   -1.8528143  0.032125462   -2.6050579   0.75224352   426349 
 4863000   0.60508712   -2.6052506   -2.6052506   -1.8530788  0.034224564   -2.6052506   0.75217182   426349 
 4864000   0.60480111    -2.604814    -2.604814   -1.8529977  0.026740168    -2.604814   0.75181628   426349 
 4865000   0.60488636   -2.6050784   -2.6050784   -1.8531561  0.037037963   -2.6050784   0.75192226   426349 
 4866000   0.60514498   -2.6052704   -2.6052704   -1.8530267  0.033347455   -2.6052704   0.75224374   426349 
 4867000   0.60377503   -2.6036494   -2.6036494   -1.8531086  0.041720525   -2.6036494   0.75054078   426349 
 4868000   0.60599113   -2.6056467   -2.6056467   -1.8523512  0.036865529   -2.6056467   0.75329558   426349 
 4869000   0.60430355   -2.6044662   -2.6044662   -1.8532684  0.028879776   -2.6044662   0.75119778   426349 
 4870000   0.60543935   -2.6049375   -2.6049375   -1.8523278  0.034526214   -2.6049375   0.75260967   426349 
 4871000   0.60579511    -2.606543    -2.606543   -1.8534911  0.040529191    -2.606543    0.7530519   426349 
 4872000   0.60359467   -2.6040135   -2.6040135   -1.8536969  0.029053396   -2.6040135   0.75031659   426349 
 4873000    0.6053339   -2.6057426   -2.6057426    -1.853264  0.025763369   -2.6057426   0.75247859   426349 
 4874000   0.60479515   -2.6056463   -2.6056463   -1.8538375  0.035362796   -2.6056463   0.75180888   426349 
 4875000   0.60603904   -2.6071584   -2.6071584   -1.8538033  0.037811268   -2.6071584   0.75335513   426349 
 4876000   0.60547049   -2.6066878   -2.6066878   -1.8540394  0.034766853   -2.6066878   0.75264838   426349 
 4877000   0.60556058    -2.607322    -2.607322   -1.8545616   0.03400705    -2.607322   0.75276037   426349 
 4878000   0.60523077   -2.6064008   -2.6064008   -1.8540504  0.045980504   -2.6064008   0.75235039   426349 
 4879000   0.60421975   -2.6043854   -2.6043854   -1.8532918  0.036378128   -2.6043854   0.75109361   426349 
 4880000   0.60464891   -2.6056157   -2.6056157   -1.8539887  0.030469652   -2.6056157   0.75162709   426349 
 4881000   0.60496188    -2.605977    -2.605977   -1.8539609  0.033891897    -2.605977   0.75201614   426349 
 4882000   0.60445508    -2.605811    -2.605811   -1.8544248  0.040541876    -2.605811   0.75138614   426349 
 4883000   0.60467033   -2.6058121   -2.6058121   -1.8541584  0.034284951   -2.6058121   0.75165372   426349 
 4884000   0.60476445   -2.6055193   -2.6055193   -1.8537486  0.036507281   -2.6055193   0.75177071   426349 
 4885000    0.6054139   -2.6060571   -2.6060571   -1.8534791  0.041375857   -2.6060571   0.75257803   426349 
 4886000   0.60535627   -2.6061717   -2.6061717   -1.8536653  0.041082417   -2.6061717    0.7525064   426349 
 4887000   0.60550654   -2.6064069   -2.6064069   -1.8537137  0.031163657   -2.6064069    0.7526932   426349 
 4888000   0.60479914   -2.6059055   -2.6059055   -1.8540917  0.028534915   -2.6059055   0.75181384   426349 
 4889000   0.60444168   -2.6050855   -2.6050855    -1.853716  0.030656348   -2.6050855   0.75136948   426349 
 4890000   0.60604897   -2.6071501   -2.6071501   -1.8537826  0.031618541   -2.6071501   0.75336748   426349 
 4891000   0.60499474   -2.6057334   -2.6057334   -1.8536765  0.033842663   -2.6057334   0.75205698   426349 
 4892000    0.6056256    -2.606084    -2.606084   -1.8532428  0.038382216    -2.606084   0.75284119   426349 
 4893000   0.60471184    -2.604818    -2.604818   -1.8531127  0.044688889    -2.604818   0.75170532   426349 
 4894000   0.60409998    -2.603708    -2.603708   -1.8527633  0.041763564    -2.603708   0.75094472   426349 
 4895000   0.60497796   -2.6047093   -2.6047093   -1.8526731  0.031479506   -2.6047093   0.75203612   426349 
 4896000   0.60580149   -2.6057395   -2.6057395   -1.8526796  0.036735125   -2.6057395   0.75305984   426349 
 4897000    0.6059666   -2.6054863   -2.6054863   -1.8522212  0.038187348   -2.6054863   0.75326509   426349 
 4898000   0.60521731   -2.6046519   -2.6046519   -1.8523183  0.053361178   -2.6046519   0.75233366   426349 
 4899000    0.6058921   -2.6061053   -2.6061053   -1.8529329  0.039859271   -2.6061053   0.75317247   426349 
 4900000   0.60524386   -2.6061622   -2.6061622   -1.8537956  0.036427527   -2.6061622   0.75236666   426349 
 4901000   0.60562964   -2.6058198   -2.6058198   -1.8529736  0.036818087   -2.6058198   0.75284622   426349 
 4902000   0.60489492   -2.6047347   -2.6047347   -1.8528018  0.029820305   -2.6047347   0.75193289   426349 
 4903000   0.60563575   -2.6056837   -2.6056837   -1.8528299  0.037484898   -2.6056837    0.7528538   426349 
 4904000   0.60684733   -2.6075328   -2.6075328   -1.8531729  0.032829518   -2.6075328   0.75435991   426349 
 4905000   0.60604984   -2.6062122   -2.6062122   -1.8528436  0.037339473   -2.6062122   0.75336855   426349 
 4906000   0.60620716   -2.6059666   -2.6059666   -1.8524024  0.039849288   -2.6059666   0.75356412   426349 
 4907000   0.60548257   -2.6057121   -2.6057121   -1.8530487  0.035902557   -2.6057121   0.75266339   426349 
 4908000   0.60463779   -2.6038542   -2.6038542   -1.8522409  0.043942287   -2.6038542   0.75161327   426349 
 4909000   0.60582767   -2.6045158   -2.6045158   -1.8514234  0.034039886   -2.6045158   0.75309239   426349 
 4910000   0.60557159   -2.6046402   -2.6046402   -1.8518662  0.041798117   -2.6046402   0.75277405   426349 
 4911000   0.60507328   -2.6041387   -2.6041387   -1.8519841  0.038192384   -2.6041387   0.75215461   426349 
 4912000   0.60448214   -2.6035919   -2.6035919   -1.8521722  0.029429891   -2.6035919   0.75141978   426349 
 4913000    0.6060012   -2.6047676   -2.6047676   -1.8514595  0.040022066   -2.6047676    0.7533081   426349 
 4914000   0.60519194   -2.6039314   -2.6039314   -1.8516293  0.032600701   -2.6039314   0.75230212   426349 
 4915000   0.60537026   -2.6042615   -2.6042615   -1.8517377  0.038327286   -2.6042615   0.75252378   426349 
 4916000    0.6048508   -2.6038421   -2.6038421    -1.851964  0.035297077   -2.6038421   0.75187805   426349 
 4917000   0.60538362   -2.6045496   -2.6045496   -1.8520092  0.036011894   -2.6045496   0.75254039   426349 
 4918000   0.60447857   -2.6034945   -2.6034945   -1.8520792  0.043092987   -2.6034945   0.75141534   426349 
 4919000   0.60576287   -2.6055915   -2.6055915   -1.8525797  0.034162804   -2.6055915   0.75301182   426349 
 4920000   0.60559354   -2.6054932   -2.6054932   -1.8526918  0.043003419   -2.6054932   0.75280133   426349 
 4921000   0.60610853   -2.6062934   -2.6062934   -1.8528519    0.0326743   -2.6062934   0.75344151   426349 
 4922000   0.60626043   -2.6051772   -2.6051772   -1.8515469  0.035356984   -2.6051772   0.75363034   426349 
 4923000   0.60592491   -2.6052008   -2.6052008   -1.8519876  0.043990131   -2.6052008   0.75321326   426349 
 4924000   0.60507506   -2.6045782   -2.6045782   -1.8524214  0.037819941   -2.6045782   0.75215682   426349 
 4925000   0.60541007   -2.6057392   -2.6057392   -1.8531659  0.042760026   -2.6057392   0.75257327   426349 
 4926000    0.6056182   -2.6055612   -2.6055612   -1.8527292  0.032940021   -2.6055612   0.75283199   426349 
 4927000   0.60572826   -2.6057091   -2.6057091   -1.8527403  0.038270134   -2.6057091   0.75296881   426349 
 4928000   0.60538688   -2.6056457   -2.6056457   -1.8531013  0.034920878   -2.6056457   0.75254445   426349 
 4929000   0.60430892    -2.604558    -2.604558   -1.8533535  0.034079659    -2.604558   0.75120445   426349 
 4930000   0.60560567   -2.6063181   -2.6063181   -1.8535017  0.032123278   -2.6063181   0.75281641   426349 
 4931000   0.60469429   -2.6051461   -2.6051461   -1.8534626   0.03569872   -2.6051461    0.7516835   426349 
 4932000   0.60487527   -2.6053486   -2.6053486   -1.8534401  0.033819108   -2.6053486   0.75190847   426349 
 4933000   0.60458028   -2.6052951   -2.6052951   -1.8537533  0.028898235   -2.6052951   0.75154178   426349 
 4934000   0.60505635   -2.6062904   -2.6062904   -1.8541568  0.037071895   -2.6062904   0.75213357   426349 
 4935000   0.60449353   -2.6056719   -2.6056719    -1.854238  0.040571748   -2.6056719   0.75143394   426349 
 4936000   0.60396906   -2.6048736   -2.6048736   -1.8540917  0.039496166   -2.6048736   0.75078198   426349 
 4937000     0.605635   -2.6074056   -2.6074056   -1.8545527  0.036277294   -2.6074056   0.75285288   426349 
 4938000   0.60557568    -2.606907    -2.606907   -1.8541279  0.040675809    -2.606907   0.75277913   426349 
 4939000   0.60492578   -2.6074506   -2.6074506   -1.8554793  0.044394565   -2.6074506   0.75197126   426349 
 4940000   0.60515854   -2.6073109   -2.6073109   -1.8550503  0.036485889   -2.6073109    0.7522606   426349 
 4941000   0.60547012   -2.6071672   -2.6071672   -1.8545193  0.029947121   -2.6071672   0.75264792   426349 
 4942000   0.60544306   -2.6076008   -2.6076008   -1.8549866  0.039804537   -2.6076008   0.75261428   426349 
 4943000   0.60610378   -2.6081655   -2.6081655   -1.8547299  0.030656915   -2.6081655   0.75343561   426349 
 4944000   0.60629326   -2.6081464   -2.6081464   -1.8544752  0.031665478   -2.6081464   0.75367114   426349 
 4945000    0.6062317   -2.6081001   -2.6081001   -1.8545055  0.047445603   -2.6081001   0.75359462   426349 
 4946000   0.60614475   -2.6079115   -2.6079115   -1.8544249  0.038032354   -2.6079115   0.75348654   426349 
 4947000   0.60534519   -2.6070933   -2.6070933   -1.8546007  0.040797492   -2.6070933   0.75249262   426349 
 4948000   0.60568693   -2.6080149   -2.6080149   -1.8550974  0.037751857   -2.6080149   0.75291744   426349 
 4949000   0.60404714   -2.6063737   -2.6063737   -1.8554947  0.040245154   -2.6063737   0.75087904   426349 
 4950000   0.60505509   -2.6073957   -2.6073957   -1.8552637  0.030247024   -2.6073957     0.752132   426349 
 4951000   0.60616177   -2.6074738   -2.6074738   -1.8539661  0.039619348   -2.6074738    0.7535077   426349 
 4952000   0.60597115   -2.6082054   -2.6082054   -1.8549347   0.03845333   -2.6082054   0.75327074   426349 
 4953000   0.60584416   -2.6080274   -2.6080274   -1.8549145  0.032056941   -2.6080274   0.75311288   426349 
 4954000   0.60609111   -2.6083808   -2.6083808   -1.8549609  0.039422734   -2.6083808   0.75341986   426349 
 4955000   0.60590712   -2.6077847   -2.6077847   -1.8545936  0.041236461   -2.6077847   0.75319115   426349 
 4956000   0.60648946   -2.6086827   -2.6086827   -1.8547677  0.031910818   -2.6086827   0.75391503   426349 
 4957000   0.60609185   -2.6079145   -2.6079145   -1.8544937  0.036436035   -2.6079145   0.75342078   426349 
 4958000   0.60556934   -2.6082547   -2.6082547   -1.8554834  0.030365078   -2.6082547   0.75277125   426349 
 4959000   0.60597066   -2.6081312   -2.6081312    -1.854861  0.034118677   -2.6081312   0.75327013   426349 
 4960000   0.60535014   -2.6073424   -2.6073424   -1.8548436  0.037951934   -2.6073424   0.75249878   426349 
 4961000   0.60545555   -2.6079336   -2.6079336   -1.8553038  0.033088115   -2.6079336   0.75262981   426349 
 4962000    0.6054176   -2.6077305   -2.6077305   -1.8551479  0.035481808   -2.6077305   0.75258263   426349 
 4963000   0.60493151   -2.6075458   -2.6075458   -1.8555674  0.039066764   -2.6075458   0.75197838   426349 
 4964000   0.60622063   -2.6084668   -2.6084668   -1.8548859  0.034514052   -2.6084668   0.75358086   426349 
 4965000   0.60619493   -2.6083828   -2.6083828   -1.8548339  0.042013654   -2.6083828   0.75354891   426349 
 4966000   0.60634179   -2.6084413   -2.6084413   -1.8547099  0.040494778   -2.6084413   0.75373147   426349 
 4967000   0.60443144   -2.6066749   -2.6066749   -1.8553181  0.037247109   -2.6066749   0.75135676   426349 
 4968000   0.60336581    -2.606081    -2.606081   -1.8560489  0.031882672    -2.606081   0.75003209   426349 
 4969000    0.6050294   -2.6075795   -2.6075795   -1.8554794    0.0328233   -2.6075795   0.75210007   426349 
 4970000   0.60416954   -2.6063034   -2.6063034   -1.8552722  0.027084206   -2.6063034   0.75103119   426349 
 4971000   0.60409912   -2.6065992   -2.6065992   -1.8556556  0.035561214   -2.6065992   0.75094365   426349 
 4972000   0.60380859   -2.6064004   -2.6064004   -1.8558179  0.037379815   -2.6064004    0.7505825   426349 
 4973000   0.60379807   -2.6062204   -2.6062204   -1.8556509  0.026771833   -2.6062204   0.75056943   426349 
 4974000   0.60476641   -2.6063005   -2.6063005   -1.8545273  0.042214256   -2.6063005   0.75177314   426349 
 4975000   0.60444945   -2.6059923   -2.6059923   -1.8546131  0.042847974   -2.6059923   0.75137914   426349 
 4976000   0.60483189   -2.6064405   -2.6064405   -1.8545859  0.033703865   -2.6064405   0.75185454   426349 
 4977000   0.60390423   -2.6048036   -2.6048036   -1.8541022  0.031513621   -2.6048036   0.75070139   426349 
 4978000   0.60506274   -2.6063254   -2.6063254   -1.8541839  0.034208081   -2.6063254   0.75214152   426349 
 4979000    0.6044394   -2.6054884   -2.6054884   -1.8541217  0.036397953   -2.6054884   0.75136665   426349 
 4980000   0.60412027   -2.6057313   -2.6057313   -1.8547613  0.035357973   -2.6057313   0.75096994   426349 
 4981000   0.60560971   -2.6076528   -2.6076528   -1.8548314   0.03313604   -2.6076528   0.75282144   426349 
 4982000   0.60591179   -2.6080229   -2.6080229   -1.8548259  0.029860279   -2.6080229   0.75319695   426349 
 4983000   0.60454885   -2.6064879   -2.6064879   -1.8549852   0.03490169   -2.6064879   0.75150271   426349 
 4984000   0.60558812    -2.607362    -2.607362   -1.8545674  0.037535297    -2.607362    0.7527946   426349 
 4985000   0.60497997   -2.6059427   -2.6059427   -1.8539041   0.03778276   -2.6059427   0.75203863   426349 
 4986000   0.60577769   -2.6073483   -2.6073483    -1.854318  0.037758981   -2.6073483   0.75303025   426349 
 4987000   0.60675768    -2.608632    -2.608632   -1.8543835  0.040426063    -2.608632   0.75424845   426349 
 4988000   0.60558146   -2.6068465   -2.6068465   -1.8540602  0.045840694   -2.6068465   0.75278632   426349 
 4989000   0.60517011   -2.6063914   -2.6063914   -1.8541164  0.041111097   -2.6063914   0.75227498   426349 
 4990000   0.60601159   -2.6077283   -2.6077283   -1.8544073  0.034320895   -2.6077283   0.75332101   426349 
 4991000   0.60513314   -2.6068265   -2.6068265   -1.8545975  0.037395355   -2.6068265   0.75222902   426349 
 4992000   0.60529773   -2.6066136   -2.6066136   -1.8541799  0.022407058   -2.6066136   0.75243363   426349 
 4993000   0.60485652   -2.6073211   -2.6073211    -1.855436    0.0336271   -2.6073211   0.75188517   426349 
 4994000   0.60555962   -2.6070652   -2.6070652   -1.8543061  0.039219247   -2.6070652   0.75275918   426349 
 4995000   0.60530929   -2.6066968   -2.6066968   -1.8542488  0.042971102   -2.6066968     0.752448   426349 
 4996000   0.60497789   -2.6069643   -2.6069643   -1.8549283   0.03477139   -2.6069643   0.75203603   426349 
 4997000    0.6050823    -2.606872    -2.606872   -1.8547062   0.03901316    -2.606872   0.75216582   426349 
 4998000   0.60447989    -2.605784    -2.605784    -1.854367  0.031011154    -2.605784   0.75141698   426349 
 4999000   0.60565069   -2.6073694   -2.6073694    -1.854497  0.031338162   -2.6073694   0.75287238   426349 
 5000000   0.60459926   -2.6062658   -2.6062658   -1.8547004  0.042840287   -2.6062658   0.75156536   426349 
Loop time of 16291.6 on 288 procs for 5000000 steps with 426349 atoms

Performance: 132583.373 tau/day, 306.906 timesteps/s
91.8% CPU use with 288 MPI tasks x 1 OpenMP threads

MPI task timing breakdown:
Section |  min time  |  avg time  |  max time  |%varavg|  %CPU | %total
-----------------------------------------------------------------------
Pair    | 448.74     | 2269.7     | 4870.4     |1970.8 |  94.9 | 13.93
Bond    | 3.1719     | 3.4285     | 3.6259     |   4.4 | 100.0 |  0.02
Neigh   | 954.47     | 3423.8     | 6803.9     |2000.0 |  99.1 | 21.02
Comm    | 2610       | 6844.6     | 11095      |2075.2 |  89.9 | 42.01
Output  | 622.29     | 628.26     | 636.64     |  23.1 |  88.0 |  3.86
Modify  | 940.58     | 2987.5     | 8624.1     |2182.1 |  90.3 | 18.34
Other   |            | 134.3      |            |       |       |  0.82

Nlocal:        1480.38 ave        2431 max         788 min
Histogram: 2 2 19 121 71 53 15 2 1 2
Nghost:        6151.61 ave        8880 max        2182 min
Histogram: 12 12 18 16 19 36 61 71 36 7
Neighs:        35051.0 ave       75118 max        3411 min
Histogram: 24 9 39 60 44 37 37 24 12 2

Total # of neighbors = 10094681
Ave neighs/atom = 23.677037
Ave special neighs/atom = 0.0000000
Neighbor list builds = 498004
Dangerous builds = 454637

Total wall time: 4:31:37
