LAMMPS (24 Dec 2020)
OMP_NUM_THREADS environment is not set. Defaulting to 1 thread. (src/comm.cpp:94)
  using 1 OpenMP thread(s) per MPI task
#Read the equilibrated lj fluid and add nanocubes

units           lj
atom_style      full
atom_modify     map array first cubes
dimension       3
boundary        p p f
pair_style      lj/smooth/linear 2.0

variable        sigma           equal 1.0
variable        epsilon         equal 1.0
read_restart	restart.dat.5000000
Reading restart file ...
  restart file = 24 Dec 2020, LAMMPS = 24 Dec 2020
WARNING: Restart file used different # of processors: 192 vs. 288 (src/read_restart.cpp:697)
  restoring atom style full from restart
  orthogonal box = (0.0000000 0.0000000 0.0000000) to (80.000000 80.000000 160.00000)
  6 by 4 by 12 MPI processor grid
  restoring pair style lj/smooth/linear from restart
  439061 atoms
Finding 1-2 1-3 1-4 neighbors ...
  special bond factors lj:    0        0        0       
  special bond factors coul:  0        0        0       
     0 = max # of 1-2 neighbors
     0 = max # of 1-3 neighbors
     0 = max # of 1-4 neighbors
     1 = max # of special neighbors
  special bonds CPU = 2.299 seconds
  read_restart CPU = 2.664 seconds

group		solvent type 1
439061 atoms in group solvent

read_data	data_64.cubes group cubes add append
Reading data file ...
  orthogonal box = (0.0000000 0.0000000 0.0000000) to (80.000000 80.000000 160.00000)
  6 by 4 by 12 MPI processor grid
WARNING: Pair style in data file differs from currently defined pair style (src/read_data.cpp:588)
  reading atoms ...
  85184 atoms
  reading velocities ...
  85184 velocities
Finding 1-2 1-3 1-4 neighbors ...
  special bond factors lj:    0        0        0       
  special bond factors coul:  0        0        0       
     0 = max # of 1-2 neighbors
     0 = max # of 1-3 neighbors
     0 = max # of 1-4 neighbors
     1 = max # of special neighbors
  special bonds CPU = 0.031 seconds
  read_data CPU = 0.240 seconds

group 		hull  type 2
38528 atoms in group hull
group 		dummy type 3
46656 atoms in group dummy

neighbor      0.4 bin
neigh_modify  exclude molecule/intra cubes


pair_modify   shift yes

pair_coeff    1 1 1.0 1.0 #solvent
pair_coeff    2 2 1.0 1.0 1.12 #np
pair_coeff    3 3 0.0 0.0 0.0 #dummy
pair_coeff    2 3 0.0 0.0 0.0 #np dummy
pair_coeff    1 2 ${eps} ${sig} ${nscut} #np solvent
pair_coeff    1 2 2.0 ${sig} ${nscut} 
pair_coeff    1 2 2.0 1.0 ${nscut} 
pair_coeff    1 2 2.0 1.0 4.0 
pair_coeff    1 3 0.0 0.0 2.5 #dummy solvent

# delete solvent where the cubes are
delete_atoms  overlap 2.0 solvent cubes
System init for delete_atoms ...
Neighbor list info ...
  update every 1 steps, delay 10 steps, check yes
  max neighbors/atom: 2000, page size: 100000
  master list distance cutoff = 4.4
  ghost atom cutoff = 4.4
  binsize = 2.2, bins = 37 37 73
  2 neighbor lists, perpetual/occasional/extra = 1 1 0
  (1) command delete_atoms, occasional
      attributes: full, newton on
      pair build: full/bin
      stencil: full/bin/3d
      bin: standard
  (2) pair lj/smooth/linear, perpetual
      attributes: half, newton on
      pair build: half/bin/newton
      stencil: half/bin/3d/newton
      bin: standard
WARNING: Delete_atoms cutoff > minimum neighbor cutoff (src/delete_atoms.cpp:307)
WARNING: Ignoring 'compress yes' for molecular system (src/delete_atoms.cpp:125)
Deleted 99694 atoms, new total = 424551



pair_coeff    1 1 1.0 1.0 #solvent
pair_coeff    2 2 1.0 1.0 1.12 #np
pair_coeff    3 3 0.0 0.0 0.0 #dummy
pair_coeff    2 3 0.0 0.0 0.0 #np dummy
pair_coeff    1 2 ${eps} ${sig} ${nscut} #np solvent
pair_coeff    1 2 2.0 ${sig} ${nscut} 
pair_coeff    1 2 2.0 1.0 ${nscut} 
pair_coeff    1 2 2.0 1.0 4.0 
pair_coeff    1 3 0.0 0.0 0.0 #dummy solvent


comm_modify   mode multi cutoff/multi 1 2.0 cutoff/multi 2 2.0 cutoff/multi 3 8.67

reset_timestep 	0

balance 	1.05 shift z 10 1.05
Balancing ...
Neighbor list info ...
  update every 1 steps, delay 10 steps, check yes
  max neighbors/atom: 2000, page size: 100000
  master list distance cutoff = 4.4
  ghost atom cutoff = 8.67
  binsize = 2.2, bins = 37 37 73
  1 neighbor lists, perpetual/occasional/extra = 1 0 0
  (1) pair lj/smooth/linear, perpetual
      attributes: half, newton on
      pair build: half/bin/newton
      stencil: half/bin/3d/newton
      bin: standard
 rebalancing time: 0.007 seconds
  iteration count = 4
  initial/final maximal load/proc = 2235.0000 2121.0000
  initial/final imbalance factor  = 1.5161429 1.4388095
  x cuts: 0.0000000 0.16666667 0.33333333 0.50000000 0.66666667 0.83333333 1.0000000
  y cuts: 0.0000000 0.25000000 0.50000000 0.75000000 1.0000000
  z cuts: 0.0000000 0.057291667 0.11979167 0.17187500 0.23958333 0.28125000 0.34375000 0.41145833 0.46354167 0.51562500 0.59895833 0.64583333 1.0000000

####################### WALLS ###########################

variable       epsilonWall equal 2*${epsilon}
variable       epsilonWall equal 2*1
variable       repulsive   equal   0.7147*${sigma}
variable       repulsive   equal   0.7147*1
variable       full	   equal   3*${sigma}
variable       full	   equal   3*1
region         lowWall block EDGE EDGE EDGE EDGE EDGE 2

fix            topWall all wall/lj93 zhi EDGE 	       ${epsilonWall} ${sigma} ${repulsive} units box
fix            topWall all wall/lj93 zhi EDGE 	       2 ${sigma} ${repulsive} units box
fix            topWall all wall/lj93 zhi EDGE 	       2 1 ${repulsive} units box
fix            topWall all wall/lj93 zhi EDGE 	       2 1 0.7147 units box
fix            lowSol solvent wall/lj93 zlo EDGE                ${epsilonWall} ${sigma} ${full} units box
fix            lowSol solvent wall/lj93 zlo EDGE                2 ${sigma} ${full} units box
fix            lowSol solvent wall/lj93 zlo EDGE                2 1 ${full} units box
fix            lowSol solvent wall/lj93 zlo EDGE                2 1 3 units box
fix 	       lowCub cubes wall/lj93 zlo EDGE                ${epsilonWall} ${sigma} ${repulsive} units box
fix 	       lowCub cubes wall/lj93 zlo EDGE                2 ${sigma} ${repulsive} units box
fix 	       lowCub cubes wall/lj93 zlo EDGE                2 1 ${repulsive} units box
fix 	       lowCub cubes wall/lj93 zlo EDGE                2 1 0.7147 units box


###################### COMPUTES ##########################

compute        bin1 solvent chunk/atom bin/1d z lower 1.0 units box


######################  FIXES ############################


fix             peclet solvent ave/chunk 10 10 10000 bin1 density/number norm                  none ave one file density.profile

fix              temp solvent ave/chunk 10 10 10000 bin1 temp norm                  none ave one file temp.profile

fix             1 cubes rigid/nve/small molecule
  create bodies CPU = 0.026 seconds
  64 rigid bodies with 85184 atoms
  8.6602540 = max distance from body owner to body atom

fix             2 solvent nve# temp ${temp} ${temp} 10


## Thermostat
region          regthermo block EDGE EDGE EDGE EDGE 0 15
group           thermo dynamic solvent region regthermo every 1000
dynamic group thermo defined
fix             3 thermo langevin ${temp} ${temp} 10 156453
fix             3 thermo langevin 0.6 ${temp} 10 156453
fix             3 thermo langevin 0.6 0.6 10 156453


#### Load balancing

fix             bal all balance 1000 1.05 shift z 10 1.05

############### Diagnostics and computes ###################

compute        	com cubes          rigid/local   1 mol x y z
compute        	quat cubes         rigid/local   1 mol quatw quati quatj quatk

compute 	cc2 cubes 	   chunk/atom 	 molecule
compute 	msd cubes 	   msd/chunk 	 cc2

fix 		msd all ave/time  1 1 10000 c_msd[*] file dump.msd ave one mode vector

dump            1 all custom 500000 dump.lammpstrj id mol type x y z
dump		cubetrj hull custom 500000 cubes.lammpstrj id mol type x y z
dump            com cubes local 10000 dump.*.xyz c_com[*]
dump	        xyz hull xyz 100000 cubes.xyz
dump            quat cubes      local 10000 dump.*.quat c_quat[*]
#dump		mol cubes molfile 10000 mol.xyz xyz


dump            2 all image 10000 image.*.png type type zoom 1.5 size 1280 720
dump_modify     2 pad 8
dump		image cubes image 10000 image_cubes.*.png type type zoom 1.5 size 1280 720
dump_modify	image pad 8
dump            3 all movie 5000 movie.avi type type zoom 1.5 size 1280 720
dump		4 cubes movie 5000 movie_cubes.avi type type size 1280 720


thermo          1000
thermo_style    custom step temp epair evdwl etotal press pe ke atoms

restart         1000000 restart.dat
timestep        0.005
timer           full
New timer settings: style=full  mode=nosync  timeout=off

run 		5000000
Per MPI rank memory allocation (min/avg/max) = 14.07 | 19.99 | 23.03 Mbytes
Step Temp E_pair E_vdwl TotEng Press PotEng KinEng Atoms 
       0    0.6081211    -1.780172    -1.780172   -1.0507421 -0.0041374647    -1.780172    0.7294299   424551 
    1000   0.75997236   -1.9726615   -1.9726615   -1.0610888   0.08447488   -1.9726615   0.91157266   424551 
    2000   0.81628417   -2.0621277   -2.0621277   -1.0830101   0.15410415   -2.0621277   0.97911763   424551 
    3000   0.83463461   -2.1055671   -2.1055671   -1.1044385    0.1858714   -2.1055671    1.0011286   424551 
    4000   0.83634919    -2.128484    -2.128484   -1.1252988   0.19068457    -2.128484    1.0031852   424551 
    5000   0.83224224    -2.143073    -2.143073    -1.144814   0.18059777    -2.143073   0.99825904   424551 
    6000   0.82744296    -2.156359    -2.156359   -1.1638566   0.18238002    -2.156359   0.99250238   424551 
    7000    0.8204563   -2.1650125   -2.1650125   -1.1808905    0.1751879   -2.1650125   0.98412202   424551 
    8000   0.81197793   -2.1724584   -2.1724584    -1.198506   0.15412443   -2.1724584   0.97395237   424551 
    9000   0.80381608    -2.178983    -2.178983   -1.2148206   0.15806472    -2.178983   0.96416238   424551 
   10000   0.79838539   -2.1850439   -2.1850439   -1.2273956   0.14388464   -2.1850439   0.95764837   424551 
   11000   0.79062114   -2.1882351   -2.1882351   -1.2398998   0.14478874   -2.1882351    0.9483353   424551 
   12000   0.78274358   -2.1871098   -2.1871098   -1.2482235   0.13135151   -2.1871098   0.93888631   424551 
   13000   0.77960589   -2.1908403   -2.1908403   -1.2557176   0.12486301   -2.1908403   0.93512271   424551 
   14000   0.77521453   -2.1910091   -2.1910091   -1.2611537   0.12750295   -2.1910091   0.92985536   424551 
   15000   0.77148146   -2.1907308   -2.1907308   -1.2653532   0.11215771   -2.1907308   0.92537761   424551 
   16000   0.76975167    -2.191671    -2.191671   -1.2683683   0.10598954    -2.191671   0.92330276   424551 
   17000   0.76835674   -2.1925039   -2.1925039   -1.2708743   0.11844939   -2.1925039   0.92162957   424551 
   18000    0.7674157   -2.1938223   -2.1938223   -1.2733215   0.11279022   -2.1938223   0.92050081   424551 
   19000   0.76767049   -2.1963566   -2.1963566   -1.2755502   0.10119641   -2.1963566   0.92080642   424551 
   20000   0.76594925   -2.1962291   -2.1962291   -1.2774873   0.11612634   -2.1962291   0.91874183   424551 
   21000    0.7646112   -2.1972091   -2.1972091   -1.2800723   0.11536164   -2.1972091   0.91713686   424551 
   22000   0.76378636   -2.1975049   -2.1975049   -1.2813574   0.10564193   -2.1975049   0.91614748   424551 
   23000   0.76583136   -2.2022588   -2.2022588   -1.2836584   0.11779601   -2.2022588   0.91860042   424551 
   24000   0.76547795   -2.2030383   -2.2030383   -1.2848618   0.11383553   -2.2030383   0.91817652   424551 
   25000   0.76554311   -2.2035938   -2.2035938   -1.2853392   0.11837736   -2.2035938   0.91825467   424551 
   26000   0.76587075   -2.2037574   -2.2037574   -1.2851097   0.11092395   -2.2037574   0.91864767   424551 
   27000   0.76550297   -2.2048083   -2.2048083   -1.2866017   0.11249101   -2.2048083   0.91820652   424551 
   28000   0.76503159   -2.2053746   -2.2053746   -1.2877335   0.12154846   -2.2053746   0.91764112   424551 
   29000   0.76524168   -2.2066485   -2.2066485   -1.2887554   0.11398784   -2.2066485   0.91789311   424551 
   30000   0.76365612   -2.2063251   -2.2063251   -1.2903338   0.11902221   -2.2063251   0.91599126   424551 
   31000   0.76428525   -2.2071923   -2.2071923   -1.2904465   0.12477776   -2.2071923    0.9167459   424551 
   32000   0.76251504   -2.2063154   -2.2063154   -1.2916929   0.10904903   -2.2063154   0.91462256   424551 
   33000   0.76113388    -2.205946    -2.205946   -1.2929801   0.11467144    -2.205946   0.91296588   424551 
   34000   0.75815196    -2.202515    -2.202515   -1.2931259   0.11320421    -2.202515   0.90938913   424551 
   35000   0.75773579   -2.2033818   -2.2033818   -1.2944918   0.12445359   -2.2033818   0.90888994   424551 
   36000    0.7586635   -2.2051793   -2.2051793   -1.2951766   0.10842389   -2.2051793   0.91000271   424551 
   37000   0.75708749   -2.2047059   -2.2047059   -1.2965936   0.10974325   -2.2047059   0.90811231   424551 
   38000   0.75480531   -2.2032664   -2.2032664   -1.2978915   0.11181092   -2.2032664   0.90537488   424551 
   39000   0.75495651   -2.2039588   -2.2039588   -1.2984026    0.1189234   -2.2039588   0.90555624   424551 
   40000   0.75508811   -2.2039035   -2.2039035   -1.2981894   0.10479905   -2.2039035   0.90571409   424551 
   41000   0.75349757   -2.2029127   -2.2029127   -1.2991064   0.11738405   -2.2029127   0.90380627   424551 
   42000   0.75328269   -2.2041169   -2.2041169   -1.3005684   0.11171793   -2.2041169   0.90354853   424551 
   43000   0.75216435   -2.2043372   -2.2043372   -1.3021301   0.12189253   -2.2043372   0.90220709   424551 
   44000   0.75407664   -2.2085225   -2.2085225   -1.3040216   0.11405142   -2.2085225   0.90450085   424551 
   45000    0.7528605    -2.209537    -2.209537   -1.3064949   0.11572336    -2.209537   0.90304211   424551 
   46000   0.75359648   -2.2135101   -2.2135101   -1.3095852    0.1282942   -2.2135101   0.90392492   424551 
   47000     0.753134   -2.2162002   -2.2162002     -1.31283    0.1222503   -2.2162002   0.90337017   424551 
   48000   0.75377451   -2.2206647   -2.2206647   -1.3165263   0.13288373   -2.2206647   0.90413845   424551 
   49000   0.75276523   -2.2238038   -2.2238038    -1.320876   0.12047808   -2.2238038   0.90292784   424551 
   50000   0.75050837   -2.2247117   -2.2247117   -1.3244909   0.13155657   -2.2247117   0.90022078   424551 
   51000   0.75265624   -2.2306865   -2.2306865   -1.3278894    0.1260196   -2.2306865   0.90279711   424551 
   52000   0.75091057   -2.2324209   -2.2324209   -1.3317177   0.13656971   -2.2324209   0.90070321   424551 
   53000   0.75060344   -2.2352267   -2.2352267   -1.3348919   0.12785229   -2.2352267   0.90033481   424551 
   54000   0.74852428   -2.2353241   -2.2353241   -1.3374832   0.13313367   -2.2353241   0.89784091   424551 
   55000   0.74767667   -2.2384963   -2.2384963   -1.3416721   0.12064184   -2.2384963   0.89682421   424551 
   56000   0.74654254   -2.2383102   -2.2383102   -1.3428464   0.13365298   -2.2383102   0.89546385   424551 
   57000   0.74666153   -2.2406483   -2.2406483   -1.3450417   0.11527384   -2.2406483   0.89560657   424551 
   58000   0.74557778   -2.2414804   -2.2414804   -1.3471738    0.1204411   -2.2414804   0.89430663   424551 
   59000   0.74715081   -2.2443489   -2.2443489   -1.3481554   0.11924685   -2.2443489   0.89619345   424551 
   60000   0.74511053   -2.2431177   -2.2431177   -1.3493715   0.13661271   -2.2431177   0.89374617   424551 
   61000   0.74423617   -2.2443558   -2.2443558   -1.3516584   0.12149206   -2.2443558    0.8926974   424551 
   62000   0.74265672   -2.2435767   -2.2435767   -1.3527738   0.11558662   -2.2435767   0.89080287   424551 
   63000   0.74354716   -2.2452187   -2.2452187   -1.3533478   0.12635803   -2.2452187   0.89187094   424551 
   64000   0.74008869   -2.2433554   -2.2433554   -1.3556329   0.12411983   -2.2433554   0.88772257   424551 
   65000   0.73945189   -2.2448039   -2.2448039   -1.3578452   0.12302395   -2.2448039   0.88695873   424551 
   66000   0.73840132   -2.2449087   -2.2449087   -1.3592101   0.11680908   -2.2449087    0.8856986   424551 
   67000   0.73830555   -2.2463536   -2.2463536   -1.3607698   0.12485772   -2.2463536   0.88558373   424551 
   68000   0.73707573   -2.2452284   -2.2452284   -1.3611198     0.119028   -2.2452284   0.88410858   424551 
   69000   0.73545908   -2.2448553   -2.2448553   -1.3626859   0.12420616   -2.2448553   0.88216944   424551 
   70000   0.73392653    -2.245237    -2.245237   -1.3649059   0.11098495    -2.245237   0.88033118   424551 
   71000   0.73315333   -2.2453715   -2.2453715   -1.3659677   0.10345412   -2.2453715   0.87940374   424551 
   72000   0.73122799   -2.2452006   -2.2452006   -1.3681063   0.10503499   -2.2452006   0.87709433   424551 
   73000   0.73172064   -2.2474283   -2.2474283   -1.3697431   0.10716986   -2.2474283   0.87768525   424551 
   74000   0.73002452   -2.2463052   -2.2463052   -1.3706544   0.10169993   -2.2463052   0.87565079   424551 
   75000   0.72881925   -2.2460853   -2.2460853   -1.3718803   0.09523369   -2.2460853   0.87420509   424551 
   76000   0.72917972   -2.2472635   -2.2472635   -1.3726261    0.1023973   -2.2472635   0.87463746   424551 
   77000   0.72796071   -2.2476038   -2.2476038   -1.3744285     0.108998   -2.2476038   0.87317528   424551 
   78000   0.72746241   -2.2478582   -2.2478582   -1.3752807   0.10108254   -2.2478582   0.87257758   424551 
   79000   0.72712808   -2.2472108   -2.2472108   -1.3750343   0.10624824   -2.2472108   0.87217656   424551 
   80000   0.72720719   -2.2493338   -2.2493338   -1.3770624   0.10515814   -2.2493338   0.87227145   424551 
   81000   0.72778366   -2.2500518   -2.2500518   -1.3770889   0.10791793   -2.2500518   0.87296292   424551 
   82000   0.72744559   -2.2508445   -2.2508445   -1.3782871  0.091047241   -2.2508445   0.87255741   424551 
   83000   0.72669692   -2.2505967   -2.2505967   -1.3789373   0.10475741   -2.2505967   0.87165939   424551 
   84000   0.72528664   -2.2500885   -2.2500885   -1.3801207  0.094012568   -2.2500885   0.86996778   424551 
   85000   0.72525097   -2.2511762   -2.2511762   -1.3812512  0.094331116   -2.2511762   0.86992501   424551 
   86000    0.7258563   -2.2524819   -2.2524819   -1.3818308   0.10645662   -2.2524819   0.87065108   424551 
   87000   0.72554025    -2.253195    -2.253195    -1.382923    0.1121095    -2.253195   0.87027199   424551 
   88000   0.72452172   -2.2528703   -2.2528703   -1.3838201  0.096359863   -2.2528703   0.86905027   424551 
   89000   0.72366062   -2.2521807   -2.2521807   -1.3841633  0.090888275   -2.2521807    0.8680174   424551 
   90000   0.72389571   -2.2530299   -2.2530299   -1.3847305   0.10111327   -2.2530299   0.86829939   424551 
   91000   0.72427617   -2.2529328   -2.2529328   -1.3841771   0.11451639   -2.2529328   0.86875575   424551 
   92000   0.72465788   -2.2542343   -2.2542343   -1.3850207  0.099728992   -2.2542343    0.8692136   424551 
   93000   0.72266037    -2.253737    -2.253737   -1.3869194  0.082079191    -2.253737   0.86681763   424551 
   94000    0.7234223   -2.2536892   -2.2536892   -1.3859576    0.1092651   -2.2536892   0.86773154   424551 
   95000   0.72444578   -2.2553836   -2.2553836   -1.3864244  0.088285029   -2.2553836   0.86895919   424551 
   96000   0.72491418   -2.2567561   -2.2567561   -1.3872351   0.11353829   -2.2567561   0.86952103   424551 
   97000   0.72190457   -2.2540614   -2.2540614   -1.3881503     0.104755   -2.2540614   0.86591106   424551 
   98000   0.72310559   -2.2559446   -2.2559446    -1.388593    0.1047067   -2.2559446   0.86735166   424551 
   99000   0.72286285   -2.2571717   -2.2571717   -1.3901112  0.087852698   -2.2571717    0.8670605   424551 
  100000   0.72179489    -2.257392    -2.257392   -1.3916125  0.096947834    -2.257392    0.8657795   424551 
  101000   0.72144022   -2.2579254   -2.2579254   -1.3925713  0.089697335   -2.2579254   0.86535408   424551 
  102000    0.7225433   -2.2598898   -2.2598898   -1.3932126   0.10263699   -2.2598898   0.86667721   424551 
  103000   0.72316546   -2.2617386   -2.2617386   -1.3943151   0.10455001   -2.2617386   0.86742347   424551 
  104000   0.72233618   -2.2614355   -2.2614355   -1.3950068   0.10535513   -2.2614355   0.86642876   424551 
  105000   0.72268353   -2.2633018   -2.2633018   -1.3964564  0.099854089   -2.2633018    0.8668454   424551 
  106000   0.72304847   -2.2650327   -2.2650327   -1.3977495    0.1021264   -2.2650327   0.86728315   424551 
  107000   0.72409706   -2.2678746   -2.2678746   -1.3993337    0.1173311   -2.2678746   0.86854091   424551 
  108000   0.72386257   -2.2693084   -2.2693084   -1.4010488   0.11074151   -2.2693084   0.86825964   424551 
  109000   0.72271785   -2.2700972   -2.2700972   -1.4032106   0.10387228   -2.2700972   0.86688657   424551 
  110000   0.72270166   -2.2718365   -2.2718365   -1.4049693   0.10369775   -2.2718365   0.86686715   424551 
  111000   0.72345353   -2.2739451   -2.2739451   -1.4061761   0.10373101   -2.2739451     0.867769   424551 
  112000   0.72458143   -2.2761395   -2.2761395   -1.4070176   0.10263867   -2.2761395   0.86912191   424551 
  113000   0.72110849   -2.2729988   -2.2729988   -1.4080427  0.097476318   -2.2729988   0.86495617   424551 
  114000   0.72074369   -2.2749129   -2.2749129   -1.4103943  0.096752517   -2.2749129    0.8645186   424551 
  115000   0.72126415   -2.2758824   -2.2758824   -1.4107395   0.11292323   -2.2758824   0.86514288   424551 
  116000   0.72166392   -2.2778028   -2.2778028   -1.4121804   0.10527215   -2.2778028    0.8656224   424551 
  117000    0.7227044   -2.2805196   -2.2805196   -1.4136491  0.098591094   -2.2805196   0.86687044   424551 
  118000   0.72041942   -2.2799042   -2.2799042   -1.4157745   0.11628765   -2.2799042   0.86412965   424551 
  119000   0.71997975   -2.2802765   -2.2802765   -1.4166742   0.11107837   -2.2802765   0.86360227   424551 
  120000   0.72022899   -2.2813295   -2.2813295   -1.4174283  0.098563244   -2.2813295   0.86390123   424551 
  121000   0.71954438   -2.2823171   -2.2823171   -1.4192371   0.10561229   -2.2823171   0.86308006   424551 
  122000   0.71830947   -2.2827185   -2.2827185   -1.4211197   0.10788519   -2.2827185    0.8615988   424551 
  123000   0.71971066    -2.285582    -2.285582   -1.4223025    0.1044893    -2.285582    0.8632795   424551 
  124000   0.71756213   -2.2848527   -2.2848527   -1.4241503   0.10309635   -2.2848527   0.86070239   424551 
  125000   0.71606687   -2.2837472   -2.2837472   -1.4248384   0.11684023   -2.2837472   0.85890885   424551 
  126000   0.71647974   -2.2853274   -2.2853274   -1.4259234   0.11132604   -2.2853274   0.85940408   424551 
  127000    0.7166252   -2.2863753   -2.2863753   -1.4267967  0.095698406   -2.2863753   0.85957855   424551 
  128000   0.71546116   -2.2849877   -2.2849877   -1.4268054   0.11187204   -2.2849877   0.85818231   424551 
  129000   0.71478254   -2.2858224   -2.2858224   -1.4284541  0.098236874   -2.2858224   0.85736831   424551 
  130000   0.71527318   -2.2873123   -2.2873123   -1.4293555  0.090966511   -2.2873123   0.85795683   424551 
  131000   0.71326136   -2.2857869   -2.2857869   -1.4302432   0.10047449   -2.2857869   0.85554368   424551 
  132000   0.71518358   -2.2885912   -2.2885912   -1.4307418  0.092304858   -2.2885912   0.85784935   424551 
  133000   0.71361218   -2.2879068   -2.2879068   -1.4319423  0.094416236   -2.2879068   0.85596449   424551 
  134000   0.71371192   -2.2884566   -2.2884566   -1.4323724   0.11359725   -2.2884566   0.85608412   424551 
  135000   0.71298435   -2.2880444   -2.2880444    -1.432833   0.10463151   -2.2880444   0.85521142   424551 
  136000   0.71301603   -2.2883082   -2.2883082   -1.4330588   0.10094728   -2.2883082   0.85524942   424551 
  137000   0.71200413   -2.2887744   -2.2887744   -1.4347388  0.084223458   -2.2887744   0.85403566   424551 
  138000   0.71122206   -2.2884699   -2.2884699   -1.4353723  0.095655429   -2.2884699   0.85309759   424551 
  139000   0.71109631   -2.2882746   -2.2882746   -1.4353278  0.096347334   -2.2882746   0.85294676   424551 
  140000   0.71103033    -2.289895    -2.289895   -1.4370273   0.08486369    -2.289895   0.85286761   424551 
  141000   0.71141877    -2.290682    -2.290682   -1.4373485  0.098391592    -2.290682   0.85333354   424551 
  142000   0.71031619   -2.2907749   -2.2907749   -1.4387639  0.074455827   -2.2907749   0.85201101   424551 
  143000   0.71135635   -2.2922429   -2.2922429   -1.4389843  0.090335708   -2.2922429   0.85325866   424551 
  144000   0.71255647   -2.2940079   -2.2940079   -1.4393098  0.097616654   -2.2940079   0.85469818   424551 
  145000   0.71113197   -2.2936767   -2.2936767   -1.4406872  0.099959523   -2.2936767   0.85298953   424551 
  146000   0.71194617   -2.2948433   -2.2948433   -1.4408772   0.10104342   -2.2948433   0.85396615   424551 
  147000   0.71050519   -2.2939767   -2.2939767   -1.4417389  0.088642208   -2.2939767   0.85223771   424551 
  148000   0.71044255   -2.2950645   -2.2950645    -1.442902  0.095164361   -2.2950645   0.85216258   424551 
  149000   0.71063422   -2.2954745   -2.2954745    -1.443082  0.092476376   -2.2954745   0.85239248   424551 
  150000   0.71049953   -2.2968306   -2.2968306   -1.4445997  0.087009309   -2.2968306   0.85223092   424551 
  151000    0.7092849   -2.2956608   -2.2956608   -1.4448868   0.10093901   -2.2956608     0.850774   424551 
  152000   0.70939164   -2.2967976   -2.2967976   -1.4458956  0.096709509   -2.2967976   0.85090203   424551 
  153000   0.70973723   -2.2976072   -2.2976072   -1.4462907  0.089517711   -2.2976072   0.85131656   424551 
  154000   0.70945452   -2.2976869   -2.2976869   -1.4467094  0.095419483   -2.2976869   0.85097746   424551 
  155000    0.7084595   -2.2976719   -2.2976719   -1.4478879    0.0826795   -2.2976719   0.84978395   424551 
  156000   0.70840831   -2.2987348   -2.2987348   -1.4490122  0.091386405   -2.2987348   0.84972255   424551 
  157000   0.70801698   -2.2980496   -2.2980496   -1.4487964   0.10479931   -2.2980496   0.84925315   424551 
  158000   0.70884227   -2.3003437   -2.3003437   -1.4501006  0.098624755   -2.3003437   0.85024308   424551 
  159000   0.70830986   -2.2999069   -2.2999069   -1.4503024  0.093454027   -2.2999069   0.84960445   424551 
  160000   0.70915266   -2.3012855   -2.3012855   -1.4506701  0.093582263   -2.3012855   0.85061538   424551 
  161000    0.7083681   -2.3006779   -2.3006779   -1.4510036  0.087013485   -2.3006779   0.84967431   424551 
  162000   0.70946841   -2.3022249   -2.3022249   -1.4512308  0.090294776   -2.3022249   0.85099412   424551 
  163000   0.70648787   -2.3004564   -2.3004564   -1.4530373   0.10231694   -2.3004564   0.84741901   424551 
  164000   0.70739774   -2.3027915   -2.3027915   -1.4542811  0.089099157   -2.3027915   0.84851039   424551 
  165000   0.70699885   -2.3030538   -2.3030538   -1.4550218  0.088974098   -2.3030538   0.84803192   424551 
  166000   0.70705832   -2.3046934   -2.3046934   -1.4565901  0.091731906   -2.3046934   0.84810326   424551 
  167000   0.70491586   -2.3025994   -2.3025994   -1.4570659   0.10638497   -2.3025994   0.84553342   424551 
  168000   0.70699823   -2.3061381   -2.3061381   -1.4581069  0.095296924   -2.3061381   0.84803118   424551 
  169000   0.70575228   -2.3061013   -2.3061013   -1.4595646  0.090963435   -2.3061013   0.84653668   424551 
  170000   0.70753881   -2.3087994   -2.3087994   -1.4601198   0.10468332   -2.3087994   0.84867959   424551 
  171000   0.70783461   -2.3099063   -2.3099063   -1.4608719  0.092094305   -2.3099063   0.84903441   424551 
  172000   0.70702123   -2.3100786   -2.3100786   -1.4620198   0.10322198   -2.3100786   0.84805877   424551 
  173000   0.70780712   -2.3119791   -2.3119791   -1.4629776  0.094313436   -2.3119791   0.84900142   424551 
  174000   0.70733782   -2.3116448   -2.3116448   -1.4632063  0.093110382   -2.3116448   0.84843852   424551 
  175000   0.70680095   -2.3130775   -2.3130775   -1.4652829  0.099357174   -2.3130775   0.84779455   424551 
  176000   0.70558769   -2.3130098   -2.3130098   -1.4666705  0.090198201   -2.3130098   0.84633927   424551 
  177000   0.70490402   -2.3126687   -2.3126687   -1.4671495   0.10093308   -2.3126687   0.84551921   424551 
  178000   0.70652576   -2.3158153   -2.3158153   -1.4683509  0.095184982   -2.3158153   0.84746446   424551 
  179000   0.70542666   -2.3157981   -2.3157981   -1.4696519  0.093455048   -2.3157981   0.84614611   424551 
  180000   0.70533239   -2.3167249   -2.3167249   -1.4706919   0.10926978   -2.3167249   0.84603304   424551 
  181000   0.70519982   -2.3162204   -2.3162204   -1.4703464  0.096059497   -2.3162204   0.84587402   424551 
  182000   0.70448568   -2.3170417   -2.3170417   -1.4720243  0.091415724   -2.3170417   0.84501743   424551 
  183000   0.70400387   -2.3176498   -2.3176498   -1.4732103  0.097797064   -2.3176498    0.8444395   424551 
  184000   0.70354691   -2.3174999   -2.3174999   -1.4736085  0.093831936   -2.3174999   0.84389139   424551 
  185000   0.70376493   -2.3186896   -2.3186896   -1.4745367  0.085626016   -2.3186896    0.8441529   424551 
  186000   0.70105228   -2.3164375   -2.3164375   -1.4755383   0.10215991   -2.3164375   0.84089912   424551 
  187000   0.70265644   -2.3182302   -2.3182302   -1.4754069  0.097139904   -2.3182302   0.84282329   424551 
  188000   0.70188846   -2.3184575   -2.3184575   -1.4765554    0.0889188   -2.3184575   0.84190211   424551 
  189000   0.70122199   -2.3184543   -2.3184543   -1.4773517   0.09010736   -2.3184543   0.84110269   424551 
  190000    0.7025672   -2.3201689   -2.3201689   -1.4774527   0.10314031   -2.3201689   0.84271625   424551 
  191000   0.70221426   -2.3207714   -2.3207714   -1.4784785   0.10386983   -2.3207714    0.8422929   424551 
  192000   0.70221036   -2.3214149   -2.3214149   -1.4791267  0.083366567   -2.3214149   0.84228821   424551 
  193000   0.70320904   -2.3232041   -2.3232041    -1.479718  0.084761502   -2.3232041   0.84348612   424551 
  194000    0.7000967   -2.3195048   -2.3195048   -1.4797519  0.095356123   -2.3195048   0.83975293   424551 
  195000   0.70102304    -2.320899    -2.320899   -1.4800349  0.081324704    -2.320899   0.84086406   424551 
  196000   0.70085525   -2.3211506   -2.3211506   -1.4804878  0.078082984   -2.3211506   0.84066279   424551 
  197000   0.70104453   -2.3217152   -2.3217152   -1.4808254  0.094261911   -2.3217152   0.84088982   424551 
  198000   0.70127911   -2.3221931   -2.3221931   -1.4810219   0.10730431   -2.3221931    0.8411712   424551 
  199000   0.70081318   -2.3223614   -2.3223614    -1.481749  0.096374997   -2.3223614   0.84061233   424551 
  200000   0.70003804   -2.3235576   -2.3235576    -1.483875  0.097835646   -2.3235576   0.83968256   424551 
  201000   0.70037694   -2.3245736   -2.3245736   -1.4844846  0.094947799   -2.3245736   0.84008907   424551 
  202000   0.69876485   -2.3235013   -2.3235013   -1.4853459  0.097850596   -2.3235013   0.83815539   424551 
  203000   0.69929384   -2.3243204   -2.3243204   -1.4855305  0.091499615   -2.3243204   0.83878991   424551 
  204000   0.69917605   -2.3242561   -2.3242561   -1.4856075   0.07982091   -2.3242561   0.83864863   424551 
  205000   0.69870684   -2.3247496   -2.3247496   -1.4866638  0.093516954   -2.3247496   0.83808581   424551 
  206000   0.70016411   -2.3266915   -2.3266915   -1.4868578  0.098916523   -2.3266915   0.83983379   424551 
  207000   0.69972404   -2.3267246   -2.3267246   -1.4874187  0.092628725   -2.3267246   0.83930593   424551 
  208000   0.69928005   -2.3263392   -2.3263392   -1.4875658  0.088236755   -2.3263392   0.83877337   424551 
  209000   0.69996686    -2.327555    -2.327555   -1.4879578  0.092696512    -2.327555   0.83959719   424551 
  210000   0.69791236   -2.3266254   -2.3266254   -1.4894925  0.094478897   -2.3266254   0.83713285   424551 
  211000   0.69853426   -2.3279153   -2.3279153   -1.4900365   0.10247264   -2.3279153   0.83787881   424551 
  212000   0.69876348   -2.3293524   -2.3293524   -1.4911987   0.08055228   -2.3293524   0.83815376   424551 
  213000   0.69813518   -2.3283857   -2.3283857   -1.4909856  0.089565098   -2.3283857   0.83740012   424551 
  214000   0.69752662   -2.3290718   -2.3290718   -1.4924017  0.083630993   -2.3290718   0.83667016   424551 
  215000   0.69836568   -2.3308663   -2.3308663   -1.4931897  0.089965893   -2.3308663    0.8376766   424551 
  216000    0.6974136   -2.3309359   -2.3309359   -1.4944013  0.077697356   -2.3309359    0.8365346   424551 
  217000   0.69779368   -2.3323123   -2.3323123   -1.4953218  0.087380354   -2.3323123   0.83699049   424551 
  218000   0.69730423   -2.3323263   -2.3323263   -1.4959229  0.081409102   -2.3323263   0.83640341   424551 
  219000   0.69762899   -2.3327516   -2.3327516   -1.4959586  0.079136847   -2.3327516   0.83679296   424551 
  220000   0.69796195    -2.333897    -2.333897   -1.4967047  0.094044131    -2.333897   0.83719233   424551 
  221000   0.69634623    -2.333257    -2.333257   -1.4980027  0.094399443    -2.333257   0.83525431   424551 
  222000   0.69527293   -2.3322216   -2.3322216   -1.4982547   0.10790669   -2.3322216   0.83396691   424551 
  223000   0.69600475   -2.3336237   -2.3336237    -1.498779  0.094155615   -2.3336237    0.8348447   424551 
  224000   0.69607723   -2.3346094   -2.3346094   -1.4996778    0.0840941   -2.3346094   0.83493165   424551 
  225000   0.69624931   -2.3351633   -2.3351633   -1.5000252  0.078825501   -2.3351633   0.83513806   424551 
  226000   0.69709765   -2.3364097   -2.3364097   -1.5002541  0.084233708   -2.3364097   0.83615562   424551 
  227000   0.69811925   -2.3380463   -2.3380463   -1.5006653  0.084468495   -2.3380463     0.837381   424551 
  228000   0.69612217   -2.3357651   -2.3357651   -1.5007796  0.096836937   -2.3357651   0.83498555   424551 
  229000   0.69645282   -2.3373294   -2.3373294   -1.5019472  0.091809646   -2.3373294   0.83538216   424551 
  230000   0.69470089   -2.3362725   -2.3362725   -1.5029917   0.10661566   -2.3362725   0.83328075   424551 
  231000   0.69609505   -2.3381962   -2.3381962   -1.5032432   0.10616224   -2.3381962   0.83495301   424551 
  232000   0.69611884   -2.3395489   -2.3395489   -1.5045674   0.08433585   -2.3395489   0.83498155   424551 
  233000    0.6949533   -2.3388838   -2.3388838   -1.5053003   0.08701075   -2.3388838   0.83358352   424551 
  234000   0.69600456   -2.3402003   -2.3402003   -1.5053558  0.083703802   -2.3402003   0.83484448   424551 
  235000   0.69516688   -2.3400957   -2.3400957    -1.506256  0.081752743   -2.3400957    0.8338397   424551 
  236000   0.69458091   -2.3406882   -2.3406882   -1.5075514  0.085038912   -2.3406882   0.83313683   424551 
  237000   0.69450465   -2.3409586   -2.3409586   -1.5079133  0.084395619   -2.3409586   0.83304536   424551 
  238000   0.69506639   -2.3430934   -2.3430934   -1.5093742  0.086021661   -2.3430934   0.83371916   424551 
  239000   0.69523279     -2.34352     -2.34352   -1.5096012   0.09445484     -2.34352   0.83391876   424551 
  240000   0.69323802   -2.3417081   -2.3417081    -1.510182  0.095326433   -2.3417081   0.83152607   424551 
  241000   0.69505111   -2.3452545   -2.3452545   -1.5115536  0.087636553   -2.3452545   0.83370083   424551 
  242000    0.6944807   -2.3453751   -2.3453751   -1.5123585  0.081635581   -2.3453751   0.83301663   424551 
  243000   0.69345441   -2.3448507   -2.3448507   -1.5130651  0.086640068   -2.3448507   0.83178562   424551 
  244000   0.69461982   -2.3465791   -2.3465791   -1.5133956  0.094184086   -2.3465791    0.8331835   424551 
  245000    0.6933241   -2.3455381   -2.3455381   -1.5139088  0.088636226   -2.3455381   0.83162932   424551 
  246000   0.69300247   -2.3454565   -2.3454565    -1.514213  0.084757016   -2.3454565   0.83124353   424551 
  247000   0.69266716   -2.3464778   -2.3464778   -1.5156365  0.083696283   -2.3464778   0.83084133   424551 
  248000   0.69201336   -2.3468264   -2.3468264   -1.5167693  0.091632287   -2.3468264   0.83005711   424551 
  249000   0.69256571   -2.3482457   -2.3482457    -1.517526  0.087105677   -2.3482457   0.83071964   424551 
  250000   0.69196049   -2.3473607   -2.3473607    -1.517367  0.088579184   -2.3473607   0.82999369   424551 
  251000   0.69138004   -2.3469986   -2.3469986   -1.5177012  0.091667509   -2.3469986   0.82929745   424551 
  252000   0.69280719   -2.3496488   -2.3496488   -1.5186395  0.084104873   -2.3496488   0.83100929   424551 
  253000   0.69143366   -2.3486125   -2.3486125   -1.5192507  0.091574421   -2.3486125   0.82936177   424551 
  254000   0.69211236   -2.3502616   -2.3502616   -1.5200857  0.090572327   -2.3502616   0.83017586   424551 
  255000   0.69136147   -2.3505868   -2.3505868   -1.5213116   0.09070896   -2.3505868   0.82927518   424551 
  256000   0.69111869   -2.3507679   -2.3507679    -1.521784  0.084233483   -2.3507679   0.82898397   424551 
  257000   0.69006251   -2.3501615   -2.3501615   -1.5224444  0.083819701   -2.3501615   0.82771711   424551 
  258000   0.69115045   -2.3514054   -2.3514054   -1.5223834  0.092938536   -2.3514054   0.82902206   424551 
  259000   0.69146063   -2.3518298   -2.3518298   -1.5224357  0.076622485   -2.3518298   0.82939412   424551 
  260000   0.69126013   -2.3525624   -2.3525624   -1.5234088   0.08149061   -2.3525624   0.82915362   424551 
  261000   0.69048912   -2.3521121   -2.3521121   -1.5238833  0.082266641   -2.3521121   0.82822881   424551 
  262000   0.69191533   -2.3537356   -2.3537356   -1.5237961  0.077223865   -2.3537356   0.82993953   424551 
  263000   0.69148618   -2.3542208   -2.3542208   -1.5247961  0.097127595   -2.3542208   0.82942476   424551 
  264000   0.69046833   -2.3544042   -2.3544042   -1.5262003  0.082835685   -2.3544042   0.82820388   424551 
  265000    0.6900641   -2.3538996   -2.3538996   -1.5261806  0.090443768   -2.3538996   0.82771901   424551 
  266000   0.69007376   -2.3540195   -2.3540195   -1.5262889  0.094424721   -2.3540195    0.8277306   424551 
  267000   0.69120785    -2.355348    -2.355348   -1.5262571  0.079689388    -2.355348   0.82909091   424551 
  268000   0.69010669   -2.3546573   -2.3546573   -1.5268872  0.083302533   -2.3546573   0.82777009   424551 
  269000   0.68966746   -2.3546767   -2.3546767   -1.5274334  0.084989061   -2.3546767   0.82724325   424551 
  270000   0.68991446    -2.356194    -2.356194   -1.5286545   0.07680456    -2.356194   0.82753951   424551 
  271000    0.6886636   -2.3554027   -2.3554027   -1.5293635  0.095450446   -2.3554027   0.82603914   424551 
  272000   0.68950838   -2.3572956   -2.3572956   -1.5302432  0.086400158   -2.3572956   0.82705243   424551 
  273000   0.68851429   -2.3571396   -2.3571396   -1.5312796  0.075115093   -2.3571396   0.82586004   424551 
  274000   0.68960233   -2.3586528   -2.3586528   -1.5314877  0.082445567   -2.3586528   0.82716512   424551 
  275000   0.68857779    -2.357932    -2.357932   -1.5319958  0.097878652    -2.357932   0.82593621   424551 
  276000   0.69088163   -2.3617191   -2.3617191   -1.5330195  0.081756747   -2.3617191   0.82869962   424551 
  277000    0.6894582   -2.3603284   -2.3603284   -1.5333362    0.0855776   -2.3603284   0.82699224   424551 
  278000   0.68794345   -2.3590815   -2.3590815   -1.5339061  0.085712975   -2.3590815   0.82517533   424551 
  279000   0.68799999   -2.3590926   -2.3590926   -1.5338495   0.10042405   -2.3590926   0.82524315   424551 
  280000   0.68926978   -2.3603271   -2.3603271   -1.5335608   0.09440219   -2.3603271   0.82676623   424551 
  281000   0.68868757   -2.3596666   -2.3596666   -1.5335987  0.087878462   -2.3596666   0.82606789   424551 
  282000   0.68908132   -2.3610224   -2.3610224   -1.5344822  0.098593894   -2.3610224   0.82654018   424551 
  283000   0.68888235   -2.3616495   -2.3616495    -1.535348  0.079885883   -2.3616495   0.82630152   424551 
  284000   0.68870672   -2.3616485   -2.3616485   -1.5355577  0.089217458   -2.3616485   0.82609086   424551 
  285000   0.68983918    -2.363149    -2.363149   -1.5356998  0.087280672    -2.363149   0.82744922   424551 
  286000   0.68800404   -2.3627721   -2.3627721   -1.5375241  0.088062517   -2.3627721   0.82524801   424551 
  287000   0.68805666   -2.3638198   -2.3638198   -1.5385087  0.078106692   -2.3638198   0.82531112   424551 
  288000   0.68686443   -2.3628485   -2.3628485   -1.5389675   0.08643582   -2.3628485   0.82388107   424551 
  289000   0.68586437   -2.3616843   -2.3616843   -1.5390028  0.095243059   -2.3616843   0.82268151   424551 
  290000   0.68584094   -2.3624352   -2.3624352   -1.5397818  0.079978232   -2.3624352    0.8226534   424551 
  291000   0.68651952   -2.3637215   -2.3637215   -1.5402541  0.086540996   -2.3637215   0.82346735   424551 
  292000   0.68577379   -2.3631077   -2.3631077   -1.5405348  0.080526998   -2.3631077   0.82257287   424551 
  293000   0.68666817   -2.3657908   -2.3657908   -1.5421452    0.0834057   -2.3657908   0.82364565   424551 
  294000   0.68586018   -2.3642746   -2.3642746   -1.5415981  0.080673207   -2.3642746   0.82267649   424551 
  295000   0.68552581   -2.3648372   -2.3648372   -1.5425618  0.093544195   -2.3648372   0.82227542   424551 
  296000   0.68616797   -2.3659212   -2.3659212   -1.5428755  0.087218425   -2.3659212   0.82304567   424551 
  297000   0.68457498   -2.3655671   -2.3655671   -1.5444322  0.081044542   -2.3655671   0.82113492   424551 
  298000    0.6863066   -2.3673654   -2.3673654   -1.5441534  0.079452241   -2.3673654   0.82321196   424551 
  299000   0.68532777   -2.3667062   -2.3667062   -1.5446683  0.082542139   -2.3667062   0.82203786   424551 
  300000    0.6853937   -2.3664203   -2.3664203   -1.5443034  0.086082666   -2.3664203   0.82211695   424551 
  301000   0.68666358    -2.368694    -2.368694   -1.5450538   0.07141205    -2.368694   0.82364015   424551 
  302000   0.68529566   -2.3685078   -2.3685078   -1.5465085  0.078922738   -2.3685078   0.82199935   424551 
  303000   0.68601657   -2.3691453   -2.3691453   -1.5462812  0.089482957   -2.3691453   0.82286407   424551 
  304000   0.68416156   -2.3680687   -2.3680687   -1.5474297  0.076314388   -2.3680687   0.82063901   424551 
  305000   0.68527062   -2.3697671   -2.3697671   -1.5477978  0.089792883   -2.3697671   0.82196931   424551 
  306000   0.68404083   -2.3688428   -2.3688428   -1.5483486  0.077818903   -2.3688428   0.82049421   424551 
  307000   0.68446534   -2.3693657   -2.3693657   -1.5483623  0.075952619   -2.3693657    0.8210034   424551 
  308000   0.68369653   -2.3689838   -2.3689838   -1.5489026  0.073917368   -2.3689838   0.82008123   424551 
  309000   0.68413086   -2.3699566   -2.3699566   -1.5493544  0.083838475   -2.3699566    0.8206022   424551 
  310000   0.68415553   -2.3702615   -2.3702615   -1.5496297  0.089573152   -2.3702615   0.82063179   424551 
  311000   0.68341235   -2.3696219   -2.3696219   -1.5498815  0.088686294   -2.3696219   0.81974036   424551 
  312000   0.68432986   -2.3712177   -2.3712177   -1.5503768  0.096275264   -2.3712177    0.8208409   424551 
  313000   0.68572609   -2.3724914   -2.3724914   -1.5499757  0.092925637   -2.3724914   0.82251564   424551 
  314000   0.68421203   -2.3721047   -2.3721047   -1.5514052   0.08270955   -2.3721047   0.82069956   424551 
  315000   0.68416899   -2.3720501   -2.3720501   -1.5514022  0.073169057   -2.3720501   0.82064794   424551 
  316000   0.68259493   -2.3707978   -2.3707978    -1.552038  0.087086932   -2.3707978   0.81875988   424551 
  317000   0.68296225   -2.3716939   -2.3716939   -1.5524934  0.082890587   -2.3716939   0.81920047   424551 
  318000   0.68313502   -2.3735749   -2.3735749   -1.5541672  0.086399729   -2.3735749   0.81940771   424551 
  319000   0.68302056   -2.3752905   -2.3752905   -1.5560201  0.076771992   -2.3752905   0.81927041   424551 
  320000   0.68365644   -2.3757999   -2.3757999   -1.5557667   0.07220183   -2.3757999   0.82003314   424551 
  321000   0.68301896   -2.3753698   -2.3753698   -1.5561014  0.071782292   -2.3753698   0.81926849   424551 
  322000   0.68192536   -2.3753227   -2.3753227   -1.5573659  0.090470437   -2.3753227   0.81795674   424551 
  323000   0.68199535   -2.3760445   -2.3760445   -1.5580039  0.082060666   -2.3760445   0.81804069   424551 
  324000   0.68304601    -2.377045    -2.377045   -1.5577441  0.088802841    -2.377045   0.81930094   424551 
  325000   0.68295705   -2.3772175   -2.3772175   -1.5580233  0.079678364   -2.3772175   0.81919424   424551 
  326000   0.68353831   -2.3781654   -2.3781654    -1.558274  0.083962063   -2.3781654   0.81989144   424551 
  327000   0.68349669   -2.3787404   -2.3787404   -1.5588989  0.075255244   -2.3787404   0.81984152   424551 
  328000   0.68288725   -2.3791503   -2.3791503   -1.5600397  0.082835069   -2.3791503   0.81911052   424551 
  329000   0.68302596   -2.3791359   -2.3791359    -1.559859  0.090340208   -2.3791359   0.81927689   424551 
  330000   0.68171423    -2.377549    -2.377549   -1.5598455  0.078143357    -2.377549    0.8177035   424551 
  331000   0.68136602   -2.3787899   -2.3787899    -1.561504  0.087121512   -2.3787899   0.81728582   424551 
  332000   0.68202971   -2.3802274   -2.3802274   -1.5621455  0.080507549   -2.3802274    0.8180819   424551 
  333000   0.68192047   -2.3798527   -2.3798527   -1.5619018  0.080417768   -2.3798527   0.81795087   424551 
  334000   0.68202303   -2.3800777   -2.3800777   -1.5620038  0.075674242   -2.3800777   0.81807389   424551 
  335000   0.68182999    -2.380962    -2.380962   -1.5631197  0.076639021    -2.380962   0.81784235   424551 
  336000   0.68183714   -2.3818473   -2.3818473   -1.5639964  0.079374671   -2.3818473   0.81785092   424551 
  337000   0.68203165   -2.3828895   -2.3828895   -1.5648053  0.089616229   -2.3828895   0.81808424   424551 
  338000   0.68123976    -2.381799    -2.381799   -1.5646647  0.076618043    -2.381799   0.81713438   424551 
  339000   0.68214129    -2.382938    -2.382938   -1.5647223  0.082305986    -2.382938   0.81821574   424551 
  340000    0.6830012   -2.3844061   -2.3844061   -1.5651589  0.081426649   -2.3844061   0.81924719   424551 
  341000   0.68172163    -2.382934    -2.382934   -1.5652216  0.076522214    -2.382934   0.81771237   424551 
  342000   0.68248241   -2.3841395   -2.3841395   -1.5655146   0.07189302   -2.3841395   0.81862491   424551 
  343000   0.67998014   -2.3819014   -2.3819014   -1.5662779  0.089532289   -2.3819014   0.81562349   424551 
  344000   0.68173492   -2.3850095   -2.3850095   -1.5672812  0.071872209   -2.3850095   0.81772831   424551 
  345000   0.67983479   -2.3834961   -2.3834961    -1.568047  0.079628022   -2.3834961   0.81544914   424551 
  346000    0.6798295   -2.3839415   -2.3839415   -1.5684988  0.082857611   -2.3839415   0.81544279   424551 
  347000   0.67971951   -2.3842248   -2.3842248    -1.568914  0.080303023   -2.3842248   0.81531086   424551 
  348000   0.67920111   -2.3844633   -2.3844633   -1.5697742  0.081458345   -2.3844633   0.81468906   424551 
  349000   0.67954251   -2.3846478   -2.3846478   -1.5695492  0.093891567   -2.3846478   0.81509856   424551 
  350000   0.68056236   -2.3862586   -2.3862586   -1.5699368  0.081180645   -2.3862586   0.81632185   424551 
  351000   0.68114457   -2.3876336   -2.3876336   -1.5706134  0.095546758   -2.3876336    0.8170202   424551 
  352000   0.67967769   -2.3861294   -2.3861294   -1.5708687  0.079629725   -2.3861294    0.8152607   424551 
  353000   0.68024675    -2.388264    -2.388264   -1.5723207  0.083080928    -2.388264   0.81594328   424551 
  354000   0.68031148   -2.3883001   -2.3883001   -1.5722792  0.073962201   -2.3883001   0.81602092   424551 
  355000   0.67927155   -2.3876698   -2.3876698   -1.5728962  0.072513117   -2.3876698   0.81477355   424551 
  356000   0.68032144   -2.3894555   -2.3894555   -1.5734227  0.087142873   -2.3894555   0.81603287   424551 
  357000   0.67895076   -2.3888975   -2.3888975   -1.5745087  0.079556838   -2.3888975   0.81438877   424551 
  358000   0.67978419   -2.3893745   -2.3893745   -1.5739861  0.082323007   -2.3893745   0.81538845   424551 
  359000   0.67892356    -2.389566    -2.389566   -1.5752099  0.080703172    -2.389566   0.81435614   424551 
  360000   0.67953296   -2.3912162   -2.3912162   -1.5761291  0.078856783   -2.3912162   0.81508711   424551 
  361000   0.67988847   -2.3915658   -2.3915658   -1.5760523  0.086011058   -2.3915658   0.81551353   424551 
  362000   0.67906264   -2.3910556   -2.3910556   -1.5765326  0.084637867   -2.3910556   0.81452296   424551 
  363000   0.67830214   -2.3914248   -2.3914248    -1.577814  0.078975873   -2.3914248   0.81361075   424551 
  364000    0.6779976   -2.3913664   -2.3913664   -1.5781209  0.091850909   -2.3913664   0.81324547   424551 
  365000   0.67818357   -2.3914192   -2.3914192   -1.5779507  0.084823581   -2.3914192   0.81346853   424551 
  366000   0.67893612   -2.3933712   -2.3933712       -1.579  0.084508015   -2.3933712    0.8143712   424551 
  367000   0.67710962   -2.3914809   -2.3914809   -1.5793005  0.072039503   -2.3914809   0.81218035   424551 
  368000   0.67746447   -2.3920213   -2.3920213   -1.5794154  0.077337757   -2.3920213   0.81260598   424551 
  369000   0.67749904   -2.3925207   -2.3925207   -1.5798732  0.074985317   -2.3925207   0.81264746   424551 
  370000   0.67707049   -2.3932036   -2.3932036   -1.5810702  0.080131606   -2.3932036   0.81213341   424551 
  371000   0.67734579   -2.3935992   -2.3935992   -1.5811356  0.067328906   -2.3935992   0.81246363   424551 
  372000   0.67704102   -2.3944477   -2.3944477   -1.5823497  0.070658783   -2.3944477   0.81209807   424551 
  373000   0.67756066   -2.3938011   -2.3938011   -1.5810797  0.077772424   -2.3938011   0.81272137   424551 
  374000   0.67747947   -2.3952268   -2.3952268   -1.5826028  0.089255542   -2.3952268   0.81262398   424551 
  375000   0.67649192   -2.3941965   -2.3941965   -1.5827571  0.085594056   -2.3941965   0.81143943   424551 
  376000   0.67695298   -2.3953494   -2.3953494   -1.5833569  0.079615885   -2.3953494   0.81199246   424551 
  377000   0.67759978   -2.3960428   -2.3960428   -1.5832745  0.073124553   -2.3960428   0.81276829   424551 
  378000   0.67782454   -2.3966999   -2.3966999    -1.583662  0.087803792   -2.3966999   0.81303789   424551 
  379000   0.67722006   -2.3960687   -2.3960687   -1.5837559  0.081862248   -2.3960687   0.81231282   424551 
  380000   0.67648689    -2.396245    -2.396245   -1.5848116  0.076883809    -2.396245   0.81143339   424551 
  381000   0.67714335   -2.3975144   -2.3975144   -1.5852936  0.076194933   -2.3975144    0.8122208   424551 
  382000   0.67595061   -2.3970905   -2.3970905   -1.5863003   0.08001717   -2.3970905   0.81079014   424551 
  383000   0.67507209   -2.3968651   -2.3968651   -1.5871287  0.064877768   -2.3968651   0.80973637   424551 
  384000   0.67624233   -2.3974117   -2.3974117   -1.5862716  0.072629362   -2.3974117   0.81114005   424551 
  385000   0.67581622   -2.3968803   -2.3968803   -1.5862513  0.087502783   -2.3968803   0.81062894   424551 
  386000   0.67674267   -2.3979187   -2.3979187   -1.5861785  0.074021845   -2.3979187    0.8117402   424551 
  387000   0.67658437    -2.398623    -2.398623   -1.5870727  0.087882927    -2.398623   0.81155032   424551 
  388000   0.67609863   -2.3982471   -2.3982471   -1.5872794  0.082966209   -2.3982471   0.81096769   424551 
  389000   0.67531247   -2.3983785   -2.3983785   -1.5883538  0.083768049   -2.3983785   0.81002471   424551 
  390000   0.67584879   -2.3991466   -2.3991466   -1.5884786  0.062981939   -2.3991466   0.81066801   424551 
  391000   0.67512766   -2.3992441   -2.3992441   -1.5894411    0.0733569   -2.3992441   0.80980302   424551 
  392000    0.6753746   -2.3999348   -2.3999348   -1.5898356  0.085096125   -2.3999348   0.81009922   424551 
  393000   0.67612483   -2.4015783   -2.4015783   -1.5905791  0.080394352   -2.4015783   0.81099911   424551 
  394000   0.67525518   -2.4009847   -2.4009847   -1.5910287  0.086166058   -2.4009847   0.80995598   424551 
  395000   0.67442244   -2.4008869   -2.4008869   -1.5919297  0.067891766   -2.4008869   0.80895712   424551 
  396000   0.67416843   -2.4010245   -2.4010245   -1.5923721    0.0742059   -2.4010245   0.80865244   424551 
  397000   0.67367011   -2.4006413   -2.4006413   -1.5925866  0.081839009   -2.4006413   0.80805472   424551 
  398000   0.67350096   -2.4015559   -2.4015559   -1.5937041  0.072714902   -2.4015559   0.80785183   424551 
  399000   0.67331614   -2.4007243   -2.4007243   -1.5930942   0.08004253   -2.4007243   0.80763014   424551 
  400000   0.67401386    -2.402655    -2.402655    -1.594188  0.073630682    -2.402655   0.80846705   424551 
  401000    0.6733194   -2.4032034   -2.4032034   -1.5955693  0.076150478   -2.4032034   0.80763406   424551 
  402000   0.67225471   -2.4021585   -2.4021585   -1.5958015  0.079196899   -2.4021585   0.80635698   424551 
  403000   0.67405492   -2.4047428   -2.4047428   -1.5962265  0.079072872   -2.4047428    0.8085163   424551 
  404000   0.67367823   -2.4048345   -2.4048345     -1.59677  0.078822897   -2.4048345   0.80806446   424551 
  405000    0.6739262   -2.4055073   -2.4055073   -1.5971454  0.077776687   -2.4055073    0.8083619   424551 
  406000   0.67326068   -2.4046727   -2.4046727   -1.5971091  0.079542224   -2.4046727   0.80756362   424551 
  407000   0.67211887   -2.4038592   -2.4038592   -1.5976652  0.081439206   -2.4038592   0.80619404   424551 
  408000   0.67285126   -2.4047083   -2.4047083   -1.5976358   0.07172222   -2.4047083   0.80707253   424551 
  409000   0.67311727   -2.4058775   -2.4058775   -1.5984859  0.071683953   -2.4058775    0.8073916   424551 
  410000   0.67280587    -2.406126    -2.406126   -1.5991079  0.074190689    -2.406126   0.80701808   424551 
  411000   0.67242367   -2.4062759   -2.4062759   -1.5997162   0.07244831   -2.4062759   0.80655965   424551 
  412000   0.67291949    -2.406929    -2.406929   -1.5997747  0.076266403    -2.406929   0.80715437   424551 
  413000    0.6718456   -2.4060709   -2.4060709   -1.6002047  0.071416411   -2.4060709   0.80586626   424551 
  414000   0.67131284   -2.4055512   -2.4055512    -1.600324  0.078519558   -2.4055512   0.80522722   424551 
  415000   0.67351765   -2.4087155   -2.4087155   -1.6008436  0.074639623   -2.4087155   0.80787185   424551 
  416000   0.67233536   -2.4083195   -2.4083195   -1.6018658  0.080526684   -2.4083195   0.80645372   424551 
  417000   0.67348941    -2.410737    -2.410737    -1.602899  0.066408225    -2.410737   0.80783798   424551 
  418000   0.67243884   -2.4095464   -2.4095464   -1.6029685  0.080464552   -2.4095464   0.80657783   424551 
  419000    0.6717511   -2.4089907   -2.4089907   -1.6032378  0.076645668   -2.4089907    0.8057529   424551 
  420000   0.67176522   -2.4096648   -2.4096648   -1.6038949  0.073243429   -2.4096648   0.80576984   424551 
  421000   0.67355777   -2.4114521   -2.4114521   -1.6035321  0.078513643   -2.4114521   0.80791998   424551 
  422000   0.67250271   -2.4115252   -2.4115252   -1.6048707  0.081356951   -2.4115252   0.80665445   424551 
  423000   0.67254639   -2.4123455   -2.4123455   -1.6056387  0.074943913   -2.4123455   0.80670685   424551 
  424000   0.67124292    -2.411112    -2.411112   -1.6059687  0.075230535    -2.411112   0.80514335   424551 
  425000    0.6712823   -2.4118166   -2.4118166    -1.606626  0.078530988   -2.4118166   0.80519059   424551 
  426000   0.67268244   -2.4128277   -2.4128277   -1.6059577  0.070519525   -2.4128277   0.80687003   424551 
  427000   0.67181099   -2.4129728   -2.4129728   -1.6071481  0.080135245   -2.4129728   0.80582474   424551 
  428000   0.67120713   -2.4130148   -2.4130148   -1.6079143  0.073781038   -2.4130148   0.80510043   424551 
  429000   0.66979081   -2.4116779   -2.4116779   -1.6082763  0.072644843   -2.4116779   0.80340157   424551 
  430000   0.67116607   -2.4125778   -2.4125778   -1.6075267  0.073178277   -2.4125778   0.80505117   424551 
  431000   0.67091053   -2.4137761   -2.4137761   -1.6090315  0.081926919   -2.4137761   0.80474466   424551 
  432000    0.6716261   -2.4148211   -2.4148211   -1.6092181  0.078331875   -2.4148211   0.80560297   424551 
  433000   0.67026115   -2.4144026   -2.4144026   -1.6104369  0.065507457   -2.4144026   0.80396574   424551 
  434000   0.67071652   -2.4147773   -2.4147773   -1.6102653  0.074338221   -2.4147773   0.80451194   424551 
  435000    0.6710164   -2.4151317   -2.4151317   -1.6102601  0.085092641   -2.4151317   0.80487165   424551 
  436000   0.67179611   -2.4161215   -2.4161215   -1.6103146  0.068953145   -2.4161215    0.8058069   424551 
  437000   0.67138016   -2.4158518   -2.4158518   -1.6105439  0.075517172   -2.4158518   0.80530798   424551 
  438000   0.67086931    -2.416487    -2.416487   -1.6117918  0.077880389    -2.416487   0.80469521   424551 
  439000   0.66983946   -2.4158026   -2.4158026   -1.6123427  0.080605064   -2.4158026   0.80345993   424551 
  440000   0.67036613     -2.41618     -2.41618   -1.6120884  0.083704944     -2.41618   0.80409166   424551 
  441000   0.66968363   -2.4153144   -2.4153144   -1.6120414  0.075375919   -2.4153144   0.80327301   424551 
  442000   0.66983461   -2.4160635   -2.4160635   -1.6126093  0.070882731   -2.4160635   0.80345411   424551 
  443000   0.66972826   -2.4161107   -2.4161107   -1.6127842  0.076593715   -2.4161107   0.80332655   424551 
  444000   0.67184385   -2.4184325   -2.4184325   -1.6125683  0.077890873   -2.4184325   0.80586416   424551 
  445000   0.67108522   -2.4186786   -2.4186786   -1.6137244  0.079492473   -2.4186786   0.80495419   424551 
  446000   0.67036521   -2.4187746   -2.4187746    -1.614684  0.071060102   -2.4187746   0.80409055   424551 
  447000    0.6690825   -2.4180925   -2.4180925   -1.6155405  0.072481872   -2.4180925   0.80255197   424551 
  448000    0.6691655   -2.4184945   -2.4184945    -1.615843  0.073311573   -2.4184945   0.80265152   424551 
  449000   0.66982526   -2.4196533   -2.4196533   -1.6162104  0.078918727   -2.4196533    0.8034429   424551 
  450000   0.66884627   -2.4192208   -2.4192208   -1.6169522   0.07909204   -2.4192208   0.80226862   424551 
  451000   0.66807502   -2.4190329   -2.4190329   -1.6176894  0.080290437   -2.4190329   0.80134352   424551 
  452000    0.6677566   -2.4186139   -2.4186139   -1.6176524  0.077943652   -2.4186139   0.80096158   424551 
  453000   0.66873009   -2.4204052   -2.4204052    -1.618276   0.06761579   -2.4204052   0.80212926   424551 
  454000   0.66807668   -2.4197395   -2.4197395    -1.618394  0.073899639   -2.4197395   0.80134551   424551 
  455000   0.66972429   -2.4219699   -2.4219699   -1.6186481  0.075663266   -2.4219699   0.80332179   424551 
  456000    0.6702611   -2.4230021   -2.4230021   -1.6190364  0.069912281   -2.4230021   0.80396567   424551 
  457000   0.67041483   -2.4231001   -2.4231001     -1.61895  0.079030884   -2.4231001   0.80415007   424551 
  458000   0.66808077   -2.4215182   -2.4215182   -1.6201678  0.077065716   -2.4215182   0.80135042   424551 
  459000   0.66838621    -2.422009    -2.422009   -1.6202922  0.068994328    -2.422009   0.80171678   424551 
  460000   0.66846117   -2.4236741   -2.4236741   -1.6218674  0.075728524   -2.4236741    0.8018067   424551 
  461000    0.6689898   -2.4245898   -2.4245898    -1.622149  0.084715584   -2.4245898   0.80244078   424551 
  462000   0.66760676   -2.4238386   -2.4238386   -1.6230568  0.072981712   -2.4238386   0.80078185   424551 
  463000   0.66799173   -2.4247105   -2.4247105   -1.6234669  0.069342579   -2.4247105   0.80124361   424551 
  464000   0.66585623    -2.422342    -2.422342   -1.6236599   0.07448477    -2.422342   0.79868211   424551 
  465000   0.66754909   -2.4246493   -2.4246493   -1.6239367  0.075405792   -2.4246493   0.80071268   424551 
  466000   0.66624373   -2.4238522   -2.4238522   -1.6247053   0.06200431   -2.4238522   0.79914692   424551 
  467000   0.66803668   -2.4266087   -2.4266087   -1.6253111  0.074884449   -2.4266087   0.80129753   424551 
  468000   0.66773764   -2.4257218   -2.4257218   -1.6247829  0.081170608   -2.4257218   0.80093884   424551 
  469000   0.66751855   -2.4253353   -2.4253353   -1.6246593  0.070174338   -2.4253353   0.80067604   424551 
  470000   0.66779564   -2.4257652   -2.4257652   -1.6247568  0.070460805   -2.4257652   0.80100841   424551 
  471000    0.6671324   -2.4257344   -2.4257344   -1.6255216  0.081173997   -2.4257344   0.80021286   424551 
  472000   0.66779243   -2.4265885   -2.4265885   -1.6255839   0.07841842   -2.4265885   0.80100455   424551 
  473000   0.66877682   -2.4279972   -2.4279972   -1.6258119  0.077668291   -2.4279972   0.80218531   424551 
  474000   0.66725006   -2.4267404   -2.4267404   -1.6263864  0.073724097   -2.4267404     0.800354   424551 
  475000   0.66663102   -2.4266864   -2.4266864   -1.6270749  0.069578115   -2.4266864   0.79961147   424551 
  476000   0.66631542   -2.4270701   -2.4270701   -1.6278372  0.077525279   -2.4270701   0.79923291   424551 
  477000   0.66669749   -2.4283602   -2.4283602    -1.628669  0.071658073   -2.4283602    0.7996912   424551 
  478000    0.6659671   -2.4276386   -2.4276386   -1.6288235  0.080001116   -2.4276386   0.79881511   424551 
  479000   0.66677244   -2.4293307   -2.4293307   -1.6295496  0.072774569   -2.4293307   0.79978109   424551 
  480000   0.66660319   -2.4294267   -2.4294267   -1.6298486  0.073725915   -2.4294267   0.79957808   424551 
  481000   0.66416376   -2.4279442   -2.4279442   -1.6312922  0.076122418   -2.4279442   0.79665203   424551 
  482000   0.66598563   -2.4305746   -2.4305746   -1.6317373  0.068427099   -2.4305746   0.79883733   424551 
  483000   0.66559726   -2.4298163   -2.4298163   -1.6314448  0.080080206   -2.4298163   0.79837149   424551 
  484000   0.66575273   -2.4304309   -2.4304309    -1.631873  0.067397303   -2.4304309   0.79855797   424551 
  485000   0.66606812   -2.4316614   -2.4316614   -1.6327251  0.070096829   -2.4316614   0.79893628   424551 
  486000   0.66514697   -2.4311154   -2.4311154    -1.633284  0.079640051   -2.4311154   0.79783138   424551 
  487000   0.66522505   -2.4322014   -2.4322014   -1.6342764  0.072132382   -2.4322014   0.79792504   424551 
  488000   0.66756429     -2.43469     -2.43469   -1.6339591  0.065027484     -2.43469   0.80073091   424551 
  489000   0.66528729   -2.4319858   -2.4319858   -1.6339861  0.071946522   -2.4319858   0.79799969   424551 
  490000   0.66531884   -2.4325156   -2.4325156   -1.6344781  0.074074587   -2.4325156   0.79803753   424551 
  491000   0.66435896    -2.431898    -2.431898   -1.6350119  0.075853655    -2.431898   0.79688617   424551 
  492000   0.66294937   -2.4314555   -2.4314555   -1.6362601  0.076318614   -2.4314555   0.79519539   424551 
  493000   0.66581289   -2.4357171   -2.4357171   -1.6370869  0.073003822   -2.4357171   0.79863013   424551 
  494000   0.66372991   -2.4338158   -2.4338158   -1.6376841  0.077099116   -2.4338158   0.79613164   424551 
  495000   0.66445468   -2.4350442   -2.4350442   -1.6380432  0.066204813   -2.4350442   0.79700098   424551 
  496000   0.66515044   -2.4358996   -2.4358996   -1.6380641   0.07162353   -2.4358996   0.79783554   424551 
  497000   0.66421111   -2.4348139   -2.4348139   -1.6381051  0.073427456   -2.4348139   0.79670883   424551 
  498000   0.66487556   -2.4360559   -2.4360559   -1.6385501  0.069366371   -2.4360559   0.79750583   424551 
  499000    0.6647601   -2.4356701   -2.4356701   -1.6383027  0.065928241   -2.4356701   0.79736734   424551 
  500000   0.66592493   -2.4375812   -2.4375812   -1.6388166  0.064757669   -2.4375812   0.79876453   424551 
  501000    0.6663434   -2.4387012   -2.4387012   -1.6394348  0.073169293   -2.4387012   0.79926647   424551 
  502000   0.66534419   -2.4379138   -2.4379138   -1.6398459  0.075697372   -2.4379138   0.79806794   424551 
  503000   0.66555839   -2.4386126   -2.4386126   -1.6402877  0.069045974   -2.4386126   0.79832486   424551 
  504000   0.66557712   -2.4387722   -2.4387722   -1.6404249  0.086350175   -2.4387722   0.79834733   424551 
  505000   0.66458246   -2.4379314   -2.4379314   -1.6407772  0.060618824   -2.4379314   0.79715425   424551 
  506000    0.6659436   -2.4388493   -2.4388493   -1.6400624  0.074860204   -2.4388493   0.79878691   424551 
  507000   0.66543017    -2.438125    -2.438125    -1.639954  0.073728099    -2.438125   0.79817107   424551 
  508000   0.66475566   -2.4375836   -2.4375836   -1.6402216  0.072962877   -2.4375836   0.79736201   424551 
  509000   0.66475186   -2.4374991   -2.4374991   -1.6401416  0.065550031   -2.4374991   0.79735745   424551 
  510000   0.66521666   -2.4381966   -2.4381966   -1.6402816  0.068581802   -2.4381966   0.79791497   424551 
  511000   0.66494895   -2.4381848   -2.4381848    -1.640591  0.072706993   -2.4381848   0.79759385   424551 
  512000   0.66434275   -2.4384992   -2.4384992   -1.6416325  0.076254553   -2.4384992   0.79686673   424551 
  513000   0.66421087   -2.4390178   -2.4390178   -1.6423092  0.066267627   -2.4390178   0.79670854   424551 
  514000   0.66306773   -2.4384863   -2.4384863   -1.6431489   0.06230071   -2.4384863   0.79533737   424551 
  515000   0.66456739   -2.4407527   -2.4407527   -1.6436166  0.070217002   -2.4407527   0.79713618   424551 
  516000   0.66444236   -2.4408286   -2.4408286   -1.6438423  0.085042783   -2.4408286   0.79698621   424551 
  517000   0.66248815   -2.4390977   -2.4390977   -1.6444556    0.0707742   -2.4390977   0.79464217   424551 
  518000   0.66199953   -2.4390892   -2.4390892   -1.6450331  0.085526179   -2.4390892   0.79405608   424551 
  519000   0.66237072   -2.4395708   -2.4395708   -1.6450695  0.066840308   -2.4395708   0.79450132   424551 
  520000   0.66292158   -2.4408546   -2.4408546   -1.6456926  0.054966636   -2.4408546   0.79516206   424551 
  521000   0.66381867   -2.4420827   -2.4420827   -1.6458446  0.075455198   -2.4420827    0.7962381   424551 
  522000   0.66377838   -2.4419215   -2.4419215   -1.6457317  0.080396128   -2.4419215   0.79618978   424551 
  523000   0.66235787   -2.4417697   -2.4417697   -1.6472838  0.067089486   -2.4417697    0.7944859   424551 
  524000   0.66212265   -2.4420843   -2.4420843   -1.6478805  0.081184302   -2.4420843   0.79420376   424551 
  525000   0.66248354    -2.442667    -2.442667   -1.6480304  0.072428017    -2.442667   0.79463664   424551 
  526000   0.66203035   -2.4422648   -2.4422648   -1.6481718  0.073020946   -2.4422648   0.79409305   424551 
  527000   0.66289272   -2.4433276   -2.4433276   -1.6482001  0.069315983   -2.4433276   0.79512744   424551 
  528000   0.66382395   -2.4445164   -2.4445164    -1.648272  0.070006648   -2.4445164   0.79624443   424551 
  529000   0.66218981    -2.441992    -2.441992   -1.6477077  0.077846586    -2.441992   0.79428431   424551 
  530000    0.6621329   -2.4421884   -2.4421884   -1.6479724  0.075457739   -2.4421884   0.79421606   424551 
  531000   0.66371137   -2.4442065   -2.4442065   -1.6480971  0.074278892   -2.4442065    0.7961094   424551 
  532000   0.66399526   -2.4451606   -2.4451606   -1.6487107  0.072747964   -2.4451606   0.79644992   424551 
  533000   0.66327707   -2.4453773   -2.4453773   -1.6497889  0.075142372   -2.4453773   0.79558846   424551 
  534000   0.66298809   -2.4462331   -2.4462331   -1.6509912  0.084439084   -2.4462331   0.79524183   424551 
  535000   0.66295176   -2.4466859   -2.4466859   -1.6514876  0.075991669   -2.4466859   0.79519826   424551 
  536000   0.66148914   -2.4466678   -2.4466678   -1.6532239  0.061747946   -2.4466678   0.79344388   424551 
  537000   0.66160641   -2.4470703   -2.4470703   -1.6534858  0.080617975   -2.4470703   0.79358454   424551 
  538000   0.66143831   -2.4473602   -2.4473602   -1.6539773  0.066793676   -2.4473602    0.7933829   424551 
  539000   0.66047324   -2.4476169   -2.4476169   -1.6553915  0.059160092   -2.4476169   0.79222533   424551 
  540000   0.66115701   -2.4480261   -2.4480261   -1.6549806  0.074237945   -2.4480261   0.79304549   424551 
  541000   0.66114543   -2.4477371   -2.4477371   -1.6547055  0.057341685   -2.4477371    0.7930316   424551 
  542000   0.66163826   -2.4485316   -2.4485316   -1.6549088  0.073031094   -2.4485316   0.79362274   424551 
  543000   0.66175406   -2.4484858   -2.4484858   -1.6547242  0.064076926   -2.4484858   0.79376164   424551 
  544000   0.66103694   -2.4477074   -2.4477074   -1.6548059  0.072959749   -2.4477074   0.79290147   424551 
  545000   0.66265567   -2.4484211   -2.4484211    -1.653578   0.06481462   -2.4484211    0.7948431   424551 
  546000   0.66166436   -2.4474282   -2.4474282   -1.6537742  0.076793014   -2.4474282   0.79365405   424551 
  547000   0.66159874   -2.4477592   -2.4477592   -1.6541839  0.066391676   -2.4477592   0.79357534   424551 
  548000   0.66070677   -2.4471294   -2.4471294   -1.6546239   0.07450949   -2.4471294   0.79250544   424551 
  549000   0.66036257   -2.4466095   -2.4466095   -1.6545169  0.081614977   -2.4466095   0.79209257   424551 
  550000   0.66188439   -2.4484889   -2.4484889   -1.6545709  0.065577864   -2.4484889   0.79391797   424551 
  551000   0.66241137   -2.4485084   -2.4485084   -1.6539583  0.064205253   -2.4485084   0.79455007   424551 
  552000   0.66113643   -2.4473576   -2.4473576   -1.6543368  0.083606722   -2.4473576   0.79302081   424551 
  553000   0.66048514   -2.4485973   -2.4485973   -1.6563577  0.071160569   -2.4485973   0.79223959   424551 
  554000   0.66015032   -2.4475874   -2.4475874   -1.6557494  0.082304539   -2.4475874   0.79183799   424551 
  555000   0.66181511   -2.4500461   -2.4500461   -1.6562112  0.072258939   -2.4500461   0.79383487   424551 
  556000   0.66144892   -2.4503952   -2.4503952   -1.6569996  0.068281254   -2.4503952   0.79339563   424551 
  557000   0.66141703   -2.4510082   -2.4510082   -1.6576508  0.076856993   -2.4510082   0.79335739   424551 
  558000   0.66089322   -2.4510976   -2.4510976   -1.6583686   0.06897493   -2.4510976   0.79272908   424551 
  559000   0.66095838   -2.4511018   -2.4511018   -1.6582946  0.070193699   -2.4511018   0.79280724   424551 
  560000    0.6615889   -2.4522082   -2.4522082   -1.6586447  0.082299519   -2.4522082   0.79356353   424551 
  561000   0.66089608   -2.4524436   -2.4524436   -1.6597111  0.048935393   -2.4524436   0.79273252   424551 
  562000   0.65862124   -2.4509523   -2.4509523   -1.6609485   0.06367835   -2.4509523   0.79000388   424551 
  563000   0.65802217   -2.4501144   -2.4501144   -1.6608291  0.063762525   -2.4501144   0.78928531   424551 
  564000   0.65843937   -2.4513061   -2.4513061   -1.6615204   0.06302579   -2.4513061   0.78978573   424551 
  565000   0.65958835   -2.4530677   -2.4530677   -1.6619038  0.057960701   -2.4530677   0.79116391   424551 
  566000   0.65953717   -2.4534654   -2.4534654   -1.6623629  0.071943273   -2.4534654   0.79110253   424551 
  567000   0.65951778   -2.4523554   -2.4523554   -1.6612761  0.064072383   -2.4523554   0.79107927   424551 
  568000   0.66045539   -2.4546267   -2.4546267   -1.6624228  0.079253557   -2.4546267   0.79220391   424551 
  569000   0.66020979   -2.4554151   -2.4554151   -1.6635058  0.076349313   -2.4554151   0.79190932   424551 
  570000   0.65952198   -2.4539583   -2.4539583    -1.662874   0.06363129   -2.4539583   0.79108431   424551 
  571000   0.66104527   -2.4564388   -2.4564388   -1.6635273  0.072351331   -2.4564388   0.79291146   424551 
  572000   0.66005853   -2.4559899   -2.4559899    -1.664262  0.061366004   -2.4559899   0.79172789   424551 
  573000   0.66056774   -2.4569935   -2.4569935   -1.6646549  0.073291033   -2.4569935   0.79233867   424551 
  574000    0.6592729   -2.4558875   -2.4558875   -1.6651019  0.077463603   -2.4558875   0.79078553   424551 
  575000   0.65944781   -2.4560803   -2.4560803    -1.665085  0.068339099   -2.4560803   0.79099534   424551 
  576000   0.65991636   -2.4564849   -2.4564849   -1.6649276  0.071823738   -2.4564849   0.79155736   424551 
  577000   0.66074523   -2.4578103   -2.4578103   -1.6652587  0.074459685   -2.4578103   0.79255157   424551 
  578000   0.65983948   -2.4578743   -2.4578743   -1.6664092   0.07131462   -2.4578743   0.79146514   424551 
  579000   0.65977923   -2.4579048   -2.4579048   -1.6665119  0.073265357   -2.4579048   0.79139287   424551 
  580000   0.65936159    -2.457224    -2.457224   -1.6663321   0.07382938    -2.457224   0.79089192   424551 
  581000   0.65982207   -2.4577504   -2.4577504   -1.6663062  0.077819518   -2.4577504   0.79144425   424551 
  582000   0.65970306   -2.4582825   -2.4582825    -1.666981  0.072560773   -2.4582825   0.79130151   424551 
  583000   0.65877361   -2.4577259   -2.4577259   -1.6675392  0.063326581   -2.4577259   0.79018664   424551 
  584000   0.65839682   -2.4578792   -2.4578792   -1.6681445  0.070159304   -2.4578792    0.7897347   424551 
  585000   0.65856852   -2.4583606   -2.4583606     -1.66842   0.07332663   -2.4583606   0.78994065   424551 
  586000   0.65971287   -2.4587508   -2.4587508   -1.6674375  0.071424962   -2.4587508   0.79131327   424551 
  587000   0.65967598   -2.4600932   -2.4600932   -1.6688242  0.066336645   -2.4600932   0.79126902   424551 
  588000   0.65867852   -2.4583071   -2.4583071   -1.6682345  0.061733357   -2.4583071   0.79007259   424551 
  589000   0.66037341   -2.4609553   -2.4609553   -1.6688497  0.074759986   -2.4609553   0.79210558   424551 
  590000   0.65923693   -2.4599897   -2.4599897   -1.6692473   0.07776314   -2.4599897   0.79074239   424551 
  591000   0.65976747   -2.4605552   -2.4605552   -1.6691764  0.057123855   -2.4605552   0.79137876   424551 
  592000   0.65791022   -2.4591098   -2.4591098   -1.6699588  0.075599937   -2.4591098   0.78915103   424551 
  593000   0.66029996   -2.4618453   -2.4618453   -1.6698278  0.072431714   -2.4618453   0.79201748   424551 
  594000   0.65870057   -2.4601624   -2.4601624   -1.6700634  0.057804508   -2.4601624   0.79009904   424551 
  595000   0.65881965    -2.460919    -2.460919   -1.6706771  0.063814051    -2.460919   0.79024187   424551 
  596000    0.6585119   -2.4610322   -2.4610322   -1.6711595  0.073193333   -2.4610322   0.78987274   424551 
  597000   0.65818213   -2.4618588   -2.4618588   -1.6723816  0.067589971   -2.4618588   0.78947718   424551 
  598000   0.65873559   -2.4628701   -2.4628701    -1.672729  0.070813361   -2.4628701   0.79014105   424551 
  599000   0.65862761   -2.4630101   -2.4630101   -1.6729986  0.060032123   -2.4630101   0.79001152   424551 
  600000   0.65817339   -2.4637647   -2.4637647    -1.674298   0.07034867   -2.4637647   0.78946669   424551 
  601000   0.65808669   -2.4641512   -2.4641512   -1.6747885  0.074221191   -2.4641512    0.7893627   424551 
  602000   0.65797643   -2.4637674   -2.4637674    -1.674537  0.069183723   -2.4637674   0.78923045   424551 
  603000   0.65637462   -2.4630694   -2.4630694   -1.6757603   0.06460143   -2.4630694   0.78730911   424551 
  604000   0.65774142   -2.4650492   -2.4650492   -1.6761006  0.066219166   -2.4650492   0.78894856   424551 
  605000   0.65827166   -2.4654072   -2.4654072   -1.6758226  0.067110787   -2.4654072   0.78958457   424551 
  606000   0.65882655     -2.46592     -2.46592   -1.6756699  0.077643062     -2.46592   0.79025015   424551 
  607000   0.65879772   -2.4663497   -2.4663497   -1.6761341  0.064414644   -2.4663497   0.79021557   424551 
  608000   0.65765351   -2.4654648   -2.4654648   -1.6766217  0.072582044   -2.4654648   0.78884311   424551 
  609000   0.65827798   -2.4658251   -2.4658251   -1.6762329  0.070164127   -2.4658251   0.78959215   424551 
  610000   0.65653195   -2.4644612   -2.4644612   -1.6769633  0.063181975   -2.4644612   0.78749782   424551 
  611000   0.65655233   -2.4647353   -2.4647353    -1.677213  0.066535306   -2.4647353   0.78752226   424551 
  612000   0.65645375   -2.4650863   -2.4650863   -1.6776823  0.065556493   -2.4650863   0.78740402   424551 
  613000   0.65703292   -2.4658448   -2.4658448    -1.677746  0.068800886   -2.4658448   0.78809872   424551 
  614000   0.65612722   -2.4645608   -2.4645608   -1.6775485  0.064298494   -2.4645608   0.78701236   424551 
  615000   0.65576095   -2.4642921   -2.4642921   -1.6777191   0.07231127   -2.4642921   0.78657301   424551 
  616000   0.65631998    -2.466226    -2.466226   -1.6789824  0.063675151    -2.466226   0.78724357   424551 
  617000   0.65634363   -2.4661538   -2.4661538   -1.6788818  0.073279113   -2.4661538   0.78727194   424551 
  618000   0.65695728   -2.4666859   -2.4666859   -1.6786779  0.071640186   -2.4666859     0.788008   424551 
  619000   0.65618566   -2.4660866   -2.4660866   -1.6790042  0.068465506   -2.4660866   0.78708245   424551 
  620000   0.65673092   -2.4674373   -2.4674373   -1.6797008  0.077011826   -2.4674373   0.78773648   424551 
  621000   0.65725448   -2.4680974   -2.4680974   -1.6797329  0.052351678   -2.4680974   0.78836448   424551 
  622000    0.6566443   -2.4672352   -2.4672352   -1.6796026  0.061470185   -2.4672352   0.78763258   424551 
  623000   0.65703047   -2.4679434   -2.4679434   -1.6798476   0.07140463   -2.4679434   0.78809578   424551 
  624000   0.65796188   -2.4689247   -2.4689247   -1.6797117  0.055388105   -2.4689247     0.789213   424551 
  625000    0.6559154   -2.4668683   -2.4668683     -1.68011  0.064407514   -2.4668683   0.78675828   424551 
  626000   0.65545276   -2.4663349   -2.4663349   -1.6801315  0.067538676   -2.4663349   0.78620335   424551 
  627000   0.65577369   -2.4669698   -2.4669698   -1.6803815  0.063304372   -2.4669698    0.7865883   424551 
  628000    0.6567208   -2.4673542   -2.4673542   -1.6796299  0.060314602   -2.4673542   0.78772435   424551 
  629000   0.65588552     -2.46718     -2.46718   -1.6804576  0.062882606     -2.46718   0.78672244   424551 
  630000   0.65518847   -2.4670852   -2.4670852   -1.6811989  0.075649259   -2.4670852   0.78588634   424551 
  631000   0.65603946   -2.4680899   -2.4680899   -1.6811828  0.061920835   -2.4680899   0.78690709   424551 
  632000   0.65577567   -2.4681585   -2.4681585   -1.6815678  0.061036044   -2.4681585   0.78659068   424551 
  633000   0.65504214   -2.4674415   -2.4674415   -1.6817307  0.061657505   -2.4674415   0.78571082   424551 
  634000   0.65560349   -2.4690397   -2.4690397   -1.6826555  0.065408964   -2.4690397   0.78638415   424551 
  635000   0.65427127   -2.4684015   -2.4684015   -1.6836153  0.065249456   -2.4684015   0.78478617   424551 
  636000   0.65409773   -2.4684436   -2.4684436   -1.6838655  0.073441217   -2.4684436   0.78457801   424551 
  637000   0.65421836   -2.4688065   -2.4688065   -1.6840838  0.072340627   -2.4688065   0.78472271   424551 
  638000   0.65540811   -2.4708935   -2.4708935   -1.6847437  0.077073879   -2.4708935   0.78614979   424551 
  639000   0.65487778   -2.4698415   -2.4698415   -1.6843278   0.06403274   -2.4698415   0.78551368   424551 
  640000   0.65492031   -2.4704404   -2.4704404   -1.6848758  0.064381521   -2.4704404   0.78556469   424551 
  641000     0.655813   -2.4715302   -2.4715302   -1.6848948  0.063804173   -2.4715302   0.78663545   424551 
  642000   0.65534693   -2.4706554   -2.4706554    -1.684579  0.069568016   -2.4706554   0.78607641   424551 
  643000   0.65674531   -2.4728569   -2.4728569   -1.6851032  0.057194577   -2.4728569   0.78775374   424551 
  644000   0.65493176   -2.4715919   -2.4715919   -1.6860135   0.06086393   -2.4715919   0.78557842   424551 
  645000   0.65516596   -2.4724118   -2.4724118   -1.6865524   0.05917372   -2.4724118   0.78585934   424551 
  646000    0.6550589   -2.4725705   -2.4725705   -1.6868395  0.069857884   -2.4725705   0.78573092   424551 
  647000   0.65541052    -2.472661    -2.472661   -1.6865083  0.062956578    -2.472661   0.78615268   424551 
  648000   0.65569577   -2.4733553   -2.4733553   -1.6868604   0.06197142   -2.4733553   0.78649484   424551 
  649000   0.65517625    -2.473772    -2.473772   -1.6879003  0.070992066    -2.473772   0.78587168   424551 
  650000   0.65346226   -2.4719069   -2.4719069   -1.6880911  0.074217643   -2.4719069   0.78381579   424551 
  651000   0.65517094   -2.4744447   -2.4744447   -1.6885794  0.070174728   -2.4744447   0.78586531   424551 
  652000   0.65401966   -2.4727545   -2.4727545   -1.6882701  0.065491511   -2.4727545   0.78448438   424551 
  653000   0.65365156   -2.4728733   -2.4728733   -1.6888305  0.067522983   -2.4728733   0.78404285   424551 
  654000   0.65419296   -2.4740562   -2.4740562   -1.6893639  0.058512729   -2.4740562   0.78469225   424551 
  655000   0.65395577   -2.4747294   -2.4747294   -1.6903217  0.063544764   -2.4747294   0.78440774   424551 
  656000   0.65380074   -2.4746518   -2.4746518     -1.69043  0.061228506   -2.4746518   0.78422178   424551 
  657000   0.65414674   -2.4747633   -2.4747633   -1.6901265  0.076180685   -2.4747633   0.78463681   424551 
  658000   0.65418147   -2.4761037   -2.4761037   -1.6914252  0.070534718   -2.4761037   0.78467846   424551 
  659000   0.65269658   -2.4746461   -2.4746461   -1.6917487  0.065581892   -2.4746461   0.78289737   424551 
  660000   0.65283328   -2.4748727   -2.4748727   -1.6918114  0.068050781   -2.4748727   0.78306133   424551 
  661000   0.65220641   -2.4753855   -2.4753855   -1.6930761  0.069002543   -2.4753855   0.78230942   424551 
  662000   0.65415394   -2.4774752   -2.4774752   -1.6928297  0.066781092   -2.4774752   0.78464544   424551 
  663000   0.65312063   -2.4764869   -2.4764869   -1.6930809  0.073765575   -2.4764869     0.783406   424551 
  664000   0.65272814   -2.4764716   -2.4764716   -1.6935364  0.060881275   -2.4764716   0.78293522   424551 
  665000   0.65252566   -2.4766537   -2.4766537   -1.6939614  0.069946334   -2.4766537   0.78269235   424551 
  666000   0.65330954   -2.4786796   -2.4786796    -1.695047  0.061943029   -2.4786796    0.7836326   424551 
  667000    0.6535858   -2.4784805   -2.4784805   -1.6945166  0.064258049   -2.4784805   0.78396397   424551 
  668000   0.65293764   -2.4782036   -2.4782036   -1.6950171  0.078181337   -2.4782036   0.78318651   424551 
  669000   0.65272649   -2.4783107   -2.4783107   -1.6953775  0.067293021   -2.4783107   0.78293324   424551 
  670000   0.65253715   -2.4792783   -2.4792783   -1.6965722  0.074813822   -2.4792783   0.78270613   424551 
  671000   0.65345244   -2.4801658   -2.4801658   -1.6963618  0.072608093   -2.4801658   0.78380401   424551 
  672000   0.65269042   -2.4794489   -2.4794489   -1.6965589  0.065017729   -2.4794489   0.78288997   424551 
  673000   0.65310263   -2.4798786   -2.4798786   -1.6964942  0.068048646   -2.4798786   0.78338441   424551 
  674000   0.65228188   -2.4790742   -2.4790742   -1.6966743  0.069613963   -2.4790742   0.78239994   424551 
  675000    0.6520856   -2.4799079   -2.4799079   -1.6977434  0.058952332   -2.4799079    0.7821645   424551 
  676000   0.65303984   -2.4802396   -2.4802396   -1.6969305   0.06355729   -2.4802396    0.7833091   424551 
  677000     0.652121   -2.4798439   -2.4798439   -1.6976369  0.061286484   -2.4798439   0.78220696   424551 
  678000   0.65190376   -2.4796109   -2.4796109   -1.6976645  0.055487989   -2.4796109    0.7819464   424551 
  679000   0.65226723   -2.4797463   -2.4797463   -1.6973639  0.060146675   -2.4797463   0.78238237   424551 
  680000   0.65216846   -2.4793684   -2.4793684   -1.6971045  0.060687087   -2.4793684   0.78226389   424551 
  681000     0.652403   -2.4800276   -2.4800276   -1.6974823  0.066321622   -2.4800276   0.78254522   424551 
  682000     0.651961   -2.4805998   -2.4805998   -1.6985848  0.065994471   -2.4805998   0.78201505   424551 
  683000   0.65419339   -2.4830979   -2.4830979   -1.6984051   0.06023657   -2.4830979   0.78469275   424551 
  684000   0.65350292   -2.4824667   -2.4824667   -1.6986021  0.068679732   -2.4824667   0.78386456   424551 
  685000   0.65232883    -2.482178    -2.482178   -1.6997217  0.071752095    -2.482178   0.78245625   424551 
  686000   0.65351896   -2.4831813   -2.4831813   -1.6992975  0.057919986   -2.4831813    0.7838838   424551 
  687000   0.65254751   -2.4822736   -2.4822736    -1.699555  0.063268338   -2.4822736   0.78271856   424551 
  688000   0.65252218   -2.4831219   -2.4831219   -1.7004337  0.069563046   -2.4831219   0.78268818   424551 
  689000   0.65193933    -2.483804    -2.483804   -1.7018149  0.060979041    -2.483804   0.78198906   424551 
  690000    0.6510438   -2.4827163   -2.4827163   -1.7018014   0.06461265   -2.4827163   0.78091489   424551 
  691000   0.65067636   -2.4827608   -2.4827608   -1.7022866   0.06163887   -2.4827608   0.78047415   424551 
  692000    0.6512395   -2.4832466   -2.4832466    -1.702097  0.062834593   -2.4832466   0.78114963   424551 
  693000   0.65108406    -2.483913    -2.483913   -1.7029498  0.055009261    -2.483913   0.78096318   424551 
  694000     0.650418   -2.4829763   -2.4829763    -1.702812  0.061540455   -2.4829763   0.78016425   424551 
  695000   0.65116389   -2.4827935   -2.4827935   -1.7017346  0.069733675   -2.4827935   0.78105893   424551 
  696000   0.65214769    -2.484728    -2.484728   -1.7024891  0.065598692    -2.484728   0.78223899   424551 
  697000   0.65134295   -2.4842198   -2.4842198   -1.7029461  0.063550406   -2.4842198   0.78127371   424551 
  698000   0.65129252   -2.4848021   -2.4848021   -1.7035889  0.065519711   -2.4848021   0.78121322   424551 
  699000   0.64966142   -2.4832456   -2.4832456   -1.7039889  0.067332962   -2.4832456   0.77925674   424551 
  700000    0.6516088   -2.4854865   -2.4854865   -1.7038939  0.062130141   -2.4854865   0.78159259   424551 
  701000   0.65145856   -2.4859838   -2.4859838   -1.7045714  0.059449132   -2.4859838   0.78141239   424551 
  702000   0.65150381   -2.4862743   -2.4862743   -1.7048076  0.073892871   -2.4862743   0.78146666   424551 
  703000   0.65092454   -2.4855127   -2.4855127   -1.7047409  0.070419014   -2.4855127   0.78077184   424551 
  704000   0.65128903   -2.4855338   -2.4855338   -1.7043248  0.066216253   -2.4855338   0.78120904   424551 
  705000   0.65239864    -2.487139    -2.487139    -1.704599  0.060451997    -2.487139   0.78253999   424551 
  706000   0.65137438   -2.4861911   -2.4861911   -1.7048797  0.073418089   -2.4861911   0.78131142   424551 
  707000   0.65228291   -2.4867695   -2.4867695   -1.7043683  0.071510435   -2.4867695   0.78240118   424551 
  708000   0.65230417   -2.4869086   -2.4869086    -1.704482   0.07541833   -2.4869086   0.78242667   424551 
  709000    0.6522388   -2.4875192   -2.4875192   -1.7051709  0.073410682   -2.4875192   0.78234827   424551 
  710000   0.65123495   -2.4862096   -2.4862096   -1.7050654  0.077114376   -2.4862096   0.78114416   424551 
  711000   0.65151471    -2.487799    -2.487799   -1.7063193  0.058999388    -2.487799   0.78147974   424551 
  712000   0.65184123   -2.4879192   -2.4879192   -1.7060478  0.061411573   -2.4879192   0.78187139   424551 
  713000   0.65190151   -2.4878728   -2.4878728   -1.7059291  0.068148521   -2.4878728   0.78194369   424551 
  714000   0.65139522   -2.4881975   -2.4881975   -1.7068611  0.062152322   -2.4881975    0.7813364   424551 
  715000   0.65170926   -2.4888128   -2.4888128   -1.7070997  0.057970426   -2.4888128   0.78171309   424551 
  716000   0.64915167   -2.4873707   -2.4873707   -1.7087254  0.058625236   -2.4873707   0.77864532   424551 
  717000   0.64938183   -2.4878986   -2.4878986   -1.7089773  0.058190597   -2.4878986   0.77892138   424551 
  718000   0.64956138   -2.4885311   -2.4885311   -1.7093943  0.059724674   -2.4885311   0.77913675   424551 
  719000   0.64894297   -2.4880166   -2.4880166   -1.7096217  0.066019528   -2.4880166   0.77839498   424551 
  720000   0.64910453   -2.4880328   -2.4880328   -1.7094441  0.069134788   -2.4880328   0.77858876   424551 
  721000   0.65069529   -2.4893086   -2.4893086   -1.7088117  0.061917492   -2.4893086   0.78049685   424551 
  722000   0.64876274   -2.4879069   -2.4879069   -1.7097281  0.058238012   -2.4879069   0.77817879   424551 
  723000   0.64903342   -2.4889589   -2.4889589   -1.7104555  0.053571051   -2.4889589   0.77850347   424551 
  724000    0.6502775   -2.4898812   -2.4898812   -1.7098855  0.058885231   -2.4898812   0.77999573   424551 
  725000    0.6511893    -2.491352    -2.491352   -1.7102626    0.0587102    -2.491352   0.78108941   424551 
  726000   0.65006645   -2.4908633   -2.4908633   -1.7111208  0.059544001   -2.4908633   0.77974257   424551 
  727000   0.65092291   -2.4916818   -2.4916818   -1.7109119   0.05967756   -2.4916818   0.78076988   424551 
  728000   0.64993637    -2.490701    -2.490701   -1.7111145   0.06474588    -2.490701   0.77958655   424551 
  729000    0.6489609   -2.4907459   -2.4907459   -1.7123294  0.064730158   -2.4907459   0.77841649   424551 
  730000   0.64847771   -2.4911444   -2.4911444   -1.7133075  0.071012652   -2.4911444    0.7778369   424551 
  731000   0.64990088   -2.4920349   -2.4920349   -1.7124909  0.052878297   -2.4920349   0.77954398   424551 
  732000   0.64867099    -2.491424    -2.491424   -1.7133552  0.058279936    -2.491424   0.77806874   424551 
  733000    0.6490815   -2.4920636   -2.4920636   -1.7135025  0.061820182   -2.4920636   0.77856115   424551 
  734000   0.64916987    -2.491613    -2.491613   -1.7129458  0.070276225    -2.491613   0.77866714   424551 
  735000   0.64853146   -2.4918298   -2.4918298   -1.7139284  0.066443564   -2.4918298   0.77790138   424551 
  736000   0.64994734   -2.4936424   -2.4936424   -1.7140427  0.065557536   -2.4936424    0.7795997   424551 
  737000   0.64926452   -2.4926727   -2.4926727    -1.713892  0.054274999   -2.4926727   0.77878067   424551 
  738000   0.64930922   -2.4931885   -2.4931885   -1.7143542   0.07038385   -2.4931885   0.77883429   424551 
  739000   0.64979427   -2.4933984   -2.4933984   -1.7139823  0.061932601   -2.4933984   0.77941609   424551 
  740000   0.65010423   -2.4944465   -2.4944465   -1.7146586  0.066884706   -2.4944465   0.77978789   424551 
  741000   0.65001742   -2.4945061   -2.4945061   -1.7148223  0.051994188   -2.4945061   0.77968377   424551 
  742000   0.65027249   -2.4951794   -2.4951794   -1.7151896  0.067194154   -2.4951794   0.77998971   424551 
  743000   0.64992654   -2.4950233   -2.4950233   -1.7154486  0.068725898   -2.4950233   0.77957475   424551 
  744000   0.64987203   -2.4943283   -2.4943283   -1.7148189  0.075223839   -2.4943283   0.77950937   424551 
  745000   0.64998481   -2.4948393   -2.4948393   -1.7151946  0.059425274   -2.4948393   0.77964465   424551 
  746000   0.64938268   -2.4939177   -2.4939177   -1.7149953  0.063027275   -2.4939177   0.77892241   424551 
  747000   0.65020775   -2.4950689   -2.4950689   -1.7151569    0.0663537   -2.4950689   0.77991205   424551 
  748000   0.65028315   -2.4949876   -2.4949876   -1.7149851  0.066583173   -2.4949876    0.7800025   424551 
  749000     0.648815    -2.494899    -2.494899   -1.7166575  0.060174756    -2.494899   0.77824149   424551 
  750000   0.64918507   -2.4960471   -2.4960471   -1.7173617  0.060698357   -2.4960471   0.77868537   424551 
  751000   0.64905125   -2.4953552   -2.4953552   -1.7168303   0.05929295   -2.4953552   0.77852486   424551 
  752000   0.64808827   -2.4944881   -2.4944881   -1.7171183  0.065914566   -2.4944881   0.77736979   424551 
  753000   0.64899303     -2.49591     -2.49591    -1.717455  0.065123246     -2.49591   0.77845502   424551 
  754000   0.64870679   -2.4959193   -2.4959193   -1.7178076  0.057039569   -2.4959193   0.77811169   424551 
  755000   0.64941844   -2.4966301   -2.4966301   -1.7176648   0.06298089   -2.4966301    0.7789653   424551 
  756000   0.64840318   -2.4953017   -2.4953017   -1.7175542  0.076714712   -2.4953017   0.77774751   424551 
  757000    0.6494485   -2.4967603   -2.4967603   -1.7177589  0.075267356   -2.4967603   0.77900136   424551 
  758000   0.64824944   -2.4962817   -2.4962817   -1.7187186  0.058791843   -2.4962817    0.7775631   424551 
  759000   0.64814296   -2.4961966   -2.4961966   -1.7187612  0.067953585   -2.4961966   0.77743538   424551 
  760000   0.64866978    -2.497013    -2.497013   -1.7189457  0.059247711    -2.497013   0.77806729   424551 
  761000    0.6498076   -2.4986008   -2.4986008   -1.7191687  0.049366004   -2.4986008   0.77943208   424551 
  762000   0.64831918   -2.4975354   -2.4975354   -1.7198886  0.055233377   -2.4975354   0.77764675   424551 
  763000   0.64971429   -2.4990418   -2.4990418   -1.7197216  0.066446539   -2.4990418   0.77932017   424551 
  764000   0.64866595   -2.4987119   -2.4987119   -1.7206492  0.061167483   -2.4987119   0.77806269   424551 
  765000   0.64782644   -2.4978705   -2.4978705   -1.7208148   0.06648876   -2.4978705   0.77705573   424551 
  766000   0.64733305   -2.4971005   -2.4971005   -1.7206366  0.062098726   -2.4971005   0.77646391   424551 
  767000   0.64781881   -2.4977593   -2.4977593   -1.7207128  0.059964135   -2.4977593   0.77704657   424551 
  768000   0.64860182    -2.498298    -2.498298   -1.7203123  0.058720917    -2.498298   0.77798577   424551 
  769000   0.64790135   -2.4984558   -2.4984558   -1.7213102  0.062837486   -2.4984558   0.77714557   424551 
  770000   0.64907115   -2.5005547   -2.5005547   -1.7220059  0.059807782   -2.5005547   0.77854872   424551 
  771000   0.64758802   -2.4992059   -2.4992059   -1.7224361  0.069044792   -2.4992059   0.77676974   424551 
  772000   0.64734685   -2.4995792   -2.4995792   -1.7230987  0.068487673   -2.4995792   0.77648046   424551 
  773000   0.64767935   -2.4997504   -2.4997504   -1.7228711  0.059633113   -2.4997504    0.7768793   424551 
  774000   0.64914197   -2.5026172   -2.5026172   -1.7239835  0.060147196   -2.5026172   0.77863368   424551 
  775000   0.64792242   -2.5017384   -2.5017384   -1.7245676   0.06228578   -2.5017384   0.77717085   424551 
  776000   0.64808405   -2.5022476   -2.5022476   -1.7248829  0.067294636   -2.5022476   0.77736472   424551 
  777000   0.64799501   -2.5020869   -2.5020869    -1.724829  0.066225263   -2.5020869   0.77725792   424551 
  778000   0.64756992   -2.5022481   -2.5022481      -1.7255   0.06855976   -2.5022481   0.77674804   424551 
  779000   0.64769178   -2.5025693   -2.5025693   -1.7256751   0.06390588   -2.5025693    0.7768942   424551 
  780000   0.64710939   -2.5016081   -2.5016081   -1.7254125  0.065842478   -2.5016081   0.77619564   424551 
  781000   0.64675841   -2.5020763   -2.5020763   -1.7263016  0.064155755   -2.5020763   0.77577464   424551 
  782000   0.64687972   -2.5021149   -2.5021149   -1.7261947  0.052859491   -2.5021149   0.77592015   424551 
  783000   0.64790141   -2.5038205   -2.5038205   -1.7266748  0.051211091   -2.5038205   0.77714565   424551 
  784000   0.64760225   -2.5029586   -2.5029586   -1.7261718   0.04909498   -2.5029586   0.77678681   424551 
  785000   0.64760206   -2.5031124   -2.5031124   -1.7263258  0.054357137   -2.5031124   0.77678658   424551 
  786000   0.64799432   -2.5041726   -2.5041726   -1.7269155  0.061174224   -2.5041726   0.77725709   424551 
  787000   0.64725427    -2.503128    -2.503128   -1.7267585  0.067175321    -2.503128   0.77636941   424551 
  788000   0.64725986   -2.5038031   -2.5038031    -1.727427  0.054558006   -2.5038031   0.77637612   424551 
  789000   0.64754688   -2.5030797   -2.5030797   -1.7263593  0.065778071   -2.5030797    0.7767204   424551 
  790000   0.64684372   -2.5032906   -2.5032906   -1.7274136   0.06226783   -2.5032906   0.77587697   424551 
  791000   0.64696845   -2.5036275   -2.5036275   -1.7276009  0.064900273   -2.5036275   0.77602657   424551 
  792000   0.64551481   -2.5027353   -2.5027353   -1.7284523  0.065467277   -2.5027353   0.77428296   424551 
  793000   0.64788552   -2.5056487   -2.5056487   -1.7285222  0.054559439   -2.5056487   0.77712658   424551 
  794000   0.64569584   -2.5034412   -2.5034412   -1.7289411  0.052444403   -2.5034412   0.77450011   424551 
  795000   0.64589439   -2.5037022   -2.5037022   -1.7289639  0.064055669   -2.5037022   0.77473827   424551 
  796000   0.64672398    -2.504348    -2.504348   -1.7286147  0.051586294    -2.504348   0.77573334   424551 
  797000   0.64779095   -2.5059047   -2.5059047   -1.7288915  0.057974385   -2.5059047   0.77701315   424551 
  798000   0.64548033   -2.5032075   -2.5032075   -1.7289659  0.058477973   -2.5032075    0.7742416   424551 
  799000   0.64645197   -2.5047398   -2.5047398   -1.7293327  0.068486711   -2.5047398   0.77540707   424551 
  800000   0.64655281   -2.5060377   -2.5060377   -1.7305097  0.060659705   -2.5060377   0.77552803   424551 
  801000   0.64697589   -2.5058452   -2.5058452   -1.7298097  0.073934245   -2.5058452    0.7760355   424551 
  802000   0.64596649    -2.505608    -2.505608   -1.7307833  0.061684604    -2.505608   0.77482474   424551 
  803000   0.64803704   -2.5077554   -2.5077554   -1.7304471  0.067177267   -2.5077554   0.77730834   424551 
  804000    0.6463404   -2.5054377   -2.5054377   -1.7301645  0.065554044   -2.5054377   0.77527324   424551 
  805000     0.646102   -2.5055203   -2.5055203   -1.7305331   0.05901128   -2.5055203   0.77498728   424551 
  806000   0.64551855    -2.505105    -2.505105   -1.7308175  0.062462734    -2.505105   0.77428745   424551 
  807000    0.6462421   -2.5058731   -2.5058731   -1.7307177  0.070691308   -2.5058731   0.77515533   424551 
  808000   0.64640609   -2.5062359   -2.5062359   -1.7308839   0.05838415   -2.5062359   0.77535204   424551 
  809000   0.64554868   -2.5054829   -2.5054829   -1.7311593  0.069051099   -2.5054829   0.77432359   424551 
  810000   0.64642396   -2.5069673   -2.5069673   -1.7315938  0.071980209   -2.5069673   0.77537348   424551 
  811000   0.64535887   -2.5066963   -2.5066963   -1.7326004  0.061580488   -2.5066963   0.77409591   424551 
  812000   0.64651941   -2.5082586   -2.5082586   -1.7327706  0.063373748   -2.5082586   0.77548797   424551 
  813000   0.64526751   -2.5070833   -2.5070833    -1.733097  0.062675376   -2.5070833   0.77398634   424551 
  814000   0.64544375   -2.5074966   -2.5074966   -1.7332989  0.069088061   -2.5074966   0.77419774   424551 
  815000   0.64574375   -2.5088956   -2.5088956    -1.734338  0.053365747   -2.5088956   0.77455758   424551 
  816000   0.64513587    -2.508305    -2.508305   -1.7344766  0.064239057    -2.508305   0.77382843   424551 
  817000   0.64616234   -2.5082213   -2.5082213   -1.7331617  0.066222659   -2.5082213   0.77505967   424551 
  818000   0.64546746   -2.5080076   -2.5080076   -1.7337814  0.060259509   -2.5080076   0.77422617   424551 
  819000   0.64623406   -2.5088221   -2.5088221   -1.7336764   0.05410234   -2.5088221    0.7751457   424551 
  820000   0.64644848   -2.5088034   -2.5088034   -1.7334005  0.069501004   -2.5088034   0.77540289   424551 
  821000   0.64578121   -2.5096474   -2.5096474   -1.7350449  0.061753822   -2.5096474    0.7746025   424551 
  822000   0.64636442   -2.5103917   -2.5103917   -1.7350896  0.062640095   -2.5103917   0.77530206   424551 
  823000   0.64682054   -2.5114064   -2.5114064   -1.7355572  0.068159703   -2.5114064   0.77584917   424551 
  824000   0.64597282   -2.5103257   -2.5103257   -1.7354934  0.054917147   -2.5103257   0.77483234   424551 
  825000   0.64536153    -2.510174    -2.510174   -1.7360748  0.058881517    -2.510174   0.77409911   424551 
  826000    0.6452601   -2.5100743   -2.5100743   -1.7360969  0.054480828   -2.5100743   0.77397744   424551 
  827000   0.64489523   -2.5104111   -2.5104111   -1.7368713  0.051576384   -2.5104111   0.77353979   424551 
  828000   0.64569095   -2.5119133   -2.5119133    -1.737419  0.059255392   -2.5119133   0.77449424   424551 
  829000   0.64443214   -2.5112772   -2.5112772   -1.7382929  0.057006779   -2.5112772   0.77298432   424551 
  830000   0.64626023   -2.5130455   -2.5130455   -1.7378684  0.053882049   -2.5130455   0.77517708   424551 
  831000    0.6441154   -2.5110677   -2.5110677   -1.7384633  0.051614657   -2.5110677    0.7726044   424551 
  832000   0.64550868   -2.5124286   -2.5124286    -1.738153  0.065056798   -2.5124286   0.77427562   424551 
  833000   0.64506668   -2.5125723   -2.5125723   -1.7388269  0.066854359   -2.5125723   0.77374544   424551 
  834000   0.64504188   -2.5119658   -2.5119658   -1.7382501   0.06323989   -2.5119658   0.77371569   424551 
  835000   0.64501776   -2.5119689   -2.5119689   -1.7382821  0.059748556   -2.5119689   0.77368677   424551 
  836000   0.64488077   -2.5122991   -2.5122991   -1.7387766  0.063020028   -2.5122991   0.77352244   424551 
  837000   0.64456709   -2.5119211   -2.5119211   -1.7387749   0.06231288   -2.5119211    0.7731462   424551 
  838000   0.64615368   -2.5140508   -2.5140508   -1.7390016  0.060087996   -2.5140508   0.77504927   424551 
  839000   0.64508303   -2.5124878   -2.5124878   -1.7387228  0.057410146   -2.5124878   0.77376506   424551 
  840000   0.64594272   -2.5139108   -2.5139108   -1.7391145  0.061978491   -2.5139108   0.77479624   424551 
  841000   0.64444176    -2.512749    -2.512749   -1.7397532   0.06377802    -2.512749   0.77299586   424551 
  842000   0.64454517   -2.5134102   -2.5134102   -1.7402902  0.064661989   -2.5134102   0.77311991   424551 
  843000   0.64360706   -2.5129115   -2.5129115   -1.7409169  0.060899825   -2.5129115   0.77199465   424551 
  844000   0.64431726   -2.5135676   -2.5135676   -1.7407211  0.066694141   -2.5135676   0.77284653   424551 
  845000   0.64477616   -2.5139859   -2.5139859   -1.7405889  0.064955823   -2.5139859   0.77339697   424551 
  846000   0.64418992   -2.5132759   -2.5132759   -1.7405822  0.050902031   -2.5132759   0.77269379   424551 
  847000   0.64407998   -2.5133192   -2.5133192   -1.7407572  0.056075031   -2.5133192   0.77256192   424551 
  848000   0.64502209   -2.5147557   -2.5147557   -1.7410637  0.057749236   -2.5147557   0.77369196   424551 
  849000   0.64298994   -2.5128444   -2.5128444   -1.7415899  0.062723955   -2.5128444   0.77125444   424551 
  850000   0.64553842    -2.515454    -2.515454   -1.7411427  0.061728806    -2.515454   0.77431129   424551 
  851000   0.64487484   -2.5159253   -2.5159253     -1.74241  0.057021857   -2.5159253   0.77351533   424551 
  852000   0.64344173   -2.5146411   -2.5146411   -1.7428448  0.059946875   -2.5146411   0.77179635   424551 
  853000   0.64422208   -2.5156313   -2.5156313   -1.7428989  0.053064143   -2.5156313   0.77273236   424551 
  854000   0.64420289   -2.5159814   -2.5159814   -1.7432721  0.064429285   -2.5159814   0.77270934   424551 
  855000   0.64388111   -2.5172896   -2.5172896   -1.7449662  0.061761975   -2.5172896   0.77232337   424551 
  856000   0.64317337   -2.5156803   -2.5156803   -1.7442058  0.071738472   -2.5156803   0.77147445   424551 
  857000   0.64404107   -2.5165407   -2.5165407   -1.7440254  0.065913199   -2.5165407   0.77251524   424551 
  858000   0.64463943   -2.5168565   -2.5168565   -1.7436236  0.063945536   -2.5168565   0.77323296   424551 
  859000   0.64406572   -2.5163318   -2.5163318   -1.7437869  0.061957096   -2.5163318   0.77254481   424551 
  860000    0.6442695   -2.5180777   -2.5180777   -1.7452885  0.068160728   -2.5180777   0.77278925   424551 
  861000   0.64401243   -2.5176442   -2.5176442   -1.7451633  0.051944576   -2.5176442   0.77248088   424551 
  862000   0.64352344   -2.5167166   -2.5167166   -1.7448222   0.06468714   -2.5167166   0.77189436   424551 
  863000   0.64209785   -2.5161398   -2.5161398   -1.7459554  0.056052485   -2.5161398   0.77018439   424551 
  864000    0.6423167   -2.5167998   -2.5167998   -1.7463529  0.052075948   -2.5167998   0.77044689   424551 
  865000   0.64436353   -2.5191836   -2.5191836   -1.7462816  0.062611433   -2.5191836   0.77290202   424551 
  866000   0.64424189   -2.5188145   -2.5188145   -1.7460584  0.069916509   -2.5188145   0.77275612   424551 
  867000   0.64216583   -2.5172106   -2.5172106   -1.7469446  0.054243926   -2.5172106   0.77026592   424551 
  868000    0.6437912   -2.5195765   -2.5195765    -1.747361  0.057850361   -2.5195765   0.77221553   424551 
  869000     0.643077     -2.51982     -2.51982   -1.7484611  0.063036293     -2.51982   0.77135886   424551 
  870000   0.64278944   -2.5195211   -2.5195211   -1.7485071  0.061986721   -2.5195211   0.77101394   424551 
  871000   0.64376376   -2.5211203   -2.5211203   -1.7489376  0.060266538   -2.5211203   0.77218261   424551 
  872000   0.64349054        -2.52        -2.52   -1.7481451  0.057093281        -2.52   0.77185489   424551 
  873000    0.6428811   -2.5193345   -2.5193345   -1.7482106  0.069952465   -2.5193345   0.77112388   424551 
  874000   0.64375252   -2.5206147   -2.5206147   -1.7484456  0.060938155   -2.5206147   0.77216913   424551 
  875000   0.64378316   -2.5214226   -2.5214226   -1.7492167  0.061404108   -2.5214226   0.77220589   424551 
  876000   0.64319186   -2.5210952   -2.5210952   -1.7495985  0.062157152   -2.5210952   0.77149663   424551 
  877000   0.64301758   -2.5212493   -2.5212493   -1.7499617  0.067106945   -2.5212493   0.77128759   424551 
  878000   0.64441811   -2.5230006   -2.5230006   -1.7500331  0.053373741   -2.5230006   0.77296749   424551 
  879000   0.64460911    -2.523663    -2.523663   -1.7504664  0.067548055    -2.523663   0.77319659   424551 
  880000   0.64339227   -2.5222395   -2.5222395   -1.7505025  0.058114281   -2.5222395   0.77173702   424551 
  881000    0.6419337   -2.5219016   -2.5219016   -1.7519141  0.065424304   -2.5219016   0.76998749   424551 
  882000   0.64299381    -2.522356    -2.522356   -1.7510969  0.059754969    -2.522356   0.77125907   424551 
  883000   0.64320981   -2.5221977   -2.5221977   -1.7506796  0.046014511   -2.5221977   0.77151816   424551 
  884000   0.64320669   -2.5224484   -2.5224484    -1.750934  0.067025669   -2.5224484   0.77151442   424551 
  885000   0.64225084   -2.5214312   -2.5214312   -1.7510633  0.060024263   -2.5214312   0.77036789   424551 
  886000   0.64301351   -2.5217934   -2.5217934   -1.7505107  0.055191668   -2.5217934   0.77128271   424551 
  887000   0.64140761   -2.5204798   -2.5204798   -1.7511233  0.063591178   -2.5204798   0.76935646   424551 
  888000   0.64254915   -2.5215433   -2.5215433   -1.7508176  0.072194986   -2.5215433   0.77072571   424551 
  889000   0.64205268   -2.5203715   -2.5203715   -1.7502413  0.049583686   -2.5203715    0.7701302   424551 
  890000   0.64292603   -2.5206462   -2.5206462   -1.7494685  0.065489352   -2.5206462   0.77117778   424551 
  891000   0.64205957   -2.5208883   -2.5208883   -1.7507498  0.056538251   -2.5208883   0.77013847   424551 
  892000   0.64227925   -2.5206416   -2.5206416   -1.7502396  0.050681037   -2.5206416   0.77040198   424551 
  893000   0.64121601   -2.5190487   -2.5190487    -1.749922  0.066291764   -2.5190487   0.76912663   424551 
  894000   0.64233067   -2.5212909   -2.5212909   -1.7508273  0.052139831   -2.5212909   0.77046365   424551 
  895000   0.64372704   -2.5227914   -2.5227914   -1.7506529  0.060289396   -2.5227914   0.77213857   424551 
  896000   0.64259207   -2.5220998   -2.5220998   -1.7513226  0.058576608   -2.5220998   0.77077719   424551 
  897000   0.64343328   -2.5233639   -2.5233639   -1.7515777  0.068556272   -2.5233639   0.77178621   424551 
  898000   0.64374961   -2.5244689   -2.5244689   -1.7523032  0.069268706   -2.5244689   0.77216564   424551 
  899000   0.64260329   -2.5238729   -2.5238729   -1.7530822  0.049590076   -2.5238729   0.77079065   424551 
  900000   0.64237578   -2.5242224   -2.5242224   -1.7537046  0.059501561   -2.5242224   0.77051776   424551 
  901000    0.6428305   -2.5246062   -2.5246062    -1.753543  0.055487429   -2.5246062   0.77106318   424551 
  902000   0.64233784   -2.5240809   -2.5240809   -1.7536087  0.057662169   -2.5240809   0.77047225   424551 
  903000   0.64327657   -2.5256007   -2.5256007   -1.7540024  0.061974525   -2.5256007   0.77159824   424551 
  904000   0.64331585   -2.5264099   -2.5264099   -1.7547645  0.067608044   -2.5264099   0.77164536   424551 
  905000   0.64157598   -2.5246179   -2.5246179   -1.7550595  0.060508145   -2.5246179   0.76955841   424551 
  906000   0.64162473   -2.5242546   -2.5242546   -1.7546378  0.049726742   -2.5242546   0.76961688   424551 
  907000   0.64218561   -2.5255386   -2.5255386    -1.755249  0.057601988   -2.5255386   0.77028965   424551 
  908000   0.64156782   -2.5255308   -2.5255308   -1.7559821  0.066846452   -2.5255308   0.76954863   424551 
  909000   0.64052132    -2.524764    -2.524764   -1.7564706  0.068216471    -2.524764   0.76829337   424551 
  910000   0.64145379   -2.5258975   -2.5258975   -1.7564857  0.056313187   -2.5258975   0.76941185   424551 
  911000    0.6419892   -2.5262324   -2.5262324   -1.7561783  0.051471907   -2.5262324   0.77005406   424551 
  912000   0.64087204   -2.5248647   -2.5248647   -1.7561507  0.040721177   -2.5248647   0.76871405   424551 
  913000    0.6418946   -2.5255139   -2.5255139   -1.7555733  0.055938672   -2.5255139   0.76994059   424551 
  914000   0.64175159   -2.5257546   -2.5257546   -1.7559856   0.05717793   -2.5257546   0.76976906   424551 
  915000    0.6406694   -2.5248411   -2.5248411   -1.7563701  0.053915691   -2.5248411   0.76847099   424551 
  916000   0.64073808    -2.524895    -2.524895   -1.7563417  0.052188932    -2.524895   0.76855337   424551 
  917000   0.64090897   -2.5257433   -2.5257433    -1.756985  0.051220844   -2.5257433   0.76875835   424551 
  918000   0.64027478    -2.524928    -2.524928   -1.7569304  0.049604314    -2.524928   0.76799765   424551 
  919000   0.64216521   -2.5262065   -2.5262065   -1.7559413  0.071991255   -2.5262065   0.77026518   424551 
  920000     0.643239   -2.5268582   -2.5268582    -1.755305   0.07046841   -2.5268582   0.77155317   424551 
  921000   0.64180702   -2.5254115   -2.5254115   -1.7555759  0.060251281   -2.5254115   0.76983554   424551 
  922000    0.6410322   -2.5253082   -2.5253082    -1.756402  0.064175972   -2.5253082   0.76890616   424551 
  923000   0.64189665   -2.5270357   -2.5270357   -1.7570927  0.050934846   -2.5270357   0.76994305   424551 
  924000   0.64149363   -2.5267947   -2.5267947   -1.7573351  0.066008866   -2.5267947   0.76945963   424551 
  925000    0.6419753   -2.5283523   -2.5283523   -1.7583149  0.057132457   -2.5283523   0.77003739   424551 
  926000   0.64047187   -2.5280394   -2.5280394   -1.7598053  0.057742635   -2.5280394   0.76823405   424551 
  927000   0.64054922   -2.5276835   -2.5276835   -1.7593567  0.057325025   -2.5276835   0.76832683   424551 
  928000   0.64002806   -2.5267958   -2.5267958   -1.7590941  0.052814518   -2.5267958   0.76770171   424551 
  929000   0.64052662   -2.5274563   -2.5274563   -1.7591566  0.056079809   -2.5274563   0.76829972   424551 
  930000   0.64107032   -2.5284071   -2.5284071   -1.7594552  0.063052798   -2.5284071   0.76895188   424551 
  931000   0.64003873   -2.5277489   -2.5277489   -1.7600344  0.056702957   -2.5277489   0.76771451   424551 
  932000   0.64142382   -2.5294783   -2.5294783   -1.7601024  0.060787998   -2.5294783    0.7693759   424551 
  933000   0.64090077    -2.528596    -2.528596   -1.7598475  0.057276556    -2.528596   0.76874851   424551 
  934000   0.64175077   -2.5299985   -2.5299985   -1.7602304  0.068027684   -2.5299985   0.76976807   424551 
  935000    0.6408415   -2.5291851   -2.5291851   -1.7605076  0.059176041   -2.5291851   0.76867742   424551 
  936000   0.64121577   -2.5299027   -2.5299027   -1.7607764  0.059529549   -2.5299027   0.76912635   424551 
  937000   0.63982808   -2.5283878   -2.5283878    -1.760926  0.047348453   -2.5283878   0.76746183   424551 
  938000   0.64124079   -2.5298907   -2.5298907   -1.7607344  0.050835704   -2.5298907   0.76915636   424551 
  939000   0.64094337   -2.5286362   -2.5286362   -1.7598365  0.066138021   -2.5286362   0.76879961   424551 
  940000   0.64160413   -2.5302004   -2.5302004   -1.7606083  0.052162272   -2.5302004   0.76959217   424551 
  941000   0.64114115   -2.5300486   -2.5300486   -1.7610117  0.057862705   -2.5300486   0.76903685   424551 
  942000   0.64060597   -2.5305072   -2.5305072   -1.7621122  0.054229447   -2.5305072   0.76839491   424551 
  943000   0.64084775   -2.5310057   -2.5310057   -1.7623208  0.061734192   -2.5310057   0.76868492   424551 
  944000   0.64058915   -2.5310219   -2.5310219   -1.7626471  0.052251672   -2.5310219   0.76837473   424551 
  945000   0.64136133   -2.5320304   -2.5320304   -1.7627294  0.062941777   -2.5320304   0.76930094   424551 
  946000   0.64243749   -2.5325386   -2.5325386   -1.7619468  0.049306502   -2.5325386   0.77059178   424551 
  947000   0.64048944   -2.5319343   -2.5319343   -1.7636791  0.055855138   -2.5319343   0.76825513   424551 
  948000   0.64157873   -2.5326211   -2.5326211   -1.7630594  0.065674378   -2.5326211   0.76956171   424551 
  949000   0.64104822   -2.5318027   -2.5318027   -1.7628773  0.067482297   -2.5318027   0.76892537   424551 
  950000   0.64079059   -2.5317027   -2.5317027   -1.7630864  0.059682648   -2.5317027   0.76861636   424551 
  951000   0.64158265   -2.5331254   -2.5331254    -1.763559  0.064586379   -2.5331254   0.76956642   424551 
  952000   0.64132253   -2.5331466   -2.5331466   -1.7638922  0.052400554   -2.5331466   0.76925441   424551 
  953000   0.64083771   -2.5339519   -2.5339519   -1.7652791  0.056096124   -2.5339519   0.76867288   424551 
  954000   0.64047867   -2.5331591   -2.5331591   -1.7649169  0.068452911   -2.5331591   0.76824221   424551 
  955000   0.64029412   -2.5336032   -2.5336032   -1.7655823  0.060753928   -2.5336032   0.76802085   424551 
  956000   0.63904631   -2.5322707   -2.5322707   -1.7657466  0.060820508   -2.5322707   0.76652412   424551 
  957000   0.63956967   -2.5321181   -2.5321181   -1.7649662  0.054252783   -2.5321181   0.76715189   424551 
  958000   0.63976828   -2.5328427   -2.5328427   -1.7654526  0.063645664   -2.5328427   0.76739011   424551 
  959000   0.64073723   -2.5349016   -2.5349016   -1.7663493  0.057865906   -2.5349016   0.76855235   424551 
  960000   0.64022281   -2.5343391   -2.5343391   -1.7664037  0.060606988   -2.5343391   0.76793531   424551 
  961000   0.64115479    -2.534859    -2.534859   -1.7658058   0.05782299    -2.534859   0.76905321   424551 
  962000   0.64046587   -2.5345652   -2.5345652   -1.7663383   0.05262809   -2.5345652   0.76822686   424551 
  963000   0.64109848   -2.5357392   -2.5357392   -1.7667536  0.070212546   -2.5357392   0.76898566   424551 
  964000   0.64114933   -2.5366163   -2.5366163   -1.7675696  0.065585644   -2.5366163   0.76904665   424551 
  965000   0.64155499   -2.5370124   -2.5370124   -1.7674791  0.051538628   -2.5370124   0.76953324   424551 
  966000   0.64066043   -2.5361766   -2.5361766   -1.7677164   0.05620026   -2.5361766   0.76846022   424551 
  967000   0.63998793   -2.5362546   -2.5362546    -1.768601  0.047903258   -2.5362546   0.76765358   424551 
  968000   0.64067937   -2.5369827   -2.5369827   -1.7684997  0.061632308   -2.5369827   0.76848294   424551 
  969000   0.63953145   -2.5359773   -2.5359773   -1.7688713  0.049787029   -2.5359773   0.76710603   424551 
  970000   0.64069611   -2.5369826   -2.5369826   -1.7684796  0.064869542   -2.5369826   0.76850303   424551 
  971000    0.6399466   -2.5365453   -2.5365453   -1.7689413   0.05713541   -2.5365453   0.76760401   424551 
  972000      0.63993   -2.5371718   -2.5371718   -1.7695877  0.059698994   -2.5371718   0.76758409   424551 
  973000   0.64098237   -2.5385252   -2.5385252   -1.7696788  0.072370671   -2.5385252   0.76884639   424551 
  974000   0.64053757   -2.5386826   -2.5386826   -1.7703698  0.057137102   -2.5386826   0.76831286   424551 
  975000   0.64003443   -2.5383475   -2.5383475   -1.7706382  0.041393186   -2.5383475   0.76770935   424551 
  976000   0.63842858   -2.5372438   -2.5372438   -1.7714606   0.06470816   -2.5372438   0.76578317   424551 
  977000   0.64006816   -2.5381854   -2.5381854   -1.7704356  0.053927324   -2.5381854   0.76774981   424551 
  978000    0.6394418   -2.5385636   -2.5385636   -1.7715651   0.06577442   -2.5385636   0.76699851   424551 
  979000   0.63960219    -2.538315    -2.538315   -1.7711241  0.054004205    -2.538315   0.76719089   424551 
  980000   0.63845601   -2.5373081   -2.5373081   -1.7714921  0.063418446   -2.5373081   0.76581607   424551 
  981000    0.6377266   -2.5367444   -2.5367444   -1.7718032  0.053944465   -2.5367444   0.76494116   424551 
  982000   0.63821291   -2.5370575   -2.5370575    -1.771533  0.057930226   -2.5370575   0.76552447   424551 
  983000   0.63782864   -2.5366203   -2.5366203   -1.7715568  0.051332877   -2.5366203   0.76506355   424551 
  984000     0.638495   -2.5373279   -2.5373279   -1.7714651  0.054983627   -2.5373279   0.76586283   424551 
  985000   0.63804413   -2.5374494   -2.5374494   -1.7721274  0.063188845   -2.5374494   0.76532202   424551 
  986000   0.63817373   -2.5381955   -2.5381955    -1.772718  0.054991685   -2.5381955   0.76547747   424551 
  987000   0.63731968   -2.5377593   -2.5377593   -1.7733063  0.064244941   -2.5377593   0.76445306   424551 
  988000   0.63840949   -2.5390995   -2.5390995   -1.7733392  0.051933557   -2.5390995   0.76576027   424551 
  989000   0.63797145   -2.5398292   -2.5398292   -1.7745943  0.052341393   -2.5398292   0.76523484   424551 
  990000   0.63945976   -2.5409938   -2.5409938   -1.7739738  0.055604317   -2.5409938   0.76702004   424551 
  991000    0.6402501   -2.5420227   -2.5420227   -1.7740547  0.057160806   -2.5420227   0.76796805   424551 
  992000   0.63857885   -2.5401604   -2.5401604    -1.774197  0.057284977   -2.5401604   0.76596341   424551 
  993000   0.63962203   -2.5415538   -2.5415538   -1.7743391  0.057105439   -2.5415538   0.76721468   424551 
  994000   0.63931282   -2.5417724   -2.5417724   -1.7749286  0.056767864   -2.5417724    0.7668438   424551 
  995000   0.63910194   -2.5414664   -2.5414664   -1.7748755  0.062359842   -2.5414664   0.76659085   424551 
  996000   0.64006548   -2.5432769   -2.5432769   -1.7755303  0.056467076   -2.5432769   0.76774659   424551 
  997000   0.63958181   -2.5424842   -2.5424842   -1.7753177  0.063328031   -2.5424842   0.76716644   424551 
  998000   0.63818321   -2.5410854   -2.5410854   -1.7755966  0.065569134   -2.5410854   0.76548884   424551 
  999000    0.6380049   -2.5417889   -2.5417889   -1.7765139  0.064706804   -2.5417889   0.76527497   424551 
 1000000   0.63781613   -2.5427608   -2.5427608   -1.7777122  0.066436959   -2.5427608   0.76504854   424551 
 1001000   0.63735753   -2.5421242   -2.5421242   -1.7776258  0.048255209   -2.5421242   0.76449846   424551 
 1002000   0.63755641   -2.5424765   -2.5424765   -1.7777395  0.053174464   -2.5424765   0.76473701   424551 
 1003000   0.63773975   -2.5430913   -2.5430913   -1.7781344  0.050662106   -2.5430913   0.76495692   424551 
 1004000   0.63876514   -2.5441677   -2.5441677   -1.7779809  0.048706993   -2.5441677   0.76618686   424551 
 1005000   0.63810431   -2.5435072   -2.5435072    -1.778113  0.059844398   -2.5435072   0.76539421   424551 
 1006000   0.63796737   -2.5424042   -2.5424042   -1.7771742  0.061913965   -2.5424042   0.76522995   424551 
 1007000   0.63768192   -2.5421138   -2.5421138   -1.7772263  0.067961016   -2.5421138   0.76488755   424551 
 1008000   0.63937988   -2.5444063   -2.5444063   -1.7774821  0.064898372   -2.5444063   0.76692423   424551 
 1009000   0.63815856   -2.5429195   -2.5429195   -1.7774602  0.054203667   -2.5429195   0.76545929   424551 
 1010000   0.63854975   -2.5447057   -2.5447057   -1.7787772  0.064033634   -2.5447057   0.76592851   424551 
 1011000    0.6382437   -2.5447637   -2.5447637   -1.7792023  0.040649102   -2.5447637    0.7655614   424551 
 1012000   0.63915662   -2.5456777   -2.5456777   -1.7790213  0.050906731   -2.5456777   0.76665643   424551 
 1013000   0.63719421   -2.5444331   -2.5444331   -1.7801305  0.058503539   -2.5444331   0.76430256   424551 
 1014000   0.63779598   -2.5439432   -2.5439432   -1.7789188  0.056971172   -2.5439432   0.76502437   424551 
 1015000   0.63838395   -2.5444538   -2.5444538   -1.7787242  0.069635382   -2.5444538   0.76572963   424551 
 1016000   0.63927694   -2.5447291   -2.5447291   -1.7779284  0.061670853   -2.5447291   0.76680075   424551 
 1017000   0.63699979   -2.5432156   -2.5432156   -1.7791463  0.051200648   -2.5432156   0.76406935   424551 
 1018000   0.63731702   -2.5431067   -2.5431067   -1.7786568  0.058422457   -2.5431067   0.76444987   424551 
 1019000   0.63634574   -2.5432913   -2.5432913   -1.7800065  0.049644282   -2.5432913   0.76328483   424551 
 1020000   0.63684697   -2.5432968   -2.5432968   -1.7794108  0.047123838   -2.5432968   0.76388605   424551 
 1021000   0.63675179   -2.5426992   -2.5426992   -1.7789273   0.05326798   -2.5426992   0.76377188   424551 
 1022000   0.63756221    -2.544213    -2.544213    -1.779469  0.049902791    -2.544213   0.76474397   424551 
 1023000   0.63722211   -2.5433361   -2.5433361   -1.7790001  0.053502639   -2.5433361   0.76433602   424551 
 1024000   0.63757745   -2.5440469   -2.5440469   -1.7792846  0.060082149   -2.5440469   0.76476225   424551 
 1025000   0.63712727   -2.5448715   -2.5448715   -1.7806492  0.049782123   -2.5448715   0.76422227   424551 
 1026000    0.6369506   -2.5444646   -2.5444646   -1.7804542  0.055849531   -2.5444646   0.76401036   424551 
 1027000   0.63694292   -2.5439521   -2.5439521    -1.779951  0.065589055   -2.5439521   0.76400115   424551 
 1028000   0.63605876   -2.5433013   -2.5433013   -1.7803607  0.064275909   -2.5433013   0.76294061   424551 
 1029000   0.63758412   -2.5460321   -2.5460321   -1.7812619  0.073172054   -2.5460321   0.76477025   424551 
 1030000   0.63696044   -2.5455646   -2.5455646   -1.7815424  0.054266116   -2.5455646   0.76402216   424551 
 1031000    0.6363581   -2.5450047   -2.5450047   -1.7817051  0.063330012   -2.5450047   0.76329966   424551 
 1032000   0.63516968   -2.5452196   -2.5452196   -1.7833454  0.058003069   -2.5452196   0.76187417   424551 
 1033000   0.63613501   -2.5473343   -2.5473343   -1.7843022  0.069425517   -2.5473343   0.76303207   424551 
 1034000   0.63786179   -2.5487586   -2.5487586   -1.7836553   0.05144814   -2.5487586   0.76510331   424551 
 1035000   0.63609355   -2.5468871   -2.5468871   -1.7839047  0.048980839   -2.5468871   0.76298234   424551 
 1036000   0.63607023   -2.5469171   -2.5469171   -1.7839627  0.053324579   -2.5469171   0.76295437   424551 
 1037000   0.63650914   -2.5471859   -2.5471859   -1.7837051   0.05585859   -2.5471859   0.76348083   424551 
 1038000   0.63691084   -2.5480584   -2.5480584   -1.7840957  0.050340517   -2.5480584   0.76396266   424551 
 1039000    0.6365997    -2.548263    -2.548263   -1.7846736  0.051671704    -2.548263   0.76358945   424551 
 1040000   0.63670637   -2.5484271   -2.5484271   -1.7847097  0.055102129   -2.5484271   0.76371741   424551 
 1041000   0.63703323   -2.5489944   -2.5489944   -1.7848849  0.050404676   -2.5489944   0.76410947   424551 
 1042000   0.63616685   -2.5484385   -2.5484385   -1.7853683  0.063140626   -2.5484385   0.76307026   424551 
 1043000    0.6364946   -2.5495501   -2.5495501   -1.7860867   0.05361666   -2.5495501   0.76346339   424551 
 1044000    0.6372295   -2.5509596   -2.5509596   -1.7866147  0.066533767   -2.5509596   0.76434489   424551 
 1045000   0.63555177   -2.5489893   -2.5489893   -1.7866568  0.069016493   -2.5489893   0.76233248   424551 
 1046000   0.63656133   -2.5495438   -2.5495438   -1.7860003  0.058770406   -2.5495438   0.76354344   424551 
 1047000   0.63587835   -2.5490204   -2.5490204   -1.7862962  0.051020285   -2.5490204   0.76272422   424551 
 1048000   0.63680704   -2.5510337   -2.5510337   -1.7871955  0.053486934   -2.5510337   0.76383816   424551 
 1049000   0.63602383   -2.5502545   -2.5502545   -1.7873558  0.058000207   -2.5502545   0.76289871   424551 
 1050000   0.63619944   -2.5510702   -2.5510702   -1.7879608  0.048296475   -2.5510702   0.76310935   424551 
 1051000   0.63535463   -2.5493653   -2.5493653   -1.7872692  0.056229496   -2.5493653   0.76209602   424551 
 1052000    0.6363922   -2.5515316   -2.5515316   -1.7881911  0.051261676   -2.5515316   0.76334056   424551 
 1053000   0.63531638   -2.5502015   -2.5502015   -1.7881514  0.051186782   -2.5502015   0.76205014   424551 
 1054000   0.63669758   -2.5520106   -2.5520106   -1.7883038   0.05175474   -2.5520106   0.76370687   424551 
 1055000   0.63606522   -2.5521852   -2.5521852   -1.7892369  0.056181866   -2.5521852   0.76294836   424551 
 1056000   0.63580457   -2.5517742   -2.5517742   -1.7891385  0.055794715   -2.5517742   0.76263572   424551 
 1057000   0.63653202   -2.5534991   -2.5534991   -1.7899909  0.054538861   -2.5534991   0.76350828   424551 
 1058000   0.63662206   -2.5534222   -2.5534222   -1.7898059  0.051505902   -2.5534222   0.76361627   424551 
 1059000   0.63553773   -2.5523496   -2.5523496   -1.7900339  0.061368224   -2.5523496   0.76231564   424551 
 1060000   0.63704428     -2.55394     -2.55394   -1.7898173  0.056286044     -2.55394   0.76412273   424551 
 1061000   0.63646468   -2.5532171   -2.5532171   -1.7897896  0.052138366   -2.5532171    0.7634275   424551 
 1062000   0.63621314   -2.5524588   -2.5524588    -1.789333  0.052239619   -2.5524588   0.76312579   424551 
 1063000   0.63733106    -2.553722    -2.553722   -1.7892553  0.047278303    -2.553722   0.76446671   424551 
 1064000   0.63515236   -2.5519718   -2.5519718   -1.7901184  0.057178057   -2.5519718    0.7618534   424551 
 1065000   0.63633369   -2.5523249   -2.5523249   -1.7890546  0.059797717   -2.5523249   0.76327038   424551 
 1066000    0.6349042   -2.5508713   -2.5508713   -1.7893156   0.05316441   -2.5508713   0.76155573   424551 
 1067000    0.6352121   -2.5518022   -2.5518022   -1.7898771  0.052055458   -2.5518022   0.76192506   424551 
 1068000   0.63537248   -2.5520819   -2.5520819   -1.7899645  0.047217318   -2.5520819   0.76211744   424551 
 1069000    0.6355705   -2.5517842   -2.5517842   -1.7894293  0.049309263   -2.5517842   0.76235496   424551 
 1070000   0.63541324   -2.5520013   -2.5520013    -1.789835  0.049025339   -2.5520013   0.76216633   424551 
 1071000   0.63572267   -2.5521599   -2.5521599   -1.7896224  0.056783044   -2.5521599   0.76253748   424551 
 1072000   0.63554254   -2.5528208   -2.5528208   -1.7904994   0.05891973   -2.5528208   0.76232141   424551 
 1073000   0.63499588   -2.5523015   -2.5523015   -1.7906357  0.050721433   -2.5523015   0.76166571   424551 
 1074000   0.63537156   -2.5531898   -2.5531898   -1.7910734  0.054318804   -2.5531898   0.76211633   424551 
 1075000   0.63548289   -2.5538767   -2.5538767   -1.7916269  0.051837013   -2.5538767   0.76224986   424551 
 1076000   0.63450302   -2.5535866   -2.5535866    -1.792512  0.051891398   -2.5535866   0.76107453   424551 
 1077000   0.63470901   -2.5544437   -2.5544437   -1.7931221  0.048673248   -2.5544437   0.76132161   424551 
 1078000   0.63481157   -2.5537845   -2.5537845   -1.7923398  0.053559421   -2.5537845   0.76144463   424551 
 1079000   0.63609722    -2.555309    -2.555309   -1.7923222  0.067289506    -2.555309   0.76298674   424551 
 1080000   0.63531836    -2.555103    -2.555103   -1.7930505  0.052361267    -2.555103   0.76205252   424551 
 1081000   0.63408159   -2.5538621   -2.5538621    -1.793293  0.055504914   -2.5538621   0.76056903   424551 
 1082000   0.63601445   -2.5572158   -2.5572158   -1.7943283  0.060184139   -2.5572158   0.76288747   424551 
 1083000   0.63492612   -2.5564625   -2.5564625   -1.7948805   0.04881935   -2.5564625   0.76158203   424551 
 1084000   0.63470331   -2.5571568   -2.5571568   -1.7958421  0.059606102   -2.5571568   0.76131477   424551 
 1085000   0.63402067    -2.555977    -2.555977   -1.7954811  0.053332413    -2.555977   0.76049596   424551 
 1086000    0.6335835   -2.5549322   -2.5549322   -1.7949606  0.069187144   -2.5549322   0.75997158   424551 
 1087000   0.63473848   -2.5564744   -2.5564744   -1.7951174  0.050527615   -2.5564744   0.76135696   424551 
 1088000   0.63413805   -2.5557471   -2.5557471   -1.7951104  0.057751745   -2.5557471   0.76063676   424551 
 1089000   0.63439193    -2.555911    -2.555911   -1.7949697   0.05986925    -2.555911   0.76094128   424551 
 1090000   0.63500731   -2.5579159   -2.5579159   -1.7962365  0.044740078   -2.5579159   0.76167941   424551 
 1091000   0.63274504   -2.5549106   -2.5549106   -1.7959447  0.054266417   -2.5549106   0.75896587   424551 
 1092000   0.63474934   -2.5571916   -2.5571916   -1.7958217  0.059850502   -2.5571916   0.76136999   424551 
 1093000   0.63423778   -2.5562678   -2.5562678   -1.7955114  0.061032479   -2.5562678   0.76075638   424551 
 1094000    0.6349129   -2.5574801   -2.5574801   -1.7959139  0.050324668   -2.5574801   0.76156617   424551 
 1095000    0.6343408   -2.5564176   -2.5564176   -1.7955376  0.063610821   -2.5564176   0.76087995   424551 
 1096000   0.63609334   -2.5586939   -2.5586939   -1.7957118  0.066583173   -2.5586939   0.76298209   424551 
 1097000   0.63495092    -2.557565    -2.557565   -1.7959533  0.044131881    -2.557565   0.76161178   424551 
 1098000   0.63300456   -2.5564977   -2.5564977   -1.7972206  0.056248053   -2.5564977   0.75927715   424551 
 1099000   0.63487788   -2.5576534   -2.5576534   -1.7961292   0.05116285   -2.5576534   0.76152417   424551 
 1100000   0.63476935   -2.5574447   -2.5574447   -1.7960508   0.05388679   -2.5574447   0.76139399   424551 
 1101000   0.63568207   -2.5587778   -2.5587778    -1.796289   0.05640443   -2.5587778   0.76248878   424551 
 1102000   0.63532912   -2.5588708   -2.5588708   -1.7968054  0.056568958   -2.5588708   0.76206542   424551 
 1103000   0.63432045   -2.5583327   -2.5583327   -1.7974771  0.055158831   -2.5583327   0.76085553   424551 
 1104000   0.63463763   -2.5583667   -2.5583667   -1.7971307  0.053358215   -2.5583667   0.76123599   424551 
 1105000   0.63331679   -2.5575634   -2.5575634   -1.7979118  0.049216818   -2.5575634   0.75965167   424551 
 1106000   0.63519495   -2.5608389   -2.5608389   -1.7989344  0.049497357   -2.5608389   0.76190449   424551 
 1107000   0.63603017   -2.5616646   -2.5616646   -1.7987583  0.060541823   -2.5616646   0.76290632   424551 
 1108000   0.63523665   -2.5607772   -2.5607772   -1.7988227  0.061540905   -2.5607772    0.7619545   424551 
 1109000   0.63481745   -2.5600769   -2.5600769   -1.7986252  0.060554161   -2.5600769   0.76145168   424551 
 1110000   0.63517698   -2.5608498   -2.5608498   -1.7989668  0.056608134   -2.5608498   0.76188293   424551 
 1111000   0.63417099   -2.5598475   -2.5598475   -1.7991713  0.050890531   -2.5598475   0.76067627   424551 
 1112000    0.6350903   -2.5613769   -2.5613769    -1.799598  0.055584353   -2.5613769   0.76177896   424551 
 1113000   0.63425036   -2.5605986   -2.5605986   -1.7998271  0.061677752   -2.5605986   0.76077147   424551 
 1114000   0.63518465   -2.5621093   -2.5621093   -1.8002172  0.054996705   -2.5621093   0.76189213   424551 
 1115000   0.63326272   -2.5599515   -2.5599515   -1.8003647  0.066094402   -2.5599515   0.75958681   424551 
 1116000   0.63330809   -2.5591665   -2.5591665   -1.7995252  0.051444961   -2.5591665   0.75964123   424551 
 1117000   0.63487367    -2.561262    -2.561262   -1.7997429  0.054794533    -2.561262   0.76151911   424551 
 1118000   0.63330045   -2.5590885   -2.5590885   -1.7994564  0.063868728   -2.5590885   0.75963206   424551 
 1119000   0.63448905   -2.5609721   -2.5609721   -1.7999144  0.047329995   -2.5609721   0.76105777   424551 
 1120000   0.63318989   -2.5597615   -2.5597615   -1.8002621  0.048958858   -2.5597615   0.75949945   424551 
 1121000    0.6337671   -2.5615636   -2.5615636   -1.8013718  0.049511692   -2.5615636   0.76019181   424551 
 1122000   0.63411478   -2.5615446   -2.5615446   -1.8009357  0.065447477   -2.5615446   0.76060884   424551 
 1123000   0.63360511   -2.5620763   -2.5620763   -1.8020788  0.053165696   -2.5620763    0.7599975   424551 
 1124000   0.63342875   -2.5619365   -2.5619365   -1.8021506  0.045302927   -2.5619365   0.75978596   424551 
 1125000   0.63300316   -2.5611787   -2.5611787   -1.8019032  0.047550424   -2.5611787   0.75927548   424551 
 1126000   0.63402406   -2.5625222   -2.5625222   -1.8020222  0.057528015   -2.5625222   0.76050003   424551 
 1127000    0.6338681   -2.5612897   -2.5612897   -1.8009768  0.052765416   -2.5612897   0.76031295   424551 
 1128000   0.63400763   -2.5610769   -2.5610769   -1.8005966  0.055936907   -2.5610769   0.76048031   424551 
 1129000   0.63378949   -2.5612712   -2.5612712   -1.8010525  0.058281952   -2.5612712   0.76021867   424551 
 1130000   0.63425052   -2.5616911   -2.5616911   -1.8009195  0.057019023   -2.5616911   0.76077166   424551 
 1131000   0.63324411   -2.5604445   -2.5604445     -1.80088  0.065331317   -2.5604445   0.75956449   424551 
 1132000   0.63476982   -2.5629598   -2.5629598   -1.8015653  0.061259369   -2.5629598   0.76139455   424551 
 1133000   0.63391889   -2.5617864   -2.5617864   -1.8014125  0.061004301   -2.5617864   0.76037388   424551 
 1134000   0.63358745   -2.5621591   -2.5621591   -1.8021827  0.064858899   -2.5621591   0.75997632   424551 
 1135000   0.63289195   -2.5619632   -2.5619632   -1.8028211  0.054939659   -2.5619632   0.75914208   424551 
 1136000   0.63327622   -2.5620606   -2.5620606   -1.8024576  0.053951557   -2.5620606   0.75960301   424551 
 1137000   0.63428145   -2.5632878   -2.5632878    -1.802479  0.049615659   -2.5632878   0.76080876   424551 
 1138000   0.63386907   -2.5625979   -2.5625979   -1.8022838  0.048188696   -2.5625979   0.76031412   424551 
 1139000   0.63198281   -2.5607929   -2.5607929   -1.8027413  0.060002626   -2.5607929   0.75805159   424551 
 1140000   0.63383032   -2.5634377   -2.5634377     -1.80317  0.049824586   -2.5634377   0.76026764   424551 
 1141000   0.63292898   -2.5624966   -2.5624966   -1.8033101  0.057125145   -2.5624966    0.7591865   424551 
 1142000    0.6317919   -2.5621523   -2.5621523   -1.8043297  0.058786772   -2.5621523   0.75782259   424551 
 1143000   0.63371676   -2.5640161   -2.5640161   -1.8038846  0.055310734   -2.5640161   0.76013142   424551 
 1144000   0.63350032   -2.5635025   -2.5635025   -1.8036307  0.050320722   -2.5635025   0.75987181   424551 
 1145000   0.63347701   -2.5641078   -2.5641078    -1.804264  0.062024007   -2.5641078   0.75984385   424551 
 1146000   0.63333099   -2.5649357   -2.5649357    -1.805267  0.053159476   -2.5649357    0.7596687   424551 
 1147000   0.63296167   -2.5639266   -2.5639266   -1.8047009  0.063657213   -2.5639266   0.75922571   424551 
 1148000   0.63405836   -2.5650684   -2.5650684   -1.8045272  0.045107748   -2.5650684   0.76054117   424551 
 1149000   0.63321561    -2.565499    -2.565499   -1.8059687  0.039435051    -2.565499    0.7595303   424551 
 1150000    0.6340888   -2.5666352   -2.5666352   -1.8060575  0.066705145   -2.5666352   0.76057768   424551 
 1151000   0.63339043   -2.5656992   -2.5656992   -1.8059592  0.067487105   -2.5656992      0.75974   424551 
 1152000   0.63416582    -2.566833    -2.566833   -1.8061629  0.059723972    -2.566833   0.76067007   424551 
 1153000   0.63393893   -2.5672597   -2.5672597   -1.8068618  0.054525416   -2.5672597   0.76039792   424551 
 1154000   0.63401975   -2.5671356   -2.5671356   -1.8066407  0.063345247   -2.5671356   0.76049486   424551 
 1155000   0.63249576   -2.5661282   -2.5661282   -1.8074613  0.045811128   -2.5661282   0.75866686   424551 
 1156000   0.63329378    -2.567353    -2.567353   -1.8077289  0.058699583    -2.567353   0.75962407   424551 
 1157000   0.63209169   -2.5662018   -2.5662018   -1.8080196  0.054417764   -2.5662018   0.75818219   424551 
 1158000    0.6323117   -2.5657394   -2.5657394   -1.8072933   0.05428004   -2.5657394   0.75844608   424551 
 1159000   0.63274874   -2.5667683   -2.5667683    -1.807798  0.059987341   -2.5667683   0.75897031   424551 
 1160000    0.6319526   -2.5653658   -2.5653658   -1.8073505  0.054296899   -2.5653658   0.75801534   424551 
 1161000    0.6341335   -2.5672666   -2.5672666   -1.8066353  0.058654425   -2.5672666    0.7606313   424551 
 1162000   0.63396736   -2.5668695   -2.5668695   -1.8064375  0.066191426   -2.5668695   0.76043201   424551 
 1163000   0.63271621   -2.5662057   -2.5662057   -1.8072744  0.055737844   -2.5662057   0.75893128   424551 
 1164000   0.63165104   -2.5641459   -2.5641459   -1.8064922  0.059533874   -2.5641459   0.75765363   424551 
 1165000   0.63220106   -2.5646229   -2.5646229   -1.8063095  0.050527342   -2.5646229   0.75831337   424551 
 1166000   0.63198323    -2.565156    -2.565156   -1.8071039  0.057856821    -2.565156   0.75805209   424551 
 1167000   0.63246363   -2.5654257   -2.5654257   -1.8067974   0.04917276   -2.5654257   0.75862831   424551 
 1168000   0.63125225    -2.564709    -2.564709   -1.8075337  0.056453911    -2.564709   0.75717529   424551 
 1169000   0.63352592   -2.5676857   -2.5676857   -1.8077832  0.043674729   -2.5676857   0.75990251   424551 
 1170000   0.63211988   -2.5664716   -2.5664716   -1.8082556  0.052502824   -2.5664716     0.758216   424551 
 1171000   0.63206989   -2.5670273   -2.5670273   -1.8088713  0.048169035   -2.5670273   0.75815604   424551 
 1172000   0.63103211   -2.5657969   -2.5657969   -1.8088857  0.050419164   -2.5657969   0.75691124   424551 
 1173000   0.63195089   -2.5665881   -2.5665881   -1.8085748  0.050247432   -2.5665881    0.7580133   424551 
 1174000   0.63252407   -2.5672208   -2.5672208     -1.80852  0.057482797   -2.5672208   0.75870081   424551 
 1175000   0.63229794   -2.5673428   -2.5673428   -1.8089132  0.060867889   -2.5673428   0.75842958   424551 
 1176000   0.63170514   -2.5676798   -2.5676798   -1.8099612  0.046707799   -2.5676798   0.75771853   424551 
 1177000   0.63248382   -2.5691361   -2.5691361   -1.8104835  0.052252105   -2.5691361   0.75865254   424551 
 1178000   0.63237265   -2.5686245   -2.5686245   -1.8101053  0.053006041   -2.5686245    0.7585192   424551 
 1179000   0.63299893   -2.5689734   -2.5689734    -1.809703  0.057686661   -2.5689734   0.75927041   424551 
 1180000   0.63263681   -2.5685432   -2.5685432   -1.8097072  0.061765687   -2.5685432   0.75883605   424551 
 1181000    0.6326113   -2.5696516   -2.5696516   -1.8108461  0.060433515   -2.5696516   0.75880545   424551 
 1182000   0.63352624   -2.5715203   -2.5715203   -1.8116174  0.049737003   -2.5715203    0.7599029   424551 
 1183000    0.6332232   -2.5713547   -2.5713547   -1.8118153  0.051088322   -2.5713547   0.75953941   424551 
 1184000   0.63152256   -2.5694398   -2.5694398   -1.8119402  0.048195537   -2.5694398   0.75749953   424551 
 1185000   0.63219773   -2.5702528   -2.5702528   -1.8119434  0.055986632   -2.5702528   0.75830938   424551 
 1186000   0.63264809   -2.5715089   -2.5715089   -1.8126594   0.05730409   -2.5715089   0.75884958   424551 
 1187000   0.63192992   -2.5705064   -2.5705064   -1.8125183  0.057317559   -2.5705064   0.75798814   424551 
 1188000   0.63256531   -2.5707605   -2.5707605   -1.8120102  0.044851565   -2.5707605   0.75875028   424551 
 1189000    0.6331517   -2.5718364   -2.5718364   -1.8123828  0.052033616   -2.5718364   0.75945365   424551 
 1190000   0.63161785   -2.5706336   -2.5706336   -1.8130198  0.064383176   -2.5706336   0.75761383   424551 
 1191000   0.63202514   -2.5718726   -2.5718726   -1.8137702  0.056599667   -2.5718726   0.75810236   424551 
 1192000   0.63144336   -2.5714626   -2.5714626   -1.8140581  0.044262384   -2.5714626   0.75740452   424551 
 1193000   0.63121466   -2.5708633   -2.5708633    -1.813733  0.047785942   -2.5708633   0.75713021   424551 
 1194000   0.63228494   -2.5719448   -2.5719448   -1.8135308  0.058148641   -2.5719448   0.75841399   424551 
 1195000   0.63285142   -2.5723342   -2.5723342   -1.8132407  0.059743218   -2.5723342   0.75909346   424551 
 1196000   0.63231093   -2.5720284   -2.5720284   -1.8135832  0.050808643   -2.5720284   0.75844516   424551 
 1197000   0.63132322    -2.570953    -2.570953   -1.8136926  0.060167871    -2.570953   0.75726042   424551 
 1198000     0.632268   -2.5713882   -2.5713882   -1.8129945  0.052334341   -2.5713882   0.75839367   424551 
 1199000   0.63195648    -2.570998    -2.570998    -1.812978  0.038455765    -2.570998      0.75802   424551 
 1200000   0.63171684   -2.5710272   -2.5710272   -1.8132946  0.049606341   -2.5710272   0.75773256   424551 
 1201000   0.63188235   -2.5711552   -2.5711552   -1.8132242  0.047472478   -2.5711552   0.75793108   424551 
 1202000   0.63204417   -2.5709816   -2.5709816   -1.8128564  0.052129969   -2.5709816   0.75812518   424551 
 1203000   0.63357867   -2.5728845   -2.5728845   -1.8129187  0.050986709   -2.5728845   0.75996579   424551 
 1204000   0.63141424   -2.5704619   -2.5704619   -1.8130923  0.069008318   -2.5704619    0.7573696   424551 
 1205000   0.63159189   -2.5717662   -2.5717662   -1.8141835  0.055161873   -2.5717662   0.75758269   424551 
 1206000   0.63136038   -2.5719634   -2.5719634   -1.8146584  0.048271358   -2.5719634   0.75730499   424551 
 1207000   0.63122685   -2.5714068   -2.5714068   -1.8142619  0.044746957   -2.5714068   0.75714483   424551 
 1208000   0.63203635   -2.5725817   -2.5725817   -1.8144659  0.058943353   -2.5725817   0.75811581   424551 
 1209000   0.63272772   -2.5743422   -2.5743422   -1.8153971  0.052397318   -2.5743422   0.75894509   424551 
 1210000   0.63077908   -2.5724074   -2.5724074   -1.8157997   0.05087641   -2.5724074   0.75660773   424551 
 1211000   0.63101413   -2.5732719   -2.5732719   -1.8163822  0.059031516   -2.5732719   0.75688967   424551 
 1212000   0.63182078   -2.5743141   -2.5743141   -1.8164569  0.043061641   -2.5743141   0.75785723   424551 
 1213000    0.6315376   -2.5733822   -2.5733822   -1.8158647  0.051994663   -2.5733822   0.75751757   424551 
 1214000   0.63132041   -2.5731449   -2.5731449   -1.8158879  0.065524686   -2.5731449   0.75725705   424551 
 1215000   0.63138305   -2.5729268   -2.5729268   -1.8155946  0.063142411   -2.5729268   0.75733218   424551 
 1216000   0.63115511   -2.5734693   -2.5734693   -1.8164106  0.044845017   -2.5734693   0.75705878   424551 
 1217000   0.63147582   -2.5743256   -2.5743256   -1.8168821  0.055329167   -2.5743256   0.75744346   424551 
 1218000   0.63040105   -2.5736084   -2.5736084   -1.8174542  0.040139694   -2.5736084   0.75615429   424551 
 1219000   0.63124013   -2.5753016   -2.5753016   -1.8181408  0.051282653   -2.5753016   0.75716076   424551 
 1220000   0.62939413   -2.5741642   -2.5741642   -1.8192177  0.058844475   -2.5741642   0.75494651   424551 
 1221000   0.63008469    -2.574814    -2.574814   -1.8190392  0.050805624    -2.574814   0.75577483   424551 
 1222000   0.63041933   -2.5752997   -2.5752997   -1.8191235  0.054573494   -2.5752997   0.75617622   424551 
 1223000   0.62990344   -2.5746389   -2.5746389   -1.8190815  0.053620958   -2.5746389   0.75555742   424551 
 1224000   0.63153073   -2.5771041   -2.5771041   -1.8195947  0.049155748   -2.5771041   0.75750932   424551 
 1225000   0.63172653   -2.5776691   -2.5776691    -1.819925  0.040030802   -2.5776691   0.75774418   424551 
 1226000   0.63144895   -2.5773939   -2.5773939   -1.8199827  0.053690176   -2.5773939   0.75741122   424551 
 1227000   0.63101013   -2.5762481   -2.5762481   -1.8193633  0.061408425   -2.5762481   0.75688487   424551 
 1228000    0.6310528   -2.5774031   -2.5774031   -1.8204671  0.059220111   -2.5774031   0.75693605   424551 
 1229000   0.63049155    -2.576936    -2.576936   -1.8206732   0.04970893    -2.576936   0.75626284   424551 
 1230000   0.63110251   -2.5773612   -2.5773612   -1.8203655  0.059848478   -2.5773612   0.75699568   424551 
 1231000   0.63189752   -2.5781987   -2.5781987   -1.8202495  0.047494213   -2.5781987   0.75794928   424551 
 1232000   0.63152329   -2.5777316   -2.5777316   -1.8202312  0.056182472   -2.5777316   0.75750039   424551 
 1233000   0.63091745   -2.5767422   -2.5767422   -1.8199685  0.052834264   -2.5767422   0.75677371   424551 
 1234000   0.63020706   -2.5766753   -2.5766753   -1.8207537  0.051632023   -2.5766753   0.75592161   424551 
 1235000   0.63085652   -2.5777744   -2.5777744   -1.8210738  0.057405901   -2.5777744   0.75670063   424551 
 1236000      0.62992   -2.5773332   -2.5773332   -1.8217559  0.059373883   -2.5773332   0.75557729   424551 
 1237000   0.63064507   -2.5781438   -2.5781438   -1.8216968  0.054832063   -2.5781438   0.75644699   424551 
 1238000   0.63027592   -2.5782455   -2.5782455   -1.8222413  0.050306035   -2.5782455   0.75600421   424551 
 1239000   0.62916884   -2.5773633   -2.5773633   -1.8226871  0.052864926   -2.5773633   0.75467627   424551 
 1240000   0.63103256   -2.5791394   -2.5791394   -1.8222276  0.039730729   -2.5791394   0.75691178   424551 
 1241000   0.63040875    -2.578774    -2.578774   -1.8226105   0.04347239    -2.578774   0.75616353   424551 
 1242000   0.63213033   -2.5807264   -2.5807264   -1.8224979  0.053473428   -2.5807264   0.75822853   424551 
 1243000   0.62993076   -2.5781596   -2.5781596   -1.8225695   0.05389968   -2.5781596   0.75559019   424551 
 1244000   0.63033974   -2.5790931   -2.5790931   -1.8230123  0.057084037   -2.5790931   0.75608076   424551 
 1245000   0.63084148   -2.5799755   -2.5799755    -1.823293  0.051660653   -2.5799755   0.75668259   424551 
 1246000   0.63028463   -2.5799959   -2.5799959   -1.8239813   0.04313971   -2.5799959   0.75601464   424551 
 1247000   0.63057278   -2.5804318   -2.5804318   -1.8240716  0.062154442   -2.5804318   0.75636027   424551 
 1248000   0.62985733   -2.5800142   -2.5800142   -1.8245121  0.054341943   -2.5800142   0.75550212   424551 
 1249000   0.62949794   -2.5793041   -2.5793041    -1.824233  0.057773412   -2.5793041   0.75507103   424551 
 1250000   0.62932962   -2.5791137   -2.5791137   -1.8242446  0.050919202   -2.5791137   0.75486913   424551 
 1251000   0.62942254   -2.5796464   -2.5796464   -1.8246658  0.050471014   -2.5796464   0.75498058   424551 
 1252000   0.62965958    -2.579703    -2.579703   -1.8244381  0.052553942    -2.579703   0.75526492   424551 
 1253000   0.62993053   -2.5795522   -2.5795522   -1.8239623  0.050375603   -2.5795522   0.75558991   424551 
 1254000   0.62970856   -2.5789525   -2.5789525   -1.8236289     0.054036   -2.5789525   0.75532366   424551 
 1255000   0.63186884   -2.5809916   -2.5809916   -1.8230767  0.046765116   -2.5809916   0.75791488   424551 
 1256000   0.63034937   -2.5797606   -2.5797606   -1.8236683  0.054474282   -2.5797606    0.7560923   424551 
 1257000   0.62958825   -2.5787241   -2.5787241   -1.8235447  0.054685858   -2.5787241   0.75517935   424551 
 1258000   0.63046751   -2.5801175   -2.5801175   -1.8238835  0.050728839   -2.5801175   0.75623401   424551 
 1259000   0.63100751   -2.5806967   -2.5806967   -1.8238149  0.045624466   -2.5806967   0.75688173   424551 
 1260000   0.63030693   -2.5803113   -2.5803113   -1.8242699  0.044263447   -2.5803113    0.7560414   424551 
 1261000   0.62901525   -2.5793283   -2.5793283   -1.8248363   0.05995453   -2.5793283   0.75449205   424551 
 1262000   0.62923847   -2.5800828   -2.5800828    -1.825323  0.045437863   -2.5800828    0.7547598   424551 
 1263000   0.62920528   -2.5804485   -2.5804485   -1.8257285  0.050613312   -2.5804485   0.75471999   424551 
 1264000   0.62786928   -2.5780376   -2.5780376   -1.8249201  0.044072925   -2.5780376   0.75311748   424551 
 1265000   0.62864278   -2.5785596   -2.5785596   -1.8245143   0.05321357   -2.5785596   0.75404528   424551 
 1266000   0.62859531   -2.5784327   -2.5784327   -1.8244443  0.051686346   -2.5784327   0.75398834   424551 
 1267000   0.62892363   -2.5798343   -2.5798343   -1.8254521   0.05600761   -2.5798343   0.75438216   424551 
 1268000   0.62976166   -2.5803163   -2.5803163   -1.8249289  0.060873844   -2.5803163   0.75538735   424551 
 1269000     0.629143   -2.5805601   -2.5805601   -1.8259148  0.046282462   -2.5805601   0.75464528   424551 
 1270000   0.62927607   -2.5802708   -2.5802708   -1.8254659  0.048154549   -2.5802708    0.7548049   424551 
 1271000   0.62921259   -2.5806796   -2.5806796   -1.8259508  0.058235723   -2.5806796   0.75472876   424551 
 1272000   0.63052716   -2.5822294   -2.5822294   -1.8259239   0.05079875   -2.5822294   0.75630556   424551 
 1273000   0.62947896    -2.580918    -2.580918   -1.8258697  0.049401205    -2.580918   0.75504826   424551 
 1274000   0.62921226    -2.581075    -2.581075   -1.8263467  0.058571688    -2.581075   0.75472837   424551 
 1275000   0.63029981   -2.5830207   -2.5830207   -1.8269878  0.049135062   -2.5830207   0.75603285   424551 
 1276000   0.63039121   -2.5834746   -2.5834746   -1.8273321   0.05289558   -2.5834746   0.75614249   424551 
 1277000   0.62934183   -2.5823102   -2.5823102   -1.8274264  0.057885981   -2.5823102   0.75488378   424551 
 1278000   0.63017545   -2.5832667   -2.5832667    -1.827383   0.06095051   -2.5832667   0.75588369   424551 
 1279000   0.62966153     -2.58223     -2.58223   -1.8269628  0.046619454     -2.58223   0.75526725   424551 
 1280000   0.62899063   -2.5822401   -2.5822401   -1.8277776  0.041372672   -2.5822401   0.75446251   424551 
 1281000   0.62987018   -2.5833381   -2.5833381   -1.8278206  0.056422923   -2.5833381   0.75551753   424551 
 1282000   0.62758452   -2.5810319   -2.5810319    -1.828256  0.054257312   -2.5810319   0.75277591   424551 
 1283000   0.62971279    -2.582802    -2.582802   -1.8274732  0.045564706    -2.582802   0.75532873   424551 
 1284000   0.62959198   -2.5824106   -2.5824106   -1.8272268  0.051067992   -2.5824106   0.75518382   424551 
 1285000    0.6287831   -2.5825301   -2.5825301   -1.8283166  0.050373635   -2.5825301   0.75421359   424551 
 1286000   0.62905863   -2.5826925   -2.5826925   -1.8281484  0.052940295   -2.5826925   0.75454408   424551 
 1287000   0.62920012   -2.5834277   -2.5834277   -1.8287139  0.064427435   -2.5834277    0.7547138   424551 
 1288000   0.62873557   -2.5828111   -2.5828111   -1.8286545  0.046780407   -2.5828111   0.75415658   424551 
 1289000    0.6287607   -2.5825956   -2.5825956   -1.8284089  0.058468609   -2.5825956   0.75418672   424551 
 1290000   0.62858564   -2.5827727   -2.5827727    -1.828796  0.055077927   -2.5827727   0.75397674   424551 
 1291000   0.62946504   -2.5835137   -2.5835137   -1.8284822  0.052735556   -2.5835137   0.75503157   424551 
 1292000   0.62946845   -2.5834269   -2.5834269   -1.8283913  0.043208712   -2.5834269   0.75503566   424551 
 1293000   0.62907296   -2.5835773   -2.5835773   -1.8290161  0.044115118   -2.5835773   0.75456127   424551 
 1294000   0.62921503   -2.5843691   -2.5843691   -1.8296374  0.060379879   -2.5843691   0.75473168   424551 
 1295000    0.6296565   -2.5854258   -2.5854258   -1.8301646  0.046740346   -2.5854258   0.75526122   424551 
 1296000   0.62791196    -2.584627    -2.584627   -1.8314584  0.048258934    -2.584627   0.75316868   424551 
 1297000   0.62839005   -2.5839487   -2.5839487   -1.8302065   0.05714765   -2.5839487   0.75374214   424551 
 1298000   0.62884215   -2.5853612   -2.5853612   -1.8310767  0.053633129   -2.5853612   0.75428442   424551 
 1299000   0.62728949   -2.5834184   -2.5834184   -1.8309963   0.06205157   -2.5834184   0.75242204   424551 
 1300000   0.62801639   -2.5849948   -2.5849948   -1.8317008  0.048852918   -2.5849948   0.75329394   424551 
 1301000   0.62889732   -2.5848715   -2.5848715   -1.8305209  0.054555404   -2.5848715    0.7543506   424551 
 1302000   0.63027475   -2.5867579   -2.5867579   -1.8307551  0.049775052   -2.5867579   0.75600279   424551 
 1303000    0.6301572   -2.5862606   -2.5862606   -1.8303988  0.047041444   -2.5862606    0.7558618   424551 
 1304000    0.6298487   -2.5862092   -2.5862092   -1.8307174  0.046899565   -2.5862092   0.75549176   424551 
 1305000       0.6297    -2.585752    -2.585752   -1.8304386  0.041056449    -2.585752   0.75531339   424551 
 1306000   0.62897413    -2.585249    -2.585249   -1.8308062  0.048559706    -2.585249   0.75444273   424551 
 1307000   0.62953664   -2.5854645   -2.5854645   -1.8303471  0.044976552   -2.5854645   0.75511744   424551 
 1308000   0.62847636   -2.5856644   -2.5856644   -1.8318187  0.047976301   -2.5856644   0.75384566   424551 
 1309000   0.62755328   -2.5839093   -2.5839093   -1.8311708  0.060341397   -2.5839093   0.75273844   424551 
 1310000   0.62817471   -2.5845053   -2.5845053   -1.8310214  0.042524778   -2.5845053   0.75348384   424551 
 1311000   0.62858713   -2.5849868   -2.5849868   -1.8310083  0.038738826   -2.5849868   0.75397853   424551 
 1312000   0.62744119   -2.5836143   -2.5836143   -1.8310103  0.047687198   -2.5836143     0.752604   424551 
 1313000   0.62639822   -2.5830081   -2.5830081   -1.8316551  0.049315675   -2.5830081   0.75135297   424551 
 1314000   0.62860534   -2.5857683   -2.5857683   -1.8317679  0.040652779   -2.5857683   0.75400037   424551 
 1315000   0.62773639   -2.5843591   -2.5843591    -1.831401  0.063324229   -2.5843591   0.75295808   424551 
 1316000   0.62876102    -2.585767    -2.585767   -1.8315799  0.040475438    -2.585767   0.75418711   424551 
 1317000   0.62751836    -2.584468    -2.584468   -1.8317715  0.054603573    -2.584468   0.75269657   424551 
 1318000    0.6286222    -2.585871    -2.585871   -1.8318504  0.058532568    -2.585871   0.75402059   424551 
 1319000   0.62770473   -2.5849289   -2.5849289   -1.8320088  0.055444489   -2.5849289   0.75292011   424551 
 1320000   0.62866214   -2.5862276   -2.5862276   -1.8321591  0.057196135   -2.5862276   0.75406851   424551 
 1321000   0.62845374   -2.5869191   -2.5869191   -1.8331005  0.039001591   -2.5869191   0.75381854   424551 
 1322000   0.62788701   -2.5860879   -2.5860879   -1.8329491  0.053930745   -2.5860879   0.75313875   424551 
 1323000    0.6286768   -2.5871244   -2.5871244   -1.8330383  0.050035256   -2.5871244   0.75408609   424551 
 1324000   0.62826108   -2.5872513   -2.5872513   -1.8336639  0.059044434   -2.5872513   0.75358744   424551 
 1325000   0.62980863   -2.5903808   -2.5903808   -1.8349371  0.052973305   -2.5903808    0.7554437   424551 
 1326000   0.62906593   -2.5894232   -2.5894232   -1.8348704  0.043172657   -2.5894232   0.75455285   424551 
 1327000   0.62811119   -2.5890207   -2.5890207   -1.8356131  0.058084153   -2.5890207   0.75340765   424551 
 1328000   0.62766152   -2.5891689   -2.5891689   -1.8363007  0.046329865   -2.5891689   0.75286828   424551 
 1329000   0.62711281   -2.5891373   -2.5891373   -1.8369272    0.0546768   -2.5891373   0.75221011   424551 
 1330000   0.62611631   -2.5874321   -2.5874321   -1.8364173  0.063147482   -2.5874321   0.75101483   424551 
 1331000   0.62793843   -2.5896958   -2.5896958   -1.8364954  0.039898592   -2.5896958   0.75320043   424551 
 1332000   0.62936115   -2.5906133   -2.5906133   -1.8357064  0.046452359   -2.5906133   0.75490695   424551 
 1333000   0.62869376   -2.5892269   -2.5892269   -1.8351204  0.049662766   -2.5892269   0.75410644   424551 
 1334000   0.63004028   -2.5914438   -2.5914438   -1.8357222  0.051825637   -2.5914438   0.75572155   424551 
 1335000   0.62877616   -2.5904258   -2.5904258   -1.8362206    0.0533406   -2.5904258   0.75420527   424551 
 1336000   0.62750746   -2.5887535   -2.5887535   -1.8360701  0.049463447   -2.5887535   0.75268349   424551 
 1337000   0.63000134   -2.5923347   -2.5923347   -1.8366598  0.045430732   -2.5923347   0.75567485   424551 
 1338000   0.62844495    -2.590971    -2.590971    -1.837163  0.042182346    -2.590971   0.75380798   424551 
 1339000   0.62834001   -2.5901775   -2.5901775   -1.8364954  0.055982067   -2.5901775   0.75368212   424551 
 1340000   0.62744452   -2.5898647   -2.5898647   -1.8372567  0.050674065   -2.5898647   0.75260799   424551 
 1341000   0.62774539   -2.5911167   -2.5911167   -1.8381478  0.058286805   -2.5911167   0.75296888   424551 
 1342000   0.62615117   -2.5893432   -2.5893432   -1.8382865  0.043000387   -2.5893432   0.75105664   424551 
 1343000   0.62740462   -2.5913385   -2.5913385   -1.8387784  0.041150272   -2.5913385   0.75256013   424551 
 1344000   0.62717023   -2.5919291   -2.5919291   -1.8396501  0.040647894   -2.5919291   0.75227899   424551 
 1345000   0.62728527   -2.5916835   -2.5916835   -1.8392665  0.048095864   -2.5916835   0.75241697   424551 
 1346000   0.62796514   -2.5923224   -2.5923224     -1.83909  0.047658613   -2.5923224   0.75323246   424551 
 1347000   0.62783175   -2.5923047   -2.5923047   -1.8392323   0.04987508   -2.5923047   0.75307247   424551 
 1348000   0.62673227   -2.5916153   -2.5916153   -1.8398616  0.048499116   -2.5916153   0.75175366   424551 
 1349000   0.62588824   -2.5908183   -2.5908183    -1.840077   0.05531073   -2.5908183   0.75074126   424551 
 1350000   0.62769188   -2.5931331   -2.5931331   -1.8402285  0.057844966   -2.5931331   0.75290469   424551 
 1351000   0.62855809    -2.593576    -2.593576   -1.8396323  0.048452931    -2.593576    0.7539437   424551 
 1352000   0.62691439   -2.5920628   -2.5920628   -1.8400907   0.05684325   -2.5920628   0.75197211   424551 
 1353000   0.62772845   -2.5932455   -2.5932455    -1.840297  0.056851204   -2.5932455   0.75294856   424551 
 1354000   0.62846012   -2.5932833   -2.5932833   -1.8394571  0.059679451   -2.5932833   0.75382619   424551 
 1355000   0.62675542   -2.5926179   -2.5926179   -1.8408365  0.042863047   -2.5926179   0.75178143   424551 
 1356000   0.62593947   -2.5919448   -2.5919448   -1.8411421  0.044868438   -2.5919448   0.75080271   424551 
 1357000   0.62688459   -2.5925202   -2.5925202   -1.8405839  0.052447578   -2.5925202   0.75193637   424551 
 1358000   0.62642694   -2.5930333   -2.5930333   -1.8416458  0.037967951   -2.5930333   0.75138742   424551 
 1359000   0.62788665   -2.5946448   -2.5946448   -1.8415065  0.046404662   -2.5946448   0.75313832   424551 
 1360000   0.62716555   -2.5933993   -2.5933993   -1.8411259  0.055139445   -2.5933993   0.75227337   424551 
 1361000   0.62795878   -2.5941399   -2.5941399   -1.8409151  0.062985565   -2.5941399   0.75322484   424551 
 1362000   0.62875041   -2.5956245   -2.5956245   -1.8414501  0.060420352   -2.5956245   0.75417438   424551 
 1363000   0.62783042    -2.594353    -2.594353   -1.8412822  0.050098187    -2.594353   0.75307087   424551 
 1364000   0.62694426   -2.5939632   -2.5939632   -1.8419552   0.05234249   -2.5939632   0.75200793   424551 
 1365000   0.62708768   -2.5939197   -2.5939197   -1.8417397   0.05254351   -2.5939197   0.75217997   424551 
 1366000   0.62780018   -2.5938724   -2.5938724   -1.8408378  0.048297237   -2.5938724    0.7530346   424551 
 1367000   0.62816089   -2.5951635   -2.5951635   -1.8416962  0.054143321   -2.5951635   0.75346726   424551 
 1368000   0.62693705   -2.5933875   -2.5933875   -1.8413883  0.039311804   -2.5933875   0.75199928   424551 
 1369000   0.62713786   -2.5933755   -2.5933755   -1.8411353  0.049753385   -2.5933755   0.75224016   424551 
 1370000   0.62841363   -2.5953997   -2.5953997   -1.8416293  0.054960861   -2.5953997   0.75377041   424551 
 1371000   0.62624531   -2.5931083   -2.5931083   -1.8419387  0.041384005   -2.5931083   0.75116955   424551 
 1372000   0.62670138   -2.5938883   -2.5938883   -1.8421717  0.052032705   -2.5938883   0.75171661   424551 
 1373000    0.6254493   -2.5928475   -2.5928475   -1.8426327  0.053691963   -2.5928475   0.75021477   424551 
 1374000   0.62744038   -2.5961685   -2.5961685   -1.8435655  0.052280148   -2.5961685   0.75260303   424551 
 1375000   0.62775411   -2.5960748   -2.5960748   -1.8430954  0.038823321   -2.5960748   0.75297934   424551 
 1376000   0.62648979    -2.594724    -2.594724   -1.8432612  0.051744947    -2.594724   0.75146281   424551 
 1377000   0.62628169   -2.5942929   -2.5942929   -1.8430797  0.052006103   -2.5942929    0.7512132   424551 
 1378000   0.62686416   -2.5944866   -2.5944866   -1.8425747  0.054945292   -2.5944866   0.75191186   424551 
 1379000   0.62710182   -2.5942079   -2.5942079    -1.842011  0.045883525   -2.5942079   0.75219693   424551 
 1380000   0.62771232   -2.5950417   -2.5950417   -1.8421125   0.05618083   -2.5950417   0.75292921   424551 
 1381000   0.62713379   -2.5954064   -2.5954064   -1.8431711  0.053209659   -2.5954064   0.75223528   424551 
 1382000   0.62810962   -2.5968212   -2.5968212   -1.8434154  0.051201799   -2.5968212   0.75340577   424551 
 1383000   0.62658404   -2.5949743   -2.5949743   -1.8433985  0.055419593   -2.5949743   0.75157585   424551 
 1384000   0.62782361   -2.5961689   -2.5961689   -1.8431062  0.041638078   -2.5961689    0.7530627   424551 
 1385000   0.62823869   -2.5967277   -2.5967277   -1.8431671   0.04604955   -2.5967277   0.75356058   424551 
 1386000   0.62703274   -2.5961463   -2.5961463   -1.8440322  0.036016837   -2.5961463   0.75211407   424551 
 1387000   0.62614882    -2.595843    -2.595843   -1.8447892  0.053931501    -2.595843   0.75105383   424551 
 1388000   0.62611285   -2.5954621   -2.5954621   -1.8444514  0.048546744   -2.5954621   0.75101068   424551 
 1389000   0.62668642   -2.5959731   -2.5959731   -1.8442745  0.049943275   -2.5959731   0.75169866   424551 
 1390000   0.62544661   -2.5944919   -2.5944919   -1.8442804  0.048233616   -2.5944919   0.75021153   424551 
 1391000   0.62683132   -2.5962301   -2.5962301   -1.8443577  0.047685052   -2.5962301   0.75187247   424551 
 1392000   0.62541864   -2.5946536   -2.5946536   -1.8444756  0.059974691   -2.5946536   0.75017798   424551 
 1393000   0.62579133   -2.5958839   -2.5958839   -1.8452589  0.050626522   -2.5958839   0.75062501   424551 
 1394000   0.62627121   -2.5959509   -2.5959509   -1.8447503  0.043857473   -2.5959509   0.75120062   424551 
 1395000   0.62739133   -2.5971561   -2.5971561   -1.8446119  0.050049275   -2.5971561   0.75254419   424551 
 1396000   0.62573601   -2.5957642   -2.5957642   -1.8452056  0.051780978   -2.5957642   0.75055867   424551 
 1397000   0.62727011   -2.5970214   -2.5970214   -1.8446226  0.040623292   -2.5970214   0.75239878   424551 
 1398000   0.62633842   -2.5962494   -2.5962494   -1.8449682  0.047647269   -2.5962494   0.75128125   424551 
 1399000   0.62668505   -2.5961088   -2.5961088   -1.8444118  0.049786922   -2.5961088   0.75169702   424551 
 1400000   0.62526359   -2.5953919   -2.5953919   -1.8453999  0.057641814   -2.5953919     0.749992   424551 
 1401000   0.62594784   -2.5964175   -2.5964175   -1.8456047  0.047322588   -2.5964175   0.75081274   424551 
 1402000   0.62669178   -2.5972524   -2.5972524   -1.8455473  0.034825701   -2.5972524    0.7517051   424551 
 1403000   0.62701067   -2.5974043   -2.5974043   -1.8453167  0.049174221   -2.5974043    0.7520876   424551 
 1404000   0.62743513   -2.5989179   -2.5989179   -1.8463211  0.041919665   -2.5989179   0.75259673   424551 
 1405000   0.62708681    -2.597837    -2.597837   -1.8456581  0.051664271    -2.597837   0.75217892   424551 
 1406000   0.62646934   -2.5970396   -2.5970396   -1.8456013  0.050661155   -2.5970396   0.75143828   424551 
 1407000   0.62625666    -2.596731    -2.596731   -1.8455478  0.059065163    -2.596731   0.75118318   424551 
 1408000   0.62737486   -2.5981012   -2.5981012   -1.8455768  0.048460557   -2.5981012   0.75252443   424551 
 1409000   0.62729113   -2.5975575   -2.5975575   -1.8451335  0.047772631   -2.5975575     0.752424   424551 
 1410000   0.62851236   -2.5995141   -2.5995141   -1.8456253  0.040847433   -2.5995141   0.75388885   424551 
 1411000   0.62617407   -2.5972705   -2.5972705   -1.8461864  0.047053155   -2.5972705   0.75108411   424551 
 1412000   0.62689001   -2.5984443   -2.5984443   -1.8465014  0.042724709   -2.5984443   0.75194286   424551 
 1413000   0.62720845   -2.6000551   -2.6000551   -1.8477303  0.049372897   -2.6000551   0.75232483   424551 
 1414000   0.62636907   -2.5994073   -2.5994073   -1.8480893  0.038506186   -2.5994073   0.75131801   424551 
 1415000   0.62451919    -2.598515    -2.598515   -1.8494159  0.044484274    -2.598515   0.74909911   424551 
 1416000   0.62590686   -2.6002757   -2.6002757   -1.8495121  0.042681154   -2.6002757   0.75076359   424551 
 1417000   0.62583612   -2.5988976   -2.5988976   -1.8482188  0.056628702   -2.5988976   0.75067875   424551 
 1418000   0.62472461   -2.5984307   -2.5984307   -1.8490852  0.040624986   -2.5984307   0.74934551   424551 
 1419000   0.62446393   -2.5984286   -2.5984286   -1.8493958  0.052627203   -2.5984286   0.74903283   424551 
 1420000   0.62548732   -2.5997311   -2.5997311   -1.8494707  0.048135259   -2.5997311   0.75026037   424551 
 1421000    0.6262933   -2.6014597   -2.6014597   -1.8502325  0.059623258   -2.6014597   0.75122713   424551 
 1422000    0.6265585   -2.6019513   -2.6019513    -1.850406  0.053395758   -2.6019513   0.75154523   424551 
 1423000   0.62643325   -2.6027754   -2.6027754   -1.8513805  0.050320093   -2.6027754   0.75139499   424551 
 1424000   0.62647006   -2.6022908   -2.6022908   -1.8508517  0.050296663   -2.6022908   0.75143914   424551 
 1425000   0.62522014   -2.6015153   -2.6015153   -1.8515754  0.049873366   -2.6015153   0.74993988   424551 
 1426000   0.62686388   -2.6034791   -2.6034791   -1.8515676  0.040166852   -2.6034791   0.75191153   424551 
 1427000   0.62602166    -2.603403    -2.603403   -1.8525017  0.051924004    -2.603403    0.7509013   424551 
 1428000   0.62657834   -2.6029962   -2.6029962   -1.8514272  0.043471855   -2.6029962   0.75156902   424551 
 1429000   0.62695783   -2.6037657   -2.6037657   -1.8517415   0.05484673   -2.6037657   0.75202422   424551 
 1430000   0.62607056   -2.6031648   -2.6031648   -1.8522048  0.050073391   -2.6031648   0.75095996   424551 
 1431000   0.62637492   -2.6035869   -2.6035869   -1.8522619  0.047673807   -2.6035869   0.75132502   424551 
 1432000   0.62517675   -2.6024617   -2.6024617   -1.8525739   0.05546947   -2.6024617   0.74988784   424551 
 1433000    0.6257013   -2.6032045   -2.6032045   -1.8526875  0.043361002   -2.6032045   0.75051703   424551 
 1434000   0.62627212   -2.6036036   -2.6036036   -1.8524019  0.056484652   -2.6036036   0.75120172   424551 
 1435000   0.62539621    -2.602645    -2.602645   -1.8524939  0.059421719    -2.602645   0.75015108   424551 
 1436000   0.62686304   -2.6046867   -2.6046867   -1.8527761  0.066569872   -2.6046867   0.75191052   424551 
 1437000   0.62594891   -2.6031901   -2.6031901   -1.8523761  0.058145878   -2.6031901   0.75081404   424551 
 1438000   0.62691648   -2.6036831   -2.6036831   -1.8517085  0.050264853   -2.6036831   0.75197461   424551 
 1439000   0.62629294   -2.6024098   -2.6024098   -1.8511831  0.051241397   -2.6024098   0.75122669   424551 
 1440000   0.62568257   -2.6025773   -2.6025773   -1.8520827  0.046282438   -2.6025773   0.75049456   424551 
 1441000   0.62549556     -2.60262     -2.60262   -1.8523498  0.045255764     -2.60262   0.75027025   424551 
 1442000   0.62494523   -2.6018936   -2.6018936   -1.8522835  0.045397966   -2.6018936   0.74961014   424551 
 1443000   0.62656744   -2.6045622   -2.6045622   -1.8530063  0.043117256   -2.6045622   0.75155595   424551 
 1444000   0.62569681   -2.6032554   -2.6032554   -1.8527437  0.039826929   -2.6032554   0.75051164   424551 
 1445000    0.6251842   -2.6028426   -2.6028426   -1.8529458  0.048558663   -2.6028426   0.74989678   424551 
 1446000   0.62500083   -2.6029807   -2.6029807   -1.8533039  0.061671311   -2.6029807   0.74967683   424551 
 1447000   0.62397366   -2.6016235   -2.6016235   -1.8531787  0.047395136   -2.6016235   0.74844475   424551 
 1448000    0.6254514   -2.6034297   -2.6034297   -1.8532124   0.04814301   -2.6034297   0.75021728   424551 
 1449000   0.62505116   -2.6020827   -2.6020827   -1.8523455  0.052534572   -2.6020827    0.7497372   424551 
 1450000   0.62451073   -2.6022324   -2.6022324   -1.8531434  0.044605311   -2.6022324   0.74908897   424551 
 1451000   0.62572972   -2.6037955   -2.6037955   -1.8532443  0.063625687   -2.6037955   0.75055112   424551 
 1452000   0.62650548   -2.6049993   -2.6049993   -1.8535176  0.048263595   -2.6049993   0.75148163   424551 
 1453000   0.62486247   -2.6031138   -2.6031138    -1.853603  0.052133347   -2.6031138   0.74951087   424551 
 1454000   0.62488555   -2.6030085   -2.6030085     -1.85347  0.049860661   -2.6030085   0.74953855   424551 
 1455000    0.6257127   -2.6053342   -2.6053342   -1.8548035  0.051713649   -2.6053342   0.75053071   424551 
 1456000   0.62514908   -2.6041505   -2.6041505   -1.8542959  0.050534253   -2.6041505   0.74985466   424551 
 1457000   0.62595272   -2.6056058   -2.6056058   -1.8547872  0.046746217   -2.6056058    0.7508186   424551 
 1458000   0.62626477   -2.6060444   -2.6060444   -1.8548515  0.052294866   -2.6060444   0.75119291   424551 
 1459000   0.62586093    -2.605034    -2.605034   -1.8543255  0.053800168    -2.605034   0.75070851   424551 
 1460000   0.62615711   -2.6048009   -2.6048009   -1.8537371   0.05025236   -2.6048009   0.75106377   424551 
 1461000   0.62657576   -2.6052735   -2.6052735   -1.8537076  0.038634554   -2.6052735   0.75156593   424551 
 1462000   0.62657845   -2.6062304   -2.6062304   -1.8546613  0.047543805   -2.6062304   0.75156916   424551 
 1463000   0.62555893   -2.6050705   -2.6050705   -1.8547242  0.053224571   -2.6050705   0.75034626   424551 
 1464000   0.62561334   -2.6055185   -2.6055185   -1.8551069  0.051846445   -2.6055185   0.75041152   424551 
 1465000   0.62396061      -2.6043      -2.6043   -1.8558709  0.041009254      -2.6043    0.7484291   424551 
 1466000   0.62495965   -2.6056793   -2.6056793   -1.8560518  0.044323055   -2.6056793   0.74962744   424551 
 1467000   0.62400533   -2.6040246   -2.6040246   -1.8555419   0.04322265   -2.6040246   0.74848275   424551 
 1468000    0.6259009   -2.6059031   -2.6059031   -1.8551466   0.04470667   -2.6059031   0.75075645   424551 
 1469000   0.62465873   -2.6038085   -2.6038085    -1.854542  0.043370768   -2.6038085   0.74926649   424551 
 1470000     0.625507   -2.6056952   -2.6056952   -1.8554113  0.054981942   -2.6056952   0.75028397   424551 
 1471000   0.62530251   -2.6048465   -2.6048465   -1.8548078  0.055036571   -2.6048465   0.75003869   424551 
 1472000   0.62571569   -2.6053593   -2.6053593    -1.854825  0.040561948   -2.6053593   0.75053429   424551 
 1473000   0.62600081   -2.6053235   -2.6053235   -1.8544472  0.048506148   -2.6053235   0.75087629   424551 
 1474000   0.62630708   -2.6055347   -2.6055347    -1.854291  0.042645427   -2.6055347   0.75124365   424551 
 1475000   0.62653029   -2.6051591   -2.6051591   -1.8536477  0.047253086   -2.6051591   0.75151139   424551 
 1476000   0.62519899   -2.6041456   -2.6041456   -1.8542311  0.049092495   -2.6041456   0.74991452   424551 
 1477000   0.62504574   -2.6035301   -2.6035301   -1.8537994  0.047857469   -2.6035301    0.7497307   424551 
 1478000   0.62626644   -2.6052615   -2.6052615   -1.8540666  0.048297394   -2.6052615    0.7511949   424551 
 1479000   0.62543819    -2.604179    -2.604179   -1.8539776  0.044592762    -2.604179   0.75020143   424551 
 1480000    0.6253253   -2.6046367   -2.6046367   -1.8545707  0.055508131   -2.6046367   0.75006602   424551 
 1481000   0.62481537   -2.6046116   -2.6046116   -1.8551572  0.046283984   -2.6046116   0.74945438   424551 
 1482000   0.62524505   -2.6051733   -2.6051733   -1.8552035  0.048053864   -2.6051733   0.74996977   424551 
 1483000   0.62424053   -2.6044701   -2.6044701   -1.8557052  0.049236104   -2.6044701   0.74876487   424551 
 1484000   0.62441486    -2.604909    -2.604909    -1.855935  0.050202898    -2.604909   0.74897397   424551 
 1485000   0.62521256   -2.6066731   -2.6066731   -1.8567423  0.051179323   -2.6066731    0.7499308   424551 
 1486000   0.62428358   -2.6060416   -2.6060416   -1.8572251  0.043497261   -2.6060416    0.7488165   424551 
 1487000    0.6239851   -2.6061164   -2.6061164   -1.8576579  0.041364738   -2.6061164   0.74845848   424551 
 1488000   0.62478443   -2.6062724   -2.6062724   -1.8568552  0.058010373   -2.6062724   0.74941726   424551 
 1489000   0.62524288   -2.6068178   -2.6068178   -1.8568506  0.041792748   -2.6068178   0.74996716   424551 
 1490000   0.62572339   -2.6073379   -2.6073379   -1.8567944  0.047743931   -2.6073379   0.75054353   424551 
 1491000    0.6247361   -2.6071857   -2.6071857   -1.8578264  0.050676978   -2.6071857    0.7493593   424551 
 1492000    0.6250731   -2.6079837   -2.6079837   -1.8582202  0.057293443   -2.6079837   0.74976351   424551 
 1493000    0.6250183   -2.6079778   -2.6079778     -1.85828  0.048248904   -2.6079778   0.74969779   424551 
 1494000   0.62525863   -2.6082416   -2.6082416   -1.8582556  0.061331473   -2.6082416   0.74998605   424551 
 1495000   0.62481482   -2.6085436   -2.6085436   -1.8590899  0.045816521   -2.6085436   0.74945371   424551 
 1496000   0.62434506   -2.6084689   -2.6084689   -1.8595786  0.043334145   -2.6084689   0.74889025   424551 
 1497000   0.62458231   -2.6083509   -2.6083509   -1.8591761  0.048850726   -2.6083509   0.74917483   424551 
 1498000   0.62456434   -2.6088799   -2.6088799   -1.8597266   0.05518906   -2.6088799   0.74915327   424551 
 1499000   0.62382531   -2.6080737   -2.6080737   -1.8598069  0.049070737   -2.6080737   0.74826681   424551 
 1500000   0.62328495   -2.6077945   -2.6077945   -1.8601759  0.045251302   -2.6077945   0.74761867   424551 
 1501000    0.6248009   -2.6093882   -2.6093882   -1.8599511  0.045462533   -2.6093882   0.74943702   424551 
 1502000   0.62437286   -2.6091411   -2.6091411   -1.8602175  0.049017779   -2.6091411   0.74892359   424551 
 1503000   0.62523268   -2.6095655   -2.6095655   -1.8596106  0.044403481   -2.6095655   0.74995493   424551 
 1504000   0.62431027   -2.6086692   -2.6086692   -1.8598207  0.044484894   -2.6086692   0.74884851   424551 
 1505000   0.62532059     -2.61062     -2.61062   -1.8605596  0.051686391     -2.61062   0.75006037   424551 
 1506000   0.62442556   -2.6098278   -2.6098278    -1.860841  0.045671939   -2.6098278    0.7489868   424551 
 1507000   0.62414466   -2.6096015   -2.6096015   -1.8609516  0.042299523   -2.6096015   0.74864987   424551 
 1508000   0.62434047   -2.6096546   -2.6096546   -1.8607699  0.043699602   -2.6096546   0.74888474   424551 
 1509000    0.6260667   -2.6117183   -2.6117183   -1.8607629  0.053282332   -2.6117183   0.75095532   424551 
 1510000   0.62469491   -2.6109403   -2.6109403   -1.8616304  0.054311008   -2.6109403   0.74930989   424551 
 1511000   0.62422138   -2.6101799   -2.6101799    -1.861438  0.055084883   -2.6101799   0.74874189   424551 
 1512000   0.62546311   -2.6114917   -2.6114917   -1.8612603   0.05002578   -2.6114917   0.75023133   424551 
 1513000    0.6261839   -2.6131947   -2.6131947   -1.8620988  0.048568446   -2.6131947    0.7510959   424551 
 1514000   0.62493443    -2.611651    -2.611651   -1.8620538  0.055440961    -2.611651   0.74959719   424551 
 1515000   0.62492388   -2.6109518   -2.6109518   -1.8613673  0.046728372   -2.6109518   0.74958453   424551 
 1516000   0.62503035   -2.6115697   -2.6115697   -1.8618575  0.047764652   -2.6115697   0.74971224   424551 
 1517000   0.62346158   -2.6096794   -2.6096794   -1.8618489  0.050693385   -2.6096794   0.74783053   424551 
 1518000   0.62439801    -2.610075    -2.610075   -1.8611212  0.043209563    -2.610075   0.74895376   424551 
 1519000   0.62432744   -2.6102051   -2.6102051    -1.861336  0.054912068   -2.6102051   0.74886912   424551 
 1520000   0.62500259   -2.6119433   -2.6119433   -1.8622644  0.039918429   -2.6119433   0.74967894   424551 
 1521000    0.6242086   -2.6096035   -2.6096035    -1.860877  0.035548503   -2.6096035   0.74872657   424551 
 1522000    0.6250036   -2.6102179   -2.6102179   -1.8605378  0.056864207   -2.6102179   0.74968015   424551 
 1523000   0.62462629   -2.6095121   -2.6095121   -1.8602845  0.050897358   -2.6095121   0.74922757   424551 
 1524000    0.6244647   -2.6100847   -2.6100847    -1.861051  0.041142573   -2.6100847   0.74903376   424551 
 1525000   0.62483999    -2.610463    -2.610463   -1.8609791  0.048879378    -2.610463   0.74948391   424551 
 1526000   0.62318724   -2.6083627   -2.6083627   -1.8608612  0.048832337   -2.6083627   0.74750146   424551 
 1527000   0.62444735   -2.6105488   -2.6105488   -1.8615359  0.053641706   -2.6105488   0.74901294   424551 
 1528000   0.62356324   -2.6098364   -2.6098364    -1.861884  0.054590533   -2.6098364   0.74795247   424551 
 1529000   0.62354889   -2.6095327   -2.6095327   -1.8615975  0.042899834   -2.6095327   0.74793526   424551 
 1530000   0.62262149   -2.6082281   -2.6082281   -1.8614052  0.048640933   -2.6082281   0.74682286   424551 
 1531000   0.62451241   -2.6106548   -2.6106548   -1.8615638  0.045947139   -2.6106548   0.74909098   424551 
 1532000   0.62513422   -2.6101931   -2.6101931   -1.8603563  0.041388887   -2.6101931   0.74983682   424551 
 1533000   0.62425013   -2.6099413   -2.6099413   -1.8611649  0.046020346   -2.6099413   0.74877637   424551 
 1534000   0.62396714   -2.6087683   -2.6087683   -1.8603314  0.043281544   -2.6087683   0.74843694   424551 
 1535000   0.62441759   -2.6104387   -2.6104387   -1.8614615  0.052268424   -2.6104387   0.74897724   424551 
 1536000    0.6248145   -2.6110404   -2.6110404    -1.861587  0.049180027   -2.6110404   0.74945333   424551 
 1537000   0.62368625   -2.6099856   -2.6099856   -1.8618855  0.051697014   -2.6099856   0.74810002   424551 
 1538000   0.62406887   -2.6109423   -2.6109423   -1.8623833  0.045877424   -2.6109423   0.74855896   424551 
 1539000    0.6244688   -2.6112465   -2.6112465   -1.8622078  0.057543283   -2.6112465   0.74903867   424551 
 1540000   0.62452549   -2.6115567   -2.6115567     -1.86245  0.052722625   -2.6115567   0.74910667   424551 
 1541000   0.62389103   -2.6114474   -2.6114474   -1.8631017  0.055752748   -2.6114474   0.74834564   424551 
 1542000   0.62388692   -2.6119943   -2.6119943   -1.8636536  0.044928451   -2.6119943   0.74834072   424551 
 1543000   0.62302862   -2.6112316   -2.6112316   -1.8639204  0.049645214   -2.6112316   0.74731121   424551 
 1544000    0.6244644   -2.6134507   -2.6134507   -1.8644173  0.038250635   -2.6134507   0.74903339   424551 
 1545000   0.62449172   -2.6127543   -2.6127543   -1.8636882  0.055283117   -2.6127543   0.74906616   424551 
 1546000   0.62409824   -2.6131466   -2.6131466   -1.8645524  0.057132521   -2.6131466   0.74859419   424551 
 1547000   0.62436887   -2.6138696   -2.6138696   -1.8649508  0.050030457   -2.6138696   0.74891881   424551 
 1548000     0.623136   -2.6128192   -2.6128192   -1.8653792  0.050597094   -2.6128192      0.74744   424551 
 1549000   0.62304667   -2.6125443   -2.6125443   -1.8652114   0.05414122   -2.6125443   0.74733285   424551 
 1550000    0.6240254   -2.6131302   -2.6131302   -1.8646234   0.05127807   -2.6131302   0.74850683   424551 
 1551000   0.62435859   -2.6139624   -2.6139624   -1.8650559  0.053386249   -2.6139624   0.74890648   424551 
 1552000   0.62325437   -2.6125904   -2.6125904   -1.8650084  0.056530457   -2.6125904   0.74758199   424551 
 1553000   0.62310809   -2.6127201   -2.6127201   -1.8653136  0.036442541   -2.6127201   0.74740652   424551 
 1554000   0.62323705   -2.6124865   -2.6124865   -1.8649253  0.045294743   -2.6124865   0.74756121   424551 
 1555000   0.62449934   -2.6135583   -2.6135583    -1.864483  0.039922523   -2.6135583    0.7490753   424551 
 1556000   0.62330333   -2.6126518   -2.6126518    -1.865011  0.046588071   -2.6126518   0.74764071   424551 
 1557000   0.62309195   -2.6124499   -2.6124499   -1.8650627  0.047456613   -2.6124499   0.74738717   424551 
 1558000   0.62360032   -2.6138586   -2.6138586   -1.8658617  0.039983679   -2.6138586   0.74799694   424551 
 1559000   0.62350281   -2.6135434   -2.6135434   -1.8656634  0.047642391   -2.6135434   0.74787999   424551 
 1560000   0.62350932   -2.6133175   -2.6133175   -1.8654297  0.040417942   -2.6133175   0.74788779   424551 
 1561000   0.62404723   -2.6146447   -2.6146447   -1.8661117  0.049591945   -2.6146447     0.748533   424551 
 1562000   0.62396105   -2.6143797   -2.6143797   -1.8659501  0.045380059   -2.6143797   0.74842963   424551 
 1563000   0.62315112   -2.6136635   -2.6136635   -1.8662054   0.05025804   -2.6136635   0.74745813   424551 
 1564000   0.62478156   -2.6162041   -2.6162041   -1.8667903  0.049702176   -2.6162041   0.74941382   424551 
 1565000    0.6246239   -2.6156893   -2.6156893   -1.8664646  0.041827489   -2.6156893   0.74922471   424551 
 1566000    0.6241078   -2.6157048   -2.6157048   -1.8670991  0.045703872   -2.6157048   0.74860565   424551 
 1567000   0.62488247   -2.6163776   -2.6163776   -1.8668428  0.059919697   -2.6163776   0.74953486   424551 
 1568000   0.62401688   -2.6154137   -2.6154137    -1.866917  0.055118806   -2.6154137    0.7484966   424551 
 1569000   0.62534136   -2.6178306   -2.6178306   -1.8677453  0.052222226   -2.6178306   0.75008529   424551 
 1570000   0.62311333   -2.6156989   -2.6156989   -1.8682861  0.046701089   -2.6156989    0.7474128   424551 
 1571000   0.62355903   -2.6166868   -2.6166868   -1.8687394  0.050636644   -2.6166868   0.74794742   424551 
 1572000   0.62381968   -2.6171951   -2.6171951    -1.868935  0.045900704   -2.6171951   0.74826007   424551 
 1573000   0.62331396   -2.6159849   -2.6159849   -1.8683315  0.041933581   -2.6159849   0.74765346   424551 
 1574000   0.62349324    -2.616348    -2.616348   -1.8684795  0.054760089    -2.616348   0.74786851   424551 
 1575000   0.62345397   -2.6162885   -2.6162885   -1.8684671  0.054025637   -2.6162885    0.7478214   424551 
 1576000   0.62297226   -2.6157982   -2.6157982   -1.8685546  0.049434253   -2.6157982   0.74724359   424551 
 1577000   0.62267942   -2.6155667   -2.6155667   -1.8686744  0.043483756   -2.6155667   0.74689234   424551 
 1578000   0.62350903   -2.6165351   -2.6165351   -1.8686477  0.044304495   -2.6165351   0.74788744   424551 
 1579000   0.62334626   -2.6171017   -2.6171017   -1.8694095  0.051144305   -2.6171017    0.7476922   424551 
 1580000   0.62277386    -2.616539    -2.616539   -1.8695333  0.044063827    -2.616539   0.74700562   424551 
 1581000   0.62294683   -2.6167855   -2.6167855   -1.8695724  0.048249551   -2.6167855   0.74721309   424551 
 1582000    0.6235029   -2.6166521   -2.6166521    -1.868772  0.061266826   -2.6166521   0.74788009   424551 
 1583000   0.62289454   -2.6163305   -2.6163305   -1.8691801  0.050886719   -2.6163305   0.74715037   424551 
 1584000   0.62375426   -2.6180051   -2.6180051   -1.8698235  0.052203364   -2.6180051   0.74818159   424551 
 1585000   0.62376061   -2.6186992   -2.6186992     -1.87051  0.045006458   -2.6186992   0.74818921   424551 
 1586000   0.62417941    -2.618756    -2.618756   -1.8700645  0.040206338    -2.618756   0.74869155   424551 
 1587000   0.62320927   -2.6179978   -2.6179978   -1.8704699  0.051560693   -2.6179978   0.74752789   424551 
 1588000   0.62274161   -2.6184695   -2.6184695   -1.8715026  0.041371486   -2.6184695   0.74696693   424551 
 1589000   0.62298841   -2.6188478   -2.6188478   -1.8715849  0.049039897   -2.6188478   0.74726297   424551 
 1590000   0.62350222   -2.6199692   -2.6199692   -1.8720899  0.039672335   -2.6199692   0.74787927   424551 
 1591000   0.62358723   -2.6195574   -2.6195574   -1.8715761  0.046549372   -2.6195574   0.74798124   424551 
 1592000   0.62392595   -2.6195446   -2.6195446   -1.8711571  0.046287524   -2.6195446   0.74838754   424551 
 1593000   0.62407192    -2.619377    -2.619377   -1.8708143  0.042497661    -2.619377   0.74856262   424551 
 1594000   0.62390208   -2.6192999   -2.6192999    -1.870941  0.048048025   -2.6192999    0.7483589   424551 
 1595000   0.62287074   -2.6174763   -2.6174763   -1.8703545  0.057206323   -2.6174763   0.74712183   424551 
 1596000   0.62514634   -2.6195755   -2.6195755   -1.8697241  0.047351103   -2.6195755   0.74985136   424551 
 1597000   0.62335171   -2.6174894   -2.6174894   -1.8697907  0.050200747   -2.6174894   0.74769874   424551 
 1598000   0.62296107   -2.6178018   -2.6178018   -1.8705717  0.038057066   -2.6178018   0.74723017   424551 
 1599000   0.62168976   -2.6169855   -2.6169855   -1.8712802  0.030805788   -2.6169855   0.74570526   424551 
 1600000   0.62253921   -2.6180058   -2.6180058   -1.8712816  0.043988646   -2.6180058   0.74672417   424551 
 1601000   0.62117593   -2.6174083   -2.6174083   -1.8723193  0.036287673   -2.6174083   0.74508893   424551 
 1602000   0.62195296   -2.6169053   -2.6169053   -1.8708844  0.050154844   -2.6169053   0.74602097   424551 
 1603000   0.62041784    -2.616136    -2.616136   -1.8719564  0.040983549    -2.616136   0.74417962   424551 
 1604000   0.62303178   -2.6191761   -2.6191761   -1.8718611  0.044718886   -2.6191761   0.74731499   424551 
 1605000   0.62255606   -2.6179897   -2.6179897   -1.8712453  0.051059308   -2.6179897   0.74674438   424551 
 1606000   0.62252611   -2.6186571   -2.6186571   -1.8719486  0.037659321   -2.6186571   0.74670844   424551 
 1607000   0.62241839   -2.6183349   -2.6183349   -1.8717557  0.050992875   -2.6183349   0.74657924   424551 
 1608000   0.62353349   -2.6197362   -2.6197362   -1.8718194  0.050016653   -2.6197362   0.74791678   424551 
 1609000   0.62280803   -2.6191686   -2.6191686   -1.8721219   0.04903719   -2.6191686   0.74704661   424551 
 1610000   0.62326165   -2.6201632   -2.6201632   -1.8725725  0.036050615   -2.6201632   0.74759072   424551 
 1611000   0.62186069   -2.6203153   -2.6203153    -1.874405  0.050375973   -2.6203153   0.74591029   424551 
 1612000    0.6229724   -2.6203453   -2.6203453   -1.8731016  0.046569467   -2.6203453   0.74724377   424551 
 1613000   0.62354744   -2.6208211   -2.6208211   -1.8728876  0.046500547   -2.6208211   0.74793352   424551 
 1614000    0.6233612    -2.621088    -2.621088   -1.8733778  0.051946156    -2.621088   0.74771012   424551 
 1615000    0.6232385   -2.6213218   -2.6213218   -1.8737588  0.042533438   -2.6213218   0.74756295   424551 
 1616000   0.62203712   -2.6205726   -2.6205726   -1.8744507   0.04243139   -2.6205726   0.74612192   424551 
 1617000   0.62243238   -2.6209992   -2.6209992   -1.8744032  0.048457158   -2.6209992   0.74659602   424551 
 1618000   0.62373591   -2.6229331   -2.6229331   -1.8747735  0.049663008   -2.6229331   0.74815958   424551 
 1619000   0.62390056    -2.622237    -2.622237   -1.8738799  0.047612026    -2.622237   0.74835707   424551 
 1620000   0.62379792   -2.6226344   -2.6226344   -1.8744005   0.04072523   -2.6226344   0.74823396   424551 
 1621000    0.6222573   -2.6212356   -2.6212356   -1.8748496  0.053110922   -2.6212356   0.74638601   424551 
 1622000   0.62378304   -2.6229642   -2.6229642   -1.8747481  0.055155179   -2.6229642   0.74821611   424551 
 1623000   0.62314845   -2.6214717   -2.6214717   -1.8740168  0.057142043   -2.6214717   0.74745493   424551 
 1624000   0.62313623   -2.6224207   -2.6224207   -1.8749804  0.050350102   -2.6224207   0.74744028   424551 
 1625000   0.62248266   -2.6218069   -2.6218069   -1.8751505   0.05650515   -2.6218069   0.74665633   424551 
 1626000   0.62419466   -2.6239949   -2.6239949   -1.8752851  0.046501765   -2.6239949   0.74870985   424551 
 1627000   0.62399824   -2.6246476   -2.6246476   -1.8761734  0.041742321   -2.6246476   0.74847424   424551 
 1628000   0.62286169   -2.6227994   -2.6227994   -1.8756884  0.063738995   -2.6227994   0.74711097   424551 
 1629000    0.6226161   -2.6229828   -2.6229828   -1.8761664  0.047042497   -2.6229828   0.74681639   424551 
 1630000   0.62271537   -2.6234077   -2.6234077   -1.8764722   0.03698602   -2.6234077   0.74693546   424551 
 1631000   0.62240693   -2.6239434   -2.6239434   -1.8773779  0.054533319   -2.6239434   0.74656549   424551 
 1632000   0.62343841   -2.6245091   -2.6245091   -1.8767063  0.044576791   -2.6245091   0.74780274   424551 
 1633000   0.62318165   -2.6239622   -2.6239622   -1.8764674  0.050580819   -2.6239622   0.74749475   424551 
 1634000   0.62426519   -2.6252488   -2.6252488   -1.8764544  0.038760888   -2.6252488   0.74879444   424551 
 1635000   0.62313857   -2.6245447   -2.6245447   -1.8771016   0.04792597   -2.6245447   0.74744308   424551 
 1636000   0.62243873   -2.6229932   -2.6229932   -1.8763895  0.061965702   -2.6229932   0.74660364   424551 
 1637000   0.62282043   -2.6232429   -2.6232429   -1.8761814  0.049410885   -2.6232429   0.74706148   424551 
 1638000   0.62243872   -2.6234987   -2.6234987   -1.8768951  0.048539844   -2.6234987   0.74660363   424551 
 1639000   0.62358839   -2.6256232   -2.6256232   -1.8776406  0.049722689   -2.6256232   0.74798264   424551 
 1640000    0.6228269   -2.6242255   -2.6242255   -1.8771563  0.047867515   -2.6242255   0.74706924   424551 
 1641000   0.62262949   -2.6233877   -2.6233877   -1.8765553   0.03835612   -2.6233877   0.74683245   424551 
 1642000   0.62256848   -2.6232121   -2.6232121   -1.8764528  0.040654302   -2.6232121   0.74675927   424551 
 1643000    0.6234727   -2.6249412   -2.6249412   -1.8770973  0.048453037   -2.6249412   0.74784387   424551 
 1644000    0.6216736   -2.6226375   -2.6226375   -1.8769516  0.045053904   -2.6226375   0.74568588   424551 
 1645000   0.62229875   -2.6229208   -2.6229208    -1.876485  0.047491033   -2.6229208   0.74643574   424551 
 1646000   0.62216083    -2.622782    -2.622782   -1.8765117   0.03918569    -2.622782    0.7462703   424551 
 1647000   0.62148065   -2.6222627   -2.6222627   -1.8768083  0.051359847   -2.6222627   0.74545443   424551 
 1648000   0.62249236   -2.6232885   -2.6232885   -1.8766206  0.052022835   -2.6232885   0.74666796   424551 
 1649000   0.62280279   -2.6225905   -2.6225905   -1.8755501  0.049381245   -2.6225905   0.74704032   424551 
 1650000   0.62213163   -2.6230664   -2.6230664   -1.8768311  0.041250462   -2.6230664   0.74623528   424551 
 1651000   0.62351762   -2.6246464   -2.6246464   -1.8767486  0.053217764   -2.6246464   0.74789775   424551 
 1652000   0.62220045   -2.6239795   -2.6239795   -1.8776617  0.055896645   -2.6239795   0.74631782   424551 
 1653000   0.62191232   -2.6229137   -2.6229137   -1.8769415  0.055974372   -2.6229137   0.74597222   424551 
 1654000   0.62187567   -2.6249404   -2.6249404   -1.8790122  0.044683238   -2.6249404   0.74592826   424551 
 1655000   0.62248496   -2.6261185   -2.6261185   -1.8794594  0.052281271   -2.6261185   0.74665909   424551 
 1656000   0.62069425   -2.6250594   -2.6250594   -1.8805482  0.043688118   -2.6250594   0.74451117   424551 
 1657000   0.62178762   -2.6262837   -2.6262837    -1.880461  0.034068256   -2.6262837   0.74582264   424551 
 1658000   0.62117832   -2.6259371   -2.6259371   -1.8808454  0.045195728   -2.6259371    0.7450918   424551 
 1659000    0.6213221   -2.6256212   -2.6256212    -1.880357  0.042552543   -2.6256212   0.74526427   424551 
 1660000   0.62119143   -2.6263663   -2.6263663   -1.8812588  0.046975552   -2.6263663   0.74510753   424551 
 1661000   0.62174507   -2.6268344   -2.6268344   -1.8810628   0.04351105   -2.6268344   0.74577161   424551 
 1662000   0.62122017   -2.6266824   -2.6266824   -1.8815404  0.037940202   -2.6266824     0.745142   424551 
 1663000   0.62217541   -2.6274144   -2.6274144   -1.8811266  0.046186963   -2.6274144   0.74628779   424551 
 1664000   0.62116679   -2.6262962   -2.6262962   -1.8812182  0.045795393   -2.6262962   0.74507798   424551 
 1665000    0.6213951   -2.6265597   -2.6265597   -1.8812078  0.048391229   -2.6265597   0.74535183   424551 
 1666000   0.62038858   -2.6254864   -2.6254864   -1.8813419  0.041807454   -2.6254864   0.74414453   424551 
 1667000   0.62153429   -2.6268345   -2.6268345   -1.8813157  0.055074851   -2.6268345   0.74551878   424551 
 1668000   0.62184805   -2.6270592   -2.6270592    -1.881164  0.048500017   -2.6270592   0.74589513   424551 
 1669000   0.62163799   -2.6275473   -2.6275473   -1.8819041  0.047668655   -2.6275473   0.74564316   424551 
 1670000    0.6217879   -2.6282586   -2.6282586   -1.8824356  0.049984698   -2.6282586   0.74582298   424551 
 1671000   0.62134806   -2.6278379   -2.6278379   -1.8825425  0.044146512   -2.6278379    0.7452954   424551 
 1672000   0.62068018   -2.6275612   -2.6275612   -1.8830669  0.042812954   -2.6275612   0.74449429   424551 
 1673000   0.62070893   -2.6274891   -2.6274891   -1.8829603  0.040191911   -2.6274891   0.74452877   424551 
 1674000   0.62161148   -2.6286045   -2.6286045   -1.8829931  0.034095758   -2.6286045   0.74561137   424551 
 1675000   0.62049489   -2.6275306   -2.6275306   -1.8832585   0.04869418   -2.6275306   0.74427204   424551 
 1676000   0.62140495   -2.6287054   -2.6287054   -1.8833418  0.038549787   -2.6287054   0.74536364   424551 
 1677000   0.62186822   -2.6290572   -2.6290572   -1.8831379  0.039613367   -2.6290572   0.74591933   424551 
 1678000   0.62212612   -2.6295627   -2.6295627   -1.8833341  0.042304039   -2.6295627   0.74622867   424551 
 1679000   0.62244566   -2.6304109   -2.6304109    -1.883799  0.045109702   -2.6304109   0.74661195   424551 
 1680000   0.62237832   -2.6306595   -2.6306595   -1.8841284  0.048117217   -2.6306595   0.74653117   424551 
 1681000   0.62095478    -2.629271    -2.629271   -1.8844473  0.048725034    -2.629271   0.74482367   424551 
 1682000   0.62195714   -2.6308965   -2.6308965   -1.8848706  0.053844367   -2.6308965   0.74602599   424551 
 1683000   0.62099329   -2.6302698   -2.6302698   -1.8853999   0.03967131   -2.6302698   0.74486986   424551 
 1684000   0.62182083   -2.6318821   -2.6318821   -1.8860196  0.045897548   -2.6318821   0.74586248   424551 
 1685000   0.62125125   -2.6307337   -2.6307337   -1.8855544  0.046866134   -2.6307337   0.74517928   424551 
 1686000    0.6201719   -2.6302156   -2.6302156   -1.8863309  0.050252225   -2.6302156   0.74388461   424551 
 1687000   0.62062934   -2.6310477   -2.6310477   -1.8866144   0.04571165   -2.6310477    0.7444333   424551 
 1688000   0.62081011   -2.6305709   -2.6305709   -1.8859208  0.049865343   -2.6305709   0.74465014   424551 
 1689000   0.62197754   -2.6317609   -2.6317609   -1.8857105  0.041916099   -2.6317609   0.74605045   424551 
 1690000   0.62107438   -2.6302283   -2.6302283   -1.8852611  0.039987752   -2.6302283   0.74496713   424551 
 1691000    0.6216573   -2.6305465   -2.6305465   -1.8848801  0.059977845   -2.6305465   0.74566633   424551 
 1692000    0.6209575   -2.6304399   -2.6304399    -1.885613  0.047834848   -2.6304399   0.74482693   424551 
 1693000   0.62165924   -2.6310385   -2.6310385   -1.8853699  0.050360193   -2.6310385   0.74566865   424551 
 1694000   0.62078645   -2.6310379   -2.6310379   -1.8864161  0.044168287   -2.6310379   0.74462176   424551 
 1695000   0.62191977   -2.6317132   -2.6317132    -1.885732  0.041409449   -2.6317132   0.74598115   424551 
 1696000   0.62195628   -2.6324266   -2.6324266   -1.8864017  0.036434586   -2.6324266   0.74602495   424551 
 1697000   0.62169912   -2.6324361   -2.6324361   -1.8867196  0.036866263   -2.6324361   0.74571649   424551 
 1698000   0.62130685   -2.6317312   -2.6317312   -1.8864852   0.03662167   -2.6317312   0.74524597   424551 
 1699000   0.62196565   -2.6322815   -2.6322815   -1.8862453   0.05658042   -2.6322815   0.74603619   424551 
 1700000    0.6211032   -2.6319916   -2.6319916   -1.8869899  0.037421621   -2.6319916    0.7450017   424551 
 1701000   0.62087452   -2.6311225   -2.6311225   -1.8863951  0.056277771   -2.6311225   0.74472739   424551 
 1702000   0.62089314   -2.6316077   -2.6316077    -1.886858   0.04786948   -2.6316077   0.74474974   424551 
 1703000   0.62119842   -2.6320154   -2.6320154   -1.8868995  0.040939657   -2.6320154   0.74511591   424551 
 1704000   0.62195297   -2.6321628   -2.6321628   -1.8861419  0.049523272   -2.6321628   0.74602098   424551 
 1705000   0.62111968   -2.6313786   -2.6313786   -1.8863571  0.045563494   -2.6313786   0.74502146   424551 
 1706000   0.62102993   -2.6314329   -2.6314329   -1.8865191  0.048839804   -2.6314329   0.74491381   424551 
 1707000   0.62028053   -2.6304482   -2.6304482   -1.8864333  0.052213009   -2.6304482   0.74401491   424551 
 1708000    0.6215566   -2.6318689   -2.6318689   -1.8863234  0.037923212   -2.6318689   0.74554554   424551 
 1709000    0.6205627   -2.6306353   -2.6306353   -1.8862819  0.046906674   -2.6306353   0.74435338   424551 
 1710000    0.6207811    -2.631809    -2.631809   -1.8871936  0.038200426    -2.631809   0.74461535   424551 
 1711000   0.62140704   -2.6325182   -2.6325182    -1.887152  0.047105781   -2.6325182   0.74536614   424551 
 1712000   0.62017936   -2.6311456   -2.6311456    -1.887252  0.051211609   -2.6311456   0.74389356   424551 
 1713000   0.61948641   -2.6318242   -2.6318242   -1.8887618  0.046801048   -2.6318242   0.74306238   424551 
 1714000   0.61930359   -2.6303791   -2.6303791    -1.887536  0.054124981   -2.6303791   0.74284309   424551 
 1715000   0.62194638   -2.6334591   -2.6334591   -1.8874461  0.045337289   -2.6334591   0.74601307   424551 
 1716000   0.62081513   -2.6329611   -2.6329611   -1.8883049  0.041272938   -2.6329611   0.74465616   424551 
 1717000   0.62120462   -2.6331093   -2.6331093    -1.887986  0.039265117   -2.6331093   0.74512334   424551 
 1718000   0.62187745   -2.6340195   -2.6340195   -1.8880891  0.042631531   -2.6340195    0.7459304   424551 
 1719000   0.62232983   -2.6341905   -2.6341905   -1.8877175  0.043548227   -2.6341905   0.74647301   424551 
 1720000   0.62328179   -2.6359265   -2.6359265   -1.8883116  0.045230423   -2.6359265   0.74761487   424551 
 1721000   0.62161801   -2.6343389   -2.6343389   -1.8887198   0.04678305   -2.6343389    0.7456192   424551 
 1722000    0.6215678   -2.6340575   -2.6340575   -1.8884986  0.051041029   -2.6340575   0.74555898   424551 
 1723000   0.62102783   -2.6344831   -2.6344831   -1.8895718  0.042249699   -2.6344831   0.74491129   424551 
 1724000   0.62103373   -2.6333327   -2.6333327   -1.8884143  0.052371994   -2.6333327   0.74491837   424551 
 1725000   0.62181475   -2.6340252   -2.6340252   -1.8881701  0.048043954   -2.6340252   0.74585518   424551 
 1726000   0.62147129   -2.6335402   -2.6335402    -1.888097  0.058604981   -2.6335402   0.74544322   424551 
 1727000   0.62215541   -2.6347549   -2.6347549   -1.8884911  0.043515494   -2.6347549    0.7462638   424551 
 1728000   0.62175814   -2.6341391   -2.6341391   -1.8883518  0.038239039   -2.6341391   0.74578728   424551 
 1729000   0.62105413   -2.6333633   -2.6333633   -1.8884204   0.05376965   -2.6333633   0.74494284   424551 
 1730000   0.62217405     -2.63505     -2.63505   -1.8887638  0.049473624     -2.63505   0.74628616   424551 
 1731000   0.62089582    -2.633224    -2.633224    -1.888471  0.042296048    -2.633224   0.74475295   424551 
 1732000   0.62141347   -2.6333961   -2.6333961   -1.8880222  0.041477358   -2.6333961   0.74537386   424551 
 1733000   0.61933364   -2.6314058   -2.6314058   -1.8885266  0.048267042   -2.6314058   0.74287914   424551 
 1734000   0.62061182   -2.6328409   -2.6328409   -1.8884286  0.036434822   -2.6328409   0.74441229   424551 
 1735000   0.62018573    -2.632386    -2.632386   -1.8884848  0.041313927    -2.632386   0.74390121   424551 
 1736000    0.6210175   -2.6335034   -2.6335034   -1.8886045  0.048769371   -2.6335034   0.74489889   424551 
 1737000    0.6197722   -2.6321241   -2.6321241   -1.8887189  0.039416379   -2.6321241   0.74340519   424551 
 1738000   0.62090341   -2.6334891   -2.6334891   -1.8887271  0.049335457   -2.6334891   0.74476206   424551 
 1739000   0.62104058   -2.6333607   -2.6333607   -1.8884341  0.045638559   -2.6333607   0.74492659   424551 
 1740000   0.62020998   -2.6332569   -2.6332569   -1.8893266   0.04188584   -2.6332569   0.74393029   424551 
 1741000   0.61959092   -2.6321668   -2.6321668   -1.8889791  0.043505552   -2.6321668   0.74318774   424551 
 1742000   0.62052084   -2.6334604   -2.6334604   -1.8891573  0.037885764   -2.6334604   0.74430317   424551 
 1743000   0.61939488   -2.6318953   -2.6318953   -1.8889427  0.049738973   -2.6318953    0.7429526   424551 
 1744000   0.62023132   -2.6335588   -2.6335588   -1.8896029  0.054693128   -2.6335588   0.74395589   424551 
 1745000   0.62017813   -2.6341419   -2.6341419   -1.8902498  0.039799821   -2.6341419   0.74389209   424551 
 1746000   0.62043001   -2.6337855   -2.6337855   -1.8895912  0.036502626   -2.6337855   0.74419422   424551 
 1747000   0.62103879   -2.6346482   -2.6346482   -1.8897237   0.04329426   -2.6346482   0.74492444   424551 
 1748000   0.62190515   -2.6360195   -2.6360195   -1.8900559  0.040659932   -2.6360195   0.74596362   424551 
 1749000   0.62175176   -2.6360127   -2.6360127   -1.8902331  0.049476986   -2.6360127   0.74577963   424551 
 1750000   0.62120222   -2.6361969   -2.6361969   -1.8910765  0.046533655   -2.6361969   0.74512047   424551 
 1751000   0.62090221   -2.6369501   -2.6369501   -1.8921894   0.04917653   -2.6369501   0.74476061   424551 
 1752000   0.62260441   -2.6385667   -2.6385667   -1.8917643  0.043532397   -2.6385667   0.74680237   424551 
 1753000   0.62106139   -2.6377667   -2.6377667   -1.8928151  0.046506486   -2.6377667   0.74495154   424551 
 1754000   0.62059922   -2.6379732   -2.6379732    -1.893576  0.050467642   -2.6379732   0.74439717   424551 
 1755000    0.6215208   -2.6388143   -2.6388143   -1.8933117  0.053218508   -2.6388143    0.7455026   424551 
 1756000   0.62063664   -2.6387243   -2.6387243   -1.8942823  0.046042538   -2.6387243   0.74444207   424551 
 1757000    0.6203053   -2.6375708   -2.6375708   -1.8935262  0.051754315   -2.6375708   0.74404463   424551 
 1758000   0.62176092   -2.6395745   -2.6395745   -1.8937839  0.044906306   -2.6395745   0.74579061   424551 
 1759000   0.62170162   -2.6382235   -2.6382235    -1.892504  0.052654937   -2.6382235   0.74571949   424551 
 1760000   0.62087781   -2.6380617   -2.6380617   -1.8933304  0.042550053   -2.6380617   0.74473134   424551 
 1761000   0.62145271   -2.6382206   -2.6382206   -1.8927997  0.041735249   -2.6382206   0.74542093   424551 
 1762000   0.62096819   -2.6374895   -2.6374895   -1.8926497  0.041963029   -2.6374895   0.74483975   424551 
 1763000   0.62184473    -2.638249    -2.638249   -1.8923578  0.043917285    -2.638249   0.74589114   424551 
 1764000   0.62090646   -2.6372751   -2.6372751   -1.8925094  0.037958435   -2.6372751   0.74476571   424551 
 1765000   0.62032486   -2.6370605   -2.6370605   -1.8929924  0.054869957   -2.6370605   0.74406809   424551 
 1766000   0.62043527   -2.6374185   -2.6374185    -1.893218  0.040132658   -2.6374185   0.74420052   424551 
 1767000   0.61905179   -2.6365443   -2.6365443   -1.8940032  0.048171409   -2.6365443   0.74254106   424551 
 1768000    0.6211778    -2.638347    -2.638347   -1.8932559  0.037161748    -2.638347   0.74509117   424551 
 1769000   0.62034188   -2.6368617   -2.6368617   -1.8927732  0.040347491   -2.6368617   0.74408851   424551 
 1770000   0.62023564   -2.6370948   -2.6370948   -1.8931337  0.051501794   -2.6370948   0.74396107   424551 
 1771000   0.62071374   -2.6378547   -2.6378547   -1.8933202  0.039236565   -2.6378547   0.74453455   424551 
 1772000   0.62083112   -2.6386346   -2.6386346   -1.8939593  0.037048308   -2.6386346   0.74467534   424551 
 1773000   0.62050341   -2.6379606   -2.6379606   -1.8936783  0.043472928   -2.6379606   0.74428225   424551 
 1774000   0.62124926   -2.6379908   -2.6379908   -1.8928139  0.047422434   -2.6379908   0.74517689   424551 
 1775000    0.6217266   -2.6399945   -2.6399945    -1.894245  0.052756329   -2.6399945   0.74574945   424551 
 1776000   0.62040587   -2.6385492   -2.6385492    -1.894384  0.047818306   -2.6385492   0.74416526   424551 
 1777000   0.62038172   -2.6377419   -2.6377419   -1.8936057   0.04149082   -2.6377419    0.7441363   424551 
 1778000   0.62126847   -2.6391063   -2.6391063   -1.8939064  0.045268036   -2.6391063   0.74519994   424551 
 1779000   0.62067578   -2.6393464   -2.6393464   -1.8948574  0.055012529   -2.6393464   0.74448902   424551 
 1780000   0.62124343   -2.6396267   -2.6396267   -1.8944568  0.055425592   -2.6396267    0.7451699   424551 
 1781000   0.62143835   -2.6399007   -2.6399007    -1.894497  0.052923463   -2.6399007    0.7454037   424551 
 1782000   0.62078478   -2.6400804   -2.6400804   -1.8954607   0.05180768   -2.6400804   0.74461976   424551 
 1783000   0.62146873   -2.6409376   -2.6409376   -1.8954974  0.046314251   -2.6409376   0.74544014   424551 
 1784000   0.62130636   -2.6399695   -2.6399695   -1.8947241  0.043618517   -2.6399695   0.74524538   424551 
 1785000     0.620709   -2.6397996   -2.6397996   -1.8952707  0.055269105   -2.6397996   0.74452886   424551 
 1786000   0.62156527   -2.6412734   -2.6412734   -1.8957175  0.047120283   -2.6412734   0.74555594   424551 
 1787000    0.6206848   -2.6407718   -2.6407718   -1.8962719  0.048293147   -2.6407718   0.74449983   424551 
 1788000   0.62081345   -2.6405066   -2.6405066   -1.8958525  0.043442965   -2.6405066   0.74465415   424551 
 1789000   0.61986848   -2.6398916   -2.6398916   -1.8963709  0.038297913   -2.6398916   0.74352067   424551 
 1790000   0.62040045   -2.6404488   -2.6404488     -1.89629  0.044975776   -2.6404488   0.74415875   424551 
 1791000    0.6210425   -2.6416755   -2.6416755   -1.8967467  0.043426969   -2.6416755   0.74492889   424551 
 1792000   0.62087201   -2.6408863   -2.6408863   -1.8961619  0.046772401   -2.6408863   0.74472439   424551 
 1793000   0.62186841   -2.6417497   -2.6417497   -1.8958301  0.040718993   -2.6417497   0.74591955   424551 
 1794000   0.62063954   -2.6410484   -2.6410484   -1.8966029  0.049354977   -2.6410484   0.74444554   424551 
 1795000   0.61956026   -2.6394896   -2.6394896   -1.8963387   0.04557694   -2.6394896   0.74315097   424551 
 1796000   0.62066828   -2.6410346   -2.6410346   -1.8965546  0.052035812   -2.6410346   0.74448002   424551 
 1797000   0.61969532   -2.6400357   -2.6400357   -1.8967227  0.056848089   -2.6400357   0.74331297   424551 
 1798000   0.62013463   -2.6402836   -2.6402836   -1.8964437  0.045540575   -2.6402836   0.74383991   424551 
 1799000    0.6188068   -2.6386663   -2.6386663   -1.8964191  0.049649914   -2.6386663   0.74224721   424551 
 1800000   0.62075446   -2.6402338   -2.6402338   -1.8956504   0.03473314   -2.6402338   0.74458338   424551 
 1801000   0.62088232   -2.6403421   -2.6403421   -1.8956054  0.047947473   -2.6403421   0.74473675   424551 
 1802000   0.62029324   -2.6402667   -2.6402667   -1.8962366  0.049207449   -2.6402667   0.74403017   424551 
 1803000   0.61928491   -2.6389982   -2.6389982   -1.8961775   0.05323096   -2.6389982   0.74282069   424551 
 1804000   0.61990306   -2.6398139   -2.6398139   -1.8962517   0.04849427   -2.6398139   0.74356215   424551 
 1805000   0.62030287   -2.6407486   -2.6407486   -1.8967069  0.054245812   -2.6407486   0.74404171   424551 
 1806000   0.62045691   -2.6412109   -2.6412109   -1.8969845  0.035100025   -2.6412109   0.74422648   424551 
 1807000   0.61939415   -2.6386083   -2.6386083   -1.8956566   0.04466525   -2.6386083   0.74295172   424551 
 1808000   0.62147716   -2.6405667   -2.6405667   -1.8951165  0.036323019   -2.6405667   0.74545026   424551 
 1809000   0.62023174   -2.6399339   -2.6399339   -1.8959775  0.045793802   -2.6399339   0.74395639   424551 
 1810000     0.621272   -2.6412091   -2.6412091   -1.8960049  0.040725089   -2.6412091   0.74520417   424551 
 1811000   0.61996229    -2.640467    -2.640467   -1.8968338  0.041167565    -2.640467   0.74363319   424551 
 1812000   0.62000441    -2.640157    -2.640157   -1.8964733  0.050449302    -2.640157   0.74368372   424551 
 1813000   0.62169939   -2.6425339   -2.6425339   -1.8968171  0.046984662   -2.6425339   0.74571681   424551 
 1814000   0.62140973   -2.6413617   -2.6413617   -1.8959923  0.061551579   -2.6413617   0.74536937   424551 
 1815000   0.61956871   -2.6407923   -2.6407923   -1.8976312   0.04595492   -2.6407923   0.74316111   424551 
 1816000   0.62022511   -2.6415122   -2.6415122   -1.8975638  0.049681022   -2.6415122   0.74394844   424551 
 1817000   0.62025664   -2.6415108   -2.6415108   -1.8975245  0.058632264   -2.6415108   0.74398626   424551 
 1818000   0.62109701   -2.6425365   -2.6425365   -1.8975422  0.046275176   -2.6425365   0.74499427   424551 
 1819000   0.62035095   -2.6417796   -2.6417796   -1.8976802  0.044825162   -2.6417796   0.74409938   424551 
 1820000   0.62156357   -2.6426861   -2.6426861   -1.8971322  0.051471322   -2.6426861    0.7455539   424551 
 1821000   0.62126337   -2.6419874   -2.6419874   -1.8967936  0.056168036   -2.6419874   0.74519382   424551 
 1822000   0.62177186    -2.642815    -2.642815   -1.8970113  0.042745476    -2.642815   0.74580374   424551 
 1823000   0.62118756   -2.6423307   -2.6423307   -1.8972278  0.054284357   -2.6423307   0.74510288   424551 
 1824000   0.62202374   -2.6427386   -2.6427386   -1.8966327  0.048607279   -2.6427386   0.74610587   424551 
 1825000   0.61983982   -2.6395475   -2.6395475   -1.8960612  0.052745867   -2.6395475    0.7434863   424551 
 1826000   0.61950422   -2.6400251   -2.6400251   -1.8969413  0.040572113   -2.6400251   0.74308374   424551 
 1827000   0.62037086   -2.6409137   -2.6409137   -1.8967904  0.051776485   -2.6409137   0.74412327   424551 
 1828000   0.61938313   -2.6391935   -2.6391935    -1.896255  0.038413768   -2.6391935    0.7429385   424551 
 1829000   0.62090286    -2.641134    -2.641134   -1.8963726  0.041518127    -2.641134   0.74476139   424551 
 1830000   0.61972048   -2.6396882   -2.6396882   -1.8963451  0.041911465   -2.6396882   0.74334315   424551 
 1831000   0.62040283   -2.6395833   -2.6395833   -1.8954217  0.042605674   -2.6395833   0.74416161   424551 
 1832000   0.61957689   -2.6387109   -2.6387109     -1.89554  0.042758709   -2.6387109   0.74317092   424551 
 1833000   0.62027015   -2.6398399   -2.6398399   -1.8958374   0.04931726   -2.6398399   0.74400246   424551 
 1834000   0.61918455   -2.6391518   -2.6391518   -1.8964515  0.050529018   -2.6391518   0.74270031   424551 
 1835000   0.62059932   -2.6407859   -2.6407859   -1.8963886  0.037546738   -2.6407859    0.7443973   424551 
 1836000   0.61972493   -2.6403514   -2.6403514   -1.8970029  0.051616107   -2.6403514   0.74334848   424551 
 1837000   0.62071681   -2.6410507   -2.6410507   -1.8965125  0.040657757   -2.6410507   0.74453823   424551 
 1838000   0.61892434   -2.6396298   -2.6396298   -1.8972416  0.037545891   -2.6396298   0.74238819   424551 
 1839000   0.61958182   -2.6403441   -2.6403441   -1.8971673  0.044150598   -2.6403441   0.74317682   424551 
 1840000   0.62178143   -2.6424951   -2.6424951   -1.8966799  0.048058122   -2.6424951   0.74581521   424551 
 1841000   0.61959358   -2.6403702   -2.6403702   -1.8971793  0.051870973   -2.6403702   0.74319093   424551 
 1842000   0.62004449   -2.6420129   -2.6420129   -1.8982811  0.045072852   -2.6420129   0.74373179   424551 
 1843000   0.62067476   -2.6430594   -2.6430594   -1.8985716  0.052784575   -2.6430594   0.74448779   424551 
 1844000   0.62013346   -2.6425754   -2.6425754   -1.8987369   0.04874615   -2.6425754   0.74383851   424551 
 1845000   0.61983598   -2.6425817   -2.6425817      -1.8991   0.04070022   -2.6425817   0.74348169   424551 
 1846000   0.62011458   -2.6432355   -2.6432355   -1.8994196  0.050484164   -2.6432355   0.74381587   424551 
 1847000   0.61968017   -2.6428301   -2.6428301   -1.8995353  0.060908689   -2.6428301   0.74329479   424551 
 1848000   0.61894467    -2.642119    -2.642119   -1.8997064  0.041179065    -2.642119   0.74241257   424551 
 1849000   0.62012978   -2.6443526   -2.6443526   -1.9005185  0.049938109   -2.6443526    0.7438341   424551 
 1850000    0.6191778   -2.6433075   -2.6433075   -1.9006153  0.045841995   -2.6433075   0.74269222   424551 
 1851000   0.62096579   -2.6458483   -2.6458483   -1.9010114   0.04280655   -2.6458483   0.74483687   424551 
 1852000   0.61921146   -2.6441748   -2.6441748   -1.9014422  0.045836679   -2.6441748   0.74273259   424551 
 1853000   0.62073215   -2.6454192   -2.6454192   -1.9008625  0.047588643   -2.6454192   0.74455663   424551 
 1854000   0.62038445   -2.6443056   -2.6443056   -1.9001661  0.047091781   -2.6443056   0.74413957   424551 
 1855000   0.62144779     -2.64648     -2.64648    -1.901065  0.054755364     -2.64648   0.74541503   424551 
 1856000   0.62095648   -2.6460789   -2.6460789   -1.9012532   0.05292759   -2.6460789    0.7448257   424551 
 1857000   0.62010352   -2.6451176   -2.6451176    -1.901315  0.040785862   -2.6451176   0.74380259   424551 
 1858000   0.61939443   -2.6445445   -2.6445445   -1.9015924   0.04922743   -2.6445445   0.74295206   424551 
 1859000    0.6186719   -2.6442387   -2.6442387   -1.9021533  0.058147616   -2.6442387    0.7420854   424551 
 1860000   0.61989393   -2.6460726   -2.6460726   -1.9025214  0.045764893   -2.6460726    0.7435512   424551 
 1861000   0.61917806   -2.6446983   -2.6446983   -1.9020058   0.04712804   -2.6446983   0.74269253   424551 
 1862000   0.62006148   -2.6457599   -2.6457599   -1.9020077   0.05380395   -2.6457599   0.74375217   424551 
 1863000   0.62088492   -2.6460897   -2.6460897   -1.9013498  0.046453353   -2.6460897   0.74473987   424551 
 1864000    0.6210733   -2.6459058   -2.6459058   -1.9009399    0.0412766   -2.6459058   0.74496584   424551 
 1865000   0.62020889   -2.6456894   -2.6456894   -1.9017604  0.033810469   -2.6456894   0.74392899   424551 
 1866000    0.6199559   -2.6466864   -2.6466864   -1.9030609  0.054602712   -2.6466864   0.74362553   424551 
 1867000   0.61944441   -2.6464885   -2.6464885   -1.9034765  0.050055709   -2.6464885   0.74301201   424551 
 1868000   0.62003101   -2.6460912   -2.6460912   -1.9023756  0.036494484   -2.6460912   0.74371563   424551 
 1869000     0.619708    -2.645506    -2.645506   -1.9021778  0.047262608    -2.645506   0.74332818   424551 
 1870000   0.61882243   -2.6447475   -2.6447475   -1.9024815  0.056153102   -2.6447475   0.74226596   424551 
 1871000    0.6191429   -2.6444386   -2.6444386   -1.9017882  0.034809832   -2.6444386   0.74265035   424551 
 1872000   0.61889149   -2.6439095   -2.6439095   -1.9015607  0.045259447   -2.6439095   0.74234879   424551 
 1873000   0.61993809    -2.645332    -2.645332   -1.9017278  0.047764155    -2.645332   0.74360416   424551 
 1874000   0.61892478    -2.644028    -2.644028   -1.9016393  0.047228359    -2.644028   0.74238872   424551 
 1875000   0.61982421   -2.6451718   -2.6451718   -1.9017043  0.053478181   -2.6451718   0.74346757   424551 
 1876000   0.62011555   -2.6453931   -2.6453931    -1.901576  0.057242577   -2.6453931   0.74381702   424551 
 1877000   0.62107874   -2.6461226   -2.6461226   -1.9011502  0.049662272   -2.6461226   0.74497235   424551 
 1878000   0.61956461   -2.6447028   -2.6447028   -1.9015466  0.049156212   -2.6447028   0.74315618   424551 
 1879000    0.6195081   -2.6460106   -2.6460106   -1.9029222  0.055523478   -2.6460106    0.7430884   424551 
 1880000   0.61985446   -2.6456224   -2.6456224   -1.9021185   0.04493929   -2.6456224   0.74350386   424551 
 1881000    0.6186327   -2.6444765   -2.6444765   -1.9024381  0.048674897   -2.6444765   0.74203838   424551 
 1882000   0.61943435   -2.6454951   -2.6454951   -1.9024951   0.05170308   -2.6454951   0.74299994   424551 
 1883000   0.61938408    -2.645697    -2.645697   -1.9027573   0.04198143    -2.645697   0.74293965   424551 
 1884000    0.6200725    -2.646434    -2.646434   -1.9026686  0.050036846    -2.646434   0.74376539   424551 
 1885000   0.61891608   -2.6463238   -2.6463238   -1.9039456  0.037587504   -2.6463238   0.74237829   424551 
 1886000   0.61865541   -2.6462719   -2.6462719   -1.9042063  0.044718331   -2.6462719   0.74206561   424551 
 1887000   0.61800184   -2.6454895   -2.6454895   -1.9042078  0.048900646   -2.6454895   0.74128167   424551 
 1888000   0.62085264   -2.6497082   -2.6497082    -1.905007  0.049222175   -2.6497082   0.74470116   424551 
 1889000    0.6193789   -2.6474748   -2.6474748   -1.9045414  0.044076884   -2.6474748   0.74293343   424551 
 1890000   0.61988094   -2.6487586   -2.6487586    -1.905223  0.045383016   -2.6487586   0.74353562   424551 
 1891000   0.61960777   -2.6482796   -2.6482796   -1.9050716  0.045711226   -2.6482796   0.74320795   424551 
 1892000   0.61948179   -2.6485944   -2.6485944   -1.9055376  0.051575176   -2.6485944   0.74305685   424551 
 1893000   0.61952204   -2.6489381   -2.6489381    -1.905833  0.045753037   -2.6489381   0.74310512   424551 
 1894000   0.62070093   -2.6502008   -2.6502008   -1.9056816  0.049311175   -2.6502008   0.74451919   424551 
 1895000   0.62056813    -2.650355    -2.650355   -1.9059952  0.046095899    -2.650355   0.74435989   424551 
 1896000   0.61972278   -2.6488255   -2.6488255   -1.9054796  0.053292465   -2.6488255   0.74334591   424551 
 1897000   0.62001771   -2.6494809   -2.6494809   -1.9057812  0.039773241   -2.6494809   0.74369967   424551 
 1898000   0.61983129   -2.6489712   -2.6489712   -1.9054952  0.043037795   -2.6489712   0.74347606   424551 
 1899000   0.61980497   -2.6477998   -2.6477998   -1.9043553  0.058077404   -2.6477998   0.74344449   424551 
 1900000   0.62025596   -2.6483883   -2.6483883   -1.9044028  0.043611621   -2.6483883   0.74398545   424551 
 1901000   0.61954744   -2.6482824   -2.6482824   -1.9051468  0.042898615   -2.6482824   0.74313559   424551 
 1902000   0.62000369   -2.6491104   -2.6491104   -1.9054275  0.040256791   -2.6491104   0.74368285   424551 
 1903000   0.61812237   -2.6471604   -2.6471604   -1.9057341  0.053404274   -2.6471604   0.74142624   424551 
 1904000   0.61803477   -2.6481248   -2.6481248   -1.9068037  0.032974709   -2.6481248   0.74132117   424551 
 1905000   0.61885255   -2.6489446   -2.6489446   -1.9066426  0.038076468   -2.6489446   0.74230208   424551 
 1906000   0.61895555   -2.6480644   -2.6480644   -1.9056388  0.038335219   -2.6480644   0.74242563   424551 
 1907000    0.6202858   -2.6488907   -2.6488907   -1.9048694  0.045050905   -2.6488907   0.74402124   424551 
 1908000    0.6197116   -2.6481719   -2.6481719   -1.9048394   0.04016139   -2.6481719    0.7433325   424551 
 1909000   0.61981303   -2.6492564   -2.6492564   -1.9058022   0.04806766   -2.6492564   0.74345415   424551 
 1910000   0.61912995   -2.6475992   -2.6475992   -1.9049644  0.052116733   -2.6475992   0.74263482   424551 
 1911000    0.6200482   -2.6488923   -2.6488923   -1.9051561  0.041414594   -2.6488923   0.74373624   424551 
 1912000   0.61872976   -2.6476558   -2.6476558    -1.905501  0.048231425   -2.6476558    0.7421548   424551 
 1913000   0.61958248   -2.6490447   -2.6490447    -1.905867  0.048930561   -2.6490447   0.74317762   424551 
 1914000   0.61903524   -2.6478182   -2.6478182    -1.905297  0.043890128   -2.6478182   0.74252121   424551 
 1915000   0.62000525   -2.6495565   -2.6495565   -1.9058718  0.047795271   -2.6495565   0.74368473   424551 
 1916000   0.61944025   -2.6491572   -2.6491572   -1.9061501  0.032596567   -2.6491572   0.74300702   424551 
 1917000   0.61909038   -2.6488742   -2.6488742   -1.9062869  0.048423327   -2.6488742   0.74258736   424551 
 1918000   0.61895274   -2.6494223   -2.6494223       -1.907  0.047915354   -2.6494223   0.74242225   424551 
 1919000   0.61808928   -2.6476191   -2.6476191   -1.9062326  0.053273812   -2.6476191   0.74138656   424551 
 1920000   0.61902587   -2.6495151   -2.6495151   -1.9070051  0.049698194   -2.6495151   0.74250998   424551 
 1921000   0.61974244    -2.649829    -2.649829   -1.9064595  0.032962725    -2.649829   0.74336949   424551 
 1922000   0.61986486   -2.6507128   -2.6507128   -1.9071965  0.037956529   -2.6507128   0.74351633   424551 
 1923000   0.61788754   -2.6483718   -2.6483718   -1.9072272  0.046484312   -2.6483718   0.74114458   424551 
 1924000   0.61922297   -2.6510994   -2.6510994    -1.908353  0.052632191   -2.6510994    0.7427464   424551 
 1925000   0.62000343   -2.6512327   -2.6512327   -1.9075502  0.041494007   -2.6512327   0.74368254   424551 
 1926000   0.61919406   -2.6502436   -2.6502436   -1.9075318  0.049051587   -2.6502436   0.74271172   424551 
 1927000   0.61978382   -2.6511753   -2.6511753   -1.9077562  0.042714161   -2.6511753   0.74341912   424551 
 1928000   0.61861806   -2.6503263   -2.6503263   -1.9083054  0.045991716   -2.6503263   0.74202082   424551 
 1929000   0.61963288   -2.6511481   -2.6511481     -1.90791  0.052670355   -2.6511481   0.74323807   424551 
 1930000   0.61788287   -2.6497518   -2.6497518   -1.9086129  0.056663484   -2.6497518   0.74113897   424551 
 1931000   0.61906508   -2.6514124   -2.6514124   -1.9088554  0.041827966   -2.6514124   0.74255701   424551 
 1932000   0.61949974   -2.6518889   -2.6518889   -1.9088105  0.038540626   -2.6518889   0.74307837   424551 
 1933000   0.61977091    -2.652476    -2.652476   -1.9090724  0.043857422    -2.652476   0.74340363   424551 
 1934000   0.62007574   -2.6524051   -2.6524051   -1.9086358   0.04816171   -2.6524051   0.74376928   424551 
 1935000    0.6185505   -2.6507291   -2.6507291   -1.9087893  0.051368274   -2.6507291   0.74193978   424551 
 1936000   0.61957362   -2.6516946   -2.6516946   -1.9085276   0.04289504   -2.6516946     0.743167   424551 
 1937000   0.61925248   -2.6509773   -2.6509773   -1.9081955  0.051497437   -2.6509773   0.74278179   424551 
 1938000     0.619485   -2.6512928   -2.6512928   -1.9082321    0.0409789   -2.6512928   0.74306069   424551 
 1939000   0.61810038   -2.6496495   -2.6496495   -1.9082496  0.040164283   -2.6496495   0.74139987   424551 
 1940000   0.61821364   -2.6505414   -2.6505414   -1.9090057  0.039356976   -2.6505414   0.74153573   424551 
 1941000   0.61703444   -2.6492516   -2.6492516   -1.9091303    0.0467856   -2.6492516   0.74012129   424551 
 1942000   0.61740668   -2.6490981   -2.6490981   -1.9085303  0.037588283   -2.6490981   0.74056779   424551 
 1943000   0.61738327   -2.6494795   -2.6494795   -1.9089398  0.054456901   -2.6494795   0.74053971   424551 
 1944000    0.6184031   -2.6509954   -2.6509954   -1.9092324  0.040269264   -2.6509954   0.74176298   424551 
 1945000   0.61760375   -2.6494851   -2.6494851    -1.908681  0.036533314   -2.6494851   0.74080417   424551 
 1946000   0.61861866   -2.6523147   -2.6523147   -1.9102932  0.040932611   -2.6523147   0.74202154   424551 
 1947000   0.61944741   -2.6532629   -2.6532629   -1.9102473  0.041773471   -2.6532629    0.7430156   424551 
 1948000   0.61902716   -2.6533208   -2.6533208   -1.9108093  0.058056642   -2.6533208   0.74251153   424551 
 1949000   0.62054312   -2.6553258   -2.6553258   -1.9109959  0.045012289   -2.6553258   0.74432989   424551 
 1950000    0.6186178     -2.65338     -2.65338   -1.9113595  0.054385994     -2.65338   0.74202051   424551 
 1951000   0.61942458   -2.6545528   -2.6545528   -1.9115646  0.056791441   -2.6545528   0.74298822   424551 
 1952000   0.62014411   -2.6561727   -2.6561727   -1.9123214  0.043947604   -2.6561727   0.74385128   424551 
 1953000   0.61893026   -2.6540734   -2.6540734   -1.9116781  0.039556837   -2.6540734   0.74239529   424551 
 1954000   0.61871827    -2.654403    -2.654403    -1.912262  0.044382303    -2.654403   0.74214102   424551 
 1955000   0.61855473   -2.6544095   -2.6544095   -1.9124647  0.043874128   -2.6544095   0.74194486   424551 
 1956000   0.61906068   -2.6546495   -2.6546495   -1.9120978  0.047031836   -2.6546495   0.74255173   424551 
 1957000   0.61802206   -2.6535957   -2.6535957   -1.9122898  0.048754946   -2.6535957   0.74130593   424551 
 1958000   0.61809369   -2.6542464   -2.6542464   -1.9128546  0.035063526   -2.6542464   0.74139185   424551 
 1959000   0.61753841   -2.6535465   -2.6535465   -1.9128207  0.038964904   -2.6535465   0.74072579   424551 
 1960000   0.61887694   -2.6540569   -2.6540569   -1.9117256  0.044166919   -2.6540569   0.74233134   424551 
 1961000    0.6175997   -2.6528111   -2.6528111   -1.9120118  0.056736112   -2.6528111   0.74079931   424551 
 1962000   0.61900869   -2.6541027   -2.6541027   -1.9116134  0.040757415   -2.6541027   0.74248937   424551 
 1963000   0.61819874   -2.6532568   -2.6532568   -1.9117389  0.053969088   -2.6532568   0.74151785   424551 
 1964000   0.61761114   -2.6524144   -2.6524144   -1.9116014  0.040388919   -2.6524144   0.74081304   424551 
 1965000   0.61869691   -2.6542882   -2.6542882   -1.9121728  0.042771479   -2.6542882    0.7421154   424551 
 1966000   0.61761491   -2.6531354   -2.6531354   -1.9123179  0.046716575   -2.6531354   0.74081755   424551 
 1967000   0.61891664   -2.6542857   -2.6542857   -1.9119068   0.04765221   -2.6542857   0.74237895   424551 
 1968000    0.6180458   -2.6535957   -2.6535957   -1.9122613  0.038828037   -2.6535957   0.74133441   424551 
 1969000   0.61777663   -2.6535679   -2.6535679   -1.9125563  0.056990654   -2.6535679   0.74101154   424551 
 1970000   0.61861013   -2.6545013   -2.6545013     -1.91249   0.04472386   -2.6545013   0.74201131   424551 
 1971000     0.617867   -2.6544133   -2.6544133   -1.9132934  0.037433298   -2.6544133   0.74111993   424551 
 1972000   0.61688468   -2.6531003   -2.6531003   -1.9131587  0.048397069   -2.6531003   0.73994166   424551 
 1973000   0.61833497   -2.6553427   -2.6553427   -1.9136614  0.041954573   -2.6553427   0.74168125   424551 
 1974000   0.61825258   -2.6550169   -2.6550169   -1.9134345  0.043870088   -2.6550169   0.74158243   424551 
 1975000   0.61833793   -2.6552299   -2.6552299   -1.9135451  0.046081069   -2.6552299    0.7416848   424551 
 1976000   0.61889121   -2.6560835   -2.6560835   -1.9137351  0.044277631   -2.6560835   0.74234845   424551 
 1977000   0.61769651   -2.6539028   -2.6539028   -1.9129874  0.039641321   -2.6539028   0.74091544   424551 
 1978000   0.61864866   -2.6551398   -2.6551398   -1.9130822  0.051117619   -2.6551398   0.74205753   424551 
 1979000   0.61841258    -2.655134    -2.655134   -1.9133597  0.038446675    -2.655134   0.74177435   424551 
 1980000   0.61915031   -2.6563096   -2.6563096   -1.9136504  0.040284545   -2.6563096   0.74265924   424551 
 1981000   0.61881394   -2.6561913   -2.6561913   -1.9139355  0.046327474   -2.6561913   0.74225578   424551 
 1982000   0.61801218   -2.6554616   -2.6554616   -1.9141675  0.047455529   -2.6554616   0.74129408   424551 
 1983000    0.6187367    -2.656486    -2.656486   -1.9143229  0.041502336    -2.656486   0.74216312   424551 
 1984000   0.61890829   -2.6566663   -2.6566663   -1.9142974  0.039752299   -2.6566663   0.74236894   424551 
 1985000   0.61884147   -2.6564093   -2.6564093   -1.9141205  0.032864401   -2.6564093   0.74228879   424551 
 1986000   0.61841005   -2.6557175   -2.6557175   -1.9139462  0.039915333   -2.6557175   0.74177132   424551 
 1987000   0.61849595   -2.6560834   -2.6560834   -1.9142091  0.046083571   -2.6560834   0.74187435   424551 
 1988000   0.61814984   -2.6563252   -2.6563252    -1.914866  0.050268778   -2.6563252    0.7414592   424551 
 1989000   0.61823238   -2.6561705   -2.6561705   -1.9146123  0.044646546   -2.6561705    0.7415582   424551 
 1990000   0.61773251   -2.6549135   -2.6549135   -1.9139549  0.056644015   -2.6549135   0.74095861   424551 
 1991000   0.61799044   -2.6553084   -2.6553084   -1.9140404   0.04153238   -2.6553084     0.741268   424551 
 1992000    0.6181225   -2.6565602   -2.6565602   -1.9151337  0.044582255   -2.6565602    0.7414264   424551 
 1993000   0.61775019   -2.6552572   -2.6552572   -1.9142774  0.025511486   -2.6552572   0.74097982   424551 
 1994000   0.61790972   -2.6552207   -2.6552207   -1.9140495  0.031389478   -2.6552207   0.74117118   424551 
 1995000     0.616536   -2.6540506   -2.6540506   -1.9145272  0.063660147   -2.6540506   0.73952342   424551 
 1996000      0.61925   -2.6577353   -2.6577353   -1.9149565  0.042563558   -2.6577353   0.74277881   424551 
 1997000   0.61794844   -2.6566805   -2.6566805   -1.9154629  0.045692017   -2.6566805   0.74121762   424551 
 1998000   0.61774082   -2.6567474   -2.6567474   -1.9157788    0.0556582   -2.6567474   0.74096859   424551 
 1999000   0.61844476   -2.6574389   -2.6574389    -1.915626  0.044742024   -2.6574389   0.74181295   424551 
 2000000   0.61856947   -2.6575671   -2.6575671   -1.9156046  0.041290801   -2.6575671   0.74196254   424551 
 2001000   0.61825628   -2.6578164   -2.6578164   -1.9162296  0.040749336   -2.6578164   0.74158687   424551 
 2002000    0.6183819   -2.6573913   -2.6573913   -1.9156538  0.046829127   -2.6573913   0.74173754   424551 
 2003000   0.61749353   -2.6565367   -2.6565367   -1.9158647  0.035200333   -2.6565367   0.74067197   424551 
 2004000   0.61771513   -2.6567853   -2.6567853   -1.9158476  0.044300234   -2.6567853   0.74093776   424551 
 2005000   0.61859304   -2.6577143   -2.6577143   -1.9157235  0.042577218   -2.6577143    0.7419908   424551 
 2006000   0.61864923   -2.6577011   -2.6577011   -1.9156429  0.034624813   -2.6577011    0.7420582   424551 
 2007000   0.62005072   -2.6603128   -2.6603128   -1.9165735   0.04134264   -2.6603128   0.74373927   424551 
 2008000   0.61893013   -2.6587325   -2.6587325   -1.9163373  0.039729608   -2.6587325   0.74239514   424551 
 2009000   0.61980954   -2.6597598   -2.6597598   -1.9163098  0.044345751   -2.6597598   0.74344997   424551 
 2010000   0.61797418   -2.6582197   -2.6582197   -1.9169712  0.054070935   -2.6582197   0.74124849   424551 
 2011000   0.61639162   -2.6574583   -2.6574583   -1.9181081  0.045291481   -2.6574583   0.73935024   424551 
 2012000   0.61732969   -2.6587921   -2.6587921   -1.9183167  0.033492126   -2.6587921   0.74047544   424551 
 2013000   0.61788193   -2.6596945   -2.6596945   -1.9185567  0.032623835   -2.6596945   0.74113784   424551 
 2014000    0.6171273   -2.6592461   -2.6592461   -1.9190134  0.041851515   -2.6592461   0.74023268   424551 
 2015000   0.61672587   -2.6586024   -2.6586024   -1.9188513  0.051073324   -2.6586024   0.73975117   424551 
 2016000   0.61745164   -2.6592116   -2.6592116   -1.9185899  0.053309745   -2.6592116   0.74062172   424551 
 2017000   0.61765561   -2.6589462   -2.6589462   -1.9180798  0.044985417   -2.6589462   0.74086638   424551 
 2018000   0.61756928   -2.6586775   -2.6586775   -1.9179147  0.055474746   -2.6586775   0.74076282   424551 
 2019000   0.61862778    -2.659769    -2.659769   -1.9177365  0.036346035    -2.659769   0.74203248   424551 
 2020000   0.61948882   -2.6602129   -2.6602129   -1.9171476  0.039241291   -2.6602129   0.74306527   424551 
 2021000   0.61772574   -2.6588469   -2.6588469   -1.9178964  0.039445497   -2.6588469    0.7409505   424551 
 2022000    0.6172978     -2.65875     -2.65875   -1.9183128  0.039921247     -2.65875   0.74043719   424551 
 2023000   0.61806628   -2.6591478   -2.6591478   -1.9177889  0.037938581   -2.6591478   0.74135896   424551 
 2024000   0.61763527    -2.659111    -2.659111   -1.9182691   0.05363783    -2.659111   0.74084197   424551 
 2025000   0.61700902   -2.6584346   -2.6584346   -1.9183438   0.04893399   -2.6584346    0.7400908   424551 
 2026000     0.617888   -2.6608221   -2.6608221    -1.919677  0.044841859   -2.6608221   0.74114512   424551 
 2027000   0.61807482   -2.6609719   -2.6609719   -1.9196027  0.042267561   -2.6609719   0.74136921   424551 
 2028000   0.61711084   -2.6609481   -2.6609481   -1.9207352  0.043861795   -2.6609481   0.74021294   424551 
 2029000   0.61788642   -2.6618928   -2.6618928   -1.9207496   0.04094364   -2.6618928   0.74114323   424551 
 2030000   0.61715043   -2.6611824   -2.6611824    -1.920922  0.047958766   -2.6611824   0.74026042   424551 
 2031000   0.61807234   -2.6612617   -2.6612617   -1.9198954   0.04175296   -2.6612617   0.74136623   424551 
 2032000   0.61740155   -2.6609874   -2.6609874   -1.9204258  0.051286731   -2.6609874   0.74056164   424551 
 2033000   0.61606605   -2.6590466   -2.6590466   -1.9200869  0.041759853   -2.6590466   0.73895973   424551 
 2034000   0.61812841   -2.6611234   -2.6611234   -1.9196899  0.041549724   -2.6611234   0.74143349   424551 
 2035000   0.61737032    -2.660374    -2.660374   -1.9198499  0.037808425    -2.660374   0.74052417   424551 
 2036000   0.61879206   -2.6619952   -2.6619952   -1.9197657  0.054562163   -2.6619952   0.74222953   424551 
 2037000   0.61871325   -2.6616433   -2.6616433   -1.9195083  0.041452777   -2.6616433   0.74213499   424551 
 2038000   0.61732559   -2.6615306   -2.6615306   -1.9210601  0.032678144   -2.6615306   0.74047052   424551 
 2039000    0.6171774    -2.661004    -2.661004   -1.9207112  0.049321152    -2.661004   0.74029278   424551 
 2040000   0.61653655   -2.6603457   -2.6603457   -1.9208216  0.048153853   -2.6603457   0.73952408   424551 
 2041000   0.61757912   -2.6615838   -2.6615838   -1.9208092  0.045421242   -2.6615838   0.74077463   424551 
 2042000   0.61733186   -2.6615173   -2.6615173   -1.9210393  0.038610979   -2.6615173   0.74047804   424551 
 2043000   0.61631462   -2.6605535   -2.6605535   -1.9212956   0.03848102   -2.6605535   0.73925789   424551 
 2044000   0.61688335   -2.6611815   -2.6611815   -1.9212415  0.042874913   -2.6611815   0.73994007   424551 
 2045000   0.61785303   -2.6611881   -2.6611881    -1.920085  0.048157968   -2.6611881   0.74110318   424551 
 2046000   0.61685211   -2.6603568   -2.6603568   -1.9204542  0.050908484   -2.6603568   0.73990259   424551 
 2047000   0.61761769   -2.6608881   -2.6608881   -1.9200672  0.040455608   -2.6608881   0.74082089   424551 
 2048000   0.61702818   -2.6601214   -2.6601214   -1.9200077  0.054094506   -2.6601214   0.74011378   424551 
 2049000   0.61702804   -2.6606947   -2.6606947   -1.9205811  0.045967208   -2.6606947   0.74011362   424551 
 2050000   0.61757673   -2.6610556   -2.6610556   -1.9202838  0.048865572   -2.6610556   0.74077176   424551 
 2051000   0.61728635   -2.6609195   -2.6609195   -1.9204961  0.035701854   -2.6609195   0.74042345   424551 
 2052000   0.61718644    -2.660704    -2.660704   -1.9204004  0.039731686    -2.660704   0.74030361   424551 
 2053000   0.61740371   -2.6618127   -2.6618127   -1.9212484  0.046736014   -2.6618127   0.74056423   424551 
 2054000   0.61713789   -2.6613685   -2.6613685   -1.9211231  0.046180336   -2.6613685   0.74024537   424551 
 2055000   0.61710877   -2.6615433   -2.6615433   -1.9213329  0.043490129   -2.6615433   0.74021045   424551 
 2056000   0.61606785    -2.660577    -2.660577   -1.9216151  0.035033609    -2.660577   0.73896189   424551 
 2057000    0.6173625   -2.6619267   -2.6619267   -1.9214119   0.04581754   -2.6619267    0.7405148   424551 
 2058000   0.61674098   -2.6617037   -2.6617037   -1.9219344  0.041144726   -2.6617037   0.73976929   424551 
 2059000   0.61746122   -2.6619337   -2.6619337   -1.9213005  0.040935072   -2.6619337   0.74063321   424551 
 2060000   0.61701901    -2.661581    -2.661581   -1.9214783  0.032519433    -2.661581   0.74010279   424551 
 2061000   0.61680188   -2.6608806   -2.6608806   -1.9210383  0.047864541   -2.6608806   0.73984235   424551 
 2062000   0.61785991   -2.6622885   -2.6622885    -1.921177  0.041021487   -2.6622885   0.74111143   424551 
 2063000   0.61677275   -2.6619236   -2.6619236   -1.9221162  0.044686177   -2.6619236    0.7398074   424551 
 2064000   0.61661942   -2.6621836   -2.6621836   -1.9225601  0.048302004   -2.6621836   0.73962348   424551 
 2065000   0.61583738   -2.6618448   -2.6618448   -1.9231593   0.03969927   -2.6618448   0.73868544   424551 
 2066000   0.61726666   -2.6635656   -2.6635656   -1.9231658  0.039963124   -2.6635656   0.74039984   424551 
 2067000   0.61782647    -2.663945    -2.663945   -1.9228737  0.041662805    -2.663945   0.74107132   424551 
 2068000   0.61767259   -2.6645988   -2.6645988   -1.9237121    0.0481922   -2.6645988   0.74088674   424551 
 2069000   0.61645479   -2.6635558   -2.6635558   -1.9241298  0.041957074   -2.6635558   0.73942601   424551 
 2070000   0.61726124    -2.663509    -2.663509   -1.9231156  0.042932668    -2.663509   0.74039334   424551 
 2071000   0.61753428   -2.6639868   -2.6639868   -1.9232659  0.043700374   -2.6639868   0.74072085   424551 
 2072000   0.61652971   -2.6633634   -2.6633634   -1.9238475  0.047595045   -2.6633634   0.73951588   424551 
 2073000   0.61787724   -2.6638475   -2.6638475   -1.9227153  0.042459567   -2.6638475   0.74113221   424551 
 2074000    0.6171059   -2.6633466   -2.6633466   -1.9231395  0.047313539   -2.6633466   0.74020701   424551 
 2075000   0.61571985   -2.6627699   -2.6627699   -1.9242255  0.040140155   -2.6627699   0.73854447   424551 
 2076000    0.6171959   -2.6645439   -2.6645439   -1.9242289  0.034735033   -2.6645439   0.74031496   424551 
 2077000   0.61684667   -2.6637844   -2.6637844   -1.9238883  0.047097226   -2.6637844   0.73989607   424551 
 2078000   0.61722048   -2.6651082   -2.6651082   -1.9247638  0.048493042   -2.6651082   0.74034444   424551 
 2079000   0.61628648   -2.6637398   -2.6637398   -1.9245157   0.03656539   -2.6637398   0.73922413   424551 
 2080000   0.61568919   -2.6629733   -2.6629733   -1.9244656  0.040021401   -2.6629733   0.73850769   424551 
 2081000   0.61662367   -2.6638481   -2.6638481   -1.9242195  0.038475474   -2.6638481   0.73962859   424551 
 2082000   0.61596424   -2.6628549   -2.6628549   -1.9240173   0.03817884   -2.6628549   0.73883761   424551 
 2083000   0.61602059   -2.6629871   -2.6629871   -1.9240819  0.039890247   -2.6629871   0.73890519   424551 
 2084000   0.61465251   -2.6620966   -2.6620966   -1.9248324  0.034755003   -2.6620966   0.73726422   424551 
 2085000   0.61603865   -2.6644292   -2.6644292   -1.9255024  0.035057773   -2.6644292   0.73892687   424551 
 2086000   0.61550722   -2.6638125   -2.6638125    -1.925523   0.04565366   -2.6638125   0.73828943   424551 
 2087000   0.61696869   -2.6647808   -2.6647808   -1.9247384  0.036913591   -2.6647808   0.74004242   424551 
 2088000   0.61688646   -2.6654085   -2.6654085   -1.9254648  0.036001722   -2.6654085   0.73994379   424551 
 2089000   0.61514095   -2.6643429   -2.6643429   -1.9264928  0.034697932   -2.6643429   0.73785009   424551 
 2090000    0.6154151   -2.6645212   -2.6645212   -1.9263423  0.051348598   -2.6645212   0.73817893   424551 
 2091000   0.61698306   -2.6664356   -2.6664356    -1.926376  0.039485368   -2.6664356   0.74005966   424551 
 2092000   0.61633176   -2.6651603   -2.6651603   -1.9258819  0.037208493   -2.6651603   0.73927844   424551 
 2093000   0.61675216   -2.6659455   -2.6659455   -1.9261628  0.036618198   -2.6659455    0.7397827   424551 
 2094000   0.61579155   -2.6651179   -2.6651179   -1.9264874  0.054650687   -2.6651179   0.73863047   424551 
 2095000   0.61655014   -2.6658486   -2.6658486   -1.9263082  0.049411426   -2.6658486   0.73954038   424551 
 2096000   0.61732104   -2.6665372   -2.6665372   -1.9260721  0.044243908   -2.6665372   0.74046506   424551 
 2097000   0.61727018   -2.6662119   -2.6662119   -1.9258079  0.043786292   -2.6662119   0.74040406   424551 
 2098000   0.61653903   -2.6661159   -2.6661159   -1.9265888  0.031077179   -2.6661159   0.73952706   424551 
 2099000   0.61560221   -2.6653425   -2.6653425   -1.9269392    0.0454782   -2.6653425   0.73840336   424551 
 2100000   0.61530034   -2.6656192   -2.6656192   -1.9275779  0.037674331   -2.6656192   0.73804128   424551 
 2101000   0.61527715   -2.6651629   -2.6651629   -1.9271494  0.047050864   -2.6651629   0.73801346   424551 
 2102000   0.61641399   -2.6667513   -2.6667513   -1.9273743  0.045139368   -2.6667513   0.73937708   424551 
 2103000   0.61635654   -2.6665713   -2.6665713   -1.9272632  0.031235572   -2.6665713   0.73930817   424551 
 2104000    0.6159981   -2.6660861   -2.6660861   -1.9272079  0.046387876   -2.6660861   0.73887822   424551 
 2105000   0.61535398   -2.6655505   -2.6655505   -1.9274449   0.03434886   -2.6655505   0.73810561   424551 
 2106000   0.61575019   -2.6661146   -2.6661146   -1.9275338  0.038674079   -2.6661146   0.73858086   424551 
 2107000   0.61524622   -2.6648488   -2.6648488   -1.9268725  0.038844443   -2.6648488   0.73797635   424551 
 2108000   0.61546951   -2.6652081   -2.6652081   -1.9269639  0.044478984   -2.6652081   0.73824419   424551 
 2109000   0.61656074   -2.6656449   -2.6656449   -1.9260918  0.038000878   -2.6656449    0.7395531   424551 
 2110000   0.61645425   -2.6657563   -2.6657563    -1.926331  0.036420593   -2.6657563   0.73942536   424551 
 2111000   0.61490199   -2.6643941   -2.6643941   -1.9268307  0.044881077   -2.6643941   0.73756346   424551 
 2112000   0.61638843   -2.6652654   -2.6652654    -1.925919  0.053756359   -2.6652654   0.73934642   424551 
 2113000   0.61632925   -2.6657634   -2.6657634    -1.926488   0.04573449   -2.6657634   0.73927543   424551 
 2114000   0.61605934    -2.665066    -2.665066   -1.9261143  0.050500612    -2.665066   0.73895167   424551 
 2115000   0.61746271   -2.6663316   -2.6663316   -1.9256966  0.045445312   -2.6663316   0.74063499   424551 
 2116000   0.61643544   -2.6656716   -2.6656716   -1.9262688  0.044477554   -2.6656716    0.7394028   424551 
 2117000   0.61632572   -2.6658329   -2.6658329   -1.9265617  0.043798278   -2.6658329    0.7392712   424551 
 2118000   0.61525009   -2.6646244   -2.6646244   -1.9266434  0.030108379   -2.6646244   0.73798099   424551 
 2119000    0.6156905   -2.6663918   -2.6663918   -1.9278826  0.045455415   -2.6663918   0.73850926   424551 
 2120000   0.61568405   -2.6662676   -2.6662676   -1.9277661  0.037556495   -2.6662676   0.73850153   424551 
 2121000   0.61617699   -2.6664085   -2.6664085   -1.9273157  0.032229042   -2.6664085   0.73909279   424551 
 2122000   0.61683184   -2.6674168   -2.6674168   -1.9275385  0.054251046   -2.6674168   0.73987827   424551 
 2123000   0.61706294   -2.6673398   -2.6673398   -1.9271843  0.044493725   -2.6673398   0.74015548   424551 
 2124000   0.61729344   -2.6677941   -2.6677941   -1.9273622  0.042561265   -2.6677941   0.74043195   424551 
 2125000   0.61743129   -2.6674304   -2.6674304   -1.9268331  0.049921186   -2.6674304   0.74059731   424551 
 2126000   0.61673634   -2.6672887   -2.6672887    -1.927525  0.036482578   -2.6672887   0.73976373   424551 
 2127000   0.61636327     -2.66713     -2.66713   -1.9278138  0.048896206     -2.66713   0.73931624   424551 
 2128000   0.61565224   -2.6666572   -2.6666572   -1.9281938  0.048778835   -2.6666572   0.73846337   424551 
 2129000   0.61651441   -2.6671638   -2.6671638   -1.9276663   0.04772173   -2.6671638   0.73949752   424551 
 2130000   0.61655667    -2.666319    -2.666319   -1.9267708  0.044781597    -2.666319   0.73954822   424551 
 2131000    0.6162937   -2.6661126   -2.6661126   -1.9268799  0.047953266   -2.6661126   0.73923279   424551 
 2132000   0.61677657   -2.6666684   -2.6666684   -1.9268565  0.038192584   -2.6666684   0.73981198   424551 
 2133000   0.61711187   -2.6665346   -2.6665346   -1.9263204  0.038540509   -2.6665346   0.74021416   424551 
 2134000    0.6154854   -2.6654618   -2.6654618   -1.9271985  0.038428199   -2.6654618   0.73826325   424551 
 2135000   0.61681148   -2.6662992   -2.6662992   -1.9264454  0.052123718   -2.6662992   0.73985386   424551 
 2136000   0.61597523   -2.6647113   -2.6647113   -1.9258605  0.040559898   -2.6647113   0.73885079   424551 
 2137000   0.61739837   -2.6665699   -2.6665699    -1.926012  0.038878548   -2.6665699   0.74055782   424551 
 2138000   0.61769738   -2.6674834   -2.6674834   -1.9265669  0.045744678   -2.6674834   0.74091648   424551 
 2139000   0.61533992   -2.6661852   -2.6661852   -1.9280965  0.031146494   -2.6661852   0.73808875   424551 
 2140000   0.61627963   -2.6675119   -2.6675119    -1.928296  0.034595129   -2.6675119   0.73921591   424551 
 2141000   0.61730437   -2.6677483   -2.6677483   -1.9273032  0.047636137   -2.6677483   0.74044507   424551 
 2142000    0.6171612   -2.6679617   -2.6679617   -1.9276884    0.0421201   -2.6679617   0.74027335   424551 
 2143000   0.61665921   -2.6677696   -2.6677696   -1.9280984  0.047503474   -2.6677696   0.73967121   424551 
 2144000   0.61782732   -2.6686003   -2.6686003   -1.9275279  0.048463854   -2.6686003   0.74107234   424551 
 2145000   0.61762609    -2.668806    -2.668806    -1.927975  0.045124341    -2.668806   0.74083097   424551 
 2146000   0.61638522   -2.6681122   -2.6681122   -1.9287696  0.060007972   -2.6681122   0.73934257   424551 
 2147000    0.6162709   -2.6680791   -2.6680791   -1.9288737   0.05177424   -2.6680791   0.73920544   424551 
 2148000   0.61724643   -2.6698556   -2.6698556   -1.9294801  0.042707109   -2.6698556   0.74037557   424551 
 2149000   0.61758011   -2.6696667   -2.6696667   -1.9288909   0.04533907   -2.6696667   0.74077581   424551 
 2150000   0.61805677   -2.6706486   -2.6706486    -1.929301  0.056713712   -2.6706486   0.74134756   424551 
 2151000    0.6163836   -2.6689721   -2.6689721   -1.9296315  0.048992808   -2.6689721   0.73934062   424551 
 2152000   0.61660726   -2.6693663   -2.6693663   -1.9297574  0.038085653   -2.6693663   0.73960889   424551 
 2153000   0.61685974   -2.6696949   -2.6696949   -1.9297832  0.057228243   -2.6696949   0.73991174   424551 
 2154000   0.61704818   -2.6697603   -2.6697603   -1.9296225  0.039098488   -2.6697603   0.74013777   424551 
 2155000   0.61632298   -2.6696355   -2.6696355   -1.9303676  0.052756739   -2.6696355   0.73926791   424551 
 2156000   0.61573743   -2.6690768   -2.6690768   -1.9305113  0.038776545   -2.6690768   0.73856555   424551 
 2157000   0.61489198   -2.6679823   -2.6679823   -1.9304308  0.040809985   -2.6679823   0.73755145   424551 
 2158000   0.61667529   -2.6690405   -2.6690405     -1.92935  0.036011831   -2.6690405    0.7396905   424551 
 2159000   0.61602498   -2.6687492   -2.6687492   -1.9298387  0.042677438   -2.6687492   0.73891047   424551 
 2160000   0.61642853   -2.6686335   -2.6686335    -1.929239  0.043112705   -2.6686335   0.73939452   424551 
 2161000   0.61633042   -2.6690886   -2.6690886   -1.9298118  0.055801108   -2.6690886   0.73927684   424551 
 2162000    0.6164987   -2.6693467   -2.6693467    -1.929868  0.047911632   -2.6693467   0.73947868   424551 
 2163000   0.61585463   -2.6679711   -2.6679711    -1.929265   0.04467048   -2.6679711   0.73870614   424551 
 2164000   0.61450203   -2.6667436   -2.6667436   -1.9296599  0.045432971   -2.6667436   0.73708371   424551 
 2165000   0.61585249   -2.6682736   -2.6682736     -1.92957   0.04209714   -2.6682736   0.73870357   424551 
 2166000   0.61647067   -2.6679566   -2.6679566   -1.9285115  0.025873186   -2.6679566   0.73944507   424551 
 2167000   0.61560366   -2.6671777   -2.6671777   -1.9287726  0.039252859   -2.6671777    0.7384051   424551 
 2168000   0.61576259   -2.6674763   -2.6674763   -1.9288805  0.040208093   -2.6674763   0.73859573   424551 
 2169000   0.61518198   -2.6671046   -2.6671046   -1.9292053  0.037420437   -2.6671046    0.7378993   424551 
 2170000   0.61596084   -2.6680529   -2.6680529   -1.9292194  0.048395255   -2.6680529   0.73883352   424551 
 2171000   0.61631229   -2.6685513   -2.6685513   -1.9292962  0.037281137   -2.6685513   0.73925508   424551 
 2172000   0.61566806   -2.6688859   -2.6688859   -1.9304036  0.051331679   -2.6688859   0.73848235   424551 
 2173000   0.61491328   -2.6682214   -2.6682214   -1.9306444  0.043662437   -2.6682214     0.737577   424551 
 2174000    0.6143418   -2.6678475   -2.6678475    -1.930956  0.039857849   -2.6678475   0.73689153   424551 
 2175000   0.61563197   -2.6684595   -2.6684595   -1.9300205  0.037975102   -2.6684595   0.73843905   424551 
 2176000    0.6148489   -2.6671942   -2.6671942   -1.9296944  0.041379399   -2.6671942   0.73749978   424551 
 2177000   0.61651672   -2.6691923   -2.6691923    -1.929692  0.042920606   -2.6691923    0.7395003   424551 
 2178000   0.61606092   -2.6692128   -2.6692128   -1.9302592  0.041468216   -2.6692128   0.73895357   424551 
 2179000   0.61611749    -2.670396    -2.670396   -1.9313746  0.039216525    -2.670396   0.73902143   424551 
 2180000   0.61643279   -2.6702883   -2.6702883   -1.9308886   0.05410894   -2.6702883   0.73939963   424551 
 2181000   0.61596228   -2.6694307   -2.6694307   -1.9305955   0.05019767   -2.6694307   0.73883526   424551 
 2182000   0.61626895   -2.6701635   -2.6701635   -1.9309603  0.041957074   -2.6701635    0.7392031   424551 
 2183000   0.61584032   -2.6697428   -2.6697428   -1.9310539  0.043037095   -2.6697428   0.73868897   424551 
 2184000   0.61626149   -2.6698172   -2.6698172    -1.930623  0.039952125   -2.6698172   0.73919416   424551 
 2185000   0.61545847   -2.6698553   -2.6698553   -1.9316243  0.037264954   -2.6698553   0.73823094   424551 
 2186000    0.6162545   -2.6704647   -2.6704647   -1.9312789  0.039446945   -2.6704647   0.73918577   424551 
 2187000    0.6156209   -2.6690804   -2.6690804   -1.9306546  0.038673266   -2.6690804   0.73842578   424551 
 2188000   0.61608039   -2.6701245   -2.6701245   -1.9311475  0.047835694   -2.6701245   0.73897693   424551 
 2189000   0.61624872   -2.6704493   -2.6704493   -1.9312704   0.03357958   -2.6704493   0.73917884   424551 
 2190000   0.61527194    -2.670046    -2.670046   -1.9320388  0.039720131    -2.670046   0.73800721   424551 
 2191000    0.6163302   -2.6718476   -2.6718476    -1.932571  0.048300238   -2.6718476   0.73927658   424551 
 2192000   0.61478151    -2.670857    -2.670857    -1.933438  0.041522487    -2.670857   0.73741895   424551 
 2193000   0.61514136   -2.6717251   -2.6717251   -1.9338746  0.045388273   -2.6717251   0.73785057   424551 
 2194000   0.61574587   -2.6720074   -2.6720074   -1.9334317  0.026104969   -2.6720074   0.73857568   424551 
 2195000   0.61578412   -2.6724185   -2.6724185   -1.9337969  0.034737546   -2.6724185   0.73862156   424551 
 2196000   0.61441906    -2.671092    -2.671092   -1.9341078  0.039565898    -2.671092   0.73698419   424551 
 2197000   0.61454218   -2.6711203   -2.6711203   -1.9339884  0.045380999   -2.6711203   0.73713188   424551 
 2198000   0.61531783    -2.672376    -2.672376   -1.9343138  0.047127861    -2.672376   0.73806225   424551 
 2199000   0.61568837    -2.672342    -2.672342   -1.9338353  0.039270302    -2.672342   0.73850671   424551 
 2200000   0.61484078    -2.671771    -2.671771    -1.934281  0.048594938    -2.671771   0.73749004   424551 
 2201000   0.61647127   -2.6736571   -2.6736571   -1.9342113   0.04473887   -2.6736571   0.73944578   424551 
 2202000   0.61639199   -2.6730774   -2.6730774   -1.9337268   0.04994594   -2.6730774   0.73935069   424551 
 2203000   0.61614156   -2.6735067   -2.6735067   -1.9344564  0.054371868   -2.6735067    0.7390503   424551 
 2204000   0.61525455    -2.672323    -2.672323   -1.9343367  0.051694081    -2.672323   0.73798635   424551 
 2205000   0.61513566   -2.6720993   -2.6720993   -1.9342555  0.026909596   -2.6720993   0.73784374   424551 
 2206000   0.61600695   -2.6731699   -2.6731699    -1.934281  0.049146569   -2.6731699   0.73888883   424551 
 2207000   0.61620489   -2.6733087   -2.6733087   -1.9341824  0.045635671   -2.6733087   0.73912626   424551 
 2208000   0.61672263   -2.6737049   -2.6737049   -1.9339576  0.043513929   -2.6737049   0.73974729   424551 
 2209000    0.6167147   -2.6738929   -2.6738929   -1.9341552  0.040324986   -2.6738929   0.73973778   424551 
 2210000   0.61590364   -2.6729572   -2.6729572   -1.9341923  0.040460586   -2.6729572   0.73876493   424551 
 2211000   0.61553074   -2.6724826   -2.6724826    -1.934165  0.047503334   -2.6724826   0.73831764   424551 
 2212000   0.61558097   -2.6728129   -2.6728129    -1.934435  0.035496745   -2.6728129   0.73837789   424551 
 2213000   0.61534342   -2.6727444   -2.6727444   -1.9346514  0.044170457   -2.6727444   0.73809295   424551 
 2214000   0.61616204   -2.6738726   -2.6738726   -1.9347977  0.046127672   -2.6738726   0.73907486   424551 
 2215000   0.61663262   -2.6738778   -2.6738778   -1.9342385  0.037402906   -2.6738778   0.73963932   424551 
 2216000   0.61513078   -2.6723531   -2.6723531   -1.9345153  0.043871989   -2.6723531   0.73783788   424551 
 2217000   0.61551872   -2.6733577   -2.6733577   -1.9350545  0.042301692   -2.6733577   0.73830321   424551 
 2218000   0.61586799   -2.6735393   -2.6735393   -1.9348171  0.041512633   -2.6735393   0.73872215   424551 
 2219000   0.61488091   -2.6721986   -2.6721986   -1.9346605  0.031160426   -2.6721986   0.73753817   424551 
 2220000   0.61512436   -2.6725041   -2.6725041   -1.9346739  0.037486853   -2.6725041   0.73783019   424551 
 2221000   0.61563109   -2.6735756   -2.6735756   -1.9351376  0.038779909   -2.6735756     0.738438   424551 
 2222000   0.61532599   -2.6734301   -2.6734301   -1.9353581  0.043955156   -2.6734301   0.73807204   424551 
 2223000   0.61507075   -2.6726977   -2.6726977   -1.9349318  0.042589309   -2.6726977   0.73776588   424551 
 2224000    0.6144252   -2.6721684   -2.6721684   -1.9351769  0.037096007   -2.6721684   0.73699156   424551 
 2225000   0.61534218   -2.6739105   -2.6739105    -1.935819   0.05027079   -2.6739105   0.73809145   424551 
 2226000   0.61623236   -2.6747969   -2.6747969   -1.9356377  0.043193736   -2.6747969   0.73915921   424551 
 2227000   0.61558895   -2.6741191   -2.6741191   -1.9357316  0.040422996   -2.6741191   0.73838746   424551 
 2228000   0.61488946   -2.6745464   -2.6745464    -1.936998  0.033574361   -2.6745464   0.73754843   424551 
 2229000   0.61574755    -2.675289    -2.675289   -1.9367113  0.045323027    -2.675289    0.7385777   424551 
 2230000   0.61589384   -2.6754794   -2.6754794   -1.9367262  0.045418505   -2.6754794   0.73875317   424551 
 2231000   0.61478216   -2.6746872   -2.6746872   -1.9372675   0.04565055   -2.6746872   0.73741972   424551 
 2232000   0.61640905   -2.6759419   -2.6759419   -1.9365708  0.042618823   -2.6759419   0.73937115   424551 
 2233000   0.61466519   -2.6748219   -2.6748219   -1.9375425   0.04446447   -2.6748219   0.73727943   424551 
 2234000   0.61480166   -2.6748626   -2.6748626   -1.9374195  0.039133127   -2.6748626   0.73744312   424551 
 2235000   0.61535049   -2.6746361   -2.6746361   -1.9365347  0.047863222   -2.6746361   0.73810143   424551 
 2236000   0.61601517   -2.6745659   -2.6745659   -1.9356672  0.029238704   -2.6745659    0.7388987   424551 
 2237000   0.61460186   -2.6738382   -2.6738382   -1.9366348  0.045916069   -2.6738382   0.73720346   424551 
 2238000   0.61554278   -2.6750724   -2.6750724   -1.9367403  0.044526857   -2.6750724   0.73833208   424551 
 2239000   0.61524313   -2.6755053   -2.6755053   -1.9375327  0.046210365   -2.6755053   0.73797265   424551 
 2240000   0.61474942   -2.6747273   -2.6747273   -1.9373469   0.05224541   -2.6747273   0.73738046   424551 
 2241000   0.61606801   -2.6764005   -2.6764005   -1.9374385  0.044802294   -2.6764005   0.73896208   424551 
 2242000   0.61491427   -2.6743826   -2.6743826   -1.9368044  0.043111804   -2.6743826   0.73757819   424551 
 2243000   0.61572861   -2.6754815   -2.6754815   -1.9369265  0.040662161   -2.6754815   0.73855497   424551 
 2244000   0.61529656   -2.6757945   -2.6757945   -1.9377578  0.043239686   -2.6757945   0.73803674   424551 
 2245000   0.61641633   -2.6777151   -2.6777151   -1.9383352  0.038832551   -2.6777151   0.73937989   424551 
 2246000   0.61512359   -2.6765769   -2.6765769   -1.9387477  0.040622043   -2.6765769   0.73782927   424551 
 2247000   0.61608609   -2.6765054   -2.6765054   -1.9375216  0.040845476   -2.6765054   0.73898376   424551 
 2248000   0.61569051   -2.6761518   -2.6761518   -1.9376425  0.048065533   -2.6761518   0.73850928   424551 
 2249000   0.61428632    -2.675665    -2.675665     -1.93884  0.054209773    -2.675665   0.73682498   424551 
 2250000   0.61579945   -2.6778916   -2.6778916   -1.9392516  0.026292572   -2.6778916   0.73863994   424551 
 2251000   0.61592854   -2.6775398   -2.6775398    -1.938745  0.033379378   -2.6775398   0.73879478   424551 
 2252000   0.61579941   -2.6773517   -2.6773517   -1.9387118  0.039531365   -2.6773517    0.7386399   424551 
 2253000   0.61604636   -2.6765624   -2.6765624   -1.9376263  0.046027324   -2.6765624   0.73893611   424551 
 2254000    0.6149483   -2.6753744   -2.6753744   -1.9377554  0.050486707   -2.6753744   0.73761901   424551 
 2255000    0.6158264   -2.6767643   -2.6767643    -1.938092   0.03840314   -2.6767643   0.73867227   424551 
 2256000   0.61631574    -2.677469    -2.677469   -1.9382098  0.033854301    -2.677469   0.73925923   424551 
 2257000   0.61532655   -2.6768994   -2.6768994   -1.9388267  0.056385018   -2.6768994   0.73807271   424551 
 2258000   0.61641186   -2.6789399   -2.6789399   -1.9395653  0.038550159   -2.6789399   0.73937452   424551 
 2259000   0.61515438   -2.6768083   -2.6768083   -1.9389421  0.029817502   -2.6768083    0.7378662   424551 
 2260000   0.61650419   -2.6791085   -2.6791085   -1.9396232  0.040618479   -2.6791085   0.73948527   424551 
 2261000   0.61475208   -2.6771082   -2.6771082   -1.9397246  0.035036489   -2.6771082   0.73738365   424551 
 2262000   0.61445476   -2.6770007   -2.6770007   -1.9399737  0.038238821   -2.6770007   0.73702702   424551 
 2263000   0.61481713    -2.677573    -2.677573   -1.9401113  0.032578886    -2.677573   0.73746168   424551 
 2264000   0.61507601   -2.6779031   -2.6779031   -1.9401309  0.035724971   -2.6779031    0.7377722   424551 
 2265000   0.61462808   -2.6779647   -2.6779647   -1.9407298  0.040468426   -2.6779647   0.73723491   424551 
 2266000   0.61438738    -2.677754    -2.677754   -1.9408078  0.041919595    -2.677754   0.73694619   424551 
 2267000   0.61386231   -2.6769683   -2.6769683    -1.940652  0.037432806   -2.6769683   0.73631639   424551 
 2268000   0.61434581   -2.6781015   -2.6781015   -1.9412051  0.043040441   -2.6781015   0.73689633   424551 
 2269000   0.61509412   -2.6788182   -2.6788182   -1.9410243  0.050610225   -2.6788182   0.73779392   424551 
 2270000   0.61405586   -2.6780064   -2.6780064   -1.9414579  0.046609866   -2.6780064   0.73654854   424551 
 2271000   0.61459564   -2.6783709   -2.6783709   -1.9411749  0.035302527   -2.6783709     0.737196   424551 
 2272000   0.61563004   -2.6794445   -2.6794445   -1.9410078  0.039005885   -2.6794445   0.73843674   424551 
 2273000   0.61400163     -2.67762     -2.67762   -1.9411365  0.038673102     -2.67762    0.7364835   424551 
 2274000   0.61497907   -2.6784691   -2.6784691   -1.9408131  0.043451048   -2.6784691   0.73765592   424551 
 2275000   0.61500421   -2.6784029   -2.6784029   -1.9407168  0.044950209   -2.6784029   0.73768607   424551 
 2276000   0.61493363   -2.6782631   -2.6782631   -1.9406617  0.042521883   -2.6782631   0.73760141   424551 
 2277000   0.61372293   -2.6779644   -2.6779644   -1.9418152  0.042557511   -2.6779644    0.7361492   424551 
 2278000    0.6138737   -2.6777907   -2.6777907   -1.9414607  0.041022417   -2.6777907   0.73633004   424551 
 2279000   0.61276065    -2.676781    -2.676781    -1.941786    0.0434984    -2.676781   0.73499496   424551 
 2280000   0.61361887   -2.6768895   -2.6768895   -1.9408651  0.032953686   -2.6768895   0.73602438   424551 
 2281000   0.61564355   -2.6788637   -2.6788637   -1.9404108  0.040148974   -2.6788637   0.73845294   424551 
 2282000   0.61564359   -2.6790826   -2.6790826   -1.9406296  0.043151873   -2.6790826   0.73845299   424551 
 2283000   0.61501817   -2.6783485   -2.6783485   -1.9406457  0.037387059   -2.6783485   0.73770281   424551 
 2284000    0.6158638   -2.6790323   -2.6790323   -1.9403152  0.036518505   -2.6790323   0.73871714   424551 
 2285000   0.61524494   -2.6788845   -2.6788845   -1.9409097   0.04386507   -2.6788845   0.73797482   424551 
 2286000   0.61389093   -2.6775943   -2.6775943   -1.9412436  0.041183785   -2.6775943   0.73635071   424551 
 2287000   0.61540293   -2.6793988   -2.6793988   -1.9412345  0.037089278   -2.6793988   0.73816432   424551 
 2288000   0.61545528   -2.6797027   -2.6797027   -1.9414755  0.045170346   -2.6797027   0.73822712   424551 
 2289000   0.61416985   -2.6787081   -2.6787081   -1.9420228  0.046927416   -2.6787081   0.73668527   424551 
 2290000   0.61543614   -2.6798824   -2.6798824   -1.9416783  0.037412428   -2.6798824   0.73820416   424551 
 2291000     0.614781   -2.6798905   -2.6798905   -1.9424721  0.041148524   -2.6798905   0.73741833   424551 
 2292000   0.61444658   -2.6795095   -2.6795095   -1.9424922  0.035315272   -2.6795095    0.7370172   424551 
 2293000   0.61332282   -2.6788505   -2.6788505   -1.9431812  0.038596204   -2.6788505   0.73566927   424551 
 2294000   0.61400325   -2.6800176   -2.6800176   -1.9435321  0.036962199   -2.6800176   0.73648544   424551 
 2295000   0.61425465   -2.6803816   -2.6803816   -1.9435946  0.046596303   -2.6803816   0.73678699   424551 
 2296000   0.61464871   -2.6807032   -2.6807032   -1.9434435  0.039840429   -2.6807032   0.73725966   424551 
 2297000    0.6144552   -2.6801963   -2.6801963   -1.9431688  0.040142102   -2.6801963   0.73702754   424551 
 2298000   0.61397457    -2.679749    -2.679749   -1.9432979  0.044117283    -2.679749   0.73645104   424551 
 2299000   0.61589826   -2.6813431   -2.6813431   -1.9425846   0.03294469   -2.6813431   0.73875847   424551 
 2300000   0.61438228   -2.6801501   -2.6801501     -1.94321  0.037466134   -2.6801501   0.73694007   424551 
 2301000   0.61537596   -2.6813836   -2.6813836   -1.9432516  0.043735862   -2.6813836   0.73813198   424551 
 2302000   0.61490145     -2.68123     -2.68123   -1.9436672  0.039745092     -2.68123   0.73756282   424551 
 2303000   0.61598016   -2.6827005   -2.6827005   -1.9438438  0.044942487   -2.6827005    0.7388567   424551 
 2304000   0.61504297   -2.6818092   -2.6818092   -1.9440766  0.046122734   -2.6818092   0.73773257   424551 
 2305000     0.614567   -2.6807446   -2.6807446   -1.9435829  0.046458126   -2.6807446   0.73716165   424551 
 2306000   0.61600346   -2.6828482   -2.6828482   -1.9439636    0.0549801   -2.6828482   0.73888466   424551 
 2307000   0.61393399   -2.6805433   -2.6805433    -1.944141  0.034435236   -2.6805433   0.73640236   424551 
 2308000    0.6147086   -2.6812521   -2.6812521   -1.9439206  0.042461111   -2.6812521   0.73733149   424551 
 2309000   0.61471295   -2.6808964   -2.6808964   -1.9435597   0.04903808   -2.6808964    0.7373367   424551 
 2310000   0.61469538   -2.6812205   -2.6812205   -1.9439049  0.048994117   -2.6812205   0.73731563   424551 
 2311000   0.61374027   -2.6802493   -2.6802493   -1.9440793  0.044628932   -2.6802493      0.73617   424551 
 2312000   0.61471995    -2.682141    -2.682141   -1.9447959  0.035471836    -2.682141   0.73734511   424551 
 2313000   0.61194113   -2.6792034   -2.6792034   -1.9451914  0.045223809   -2.6792034   0.73401197   424551 
 2314000   0.61439173   -2.6827588   -2.6827588   -1.9458074  0.039262513   -2.6827588   0.73695141   424551 
 2315000   0.61415549   -2.6816699   -2.6816699   -1.9450019  0.037431739   -2.6816699   0.73666804   424551 
 2316000   0.61425612   -2.6816362   -2.6816362   -1.9448474  0.045898405   -2.6816362   0.73678875   424551 
 2317000   0.61535184   -2.6834413   -2.6834413   -1.9453383  0.039726488   -2.6834413   0.73810304   424551 
 2318000   0.61357519   -2.6811816   -2.6811816   -1.9452096  0.041162513   -2.6811816   0.73597199   424551 
 2319000   0.61425691   -2.6819269   -2.6819269   -1.9451372  0.052199172   -2.6819269    0.7367897   424551 
 2320000    0.6135413    -2.680962    -2.680962   -1.9450307  0.040567241    -2.680962   0.73593134   424551 
 2321000   0.61425956   -2.6813759   -2.6813759   -1.9445831  0.055065475   -2.6813759   0.73679288   424551 
 2322000   0.61384181   -2.6816181   -2.6816181   -1.9453263  0.047079705   -2.6816181    0.7362918   424551 
 2323000   0.61309372   -2.6803743   -2.6803743   -1.9449799  0.035489897   -2.6803743   0.73539447   424551 
 2324000   0.61351783   -2.6819656   -2.6819656   -1.9460624  0.040234806   -2.6819656   0.73590318   424551 
 2325000   0.61416494   -2.6814875   -2.6814875   -1.9448081  0.040867404   -2.6814875   0.73667938   424551 
 2326000   0.61422773   -2.6821565   -2.6821565   -1.9454018     0.044872   -2.6821565   0.73675469   424551 
 2327000   0.61467755   -2.6826634   -2.6826634   -1.9453692  0.031727087   -2.6826634   0.73729425   424551 
 2328000   0.61459019   -2.6827822   -2.6827822   -1.9455927  0.039166302   -2.6827822   0.73718946   424551 
 2329000   0.61382004   -2.6819657   -2.6819657      -1.9457  0.049068985   -2.6819657   0.73626568   424551 
 2330000   0.61492362   -2.6827533   -2.6827533   -1.9451639   0.05234147   -2.6827533    0.7375894   424551 
 2331000   0.61428579   -2.6821709   -2.6821709   -1.9453465  0.030777961   -2.6821709   0.73682434   424551 
 2332000   0.61338459   -2.6810008   -2.6810008   -1.9452574  0.046162983   -2.6810008   0.73574337   424551 
 2333000   0.61419303   -2.6820658   -2.6820658   -1.9453527  0.048195651   -2.6820658   0.73671307   424551 
 2334000   0.61376769   -2.6816507   -2.6816507   -1.9454478   0.04659027   -2.6816507   0.73620289   424551 
 2335000   0.61309271   -2.6804993   -2.6804993    -1.945106  0.041829148   -2.6804993   0.73539327   424551 
 2336000   0.61478814   -2.6826983   -2.6826983   -1.9452714  0.049107848   -2.6826983    0.7374269   424551 
 2337000   0.61437585   -2.6817962   -2.6817962   -1.9448638  0.055377948   -2.6817962   0.73693237   424551 
 2338000    0.6146644    -2.682478    -2.682478   -1.9451995  0.047239051    -2.682478   0.73727848   424551 
 2339000   0.61560168   -2.6831849   -2.6831849   -1.9447822   0.04769937   -2.6831849   0.73840272   424551 
 2340000   0.61440225    -2.681963    -2.681963    -1.944999  0.038615442    -2.681963   0.73696403   424551 
 2341000   0.61414333   -2.6818456   -2.6818456   -1.9451921  0.045535411   -2.6818456   0.73665347   424551 
 2342000   0.61393988   -2.6824591   -2.6824591   -1.9460497   0.03968486   -2.6824591   0.73640942   424551 
 2343000   0.61450046   -2.6822536   -2.6822536   -1.9451717  0.033813126   -2.6822536   0.73708184   424551 
 2344000   0.61445402   -2.6829069   -2.6829069   -1.9458808  0.036698885   -2.6829069   0.73702613   424551 
 2345000   0.61472371    -2.682867    -2.682867   -1.9455174  0.040152024    -2.682867   0.73734962   424551 
 2346000   0.61387011   -2.6818737   -2.6818737   -1.9455479  0.040984476   -2.6818737   0.73632574   424551 
 2347000     0.614088   -2.6821401   -2.6821401    -1.945553   0.04998572   -2.6821401   0.73658709   424551 
 2348000   0.61478761   -2.6821052   -2.6821052   -1.9446789  0.053981406   -2.6821052   0.73742627   424551 
 2349000   0.61460758   -2.6822751   -2.6822751   -1.9450648   0.04519837   -2.6822751   0.73721032   424551 
 2350000   0.61408687   -2.6822783   -2.6822783   -1.9456926  0.038168017   -2.6822783   0.73658573   424551 
 2351000   0.61373125   -2.6826802   -2.6826802   -1.9465211  0.042547323   -2.6826802   0.73615917   424551 
 2352000   0.61463796   -2.6838077   -2.6838077    -1.946561  0.026185072   -2.6838077   0.73724676   424551 
 2353000   0.61443537   -2.6836977   -2.6836977    -1.946694  0.035136098   -2.6836977   0.73700376   424551 
 2354000   0.61419447   -2.6832596   -2.6832596   -1.9465448  0.038504644   -2.6832596    0.7367148   424551 
 2355000   0.61468221   -2.6837305   -2.6837305   -1.9464307  0.041139068   -2.6837305   0.73729984   424551 
 2356000   0.61472832   -2.6841788   -2.6841788   -1.9468236  0.047764027   -2.6841788   0.73735515   424551 
 2357000   0.61578292    -2.684655    -2.684655   -1.9460349  0.048246446    -2.684655   0.73862012   424551 
 2358000   0.61471798   -2.6835747   -2.6835747    -1.946232  0.043832434   -2.6835747   0.73734275   424551 
 2359000    0.6143217   -2.6833325   -2.6833325   -1.9464651  0.051851591   -2.6833325   0.73686742   424551 
 2360000   0.61382956   -2.6830553   -2.6830553   -1.9467782  0.045023615   -2.6830553   0.73627709   424551 
 2361000   0.61530945   -2.6849015   -2.6849015   -1.9468493  0.045576099   -2.6849015    0.7380522   424551 
 2362000    0.6133303   -2.6824989   -2.6824989   -1.9468206  0.040639984   -2.6824989   0.73567825   424551 
 2363000   0.61400392   -2.6835093   -2.6835093    -1.947023  0.047678338   -2.6835093   0.73648624   424551 
 2364000   0.61327437   -2.6824948   -2.6824948   -1.9468836  0.040783857   -2.6824948   0.73561116   424551 
 2365000   0.61413119   -2.6849097   -2.6849097   -1.9482708  0.037143879   -2.6849097    0.7366389   424551 
 2366000   0.61326814   -2.6829922   -2.6829922   -1.9473886  0.035583681   -2.6829922   0.73560368   424551 
 2367000   0.61293013   -2.6819189   -2.6819189   -1.9467206  0.036952118   -2.6819189   0.73519826   424551 
 2368000   0.61377974   -2.6837321   -2.6837321   -1.9475148  0.040574439   -2.6837321   0.73621734   424551 
 2369000   0.61342694    -2.682633    -2.682633   -1.9468388  0.056078683    -2.682633   0.73579417   424551 
 2370000   0.61416538   -2.6833751   -2.6833751   -1.9466952  0.040918794   -2.6833751   0.73667991   424551 
 2371000   0.61268482   -2.6820016   -2.6820016   -1.9470976  0.039282592   -2.6820016     0.734904   424551 
 2372000   0.61300769   -2.6820233   -2.6820233    -1.946732  0.030642216   -2.6820233   0.73529128   424551 
 2373000   0.61423038   -2.6834483   -2.6834483   -1.9466904  0.039945532   -2.6834483   0.73675788   424551 
 2374000   0.61445492   -2.6842187   -2.6842187   -1.9471915  0.039151663   -2.6842187   0.73702721   424551 
 2375000   0.61398899   -2.6833182   -2.6833182   -1.9468499  0.039377416   -2.6833182   0.73646833   424551 
 2376000   0.61383778   -2.6839349   -2.6839349    -1.947648    0.0441556   -2.6839349   0.73628696   424551 
 2377000   0.61534776   -2.6855233   -2.6855233   -1.9474252  0.044565006   -2.6855233   0.73809815   424551 
 2378000   0.61458419   -2.6842245   -2.6842245   -1.9470423  0.045206522   -2.6842245   0.73718227   424551 
 2379000   0.61534978   -2.6848125   -2.6848125   -1.9467119  0.050766616   -2.6848125   0.73810058   424551 
 2380000   0.61505905    -2.684672    -2.684672   -1.9469201  0.042368212    -2.684672   0.73775184   424551 
 2381000   0.61353883   -2.6838382   -2.6838382   -1.9479098  0.038481701   -2.6838382   0.73592838   424551 
 2382000   0.61433704   -2.6848721   -2.6848721   -1.9479862  0.039674277   -2.6848721   0.73688581   424551 
 2383000   0.61312682   -2.6837024   -2.6837024   -1.9482682  0.043758526   -2.6837024   0.73543418   424551 
 2384000   0.61480488   -2.6861482   -2.6861482   -1.9487012  0.032559851   -2.6861482   0.73744697   424551 
 2385000   0.61342697   -2.6855806   -2.6855806   -1.9497864  0.045292722   -2.6855806    0.7357942   424551 
 2386000   0.61441655   -2.6866277   -2.6866277   -1.9496465  0.045540477   -2.6866277   0.73698119   424551 
 2387000   0.61297377    -2.684637    -2.684637   -1.9493864  0.047269953    -2.684637    0.7352506   424551 
 2388000   0.61443887   -2.6863845   -2.6863845   -1.9493766  0.045702272   -2.6863845   0.73700796   424551 
 2389000   0.61325245   -2.6842079   -2.6842079    -1.948623  0.024379492   -2.6842079   0.73558487   424551 
 2390000   0.61444023   -2.6853013   -2.6853013   -1.9482917  0.043310524   -2.6853013   0.73700959   424551 
 2391000    0.6146849   -2.6850841   -2.6850841    -1.947781  0.037636361   -2.6850841   0.73730306   424551 
 2392000   0.61398659    -2.684483    -2.684483   -1.9480176  0.034388128    -2.684483   0.73646545   424551 
 2393000   0.61449429   -2.6856948   -2.6856948   -1.9486204  0.048815992   -2.6856948   0.73707443   424551 
 2394000   0.61448003   -2.6857517   -2.6857517   -1.9486944  0.046219526   -2.6857517   0.73705733   424551 
 2395000   0.61325908   -2.6848268   -2.6848268    -1.949234  0.051746813   -2.6848268   0.73559282   424551 
 2396000   0.61432043   -2.6855729   -2.6855729    -1.948707  0.049665089   -2.6855729   0.73686588   424551 
 2397000   0.61415894   -2.6851442   -2.6851442    -1.948472  0.038822355   -2.6851442   0.73667219   424551 
 2398000   0.61411308   -2.6846143   -2.6846143   -1.9479972  0.041903552   -2.6846143   0.73661717   424551 
 2399000   0.61501694   -2.6853238   -2.6853238   -1.9476225  0.034654751   -2.6853238   0.73770134   424551 
 2400000   0.61278276   -2.6840382   -2.6840382   -1.9490167  0.047597267   -2.6840382   0.73502149   424551 
 2401000   0.61363183   -2.6849384   -2.6849384   -1.9488984  0.035828422   -2.6849384   0.73603993   424551 
 2402000    0.6135809   -2.6845936   -2.6845936   -1.9486148  0.034139089   -2.6845936   0.73597884   424551 
 2403000   0.61341687   -2.6841368   -2.6841368   -1.9483547  0.038346287   -2.6841368   0.73578208   424551 
 2404000   0.61430891   -2.6856669   -2.6856669   -1.9488149  0.036837909   -2.6856669   0.73685207   424551 
 2405000   0.61412039   -2.6853168   -2.6853168   -1.9486908  0.028924625   -2.6853168   0.73662594   424551 
 2406000   0.61256839   -2.6829778   -2.6829778   -1.9482135  0.053183127   -2.6829778   0.73476435   424551 
 2407000   0.61358022   -2.6845754   -2.6845754   -1.9485973  0.044725448   -2.6845754   0.73597802   424551 
 2408000   0.61496154   -2.6856861   -2.6856861   -1.9480512  0.045624074   -2.6856861   0.73763489   424551 
 2409000   0.61431685   -2.6849113   -2.6849113   -1.9480497  0.049755017   -2.6849113    0.7368616   424551 
 2410000   0.61317348   -2.6841923   -2.6841923   -1.9487022  0.046714059   -2.6841923   0.73549014   424551 
 2411000   0.61377945   -2.6853494   -2.6853494   -1.9491324  0.041487437   -2.6853494   0.73621699   424551 
 2412000   0.61281109   -2.6848265   -2.6848265   -1.9497711  0.042632315   -2.6848265   0.73505547   424551 
 2413000   0.61338216   -2.6855767   -2.6855767   -1.9498363  0.041242618   -2.6855767   0.73574045   424551 
 2414000   0.61325767   -2.6861522   -2.6861522   -1.9505611  0.042582016   -2.6861522   0.73559113   424551 
 2415000   0.61398445   -2.6866375   -2.6866375   -1.9501746  0.026749777   -2.6866375   0.73646289   424551 
 2416000   0.61201974   -2.6854004   -2.6854004   -1.9512941  0.033871368   -2.6854004   0.73410625   424551 
 2417000   0.61317621   -2.6857473   -2.6857473   -1.9502539   0.03511979   -2.6857473   0.73549341   424551 
 2418000    0.6120605   -2.6843756   -2.6843756   -1.9502204  0.034151762   -2.6843756   0.73415514   424551 
 2419000   0.61352008    -2.686188    -2.686188   -1.9502821  0.054264894    -2.686188   0.73590588   424551 
 2420000    0.6126366   -2.6863109   -2.6863109   -1.9514648  0.052063507   -2.6863109   0.73484617   424551 
 2421000   0.61370073     -2.68681     -2.68681   -1.9506874   0.04155049     -2.68681   0.73612257   424551 
 2422000   0.61438275   -2.6868202   -2.6868202   -1.9498795  0.052282615   -2.6868202   0.73694064   424551 
 2423000   0.61415307   -2.6868482   -2.6868482    -1.950183  0.046811491   -2.6868482   0.73666514   424551 
 2424000   0.61321636   -2.6857388   -2.6857388   -1.9501972  0.033895426   -2.6857388   0.73554158   424551 
 2425000   0.61416796   -2.6871009   -2.6871009   -1.9504179   0.04475731   -2.6871009   0.73668301   424551 
 2426000   0.61530544   -2.6878257   -2.6878257   -1.9497783  0.038455775   -2.6878257   0.73804739   424551 
 2427000   0.61466255    -2.687518    -2.687518   -1.9502417  0.042140788    -2.687518   0.73727626   424551 
 2428000   0.61542926    -2.689064    -2.689064   -1.9508681  0.044690941    -2.689064   0.73819592   424551 
 2429000    0.6149482   -2.6893567   -2.6893567   -1.9517379   0.04854892   -2.6893567   0.73761888   424551 
 2430000   0.61309049   -2.6874475   -2.6874475   -1.9520569  0.060526337   -2.6874475    0.7353906   424551 
 2431000   0.61452384    -2.687972    -2.687972   -1.9508622  0.036633219    -2.687972   0.73710987   424551 
 2432000   0.61383908   -2.6870779   -2.6870779   -1.9507894   0.03818209   -2.6870779   0.73628851   424551 
 2433000   0.61526017   -2.6883208   -2.6883208   -1.9503277  0.037862129   -2.6883208   0.73799309   424551 
 2434000   0.61440372   -2.6872107   -2.6872107   -1.9502449  0.039889111   -2.6872107    0.7369658   424551 
 2435000   0.61453836   -2.6876252   -2.6876252   -1.9504979   0.03434804   -2.6876252   0.73712729   424551 
 2436000   0.61330863   -2.6859462   -2.6859462    -1.950294  0.045491908   -2.6859462   0.73565225   424551 
 2437000   0.61377276   -2.6868951   -2.6868951   -1.9506861  0.043588885   -2.6868951   0.73620897   424551 
 2438000   0.61271461   -2.6855102   -2.6855102   -1.9505704  0.039585001   -2.6855102   0.73493974   424551 
 2439000   0.61239562    -2.685964    -2.685964   -1.9514069   0.04672147    -2.685964   0.73455712   424551 
 2440000   0.61176173   -2.6854752   -2.6854752   -1.9516784  0.036080573   -2.6854752   0.73379678   424551 
 2441000   0.61280887   -2.6868489   -2.6868489   -1.9517961   0.03438789   -2.6868489   0.73505281   424551 
 2442000    0.6128969   -2.6856495   -2.6856495   -1.9504911  0.043810588   -2.6856495   0.73515839   424551 
 2443000   0.61299185   -2.6866402   -2.6866402   -1.9513679  0.044370384   -2.6866402   0.73527228   424551 
 2444000   0.61384072   -2.6873257   -2.6873257   -1.9510352  0.048162765   -2.6873257   0.73629049   424551 
 2445000   0.61399084   -2.6875826   -2.6875826    -1.951112  0.032386833   -2.6875826   0.73647055   424551 
 2446000   0.61360651   -2.6883648   -2.6883648   -1.9523552   0.03696884   -2.6883648   0.73600955   424551 
 2447000   0.61381319   -2.6877965   -2.6877965   -1.9515391  0.049681902   -2.6877965   0.73625746   424551 
 2448000   0.61467199   -2.6891203   -2.6891203   -1.9518328  0.038021554   -2.6891203   0.73728758   424551 
 2449000   0.61374613   -2.6871801   -2.6871801   -1.9510031  0.040207646   -2.6871801   0.73617702   424551 
 2450000   0.61391402   -2.6875019   -2.6875019   -1.9511235  0.051453629   -2.6875019   0.73637841   424551 
 2451000   0.61363781   -2.6873539   -2.6873539   -1.9513068  0.040943524   -2.6873539   0.73604709   424551 
 2452000   0.61384651   -2.6876205   -2.6876205   -1.9513231  0.048306035   -2.6876205   0.73629743   424551 
 2453000   0.61444916   -2.6884104   -2.6884104   -1.9513901  0.031726837   -2.6884104    0.7370203   424551 
 2454000   0.61467676   -2.6888433   -2.6888433     -1.95155  0.041446358   -2.6888433    0.7372933   424551 
 2455000   0.61335408   -2.6877728   -2.6877728   -1.9520661  0.031722271   -2.6877728   0.73570677   424551 
 2456000   0.61364196   -2.6883251   -2.6883251    -1.952273  0.039042514   -2.6883251   0.73605208   424551 
 2457000   0.61445693   -2.6881975   -2.6881975   -1.9511678  0.038830513   -2.6881975   0.73702961   424551 
 2458000   0.61505747   -2.6888223   -2.6888223   -1.9510723   0.04364898   -2.6888223   0.73774996   424551 
 2459000   0.61435952   -2.6893415   -2.6893415   -1.9524287  0.038664892   -2.6893415   0.73691278   424551 
 2460000   0.61367307   -2.6888192   -2.6888192   -1.9527298  0.032743766   -2.6888192   0.73608939   424551 
 2461000   0.61298956   -2.6883209   -2.6883209   -1.9530514  0.039445938   -2.6883209   0.73526953   424551 
 2462000    0.6133682   -2.6895172   -2.6895172   -1.9537935  0.039662911   -2.6895172   0.73572371   424551 
 2463000   0.61298034    -2.689265    -2.689265   -1.9540065  0.040578744    -2.689265   0.73525847   424551 
 2464000   0.61237464   -2.6892385   -2.6892385   -1.9547066  0.045028195   -2.6892385   0.73453196   424551 
 2465000   0.61231656   -2.6891372   -2.6891372   -1.9546749   0.03611758   -2.6891372   0.73446228   424551 
 2466000   0.61243427   -2.6891592   -2.6891592   -1.9545557   0.05086612   -2.6891592   0.73460347   424551 
 2467000   0.61502281   -2.6923297   -2.6923297   -1.9546213  0.039489896   -2.6923297   0.73770838   424551 
 2468000   0.61383917   -2.6896183   -2.6896183   -1.9533297  0.031117342   -2.6896183   0.73628863   424551 
 2469000   0.61387189   -2.6893229   -2.6893229    -1.952995  0.036112987   -2.6893229   0.73632787   424551 
 2470000    0.6147352   -2.6912832   -2.6912832   -1.9539199  0.036935722   -2.6912832   0.73736339   424551 
 2471000   0.61233516   -2.6877451   -2.6877451   -1.9532605  0.046770117   -2.6877451    0.7344846   424551 
 2472000   0.61467184    -2.691224    -2.691224   -1.9539366   0.03662523    -2.691224    0.7372874   424551 
 2473000   0.61439727   -2.6911848   -2.6911848   -1.9542268  0.050259809   -2.6911848   0.73695806   424551 
 2474000   0.61227686   -2.6892415   -2.6892415   -1.9548268  0.043785569   -2.6892415   0.73441466   424551 
 2475000   0.61264489   -2.6891482   -2.6891482   -1.9542921  0.042619364   -2.6891482   0.73485611   424551 
 2476000   0.61224824   -2.6885135   -2.6885135   -1.9541332  0.041604221   -2.6885135   0.73438034   424551 
 2477000   0.61236042   -2.6886918   -2.6886918   -1.9541769  0.047200726   -2.6886918    0.7345149   424551 
 2478000   0.61277024   -2.6891798   -2.6891798   -1.9541734   0.04015265   -2.6891798   0.73500647   424551 
 2479000   0.61352255   -2.6896904   -2.6896904   -1.9537816  0.036451674   -2.6896904   0.73590885   424551 
 2480000    0.6128279   -2.6893632   -2.6893632   -1.9542875  0.035933651   -2.6893632   0.73507563   424551 
 2481000   0.61321282   -2.6914317   -2.6914317   -1.9558944  0.034756943   -2.6914317   0.73553733   424551 
 2482000    0.6126574   -2.6909069   -2.6909069   -1.9560358  0.036280473   -2.6909069   0.73487111   424551 
 2483000   0.61309977   -2.6915147   -2.6915147    -1.956113  0.040024572   -2.6915147   0.73540173   424551 
 2484000   0.61204037   -2.6904066   -2.6904066   -1.9562756  0.038773377   -2.6904066     0.734131   424551 
 2485000   0.61224594   -2.6899182   -2.6899182   -1.9555407  0.052166183   -2.6899182   0.73437758   424551 
 2486000   0.61288749   -2.6915615   -2.6915615   -1.9564144  0.038373833   -2.6915615    0.7351471   424551 
 2487000   0.61249525   -2.6908812   -2.6908812   -1.9562046  0.033254697   -2.6908812   0.73467662   424551 
 2488000   0.61339669   -2.6913153   -2.6913153   -1.9555575  0.037562992   -2.6913153   0.73575787   424551 
 2489000   0.61341101    -2.691116    -2.691116    -1.955341  0.043066987    -2.691116   0.73577505   424551 
 2490000   0.61323255    -2.690557    -2.690557    -1.954996  0.039951247    -2.690557     0.735561   424551 
 2491000    0.6142465   -2.6923689   -2.6923689   -1.9555917    0.0407535   -2.6923689   0.73677721   424551 
 2492000   0.61376693    -2.691619    -2.691619    -1.955417  0.046777339    -2.691619   0.73620198   424551 
 2493000   0.61384763   -2.6914563   -2.6914563   -1.9551575  0.038960483   -2.6914563   0.73629878   424551 
 2494000   0.61280188   -2.6911211   -2.6911211   -1.9560767  0.042731774   -2.6911211   0.73504442   424551 
 2495000   0.61335194   -2.6917225   -2.6917225   -1.9560183  0.046323671   -2.6917225    0.7357042   424551 
 2496000   0.61356322   -2.6916682   -2.6916682   -1.9557106  0.035586996   -2.6916682   0.73595763   424551 
 2497000   0.61314516   -2.6909097   -2.6909097   -1.9554535  0.041499248   -2.6909097   0.73545617   424551 
 2498000   0.61382918   -2.6925351   -2.6925351   -1.9562584  0.030577781   -2.6925351   0.73627664   424551 
 2499000   0.61280564   -2.6908076   -2.6908076   -1.9557587  0.040131698   -2.6908076   0.73504893   424551 
 2500000   0.61334571   -2.6905367   -2.6905367   -1.9548399  0.039887193   -2.6905367   0.73569673   424551 
 2501000   0.61392483   -2.6913045   -2.6913045   -1.9549131  0.039607904   -2.6913045   0.73639137   424551 
 2502000   0.61288386   -2.6904213   -2.6904213   -1.9552785  0.045080634   -2.6904213   0.73514275   424551 
 2503000   0.61319034   -2.6906094   -2.6906094    -1.955099  0.036750071   -2.6906094   0.73551037   424551 
 2504000   0.61331283   -2.6910215   -2.6910215   -1.9553642  0.030069593   -2.6910215   0.73565729   424551 
 2505000   0.61442699   -2.6922249   -2.6922249   -1.9552312  0.040143355   -2.6922249   0.73699371   424551 
 2506000   0.61489433   -2.6928622   -2.6928622   -1.9553079  0.040399577   -2.6928622   0.73755427   424551 
 2507000   0.61357114   -2.6916824   -2.6916824   -1.9557152  0.041706287   -2.6916824   0.73596713   424551 
 2508000   0.61343731   -2.6907382   -2.6907382   -1.9549316  0.038815527   -2.6907382   0.73580661   424551 
 2509000    0.6150677   -2.6933051   -2.6933051   -1.9555429  0.043696719   -2.6933051   0.73776223   424551 
 2510000   0.61334749   -2.6916657   -2.6916657   -1.9559668  0.040790071   -2.6916657   0.73569886   424551 
 2511000   0.61367053   -2.6918278   -2.6918278   -1.9557414   0.03873842   -2.6918278   0.73608635   424551 
 2512000   0.61385837   -2.6923529   -2.6923529   -1.9560412  0.042860431   -2.6923529   0.73631166   424551 
 2513000   0.61350476   -2.6918126   -2.6918126   -1.9559251  0.042108085   -2.6918126   0.73588751   424551 
 2514000   0.61426522   -2.6934166   -2.6934166    -1.956617  0.048866444   -2.6934166   0.73679967   424551 
 2515000   0.61431549   -2.6936092   -2.6936092   -1.9567492   0.03459186   -2.6936092   0.73685997   424551 
 2516000   0.61452411    -2.693971    -2.693971   -1.9568608  0.046934618    -2.693971    0.7371102   424551 
 2517000   0.61312459   -2.6926044   -2.6926044   -1.9571729  0.040866233   -2.6926044    0.7354315   424551 
 2518000     0.612631   -2.6930313   -2.6930313   -1.9581919  0.033980064   -2.6930313   0.73483945   424551 
 2519000   0.61295638   -2.6928588   -2.6928588   -1.9576291  0.035752884   -2.6928588   0.73522974   424551 
 2520000   0.61235759   -2.6920586   -2.6920586   -1.9575472   0.04501739   -2.6920586   0.73451149   424551 
 2521000     0.611966   -2.6912012   -2.6912012   -1.9571594  0.032981426   -2.6912012   0.73404179   424551 
 2522000   0.61325772   -2.6923757   -2.6923757   -1.9567845  0.034577868   -2.6923757   0.73559118   424551 
 2523000    0.6134268   -2.6928783   -2.6928783   -1.9570843  0.042079989   -2.6928783     0.735794   424551 
 2524000    0.6117905   -2.6909875   -2.6909875   -1.9571562   0.03893309   -2.6909875   0.73383129   424551 
 2525000   0.61289284   -2.6915667   -2.6915667   -1.9564132  0.035409055   -2.6915667   0.73515352   424551 
 2526000   0.61398152   -2.6929451   -2.6929451   -1.9564857  0.045020002   -2.6929451   0.73645937   424551 
 2527000   0.61287466   -2.6910836   -2.6910836   -1.9559519  0.031064588   -2.6910836   0.73513172   424551 
 2528000   0.61279793   -2.6905962   -2.6905962   -1.9555566  0.034621075   -2.6905962   0.73503968   424551 
 2529000   0.61318944   -2.6914965   -2.6914965   -1.9559872  0.029038186   -2.6914965   0.73550929   424551 
 2530000   0.61367086   -2.6918656   -2.6918656   -1.9557789  0.043517156   -2.6918656   0.73608674   424551 
 2531000    0.6126237   -2.6914995   -2.6914995   -1.9566688  0.041390649   -2.6914995   0.73483069   424551 
 2532000   0.61357497   -2.6922892   -2.6922892   -1.9563174  0.041386572   -2.6922892   0.73597173   424551 
 2533000   0.61295577   -2.6919362   -2.6919362   -1.9567072  0.038651325   -2.6919362   0.73522901   424551 
 2534000   0.61409011   -2.6936035   -2.6936035   -1.9570139  0.035489831   -2.6936035   0.73658963   424551 
 2535000   0.61311318   -2.6925423   -2.6925423   -1.9571245  0.040576927   -2.6925423   0.73541781   424551 
 2536000   0.61234728   -2.6923911   -2.6923911   -1.9578919  0.035873229   -2.6923911   0.73449913   424551 
 2537000   0.61224836   -2.6917799   -2.6917799   -1.9573994  0.032063156   -2.6917799   0.73438048   424551 
 2538000   0.61246882    -2.692454    -2.692454   -1.9578091  0.046685017    -2.692454   0.73464491   424551 
 2539000   0.61284733    -2.693033    -2.693033   -1.9579341  0.037552346    -2.693033   0.73509893   424551 
 2540000   0.61441185   -2.6944788   -2.6944788   -1.9575032  0.037985231   -2.6944788   0.73697555   424551 
 2541000   0.61291868   -2.6931971   -2.6931971   -1.9580125  0.051593966   -2.6931971   0.73518452   424551 
 2542000   0.61429622   -2.6953662   -2.6953662   -1.9585294  0.045929616   -2.6953662   0.73683685   424551 
 2543000   0.61330049   -2.6938687   -2.6938687   -1.9582262  0.038477655   -2.6938687   0.73564249   424551 
 2544000   0.61398496   -2.6948418   -2.6948418   -1.9583783  0.040955044   -2.6948418   0.73646349   424551 
 2545000   0.61386113   -2.6949821   -2.6949821   -1.9586672  0.050406884   -2.6949821   0.73631497   424551 
 2546000   0.61249569   -2.6939681   -2.6939681   -1.9592909  0.056576025   -2.6939681   0.73467715   424551 
 2547000   0.61279823    -2.694178    -2.694178    -1.959138  0.039265106    -2.694178   0.73504004   424551 
 2548000   0.61281638   -2.6950931   -2.6950931   -1.9600312  0.043869419   -2.6950931   0.73506181   424551 
 2549000   0.61249839   -2.6941494   -2.6941494    -1.959469  0.038790469   -2.6941494   0.73468039   424551 
 2550000   0.61214103   -2.6940247   -2.6940247   -1.9597729  0.040498703   -2.6940247   0.73425174   424551 
 2551000    0.6118792   -2.6946944   -2.6946944   -1.9607567  0.045202215   -2.6946944   0.73393768   424551 
 2552000   0.61150206   -2.6939183   -2.6939183    -1.960433  0.047648211   -2.6939183   0.73348531   424551 
 2553000   0.61396181   -2.6962964   -2.6962964   -1.9598607  0.040629293   -2.6962964   0.73643573   424551 
 2554000   0.61338843   -2.6943358   -2.6943358   -1.9585879   0.04172941   -2.6943358   0.73574797   424551 
 2555000   0.61369454   -2.6945904   -2.6945904   -1.9584752  0.043963808   -2.6945904   0.73611515   424551 
 2556000   0.61229295   -2.6935046   -2.6935046   -1.9590707   0.04008752   -2.6935046   0.73443397   424551 
 2557000   0.61245287   -2.6941554   -2.6941554   -1.9595296  0.041662358   -2.6941554   0.73462579   424551 
 2558000    0.6123435   -2.6944874   -2.6944874   -1.9599928  0.038362619   -2.6944874    0.7344946   424551 
 2559000   0.61307047   -2.6955299   -2.6955299   -1.9601633  0.035675957   -2.6955299   0.73536659   424551 
 2560000   0.61244736   -2.6952707   -2.6952707   -1.9606515  0.036666827   -2.6952707   0.73461917   424551 
 2561000   0.61372086   -2.6965542   -2.6965542   -1.9604074  0.052717271   -2.6965542   0.73614671   424551 
 2562000   0.61245218   -2.6950204   -2.6950204   -1.9603954  0.040725934   -2.6950204   0.73462495   424551 
 2563000   0.61278218   -2.6948733   -2.6948733   -1.9598525  0.044429136   -2.6948733   0.73502079   424551 
 2564000    0.6140497   -2.6954159   -2.6954159   -1.9588747  0.038214163   -2.6954159   0.73654115   424551 
 2565000   0.61337508   -2.6953159   -2.6953159   -1.9595839  0.043883501   -2.6953159   0.73573196   424551 
 2566000   0.61318249   -2.6959565   -2.6959565   -1.9604555  0.038673506   -2.6959565   0.73550096   424551 
 2567000   0.61365915   -2.6971216   -2.6971216    -1.961049  0.038959303   -2.6971216   0.73607269   424551 
 2568000   0.61299803   -2.6965851   -2.6965851   -1.9613054  0.034978191   -2.6965851    0.7352797   424551 
 2569000   0.61310235   -2.6964042   -2.6964042   -1.9609994  0.041749868   -2.6964042   0.73540483   424551 
 2570000   0.61322365   -2.6964862   -2.6964862   -1.9609359  0.044378077   -2.6964862   0.73555033   424551 
 2571000   0.61381765    -2.697131    -2.697131   -1.9608682  0.047900812    -2.697131   0.73626281   424551 
 2572000   0.61404752   -2.6976068   -2.6976068   -1.9610683  0.042675735   -2.6976068   0.73653854   424551 
 2573000   0.61390862   -2.6965844   -2.6965844   -1.9602124  0.043900375   -2.6965844   0.73637193   424551 
 2574000     0.613743   -2.6959719   -2.6959719   -1.9597987  0.038678624   -2.6959719   0.73617327   424551 
 2575000   0.61358166   -2.6963116   -2.6963116   -1.9603319  0.042761295   -2.6963116   0.73597974   424551 
 2576000   0.61304758   -2.6957195   -2.6957195   -1.9603803  0.035906947   -2.6957195   0.73533913   424551 
 2577000   0.61215026   -2.6947315   -2.6947315   -1.9604687  0.041603464   -2.6947315   0.73426281   424551 
 2578000   0.61296955   -2.6954328   -2.6954328   -1.9601873  0.040697781   -2.6954328   0.73524553   424551 
 2579000   0.61269334   -2.6955666   -2.6955666   -1.9606524  0.033503694   -2.6955666   0.73491422   424551 
 2580000   0.61393298   -2.6973767   -2.6973767   -1.9609756  0.041373542   -2.6973767   0.73640115   424551 
 2581000   0.61261304   -2.6952905   -2.6952905   -1.9604726  0.035775771   -2.6952905    0.7348179   424551 
 2582000   0.61332891   -2.6960176   -2.6960176    -1.960341  0.034789039   -2.6960176   0.73567658   424551 
 2583000   0.61385834   -2.6970114   -2.6970114   -1.9606998  0.037521191   -2.6970114   0.73631162   424551 
 2584000   0.61310929   -2.6952296   -2.6952296   -1.9598164   0.04653798   -2.6952296   0.73541315   424551 
 2585000   0.61436835   -2.6970687   -2.6970687   -1.9601453   0.04516313   -2.6970687   0.73692336   424551 
 2586000   0.61363401   -2.6964537   -2.6964537   -1.9604111  0.043876315   -2.6964537   0.73604254   424551 
 2587000   0.61384683   -2.6965507   -2.6965507   -1.9602529   0.03797209   -2.6965507   0.73629782   424551 
 2588000   0.61311243   -2.6960358   -2.6960358   -1.9606188  0.054075323   -2.6960358   0.73541691   424551 
 2589000   0.61323887   -2.6970029   -2.6970029   -1.9614343  0.033806521   -2.6970029   0.73556858   424551 
 2590000   0.61383414    -2.697189    -2.697189   -1.9609065   0.05196177    -2.697189    0.7362826   424551 
 2591000   0.61239787   -2.6956467   -2.6956467   -1.9610869  0.045180264   -2.6956467   0.73455981   424551 
 2592000   0.61361496   -2.6977995   -2.6977995   -1.9617798  0.037492284   -2.6977995   0.73601969   424551 
 2593000   0.61299833   -2.6969246   -2.6969246   -1.9616445   0.04250386   -2.6969246   0.73528006   424551 
 2594000   0.61341593   -2.6978789   -2.6978789   -1.9620979  0.052143532   -2.6978789   0.73578096   424551 
 2595000   0.61240362   -2.6960683   -2.6960683   -1.9615016  0.037041873   -2.6960683   0.73456671   424551 
 2596000   0.61263113   -2.6961216   -2.6961216    -1.961282  0.040336365   -2.6961216    0.7348396   424551 
 2597000   0.61228394   -2.6955605   -2.6955605   -1.9611374  0.044827144   -2.6955605   0.73442316   424551 
 2598000   0.61099358   -2.6948926   -2.6948926   -1.9620172  0.043652428   -2.6948926    0.7328754   424551 
 2599000   0.61240121   -2.6966688   -2.6966688    -1.962105  0.047904709   -2.6966688   0.73456382   424551 
 2600000   0.61224802   -2.6967157   -2.6967157   -1.9623357  0.043431023   -2.6967157   0.73438007   424551 
 2601000   0.61402876   -2.6991006   -2.6991006   -1.9625845  0.036498432   -2.6991006   0.73651603   424551 
 2602000   0.61198558   -2.6972481   -2.6972481   -1.9631828  0.039826048   -2.6972481   0.73406528   424551 
 2603000   0.61244586   -2.6987763   -2.6987763    -1.964159  0.036738122   -2.6987763   0.73461737   424551 
 2604000   0.61246205   -2.6984741   -2.6984741   -1.9638373   0.04259751   -2.6984741    0.7346368   424551 
 2605000   0.61319715   -2.6990175   -2.6990175    -1.963499  0.035148763   -2.6990175   0.73551854   424551 
 2606000    0.6132324   -2.6984853   -2.6984853   -1.9629245  0.040809502   -2.6984853   0.73556081   424551 
 2607000    0.6126885   -2.6978389   -2.6978389   -1.9629305  0.047382363   -2.6978389   0.73490842   424551 
 2608000   0.61362045   -2.6987249   -2.6987249   -1.9626987  0.031213019   -2.6987249   0.73602628   424551 
 2609000   0.61292067   -2.6989755   -2.6989755   -1.9637886  0.033071046   -2.6989755   0.73518691   424551 
 2610000   0.61215725   -2.6986652   -2.6986652    -1.964394   0.04594607   -2.6986652   0.73427119   424551 
 2611000   0.61254259    -2.698994    -2.698994   -1.9642606  0.030011924    -2.698994    0.7347334   424551 
 2612000   0.61311913   -2.6994462   -2.6994462   -1.9640212  0.043586705   -2.6994462   0.73542496   424551 
 2613000   0.61279875   -2.6992737   -2.6992737    -1.964233  0.039462856   -2.6992737   0.73504066   424551 
 2614000   0.61221937    -2.698819    -2.698819   -1.9644733  0.036585847    -2.698819    0.7343457   424551 
 2615000    0.6131228   -2.6996276   -2.6996276   -1.9641983  0.032192195   -2.6996276   0.73542935   424551 
 2616000   0.61233889   -2.6972919   -2.6972919   -1.9628028  0.041566745   -2.6972919   0.73448907   424551 
 2617000   0.61247882    -2.697725    -2.697725   -1.9630681  0.035725933    -2.697725   0.73465691   424551 
 2618000   0.61235644    -2.697586    -2.697586   -1.9630759  0.042815938    -2.697586   0.73451012   424551 
 2619000   0.61226979    -2.697751    -2.697751   -1.9633448  0.039563119    -2.697751   0.73440619   424551 
 2620000    0.6126535   -2.6987202   -2.6987202   -1.9638538  0.041972442   -2.6987202   0.73486644   424551 
 2621000   0.61226243   -2.6981706   -2.6981706   -1.9637733  0.053286543   -2.6981706   0.73439736   424551 
 2622000   0.61234745   -2.6983577   -2.6983577   -1.9638584   0.03399256   -2.6983577   0.73449934   424551 
 2623000   0.61226543   -2.6986883   -2.6986883   -1.9642873  0.033810806   -2.6986883   0.73440096   424551 
 2624000   0.61356859   -2.6996864   -2.6996864   -1.9637223  0.042179862   -2.6996864   0.73596407   424551 
 2625000   0.61280291   -2.6989007   -2.6989007   -1.9638551  0.040707678   -2.6989007   0.73504565   424551 
 2626000   0.61197023    -2.697163    -2.697163   -1.9631162  0.035171163    -2.697163   0.73404686   424551 
 2627000   0.61451923   -2.6996357   -2.6996357   -1.9625314    0.0368045   -2.6996357   0.73710435   424551 
 2628000   0.61327577   -2.6981305   -2.6981305   -1.9625177  0.048703425   -2.6981305   0.73561283   424551 
 2629000   0.61416928   -2.6997091   -2.6997091   -1.9630245  0.048482721   -2.6997091   0.73668459   424551 
 2630000   0.61342276   -2.6989172   -2.6989172    -1.963128  0.044071686   -2.6989172   0.73578915   424551 
 2631000   0.61237091   -2.6979184   -2.6979184    -1.963391  0.047112359   -2.6979184   0.73452748   424551 
 2632000   0.61348803   -2.6998038   -2.6998038   -1.9639363  0.040531188   -2.6998038   0.73586745   424551 
 2633000   0.61318117   -2.6999873   -2.6999873    -1.964488  0.033060698   -2.6999873   0.73549936   424551 
 2634000   0.61195937   -2.6999282   -2.6999282   -1.9658943  0.043239256   -2.6999282   0.73403384   424551 
 2635000   0.61201181   -2.6997196   -2.6997196   -1.9656229  0.048561288   -2.6997196   0.73409674   424551 
 2636000   0.61196842   -2.6998865   -2.6998865   -1.9658418  0.035899379   -2.6998865    0.7340447   424551 
 2637000   0.61262304   -2.7009747   -2.7009747   -1.9661448  0.046600533   -2.7009747    0.7348299   424551 
 2638000   0.61271412   -2.7006768   -2.7006768   -1.9657376  0.028806547   -2.7006768   0.73493915   424551 
 2639000   0.61177961   -2.6998641   -2.6998641   -1.9660459  0.043708615   -2.6998641   0.73381822   424551 
 2640000   0.61288503   -2.7009133   -2.7009133   -1.9657692  0.054648679   -2.7009133   0.73514416   424551 
 2641000   0.61310048   -2.7005711   -2.7005711   -1.9651685  0.043993883   -2.7005711   0.73540258   424551 
 2642000   0.61246437   -2.7006948   -2.7006948   -1.9660552   0.04353121   -2.7006948   0.73463958   424551 
 2643000   0.61350205   -2.7014904   -2.7014904   -1.9656061  0.040545292   -2.7014904   0.73588426   424551 
 2644000   0.61287513   -2.7012832   -2.7012832   -1.9661509  0.043767522   -2.7012832   0.73513228   424551 
 2645000    0.6130738   -2.7007072   -2.7007072   -1.9653367  0.050444386   -2.7007072   0.73537058   424551 
 2646000   0.61314794   -2.7012942   -2.7012942   -1.9658347  0.028423176   -2.7012942   0.73545951   424551 
 2647000   0.61252535   -2.7010216   -2.7010216   -1.9663089  0.033385733   -2.7010216   0.73471273   424551 
 2648000   0.61304877    -2.700987    -2.700987   -1.9656464  0.031355446    -2.700987   0.73534056   424551 
 2649000   0.61247765    -2.700017    -2.700017   -1.9653615  0.042869525    -2.700017    0.7346555   424551 
 2650000   0.61347863   -2.7012741   -2.7012741   -1.9654179  0.033317271   -2.7012741   0.73585617   424551 
 2651000   0.61106431   -2.6991633   -2.6991633   -1.9662031  0.027744027   -2.6991633   0.73296024   424551 
 2652000   0.61195293   -2.6999114   -2.6999114   -1.9658853  0.033190314   -2.6999114   0.73402612   424551 
 2653000   0.61183848   -2.6997493   -2.6997493   -1.9658605  0.034859339   -2.6997493   0.73388884   424551 
 2654000   0.61247681   -2.7001504   -2.7001504   -1.9654959   0.04688776   -2.7001504    0.7346545   424551 
 2655000   0.61263164   -2.7006508   -2.7006508   -1.9658106  0.045735589   -2.7006508   0.73484021   424551 
 2656000   0.61227915   -2.7007539   -2.7007539   -1.9663365  0.038620022   -2.7007539   0.73441741   424551 
 2657000   0.61194463   -2.7004204   -2.7004204   -1.9664043  0.028438553   -2.7004204   0.73401617   424551 
 2658000    0.6132045   -2.7009906   -2.7009906   -1.9654633   0.03545559   -2.7009906   0.73552736   424551 
 2659000   0.61349041   -2.7021587   -2.7021587   -1.9662884  0.041717959   -2.7021587    0.7358703   424551 
 2660000   0.61292653   -2.7009062   -2.7009062   -1.9657123   0.04476497   -2.7009062   0.73519393   424551 
 2661000   0.61276275   -2.7006077   -2.7006077   -1.9656102  0.036415893   -2.7006077   0.73499748   424551 
 2662000    0.6133415   -2.7016012   -2.7016012   -1.9659095   0.04634703   -2.7016012   0.73569169   424551 
 2663000   0.61252409   -2.7011512   -2.7011512     -1.96644  0.039681123   -2.7011512   0.73471122   424551 
 2664000   0.61305294   -2.7013379   -2.7013379   -1.9659924    0.0438744   -2.7013379   0.73534555   424551 
 2665000   0.61338397   -2.7024189   -2.7024189   -1.9666763  0.042328949   -2.7024189   0.73574262   424551 
 2666000   0.61301017   -2.7022659   -2.7022659   -1.9669716  0.061958282   -2.7022659   0.73529425   424551 
 2667000   0.61298027   -2.7018916   -2.7018916   -1.9666332  0.042578407   -2.7018916    0.7352584   424551 
 2668000   0.61259147   -2.7019976   -2.7019976   -1.9672056  0.043232558   -2.7019976   0.73479203   424551 
 2669000   0.61357589   -2.7030338   -2.7030338    -1.967061  0.050291905   -2.7030338   0.73597283   424551 
 2670000   0.61233277   -2.7009441   -2.7009441   -1.9664624  0.041671643   -2.7009441   0.73448172   424551 
 2671000   0.61198663   -2.7005862   -2.7005862   -1.9665197  0.043149487   -2.7005862   0.73406654   424551 
 2672000   0.61195257   -2.7010923   -2.7010923   -1.9670666  0.028338768   -2.7010923   0.73402568   424551 
 2673000   0.61165327   -2.7007042   -2.7007042   -1.9670375  0.044005507   -2.7007042   0.73366668   424551 
 2674000   0.61181528   -2.7009855   -2.7009855   -1.9671245  0.043861582   -2.7009855     0.733861   424551 
 2675000   0.61375247   -2.7027855   -2.7027855   -1.9666009  0.044605491   -2.7027855   0.73618463   424551 
 2676000   0.61318494   -2.7009709   -2.7009709   -1.9654671  0.042724294   -2.7009709   0.73550389   424551 
 2677000   0.61327491   -2.7010351   -2.7010351   -1.9654232  0.054748311   -2.7010351   0.73561181   424551 
 2678000   0.61153946   -2.6988312   -2.6988312   -1.9653011  0.045424098   -2.6988312   0.73353017   424551 
 2679000   0.61168265   -2.6989686   -2.6989686   -1.9652667  0.037494552   -2.6989686   0.73370192   424551 
 2680000   0.61247031   -2.6988831   -2.6988831   -1.9642364  0.040220434   -2.6988831    0.7346467   424551 
 2681000   0.61317954   -2.7003549   -2.7003549   -1.9648575  0.037177725   -2.7003549   0.73549741   424551 
 2682000   0.61161608   -2.6991354   -2.6991354   -1.9655133  0.041715898   -2.6991354   0.73362207   424551 
 2683000   0.61359696   -2.7001815   -2.7001815   -1.9641834  0.038401261   -2.7001815   0.73599811   424551 
 2684000   0.61225133   -2.6984641   -2.6984641   -1.9640801  0.042248036   -2.6984641   0.73438404   424551 
 2685000   0.61346609   -2.7002006   -2.7002006   -1.9643594  0.050267021   -2.7002006   0.73584112   424551 
 2686000   0.61245567    -2.698629    -2.698629   -1.9639999  0.040664173    -2.698629   0.73462914   424551 
 2687000   0.61220279   -2.6988338   -2.6988338   -1.9645079  0.045866741   -2.6988338   0.73432582   424551 
 2688000   0.61162203    -2.699158    -2.699158   -1.9655287  0.041117142    -2.699158   0.73362921   424551 
 2689000   0.61100415   -2.6987256   -2.6987256   -1.9658376  0.044501863   -2.6987256   0.73288808   424551 
 2690000   0.61186943   -2.6988238   -2.6988238   -1.9648978  0.051895682   -2.6988238   0.73392596   424551 
 2691000   0.61157961   -2.6982051   -2.6982051   -1.9646268   0.03902897   -2.6982051   0.73357833   424551 
 2692000   0.61284662   -2.6993814   -2.6993814   -1.9642834  0.042435533   -2.6993814   0.73509808   424551 
 2693000   0.61227147   -2.6985378   -2.6985378   -1.9641296  0.046350814   -2.6985378    0.7344082   424551 
 2694000   0.61356777   -2.6999282   -2.6999282   -1.9639652  0.051295099   -2.6999282   0.73596308   424551 
 2695000   0.61267274   -2.6990653   -2.6990653   -1.9641758  0.051763646   -2.6990653   0.73488952   424551 
 2696000   0.61251678   -2.6997514   -2.6997514    -1.965049  0.036813114   -2.6997514   0.73470245   424551 
 2697000   0.61249953   -2.6994741   -2.6994741   -1.9647924  0.045594751   -2.6994741   0.73468176   424551 
 2698000   0.61285853   -2.6995835   -2.6995835   -1.9644711  0.048750747   -2.6995835   0.73511236   424551 
 2699000   0.61124611   -2.6981899   -2.6981899   -1.9650115    0.0355527   -2.6981899    0.7331783   424551 
 2700000   0.61165223   -2.6993216   -2.6993216   -1.9656561  0.040125193   -2.6993216   0.73366543   424551 
 2701000   0.61244494   -2.7000682   -2.7000682    -1.965452   0.03904122   -2.7000682   0.73461628   424551 
 2702000    0.6125124   -2.6994838   -2.6994838   -1.9647866  0.040731905   -2.6994838   0.73469719   424551 
 2703000   0.61117788   -2.6985121   -2.6985121   -1.9654156  0.042751831   -2.6985121   0.73309646   424551 
 2704000   0.61285783   -2.7005416   -2.7005416   -1.9654301  0.040662327   -2.7005416   0.73511153   424551 
 2705000   0.61226717   -2.7003076   -2.7003076   -1.9659045  0.039127212   -2.7003076   0.73440304   424551 
 2706000   0.61349893   -2.7011232   -2.7011232   -1.9652427  0.041079689   -2.7011232   0.73588052   424551 
 2707000   0.61182787   -2.6990533   -2.6990533   -1.9651772  0.042544188   -2.6990533   0.73387611   424551 
 2708000   0.61310398   -2.7004485   -2.7004485   -1.9650418  0.038046332   -2.7004485   0.73540678   424551 
 2709000   0.61274056   -2.7000832   -2.7000832   -1.9651123   0.03489213   -2.7000832   0.73497086   424551 
 2710000   0.61336331   -2.7016354   -2.7016354   -1.9659176  0.036627663   -2.7016354   0.73571784   424551 
 2711000   0.61193296   -2.6996348   -2.6996348   -1.9656326  0.042403218   -2.6996348   0.73400216   424551 
 2712000   0.61355656   -2.7023498   -2.7023498   -1.9664002  0.034785039   -2.7023498   0.73594964   424551 
 2713000    0.6117083   -2.7009422   -2.7009422   -1.9672095  0.043780027   -2.7009422   0.73373269   424551 
 2714000   0.61290724   -2.7015675   -2.7015675   -1.9663967  0.033311708   -2.7015675    0.7351708   424551 
 2715000   0.61258921   -2.7014474   -2.7014474   -1.9666581  0.035274104   -2.7014474   0.73478932   424551 
 2716000    0.6116466   -2.7010225   -2.7010225   -1.9673638  0.038633129   -2.7010225   0.73365868   424551 
 2717000   0.61130898   -2.7003078   -2.7003078   -1.9670541  0.045488457   -2.7003078   0.73325371   424551 
 2718000   0.61273352   -2.7018793   -2.7018793   -1.9669169  0.037805134   -2.7018793   0.73496242   424551 
 2719000   0.61240011   -2.7012796   -2.7012796   -1.9667171  0.046453635   -2.7012796   0.73456251   424551 
 2720000   0.61188449   -2.7014226   -2.7014226   -1.9674785  0.037975014   -2.7014226   0.73394402   424551 
 2721000   0.61200837   -2.7015502   -2.7015502   -1.9674576  0.042975148   -2.7015502   0.73409261   424551 
 2722000   0.61282786   -2.7026237   -2.7026237   -1.9675481  0.043116243   -2.7026237   0.73507558   424551 
 2723000   0.61334046   -2.7028219   -2.7028219   -1.9671314  0.037270461   -2.7028219   0.73569043   424551 
 2724000   0.61240566   -2.7025559   -2.7025559   -1.9679867  0.035946523   -2.7025559   0.73456916   424551 
 2725000   0.61292073   -2.7028854   -2.7028854   -1.9676984  0.049960571   -2.7028854   0.73518698   424551 
 2726000   0.61177629   -2.7017512   -2.7017512   -1.9679369  0.044840412   -2.7017512   0.73381425   424551 
 2727000   0.61162755    -2.702017    -2.702017   -1.9683812  0.038077118    -2.702017   0.73363582   424551 
 2728000   0.61163979   -2.7024573   -2.7024573   -1.9688068  0.031282352   -2.7024573   0.73365052   424551 
 2729000   0.61254932   -2.7026173   -2.7026173   -1.9678758  0.041944174   -2.7026173   0.73474147   424551 
 2730000   0.61186972   -2.7021185   -2.7021185   -1.9681922  0.032068294   -2.7021185    0.7339263   424551 
 2731000   0.61200289   -2.7020567   -2.7020567   -1.9679707  0.032632608   -2.7020567   0.73408604   424551 
 2732000   0.61190511    -2.702185    -2.702185   -1.9682162  0.036135684    -2.702185   0.73396876   424551 
 2733000   0.61310732     -2.70353     -2.70353   -1.9681192  0.033270744     -2.70353   0.73541079   424551 
 2734000   0.61226266   -2.7021268   -2.7021268   -1.9677291  0.036299984   -2.7021268   0.73439763   424551 
 2735000    0.6117437    -2.701966    -2.701966   -1.9681908  0.045149715    -2.701966   0.73377515   424551 
 2736000    0.6135705   -2.7031458   -2.7031458   -1.9671795  0.039826752   -2.7031458   0.73596637   424551 
 2737000   0.61281305   -2.7024593   -2.7024593   -1.9674015  0.045689165   -2.7024593   0.73505782   424551 
 2738000   0.61277628    -2.702613    -2.702613   -1.9675993  0.038386124    -2.702613   0.73501371   424551 
 2739000   0.61340619   -2.7034532   -2.7034532   -1.9676839  0.029755968   -2.7034532   0.73576928   424551 
 2740000   0.61299681   -2.7033442   -2.7033442    -1.968066  0.037067183   -2.7033442   0.73527823   424551 
 2741000   0.61260577   -2.7033604   -2.7033604   -1.9685512  0.040885595   -2.7033604   0.73480919   424551 
 2742000   0.61210987   -2.7030868   -2.7030868   -1.9688724  0.041775892   -2.7030868   0.73421437   424551 
 2743000   0.61183394   -2.7025514   -2.7025514    -1.968668  0.040109788   -2.7025514   0.73388339   424551 
 2744000   0.61163636   -2.7029874   -2.7029874    -1.969341  0.033516957   -2.7029874    0.7336464   424551 
 2745000   0.61176704   -2.7037345   -2.7037345   -1.9699314  0.046491458   -2.7037345   0.73380314   424551 
 2746000   0.61204589    -2.703142    -2.703142   -1.9690044  0.047481864    -2.703142   0.73413762   424551 
 2747000   0.61124194   -2.7033439   -2.7033439   -1.9701706  0.037897299   -2.7033439    0.7331733   424551 
 2748000   0.61355137   -2.7048387   -2.7048387   -1.9688953   0.02411974   -2.7048387   0.73594341   424551 
 2749000   0.61188541   -2.7037399   -2.7037399   -1.9697947  0.031578216   -2.7037399   0.73394513   424551 
 2750000    0.6115035   -2.7030296   -2.7030296   -1.9695425  0.038437984   -2.7030296   0.73348704   424551 
 2751000   0.61258714   -2.7041317   -2.7041317   -1.9693449  0.041986836   -2.7041317   0.73478684   424551 
 2752000   0.61257409   -2.7044883   -2.7044883   -1.9697171  0.048923793   -2.7044883   0.73477118   424551 
 2753000   0.61221628   -2.7040815   -2.7040815   -1.9697396  0.040276389   -2.7040815     0.734342   424551 
 2754000   0.61158018   -2.7035555   -2.7035555   -1.9699765  0.038534268   -2.7035555   0.73357901   424551 
 2755000   0.61243231   -2.7046668   -2.7046668   -1.9700657  0.039094095   -2.7046668   0.73460113   424551 
 2756000    0.6116425   -2.7038137   -2.7038137   -1.9701599  0.037555646   -2.7038137   0.73365377   424551 
 2757000   0.61045609    -2.701718    -2.701718   -1.9694874  0.046785158    -2.701718   0.73223068   424551 
 2758000   0.61096237   -2.7020978   -2.7020978   -1.9692598  0.032633253   -2.7020978   0.73283796   424551 
 2759000   0.61138399   -2.7026611   -2.7026611   -1.9693174  0.039514007   -2.7026611   0.73334368   424551 
 2760000   0.61152854   -2.7022656   -2.7022656   -1.9687485  0.058405369   -2.7022656   0.73351707   424551 
 2761000   0.61190049   -2.7027024   -2.7027024   -1.9687392  0.043695445   -2.7027024   0.73396322   424551 
 2762000   0.61194191    -2.702487    -2.702487   -1.9684741   0.04512613    -2.702487   0.73401289   424551 
 2763000    0.6118636   -2.7037488   -2.7037488   -1.9698299  0.039775318   -2.7037488   0.73391896   424551 
 2764000   0.61135557   -2.7019747   -2.7019747   -1.9686651  0.040970861   -2.7019747    0.7333096   424551 
 2765000   0.61161247   -2.7029136   -2.7029136   -1.9692958  0.026351832   -2.7029136   0.73361774   424551 
 2766000   0.61077941   -2.7007388   -2.7007388   -1.9681203  0.049851673   -2.7007388    0.7326185   424551 
 2767000   0.61246881   -2.7031234   -2.7031234   -1.9684785  0.039335773   -2.7031234   0.73464491   424551 
 2768000   0.61148569    -2.702556    -2.702556   -1.9690904  0.031302156    -2.702556   0.73346568   424551 
 2769000   0.61124901   -2.7026043   -2.7026043   -1.9694226  0.033278405   -2.7026043   0.73318178   424551 
 2770000   0.61168848   -2.7034487   -2.7034487   -1.9697398  0.027681471   -2.7034487   0.73370891   424551 
 2771000   0.61338957   -2.7052931   -2.7052931   -1.9695438  0.048689874   -2.7052931   0.73574934   424551 
 2772000   0.61157889    -2.703885    -2.703885   -1.9703076  0.035258476    -2.703885   0.73357746   424551 
 2773000   0.61136538   -2.7035687   -2.7035687   -1.9702474  0.036377826   -2.7035687   0.73332136   424551 
 2774000   0.61198872   -2.7038639   -2.7038639   -1.9697948  0.042695014   -2.7038639   0.73406904   424551 
 2775000   0.61287038    -2.705044    -2.705044   -1.9699174  0.041994767    -2.705044   0.73512658   424551 
 2776000   0.61279842   -2.7050763   -2.7050763    -1.970036  0.039319422   -2.7050763   0.73504027   424551 
 2777000   0.61354695   -2.7059075   -2.7059075   -1.9699694  0.044439496   -2.7059075   0.73593812   424551 
 2778000    0.6129304   -2.7057144   -2.7057144   -1.9705159  0.034256975   -2.7057144   0.73519857   424551 
 2779000   0.61288169   -2.7062553   -2.7062553   -1.9711151  0.039223933   -2.7062553   0.73514015   424551 
 2780000   0.61225228   -2.7058363   -2.7058363   -1.9714511  0.032122963   -2.7058363   0.73438518   424551 
 2781000   0.61265166   -2.7069672   -2.7069672    -1.972103  0.036196236   -2.7069672   0.73486423   424551 
 2782000    0.6119619   -2.7060637   -2.7060637   -1.9720268  0.044278937   -2.7060637   0.73403687   424551 
 2783000   0.61427355   -2.7080672   -2.7080672   -1.9712576  0.042733281   -2.7080672   0.73680966   424551 
 2784000   0.61220624   -2.7064577   -2.7064577   -1.9721277  0.052100392   -2.7064577   0.73432996   424551 
 2785000   0.61213516   -2.7063315   -2.7063315   -1.9720868    0.0407578   -2.7063315    0.7342447   424551 
 2786000   0.61164434   -2.7056505   -2.7056505   -1.9719945  0.033746114   -2.7056505   0.73365596   424551 
 2787000    0.6111292    -2.704696    -2.704696   -1.9716579  0.033871807    -2.704696   0.73303807   424551 
 2788000   0.61209178   -2.7059329   -2.7059329   -1.9717402  0.037781909   -2.7059329   0.73419267   424551 
 2789000    0.6113345   -2.7047208   -2.7047208   -1.9714365  0.047403571   -2.7047208   0.73328432   424551 
 2790000   0.61130416   -2.7060427   -2.7060427   -1.9727947  0.039191603   -2.7060427   0.73324793   424551 
 2791000   0.61108703   -2.7054652   -2.7054652   -1.9724778   0.02494279   -2.7054652   0.73298748   424551 
 2792000   0.61018758   -2.7042236   -2.7042236    -1.972315  0.033534478   -2.7042236   0.73190861   424551 
 2793000   0.61086023   -2.7045152   -2.7045152   -1.9717998  0.043023621   -2.7045152   0.73271544   424551 
 2794000   0.61150153   -2.7049648   -2.7049648   -1.9714801  0.038057312   -2.7049648   0.73348467   424551 
 2795000   0.61049576   -2.7046671   -2.7046671   -1.9723889  0.036804167   -2.7046671   0.73227827   424551 
 2796000   0.61048738    -2.705304    -2.705304   -1.9730357  0.048752409    -2.705304   0.73226821   424551 
 2797000   0.61113747   -2.7059025   -2.7059025   -1.9728545  0.044391822   -2.7059025   0.73304799   424551 
 2798000   0.61181134   -2.7063003   -2.7063003   -1.9724441  0.042201154   -2.7063003   0.73385628   424551 
 2799000   0.61287259   -2.7079513   -2.7079513   -1.9728221  0.046004599   -2.7079513   0.73512924   424551 
 2800000   0.61139956   -2.7057025   -2.7057025   -1.9723402  0.045561673   -2.7057025   0.73336236   424551 
 2801000   0.61165527   -2.7062606   -2.7062606   -1.9725915   0.03631083   -2.7062606   0.73366908   424551 
 2802000   0.61087039   -2.7052177   -2.7052177   -1.9724901  0.045695144   -2.7052177   0.73272763   424551 
 2803000   0.61249429   -2.7064511   -2.7064511   -1.9717756  0.035879274   -2.7064511   0.73467547   424551 
 2804000   0.61264755   -2.7074784   -2.7074784   -1.9726191  0.040337459   -2.7074784    0.7348593   424551 
 2805000   0.61160158   -2.7060402   -2.7060402   -1.9724355  0.032463188   -2.7060402   0.73360468   424551 
 2806000   0.61386314   -2.7090175   -2.7090175   -1.9727001  0.032419433   -2.7090175   0.73631737   424551 
 2807000   0.61132028   -2.7069709   -2.7069709   -1.9737036  0.036776103   -2.7069709   0.73326726   424551 
 2808000   0.61206932    -2.707711    -2.707711   -1.9735453  0.037452569    -2.707711   0.73416573   424551 
 2809000   0.61100268   -2.7062373   -2.7062373    -1.973351  0.038002135   -2.7062373    0.7328863   424551 
 2810000   0.61174031   -2.7072228   -2.7072228   -1.9734517  0.044982028   -2.7072228   0.73377108   424551 
 2811000   0.61133284   -2.7069673   -2.7069673    -1.973685  0.045086895   -2.7069673   0.73328234   424551 
 2812000    0.6105476   -2.7058357   -2.7058357   -1.9734953  0.043022663   -2.7058357   0.73234045   424551 
 2813000     0.612936   -2.7084587   -2.7084587   -1.9732534  0.040537839   -2.7084587   0.73520529   424551 
 2814000   0.61254092   -2.7069712   -2.7069712   -1.9722398   0.04184417   -2.7069712    0.7347314   424551 
 2815000   0.61151883   -2.7059172   -2.7059172   -1.9724118  0.040122189   -2.7059172   0.73350543   424551 
 2816000   0.61118221   -2.7060121   -2.7060121   -1.9729105  0.045961571   -2.7060121   0.73310165   424551 
 2817000   0.61212237   -2.7063507   -2.7063507   -1.9721213   0.03085578   -2.7063507   0.73422936   424551 
 2818000   0.61064369   -2.7050087   -2.7050087    -1.972553  0.045699168   -2.7050087   0.73245571   424551 
 2819000   0.61087019   -2.7043948   -2.7043948   -1.9716674  0.036032833   -2.7043948   0.73272739   424551 
 2820000   0.61178754   -2.7058672   -2.7058672   -1.9720395  0.043325888   -2.7058672   0.73382774   424551 
 2821000   0.61060897   -2.7050409   -2.7050409   -1.9726268  0.035905833   -2.7050409   0.73241406   424551 
 2822000    0.6108492   -2.7058716   -2.7058716   -1.9731694  0.045792258   -2.7058716   0.73270222   424551 
 2823000   0.61132109   -2.7064166   -2.7064166   -1.9731484  0.047633754   -2.7064166   0.73326824   424551 
 2824000   0.61139166   -2.7057308   -2.7057308   -1.9723779  0.040075679   -2.7057308   0.73335288   424551 
 2825000   0.61148578   -2.7057192   -2.7057192   -1.9722534  0.037032126   -2.7057192   0.73346579   424551 
 2826000   0.61194722    -2.706731    -2.706731   -1.9727117  0.024254721    -2.706731   0.73401926   424551 
 2827000   0.61138953    -2.705557    -2.705557   -1.9722067  0.039200403    -2.705557   0.73335033   424551 
 2828000   0.61251377   -2.7075621   -2.7075621   -1.9728632  0.046452536   -2.7075621   0.73469884   424551 
 2829000   0.61195228    -2.707277    -2.707277   -1.9732517  0.044520376    -2.707277   0.73402534   424551 
 2830000   0.61075067   -2.7057395   -2.7057395   -1.9731555  0.036201883   -2.7057395   0.73258403   424551 
 2831000   0.61249942   -2.7083286   -2.7083286   -1.9736469  0.039824186   -2.7083286   0.73468163   424551 
 2832000   0.61084808    -2.706547    -2.706547   -1.9738461  0.031650038    -2.706547   0.73270087   424551 
 2833000   0.61052519    -2.706784    -2.706784   -1.9744704  0.039623483    -2.706784   0.73231357   424551 
 2834000   0.61159851    -2.707591    -2.707591     -1.97399  0.048760416    -2.707591     0.733601   424551 
 2835000   0.61160835   -2.7083227   -2.7083227   -1.9747099  0.030388521   -2.7083227    0.7336128   424551 
 2836000   0.61276552   -2.7095608   -2.7095608     -1.97456  0.051471565   -2.7095608    0.7350008   424551 
 2837000   0.61248474   -2.7085454   -2.7085454   -1.9738813  0.039447299   -2.7085454   0.73466401   424551 
 2838000   0.61267463   -2.7089028   -2.7089028    -1.974011  0.040985503   -2.7089028   0.73489178   424551 
 2839000   0.61407552   -2.7098476   -2.7098476   -1.9732755  0.041392365   -2.7098476   0.73657213   424551 
 2840000   0.61164288   -2.7070912   -2.7070912    -1.973437  0.045276913   -2.7070912   0.73365421   424551 
 2841000   0.61127353   -2.7064846   -2.7064846   -1.9732734  0.053718272   -2.7064846   0.73321119   424551 
 2842000   0.61257989    -2.709536    -2.709536   -1.9747579  0.037277244    -2.709536   0.73477814   424551 
 2843000   0.61157288   -2.7080891   -2.7080891   -1.9745189  0.050084713   -2.7080891   0.73357026   424551 
 2844000   0.61044456   -2.7065152   -2.7065152   -1.9742983  0.043361666   -2.7065152   0.73221685   424551 
 2845000   0.61208758   -2.7080767   -2.7080767   -1.9738891  0.041278676   -2.7080767   0.73418763   424551 
 2846000   0.61277085   -2.7086167   -2.7086167   -1.9736095  0.041570194   -2.7086167    0.7350072   424551 
 2847000    0.6109645   -2.7068603   -2.7068603   -1.9740198  0.046620379   -2.7068603   0.73284052   424551 
 2848000   0.61137808   -2.7069288   -2.7069288   -1.9735922  0.053957104   -2.7069288   0.73333659   424551 
 2849000   0.61104844   -2.7071842   -2.7071842    -1.974243  0.043730978   -2.7071842    0.7329412   424551 
 2850000   0.61130507    -2.707403    -2.707403    -1.974154  0.041105725    -2.707403   0.73324902   424551 
 2851000   0.60941728   -2.7056121   -2.7056121   -1.9746274  0.049126145   -2.7056121   0.73098465   424551 
 2852000   0.61031778   -2.7061075   -2.7061075   -1.9740427  0.031719043   -2.7061075   0.73206479   424551 
 2853000   0.60957097   -2.7060727   -2.7060727   -1.9749037  0.035145412   -2.7060727   0.73116901   424551 
 2854000   0.61022397   -2.7067479   -2.7067479   -1.9747956  0.036765215   -2.7067479   0.73195226   424551 
 2855000   0.61018496   -2.7067134   -2.7067134   -1.9748079  0.032795049   -2.7067134   0.73190548   424551 
 2856000   0.60944436   -2.7062633   -2.7062633   -1.9752462  0.037075039   -2.7062633   0.73101713   424551 
 2857000   0.60973197   -2.7063289   -2.7063289   -1.9749667  0.043210057   -2.7063289   0.73136212   424551 
 2858000   0.61112788   -2.7072561   -2.7072561   -1.9742197  0.040573554   -2.7072561   0.73303648   424551 
 2859000   0.61084172   -2.7074043   -2.7074043   -1.9747111  0.034371105   -2.7074043   0.73269325   424551 
 2860000   0.61076774   -2.7074908   -2.7074908   -1.9748863   0.04424394   -2.7074908    0.7326045   424551 
 2861000   0.61143297    -2.708874    -2.708874   -1.9754715  0.033050285    -2.708874   0.73340244   424551 
 2862000   0.61159377   -2.7092821   -2.7092821   -1.9756868  0.030492328   -2.7092821   0.73359532   424551 
 2863000    0.6109189   -2.7087045   -2.7087045   -1.9759187  0.035111469   -2.7087045   0.73278582   424551 
 2864000   0.61179083   -2.7096877   -2.7096877    -1.975856  0.045001675   -2.7096877   0.73383168   424551 
 2865000   0.61161968   -2.7090746   -2.7090746   -1.9754482  0.037684715   -2.7090746   0.73362639   424551 
 2866000   0.61176143   -2.7095503   -2.7095503   -1.9757538  0.038273285   -2.7095503   0.73379642   424551 
 2867000   0.61183765   -2.7092747   -2.7092747   -1.9753868  0.050185111   -2.7092747   0.73388784   424551 
 2868000   0.61114866   -2.7091862   -2.7091862   -1.9761247  0.054062214   -2.7091862   0.73306141   424551 
 2869000   0.61133261   -2.7086571   -2.7086571    -1.975375  0.041127178   -2.7086571   0.73328205   424551 
 2870000   0.61135066   -2.7089923   -2.7089923   -1.9756886  0.032094839   -2.7089923   0.73330371   424551 
 2871000   0.61221319   -2.7095423   -2.7095423    -1.975204  0.043065187   -2.7095423   0.73433829   424551 
 2872000   0.61168144   -2.7087272   -2.7087272   -1.9750267    0.0364094   -2.7087272   0.73370047   424551 
 2873000   0.61099268   -2.7088482   -2.7088482   -1.9759739  0.035306852   -2.7088482   0.73287432   424551 
 2874000   0.61145664   -2.7095388   -2.7095388    -1.976108  0.036676264   -2.7095388   0.73343083   424551 
 2875000   0.61119237   -2.7085519   -2.7085519    -1.975438  0.035387882   -2.7085519   0.73311384   424551 
 2876000   0.61203725   -2.7092767   -2.7092767   -1.9751495  0.039014603   -2.7092767   0.73412726   424551 
 2877000   0.61180009   -2.7095685   -2.7095685   -1.9757257  0.029478855   -2.7095685   0.73384279   424551 
 2878000   0.61129001   -2.7095756   -2.7095756   -1.9763447  0.040476781   -2.7095756   0.73323096   424551 
 2879000   0.61145946   -2.7101919   -2.7101919   -1.9767577  0.033551609   -2.7101919   0.73343421   424551 
 2880000    0.6113975   -2.7097001   -2.7097001   -1.9763402  0.037898645   -2.7097001   0.73335989   424551 
 2881000   0.61137312   -2.7097039   -2.7097039   -1.9763732  0.036984959   -2.7097039   0.73333064   424551 
 2882000    0.6122091   -2.7102174   -2.7102174   -1.9758841  0.048553091   -2.7102174   0.73433339   424551 
 2883000   0.61251442   -2.7107434   -2.7107434   -1.9760438   0.03233503   -2.7107434   0.73469962   424551 
 2884000   0.61077238   -2.7080907   -2.7080907   -1.9754806  0.040456741   -2.7080907   0.73261006   424551 
 2885000   0.61103625   -2.7091764   -2.7091764   -1.9762498  0.043010962   -2.7091764   0.73292658   424551 
 2886000   0.61061201    -2.708694    -2.708694   -1.9762763  0.055309452    -2.708694    0.7324177   424551 
 2887000   0.61189697   -2.7093909   -2.7093909   -1.9754319  0.036807792   -2.7093909   0.73395899   424551 
 2888000   0.61158177   -2.7085609   -2.7085609     -1.97498  0.036188452   -2.7085609   0.73358092   424551 
 2889000   0.61180209   -2.7087901   -2.7087901   -1.9749449  0.039851724   -2.7087901   0.73384519   424551 
 2890000    0.6116082   -2.7088701   -2.7088701   -1.9752575  0.034466143   -2.7088701   0.73361262   424551 
 2891000    0.6110788    -2.708492    -2.708492   -1.9755144  0.045339653    -2.708492   0.73297762   424551 
 2892000   0.61046875   -2.7080769   -2.7080769   -1.9758311  0.039262812   -2.7080769   0.73224587   424551 
 2893000   0.61052857   -2.7079553   -2.7079553   -1.9756377  0.049817857   -2.7079553   0.73231762   424551 
 2894000   0.61044996   -2.7077544   -2.7077544   -1.9755311  0.037881997   -2.7077544   0.73222333   424551 
 2895000   0.61095874   -2.7086456   -2.7086456    -1.975812  0.033660264   -2.7086456    0.7328336   424551 
 2896000   0.60906654   -2.7073346   -2.7073346   -1.9767707  0.050529321   -2.7073346   0.73056395   424551 
 2897000   0.61024354   -2.7085592   -2.7085592   -1.9765834  0.037817667   -2.7085592   0.73197574   424551 
 2898000   0.60987345   -2.7084202   -2.7084202   -1.9768884  0.042284677   -2.7084202   0.73153182   424551 
 2899000   0.61091403   -2.7092685   -2.7092685   -1.9764885   0.03891233   -2.7092685   0.73277998   424551 
 2900000   0.61178831   -2.7099037   -2.7099037    -1.976075   0.04425774   -2.7099037   0.73382866   424551 
 2901000   0.61124871   -2.7095982   -2.7095982   -1.9764168  0.038038438   -2.7095982   0.73318142   424551 
 2902000   0.61100059   -2.7100029   -2.7100029   -1.9771191  0.039393831   -2.7100029    0.7328838   424551 
 2903000   0.61029821   -2.7097764   -2.7097764   -1.9777351  0.039660433   -2.7097764   0.73204131   424551 
 2904000   0.60990277    -2.708503    -2.708503   -1.9769361  0.042107301    -2.708503   0.73156699   424551 
 2905000   0.61034041   -2.7090303   -2.7090303   -1.9769383  0.037721459   -2.7090303   0.73209192   424551 
 2906000   0.61074629   -2.7102544   -2.7102544   -1.9776756  0.039192746   -2.7102544   0.73257878   424551 
 2907000   0.61011059   -2.7099206   -2.7099206   -1.9781044  0.044088316   -2.7099206   0.73181626   424551 
 2908000   0.61053004   -2.7107145   -2.7107145   -1.9783952  0.041891666   -2.7107145   0.73231938   424551 
 2909000   0.60998327   -2.7102593   -2.7102593   -1.9785958  0.033075067   -2.7102593   0.73166354   424551 
 2910000   0.61124526   -2.7120942   -2.7120942   -1.9789169  0.024728864   -2.7120942   0.73317728   424551 
 2911000   0.61051913   -2.7118536   -2.7118536   -1.9795473  0.044494298   -2.7118536    0.7323063   424551 
 2912000     0.610494   -2.7119002   -2.7119002    -1.979624  0.046543884   -2.7119002   0.73227615   424551 
 2913000   0.61126992   -2.7119051   -2.7119051   -1.9786982   0.04098631   -2.7119051   0.73320686   424551 
 2914000   0.61114393   -2.7115289   -2.7115289   -1.9784732  0.036978427   -2.7115289   0.73305574   424551 
 2915000   0.61115392   -2.7119389   -2.7119389   -1.9788712  0.043743949   -2.7119389   0.73306772   424551 
 2916000   0.61183283   -2.7121317   -2.7121317   -1.9782497  0.045263418   -2.7121317   0.73388205   424551 
 2917000   0.61161164   -2.7129796   -2.7129796   -1.9793629   0.04253376   -2.7129796   0.73361675   424551 
 2918000   0.61192604   -2.7126353   -2.7126353   -1.9786414  0.049866497   -2.7126353   0.73399386   424551 
 2919000   0.61156815   -2.7126213   -2.7126213   -1.9790567  0.040198832   -2.7126213   0.73356459   424551 
 2920000   0.61189778   -2.7125581   -2.7125581   -1.9785981  0.044284819   -2.7125581   0.73395997   424551 
 2921000   0.61192817   -2.7120439   -2.7120439   -1.9780475  0.040557379   -2.7120439   0.73399642   424551 
 2922000   0.61071968   -2.7109632   -2.7109632   -1.9784163  0.040327768   -2.7109632   0.73254686   424551 
 2923000   0.60978579   -2.7098623   -2.7098623   -1.9784357  0.038534948   -2.7098623   0.73142667   424551 
 2924000   0.61131783   -2.7125267   -2.7125267   -1.9792624  0.042001979   -2.7125267   0.73326433   424551 
 2925000   0.61008038   -2.7105761   -2.7105761    -1.978796  0.040998013   -2.7105761   0.73178003   424551 
 2926000   0.61029995   -2.7098606   -2.7098606   -1.9778172   0.04120786   -2.7098606    0.7320434   424551 
 2927000   0.61103495   -2.7104374   -2.7104374   -1.9775124  0.044548365   -2.7104374   0.73292502   424551 
 2928000   0.60931705   -2.7081558   -2.7081558   -1.9772914  0.047542471   -2.7081558   0.73086442   424551 
 2929000   0.61026308   -2.7088203   -2.7088203   -1.9768211  0.039107864   -2.7088203   0.73199917   424551 
 2930000    0.6107697   -2.7084958   -2.7084958    -1.975889   0.03624462   -2.7084958   0.73260686   424551 
 2931000   0.60967709   -2.7078924   -2.7078924   -1.9765962  0.046221539   -2.7078924   0.73129629   424551 
 2932000    0.6088916   -2.7070748   -2.7070748   -1.9767207  0.024956486   -2.7070748   0.73035411   424551 
 2933000   0.60917913   -2.7066363   -2.7066363   -1.9759373  0.037327809   -2.7066363     0.730699   424551 
 2934000   0.60892074   -2.7070131   -2.7070131   -1.9766241  0.047353204   -2.7070131   0.73038907   424551 
 2935000   0.61153663   -2.7100031   -2.7100031   -1.9764764  0.046469923   -2.7100031   0.73352678   424551 
 2936000   0.61032844   -2.7094221   -2.7094221   -1.9773446  0.044231866   -2.7094221   0.73207757   424551 
 2937000   0.61009569   -2.7091676   -2.7091676   -1.9773693  0.037476024   -2.7091676   0.73179839   424551 
 2938000   0.61002457    -2.708745    -2.708745   -1.9770319  0.031189641    -2.708745   0.73171308   424551 
 2939000   0.61083752   -2.7096979   -2.7096979   -1.9770097  0.038875063   -2.7096979   0.73268821   424551 
 2940000   0.61070225   -2.7094784   -2.7094784   -1.9769524  0.039777704   -2.7094784   0.73252595   424551 
 2941000    0.6104616   -2.7096656   -2.7096656   -1.9774283  0.044097594   -2.7096656   0.73223729   424551 
 2942000   0.61049547   -2.7095178   -2.7095178   -1.9772399  0.033224319   -2.7095178   0.73227792   424551 
 2943000   0.61016352   -2.7097088   -2.7097088    -1.977829  0.036373947   -2.7097088   0.73187975   424551 
 2944000   0.61095186   -2.7110066   -2.7110066   -1.9781813  0.036421604   -2.7110066   0.73282535   424551 
 2945000   0.61089363   -2.7104322   -2.7104322   -1.9776766  0.041499737   -2.7104322   0.73275551   424551 
 2946000   0.61119255   -2.7108736   -2.7108736   -1.9777596  0.047278455   -2.7108736   0.73311406   424551 
 2947000   0.61069865   -2.7104025   -2.7104025   -1.9778808  0.045057725   -2.7104025   0.73252163   424551 
 2948000   0.61034974   -2.7107729   -2.7107729   -1.9786698  0.044769652   -2.7107729   0.73210312   424551 
 2949000   0.61162547    -2.711859    -2.711859   -1.9782257  0.035752339    -2.711859   0.73363334   424551 
 2950000   0.61167487   -2.7124086   -2.7124086    -1.978716  0.049349828   -2.7124086   0.73369259   424551 
 2951000   0.61131399   -2.7120711   -2.7120711   -1.9788114  0.053397978   -2.7120711   0.73325972   424551 
 2952000   0.61063526   -2.7111884   -2.7111884   -1.9787428  0.046881777   -2.7111884   0.73244559   424551 
 2953000   0.61007142   -2.7107962   -2.7107962   -1.9790269  0.037686976   -2.7107962   0.73176928   424551 
 2954000     0.610435   -2.7114454   -2.7114454     -1.97924  0.041257857   -2.7114454   0.73220539   424551 
 2955000   0.61117692   -2.7126884   -2.7126884   -1.9795931  0.034642131   -2.7126884   0.73309531   424551 
 2956000   0.61242807   -2.7135459   -2.7135459   -1.9789499  0.043029845   -2.7135459   0.73459604   424551 
 2957000   0.61093046   -2.7126429   -2.7126429   -1.9798432  0.037886129   -2.7126429   0.73279968   424551 
 2958000   0.61057543   -2.7123937   -2.7123937   -1.9800199  0.043799795   -2.7123937   0.73237383   424551 
 2959000     0.611427   -2.7128778   -2.7128778   -1.9794826  0.053665455   -2.7128778   0.73339528   424551 
 2960000    0.6114507    -2.713317    -2.713317   -1.9798933  0.032476112    -2.713317   0.73342371   424551 
 2961000    0.6107762   -2.7120044   -2.7120044   -1.9793898  0.043934866   -2.7120044   0.73261465   424551 
 2962000   0.61110307   -2.7128377   -2.7128377    -1.979831  0.049281343   -2.7128377   0.73300673   424551 
 2963000   0.61069207   -2.7121238   -2.7121238   -1.9796101   0.06014174   -2.7121238   0.73251374   424551 
 2964000   0.61103401   -2.7124509   -2.7124509    -1.979527  0.039633814   -2.7124509   0.73292389   424551 
 2965000   0.60952651   -2.7109622   -2.7109622   -1.9798465  0.036530123   -2.7109622   0.73111567   424551 
 2966000    0.6090095   -2.7113397   -2.7113397   -1.9808442  0.042296502   -2.7113397   0.73049553   424551 
 2967000   0.61020035   -2.7123435   -2.7123435   -1.9804196  0.042784897   -2.7123435   0.73192393   424551 
 2968000   0.60889652    -2.710833    -2.710833    -1.980473  0.030726737    -2.710833   0.73036001   424551 
 2969000   0.61094469   -2.7119113   -2.7119113   -1.9790946  0.026788308   -2.7119113   0.73281676   424551 
 2970000   0.61089529   -2.7123819   -2.7123819   -1.9796244  0.039179667   -2.7123819   0.73275749   424551 
 2971000   0.61006411   -2.7104186   -2.7104186   -1.9786581  0.036893441   -2.7104186   0.73176051   424551 
 2972000   0.61075924   -2.7110798   -2.7110798   -1.9784855  0.043362325   -2.7110798   0.73259431   424551 
 2973000   0.61043301   -2.7116145   -2.7116145   -1.9794115  0.029920465   -2.7116145     0.732203   424551 
 2974000   0.61132654   -2.7124624   -2.7124624   -1.9791877  0.035031541   -2.7124624   0.73327477   424551 
 2975000   0.61098789   -2.7125716   -2.7125716    -1.979703  0.043900144   -2.7125716   0.73286857   424551 
 2976000    0.6102477   -2.7108215   -2.7108215   -1.9788408  0.047716597   -2.7108215   0.73198072   424551 
 2977000   0.61073786   -2.7121485   -2.7121485   -1.9795799  0.044614832   -2.7121485   0.73256867   424551 
 2978000   0.61122592   -2.7126473   -2.7126473   -1.9794933  0.030108954   -2.7126473   0.73315408   424551 
 2979000   0.61205722     -2.71356     -2.71356   -1.9794088  0.037226586     -2.71356   0.73415121   424551 
 2980000   0.61025347   -2.7129165   -2.7129165   -1.9809288  0.031654611   -2.7129165   0.73198765   424551 
 2981000   0.61003478    -2.713027    -2.713027   -1.9813017   0.03709528    -2.713027   0.73172533   424551 
 2982000    0.6119316   -2.7141813   -2.7141813   -1.9801808  0.038412067   -2.7141813   0.73400054   424551 
 2983000   0.61164666   -2.7142442   -2.7142442   -1.9805854  0.046487055   -2.7142442   0.73365875   424551 
 2984000   0.61145042   -2.7146661   -2.7146661   -1.9812427  0.035939069   -2.7146661   0.73342336   424551 
 2985000    0.6119896    -2.714371    -2.714371   -1.9803009  0.036737392    -2.714371    0.7340701   424551 
 2986000   0.61123453   -2.7141493   -2.7141493   -1.9809849  0.039864204   -2.7141493   0.73316441   424551 
 2987000   0.61132688   -2.7144307   -2.7144307   -1.9811555  0.033734578   -2.7144307   0.73327518   424551 
 2988000   0.61002344   -2.7128226   -2.7128226   -1.9811108  0.040586881   -2.7128226   0.73171173   424551 
 2989000   0.61090188   -2.7136736   -2.7136736   -1.9809082  0.047621914   -2.7136736    0.7327654   424551 
 2990000   0.61030744   -2.7126468   -2.7126468   -1.9805945  0.052992596   -2.7126468   0.73205238   424551 
 2991000   0.61042458   -2.7128133   -2.7128133   -1.9806205  0.044854955   -2.7128133   0.73219288   424551 
 2992000    0.6100534   -2.7129022   -2.7129022   -1.9811546  0.043549159   -2.7129022   0.73174766   424551 
 2993000   0.61171394    -2.714319    -2.714319   -1.9805796  0.033461304    -2.714319   0.73373945   424551 
 2994000   0.61007293   -2.7126483   -2.7126483   -1.9808772  0.034424919   -2.7126483   0.73177109   424551 
 2995000   0.60998962   -2.7125363   -2.7125363   -1.9808651  0.041433077   -2.7125363   0.73167116   424551 
 2996000   0.61048272   -2.7137246   -2.7137246   -1.9814619  0.041524184   -2.7137246   0.73226263   424551 
 2997000    0.6104894   -2.7131424   -2.7131424   -1.9808718  0.030109414   -2.7131424   0.73227064   424551 
 2998000   0.60986958    -2.712528    -2.712528   -1.9810008  0.034902829    -2.712528   0.73152717   424551 
 2999000   0.61010831   -2.7121852   -2.7121852   -1.9803717  0.038309181   -2.7121852   0.73181353   424551 
 3000000    0.6112191   -2.7131851   -2.7131851   -1.9800392  0.032951858   -2.7131851    0.7331459   424551 
 3001000   0.61268725   -2.7145689   -2.7145689    -1.979662  0.040390769   -2.7145689   0.73490692   424551 
 3002000   0.61192537   -2.7139359   -2.7139359   -1.9799429  0.048126238   -2.7139359   0.73399306   424551 
 3003000   0.61130082   -2.7137373   -2.7137373   -1.9804934  0.042919645   -2.7137373   0.73324392   424551 
 3004000   0.61067186   -2.7134273   -2.7134273   -1.9809378  0.043187574   -2.7134273    0.7324895   424551 
 3005000   0.61007111   -2.7137507   -2.7137507   -1.9819818   0.04524157   -2.7137507    0.7317689   424551 
 3006000   0.61060941   -2.7145395   -2.7145395   -1.9821249  0.027937088   -2.7145395   0.73241459   424551 
 3007000   0.60914052   -2.7139744   -2.7139744   -1.9833217  0.042407955   -2.7139744   0.73065269   424551 
 3008000   0.61016092   -2.7148569   -2.7148569   -1.9829802  0.041387192   -2.7148569   0.73187664   424551 
 3009000   0.60980934   -2.7150593   -2.7150593   -1.9836044  0.041136043   -2.7150593   0.73145492   424551 
 3010000   0.61002945   -2.7148518   -2.7148518   -1.9831328  0.041824461   -2.7148518   0.73171894   424551 
 3011000   0.61004492   -2.7156587   -2.7156587   -1.9839212  0.036356771   -2.7156587    0.7317375   424551 
 3012000   0.61080158    -2.715855    -2.715855     -1.98321  0.044686354    -2.715855   0.73264509   424551 
 3013000   0.61100823   -2.7157447   -2.7157447   -1.9828517  0.029980805   -2.7157447   0.73289297   424551 
 3014000   0.61038736   -2.7144144   -2.7144144   -1.9822662  0.041523065   -2.7144144   0.73214824   424551 
 3015000   0.61098966   -2.7156948   -2.7156948   -1.9828241  0.047450042   -2.7156948   0.73287069   424551 
 3016000   0.61176206   -2.7164923   -2.7164923   -1.9826952  0.042366511   -2.7164923   0.73379717   424551 
 3017000   0.61124323   -2.7156747   -2.7156747   -1.9824999  0.032951032   -2.7156747   0.73317484   424551 
 3018000   0.61198045   -2.7167939   -2.7167939   -1.9827347  0.037207199   -2.7167939   0.73405913   424551 
 3019000   0.60965722   -2.7141932   -2.7141932   -1.9829208  0.035148619   -2.7141932   0.73127246   424551 
 3020000    0.6095635    -2.714633    -2.714633   -1.9834729  0.049314645    -2.714633   0.73116004   424551 
 3021000   0.61035028   -2.7154647   -2.7154647   -1.9833609  0.034498427   -2.7154647   0.73210377   424551 
 3022000   0.61058777   -2.7160117   -2.7160117   -1.9836231   0.03235206   -2.7160117   0.73238863   424551 
 3023000   0.60930037   -2.7147292   -2.7147292   -1.9838848  0.039388765   -2.7147292   0.73084442   424551 
 3024000   0.60888936    -2.714553    -2.714553   -1.9842016  0.033636747    -2.714553   0.73035142   424551 
 3025000   0.60944507   -2.7151583   -2.7151583   -1.9841403  0.042776971   -2.7151583   0.73101798   424551 
 3026000   0.61085836   -2.7162239   -2.7162239   -1.9835107  0.033791183   -2.7162239    0.7327132   424551 
 3027000   0.60953898   -2.7149524   -2.7149524   -1.9838217   0.04165022   -2.7149524   0.73113063   424551 
 3028000   0.61085641   -2.7165447   -2.7165447   -1.9838339  0.039994538   -2.7165447   0.73271086   424551 
 3029000    0.6093835   -2.7144694   -2.7144694   -1.9835253   0.04880515   -2.7144694   0.73094413   424551 
 3030000   0.60955058   -2.7142806   -2.7142806   -1.9831361  0.036575142   -2.7142806   0.73114454   424551 
 3031000   0.61102219   -2.7162473   -2.7162473   -1.9833375     0.044648   -2.7162473   0.73290971   424551 
 3032000   0.61075028   -2.7164237   -2.7164237   -1.9838402  0.036649382   -2.7164237   0.73258356   424551 
 3033000   0.61085979   -2.7159928   -2.7159928   -1.9832779  0.049341911   -2.7159928   0.73271491   424551 
 3034000   0.61112284   -2.7165774   -2.7165774    -1.983547  0.040983852   -2.7165774   0.73303044   424551 
 3035000   0.61046626   -2.7153429   -2.7153429      -1.9831  0.045131297   -2.7153429   0.73224289   424551 
 3036000   0.61076088   -2.7163733   -2.7163733    -1.983777  0.031430817   -2.7163733   0.73259627   424551 
 3037000   0.60924798   -2.7150975   -2.7150975    -1.984316  0.038282854   -2.7150975   0.73078158   424551 
 3038000   0.60933863   -2.7150015   -2.7150015   -1.9841112  0.043355253   -2.7150015   0.73089031   424551 
 3039000   0.60865845   -2.7150969   -2.7150969   -1.9850224  0.030799628   -2.7150969   0.73007445   424551 
 3040000   0.60837857   -2.7146521   -2.7146521   -1.9849133  0.042415858   -2.7146521   0.72973874   424551 
 3041000   0.60987951   -2.7161731   -2.7161731    -1.984634  0.032554291   -2.7161731   0.73153909   424551 
 3042000   0.61035622   -2.7165943   -2.7165943   -1.9844835  0.036074917   -2.7165943   0.73211089   424551 
 3043000   0.61020203   -2.7159949   -2.7159949    -1.984069   0.03427259   -2.7159949   0.73192594   424551 
 3044000   0.61020587   -2.7165701   -2.7165701   -1.9846396  0.044089501   -2.7165701   0.73193055   424551 
 3045000   0.60968579   -2.7154386   -2.7154386   -1.9841319  0.040789419   -2.7154386   0.73130672   424551 
 3046000    0.6108375    -2.717323    -2.717323   -1.9846349  0.041532231    -2.717323   0.73268818   424551 
 3047000   0.61143671   -2.7172294   -2.7172294   -1.9838225  0.034057425   -2.7172294   0.73340693   424551 
 3048000   0.61068118   -2.7170371   -2.7170371   -1.9845364  0.037475015   -2.7170371   0.73250068   424551 
 3049000   0.61092449   -2.7170284   -2.7170284   -1.9842359  0.043404445   -2.7170284   0.73279252   424551 
 3050000   0.61180707   -2.7170714   -2.7170714   -1.9832202  0.035194231   -2.7170714   0.73385116   424551 
 3051000    0.6105895   -2.7165834   -2.7165834   -1.9841927  0.036966027   -2.7165834   0.73239071   424551 
 3052000   0.61168808   -2.7172075   -2.7172075   -1.9834991  0.039153795   -2.7172075   0.73370843   424551 
 3053000   0.61105349    -2.716757    -2.716757   -1.9838098  0.044497421    -2.716757   0.73294725   424551 
 3054000   0.61062339   -2.7164739   -2.7164739   -1.9840425  0.019007864   -2.7164739   0.73243136   424551 
 3055000   0.60940583   -2.7153415   -2.7153415   -1.9843705  0.040082259   -2.7153415   0.73097092   424551 
 3056000   0.61003263   -2.7163248   -2.7163248    -1.984602  0.042849541   -2.7163248   0.73172275   424551 
 3057000   0.61041461   -2.7168358   -2.7168358   -1.9846548  0.045313263   -2.7168358   0.73218094   424551 
 3058000   0.61121718   -2.7175691   -2.7175691   -1.9844255  0.040336502   -2.7175691    0.7331436   424551 
 3059000     0.611432   -2.7179039   -2.7179039   -1.9845026  0.034751826   -2.7179039   0.73340127   424551 
 3060000   0.60963226   -2.7170264   -2.7170264   -1.9857839   0.03173524   -2.7170264   0.73124252   424551 
 3061000   0.60980806   -2.7168551   -2.7168551   -1.9854017  0.031542999   -2.7168551   0.73145338   424551 
 3062000   0.60994556   -2.7174282   -2.7174282   -1.9858098  0.047145204   -2.7174282   0.73161831   424551 
 3063000   0.60887391   -2.7164027   -2.7164027   -1.9860698  0.033683249   -2.7164027   0.73033289   424551 
 3064000    0.6083498   -2.7159194   -2.7159194   -1.9862151  0.044069004   -2.7159194   0.72970423   424551 
 3065000   0.60831963   -2.7162316   -2.7162316   -1.9865636  0.041543543   -2.7162316   0.72966804   424551 
 3066000   0.60934679   -2.7169962   -2.7169962   -1.9860961  0.040672846   -2.7169962    0.7309001   424551 
 3067000   0.60853853   -2.7161189   -2.7161189   -1.9861883  0.040583624   -2.7161189   0.72993061   424551 
 3068000   0.61021483   -2.7179174   -2.7179174   -1.9859761  0.042824831   -2.7179174    0.7319413   424551 
 3069000   0.60975602   -2.7168738   -2.7168738   -1.9854828  0.041292397   -2.7168738   0.73139097   424551 
 3070000   0.60958236   -2.7168889   -2.7168889   -1.9857062  0.044213189   -2.7168889   0.73118266   424551 
 3071000    0.6100189   -2.7175126   -2.7175126   -1.9858063   0.03239249   -2.7175126   0.73170629   424551 
 3072000   0.61045145   -2.7185959   -2.7185959   -1.9863708  0.044982462   -2.7185959   0.73222511   424551 
 3073000   0.61007216   -2.7178879   -2.7178879   -1.9861178  0.033286437   -2.7178879   0.73177017   424551 
 3074000   0.61033219   -2.7182023   -2.7182023   -1.9861203  0.030085696   -2.7182023   0.73208207   424551 
 3075000     0.611198   -2.7195561   -2.7195561   -1.9864355  0.043186252   -2.7195561   0.73312059   424551 
 3076000   0.60988748   -2.7175985   -2.7175985   -1.9860499  0.035674406   -2.7175985   0.73154865   424551 
 3077000   0.61033014   -2.7184868   -2.7184868   -1.9864072  0.034689759   -2.7184868   0.73207961   424551 
 3078000   0.61003254   -2.7188375   -2.7188375   -1.9871148  0.040413805   -2.7188375   0.73172264   424551 
 3079000   0.61061839   -2.7197718   -2.7197718   -1.9873464  0.030550723   -2.7197718   0.73242537   424551 
 3080000   0.61082201   -2.7201924   -2.7201924   -1.9875228  0.035440064   -2.7201924   0.73266959   424551 
 3081000   0.61086422   -2.7197041   -2.7197041   -1.9869839  0.023718192   -2.7197041   0.73272023   424551 
 3082000   0.60991292   -2.7185259   -2.7185259   -1.9869468  0.040155335   -2.7185259   0.73157916   424551 
 3083000   0.61098067   -2.7193208   -2.7193208   -1.9864609  0.034922824   -2.7193208   0.73285991   424551 
 3084000    0.6109365   -2.7195592   -2.7195592   -1.9867523  0.042541853   -2.7195592   0.73280693   424551 
 3085000   0.61058971    -2.719462    -2.719462    -1.987071   0.03551854    -2.719462   0.73239096   424551 
 3086000   0.61007185   -2.7191269   -2.7191269   -1.9873571  0.032999019   -2.7191269    0.7317698   424551 
 3087000    0.6104261   -2.7195882   -2.7195882   -1.9873935  0.031563347   -2.7195882   0.73219472   424551 
 3088000   0.60948613   -2.7187555   -2.7187555   -1.9876883  0.037093573   -2.7187555   0.73106724   424551 
 3089000   0.60874376   -2.7185829   -2.7185829   -1.9884061  0.042579106   -2.7185829   0.73017678   424551 
 3090000   0.61037791   -2.7198811   -2.7198811   -1.9877441  0.044410101   -2.7198811   0.73213692   424551 
 3091000   0.60935121   -2.7192309   -2.7192309   -1.9883255  0.048891217   -2.7192309    0.7309054   424551 
 3092000   0.61093028   -2.7207756   -2.7207756   -1.9879761   0.03884713   -2.7207756   0.73279947   424551 
 3093000   0.61061714   -2.7196195   -2.7196195   -1.9871956  0.035016738   -2.7196195   0.73242387   424551 
 3094000   0.61088535    -2.719432    -2.719432   -1.9866865  0.036872275    -2.719432   0.73274557   424551 
 3095000   0.61153024   -2.7211673   -2.7211673   -1.9876482  0.034822556   -2.7211673   0.73351911   424551 
 3096000   0.61169823   -2.7203983   -2.7203983   -1.9866777  0.025597922   -2.7203983   0.73372061   424551 
 3097000   0.61005573   -2.7186656   -2.7186656   -1.9869151   0.04224024   -2.7186656   0.73175046   424551 
 3098000   0.61059433   -2.7183288   -2.7183288   -1.9859323  0.040221732   -2.7183288   0.73239651   424551 
 3099000    0.6115426   -2.7199352   -2.7199352   -1.9864013  0.048498034   -2.7199352   0.73353393   424551 
 3100000   0.60994665   -2.7190659   -2.7190659   -1.9874462  0.042434044   -2.7190659   0.73161962   424551 
 3101000   0.60997203   -2.7186878   -2.7186878   -1.9870377  0.029580573   -2.7186878   0.73165007   424551 
 3102000   0.60992862   -2.7177752   -2.7177752   -1.9861772  0.031852897   -2.7177752     0.731598   424551 
 3103000   0.61007168   -2.7185895   -2.7185895   -1.9868199  0.042822753   -2.7185895   0.73176959   424551 
 3104000    0.6094686   -2.7175573   -2.7175573   -1.9865111  0.041423197   -2.7175573   0.73104621   424551 
 3105000    0.6091255   -2.7169486   -2.7169486   -1.9863139  0.046775264   -2.7169486   0.73063467   424551 
 3106000   0.61104889   -2.7183355   -2.7183355   -1.9853937  0.038597875   -2.7183355   0.73294174   424551 
 3107000    0.6107411   -2.7188679   -2.7188679   -1.9862954  0.046863894   -2.7188679   0.73257254   424551 
 3108000   0.60996561   -2.7183515   -2.7183515   -1.9867091  0.042615314   -2.7183515   0.73164236   424551 
 3109000   0.61015793   -2.7179025   -2.7179025   -1.9860294  0.038934101   -2.7179025   0.73187304   424551 
 3110000   0.60944082   -2.7173955   -2.7173955   -1.9863826  0.042177146   -2.7173955   0.73101289   424551 
 3111000   0.61051516   -2.7182385   -2.7182385   -1.9859369  0.032991217   -2.7182385   0.73230153   424551 
 3112000    0.6088178   -2.7162617   -2.7162617   -1.9859961  0.039859633   -2.7162617   0.73026559   424551 
 3113000   0.61005819   -2.7178287   -2.7178287   -1.9860753   0.04533574   -2.7178287   0.73175342   424551 
 3114000   0.61079994   -2.7182312   -2.7182312   -1.9855881  0.030493066   -2.7182312   0.73264312   424551 
 3115000   0.61126682    -2.718788    -2.718788   -1.9855848  0.033232977    -2.718788   0.73320314   424551 
 3116000   0.61045407   -2.7173215   -2.7173215   -1.9850932  0.037661743   -2.7173215   0.73222826   424551 
 3117000    0.6107386   -2.7182007   -2.7182007   -1.9856311  0.040311642   -2.7182007   0.73256955   424551 
 3118000   0.61098446   -2.7186379   -2.7186379   -1.9857735  0.037170322   -2.7186379   0.73286445   424551 
 3119000   0.61043737   -2.7181536   -2.7181536   -1.9859453  0.034521447   -2.7181536   0.73220823   424551 
 3120000   0.60914345   -2.7173906   -2.7173906   -1.9867344    0.0333061   -2.7173906    0.7306562   424551 
 3121000   0.60956338   -2.7186767   -2.7186767   -1.9875168  0.033616744   -2.7186767    0.7311599   424551 
 3122000   0.60972104   -2.7188033   -2.7188033   -1.9874543   0.03930593   -2.7188033     0.731349   424551 
 3123000   0.60942281   -2.7188428   -2.7188428   -1.9878515  0.029963358   -2.7188428   0.73099128   424551 
 3124000   0.60912153   -2.7186686   -2.7186686   -1.9880387  0.035007277   -2.7186686   0.73062991   424551 
 3125000   0.60933987   -2.7189742   -2.7189742   -1.9880824  0.036279027   -2.7189742    0.7308918   424551 
 3126000   0.60996339   -2.7199434   -2.7199434   -1.9883037  0.040358062   -2.7199434    0.7316397   424551 
 3127000    0.6103251   -2.7202305   -2.7202305   -1.9881569  0.040918191   -2.7202305   0.73207356   424551 
 3128000   0.61148463   -2.7213096   -2.7213096   -1.9878452  0.030359112   -2.7213096   0.73346439   424551 
 3129000   0.61179692   -2.7215518   -2.7215518   -1.9877128  0.042322185   -2.7215518   0.73383899   424551 
 3130000   0.61105714   -2.7202954   -2.7202954   -1.9873438  0.034577765   -2.7202954   0.73295163   424551 
 3131000    0.6102272   -2.7194895   -2.7194895   -1.9875334  0.047742625   -2.7194895   0.73195614   424551 
 3132000   0.61037757   -2.7196309   -2.7196309   -1.9874943   0.04617547   -2.7196309   0.73213651   424551 
 3133000   0.61084912   -2.7215643   -2.7215643   -1.9888622   0.04158514   -2.7215643   0.73270211   424551 
 3134000   0.61118186     -2.72162     -2.72162   -1.9885187   0.04202379     -2.72162   0.73310124   424551 
 3135000    0.6101244   -2.7211197   -2.7211197   -1.9892869  0.045315281   -2.7211197   0.73183283   424551 
 3136000    0.6102524   -2.7211708   -2.7211708   -1.9891844  0.041792603   -2.7211708   0.73198636   424551 
 3137000   0.61101092   -2.7222502   -2.7222502    -1.989354   0.03200984   -2.7222502    0.7328962   424551 
 3138000   0.60938042   -2.7199691   -2.7199691   -1.9890287  0.058831765   -2.7199691   0.73094044   424551 
 3139000   0.60925199   -2.7198554   -2.7198554    -1.989069  0.050563252   -2.7198554   0.73078639   424551 
 3140000   0.61034046   -2.7205469   -2.7205469   -1.9884549  0.033105405   -2.7205469   0.73209198   424551 
 3141000   0.60992954   -2.7205287   -2.7205287   -1.9889296  0.029292697   -2.7205287    0.7315991   424551 
 3142000   0.60884175   -2.7197867   -2.7197867   -1.9894924   0.03868154   -2.7197867   0.73029431   424551 
 3143000   0.60977238   -2.7204833   -2.7204833   -1.9890727   0.03719563   -2.7204833   0.73141058   424551 
 3144000   0.60978825   -2.7208153   -2.7208153   -1.9893857  0.045820139   -2.7208153   0.73142962   424551 
 3145000   0.60892252   -2.7199407   -2.7199407   -1.9895495  0.043421779   -2.7199407    0.7303912   424551 
 3146000   0.61038525   -2.7205829   -2.7205829   -1.9884371  0.046639608   -2.7205829   0.73214571   424551 
 3147000   0.61021157   -2.7208229   -2.7208229   -1.9888855  0.040157817   -2.7208229   0.73193739   424551 
 3148000   0.60901845   -2.7206864   -2.7206864   -1.9901802  0.038802818   -2.7206864   0.73050626   424551 
 3149000   0.60982261   -2.7212726   -2.7212726   -1.9898018  0.035195488   -2.7212726   0.73147084   424551 
 3150000   0.60847819   -2.7201148   -2.7201148   -1.9902566  0.033170084   -2.7201148   0.72985824   424551 
 3151000   0.60839281   -2.7205278   -2.7205278    -1.990772  0.031764535   -2.7205278   0.72975582   424551 
 3152000   0.60917581   -2.7214444   -2.7214444   -1.9907493  0.035908243   -2.7214444   0.73069502   424551 
 3153000   0.60944588   -2.7214999   -2.7214999    -1.990481  0.035242999   -2.7214999   0.73101895   424551 
 3154000   0.60979154   -2.7220305   -2.7220305    -1.990597  0.035384968   -2.7220305   0.73143357   424551 
 3155000   0.60900173   -2.7202502   -2.7202502    -1.989764  0.034898924   -2.7202502   0.73048621   424551 
 3156000   0.60921044   -2.7201476   -2.7201476   -1.9894111  0.046916307   -2.7201476   0.73073655   424551 
 3157000   0.60903864   -2.7212286   -2.7212286   -1.9906982  0.034071743   -2.7212286   0.73053048   424551 
 3158000     0.610082   -2.7216248   -2.7216248   -1.9898429  0.041241273   -2.7216248   0.73178197   424551 
 3159000   0.60952168   -2.7217994   -2.7217994   -1.9906895  0.037319988   -2.7217994   0.73110988   424551 
 3160000    0.6096115   -2.7224224   -2.7224224   -1.9912048  0.039189967   -2.7224224   0.73121762   424551 
 3161000   0.61000558   -2.7227332   -2.7227332   -1.9910429  0.047799448   -2.7227332    0.7316903   424551 
 3162000   0.61064458    -2.723951    -2.723951   -1.9914942  0.041588079    -2.723951   0.73245678   424551 
 3163000   0.61032157   -2.7235582   -2.7235582   -1.9914889  0.046718669   -2.7235582   0.73206933   424551 
 3164000    0.6096093   -2.7223993   -2.7223993   -1.9911843  0.040128788   -2.7223993   0.73121498   424551 
 3165000   0.60894144   -2.7209512   -2.7209512   -1.9905373  0.043011689   -2.7209512   0.73041389   424551 
 3166000   0.60938476   -2.7216991   -2.7216991   -1.9907534   0.05080012   -2.7216991   0.73094564   424551 
 3167000   0.61095129   -2.7237003   -2.7237003   -1.9908757  0.030497353   -2.7237003   0.73282467   424551 
 3168000   0.60965428   -2.7221518   -2.7221518   -1.9908828  0.038516946   -2.7221518   0.73126893   424551 
 3169000   0.61008473    -2.722647    -2.722647   -1.9908618  0.035575773    -2.722647   0.73178524   424551 
 3170000   0.60956482   -2.7228348   -2.7228348   -1.9916732  0.049791049   -2.7228348   0.73116162   424551 
 3171000   0.60976632   -2.7229246   -2.7229246   -1.9915213  0.031169859   -2.7229246   0.73140332   424551 
 3172000   0.60934889   -2.7222171   -2.7222171   -1.9913145  0.036705674   -2.7222171   0.73090262   424551 
 3173000   0.60961484   -2.7225949   -2.7225949   -1.9913733  0.030087059   -2.7225949   0.73122162   424551 
 3174000   0.61004565    -2.722972    -2.722972   -1.9912336  0.049717177    -2.722972   0.73173837   424551 
 3175000   0.61012714    -2.722712    -2.722712   -1.9908758  0.038873692    -2.722712   0.73183612   424551 
 3176000   0.61107763   -2.7230285   -2.7230285   -1.9900523  0.042326916   -2.7230285   0.73297621   424551 
 3177000   0.61089326   -2.7228017   -2.7228017   -1.9900466  0.048541872   -2.7228017   0.73275506   424551 
 3178000   0.60942781   -2.7218519   -2.7218519   -1.9908546  0.047536189   -2.7218519   0.73099729   424551 
 3179000   0.60983193   -2.7226358   -2.7226358   -1.9911538  0.032921014   -2.7226358   0.73148202   424551 
 3180000   0.60992355   -2.7230044   -2.7230044   -1.9914125  0.038550279   -2.7230044   0.73159191   424551 
 3181000   0.60854649   -2.7214023   -2.7214023   -1.9914621  0.026038746   -2.7214023   0.72994016   424551 
 3182000   0.60910024   -2.7225243   -2.7225243     -1.99192  0.031613907   -2.7225243   0.73060437   424551 
 3183000   0.60935276    -2.721765    -2.721765   -1.9908577  0.037853376    -2.721765   0.73090726   424551 
 3184000    0.6098845   -2.7217133   -2.7217133   -1.9901682  0.037784643   -2.7217133   0.73154508   424551 
 3185000   0.60935994   -2.7214853   -2.7214853   -1.9905694  0.035998321   -2.7214853   0.73091588   424551 
 3186000   0.60886773   -2.7207154   -2.7207154   -1.9903899  0.032233985   -2.7207154   0.73032548   424551 
 3187000   0.60964811   -2.7215705   -2.7215705    -1.990309  0.045946023   -2.7215705   0.73126152   424551 
 3188000   0.60861312   -2.7200681   -2.7200681    -1.990048  0.027531962   -2.7200681   0.73002007   424551 
 3189000   0.60903698   -2.7205312   -2.7205312   -1.9900027  0.028241983   -2.7205312   0.73052849   424551 
 3190000   0.60839552   -2.7204548   -2.7204548   -1.9906957  0.035542014   -2.7204548   0.72975907   424551 
 3191000   0.60875063   -2.7214081   -2.7214081   -1.9912231  0.036101231   -2.7214081   0.73018501   424551 
 3192000   0.60878518   -2.7213192   -2.7213192   -1.9910927  0.033421267   -2.7213192   0.73022646   424551 
 3193000   0.61056659   -2.7233072   -2.7233072   -1.9909439  0.031662376   -2.7233072   0.73236323   424551 
 3194000   0.60977544   -2.7221004   -2.7221004   -1.9906861  0.033481805   -2.7221004   0.73141425   424551 
 3195000   0.61016621    -2.723022    -2.723022    -1.991139  0.044272244    -2.723022   0.73188298   424551 
 3196000   0.61067826   -2.7235459   -2.7235459   -1.9910487  0.043843417   -2.7235459   0.73249717   424551 
 3197000   0.60900471   -2.7212902   -2.7212902   -1.9908004  0.052456441   -2.7212902   0.73048978   424551 
 3198000   0.61027313   -2.7229424   -2.7229424   -1.9909312  0.040943489   -2.7229424   0.73201123   424551 
 3199000   0.60988884    -2.723021    -2.723021   -1.9914708  0.038160781    -2.723021   0.73155028   424551 
 3200000   0.61034341   -2.7235803   -2.7235803   -1.9914848  0.046652694   -2.7235803   0.73209553   424551 
 3201000     0.611415   -2.7252672   -2.7252672   -1.9918863  0.038572369   -2.7252672   0.73338088   424551 
 3202000   0.61176664   -2.7251327   -2.7251327     -1.99133   0.04725692   -2.7251327   0.73380267   424551 
 3203000   0.61002413   -2.7236995   -2.7236995   -1.9919869  0.038352859   -2.7236995   0.73171255   424551 
 3204000   0.61149042   -2.7259533   -2.7259533    -1.992482  0.036863468   -2.7259533   0.73347135   424551 
 3205000    0.6097876   -2.7237402   -2.7237402   -1.9923114  0.038983924   -2.7237402   0.73142885   424551 
 3206000   0.61103496   -2.7251954   -2.7251954   -1.9922704  0.044158854   -2.7251954   0.73292503   424551 
 3207000   0.61138252   -2.7255962   -2.7255962   -1.9922542  0.054448095   -2.7255962   0.73334192   424551 
 3208000   0.60963819   -2.7241453   -2.7241453   -1.9928956   0.04150528   -2.7241453   0.73124963   424551 
 3209000   0.60949764   -2.7227153   -2.7227153   -1.9916342  0.035747458   -2.7227153   0.73108104   424551 
 3210000   0.61032618   -2.7240375   -2.7240375   -1.9919627  0.027500328   -2.7240375   0.73207487   424551 
 3211000   0.60900972   -2.7229624   -2.7229624   -1.9924666  0.044680584   -2.7229624   0.73049579   424551 
 3212000   0.60871494    -2.722672    -2.722672   -1.9925298  0.044130407    -2.722672    0.7301422   424551 
 3213000   0.60997424   -2.7239319   -2.7239319   -1.9922792  0.047080918   -2.7239319   0.73165271   424551 
 3214000   0.60915782   -2.7229349   -2.7229349   -1.9922614  0.042283431   -2.7229349   0.73067343   424551 
 3215000   0.60929599   -2.7236613   -2.7236613   -1.9928221  0.030967749   -2.7236613   0.73083916   424551 
 3216000    0.6085109   -2.7225481   -2.7225481   -1.9926506  0.040880832   -2.7225481   0.72989746   424551 
 3217000   0.60858372   -2.7223028   -2.7223028    -1.992318   0.04469422   -2.7223028   0.72998481   424551 
 3218000    0.6083945   -2.7214113   -2.7214113   -1.9916535  0.040166252   -2.7214113   0.72975784   424551 
 3219000   0.60867614   -2.7215544   -2.7215544   -1.9914587   0.03571774   -2.7215544   0.73009567   424551 
 3220000   0.60903637   -2.7225092   -2.7225092   -1.9919814  0.047635389   -2.7225092   0.73052776   424551 
 3221000   0.60897619   -2.7226307   -2.7226307   -1.9921752  0.035740834   -2.7226307   0.73045557   424551 
 3222000   0.60909984   -2.7228604   -2.7228604   -1.9922565  0.037183514   -2.7228604   0.73060389   424551 
 3223000   0.60923588    -2.722834    -2.722834   -1.9920669  0.037631343    -2.722834   0.73076707   424551 
 3224000   0.60942228   -2.7232471   -2.7232471   -1.9922564  0.036732381   -2.7232471   0.73099065   424551 
 3225000   0.60996953   -2.7249632   -2.7249632   -1.9933161  0.041857176   -2.7249632   0.73164707   424551 
 3226000   0.60853484   -2.7240985   -2.7240985   -1.9941723  0.038793302   -2.7240985   0.72992618   424551 
 3227000   0.60906094   -2.7256042   -2.7256042    -1.995047  0.037849006   -2.7256042   0.73055722   424551 
 3228000    0.6095944   -2.7250651   -2.7250651    -1.993868  0.054056037   -2.7250651    0.7311971   424551 
 3229000   0.61026576    -2.726333    -2.726333   -1.9943306  0.037781502    -2.726333   0.73200238   424551 
 3230000   0.61071904   -2.7263428   -2.7263428   -1.9937967  0.051716608   -2.7263428   0.73254609   424551 
 3231000   0.60937951    -2.724786    -2.724786   -1.9938466  0.047352448    -2.724786   0.73093935   424551 
 3232000   0.60984839   -2.7253707   -2.7253707   -1.9938689  0.057658361   -2.7253707   0.73150177   424551 
 3233000   0.61080641   -2.7265342   -2.7265342   -1.9938834  0.041215082   -2.7265342   0.73265089   424551 
 3234000   0.61063386   -2.7260881   -2.7260881   -1.9936442  0.049876038   -2.7260881   0.73244392   424551 
 3235000   0.60999771   -2.7253777   -2.7253777   -1.9936969  0.027651364   -2.7253777   0.73168087   424551 
 3236000   0.60790052   -2.7232799   -2.7232799   -1.9941146   0.03889201   -2.7232799   0.72916533   424551 
 3237000   0.60947704   -2.7249592   -2.7249592   -1.9939029  0.029042708   -2.7249592   0.73105634   424551 
 3238000    0.6084696    -2.724158    -2.724158   -1.9943101  0.044140806    -2.724158   0.72984792   424551 
 3239000   0.60921821   -2.7240912   -2.7240912   -1.9933453  0.023518394   -2.7240912   0.73074588   424551 
 3240000   0.61081441   -2.7251832   -2.7251832   -1.9925227  0.045334579   -2.7251832   0.73266049   424551 
 3241000   0.61124894   -2.7258169   -2.7258169   -1.9926352  0.046732915   -2.7258169    0.7331817   424551 
 3242000   0.61049286   -2.7248078   -2.7248078    -1.992533  0.039439017   -2.7248078   0.73227479   424551 
 3243000   0.60892618   -2.7236845   -2.7236845   -1.9932889  0.042997421   -2.7236845   0.73039559   424551 
 3244000   0.60874052   -2.7226358   -2.7226358   -1.9924629  0.039707318   -2.7226358   0.73017289   424551 
 3245000    0.6094307   -2.7225962   -2.7225962   -1.9915954  0.043034399   -2.7225962   0.73100075   424551 
 3246000   0.61027603   -2.7237669   -2.7237669   -1.9917522  0.028469183   -2.7237669   0.73201471   424551 
 3247000   0.60913341   -2.7223746   -2.7223746   -1.9917304  0.036232524   -2.7223746   0.73064416   424551 
 3248000   0.60958079    -2.723415    -2.723415   -1.9922342  0.040958428    -2.723415   0.73118077   424551 
 3249000   0.60865344   -2.7217729   -2.7217729   -1.9917044  0.036417507   -2.7217729   0.73006845   424551 
 3250000   0.60922158   -2.7220673   -2.7220673   -1.9913174  0.047372164   -2.7220673   0.73074991   424551 
 3251000   0.60932794   -2.7229699   -2.7229699   -1.9920925  0.045867351   -2.7229699   0.73087749   424551 
 3252000    0.6102751   -2.7240345   -2.7240345   -1.9920209  0.041787403   -2.7240345   0.73201359   424551 
 3253000   0.60994696   -2.7236938   -2.7236938   -1.9920738  0.021277943   -2.7236938   0.73161999   424551 
 3254000   0.60942235   -2.7235914   -2.7235914   -1.9926007  0.030102361   -2.7235914   0.73099073   424551 
 3255000   0.60973298   -2.7234426   -2.7234426   -1.9920793   0.03454466   -2.7234426   0.73136333   424551 
 3256000   0.60840361   -2.7225662   -2.7225662   -1.9927974  0.036579585   -2.7225662   0.72976877   424551 
 3257000    0.6094332   -2.7240089   -2.7240089   -1.9930051  0.035209819   -2.7240089   0.73100375   424551 
 3258000   0.61015578   -2.7244151   -2.7244151   -1.9925446  0.036099795   -2.7244151   0.73187047   424551 
 3259000   0.61003606   -2.7247957   -2.7247957   -1.9930688  0.037528486   -2.7247957   0.73172687   424551 
 3260000   0.61028461   -2.7250662   -2.7250662   -1.9930412  0.038209222   -2.7250662     0.732025   424551 
 3261000    0.6105699   -2.7251408   -2.7251408   -1.9927736  0.037494131   -2.7251408   0.73236719   424551 
 3262000   0.60959842   -2.7240735   -2.7240735   -1.9928715  0.033886905   -2.7240735   0.73120192   424551 
 3263000   0.60973016   -2.7246876   -2.7246876   -1.9933276  0.035530318   -2.7246876   0.73135994   424551 
 3264000   0.60838399   -2.7232282   -2.7232282    -1.993483  0.037014783   -2.7232282   0.72974524   424551 
 3265000   0.60928141   -2.7244983   -2.7244983   -1.9936766  0.035316932   -2.7244983   0.73082168   424551 
 3266000   0.60913199   -2.7232058   -2.7232058   -1.9925633  0.036907898   -2.7232058   0.73064245   424551 
 3267000   0.61114529   -2.7252347   -2.7252347   -1.9921773  0.033421941   -2.7252347   0.73305736   424551 
 3268000   0.61148883   -2.7254594   -2.7254594     -1.99199  0.039696409   -2.7254594   0.73346944   424551 
 3269000   0.61035531   -2.7247863   -2.7247863   -1.9926765  0.047799969   -2.7247863   0.73210981   424551 
 3270000   0.61086441   -2.7254532   -2.7254532   -1.9927327  0.032747264   -2.7254532   0.73272046   424551 
 3271000   0.60940294   -2.7238729   -2.7238729   -1.9929055  0.046868534   -2.7238729   0.73096746   424551 
 3272000   0.61063659    -2.725226    -2.725226   -1.9927788  0.038662153    -2.725226   0.73244719   424551 
 3273000   0.61040791   -2.7255247   -2.7255247   -1.9933518  0.033734083   -2.7255247   0.73217289   424551 
 3274000   0.60975227   -2.7248599   -2.7248599   -1.9934734  0.036592174   -2.7248599   0.73138647   424551 
 3275000   0.60826191   -2.7239204   -2.7239204   -1.9943216  0.034113956   -2.7239204    0.7295988   424551 
 3276000   0.60925924   -2.7239474   -2.7239474   -1.9931523  0.041543489   -2.7239474   0.73079509   424551 
 3277000   0.61005182   -2.7248045   -2.7248045   -1.9930587    0.0485121   -2.7248045   0.73174577   424551 
 3278000   0.60946437   -2.7244048   -2.7244048   -1.9933637  0.031854492   -2.7244048   0.73104113   424551 
 3279000    0.6086871   -2.7233735   -2.7233735   -1.9932647   0.03679785   -2.7233735   0.73010882   424551 
 3280000   0.60998907   -2.7251256   -2.7251256   -1.9934551  0.047410056   -2.7251256   0.73167051   424551 
 3281000   0.60995373    -2.724521    -2.724521   -1.9928929  0.033465637    -2.724521   0.73162811   424551 
 3282000   0.60953094   -2.7235014   -2.7235014   -1.9923805  0.033731672   -2.7235014   0.73112098   424551 
 3283000   0.60925657   -2.7235437   -2.7235437   -1.9927518  0.032782548   -2.7235437   0.73079188   424551 
 3284000   0.60870639   -2.7231912   -2.7231912   -1.9930592  0.030455519   -2.7231912   0.73013195   424551 
 3285000   0.60908221   -2.7245571   -2.7245571   -1.9939744  0.032564339   -2.7245571   0.73058274   424551 
 3286000   0.60998087   -2.7249555   -2.7249555   -1.9932948  0.040107941   -2.7249555   0.73166067   424551 
 3287000   0.60831718   -2.7232306   -2.7232306   -1.9935655  0.038622258   -2.7232306   0.72966511   424551 
 3288000   0.60765892   -2.7222613   -2.7222613   -1.9933857  0.034839341   -2.7222613   0.72887554   424551 
 3289000   0.60885952    -2.724048    -2.724048   -1.9937324  0.050385179    -2.724048   0.73031563   424551 
 3290000   0.60885374   -2.7238247   -2.7238247    -1.993516  0.031311045   -2.7238247    0.7303087   424551 
 3291000   0.60875009   -2.7245552   -2.7245552   -1.9943708  0.046854314   -2.7245552   0.73018437   424551 
 3292000   0.60996567   -2.7243314   -2.7243314    -1.992689  0.039516272   -2.7243314   0.73164244   424551 
 3293000   0.60973973    -2.724602    -2.724602   -1.9932305  0.035029691    -2.724602   0.73137143   424551 
 3294000   0.60950324   -2.7244798   -2.7244798    -1.993392  0.038661392   -2.7244798   0.73108776   424551 
 3295000   0.61002961   -2.7261063   -2.7261063   -1.9943872  0.033783818   -2.7261063   0.73171913   424551 
 3296000   0.60874456    -2.724894    -2.724894   -1.9947162  0.036580593    -2.724894   0.73017774   424551 
 3297000   0.60921137   -2.7262081   -2.7262081   -1.9954705  0.028174385   -2.7262081   0.73073767   424551 
 3298000   0.60950963   -2.7261147   -2.7261147   -1.9950193  0.038957804   -2.7261147   0.73109542   424551 
 3299000   0.60822996   -2.7255101   -2.7255101   -1.9959496  0.041691632   -2.7255101   0.72956049   424551 
 3300000   0.60897505   -2.7255799   -2.7255799   -1.9951257  0.032076724   -2.7255799   0.73045421   424551 
 3301000   0.60952578   -2.7259526   -2.7259526   -1.9948378  0.034821899   -2.7259526    0.7311148   424551 
 3302000     0.610025     -2.72563     -2.72563   -1.9939164  0.038932306     -2.72563    0.7317136   424551 
 3303000   0.60899545   -2.7255532   -2.7255532   -1.9950745  0.046587194   -2.7255532   0.73047867   424551 
 3304000   0.60847006   -2.7252863   -2.7252863   -1.9954378  0.039182973   -2.7252863   0.72984848   424551 
 3305000    0.6088701   -2.7262036   -2.7262036   -1.9958753   0.02740807   -2.7262036   0.73032832   424551 
 3306000   0.60959028   -2.7263634   -2.7263634   -1.9951712  0.034706364   -2.7263634   0.73119216   424551 
 3307000   0.60979351   -2.7263855   -2.7263855   -1.9949496   0.03905439   -2.7263855   0.73143593   424551 
 3308000   0.60960315   -2.7261791   -2.7261791   -1.9949715  0.029809641   -2.7261791    0.7312076   424551 
 3309000    0.6097289   -2.7251745   -2.7251745    -1.993816  0.037076765   -2.7251745   0.73135843   424551 
 3310000   0.60930464   -2.7238852   -2.7238852   -1.9930356  0.036659998   -2.7238852   0.73084955   424551 
 3311000   0.61017291   -2.7257703   -2.7257703   -1.9938793  0.034649863   -2.7257703   0.73189101   424551 
 3312000   0.60990179   -2.7252313   -2.7252313   -1.9936655    0.0417526   -2.7252313   0.73156581   424551 
 3313000   0.61057863   -2.7268082   -2.7268082   -1.9944306  0.046744038   -2.7268082   0.73237766   424551 
 3314000   0.61009297   -2.7265165   -2.7265165   -1.9947213  0.045537466   -2.7265165   0.73179513   424551 
 3315000   0.60848635   -2.7248846   -2.7248846   -1.9950165  0.031451056   -2.7248846   0.72986801   424551 
 3316000   0.60849995   -2.7248616   -2.7248616   -1.9949773  0.034032803   -2.7248616   0.72988433   424551 
 3317000   0.60884733   -2.7244442   -2.7244442   -1.9941431  0.038350815   -2.7244442   0.73030101   424551 
 3318000   0.60939725   -2.7250984   -2.7250984   -1.9941377  0.036765357   -2.7250984   0.73096063   424551 
 3319000   0.60931953   -2.7252343   -2.7252343   -1.9943669  0.033512408   -2.7252343   0.73086741   424551 
 3320000   0.60873964   -2.7248578   -2.7248578   -1.9946859  0.034627167   -2.7248578   0.73017183   424551 
 3321000   0.60832734   -2.7246517   -2.7246517   -1.9949744  0.044412626   -2.7246517   0.72967729   424551 
 3322000   0.60814209   -2.7242098   -2.7242098   -1.9947547  0.033928158   -2.7242098   0.72945509   424551 
 3323000   0.60841412   -2.7242935   -2.7242935   -1.9945121  0.040075964   -2.7242935   0.72978138   424551 
 3324000   0.60896078   -2.7238737   -2.7238737   -1.9934366  0.043112532   -2.7238737   0.73043708   424551 
 3325000   0.60962353   -2.7245382   -2.7245382   -1.9933062  0.045911729   -2.7245382   0.73123204   424551 
 3326000   0.60861646   -2.7243783   -2.7243783   -1.9943542   0.03812471   -2.7243783   0.73002408   424551 
 3327000   0.60936694   -2.7257198   -2.7257198   -1.9947955  0.027248681   -2.7257198   0.73092427   424551 
 3328000   0.60991241   -2.7252551   -2.7252551   -1.9936766  0.028158794   -2.7252551   0.73157855   424551 
 3329000    0.6108025   -2.7265387   -2.7265387   -1.9938925  0.041152539   -2.7265387    0.7326462   424551 
 3330000   0.61010086   -2.7263297   -2.7263297   -1.9945251  0.023569204   -2.7263297   0.73180459   424551 
 3331000   0.61032756   -2.7264145   -2.7264145    -1.994338  0.041958481   -2.7264145   0.73207651   424551 
 3332000    0.6096195   -2.7257239   -2.7257239   -1.9944967  0.042433654   -2.7257239   0.73122721   424551 
 3333000    0.6094432   -2.7260196   -2.7260196   -1.9950039   0.03573144   -2.7260196   0.73101575   424551 
 3334000    0.6102594   -2.7270104   -2.7270104   -1.9950157  0.028980264   -2.7270104   0.73199475   424551 
 3335000   0.61061212   -2.7272564   -2.7272564   -1.9948386  0.038629956   -2.7272564   0.73241784   424551 
 3336000   0.60882133   -2.7256302   -2.7256302   -1.9953603  0.044444539   -2.7256302   0.73026982   424551 
 3337000   0.60924667   -2.7261871   -2.7261871   -1.9954071  0.044617154   -2.7261871   0.73078001   424551 
 3338000   0.61009713   -2.7273049   -2.7273049   -1.9955048  0.039857848   -2.7273049   0.73180012   424551 
 3339000   0.61040967   -2.7279462   -2.7279462   -1.9957712  0.027318873   -2.7279462     0.732175   424551 
 3340000   0.61110145   -2.7277665   -2.7277665   -1.9947617  0.047459283   -2.7277665   0.73300478   424551 
 3341000   0.61002632   -2.7278821   -2.7278821   -1.9961669  0.043326002   -2.7278821   0.73171519   424551 
 3342000   0.60951825   -2.7273492   -2.7273492   -1.9962434  0.039017734   -2.7273492   0.73110576   424551 
 3343000   0.60961166   -2.7272203   -2.7272203   -1.9960025  0.040966403   -2.7272203   0.73121781   424551 
 3344000    0.6097721   -2.7274654   -2.7274654   -1.9960552   0.03032096   -2.7274654   0.73141025   424551 
 3345000   0.60887799    -2.726692    -2.726692   -1.9963542  0.051233954    -2.726692   0.73033778   424551 
 3346000   0.60916367   -2.7272608   -2.7272608   -1.9965803  0.022553931   -2.7272608   0.73068045   424551 
 3347000   0.60833516   -2.7263738   -2.7263738   -1.9966872  0.047884711   -2.7263738   0.72968667   424551 
 3348000   0.60850446   -2.7269342   -2.7269342   -1.9970444  0.045161364   -2.7269342   0.72988974   424551 
 3349000   0.60909348   -2.7279417   -2.7279417   -1.9973454  0.029286541   -2.7279417   0.73059626   424551 
 3350000   0.60881456   -2.7277168   -2.7277168   -1.9974551  0.033572777   -2.7277168    0.7302617   424551 
 3351000   0.61046429   -2.7295739   -2.7295739   -1.9973334  0.028835025   -2.7295739   0.73224052   424551 
 3352000   0.60790775    -2.726171    -2.726171    -1.996997  0.040110219    -2.726171   0.72917399   424551 
 3353000   0.60782056   -2.7267713   -2.7267713   -1.9977019  0.030361662   -2.7267713   0.72906941   424551 
 3354000   0.60820568   -2.7268414   -2.7268414     -1.99731  0.038536739   -2.7268414   0.72953136   424551 
 3355000   0.60874379   -2.7271798   -2.7271798    -1.997003   0.03440648   -2.7271798   0.73017682   424551 
 3356000   0.60825047   -2.7271556   -2.7271556   -1.9975705  0.035469273   -2.7271556   0.72958508   424551 
 3357000   0.60895963   -2.7280655   -2.7280655   -1.9976298  0.040072105   -2.7280655   0.73043571   424551 
 3358000    0.6072402   -2.7265742   -2.7265742   -1.9982009  0.040592182   -2.7265742   0.72837329   424551 
 3359000   0.60830479   -2.7282336   -2.7282336   -1.9985834  0.036124623   -2.7282336   0.72965024   424551 
 3360000   0.60889259   -2.7287261   -2.7287261   -1.9983708  0.032782239   -2.7287261    0.7303553   424551 
 3361000   0.60838026   -2.7278166   -2.7278166   -1.9980759  0.039969745   -2.7278166   0.72974077   424551 
 3362000   0.60917193   -2.7284746   -2.7284746   -1.9977843  0.044451091   -2.7284746   0.73069035   424551 
 3363000   0.60836616   -2.7270615   -2.7270615   -1.9973377  0.036109955   -2.7270615   0.72972385   424551 
 3364000   0.60852685   -2.7278503   -2.7278503   -1.9979337  0.042387805   -2.7278503    0.7299166   424551 
 3365000   0.60943487   -2.7289808   -2.7289808   -1.9979751  0.040546838   -2.7289808   0.73100576   424551 
 3366000   0.60892508    -2.728406    -2.728406   -1.9980118  0.037304179    -2.728406   0.73039427   424551 
 3367000   0.60769322   -2.7270155   -2.7270155   -1.9980988  0.038968009   -2.7270155   0.72891668   424551 
 3368000   0.60990459   -2.7298331   -2.7298331    -1.998264  0.032217612   -2.7298331   0.73156917   424551 
 3369000   0.60865918   -2.7279439   -2.7279439   -1.9978686  0.035253417   -2.7279439   0.73007532   424551 
 3370000    0.6097071   -2.7291732   -2.7291732   -1.9978409  0.045826834   -2.7291732   0.73133228   424551 
 3371000   0.60832106   -2.7280836   -2.7280836   -1.9984138  0.039986156   -2.7280836   0.72966976   424551 
 3372000   0.60870702    -2.728318    -2.728318   -1.9981853  0.042099902    -2.728318   0.73013271   424551 
 3373000   0.60788927   -2.7273761   -2.7273761   -1.9982243  0.037697323   -2.7273761   0.72915183   424551 
 3374000   0.60739858   -2.7272874   -2.7272874   -1.9987241  0.047585192   -2.7272874   0.72856326   424551 
 3375000   0.60741464    -2.727104    -2.727104   -1.9985215   0.03971373    -2.727104   0.72858252   424551 
 3376000   0.60803752   -2.7283664   -2.7283664   -1.9990367  0.030408647   -2.7283664   0.72932966   424551 
 3377000   0.60792863   -2.7292708   -2.7292708   -2.0000717    0.0232287   -2.7292708   0.72919905   424551 
 3378000    0.6071701    -2.729067    -2.729067   -2.0007779  0.033640188    -2.729067    0.7282892   424551 
 3379000   0.60734642   -2.7293435   -2.7293435   -2.0008428  0.037595758   -2.7293435   0.72850069   424551 
 3380000   0.60684553   -2.7280666   -2.7280666   -2.0001667  0.045639648   -2.7280666   0.72789989   424551 
 3381000   0.60755681   -2.7289753   -2.7289753   -2.0002222  0.054191733   -2.7289753   0.72875306   424551 
 3382000   0.60769555   -2.7287932   -2.7287932   -1.9998737  0.037790256   -2.7287932   0.72891947   424551 
 3383000   0.60851559   -2.7299627   -2.7299627   -2.0000596  0.040940988   -2.7299627   0.72990309   424551 
 3384000   0.60871461   -2.7303389   -2.7303389   -2.0001971   0.03495021   -2.7303389   0.73014181   424551 
 3385000   0.60779715   -2.7297633   -2.7297633    -2.000722  0.043695891   -2.7297633   0.72904134   424551 
 3386000    0.6080314   -2.7304521   -2.7304521   -2.0011298  0.044001363   -2.7304521   0.72932232   424551 
 3387000   0.60744292   -2.7298175   -2.7298175   -2.0012011  0.039509257   -2.7298175   0.72861644   424551 
 3388000    0.6085433   -2.7304075   -2.7304075   -2.0004712  0.047150053   -2.7304075   0.72993633   424551 
 3389000   0.60948386   -2.7316511   -2.7316511   -2.0005866  0.044245714   -2.7316511   0.73106451   424551 
 3390000   0.60883298   -2.7308604   -2.7308604   -2.0005766  0.035558093   -2.7308604   0.73028379   424551 
 3391000   0.60765848   -2.7290408   -2.7290408   -2.0001657  0.045628547   -2.7290408     0.728875   424551 
 3392000   0.60862238   -2.7304787   -2.7304787   -2.0004475  0.035094168   -2.7304787   0.73003119   424551 
 3393000   0.60964062   -2.7307066   -2.7307066   -1.9994541  0.041823281   -2.7307066   0.73125255   424551 
 3394000   0.60887981   -2.7311287   -2.7311287   -2.0007888  0.034065692   -2.7311287   0.73033996   424551 
 3395000   0.60920237   -2.7301576   -2.7301576   -1.9994307  0.035373807   -2.7301576   0.73072688   424551 
 3396000   0.60840002   -2.7310199   -2.7310199   -2.0012555  0.032224498   -2.7310199   0.72976446   424551 
 3397000   0.61022545   -2.7323438   -2.7323438   -2.0003898  0.037464403   -2.7323438   0.73195404   424551 
 3398000   0.60814055   -2.7303909   -2.7303909   -2.0009376  0.036710117   -2.7303909   0.72945324   424551 
 3399000   0.60809464    -2.730264    -2.730264   -2.0008659  0.024691321    -2.730264   0.72939817   424551 
 3400000   0.60782678   -2.7302126   -2.7302126   -2.0011357  0.041587621   -2.7302126   0.72907688   424551 
 3401000   0.60909247   -2.7318229   -2.7318229   -2.0012279  0.037099725   -2.7318229   0.73059505   424551 
 3402000    0.6085482   -2.7321178   -2.7321178   -2.0021756  0.022373512   -2.7321178   0.72994221   424551 
 3403000     0.608595   -2.7315131   -2.7315131   -2.0015147  0.033694974   -2.7315131   0.72999834   424551 
 3404000   0.60981645   -2.7326193   -2.7326193   -2.0011559  0.031435145   -2.7326193   0.73146345   424551 
 3405000   0.60913009   -2.7315766   -2.7315766   -2.0009364  0.049717485   -2.7315766   0.73064017   424551 
 3406000   0.60930537   -2.7316644   -2.7316644    -2.000814  0.051003705   -2.7316644   0.73085042   424551 
 3407000   0.60915805   -2.7309483   -2.7309483   -2.0002746  0.044314338   -2.7309483   0.73067372   424551 
 3408000   0.60952997   -2.7312438   -2.7312438    -2.000124  0.035084783   -2.7312438   0.73111982   424551 
 3409000   0.60934351   -2.7310812   -2.7310812    -2.000185  0.045460854   -2.7310812   0.73089617   424551 
 3410000   0.61012621   -2.7317716   -2.7317716   -1.9999366  0.045358676   -2.7317716   0.73183499   424551 
 3411000   0.60911705   -2.7304143   -2.7304143   -1.9997898  0.046766951   -2.7304143   0.73062453   424551 
 3412000   0.60887431    -2.729886    -2.729886   -1.9995526  0.048917271    -2.729886   0.73033336   424551 
 3413000   0.60883752   -2.7298807   -2.7298807   -1.9995914  0.040668726   -2.7298807   0.73028924   424551 
 3414000   0.60799654   -2.7296507   -2.7296507   -2.0003702  0.044305514   -2.7296507    0.7292805   424551 
 3415000   0.60730714   -2.7283074   -2.7283074   -1.9998539  0.041420047   -2.7283074   0.72845358   424551 
 3416000   0.60907336   -2.7305825   -2.7305825   -2.0000104  0.041855776   -2.7305825   0.73057213   424551 
 3417000   0.60808208   -2.7300836   -2.7300836   -2.0007005   0.03474616   -2.7300836    0.7293831   424551 
 3418000   0.60872919    -2.730064    -2.730064   -1.9999047  0.031980406    -2.730064    0.7301593   424551 
 3419000   0.60857756    -2.729759    -2.729759   -1.9997816  0.038296308    -2.729759   0.72997743   424551 
 3420000   0.60762128   -2.7288883   -2.7288883   -2.0000579  0.043075346   -2.7288883   0.72883039   424551 
 3421000   0.60921581   -2.7304269   -2.7304269   -1.9996839  0.037358488   -2.7304269   0.73074299   424551 
 3422000   0.60823042   -2.7289193   -2.7289193   -1.9993583  0.044113486   -2.7289193   0.72956104   424551 
 3423000   0.60891353   -2.7306965   -2.7306965   -2.0003161  0.042185412   -2.7306965   0.73038041   424551 
 3424000   0.60809097   -2.7295919   -2.7295919   -2.0001981   0.03930732   -2.7295919   0.72939376   424551 
 3425000   0.60843108   -2.7299799   -2.7299799   -2.0001782  0.038014062   -2.7299799   0.72980173   424551 
 3426000   0.60971745    -2.732419    -2.732419   -2.0010743  0.045838666    -2.732419    0.7313447   424551 
 3427000   0.60696159   -2.7299663   -2.7299663   -2.0019272  0.033432678   -2.7299663    0.7280391   424551 
 3428000   0.60832993   -2.7319323   -2.7319323   -2.0022519  0.036525667   -2.7319323    0.7296804   424551 
 3429000   0.60736774   -2.7310668   -2.7310668   -2.0025405  0.038055382   -2.7310668   0.72852627   424551 
 3430000   0.60770826   -2.7316511   -2.7316511   -2.0027164  0.038337588   -2.7316511   0.72893471   424551 
 3431000   0.60831667   -2.7325096   -2.7325096   -2.0028451  0.051331301   -2.7325096   0.72966449   424551 
 3432000   0.60836947   -2.7329307   -2.7329307   -2.0032029  0.033315853   -2.7329307   0.72972783   424551 
 3433000    0.6075749   -2.7314383   -2.7314383   -2.0026635  0.045813837   -2.7314383   0.72877475   424551 
 3434000   0.60842533    -2.732801    -2.732801   -2.0030062  0.042503126    -2.732801   0.72979482   424551 
 3435000   0.60824492   -2.7319057   -2.7319057   -2.0023273  0.045112047   -2.7319057   0.72957843   424551 
 3436000   0.60916477   -2.7330393   -2.7330393   -2.0023575  0.054244149   -2.7330393   0.73068177   424551 
 3437000   0.60857648   -2.7320101   -2.7320101   -2.0020339  0.044801237   -2.7320101   0.72997613   424551 
 3438000   0.61022352   -2.7338851   -2.7338851   -2.0019334  0.042151033   -2.7338851   0.73195172   424551 
 3439000   0.60890569   -2.7322849   -2.7322849   -2.0019139  0.041547216   -2.7322849   0.73037101   424551 
 3440000   0.61036756   -2.7334636   -2.7334636   -2.0013391  0.033801126   -2.7334636    0.7321245   424551 
 3441000   0.60865333   -2.7319814   -2.7319814   -2.0019131  0.035180916   -2.7319814    0.7300683   424551 
 3442000   0.60833414   -2.7319081   -2.7319081   -2.0022226  0.038292067   -2.7319081   0.72968545   424551 
 3443000    0.6079736   -2.7304169   -2.7304169   -2.0011639  0.041917284   -2.7304169   0.72925299   424551 
 3444000    0.6079776   -2.7306926   -2.7306926   -2.0014348  0.033979829   -2.7306926   0.72925779   424551 
 3445000   0.60800884   -2.7307401   -2.7307401   -2.0014449  0.046212929   -2.7307401   0.72929526   424551 
 3446000   0.60804925   -2.7307219   -2.7307219   -2.0013782  0.042835384   -2.7307219   0.72934373   424551 
 3447000   0.60817183   -2.7296604   -2.7296604   -2.0001696  0.034258847   -2.7296604   0.72949075   424551 
 3448000   0.60862182   -2.7314506   -2.7314506   -2.0014201  0.040837187   -2.7314506   0.73003051   424551 
 3449000   0.60832996   -2.7308235   -2.7308235    -2.001143   0.03456331   -2.7308235   0.72968043   424551 
 3450000   0.60824305   -2.7305211   -2.7305211   -2.0009449  0.038749288   -2.7305211   0.72957619   424551 
 3451000   0.60993673   -2.7316666   -2.7316666   -2.0000589  0.039738951   -2.7316666   0.73160772   424551 
 3452000   0.60962026   -2.7318712   -2.7318712   -2.0006431  0.037839826   -2.7318712   0.73122812   424551 
 3453000   0.60975882   -2.7316559   -2.7316559   -2.0002616  0.054919953   -2.7316559   0.73139432   424551 
 3454000   0.60953615   -2.7313795   -2.7313795   -2.0002522   0.05347026   -2.7313795   0.73112724   424551 
 3455000   0.60821668   -2.7302528   -2.7302528   -2.0007082  0.042570807   -2.7302528   0.72954456   424551 
 3456000   0.60925574   -2.7316242   -2.7316242   -2.0008333  0.039033753   -2.7316242   0.73079089   424551 
 3457000   0.60864664   -2.7305449   -2.7305449   -2.0004847  0.041228379   -2.7305449   0.73006028   424551 
 3458000   0.60925159   -2.7317007   -2.7317007   -2.0009148  0.049130116   -2.7317007   0.73078592   424551 
 3459000   0.60893989   -2.7316624   -2.7316624   -2.0012504  0.043605224   -2.7316624   0.73041204   424551 
 3460000    0.6090235   -2.7319077   -2.7319077   -2.0013954   0.04586294   -2.7319077   0.73051232   424551 
 3461000   0.60776629   -2.7312572   -2.7312572   -2.0022528  0.041400331   -2.7312572   0.72900432   424551 
 3462000     0.608365   -2.7312619   -2.7312619   -2.0015394   0.03667228   -2.7312619   0.72972246   424551 
 3463000   0.60946764   -2.7330253   -2.7330253   -2.0019802  0.035530711   -2.7330253   0.73104506   424551 
 3464000   0.60861745   -2.7322933   -2.7322933    -2.002268  0.024672951   -2.7322933   0.73002527   424551 
 3465000   0.60824742    -2.731874    -2.731874   -2.0022926  0.036258021    -2.731874   0.72958142   424551 
 3466000   0.60884287   -2.7330278   -2.7330278   -2.0027322  0.031312105   -2.7330278   0.73029566   424551 
 3467000   0.60636505   -2.7303105   -2.7303105   -2.0029869  0.037164804   -2.7303105   0.72732356   424551 
 3468000    0.6082079   -2.7322421   -2.7322421   -2.0027081   0.03597196   -2.7322421   0.72953403   424551 
 3469000   0.60744955   -2.7312527   -2.7312527   -2.0026283  0.048865429   -2.7312527   0.72862439   424551 
 3470000   0.60907778   -2.7326559   -2.7326559   -2.0020784  0.029110328   -2.7326559   0.73057743   424551 
 3471000   0.60837313   -2.7321972   -2.7321972    -2.002465  0.041446898   -2.7321972   0.72973222   424551 
 3472000   0.60797184   -2.7317675   -2.7317675   -2.0025166  0.040418034   -2.7317675   0.72925087   424551 
 3473000   0.60998388   -2.7345729   -2.7345729   -2.0029086  0.030638288   -2.7345729   0.73166428   424551 
 3474000   0.60831935   -2.7327166   -2.7327166   -2.0030489  0.037952771   -2.7327166    0.7296677   424551 
 3475000   0.60812471   -2.7326166   -2.7326166   -2.0031824  0.040266619   -2.7326166   0.72943424   424551 
 3476000   0.60861356   -2.7331299   -2.7331299   -2.0031093  0.027111874   -2.7331299    0.7300206   424551 
 3477000   0.60828704   -2.7334477   -2.7334477   -2.0038188  0.048789092   -2.7334477   0.72962896   424551 
 3478000   0.60873866   -2.7337444   -2.7337444   -2.0035737  0.027959416   -2.7337444   0.73017066   424551 
 3479000   0.60901864   -2.7329093   -2.7329093   -2.0024028  0.032255323   -2.7329093   0.73050649   424551 
 3480000    0.6080053   -2.7323523   -2.7323523   -2.0030613  0.051659119   -2.7323523   0.72929101   424551 
 3481000   0.60853718   -2.7325475   -2.7325475   -2.0026185  0.032783959   -2.7325475   0.72992898   424551 
 3482000   0.61013412   -2.7340042   -2.7340042   -2.0021597  0.039271638   -2.7340042   0.73184449   424551 
 3483000   0.60936381   -2.7325528   -2.7325528   -2.0016322  0.039375538   -2.7325528   0.73092051   424551 
 3484000   0.61028637   -2.7331372   -2.7331372   -2.0011101  0.038193904   -2.7331372   0.73202711   424551 
 3485000   0.61009254   -2.7330833   -2.7330833   -2.0012887  0.042851427   -2.7330833   0.73179462   424551 
 3486000   0.60986458   -2.7332572   -2.7332572    -2.001736  0.030544198   -2.7332572   0.73152118   424551 
 3487000   0.60826885   -2.7313477   -2.7313477   -2.0017405  0.035404118   -2.7313477   0.72960713   424551 
 3488000   0.60878858   -2.7324344   -2.7324344   -2.0022038  0.039406762   -2.7324344   0.73023054   424551 
 3489000   0.60844633   -2.7316144   -2.7316144   -2.0017944  0.039421062   -2.7316144   0.72982002   424551 
 3490000   0.60784559    -2.730891    -2.730891   -2.0017916  0.041267353    -2.730891   0.72909944   424551 
 3491000   0.60910091   -2.7317101   -2.7317101   -2.0011049  0.029399783   -2.7317101   0.73060517   424551 
 3492000   0.60784195   -2.7306768   -2.7306768   -2.0015817  0.026870183   -2.7306768   0.72909508   424551 
 3493000   0.60884884   -2.7319876   -2.7319876   -2.0016848   0.04146403   -2.7319876   0.73030282   424551 
 3494000   0.60851517   -2.7317391   -2.7317391   -2.0018365  0.037478768   -2.7317391   0.72990258   424551 
 3495000   0.60873913   -2.7320365   -2.7320365   -2.0018653  0.033707453   -2.7320365   0.73017122   424551 
 3496000   0.60754087   -2.7315915   -2.7315915   -2.0028576  0.037993726   -2.7315915   0.72873394   424551 
 3497000   0.60894087   -2.7325081   -2.7325081   -2.0020949  0.044161458   -2.7325081   0.73041321   424551 
 3498000   0.60824177   -2.7315418   -2.7315418   -2.0019672   0.03605159   -2.7315418   0.72957465   424551 
 3499000   0.60816545    -2.732132    -2.732132   -2.0026489  0.032168772    -2.732132    0.7294831   424551 
 3500000   0.60817318   -2.7319744   -2.7319744    -2.002482  0.045612933   -2.7319744   0.72949237   424551 
 3501000   0.60945048   -2.7333628   -2.7333628   -2.0023384  0.036280813   -2.7333628   0.73102447   424551 
 3502000   0.60829241   -2.7319474   -2.7319474    -2.002312  0.050457829   -2.7319474   0.72963539   424551 
 3503000   0.60889895   -2.7333916   -2.7333916   -2.0030287  0.037775968   -2.7333916   0.73036292   424551 
 3504000   0.60922425   -2.7337651   -2.7337651    -2.003012  0.034800743   -2.7337651   0.73075311   424551 
 3505000   0.60816632   -2.7330557   -2.7330557   -2.0035715  0.028334176   -2.7330557   0.72948415   424551 
 3506000   0.60891231   -2.7344357   -2.7344357   -2.0040568  0.051173286   -2.7344357   0.73037896   424551 
 3507000   0.60839537   -2.7335235   -2.7335235   -2.0037646  0.035351091   -2.7335235   0.72975889   424551 
 3508000   0.60791131   -2.7332044   -2.7332044   -2.0040261  0.033105384   -2.7332044   0.72917827   424551 
 3509000   0.60859059   -2.7340259   -2.7340259   -2.0040328  0.038994868   -2.7340259   0.72999306   424551 
 3510000   0.60719297   -2.7318754   -2.7318754   -2.0035588  0.038380874   -2.7318754   0.72831663   424551 
 3511000    0.6088638   -2.7336578   -2.7336578   -2.0033371   0.04155194   -2.7336578   0.73032077   424551 
 3512000    0.6098641   -2.7350337   -2.7350337   -2.0035131  0.039462941   -2.7350337    0.7315206   424551 
 3513000    0.6086998   -2.7339042   -2.7339042   -2.0037802   0.03803754   -2.7339042   0.73012404   424551 
 3514000    0.6070261   -2.7322843   -2.7322843   -2.0041678  0.031035848   -2.7322843   0.72811648   424551 
 3515000   0.60818466   -2.7328727   -2.7328727   -2.0033665  0.040284423   -2.7328727   0.72950615   424551 
 3516000   0.60901936   -2.7346732   -2.7346732   -2.0041658  0.040632031   -2.7346732   0.73050736   424551 
 3517000   0.60887786   -2.7343943   -2.7343943   -2.0040566   0.03490508   -2.7343943   0.73033763   424551 
 3518000   0.60957644   -2.7348423   -2.7348423   -2.0036667  0.046343424   -2.7348423   0.73117556   424551 
 3519000   0.60849686   -2.7344291   -2.7344291   -2.0045485  0.041134834   -2.7344291   0.72988062   424551 
 3520000   0.60712392   -2.7329938   -2.7329938     -2.00476   0.04318766   -2.7329938   0.72823381   424551 
 3521000   0.60851634   -2.7345844   -2.7345844   -2.0046804   0.03709562   -2.7345844   0.72990399   424551 
 3522000   0.60878867   -2.7349658   -2.7349658   -2.0047351  0.035926552   -2.7349658   0.73023065   424551 
 3523000   0.60875434   -2.7348282   -2.7348282   -2.0046388  0.058301243   -2.7348282   0.73018947   424551 
 3524000    0.6084809   -2.7346902   -2.7346902   -2.0048287  0.036567951   -2.7346902   0.72986149   424551 
 3525000   0.60743533    -2.733955    -2.733955   -2.0053477  0.031098078    -2.733955   0.72860734   424551 
 3526000   0.60852123   -2.7342388   -2.7342388    -2.004329  0.043632887   -2.7342388   0.72990985   424551 
 3527000   0.60780219   -2.7335036   -2.7335036   -2.0044563  0.036506854   -2.7335036   0.72904739   424551 
 3528000   0.60786645   -2.7332175   -2.7332175   -2.0040931   0.03452983   -2.7332175   0.72912446   424551 
 3529000   0.60861556   -2.7338238   -2.7338238   -2.0038008  0.046719977   -2.7338238     0.730023   424551 
 3530000   0.60926469   -2.7336973   -2.7336973   -2.0028957  0.035412174   -2.7336973   0.73080163   424551 
 3531000   0.60831202   -2.7328891   -2.7328891   -2.0032302  0.045445758   -2.7328891   0.72965892   424551 
 3532000   0.60929545   -2.7336253   -2.7336253   -2.0027868  0.037699921   -2.7336253   0.73083852   424551 
 3533000   0.60779177   -2.7327865   -2.7327865   -2.0037517  0.042977415   -2.7327865   0.72903489   424551 
 3534000   0.60914851   -2.7339596   -2.7339596   -2.0032973  0.044083088   -2.7339596   0.73066226   424551 
 3535000   0.61024226   -2.7343169   -2.7343169   -2.0023427  0.033687755   -2.7343169    0.7319742   424551 
 3536000   0.60781788   -2.7319209   -2.7319209   -2.0028547  0.038374069   -2.7319209    0.7290662   424551 
 3537000   0.60711097    -2.731954    -2.731954   -2.0037358  0.036368251    -2.731954   0.72821828   424551 
 3538000   0.60772314   -2.7327508   -2.7327508   -2.0037982  0.038168268   -2.7327508   0.72895256   424551 
 3539000   0.60797816   -2.7322468   -2.7322468   -2.0029884   0.05058496   -2.7322468   0.72925845   424551 
 3540000   0.60899238   -2.7332357   -2.7332357   -2.0027607  0.038189699   -2.7332357   0.73047499   424551 
 3541000   0.60807457   -2.7336489   -2.7336489   -2.0042748  0.029550838   -2.7336489    0.7293741   424551 
 3542000   0.60894003   -2.7343728   -2.7343728   -2.0039606  0.035372767   -2.7343728    0.7304122   424551 
 3543000   0.60803736   -2.7337032   -2.7337032   -2.0043737  0.040891131   -2.7337032   0.72932947   424551 
 3544000     0.608691   -2.7343313   -2.7343313   -2.0042178  0.031842557   -2.7343313    0.7301135   424551 
 3545000   0.60750883   -2.7335728   -2.7335728   -2.0048773  0.044638372   -2.7335728   0.72869551   424551 
 3546000   0.60673712   -2.7332169   -2.7332169   -2.0054471  0.050866812   -2.7332169   0.72776985   424551 
 3547000   0.60818661   -2.7347016   -2.7347016   -2.0051932  0.039984373   -2.7347016   0.72950848   424551 
 3548000   0.60797602   -2.7350056   -2.7350056   -2.0057497  0.035823751   -2.7350056   0.72925589   424551 
 3549000   0.60792696   -2.7352742   -2.7352742   -2.0060772  0.032337688   -2.7352742   0.72919704   424551 
 3550000   0.60923949   -2.7355981   -2.7355981   -2.0048267  0.054397616   -2.7355981    0.7307714   424551 
 3551000   0.60918238   -2.7357202   -2.7357202   -2.0050173  0.046567188   -2.7357202    0.7307029   424551 
 3552000   0.60844888   -2.7357648   -2.7357648   -2.0059417  0.024310262   -2.7357648   0.72982307   424551 
 3553000   0.60881188   -2.7369132   -2.7369132   -2.0066547  0.041542179   -2.7369132   0.73025848   424551 
 3554000   0.60857499   -2.7377773   -2.7377773   -2.0078029  0.040734065   -2.7377773   0.72997435   424551 
 3555000   0.60723724   -2.7359031   -2.7359031   -2.0075334  0.028565099   -2.7359031   0.72836973   424551 
 3556000    0.6075899   -2.7363595   -2.7363595   -2.0075667  0.049164783   -2.7363595   0.72879275   424551 
 3557000   0.60774405   -2.7371057   -2.7371057   -2.0081281  0.041654845   -2.7371057   0.72897764   424551 
 3558000   0.60869998   -2.7376368   -2.7376368   -2.0075126   0.03939506   -2.7376368   0.73012427   424551 
 3559000   0.60817618    -2.736554    -2.736554    -2.007058  0.042812808    -2.736554   0.72949597   424551 
 3560000   0.60866756   -2.7374151   -2.7374151   -2.0073297  0.041469348   -2.7374151   0.73008538   424551 
 3561000   0.60852256   -2.7372443   -2.7372443   -2.0073328  0.037276307   -2.7372443   0.72991145   424551 
 3562000   0.60870689   -2.7372034   -2.7372034   -2.0070708  0.029290479   -2.7372034   0.73013255   424551 
 3563000   0.60873962    -2.737596    -2.737596   -2.0074242  0.044051248    -2.737596   0.73017182   424551 
 3564000   0.60804979   -2.7366045   -2.7366045   -2.0072602  0.037624907   -2.7366045   0.72934437   424551 
 3565000   0.60812486    -2.737231    -2.737231   -2.0077966   0.04065481    -2.737231   0.72943442   424551 
 3566000   0.60702357   -2.7354453   -2.7354453   -2.0073319  0.041627787   -2.7354453   0.72811344   424551 
 3567000   0.60698851   -2.7354093   -2.7354093   -2.0073379  0.028159194   -2.7354093   0.72807139   424551 
 3568000   0.60831387   -2.7366503   -2.7366503   -2.0069892  0.036680696   -2.7366503   0.72966113   424551 
 3569000    0.6079026   -2.7358729   -2.7358729    -2.006705  0.035675123   -2.7358729   0.72916782   424551 
 3570000   0.60793227   -2.7353926   -2.7353926   -2.0061891  0.026104764   -2.7353926   0.72920341   424551 
 3571000   0.60707812   -2.7344317   -2.7344317   -2.0062529  0.035492745   -2.7344317   0.72817887   424551 
 3572000   0.60894776   -2.7359079   -2.7359079   -2.0054864  0.042714619   -2.7359079   0.73042147   424551 
 3573000   0.60800592   -2.7343559   -2.7343559   -2.0050641  0.031313161   -2.7343559   0.72929175   424551 
 3574000   0.60810687   -2.7341947   -2.7341947   -2.0047819  0.033534164   -2.7341947   0.72941284   424551 
 3575000   0.60806318   -2.7347641   -2.7347641   -2.0054036  0.042862832   -2.7347641   0.72936043   424551 
 3576000   0.60818914   -2.7345556   -2.7345556   -2.0050441  0.032228998   -2.7345556   0.72951153   424551 
 3577000   0.60920034   -2.7355303   -2.7355303   -2.0048059  0.040051323   -2.7355303   0.73072444   424551 
 3578000   0.60817427    -2.735003    -2.735003   -2.0055093  0.034195946    -2.735003   0.72949368   424551 
 3579000   0.60962167   -2.7361684   -2.7361684   -2.0049386  0.040660108   -2.7361684   0.73122981   424551 
 3580000   0.60949622   -2.7362347   -2.7362347   -2.0051554  0.032759686   -2.7362347   0.73107934   424551 
 3581000   0.60880473   -2.7351693   -2.7351693   -2.0049194  0.031207151   -2.7351693   0.73024991   424551 
 3582000   0.60900537   -2.7356575   -2.7356575    -2.005167  0.027864094   -2.7356575   0.73049057   424551 
 3583000   0.60869268   -2.7346719   -2.7346719   -2.0045564  0.043196896   -2.7346719   0.73011551   424551 
 3584000   0.60915051   -2.7357424   -2.7357424   -2.0050777  0.041536902   -2.7357424   0.73066467   424551 
 3585000   0.60876708   -2.7354728   -2.7354728    -2.005268  0.035709482   -2.7354728   0.73020475   424551 
 3586000   0.60895415   -2.7358404   -2.7358404   -2.0054113  0.035078345   -2.7358404   0.73042913   424551 
 3587000   0.60856557   -2.7353186   -2.7353186   -2.0053556  0.042757494   -2.7353186   0.72996304   424551 
 3588000   0.60820735   -2.7353817   -2.7353817   -2.0058484  0.033743484   -2.7353817   0.72953336   424551 
 3589000   0.60766172   -2.7342493   -2.7342493   -2.0053704  0.034567411   -2.7342493   0.72887889   424551 
 3590000   0.60847595   -2.7359027   -2.7359027   -2.0060472  0.038548003   -2.7359027   0.72985555   424551 
 3591000   0.60812766    -2.735933    -2.735933   -2.0064952  0.038271433    -2.735933   0.72943778   424551 
 3592000   0.60713139   -2.7347677   -2.7347677   -2.0065249   0.04029542   -2.7347677   0.72824277   424551 
 3593000     0.607916   -2.7356842   -2.7356842   -2.0065004  0.031447935   -2.7356842   0.72918389   424551 
 3594000   0.60778814   -2.7361689   -2.7361689   -2.0071384  0.033599517   -2.7361689   0.72903053   424551 
 3595000   0.60742685   -2.7358449   -2.7358449   -2.0072477  0.037782174   -2.7358449   0.72859717   424551 
 3596000   0.60901224   -2.7375269   -2.7375269   -2.0070281  0.033612513   -2.7375269   0.73049882   424551 
 3597000    0.6076737   -2.7353331   -2.7353331   -2.0064398  0.038489702   -2.7353331   0.72889326   424551 
 3598000     0.609803   -2.7374872   -2.7374872   -2.0060399  0.040506075   -2.7374872   0.73144732   424551 
 3599000   0.60956986   -2.7370282   -2.7370282   -2.0058605  0.046326871   -2.7370282   0.73116767   424551 
 3600000   0.61040964   -2.7380218   -2.7380218   -2.0058469  0.034428068   -2.7380218   0.73217497   424551 
 3601000   0.60860746   -2.7368469   -2.7368469   -2.0068337  0.032743547   -2.7368469   0.73001329   424551 
 3602000   0.60856893    -2.736736    -2.736736   -2.0067689  0.029618296    -2.736736   0.72996707   424551 
 3603000   0.60921904   -2.7374198   -2.7374198   -2.0066729  0.046366662   -2.7374198   0.73074686   424551 
 3604000   0.60747078   -2.7362832   -2.7362832   -2.0076333  0.033801521   -2.7362832   0.72864986   424551 
 3605000   0.60812357   -2.7369727   -2.7369727   -2.0075398  0.031350143   -2.7369727   0.72943287   424551 
 3606000   0.60824462   -2.7369228   -2.7369228   -2.0073447  0.039454392   -2.7369228   0.72957807   424551 
 3607000   0.60827122   -2.7365932   -2.7365932   -2.0069832  0.042833788   -2.7365932   0.72960997   424551 
 3608000   0.60889014   -2.7365716   -2.7365716   -2.0062192  0.036460502   -2.7365716   0.73035236   424551 
 3609000   0.60840187   -2.7364654   -2.7364654   -2.0066987  0.031246715   -2.7364654   0.72976668   424551 
 3610000   0.60761425   -2.7355596   -2.7355596   -2.0067377  0.036128196   -2.7355596   0.72882195   424551 
 3611000   0.60829578   -2.7362763   -2.7362763   -2.0066369  0.037858175   -2.7362763   0.72963944   424551 
 3612000   0.60763858   -2.7364263   -2.7364263   -2.0075752  0.040235074   -2.7364263   0.72885114   424551 
 3613000   0.60679908   -2.7355426   -2.7355426   -2.0076984  0.040182245   -2.7355426   0.72784416   424551 
 3614000   0.60726179   -2.7354215   -2.7354215   -2.0070224   0.03296663   -2.7354215   0.72839918   424551 
 3615000   0.60868301   -2.7366215   -2.7366215   -2.0065176  0.036568332   -2.7366215   0.73010391   424551 
 3616000   0.60830299   -2.7366421   -2.7366421    -2.006994   0.02364629   -2.7366421   0.72964809   424551 
 3617000   0.60702342   -2.7340381   -2.7340381   -2.0059249  0.027187183   -2.7340381   0.72811326   424551 
 3618000   0.60796714   -2.7350257   -2.7350257   -2.0057805   0.05144918   -2.7350257   0.72924524   424551 
 3619000   0.60824268   -2.7351536   -2.7351536   -2.0055778  0.034288017   -2.7351536   0.72957574   424551 
 3620000   0.60815889   -2.7351511   -2.7351511   -2.0056759  0.040074841   -2.7351511   0.72947524   424551 
 3621000   0.60764405   -2.7346783   -2.7346783   -2.0058206  0.032536847   -2.7346783    0.7288577   424551 
 3622000   0.60805304   -2.7356446   -2.7356446   -2.0062963  0.037689871   -2.7356446   0.72934828   424551 
 3623000   0.60704534    -2.735192    -2.735192   -2.0070525  0.029383479    -2.735192   0.72813955   424551 
 3624000   0.60746604   -2.7359851   -2.7359851   -2.0073409  0.039566456   -2.7359851   0.72864417   424551 
 3625000   0.60699224   -2.7351992   -2.7351992   -2.0071233  0.033550706   -2.7351992   0.72807586   424551 
 3626000   0.60759316   -2.7366275   -2.7366275   -2.0078309  0.039223867   -2.7366275   0.72879666   424551 
 3627000   0.60804806   -2.7374251   -2.7374251   -2.0080828  0.037366727   -2.7374251    0.7293423   424551 
 3628000   0.60818341   -2.7374795   -2.7374795   -2.0079749   0.03412208   -2.7374795   0.72950464   424551 
 3629000   0.60831601    -2.738277    -2.738277   -2.0086133  0.033322393    -2.738277    0.7296637   424551 
 3630000   0.60674595   -2.7371767   -2.7371767   -2.0093963  0.042791355   -2.7371767   0.72778044   424551 
 3631000   0.60778622   -2.7373441   -2.7373441   -2.0083159  0.032594485   -2.7373441   0.72902823   424551 
 3632000   0.60756885    -2.736223    -2.736223   -2.0074555   0.04705182    -2.736223   0.72876749   424551 
 3633000   0.60789413   -2.7367478   -2.7367478   -2.0075902  0.039861474   -2.7367478   0.72915766   424551 
 3634000   0.60735696   -2.7361704   -2.7361704   -2.0076571  0.038614743   -2.7361704   0.72851334   424551 
 3635000   0.60900211   -2.7378981   -2.7378981   -2.0074114  0.044655853   -2.7378981   0.73048666   424551 
 3636000   0.60854899   -2.7374483   -2.7374483   -2.0075051  0.037532559   -2.7374483   0.72994316   424551 
 3637000   0.60824217   -2.7374007   -2.7374007   -2.0078256  0.038166459   -2.7374007   0.72957513   424551 
 3638000   0.60713894   -2.7360595   -2.7360595   -2.0078077  0.031793986   -2.7360595   0.72825183   424551 
 3639000   0.60819981   -2.7370179   -2.7370179   -2.0074936  0.033870439   -2.7370179   0.72952432   424551 
 3640000   0.60692299    -2.736295    -2.736295   -2.0083022  0.030285102    -2.736295    0.7279928   424551 
 3641000   0.60818099   -2.7373845   -2.7373845   -2.0078827  0.032863333   -2.7373845   0.72950175   424551 
 3642000   0.60838941   -2.7373007   -2.7373007    -2.007549  0.034280702   -2.7373007   0.72975174   424551 
 3643000   0.60678531   -2.7358669   -2.7358669   -2.0080393  0.042591201   -2.7358669   0.72782765   424551 
 3644000    0.6073234   -2.7367456   -2.7367456   -2.0082726  0.025489444   -2.7367456   0.72847308   424551 
 3645000    0.6078905   -2.7371469   -2.7371469   -2.0079936  0.035986274   -2.7371469   0.72915331   424551 
 3646000   0.60751177   -2.7365532   -2.7365532   -2.0078542  0.041997755   -2.7365532   0.72869903   424551 
 3647000   0.60825798   -2.7371296   -2.7371296   -2.0075355  0.035597793   -2.7371296    0.7295941   424551 
 3648000   0.60894342   -2.7379502   -2.7379502   -2.0075339  0.036040721   -2.7379502   0.73041627   424551 
 3649000   0.60884578   -2.7379046   -2.7379046   -2.0076055  0.042308584   -2.7379046   0.73029915   424551 
 3650000   0.60881777   -2.7382875   -2.7382875   -2.0080219  0.042083706   -2.7382875   0.73026555   424551 
 3651000   0.60772982   -2.7369478   -2.7369478   -2.0079872  0.039320823   -2.7369478   0.72896058   424551 
 3652000   0.60813443   -2.7372954   -2.7372954   -2.0078495   0.03857065   -2.7372954   0.72944589   424551 
 3653000   0.60810349   -2.7375289   -2.7375289   -2.0081201  0.033575219   -2.7375289   0.72940878   424551 
 3654000   0.60849875   -2.7383902   -2.7383902   -2.0085074   0.04277675   -2.7383902   0.72988289   424551 
 3655000   0.60797027   -2.7379287   -2.7379287   -2.0086797  0.050634787   -2.7379287     0.729249   424551 
 3656000   0.60816872   -2.7389154   -2.7389154   -2.0094283  0.043118627   -2.7389154   0.72948703   424551 
 3657000   0.60731848   -2.7378799   -2.7378799   -2.0094127  0.044465746   -2.7378799   0.72846718   424551 
 3658000    0.6070489   -2.7379168   -2.7379168    -2.009773  0.031287919   -2.7379168   0.72814383   424551 
 3659000   0.60772391    -2.738416    -2.738416   -2.0094625  0.041450146    -2.738416   0.72895348   424551 
 3660000   0.60632898   -2.7374158   -2.7374158   -2.0101355    0.0256812   -2.7374158    0.7272803   424551 
 3661000   0.60786984   -2.7383963   -2.7383963   -2.0092677   0.04092887   -2.7383963   0.72912853   424551 
 3662000   0.60667811   -2.7372558   -2.7372558   -2.0095568  0.047616322   -2.7372558   0.72769907   424551 
 3663000   0.60701938   -2.7384746   -2.7384746   -2.0103662  0.042063888   -2.7384746   0.72810842   424551 
 3664000   0.60766662   -2.7391019   -2.7391019   -2.0102172  0.040076971   -2.7391019   0.72888476   424551 
 3665000   0.60822868   -2.7391421   -2.7391421   -2.0095831  0.047159097   -2.7391421   0.72955895   424551 
 3666000    0.6079444   -2.7381792   -2.7381792   -2.0089612  0.047315583   -2.7381792   0.72921795   424551 
 3667000   0.60950871   -2.7404741   -2.7404741   -2.0093798  0.033426984   -2.7404741   0.73109431   424551 
 3668000   0.60720314   -2.7392006   -2.7392006   -2.0108718  0.030371868   -2.7392006   0.72832883   424551 
 3669000   0.60696598   -2.7389712   -2.7389712   -2.0109269  0.033426861   -2.7389712   0.72804436   424551 
 3670000   0.60769317    -2.739879    -2.739879   -2.0109623  0.031803916    -2.739879   0.72891661   424551 
 3671000   0.60812291   -2.7402899   -2.7402899   -2.0108578  0.038267709   -2.7402899   0.72943208   424551 
 3672000   0.60793801   -2.7395057   -2.7395057   -2.0102954   0.03014769   -2.7395057   0.72921029   424551 
 3673000   0.60740878     -2.74016     -2.74016   -2.0115845  0.032886994     -2.74016    0.7285755   424551 
 3674000   0.60824395   -2.7409865   -2.7409865   -2.0114093  0.042595826   -2.7409865   0.72957726   424551 
 3675000   0.60669187   -2.7390108   -2.7390108   -2.0112952  0.040489816   -2.7390108   0.72771558   424551 
 3676000   0.60639411   -2.7386223   -2.7386223   -2.0112639  0.042016706   -2.7386223   0.72735842   424551 
 3677000   0.60799558   -2.7400813   -2.7400813   -2.0108019  0.034475241   -2.7400813   0.72927935   424551 
 3678000   0.60710853   -2.7385062   -2.7385062   -2.0102908   0.02940079   -2.7385062   0.72821536   424551 
 3679000   0.60699217     -2.73926     -2.73926   -2.0111842  0.034386255     -2.73926   0.72807578   424551 
 3680000   0.60749243   -2.7399109   -2.7399109   -2.0112351  0.034986471   -2.7399109   0.72867582   424551 
 3681000   0.60691691   -2.7382186   -2.7382186   -2.0102331  0.039374004   -2.7382186   0.72798551   424551 
 3682000   0.60566907   -2.7375406   -2.7375406   -2.0110519  0.043442161   -2.7375406   0.72648875   424551 
 3683000   0.60626236   -2.7376307   -2.7376307   -2.0104303  0.033209898   -2.7376307   0.72720039   424551 
 3684000   0.60706698   -2.7383539   -2.7383539   -2.0101884   0.02880118   -2.7383539   0.72816551   424551 
 3685000   0.60741476    -2.739108    -2.739108   -2.0105253  0.026607849    -2.739108   0.72858266   424551 
 3686000   0.60715194   -2.7394702   -2.7394702   -2.0112028  0.036230739   -2.7394702   0.72826742   424551 
 3687000   0.60594105   -2.7384577   -2.7384577   -2.0116427  0.028790482   -2.7384577   0.72681498   424551 
 3688000   0.60602377   -2.7385763   -2.7385763   -2.0116621  0.042746504   -2.7385763    0.7269142   424551 
 3689000    0.6071253   -2.7407824   -2.7407824    -2.012547  0.040112035   -2.7407824   0.72823547   424551 
 3690000   0.60624104   -2.7395904   -2.7395904   -2.0124156  0.034429202   -2.7395904   0.72717481   424551 
 3691000   0.60726404   -2.7399826   -2.7399826   -2.0115807  0.032819443   -2.7399826   0.72840188   424551 
 3692000   0.60777701   -2.7410584   -2.7410584   -2.0120413  0.032735883   -2.7410584   0.72901718   424551 
 3693000   0.60754761   -2.7410328   -2.7410328   -2.0122907   0.03378969   -2.7410328   0.72874201   424551 
 3694000   0.60757921   -2.7416105   -2.7416105   -2.0128306  0.042500217   -2.7416105   0.72877993   424551 
 3695000   0.60844491   -2.7425188   -2.7425188   -2.0127004  0.034182266   -2.7425188   0.72981831   424551 
 3696000   0.60803452   -2.7420711   -2.7420711    -2.012745  0.043397022   -2.7420711   0.72932606   424551 
 3697000   0.60801723   -2.7416189   -2.7416189   -2.0123136  0.039583588   -2.7416189   0.72930531   424551 
 3698000   0.60780686   -2.7406649   -2.7406649    -2.011612  0.038774084   -2.7406649   0.72905298   424551 
 3699000    0.6086485   -2.7416622   -2.7416622   -2.0115997  0.038912785   -2.7416622   0.73006251   424551 
 3700000   0.60762516   -2.7410871   -2.7410871    -2.012252  0.039550183   -2.7410871   0.72883504   424551 
 3701000   0.60719474   -2.7409684   -2.7409684   -2.0126496  0.031094023   -2.7409684   0.72831876   424551 
 3702000   0.60700368   -2.7407452   -2.7407452   -2.0126556  0.031505172   -2.7407452   0.72808959   424551 
 3703000   0.60695857   -2.7411948   -2.7411948   -2.0131593  0.031579387   -2.7411948   0.72803547   424551 
 3704000   0.60735927   -2.7407976   -2.7407976   -2.0122815  0.041646419   -2.7407976   0.72851611   424551 
 3705000   0.60684675   -2.7400367   -2.7400367   -2.0121354  0.034208311   -2.7400367   0.72790135   424551 
 3706000   0.60897229   -2.7428077   -2.7428077   -2.0123568  0.032766362   -2.7428077    0.7304509   424551 
 3707000   0.60636403   -2.7396459   -2.7396459   -2.0123236  0.037370625   -2.7396459   0.72732234   424551 
 3708000   0.60746431   -2.7405152   -2.7405152   -2.0118731  0.030885472   -2.7405152    0.7286421   424551 
 3709000   0.60722376   -2.7402915   -2.7402915   -2.0119379  0.040930082   -2.7402915   0.72835357   424551 
 3710000   0.60566548   -2.7381158   -2.7381158   -2.0116313  0.033646733   -2.7381158   0.72648444   424551 
 3711000   0.60574806   -2.7380777   -2.7380777   -2.0114942  0.035518455   -2.7380777   0.72658349   424551 
 3712000   0.60662401   -2.7384451   -2.7384451   -2.0108109  0.046843616   -2.7384451   0.72763418   424551 
 3713000   0.60733844   -2.7399869   -2.7399869   -2.0114957  0.036852567   -2.7399869   0.72849113   424551 
 3714000   0.60621461   -2.7382409   -2.7382409   -2.0110978  0.040090916   -2.7382409   0.72714312   424551 
 3715000   0.60724867   -2.7402358   -2.7402358   -2.0118523  0.033972816   -2.7402358   0.72838345   424551 
 3716000    0.6072072   -2.7402883   -2.7402883   -2.0119546  0.031843601   -2.7402883    0.7283337   424551 
 3717000    0.6061288   -2.7394712   -2.7394712   -2.0124311  0.040920125   -2.7394712   0.72704018   424551 
 3718000   0.60709191   -2.7401602   -2.7401602   -2.0119648  0.048263247   -2.7401602   0.72819541   424551 
 3719000   0.60744496   -2.7412788   -2.7412788   -2.0126599  0.024350295   -2.7412788   0.72861889   424551 
 3720000   0.60807545   -2.7415094   -2.7415094   -2.0121342  0.039118757   -2.7415094   0.72937516   424551 
 3721000   0.60747245   -2.7408163   -2.7408163   -2.0121644  0.040500241   -2.7408163   0.72865186   424551 
 3722000   0.60757409   -2.7406509   -2.7406509   -2.0118771  0.043502226   -2.7406509   0.72877378   424551 
 3723000    0.6073448   -2.7411634   -2.7411634   -2.0126647  0.039768366   -2.7411634   0.72849876   424551 
 3724000   0.60675216   -2.7401759   -2.7401759    -2.012388  0.045706341   -2.7401759   0.72778789   424551 
 3725000   0.60879902   -2.7422795   -2.7422795   -2.0120364  0.034981515   -2.7422795   0.73024306   424551 
 3726000   0.60774819   -2.7416079   -2.7416079   -2.0126253  0.036156001   -2.7416079    0.7289826   424551 
 3727000   0.60858002   -2.7427066   -2.7427066   -2.0127262  0.034936006   -2.7427066   0.72998037   424551 
 3728000   0.60914983   -2.7432685   -2.7432685   -2.0126047  0.045039042   -2.7432685   0.73066385   424551 
 3729000   0.60830603   -2.7419941   -2.7419941   -2.0123423  0.047027507   -2.7419941   0.72965173   424551 
 3730000   0.60837817    -2.743053    -2.743053   -2.0133147  0.032607491    -2.743053   0.72973826   424551 
 3731000    0.6081344   -2.7420768   -2.7420768    -2.012631  0.033460658   -2.7420768   0.72944586   424551 
 3732000   0.60776188   -2.7417574   -2.7417574   -2.0127584  0.040309078   -2.7417574   0.72899903   424551 
 3733000   0.60772826   -2.7417193   -2.7417193   -2.0127605  0.032852218   -2.7417193   0.72895871   424551 
 3734000   0.60808036   -2.7423797   -2.7423797   -2.0129987  0.040912358   -2.7423797   0.72938105   424551 
 3735000   0.60698628   -2.7414676   -2.7414676   -2.0133989   0.03645999   -2.7414676   0.72806871   424551 
 3736000   0.60900057   -2.7431306   -2.7431306   -2.0126458  0.040740967   -2.7431306   0.73048482   424551 
 3737000   0.60868322   -2.7420653   -2.7420653   -2.0119612  0.042631078   -2.7420653   0.73010416   424551 
 3738000   0.60767438   -2.7408964   -2.7408964   -2.0120024  0.036890451   -2.7408964   0.72889408   424551 
 3739000    0.6080077   -2.7412882   -2.7412882   -2.0119943  0.035145371   -2.7412882   0.72929388   424551 
 3740000   0.60739559   -2.7407957   -2.7407957    -2.012236  0.036506218   -2.7407957   0.72855967   424551 
 3741000   0.60744298   -2.7415373   -2.7415373   -2.0129208  0.036353952   -2.7415373   0.72861651   424551 
 3742000   0.60782873   -2.7424883   -2.7424883   -2.0134091  0.031160084   -2.7424883   0.72907922   424551 
 3743000   0.60661576   -2.7411691   -2.7411691   -2.0135449  0.033418304   -2.7411691   0.72762428   424551 
 3744000   0.60645745   -2.7410491   -2.7410491   -2.0136147  0.043052249   -2.7410491   0.72743439   424551 
 3745000   0.60576293   -2.7404359   -2.7404359   -2.0138346  0.043101822   -2.7404359   0.72660133   424551 
 3746000   0.60528763    -2.740505    -2.740505   -2.0144737  0.035407399    -2.740505   0.72603122   424551 
 3747000    0.6058012   -2.7413037   -2.7413037   -2.0146564  0.038428624   -2.7413037   0.72664723   424551 
 3748000   0.60689161   -2.7418548   -2.7418548   -2.0138996  0.039841654   -2.7418548   0.72795515   424551 
 3749000   0.60591112   -2.7401029   -2.7401029   -2.0133238  0.038805848   -2.7401029   0.72677908   424551 
 3750000   0.60650352   -2.7412542   -2.7412542   -2.0137645  0.034858806   -2.7412542   0.72748965   424551 
 3751000   0.60701876   -2.7419365   -2.7419365   -2.0138288  0.032739087   -2.7419365   0.72810767   424551 
 3752000   0.60568204    -2.741066    -2.741066   -2.0145617  0.045014139    -2.741066    0.7265043   424551 
 3753000   0.60689874    -2.742857    -2.742857   -2.0148932  0.037322018    -2.742857   0.72796371   424551 
 3754000   0.60730087   -2.7423266   -2.7423266   -2.0138806  0.042149033   -2.7423266   0.72844606   424551 
 3755000   0.60607451   -2.7415302   -2.7415302   -2.0145551  0.041595868   -2.7415302   0.72697506   424551 
 3756000   0.60685608   -2.7425228   -2.7425228   -2.0146103  0.033297162   -2.7425228   0.72791254   424551 
 3757000   0.60752627   -2.7429495   -2.7429495   -2.0142331  0.046047079   -2.7429495   0.72871642   424551 
 3758000   0.60839038   -2.7427128   -2.7427128   -2.0129599    0.0383177   -2.7427128    0.7297529   424551 
 3759000   0.60915245   -2.7433848   -2.7433848   -2.0127178  0.049582385   -2.7433848   0.73066699   424551 
 3760000     0.607425   -2.7418405   -2.7418405   -2.0132455  0.042711079   -2.7418405   0.72859495   424551 
 3761000   0.60692346   -2.7413389   -2.7413389   -2.0133455  0.041300459   -2.7413389   0.72799336   424551 
 3762000   0.60613206   -2.7413335   -2.7413335   -2.0142894   0.04204811   -2.7413335   0.72704409   424551 
 3763000   0.60791691   -2.7428647   -2.7428647   -2.0136797  0.036156442   -2.7428647   0.72918499   424551 
 3764000   0.60766991   -2.7424065   -2.7424065   -2.0135178  0.040180117   -2.7424065   0.72888871   424551 
 3765000   0.60722451   -2.7422387   -2.7422387   -2.0138843  0.041424151   -2.7422387   0.72835446   424551 
 3766000   0.60761547   -2.7425386   -2.7425386   -2.0137152  0.021075703   -2.7425386   0.72882342   424551 
 3767000   0.60651798    -2.741793    -2.741793    -2.014286  0.040779612    -2.741793     0.727507   424551 
 3768000   0.60431701   -2.7395032   -2.7395032   -2.0146362  0.037152583   -2.7395032   0.72486697   424551 
 3769000   0.60609085   -2.7412025   -2.7412025   -2.0142078  0.034310616   -2.7412025   0.72699466   424551 
 3770000   0.60659243   -2.7418655   -2.7418655   -2.0142692  0.041305976   -2.7418655   0.72759629   424551 
 3771000   0.60590058   -2.7412463   -2.7412463   -2.0144799  0.027672732   -2.7412463   0.72676644   424551 
 3772000   0.60663623   -2.7417054   -2.7417054   -2.0140566  0.039832187   -2.7417054   0.72764884   424551 
 3773000   0.60779733    -2.742874    -2.742874   -2.0138325  0.045671653    -2.742874   0.72904155   424551 
 3774000   0.60803431   -2.7437046   -2.7437046   -2.0143788  0.037522052   -2.7437046   0.72932581   424551 
 3775000   0.60819759   -2.7439891   -2.7439891   -2.0144674  0.034551677   -2.7439891   0.72952166   424551 
 3776000   0.60734913   -2.7433067   -2.7433067   -2.0148028  0.041336207   -2.7433067   0.72850394   424551 
 3777000   0.60728843   -2.7431228   -2.7431228   -2.0146917  0.036136278   -2.7431228   0.72843113   424551 
 3778000   0.60679626   -2.7429676   -2.7429676   -2.0151268  0.043443816   -2.7429676   0.72784079   424551 
 3779000   0.60792469   -2.7436989   -2.7436989   -2.0145046  0.042570018   -2.7436989   0.72919432   424551 
 3780000   0.60829585    -2.744769    -2.744769   -2.0151295  0.033153043    -2.744769   0.72963952   424551 
 3781000   0.60655667   -2.7429786   -2.7429786   -2.0154252  0.030598805   -2.7429786   0.72755341   424551 
 3782000   0.60712229   -2.7436673   -2.7436673   -2.0154354  0.041482183   -2.7436673   0.72823186   424551 
 3783000   0.60732046   -2.7436185   -2.7436185   -2.0151489  0.037234676   -2.7436185   0.72846956   424551 
 3784000   0.60752655   -2.7435801   -2.7435801   -2.0148633   0.03280357   -2.7435801   0.72871675   424551 
 3785000   0.60730648   -2.7431398   -2.7431398    -2.014687  0.035778393   -2.7431398   0.72845279   424551 
 3786000   0.60716321   -2.7430088   -2.7430088   -2.0147278  0.032493539   -2.7430088   0.72828094   424551 
 3787000   0.60606067   -2.7425566   -2.7425566   -2.0155981  0.040248811   -2.7425566   0.72695846   424551 
 3788000   0.60689599   -2.7434013   -2.7434013   -2.0154409  0.033983291   -2.7434013   0.72796041   424551 
 3789000   0.60574224   -2.7427184   -2.7427184   -2.0161419  0.031473262   -2.7427184   0.72657651   424551 
 3790000   0.60508961   -2.7414861   -2.7414861   -2.0156924  0.036106245   -2.7414861   0.72579369   424551 
 3791000   0.60612894   -2.7426357   -2.7426357   -2.0155953  0.040461787   -2.7426357   0.72704035   424551 
 3792000   0.60625759   -2.7428326   -2.7428326   -2.0156379  0.044093866   -2.7428326   0.72719466   424551 
 3793000   0.60657336   -2.7430397   -2.7430397   -2.0154662  0.035385157   -2.7430397   0.72757342   424551 
 3794000   0.60798124   -2.7443371   -2.7443371   -2.0150749   0.03194727   -2.7443371   0.72926214   424551 
 3795000   0.60676301   -2.7429288   -2.7429288   -2.0151279  0.037101287   -2.7429288    0.7278009   424551 
 3796000   0.60636767   -2.7429376   -2.7429376   -2.0156109  0.038123181   -2.7429376    0.7273267   424551 
 3797000   0.60713012   -2.7434013   -2.7434013     -2.01516  0.051275572   -2.7434013   0.72824125   424551 
 3798000   0.60731386   -2.7436772   -2.7436772   -2.0152155  0.037665281   -2.7436772   0.72846164   424551 
 3799000   0.60717236   -2.7446024   -2.7446024   -2.0163105  0.031078261   -2.7446024   0.72829191   424551 
 3800000   0.60752386   -2.7437197   -2.7437197   -2.0150062   0.03290392   -2.7437197   0.72871353   424551 
 3801000   0.60708325   -2.7441263   -2.7441263   -2.0159413  0.043456267   -2.7441263   0.72818503   424551 
 3802000   0.60672683   -2.7431342   -2.7431342   -2.0153767  0.037576292   -2.7431342   0.72775751   424551 
 3803000   0.60645977   -2.7421726   -2.7421726   -2.0147355  0.039527773   -2.7421726   0.72743717   424551 
 3804000   0.60699899   -2.7426483   -2.7426483   -2.0145643  0.030330746   -2.7426483   0.72808396   424551 
 3805000   0.60704914   -2.7430303   -2.7430303   -2.0148862  0.038639321   -2.7430303   0.72814411   424551 
 3806000   0.60597036   -2.7420037   -2.7420037   -2.0151535   0.04232463   -2.7420037   0.72685014   424551 
 3807000   0.60643452    -2.742682    -2.742682   -2.0152751  0.043998785    -2.742682   0.72740688   424551 
 3808000   0.60725607   -2.7438474   -2.7438474    -2.015455  0.041418301   -2.7438474   0.72839232   424551 
 3809000   0.60681146   -2.7432296   -2.7432296   -2.0153706  0.030971059   -2.7432296   0.72785902   424551 
 3810000   0.60716269   -2.7428177   -2.7428177   -2.0145374  0.043845785   -2.7428177   0.72828031   424551 
 3811000   0.60657289   -2.7418448   -2.7418448   -2.0142719  0.029936957   -2.7418448   0.72757286   424551 
 3812000   0.60681768   -2.7414375   -2.7414375    -2.013571  0.029748027   -2.7414375   0.72786648   424551 
 3813000   0.60725461   -2.7423348   -2.7423348   -2.0139442  0.029302194   -2.7423348   0.72839057   424551 
 3814000   0.60687974   -2.7418679   -2.7418679    -2.013927  0.035651704   -2.7418679   0.72794092   424551 
 3815000   0.60693444   -2.7421349   -2.7421349   -2.0141284   0.03682367   -2.7421349   0.72800653   424551 
 3816000   0.60668995   -2.7423655   -2.7423655   -2.0146523  0.036553841   -2.7423655   0.72771326   424551 
 3817000   0.60720862   -2.7420857   -2.7420857   -2.0137503  0.046069742   -2.7420857   0.72833541   424551 
 3818000   0.60706353   -2.7424368   -2.7424368   -2.0142754  0.039317544   -2.7424368   0.72816138   424551 
 3819000   0.60671312   -2.7423195   -2.7423195   -2.0145784  0.030691162   -2.7423195   0.72774107   424551 
 3820000   0.60628867   -2.7421419   -2.7421419     -2.01491  0.035652198   -2.7421419   0.72723194   424551 
 3821000    0.6067983   -2.7430696   -2.7430696   -2.0152264  0.033768772   -2.7430696   0.72784323   424551 
 3822000   0.60617927   -2.7417665   -2.7417665   -2.0146658  0.027924636   -2.7417665   0.72710072   424551 
 3823000   0.60738009    -2.743406    -2.743406   -2.0148649  0.038775446    -2.743406   0.72854108   424551 
 3824000   0.60679565   -2.7424476   -2.7424476   -2.0146075  0.034994892   -2.7424476   0.72784006   424551 
 3825000   0.60832749   -2.7437435   -2.7437435    -2.014066  0.039480479   -2.7437435   0.72967746   424551 
 3826000     0.607347   -2.7433875   -2.7433875   -2.0148861   0.04356652   -2.7433875   0.72850138   424551 
 3827000   0.60702632    -2.743569    -2.743569   -2.0154522  0.035848393    -2.743569   0.72811674   424551 
 3828000   0.60708885   -2.7443058   -2.7443058    -2.016114  0.036607577   -2.7443058   0.72819175   424551 
 3829000   0.60757521   -2.7453899   -2.7453899   -2.0166148  0.033898323   -2.7453899   0.72877512   424551 
 3830000   0.60729235   -2.7445531   -2.7445531   -2.0161172  0.029880426   -2.7445531   0.72843584   424551 
 3831000   0.60914941   -2.7463347   -2.7463347   -2.0156714  0.039408147   -2.7463347   0.73066335   424551 
 3832000   0.60657932   -2.7442528   -2.7442528   -2.0166722  0.039244138   -2.7442528   0.72758057   424551 
 3833000    0.6067807   -2.7452909   -2.7452909   -2.0174687  0.045081768   -2.7452909   0.72782212   424551 
 3834000   0.60792264    -2.746147    -2.746147   -2.0169551  0.028604948    -2.746147   0.72919186   424551 
 3835000   0.60744617   -2.7462777   -2.7462777   -2.0176573  0.033241396   -2.7462777   0.72862034   424551 
 3836000   0.60737474    -2.745991    -2.745991   -2.0174563  0.041596247    -2.745991   0.72853467   424551 
 3837000   0.60666401     -2.74603     -2.74603   -2.0183479  0.032268668     -2.74603   0.72768215   424551 
 3838000   0.60692761   -2.7469397   -2.7469397   -2.0189413  0.029301561   -2.7469397   0.72799834   424551 
 3839000   0.60628084    -2.745161    -2.745161   -2.0179384  0.044152565    -2.745161   0.72722255   424551 
 3840000   0.60817593   -2.7473399   -2.7473399   -2.0178443  0.039943644   -2.7473399   0.72949568   424551 
 3841000   0.60710883   -2.7468389   -2.7468389   -2.0186232  0.041414671   -2.7468389   0.72821571   424551 
 3842000   0.60744693   -2.7468758   -2.7468758   -2.0182545  0.036436891   -2.7468758   0.72862125   424551 
 3843000   0.60756323   -2.7462985   -2.7462985   -2.0175377  0.036665892   -2.7462985   0.72876076   424551 
 3844000   0.60860065     -2.74724     -2.74724   -2.0172349  0.029812733     -2.74724   0.73000512   424551 
 3845000   0.60736468   -2.7461659   -2.7461659   -2.0176433  0.042426181   -2.7461659    0.7285226   424551 
 3846000   0.60612283   -2.7441555   -2.7441555   -2.0171224  0.038187892   -2.7441555   0.72703302   424551 
 3847000   0.60671685   -2.7444217   -2.7444217   -2.0166762  0.044379396   -2.7444217   0.72774554   424551 
 3848000   0.60775803   -2.7446611   -2.7446611   -2.0156667  0.032735805   -2.7446611   0.72899442   424551 
 3849000   0.60664283   -2.7432894   -2.7432894   -2.0156326  0.029700485   -2.7432894   0.72765676   424551 
 3850000   0.60672571   -2.7438114   -2.7438114   -2.0160553   0.04393347   -2.7438114   0.72775616   424551 
 3851000   0.60760249   -2.7439321   -2.7439321   -2.0151243  0.038702924   -2.7439321   0.72880784   424551 
 3852000   0.60759527   -2.7445009   -2.7445009   -2.0157017  0.028883347   -2.7445009   0.72879919   424551 
 3853000   0.60670927   -2.7434563   -2.7434563   -2.0157198  0.035482017   -2.7434563   0.72773645   424551 
 3854000    0.6061574   -2.7428904   -2.7428904   -2.0158159  0.041159297   -2.7428904   0.72707449   424551 
 3855000   0.60676799   -2.7436292   -2.7436292   -2.0158224  0.031425824   -2.7436292   0.72780688   424551 
 3856000   0.60692009   -2.7439108   -2.7439108   -2.0159215  0.042817563   -2.7439108   0.72798931   424551 
 3857000   0.60723752   -2.7438654   -2.7438654   -2.0154953   0.03019211   -2.7438654   0.72837008   424551 
 3858000   0.60685061    -2.743109    -2.743109    -2.015203   0.03274821    -2.743109   0.72790598   424551 
 3859000   0.60729129   -2.7425536   -2.7425536   -2.0141191   0.03806331   -2.7425536   0.72843456   424551 
 3860000   0.60797065   -2.7437632   -2.7437632   -2.0145138  0.025558724   -2.7437632   0.72924945   424551 
 3861000   0.60692328   -2.7434032   -2.7434032   -2.0154101   0.03197044   -2.7434032   0.72799315   424551 
 3862000    0.6062886    -2.742229    -2.742229   -2.0149972  0.032625165    -2.742229   0.72723186   424551 
 3863000   0.60611581    -2.742633    -2.742633   -2.0156084  0.033014505    -2.742633    0.7270246   424551 
 3864000   0.60702752   -2.7430479   -2.7430479   -2.0149297  0.040952124   -2.7430479   0.72811819   424551 
 3865000   0.60663051   -2.7421795   -2.7421795   -2.0145375  0.036772771   -2.7421795   0.72764197   424551 
 3866000    0.6070509   -2.7422268   -2.7422268   -2.0140805  0.042313184   -2.7422268   0.72814623   424551 
 3867000   0.60732927   -2.7426874   -2.7426874   -2.0142073  0.023437784   -2.7426874   0.72848013   424551 
 3868000    0.6066951    -2.742886    -2.742886   -2.0151665  0.040415247    -2.742886   0.72771945   424551 
 3869000   0.60922043   -2.7455663   -2.7455663   -2.0148178  0.040984721   -2.7455663   0.73074854   424551 
 3870000   0.60648946   -2.7424902   -2.7424902   -2.0150175  0.042790865   -2.7424902   0.72747279   424551 
 3871000   0.60769699   -2.7442542   -2.7442542   -2.0153331  0.044115994   -2.7442542   0.72892119   424551 
 3872000    0.6077311   -2.7448025   -2.7448025   -2.0158403  0.029714732   -2.7448025   0.72896212   424551 
 3873000   0.60677935    -2.743835    -2.743835   -2.0160145  0.042521879    -2.743835    0.7278205   424551 
 3874000      0.60577   -2.7434379   -2.7434379   -2.0168281  0.034284408   -2.7434379   0.72660981   424551 
 3875000   0.60775985   -2.7444326   -2.7444326    -2.015436  0.038487786   -2.7444326    0.7289966   424551 
 3876000   0.60787014   -2.7448639   -2.7448639    -2.015735  0.041962682   -2.7448639   0.72912889   424551 
 3877000   0.60802829   -2.7450876   -2.7450876    -2.015769  0.044484456   -2.7450876   0.72931858   424551 
 3878000   0.60689636    -2.743855    -2.743855   -2.0158941  0.032884889    -2.743855   0.72796085   424551 
 3879000   0.60668204   -2.7431585   -2.7431585   -2.0154547  0.037902086   -2.7431585   0.72770379   424551 
 3880000   0.60793866   -2.7448789   -2.7448789   -2.0156678  0.034451682   -2.7448789   0.72921107   424551 
 3881000   0.60702015   -2.7442219   -2.7442219   -2.0161126  0.050347951   -2.7442219   0.72810934   424551 
 3882000   0.60890289   -2.7459774   -2.7459774   -2.0156097  0.033852825   -2.7459774   0.73036765   424551 
 3883000   0.60860972   -2.7456635   -2.7456635   -2.0156475  0.034434259   -2.7456635     0.730016   424551 
 3884000   0.60716675   -2.7442376   -2.7442376   -2.0159524  0.039244052   -2.7442376   0.72828519   424551 
 3885000   0.60767865   -2.7453557   -2.7453557   -2.0164565  0.044320823   -2.7453557    0.7288992   424551 
 3886000   0.60698525   -2.7441493   -2.7441493   -2.0160818  0.041851256   -2.7441493   0.72806747   424551 
 3887000    0.6076234   -2.7454352   -2.7454352   -2.0166022  0.053982441   -2.7454352   0.72883293   424551 
 3888000   0.60556474   -2.7441708   -2.7441708   -2.0178072  0.033113212   -2.7441708    0.7263636   424551 
 3889000   0.60713603   -2.7461121   -2.7461121   -2.0178638  0.028231648   -2.7461121   0.72824833   424551 
 3890000   0.60720159    -2.745501    -2.745501    -2.017174  0.031977204    -2.745501   0.72832698   424551 
 3891000   0.60685625   -2.7452181   -2.7452181   -2.0173054  0.035132733   -2.7452181   0.72791274   424551 
 3892000   0.60623015   -2.7444264   -2.7444264   -2.0172646  0.028339187   -2.7444264   0.72716175   424551 
 3893000   0.60612822   -2.7456787   -2.7456787   -2.0186392  0.037605833   -2.7456787   0.72703949   424551 
 3894000   0.60621835   -2.7462837   -2.7462837   -2.0191361  0.023829181   -2.7462837   0.72714759   424551 
 3895000   0.60687464    -2.746761    -2.746761   -2.0188262  0.027181828    -2.746761   0.72793481   424551 
 3896000   0.60651831   -2.7463657   -2.7463657   -2.0188583  0.033376863   -2.7463657   0.72750739   424551 
 3897000   0.60666065   -2.7462742   -2.7462742   -2.0185961  0.031709803   -2.7462742   0.72767813   424551 
 3898000   0.60672071   -2.7467245   -2.7467245   -2.0189743  0.045905047   -2.7467245   0.72775017   424551 
 3899000   0.60681665   -2.7469197   -2.7469197   -2.0190544  0.033156378   -2.7469197   0.72786525   424551 
 3900000   0.60681996   -2.7463127   -2.7463127   -2.0184435    0.0318651   -2.7463127   0.72786922   424551 
 3901000    0.6072392   -2.7471981   -2.7471981    -2.018826  0.037003779   -2.7471981   0.72837208   424551 
 3902000   0.60657855    -2.746742    -2.746742   -2.0191623  0.038109249    -2.746742   0.72757965   424551 
 3903000   0.60638998   -2.7472952   -2.7472952   -2.0199417  0.039396409   -2.7472952   0.72735346   424551 
 3904000   0.60622754     -2.74712     -2.74712   -2.0199614  0.039749855     -2.74712   0.72715862   424551 
 3905000    0.6065063   -2.7471688   -2.7471688   -2.0196758  0.037402334   -2.7471688   0.72749299   424551 
 3906000   0.60550027   -2.7454797   -2.7454797   -2.0191934  0.042849974   -2.7454797   0.72628627   424551 
 3907000   0.60546921   -2.7462224   -2.7462224   -2.0199734  0.041512109   -2.7462224   0.72624902   424551 
 3908000   0.60639262   -2.7469686   -2.7469686    -2.019612  0.035603792   -2.7469686   0.72735663   424551 
 3909000   0.60568855   -2.7461818   -2.7461818   -2.0196697  0.033478805   -2.7461818   0.72651211   424551 
 3910000   0.60649826   -2.7468251   -2.7468251   -2.0193418  0.038332178   -2.7468251   0.72748334   424551 
 3911000   0.60639542   -2.7460852   -2.7460852   -2.0187252  0.029846699   -2.7460852   0.72735998   424551 
 3912000   0.60755691   -2.7475349   -2.7475349   -2.0187818  0.040445685   -2.7475349   0.72875318   424551 
 3913000   0.60773755   -2.7477793   -2.7477793   -2.0188095  0.026063276   -2.7477793   0.72896985   424551 
 3914000   0.60487013   -2.7446807   -2.7446807   -2.0191502  0.039798217   -2.7446807   0.72553043   424551 
 3915000   0.60689804   -2.7472192   -2.7472192   -2.0192564  0.038950547   -2.7472192   0.72796287   424551 
 3916000   0.60669406   -2.7469857   -2.7469857   -2.0192675  0.035132022   -2.7469857    0.7277182   424551 
 3917000   0.60680509   -2.7467515   -2.7467515   -2.0189002  0.036366712   -2.7467515   0.72785138   424551 
 3918000   0.60673685   -2.7460532   -2.7460532   -2.0182837  0.040648946   -2.7460532   0.72776953   424551 
 3919000   0.60662301   -2.7474514   -2.7474514   -2.0198184   0.04343754   -2.7474514   0.72763297   424551 
 3920000   0.60596017   -2.7466274   -2.7466274   -2.0197895  0.036189363   -2.7466274   0.72683791   424551 
 3921000   0.60555009   -2.7463381   -2.7463381    -2.019992  0.035438986   -2.7463381   0.72634603   424551 
 3922000   0.60558382   -2.7464396   -2.7464396   -2.0200531  0.035413144   -2.7464396   0.72638648   424551 
 3923000   0.60654339   -2.7468325   -2.7468325    -2.019295  0.043677347   -2.7468325   0.72753747   424551 
 3924000   0.60686371   -2.7481375   -2.7481375   -2.0202158  0.037051255   -2.7481375   0.72792169   424551 
 3925000   0.60697994   -2.7480322   -2.7480322   -2.0199711  0.044923708   -2.7480322   0.72806111   424551 
 3926000    0.6064288   -2.7481614   -2.7481614   -2.0207613   0.03097085   -2.7481614   0.72740003   424551 
 3927000   0.60596114   -2.7484902   -2.7484902   -2.0216511   0.04253822   -2.7484902   0.72683907   424551 
 3928000    0.6070204   -2.7495162   -2.7495162   -2.0214066  0.047842684   -2.7495162   0.72810964   424551 
 3929000   0.60601245   -2.7478738   -2.7478738   -2.0209732  0.044325444   -2.7478738   0.72690062   424551 
 3930000   0.60551788   -2.7473071   -2.7473071   -2.0209997   0.03924778   -2.7473071    0.7263074   424551 
 3931000   0.60664894   -2.7474831   -2.7474831    -2.019819  0.040135219   -2.7474831   0.72766408   424551 
 3932000   0.60630006   -2.7469733   -2.7469733   -2.0197277  0.038796267   -2.7469733   0.72724561   424551 
 3933000   0.60629142   -2.7470417   -2.7470417   -2.0198065  0.046237469   -2.7470417   0.72723524   424551 
 3934000   0.60597845   -2.7469096   -2.7469096   -2.0200498  0.029442558   -2.7469096   0.72685985   424551 
 3935000   0.60738075   -2.7478607   -2.7478607   -2.0193188  0.031712421   -2.7478607   0.72854187   424551 
 3936000   0.60604456   -2.7457621   -2.7457621    -2.018823  0.047801505   -2.7457621   0.72693914   424551 
 3937000   0.60621264   -2.7460588   -2.7460588    -2.018918  0.035109857   -2.7460588   0.72714075   424551 
 3938000    0.6051489   -2.7438969   -2.7438969   -2.0180321  0.036022703   -2.7438969    0.7258648   424551 
 3939000   0.60516255   -2.7448341   -2.7448341   -2.0189529  0.035069363   -2.7448341   0.72588119   424551 
 3940000   0.60552936   -2.7452387   -2.7452387   -2.0189175  0.039054339   -2.7452387   0.72632117   424551 
 3941000   0.60557095   -2.7450496   -2.7450496   -2.0186785  0.041589715   -2.7450496   0.72637106   424551 
 3942000   0.60545102   -2.7453534   -2.7453534   -2.0191262  0.040027009   -2.7453534   0.72622719   424551 
 3943000   0.60581367   -2.7461678   -2.7461678   -2.0195056  0.044125699   -2.7461678   0.72666219   424551 
 3944000     0.605883   -2.7465241   -2.7465241   -2.0197788  0.043466543   -2.7465241   0.72674535   424551 
 3945000   0.60652719    -2.746562    -2.746562    -2.019044  0.031697341    -2.746562   0.72751805   424551 
 3946000   0.60555098   -2.7451307   -2.7451307   -2.0187836  0.037719079   -2.7451307   0.72634709   424551 
 3947000   0.60632585   -2.7464221   -2.7464221   -2.0191455  0.034740644   -2.7464221   0.72727653   424551 
 3948000   0.60726053   -2.7471683   -2.7471683   -2.0187706  0.052500553   -2.7471683   0.72839767   424551 
 3949000   0.60671284   -2.7462275   -2.7462275   -2.0184868  0.037766475   -2.7462275   0.72774073   424551 
 3950000   0.60717192   -2.7468421   -2.7468421   -2.0185508  0.031963957   -2.7468421   0.72829138   424551 
 3951000   0.60676731   -2.7461979   -2.7461979   -2.0183918  0.044766966   -2.7461979   0.72780607   424551 
 3952000   0.60704848   -2.7465294   -2.7465294   -2.0183861  0.038129234   -2.7465294   0.72814333   424551 
 3953000   0.60543485   -2.7447192   -2.7447192   -2.0185113  0.036484017   -2.7447192   0.72620781   424551 
 3954000   0.60757837   -2.7472267   -2.7472267   -2.0184478  0.032892574   -2.7472267   0.72877891   424551 
 3955000   0.60697749   -2.7470736   -2.7470736   -2.0190154  0.033588465   -2.7470736   0.72805817   424551 
 3956000   0.60641487   -2.7462395   -2.7462395   -2.0188562  0.038420408   -2.7462395   0.72738332   424551 
 3957000   0.60525393   -2.7455216   -2.7455216   -2.0195309  0.039195571   -2.7455216   0.72599079   424551 
 3958000   0.60656236   -2.7463957   -2.7463957   -2.0188355  0.041196171   -2.7463957   0.72756023   424551 
 3959000   0.60657985   -2.7456861   -2.7456861   -2.0181049    0.0322752   -2.7456861   0.72758121   424551 
 3960000   0.60712465   -2.7465551   -2.7465551   -2.0183204   0.04193462   -2.7465551   0.72823469   424551 
 3961000   0.60787264   -2.7475768   -2.7475768   -2.0184449  0.034079133   -2.7475768   0.72913188   424551 
 3962000   0.60697887   -2.7466839   -2.7466839   -2.0186241  0.036837228   -2.7466839   0.72805983   424551 
 3963000   0.60703826    -2.746104    -2.746104    -2.017973  0.046037937    -2.746104   0.72813106   424551 
 3964000   0.60697608   -2.7460059   -2.7460059   -2.0179494  0.021844759   -2.7460059   0.72805648   424551 
 3965000   0.60671468   -2.7458503   -2.7458503   -2.0181073  0.030445215   -2.7458503   0.72774294   424551 
 3966000   0.60575369   -2.7445199   -2.7445199   -2.0179297  0.036574437   -2.7445199   0.72659025   424551 
 3967000   0.60593937   -2.7451485   -2.7451485   -2.0183355  0.036175148   -2.7451485   0.72681296   424551 
 3968000   0.60580432   -2.7453504   -2.7453504   -2.0186995  0.025853469   -2.7453504   0.72665097   424551 
 3969000   0.60607865   -2.7456789   -2.7456789   -2.0186989  0.038040769   -2.7456789   0.72698003   424551 
 3970000   0.60592821   -2.7451987   -2.7451987   -2.0183992  0.046554044   -2.7451987   0.72679958   424551 
 3971000   0.60752915   -2.7458369   -2.7458369    -2.017117  0.035308831   -2.7458369   0.72871987   424551 
 3972000   0.60847256   -2.7472443   -2.7472443   -2.0173928  0.038381859   -2.7472443   0.72985148   424551 
 3973000   0.60655694   -2.7457209   -2.7457209   -2.0181672  0.037560237   -2.7457209   0.72755373   424551 
 3974000   0.60697893   -2.7463086   -2.7463086   -2.0182487  0.028247439   -2.7463086    0.7280599   424551 
 3975000   0.60785965   -2.7472677   -2.7472677   -2.0181514  0.037028405   -2.7472677    0.7291163   424551 
 3976000   0.60834054   -2.7480031   -2.7480031   -2.0183099  0.031041017   -2.7480031   0.72969312   424551 
 3977000   0.60828585    -2.747576    -2.747576   -2.0179485  0.037620748    -2.747576   0.72962752   424551 
 3978000    0.6066662   -2.7457171   -2.7457171   -2.0180323  0.042955583   -2.7457171   0.72768479   424551 
 3979000   0.60766718   -2.7473362   -2.7473362   -2.0184508  0.035975433   -2.7473362   0.72888544   424551 
 3980000   0.60764939   -2.7473033   -2.7473033   -2.0184392  0.036443726   -2.7473033    0.7288641   424551 
 3981000   0.60628903   -2.7461645   -2.7461645   -2.0189321  0.035534954   -2.7461645   0.72723237   424551 
 3982000   0.60598452   -2.7461961   -2.7461961    -2.019329  0.036258705   -2.7461961   0.72686712   424551 
 3983000   0.60489102   -2.7450496   -2.7450496   -2.0194942  0.028313361   -2.7450496   0.72555549   424551 
 3984000   0.60463918   -2.7459112   -2.7459112   -2.0206578  0.034073184   -2.7459112   0.72525341   424551 
 3985000   0.60577749   -2.7470523   -2.7470523   -2.0204335  0.039792855   -2.7470523    0.7266188   424551 
 3986000   0.60588269   -2.7467239   -2.7467239   -2.0199789  0.035267127   -2.7467239   0.72674498   424551 
 3987000   0.60707262   -2.7478348   -2.7478348   -2.0196625  0.039289162   -2.7478348   0.72817228   424551 
 3988000   0.60666629   -2.7473649   -2.7473649     -2.01968  0.036754114   -2.7473649   0.72768489   424551 
 3989000   0.60681215   -2.7477152   -2.7477152   -2.0198554  0.037511264   -2.7477152   0.72785984   424551 
 3990000   0.60630233   -2.7472519   -2.7472519   -2.0200035  0.034652858   -2.7472519   0.72724833   424551 
 3991000   0.60759502   -2.7489466   -2.7489466   -2.0201477  0.038603949   -2.7489466   0.72879888   424551 
 3992000   0.60672964   -2.7481812   -2.7481812   -2.0204203  0.036412402   -2.7481812   0.72776088   424551 
 3993000   0.60622126   -2.7485101   -2.7485101    -2.021359  0.026285166   -2.7485101   0.72715109   424551 
 3994000   0.60469112   -2.7472754   -2.7472754   -2.0219597  0.035204989   -2.7472754   0.72531571   424551 
 3995000   0.60539059   -2.7475788   -2.7475788   -2.0214241  0.039006588   -2.7475788   0.72615471   424551 
 3996000   0.60709967   -2.7500917   -2.7500917    -2.021887  0.030833174   -2.7500917   0.72820472   424551 
 3997000   0.60508231   -2.7478223   -2.7478223   -2.0220374  0.033059348   -2.7478223   0.72578494   424551 
 3998000   0.60441064   -2.7469033   -2.7469033   -2.0219241  0.026701206   -2.7469033   0.72497928   424551 
 3999000   0.60617686   -2.7482105   -2.7482105   -2.0211127  0.034388354   -2.7482105   0.72709782   424551 
 4000000   0.60585886     -2.74789     -2.74789   -2.0211736  0.031088517     -2.74789   0.72671639   424551 
 4001000    0.6057377   -2.7477204   -2.7477204   -2.0211493   0.04179877   -2.7477204   0.72657106   424551 
 4002000   0.60688497   -2.7495002   -2.7495002    -2.021553  0.047976419   -2.7495002   0.72794719   424551 
 4003000   0.60528895   -2.7468208   -2.7468208    -2.020788  0.038000233   -2.7468208    0.7260328   424551 
 4004000   0.60656961   -2.7481962   -2.7481962   -2.0206273  0.037763662   -2.7481962   0.72756893   424551 
 4005000   0.60740198    -2.749501    -2.749501   -2.0209337  0.031053425    -2.749501   0.72856734   424551 
 4006000   0.60721577   -2.7486112   -2.7486112   -2.0202673  0.037978166   -2.7486112   0.72834398   424551 
 4007000   0.60708106   -2.7490227   -2.7490227   -2.0208403  0.038576668   -2.7490227    0.7281824   424551 
 4008000   0.60629554   -2.7490247   -2.7490247   -2.0217845  0.042877527   -2.7490247   0.72724018   424551 
 4009000   0.60571333   -2.7481831   -2.7481831   -2.0216413  0.039904227   -2.7481831   0.72654183   424551 
 4010000   0.60762622   -2.7497741   -2.7497741   -2.0209378  0.034550846   -2.7497741   0.72883631   424551 
 4011000   0.60608367   -2.7482908   -2.7482908   -2.0213048  0.039239112   -2.7482908   0.72698605   424551 
 4012000   0.60570177   -2.7480294   -2.7480294   -2.0215014  0.045015873   -2.7480294   0.72652796   424551 
 4013000   0.60544317   -2.7478828   -2.7478828    -2.021665  0.035579775   -2.7478828   0.72621778   424551 
 4014000   0.60718973   -2.7494065   -2.7494065   -2.0210938  0.040990188   -2.7494065   0.72831275   424551 
 4015000   0.60715083   -2.7489682   -2.7489682   -2.0207021  0.046839446   -2.7489682   0.72826608   424551 
 4016000    0.6079003   -2.7500821   -2.7500821    -2.020917  0.039035638   -2.7500821   0.72916506   424551 
 4017000   0.60727477   -2.7493398   -2.7493398   -2.0209251  0.030641136   -2.7493398   0.72841475   424551 
 4018000   0.60707847   -2.7495266   -2.7495266   -2.0213473  0.035690162   -2.7495266   0.72817929   424551 
 4019000   0.60625358    -2.748601    -2.748601   -2.0214111   0.03554399    -2.748601   0.72718985   424551 
 4020000   0.60483646   -2.7469637   -2.7469637   -2.0214737  0.036226512   -2.7469637   0.72549004   424551 
 4021000   0.60630546   -2.7492025   -2.7492025   -2.0219505  0.019544501   -2.7492025   0.72725209   424551 
 4022000   0.60485013   -2.7472794   -2.7472794    -2.021773  0.033150111   -2.7472794   0.72550644   424551 
 4023000   0.60641418   -2.7484435   -2.7484435    -2.021061  0.038419142   -2.7484435   0.72738249   424551 
 4024000   0.60549416   -2.7479499   -2.7479499    -2.021671  0.036058486   -2.7479499   0.72627894   424551 
 4025000   0.60596229   -2.7482031   -2.7482031   -2.0213626   0.03402126   -2.7482031   0.72684045   424551 
 4026000   0.60627478   -2.7482479   -2.7482479   -2.0210327  0.029697359   -2.7482479   0.72721528   424551 
 4027000   0.60724045   -2.7488961   -2.7488961   -2.0205225  0.027999457   -2.7488961   0.72837359   424551 
 4028000    0.6062799    -2.748216    -2.748216   -2.0209945  0.033297329    -2.748216   0.72722143   424551 
 4029000   0.60559914   -2.7474678   -2.7474678    -2.021063  0.023138702   -2.7474678   0.72640486   424551 
 4030000   0.60650829   -2.7484763   -2.7484763   -2.0209809  0.049899748   -2.7484763   0.72749538   424551 
 4031000   0.60554312   -2.7474535   -2.7474535   -2.0211158  0.041080382   -2.7474535   0.72633767   424551 
 4032000   0.60558936   -2.7485611   -2.7485611    -2.022168   0.04139331   -2.7485611   0.72639313   424551 
 4033000   0.60723926   -2.7512848   -2.7512848   -2.0229126  0.031235432   -2.7512848   0.72837216   424551 
 4034000   0.60693274   -2.7500931   -2.7500931   -2.0220886  0.044414821   -2.7500931    0.7280045   424551 
 4035000    0.6076881    -2.751003    -2.751003   -2.0220925   0.03868622    -2.751003   0.72891053   424551 
 4036000   0.60679591   -2.7499275   -2.7499275   -2.0220872   0.04209571   -2.7499275   0.72784037   424551 
 4037000   0.60770525   -2.7502073   -2.7502073   -2.0212762  0.043448627   -2.7502073   0.72893111   424551 
 4038000   0.60898904    -2.752301    -2.752301   -2.0218301  0.040089832    -2.752301   0.73047098   424551 
 4039000   0.60691743   -2.7494453   -2.7494453   -2.0214591  0.041139518   -2.7494453   0.72798613   424551 
 4040000   0.60734333    -2.749607    -2.749607   -2.0211101   0.03381563    -2.749607   0.72849699   424551 
 4041000   0.60891141   -2.7516892   -2.7516892   -2.0213113  0.043690242   -2.7516892   0.73037787   424551 
 4042000   0.60669053   -2.7486096   -2.7486096   -2.0208956   0.04849738   -2.7486096   0.72771396   424551 
 4043000   0.60758846   -2.7504126   -2.7504126   -2.0216216  0.040594675   -2.7504126   0.72879101   424551 
 4044000   0.60716718    -2.749885    -2.749885   -2.0215993  0.037634642    -2.749885    0.7282857   424551 
 4045000   0.60596612   -2.7485354   -2.7485354   -2.0216903  0.035287507   -2.7485354   0.72684505   424551 
 4046000   0.60513912   -2.7479035   -2.7479035   -2.0220504  0.038893729   -2.7479035   0.72585308   424551 
 4047000   0.60471333   -2.7476794   -2.7476794    -2.022337  0.049361176   -2.7476794   0.72534235   424551 
 4048000   0.60546488   -2.7481115   -2.7481115   -2.0218677  0.032684501   -2.7481115   0.72624382   424551 
 4049000   0.60393722   -2.7468854   -2.7468854   -2.0224739  0.033851308   -2.7468854   0.72441143   424551 
 4050000   0.60438825   -2.7469035   -2.7469035    -2.021951  0.035036517   -2.7469035   0.72495242   424551 
 4051000   0.60546209    -2.747912    -2.747912   -2.0216715  0.037885082    -2.747912   0.72624048   424551 
 4052000   0.60456618   -2.7465285   -2.7465285   -2.0213626  0.035135474   -2.7465285   0.72516584   424551 
 4053000   0.60569292   -2.7485736   -2.7485736   -2.0220562   0.03123357   -2.7485736   0.72651736   424551 
 4054000   0.60613641   -2.7490917   -2.7490917   -2.0220424  0.030200052   -2.7490917   0.72704931   424551 
 4055000   0.60574858   -2.7495821   -2.7495821   -2.0229979  0.033163094   -2.7495821   0.72658412   424551 
 4056000     0.605606   -2.7494558   -2.7494558   -2.0230427  0.030012706   -2.7494558    0.7264131   424551 
 4057000   0.60660601    -2.750503    -2.750503   -2.0228904  0.035766718    -2.750503   0.72761258   424551 
 4058000   0.60615027   -2.7507959   -2.7507959   -2.0237299  0.036518689   -2.7507959   0.72706593   424551 
 4059000   0.60591077   -2.7505889   -2.7505889   -2.0238103  0.046759493   -2.7505889   0.72677866   424551 
 4060000   0.60694483   -2.7514126   -2.7514126   -2.0233936   0.04131816   -2.7514126   0.72801899   424551 
 4061000   0.60683051   -2.7510376   -2.7510376   -2.0231558  0.030696395   -2.7510376   0.72788187   424551 
 4062000   0.60705264   -2.7506547   -2.7506547   -2.0225064  0.044904074   -2.7506547   0.72814831   424551 
 4063000   0.60815501   -2.7520075   -2.7520075   -2.0225369   0.05035344   -2.7520075   0.72947059   424551 
 4064000   0.60747945   -2.7521835   -2.7521835   -2.0235232  0.040184863   -2.7521835   0.72866026   424551 
 4065000   0.60633033    -2.750626    -2.750626   -2.0233441  0.043493924    -2.750626   0.72728191   424551 
 4066000   0.60729955   -2.7519701   -2.7519701   -2.0235256  0.050880834   -2.7519701   0.72844447   424551 
 4067000   0.60737496   -2.7524497   -2.7524497   -2.0239148  0.037472932   -2.7524497   0.72853493   424551 
 4068000   0.60608012   -2.7509214   -2.7509214   -2.0239396  0.030958104   -2.7509214   0.72698179   424551 
 4069000   0.60625062    -2.751192    -2.751192   -2.0240057  0.032185992    -2.751192    0.7271863   424551 
 4070000    0.6056086   -2.7503273   -2.7503273   -2.0239111  0.035323658   -2.7503273   0.72641621   424551 
 4071000   0.60587351   -2.7515889   -2.7515889    -2.024855  0.032608394   -2.7515889   0.72673396   424551 
 4072000   0.60640569   -2.7514511   -2.7514511   -2.0240788  0.048514249   -2.7514511   0.72737231   424551 
 4073000   0.60491982   -2.7501549   -2.7501549   -2.0245649  0.040977996   -2.7501549   0.72559003   424551 
 4074000   0.60533434   -2.7509388   -2.7509388   -2.0248516  0.041369902   -2.7509388   0.72608725   424551 
 4075000   0.60579745   -2.7519376   -2.7519376   -2.0252948  0.031250934   -2.7519376   0.72664274   424551 
 4076000   0.60545663   -2.7508192   -2.7508192   -2.0245852  0.037706434   -2.7508192   0.72623392   424551 
 4077000   0.60750752   -2.7522427   -2.7522427   -2.0235488  0.047571197   -2.7522427   0.72869393   424551 
 4078000   0.60660339   -2.7510257   -2.7510257   -2.0234162  0.034619786   -2.7510257   0.72760944   424551 
 4079000   0.60527775   -2.7497531   -2.7497531   -2.0237338  0.038684731   -2.7497531   0.72601936   424551 
 4080000   0.60633986   -2.7512347   -2.7512347   -2.0239414  0.041271407   -2.7512347   0.72729334   424551 
 4081000    0.6056543   -2.7498822   -2.7498822   -2.0234112  0.042393859   -2.7498822   0.72647103   424551 
 4082000   0.60610584   -2.7507433   -2.7507433   -2.0237307  0.031271506   -2.7507433   0.72701264   424551 
 4083000   0.60491051   -2.7500948   -2.7500948   -2.0245159   0.03759768   -2.7500948   0.72557887   424551 
 4084000   0.60528512   -2.7502804   -2.7502804   -2.0242522  0.035845994   -2.7502804   0.72602821   424551 
 4085000   0.60557209   -2.7502742   -2.7502742   -2.0239018  0.047422819   -2.7502742   0.72637241   424551 
 4086000   0.60610836   -2.7514288   -2.7514288   -2.0244131  0.028798161   -2.7514288   0.72701566   424551 
 4087000   0.60768994   -2.7522569   -2.7522569   -2.0233441  0.040808362   -2.7522569   0.72891274   424551 
 4088000   0.60580999   -2.7502682   -2.7502682   -2.0236104  0.039283281   -2.7502682   0.72665778   424551 
 4089000   0.60550613   -2.7507014   -2.7507014   -2.0244081  0.049137406   -2.7507014    0.7262933   424551 
 4090000   0.60573473   -2.7509389   -2.7509389   -2.0243714  0.040764884   -2.7509389    0.7265675   424551 
 4091000   0.60662083   -2.7517682   -2.7517682   -2.0241379  0.039284384   -2.7517682   0.72763036   424551 
 4092000   0.60546791   -2.7507383   -2.7507383   -2.0244908  0.036401647   -2.7507383   0.72624745   424551 
 4093000   0.60448267   -2.7498429   -2.7498429   -2.0247772  0.047326668   -2.7498429   0.72506567   424551 
 4094000   0.60579333    -2.752097    -2.752097   -2.0254592  0.041543725    -2.752097    0.7266378   424551 
 4095000   0.60596385   -2.7517753   -2.7517753   -2.0249329  0.036932374   -2.7517753   0.72684233   424551 
 4096000   0.60643615   -2.7528731   -2.7528731   -2.0254642  0.039909538   -2.7528731   0.72740884   424551 
 4097000   0.60661901   -2.7528966   -2.7528966   -2.0252684  0.047224565   -2.7528966   0.72762818   424551 
 4098000    0.6067887   -2.7529557   -2.7529557    -2.025124  0.029945542   -2.7529557   0.72783172   424551 
 4099000   0.60583972   -2.7516886   -2.7516886   -2.0249952  0.044367476   -2.7516886   0.72669343   424551 
 4100000   0.60640028   -2.7523835   -2.7523835   -2.0250177  0.038467384   -2.7523835   0.72736582   424551 
 4101000   0.60805241   -2.7538265   -2.7538265    -2.024479  0.039735165   -2.7538265   0.72934751   424551 
 4102000   0.60745024   -2.7521472   -2.7521472    -2.023522  0.034144118   -2.7521472   0.72862523   424551 
 4103000   0.60551685   -2.7508238   -2.7508238   -2.0245176  0.027787567   -2.7508238   0.72630615   424551 
 4104000   0.60697346   -2.7526126   -2.7526126   -2.0245593  0.044190063   -2.7526126   0.72805333   424551 
 4105000   0.60702392   -2.7521484   -2.7521484   -2.0240345  0.040737379   -2.7521484   0.72811387   424551 
 4106000   0.60719102   -2.7530061   -2.7530061   -2.0246918  0.034257692   -2.7530061   0.72831429   424551 
 4107000   0.60701168   -2.7523608   -2.7523608   -2.0242616  0.040531243   -2.7523608   0.72809917   424551 
 4108000     0.606204   -2.7514766   -2.7514766   -2.0243463  0.046446236   -2.7514766   0.72713038   424551 
 4109000   0.60651207   -2.7518262   -2.7518262   -2.0243263  0.036787499   -2.7518262   0.72749991   424551 
 4110000   0.60587902   -2.7514486   -2.7514486   -2.0247081  0.039987525   -2.7514486   0.72674057   424551 
 4111000   0.60601072   -2.7512553   -2.7512553   -2.0243567  0.029617595   -2.7512553   0.72689854   424551 
 4112000    0.6056137   -2.7512867   -2.7512867   -2.0248644  0.036836784   -2.7512867   0.72642233   424551 
 4113000   0.60602226   -2.7517633   -2.7517633   -2.0248509  0.022072582   -2.7517633   0.72691239   424551 
 4114000   0.60637864   -2.7519365   -2.7519365   -2.0245966  0.022994668   -2.7519365   0.72733986   424551 
 4115000   0.60580058   -2.7509468   -2.7509468   -2.0243004  0.032778005   -2.7509468   0.72664648   424551 
 4116000   0.60572894   -2.7512908   -2.7512908   -2.0247302  0.042605383   -2.7512908   0.72656056   424551 
 4117000   0.60661101    -2.752206    -2.752206   -2.0245874   0.03416776    -2.752206   0.72761858   424551 
 4118000   0.60660768    -2.751928    -2.751928   -2.0243134  0.037900707    -2.751928   0.72761459   424551 
 4119000   0.60592164   -2.7513437   -2.7513437    -2.024552  0.041074265   -2.7513437    0.7267917   424551 
 4120000   0.60647495   -2.7514145   -2.7514145   -2.0239591  0.033827814   -2.7514145   0.72745538   424551 
 4121000   0.60546709   -2.7515928   -2.7515928   -2.0253464  0.040891663   -2.7515928   0.72624647   424551 
 4122000   0.60598996   -2.7520287   -2.7520287   -2.0251551  0.032634472   -2.7520287   0.72687364   424551 
 4123000   0.60664388   -2.7517077   -2.7517077   -2.0240497  0.041680814   -2.7517077   0.72765802   424551 
 4124000   0.60649706   -2.7513201   -2.7513201   -2.0238382  0.040806804   -2.7513201   0.72748191   424551 
 4125000   0.60725003   -2.7520487   -2.7520487   -2.0236636   0.04026103   -2.7520487   0.72838507   424551 
 4126000   0.60710699   -2.7516256   -2.7516256   -2.0234121  0.041536551   -2.7516256   0.72821351   424551 
 4127000   0.60533997   -2.7494064   -2.7494064   -2.0233124  0.034866993   -2.7494064   0.72609399   424551 
 4128000   0.60664243   -2.7514809   -2.7514809   -2.0238246  0.031472886   -2.7514809   0.72765627   424551 
 4129000   0.60775022   -2.7523663   -2.7523663   -2.0233813  0.035636677   -2.7523663   0.72898504   424551 
 4130000   0.60572351   -2.7498914   -2.7498914   -2.0233374  0.034702442   -2.7498914   0.72655404   424551 
 4131000   0.60638543   -2.7507737   -2.7507737   -2.0234257  0.034737724   -2.7507737   0.72734801   424551 
 4132000   0.60561946   -2.7497746   -2.7497746   -2.0233454  0.043212504   -2.7497746   0.72642924   424551 
 4133000   0.60566301    -2.749542    -2.749542   -2.0230606  0.032280383    -2.749542   0.72648148   424551 
 4134000    0.6060642   -2.7498704   -2.7498704   -2.0229077  0.039273705   -2.7498704   0.72696269   424551 
 4135000   0.60575613   -2.7497506   -2.7497506   -2.0231574  0.038420338   -2.7497506   0.72659317   424551 
 4136000   0.60696265   -2.7512989   -2.7512989   -2.0232586  0.049487886   -2.7512989   0.72804037   424551 
 4137000   0.60570586   -2.7497035   -2.7497035   -2.0231707  0.030967024   -2.7497035   0.72653287   424551 
 4138000   0.60580564   -2.7502094   -2.7502094   -2.0235569  0.039851944   -2.7502094   0.72665255   424551 
 4139000   0.60607216   -2.7505366   -2.7505366   -2.0235644  0.045406674   -2.7505366   0.72697224   424551 
 4140000    0.6077948   -2.7520583   -2.7520583   -2.0230198  0.039118441   -2.7520583   0.72903851   424551 
 4141000   0.60714062   -2.7510147   -2.7510147   -2.0227608  0.041782846   -2.7510147   0.72825384   424551 
 4142000   0.60737232   -2.7513383   -2.7513383   -2.0228066  0.036082007   -2.7513383   0.72853176   424551 
 4143000     0.607426    -2.751838    -2.751838   -2.0232419  0.041626118    -2.751838   0.72859615   424551 
 4144000   0.60677912   -2.7509119   -2.7509119   -2.0230917  0.041271997   -2.7509119   0.72782023   424551 
 4145000    0.6069666   -2.7513936   -2.7513936   -2.0233485  0.037538257   -2.7513936   0.72804511   424551 
 4146000   0.60704276   -2.7515849   -2.7515849   -2.0234485  0.047819714   -2.7515849   0.72813646   424551 
 4147000   0.60624733   -2.7512226   -2.7512226   -2.0240403  0.042579903   -2.7512226   0.72718236   424551 
 4148000   0.60662927   -2.7518326   -2.7518326   -2.0241921   0.03073867   -2.7518326   0.72764049   424551 
 4149000   0.60585559   -2.7505972   -2.7505972   -2.0238848  0.048606603   -2.7505972   0.72671247   424551 
 4150000   0.60618001    -2.750968    -2.750968   -2.0238664  0.028395235    -2.750968    0.7271016   424551 
 4151000   0.60531251    -2.750932    -2.750932   -2.0248709  0.036133269    -2.750932   0.72606106   424551 
 4152000   0.60474337   -2.7509305   -2.7509305   -2.0255522  0.033984698   -2.7509305   0.72537839   424551 
 4153000   0.60498427    -2.751182    -2.751182   -2.0255147  0.035723214    -2.751182   0.72566734   424551 
 4154000   0.60471431   -2.7500414   -2.7500414   -2.0246979  0.034623853   -2.7500414   0.72534352   424551 
 4155000   0.60492317   -2.7501422   -2.7501422   -2.0245482  0.035821508   -2.7501422   0.72559405   424551 
 4156000   0.60610767    -2.751217    -2.751217   -2.0242021  0.021170327    -2.751217   0.72701484   424551 
 4157000   0.60528216   -2.7497149   -2.7497149   -2.0236903  0.032039437   -2.7497149   0.72602465   424551 
 4158000   0.60625146   -2.7514368   -2.7514368   -2.0242495  0.027592894   -2.7514368   0.72718731   424551 
 4159000   0.60503338    -2.750466    -2.750466   -2.0247398  0.028619839    -2.750466   0.72572624   424551 
 4160000   0.60627664   -2.7513328   -2.7513328   -2.0241153  0.040904597   -2.7513328   0.72721751   424551 
 4161000   0.60687121    -2.752159    -2.752159   -2.0242283  0.040733666    -2.752159   0.72793068   424551 
 4162000   0.60570396   -2.7516749   -2.7516749   -2.0251443  0.025797753   -2.7516749   0.72653059   424551 
 4163000   0.60599486   -2.7513914   -2.7513914   -2.0245119  0.038527618   -2.7513914   0.72687953   424551 
 4164000   0.60625922   -2.7517771   -2.7517771   -2.0245805  0.031204305   -2.7517771   0.72719662   424551 
 4165000   0.60702618   -2.7532734   -2.7532734   -2.0251568  0.029843768   -2.7532734   0.72811657   424551 
 4166000   0.60616102    -2.753006    -2.753006   -2.0259272  0.033126798    -2.753006   0.72707882   424551 
 4167000   0.60657669   -2.7540157   -2.7540157   -2.0264383  0.032253931   -2.7540157   0.72757742   424551 
 4168000   0.60555527     -2.75281     -2.75281   -2.0264578  0.039702079     -2.75281   0.72635224   424551 
 4169000   0.60564021   -2.7528157   -2.7528157   -2.0263616  0.042855697   -2.7528157   0.72645413   424551 
 4170000   0.60605104   -2.7526595   -2.7526595   -2.0257126  0.040671244   -2.7526595   0.72694691   424551 
 4171000   0.60620667   -2.7524706   -2.7524706    -2.025337  0.046425763   -2.7524706   0.72713358   424551 
 4172000   0.60595957   -2.7525641   -2.7525641   -2.0257269  0.043607369   -2.7525641    0.7268372   424551 
 4173000   0.60566825   -2.7522675   -2.7522675   -2.0257798  0.044008443   -2.7522675   0.72648776   424551 
 4174000    0.6051267   -2.7515636   -2.7515636   -2.0257255  0.042736543   -2.7515636   0.72583818   424551 
 4175000   0.60545565   -2.7513478   -2.7513478   -2.0251151  0.036598563   -2.7513478   0.72623275   424551 
 4176000   0.60655616    -2.752356    -2.752356   -2.0248032  0.036281709    -2.752356    0.7275528   424551 
 4177000   0.60569605   -2.7509301   -2.7509301    -2.024409  0.033868899   -2.7509301    0.7265211   424551 
 4178000   0.60616963   -2.7514914   -2.7514914   -2.0244023  0.036345313   -2.7514914   0.72708916   424551 
 4179000   0.60676105   -2.7516578   -2.7516578   -2.0238593  0.051590446   -2.7516578   0.72779856   424551 
 4180000   0.60592258   -2.7513186   -2.7513186   -2.0245257  0.030367336   -2.7513186   0.72679283   424551 
 4181000   0.60539181   -2.7498186   -2.7498186   -2.0236624   0.04024747   -2.7498186   0.72615618   424551 
 4182000   0.60546875   -2.7507013   -2.7507013   -2.0244528  0.023937133   -2.7507013   0.72624846   424551 
 4183000   0.60534477   -2.7507014   -2.7507014   -2.0246017  0.040836795   -2.7507014   0.72609976   424551 
 4184000   0.60589831   -2.7515287   -2.7515287    -2.024765  0.030140803   -2.7515287   0.72676371   424551 
 4185000   0.60489333   -2.7506865   -2.7506865   -2.0251283   0.02834599   -2.7506865   0.72555826   424551 
 4186000   0.60433713   -2.7500284   -2.7500284   -2.0251373  0.012436076   -2.7500284    0.7248911   424551 
 4187000    0.6055518   -2.7510314   -2.7510314   -2.0246833  0.030866482   -2.7510314   0.72634808   424551 
 4188000    0.6062179   -2.7507501   -2.7507501   -2.0236031    0.0337286   -2.7507501   0.72714706   424551 
 4189000   0.60560721   -2.7506172   -2.7506172   -2.0242026   0.04223564   -2.7506172   0.72641455   424551 
 4190000   0.60527472   -2.7504849   -2.7504849   -2.0244692  0.033697246   -2.7504849   0.72601573   424551 
 4191000   0.60524828   -2.7503963   -2.7503963   -2.0244123  0.033490107   -2.7503963   0.72598402   424551 
 4192000   0.60567197   -2.7511433   -2.7511433   -2.0246511   0.04694091   -2.7511433   0.72649222   424551 
 4193000   0.60721688   -2.7531793   -2.7531793    -2.024834   0.02779136   -2.7531793   0.72834532   424551 
 4194000   0.60664828   -2.7531086   -2.7531086   -2.0254453  0.032848345   -2.7531086   0.72766329   424551 
 4195000   0.60645193   -2.7522375   -2.7522375   -2.0248098  0.044499787   -2.7522375   0.72742777   424551 
 4196000   0.60700249   -2.7530736   -2.7530736   -2.0249854   0.04661213   -2.7530736   0.72808816   424551 
 4197000   0.60653075   -2.7520492   -2.7520492   -2.0245269  0.046078209   -2.7520492   0.72752231   424551 
 4198000   0.60566274   -2.7519648   -2.7519648   -2.0254837  0.043152934   -2.7519648   0.72648116   424551 
 4199000   0.60573771   -2.7521271   -2.7521271   -2.0255561  0.038962787   -2.7521271   0.72657108   424551 
 4200000    0.6057484   -2.7518297   -2.7518297   -2.0252458  0.042665943   -2.7518297    0.7265839   424551 
 4201000   0.60546799   -2.7523239   -2.7523239   -2.0260763  0.028158612   -2.7523239   0.72624755   424551 
 4202000   0.60615981   -2.7526328   -2.7526328   -2.0255554   0.03436172   -2.7526328   0.72707738   424551 
 4203000   0.60471985   -2.7510252   -2.7510252    -2.025675  0.035205135   -2.7510252   0.72535017   424551 
 4204000   0.60585892    -2.752101    -2.752101   -2.0253845  0.032344687    -2.752101   0.72671647   424551 
 4205000    0.6048439    -2.750802    -2.750802    -2.025303  0.029017437    -2.750802   0.72549897   424551 
 4206000   0.60594247    -2.751751    -2.751751   -2.0249343   0.04093946    -2.751751   0.72681669   424551 
 4207000   0.60551427   -2.7516175   -2.7516175   -2.0253145  0.023149396   -2.7516175   0.72630306   424551 
 4208000   0.60533128   -2.7510902   -2.7510902   -2.0250067  0.027186005   -2.7510902   0.72608357   424551 
 4209000   0.60547019   -2.7514782   -2.7514782    -2.025228  0.023595434   -2.7514782    0.7262502   424551 
 4210000   0.60452642   -2.7498033   -2.7498033   -2.0246852  0.048454676   -2.7498033   0.72511815   424551 
 4211000    0.6049366   -2.7509338   -2.7509338   -2.0253237  0.033871758   -2.7509338   0.72561016   424551 
 4212000   0.60462452   -2.7508438   -2.7508438    -2.025608  0.040232194   -2.7508438   0.72523582   424551 
 4213000   0.60591561   -2.7510614   -2.7510614   -2.0242769  0.035609719   -2.7510614   0.72678447   424551 
 4214000   0.60485261   -2.7501482   -2.7501482   -2.0246388  0.032396653   -2.7501482   0.72550942   424551 
 4215000   0.60418151   -2.7501331   -2.7501331   -2.0254286    0.0304207   -2.7501331   0.72470444   424551 
 4216000    0.6042992   -2.7496639   -2.7496639   -2.0248183  0.023029771   -2.7496639   0.72484561   424551 
 4217000   0.60606045    -2.751498    -2.751498   -2.0245398  0.044792356    -2.751498   0.72695819   424551 
 4218000   0.60514775   -2.7502296   -2.7502296   -2.0243662  0.034284177   -2.7502296   0.72586343   424551 
 4219000   0.60533608   -2.7511633   -2.7511633   -2.0250739   0.02918748   -2.7511633   0.72608932   424551 
 4220000   0.60592083   -2.7516843   -2.7516843   -2.0248936  0.035986177   -2.7516843   0.72679073   424551 
 4221000   0.60630027   -2.7520506   -2.7520506   -2.0248047  0.032824323   -2.7520506   0.72724585   424551 
 4222000   0.60568032   -2.7514366   -2.7514366   -2.0249344  0.031663517   -2.7514366   0.72650223   424551 
 4223000   0.60695969   -2.7521567   -2.7521567   -2.0241199  0.039896043   -2.7521567   0.72803682   424551 
 4224000   0.60688577   -2.7518962   -2.7518962    -2.023948   0.03816405   -2.7518962   0.72794815   424551 
 4225000   0.60786716   -2.7535291   -2.7535291   -2.0244038  0.035788621   -2.7535291   0.72912531   424551 
 4226000    0.6068765   -2.7519921   -2.7519921   -2.0240551  0.032827409   -2.7519921   0.72793703   424551 
 4227000   0.60726512   -2.7529923   -2.7529923   -2.0245891  0.032107525   -2.7529923   0.72840318   424551 
 4228000   0.60632588   -2.7519795   -2.7519795    -2.024703  0.033649269   -2.7519795   0.72727658   424551 
 4229000   0.60566865    -2.750424    -2.750424   -2.0239357  0.031635571    -2.750424   0.72648824   424551 
 4230000   0.60564569   -2.7511996   -2.7511996   -2.0247389  0.037709228   -2.7511996   0.72646071   424551 
 4231000    0.6056081   -2.7510381   -2.7510381   -2.0246225  0.031948165   -2.7510381   0.72641561   424551 
 4232000   0.60602338   -2.7521413   -2.7521413   -2.0252276  0.041691698   -2.7521413   0.72691373   424551 
 4233000   0.60526634   -2.7514916   -2.7514916    -2.025486  0.033370711   -2.7514916   0.72600567   424551 
 4234000   0.60537238   -2.7515641   -2.7515641   -2.0254313  0.027859007   -2.7515641   0.72613287   424551 
 4235000   0.60496858   -2.7516255   -2.7516255   -2.0259769  0.030578398   -2.7516255   0.72564852   424551 
 4236000   0.60547355    -2.753298    -2.753298   -2.0270438  0.031051187    -2.753298   0.72625422   424551 
 4237000   0.60489481   -2.7520623   -2.7520623   -2.0265023  0.037837841   -2.7520623   0.72556003   424551 
 4238000   0.60579072   -2.7523159   -2.7523159   -2.0256813  0.035504899   -2.7523159   0.72663466   424551 
 4239000   0.60658354   -2.7538168   -2.7538168   -2.0262311   0.04447523   -2.7538168   0.72758564   424551 
 4240000   0.60621941   -2.7525576   -2.7525576   -2.0254087  0.037728819   -2.7525576   0.72714887   424551 
 4241000   0.60658033    -2.752915    -2.752915   -2.0253332  0.031212416    -2.752915   0.72758178   424551 
 4242000   0.60586347   -2.7524129   -2.7524129    -2.025691  0.034836068   -2.7524129   0.72672192   424551 
 4243000   0.60651407   -2.7530904   -2.7530904   -2.0255881  0.041689165   -2.7530904    0.7275023   424551 
 4244000   0.60751444   -2.7532534   -2.7532534   -2.0245512  0.028441411   -2.7532534   0.72870224   424551 
 4245000   0.60621901   -2.7519957   -2.7519957   -2.0248473  0.042907995   -2.7519957   0.72714838   424551 
 4246000   0.60517358   -2.7514196   -2.7514196   -2.0255252  0.039061488   -2.7514196   0.72589441   424551 
 4247000   0.60542337   -2.7516584   -2.7516584   -2.0254644  0.043026053   -2.7516584   0.72619403   424551 
 4248000    0.6059874   -2.7522375   -2.7522375   -2.0253669  0.041970562   -2.7522375   0.72687057   424551 
 4249000   0.60676402   -2.7521766   -2.7521766   -2.0243745  0.031053703   -2.7521766   0.72780211   424551 
 4250000   0.60563658    -2.751243    -2.751243   -2.0247933  0.051260042    -2.751243   0.72644977   424551 
 4251000    0.6049895   -2.7504597   -2.7504597   -2.0247861  0.042468373   -2.7504597   0.72567361   424551 
 4252000   0.60618681   -2.7515962   -2.7515962   -2.0244865  0.035657832   -2.7515962   0.72710976   424551 
 4253000    0.6060807   -2.7520394   -2.7520394   -2.0250569  0.035789252   -2.7520394   0.72698249   424551 
 4254000   0.60602811   -2.7507864   -2.7507864    -2.023867  0.035826286   -2.7507864    0.7269194   424551 
 4255000   0.60565405   -2.7503897   -2.7503897   -2.0239189  0.030903941   -2.7503897   0.72647073   424551 
 4256000   0.60622201   -2.7510537   -2.7510537   -2.0239017  0.041667961   -2.7510537   0.72715198   424551 
 4257000   0.60568468    -2.750051    -2.750051   -2.0235436  0.038699959    -2.750051   0.72650747   424551 
 4258000   0.60608773   -2.7501514   -2.7501514   -2.0231605  0.037322801   -2.7501514   0.72699092   424551 
 4259000   0.60642187   -2.7507084   -2.7507084   -2.0233167  0.040091119   -2.7507084   0.72739172   424551 
 4260000   0.60584448   -2.7496185   -2.7496185   -2.0229193   0.04110114   -2.7496185   0.72669914   424551 
 4261000   0.60665534   -2.7511471   -2.7511471   -2.0234754  0.030154032   -2.7511471   0.72767176   424551 
 4262000   0.60560336   -2.7496699   -2.7496699     -2.02326  0.041701682   -2.7496699   0.72640993   424551 
 4263000   0.60595946   -2.7511523   -2.7511523   -2.0243152  0.042733136   -2.7511523   0.72683706   424551 
 4264000   0.60615966   -2.7513925   -2.7513925   -2.0243153  0.032296838   -2.7513925    0.7270772   424551 
 4265000   0.60779238   -2.7533188   -2.7533188   -2.0242832   0.03195243   -2.7533188   0.72903561   424551 
 4266000   0.60673585   -2.7513394   -2.7513394   -2.0235711  0.031124216   -2.7513394   0.72776833   424551 
 4267000   0.60516664   -2.7502575   -2.7502575   -2.0243714  0.037846778   -2.7502575   0.72588608   424551 
 4268000   0.60559033   -2.7505683   -2.7505683    -2.024174  0.035678112   -2.7505683    0.7263943   424551 
 4269000   0.60670517   -2.7521496   -2.7521496   -2.0244181  0.036045349   -2.7521496   0.72773153   424551 
 4270000   0.60630837   -2.7522778   -2.7522778   -2.0250222  0.034792831   -2.7522778   0.72725557   424551 
 4271000   0.60553807    -2.751828    -2.751828   -2.0254964  0.029846664    -2.751828   0.72633162   424551 
 4272000   0.60547224   -2.7517341   -2.7517341   -2.0254814  0.033677978   -2.7517341   0.72625265   424551 
 4273000   0.60536271   -2.7517002   -2.7517002    -2.025579  0.031836404   -2.7517002   0.72612128   424551 
 4274000   0.60478011    -2.750257    -2.750257   -2.0248346  0.034987317    -2.750257   0.72542245   424551 
 4275000   0.60532808   -2.7506023   -2.7506023   -2.0245226  0.033021261   -2.7506023   0.72607973   424551 
 4276000   0.60585367   -2.7509775   -2.7509775   -2.0242673  0.039926553   -2.7509775   0.72671017   424551 
 4277000   0.60657979   -2.7517681   -2.7517681    -2.024187  0.030405176   -2.7517681   0.72758113   424551 
 4278000   0.60615988   -2.7519662   -2.7519662   -2.0248888  0.040838251   -2.7519662   0.72707746   424551 
 4279000   0.60621523    -2.752464    -2.752464   -2.0253202  0.028803092    -2.752464   0.72714385   424551 
 4280000   0.60670117   -2.7519687   -2.7519687    -2.024242  0.043703777   -2.7519687   0.72772673   424551 
 4281000   0.60660058   -2.7519421   -2.7519421    -2.024336  0.049088158   -2.7519421   0.72760607   424551 
 4282000   0.60569095    -2.750609    -2.750609    -2.024094  0.034968677    -2.750609   0.72651499   424551 
 4283000   0.60804715    -2.752597    -2.752597   -2.0232558   0.03908486    -2.752597    0.7293412   424551 
 4284000   0.60582172   -2.7502225   -2.7502225   -2.0235506  0.049366631   -2.7502225   0.72667185   424551 
 4285000     0.606731   -2.7518841   -2.7518841   -2.0241216  0.037279346   -2.7518841   0.72776251   424551 
 4286000   0.60528607   -2.7499879   -2.7499879   -2.0239585  0.037293324   -2.7499879   0.72602935   424551 
 4287000   0.60585102   -2.7506562   -2.7506562   -2.0239492  0.040254828   -2.7506562   0.72670699   424551 
 4288000   0.60558578   -2.7506905   -2.7506905   -2.0243016  0.026758741   -2.7506905   0.72638883   424551 
 4289000   0.60592479   -2.7515206   -2.7515206   -2.0247251  0.033549112   -2.7515206   0.72679548   424551 
 4290000   0.60548163    -2.750974    -2.750974   -2.0247101  0.037886486    -2.750974   0.72626391   424551 
 4291000   0.60676851   -2.7527762   -2.7527762   -2.0249687  0.041061598   -2.7527762    0.7278075   424551 
 4292000   0.60637374   -2.7521445   -2.7521445   -2.0248105  0.034565743   -2.7521445   0.72733398   424551 
 4293000   0.60631463   -2.7518898   -2.7518898   -2.0246267  0.024973069   -2.7518898   0.72726308   424551 
 4294000   0.60538199   -2.7503892   -2.7503892   -2.0242448  0.042775189   -2.7503892    0.7261444   424551 
 4295000   0.60626134   -2.7509758   -2.7509758   -2.0237766  0.035998412   -2.7509758   0.72719916   424551 
 4296000   0.60628264   -2.7507144   -2.7507144   -2.0234897  0.026626819   -2.7507144   0.72722471   424551 
 4297000   0.60622156   -2.7510023   -2.7510023   -2.0238509  0.028885437   -2.7510023   0.72715145   424551 
 4298000   0.60703066   -2.7520511   -2.7520511   -2.0239292  0.036250033   -2.7520511   0.72812195   424551 
 4299000   0.60609386   -2.7517662   -2.7517662    -2.024768  0.029858507   -2.7517662   0.72699828   424551 
 4300000   0.60610247   -2.7516762   -2.7516762   -2.0246676  0.041665116   -2.7516762    0.7270086   424551 
 4301000   0.60654274   -2.7520228   -2.7520228   -2.0244861  0.035225913   -2.7520228   0.72753669   424551 
 4302000   0.60764762   -2.7540708   -2.7540708   -2.0252088  0.036068378   -2.7540708   0.72886198   424551 
 4303000    0.6065143   -2.7518891   -2.7518891   -2.0243865  0.042977662   -2.7518891   0.72750258   424551 
 4304000   0.60793849   -2.7537772   -2.7537772   -2.0245664  0.031125586   -2.7537772   0.72921088   424551 
 4305000   0.60778871   -2.7528827   -2.7528827   -2.0238515  0.038853054   -2.7528827   0.72903121   424551 
 4306000   0.60799696   -2.7536519   -2.7536519   -2.0243709  0.038866946   -2.7536519   0.72928101   424551 
 4307000   0.60698981   -2.7534761   -2.7534761   -2.0254032  0.031172767   -2.7534761   0.72807294   424551 
 4308000   0.60598984   -2.7517692   -2.7517692   -2.0248957  0.038775487   -2.7517692    0.7268735   424551 
 4309000    0.6064276    -2.751885    -2.751885   -2.0244864  0.042011334    -2.751885   0.72739859   424551 
 4310000   0.60707895    -2.752095    -2.752095   -2.0239151  0.033851122    -2.752095   0.72817987   424551 
 4311000   0.60653679   -2.7514613   -2.7514613   -2.0239317  0.034623804   -2.7514613   0.72752956   424551 
 4312000    0.6073022   -2.7527083   -2.7527083   -2.0242606  0.025320654   -2.7527083   0.72844766   424551 
 4313000   0.60580851    -2.750727    -2.750727    -2.024071  0.033661877    -2.750727     0.726656   424551 
 4314000   0.60581418   -2.7512277   -2.7512277   -2.0245649  0.030154923   -2.7512277    0.7266628   424551 
 4315000   0.60519775   -2.7506165   -2.7506165   -2.0246931  0.033901552   -2.7506165   0.72592341   424551 
 4316000   0.60416157   -2.7495142   -2.7495142   -2.0248337  0.034184386   -2.7495142   0.72468052   424551 
 4317000   0.60536456   -2.7520651   -2.7520651   -2.0259416   0.02504214   -2.7520651   0.72612349   424551 
 4318000   0.60469705   -2.7510051   -2.7510051   -2.0256823  0.030075077   -2.7510051   0.72532283   424551 
 4319000   0.60540177   -2.7518924   -2.7518924   -2.0257243  0.041374537   -2.7518924   0.72616813   424551 
 4320000   0.60528178   -2.7515351   -2.7515351   -2.0255109  0.041109338   -2.7515351    0.7260242   424551 
 4321000   0.60575537   -2.7521059   -2.7521059   -2.0255136   0.04740835   -2.7521059   0.72659226   424551 
 4322000   0.60626528   -2.7514334   -2.7514334   -2.0242295  0.044574312   -2.7514334   0.72720389   424551 
 4323000   0.60584222   -2.7516553   -2.7516553   -2.0249588  0.022318756   -2.7516553   0.72669644   424551 
 4324000   0.60660989   -2.7528364   -2.7528364   -2.0252191  0.032540156   -2.7528364   0.72761724   424551 
 4325000    0.6060614   -2.7526562   -2.7526562   -2.0256968  0.029987656   -2.7526562   0.72695934   424551 
 4326000   0.60561054   -2.7525418   -2.7525418   -2.0261232  0.030567716   -2.7525418   0.72641854   424551 
 4327000   0.60514951   -2.7526761   -2.7526761   -2.0268106  0.032028425   -2.7526761   0.72586554   424551 
 4328000   0.60604527   -2.7526371   -2.7526371   -2.0256972  0.038593673   -2.7526371   0.72693999   424551 
 4329000   0.60635562   -2.7534807   -2.7534807   -2.0261684  0.038459619   -2.7534807   0.72731225   424551 
 4330000   0.60600734   -2.7535948   -2.7535948   -2.0267003  0.043135347   -2.7535948    0.7268945   424551 
 4331000   0.60662791   -2.7542783   -2.7542783   -2.0266394   0.04345997   -2.7542783   0.72763886   424551 
 4332000   0.60661007   -2.7546676   -2.7546676   -2.0270501  0.033363006   -2.7546676   0.72761746   424551 
 4333000   0.60628963   -2.7542645   -2.7542645   -2.0270314  0.037374344   -2.7542645    0.7272331   424551 
 4334000   0.60713339   -2.7552914   -2.7552914   -2.0270462  0.035195439   -2.7552914   0.72824517   424551 
 4335000   0.60712861   -2.7557193   -2.7557193   -2.0274799  0.039415997   -2.7557193   0.72823943   424551 
 4336000   0.60693682   -2.7558042   -2.7558042   -2.0277948  0.035889595   -2.7558042   0.72800938   424551 
 4337000   0.60674251   -2.7557456   -2.7557456   -2.0279693  0.043385492   -2.7557456   0.72777631   424551 
 4338000   0.60517558    -2.754022    -2.754022   -2.0281252  0.034234661    -2.754022   0.72589681   424551 
 4339000   0.60645869   -2.7554155   -2.7554155   -2.0279796  0.030167755   -2.7554155   0.72743588   424551 
 4340000   0.60702513   -2.7561101   -2.7561101   -2.0279948  0.042182655   -2.7561101   0.72811531   424551 
 4341000   0.60717628     -2.75598     -2.75598   -2.0276833  0.038487108     -2.75598   0.72829662   424551 
 4342000   0.60639755   -2.7559575   -2.7559575    -2.028595  0.035309186   -2.7559575   0.72736254   424551 
 4343000   0.60439449   -2.7537322   -2.7537322   -2.0287723   0.03651772   -2.7537322   0.72495991   424551 
 4344000   0.60449118   -2.7541187   -2.7541187   -2.0290428   0.03387189   -2.7541187   0.72507588   424551 
 4345000   0.60481996   -2.7539574   -2.7539574   -2.0284872  0.035092321   -2.7539574   0.72547025   424551 
 4346000   0.60566932   -2.7544554   -2.7544554   -2.0279663  0.043544122   -2.7544554   0.72648905   424551 
 4347000   0.60650054   -2.7545041   -2.7545041    -2.027018  0.041460012   -2.7545041   0.72748608   424551 
 4348000   0.60527464   -2.7532186   -2.7532186    -2.027203  0.043572156   -2.7532186   0.72601563   424551 
 4349000   0.60653057   -2.7539232   -2.7539232   -2.0264011  0.046940038   -2.7539232   0.72752209   424551 
 4350000     0.605523   -2.7527452   -2.7527452   -2.0264317  0.016724386   -2.7527452   0.72631354   424551 
 4351000   0.60594457   -2.7531102   -2.7531102    -2.026291  0.036598546   -2.7531102   0.72681921   424551 
 4352000   0.60616954   -2.7529802   -2.7529802   -2.0258911  0.036605008   -2.7529802   0.72708905   424551 
 4353000   0.60679402   -2.7537474   -2.7537474   -2.0259093  0.046016839   -2.7537474    0.7278381   424551 
 4354000    0.6061407   -2.7532424   -2.7532424   -2.0261879  0.042889516   -2.7532424   0.72705446   424551 
 4355000   0.60716504   -2.7540887   -2.7540887   -2.0258056   0.03519594   -2.7540887   0.72828314   424551 
 4356000   0.60618223   -2.7534055   -2.7534055   -2.0263013  0.044795761   -2.7534055   0.72710427   424551 
 4357000   0.60616814   -2.7545497   -2.7545497   -2.0274624  0.041572279   -2.7545497   0.72708737   424551 
 4358000   0.60683751   -2.7544664   -2.7544664   -2.0265762  0.031941826   -2.7544664   0.72789027   424551 
 4359000   0.60627768   -2.7542363   -2.7542363   -2.0270176   0.03890241   -2.7542363   0.72721877   424551 
 4360000   0.60522933   -2.7526465   -2.7526465   -2.0266852  0.033305381   -2.7526465   0.72596128   424551 
 4361000   0.60868411   -2.7565026   -2.7565026   -2.0263974  0.018697642   -2.7565026   0.73010523   424551 
 4362000    0.6065017   -2.7548189   -2.7548189   -2.0273314  0.035984501   -2.7548189   0.72748746   424551 
 4363000   0.60657499   -2.7544237   -2.7544237   -2.0268484  0.040255027   -2.7544237   0.72757538   424551 
 4364000   0.60702531   -2.7544243   -2.7544243   -2.0263088   0.03017699   -2.7544243   0.72811552   424551 
 4365000   0.60707443   -2.7551145   -2.7551145     -2.02694  0.033317026   -2.7551145   0.72817444   424551 
 4366000   0.60653857   -2.7544563   -2.7544563   -2.0269246  0.035757766   -2.7544563   0.72753169   424551 
 4367000   0.60511155   -2.7527055   -2.7527055   -2.0268855  0.036690161   -2.7527055   0.72582001   424551 
 4368000   0.60691564   -2.7559251   -2.7559251   -2.0279411      0.03963   -2.7559251   0.72798399   424551 
 4369000   0.60647987   -2.7557636   -2.7557636   -2.0283023  0.042405589   -2.7557636   0.72746129   424551 
 4370000   0.60609756    -2.756285    -2.756285   -2.0292823  0.037598592    -2.756285   0.72700271   424551 
 4371000   0.60468888   -2.7534631   -2.7534631   -2.0281501  0.033876668   -2.7534631   0.72531302   424551 
 4372000     0.605961   -2.7552842   -2.7552842   -2.0284453  0.031966828   -2.7552842   0.72683891   424551 
 4373000   0.60594654    -2.755074    -2.755074   -2.0282524   0.03032236    -2.755074   0.72682156   424551 
 4374000   0.60616876   -2.7551026   -2.7551026   -2.0280145  0.039914194   -2.7551026   0.72708811   424551 
 4375000   0.60559944    -2.753933    -2.753933   -2.0275277  0.027407248    -2.753933   0.72640522   424551 
 4376000    0.6063518   -2.7559178   -2.7559178   -2.0286101  0.033374683   -2.7559178   0.72730767   424551 
 4377000   0.60554243    -2.754465    -2.754465   -2.0281282  0.032699298    -2.754465   0.72633684   424551 
 4378000   0.60505154   -2.7542559   -2.7542559   -2.0285078  0.030707802   -2.7542559   0.72574803   424551 
 4379000   0.60517082   -2.7537698   -2.7537698   -2.0278787  0.037635203   -2.7537698   0.72589111   424551 
 4380000   0.60527185   -2.7532462   -2.7532462   -2.0272339  0.046135199   -2.7532462   0.72601229   424551 
 4381000   0.60635762   -2.7545204   -2.7545204   -2.0272057  0.042435976   -2.7545204   0.72731465   424551 
 4382000     0.606988   -2.7547585   -2.7547585   -2.0266877  0.035576951   -2.7547585   0.72807078   424551 
 4383000   0.60631085   -2.7554039   -2.7554039   -2.0281453  0.038640564   -2.7554039   0.72725855   424551 
 4384000   0.60686309    -2.755839    -2.755839   -2.0279181  0.039227297    -2.755839   0.72792094   424551 
 4385000   0.60646497   -2.7552454   -2.7552454    -2.027802  0.043950246   -2.7552454   0.72744341   424551 
 4386000   0.60677849   -2.7553196   -2.7553196   -2.0275001  0.044405264   -2.7553196   0.72781948   424551 
 4387000   0.60607534   -2.7549035   -2.7549035   -2.0279274  0.041251525   -2.7549035   0.72697606   424551 
 4388000   0.60564109    -2.754785    -2.754785   -2.0283298   0.04012869    -2.754785   0.72645519   424551 
 4389000   0.60643125   -2.7559206   -2.7559206   -2.0285177   0.02836359   -2.7559206   0.72740296   424551 
 4390000   0.60601692   -2.7560175   -2.7560175   -2.0291115   0.03351004   -2.7560175   0.72690598   424551 
 4391000   0.60578629   -2.7562781   -2.7562781   -2.0296488  0.028345095   -2.7562781   0.72662935   424551 
 4392000   0.60559318   -2.7555675   -2.7555675   -2.0291698    0.0319234   -2.7555675   0.72639771   424551 
 4393000   0.60400687   -2.7536439   -2.7536439   -2.0291489   0.03119269   -2.7536439   0.72449497   424551 
 4394000   0.60559231   -2.7545984   -2.7545984   -2.0282017  0.035196631   -2.7545984   0.72639667   424551 
 4395000   0.60594699   -2.7553744   -2.7553744   -2.0285523  0.042221237   -2.7553744   0.72682211   424551 
 4396000   0.60562332    -2.755871    -2.755871   -2.0294372  0.026975757    -2.755871   0.72643387   424551 
 4397000    0.6051772   -2.7544494   -2.7544494   -2.0285507  0.037200599   -2.7544494   0.72589876   424551 
 4398000   0.60607949   -2.7556239   -2.7556239   -2.0286428  0.030618562   -2.7556239   0.72698103   424551 
 4399000   0.60515833   -2.7541118   -2.7541118   -2.0282357  0.034323526   -2.7541118   0.72587612   424551 
 4400000   0.60550012   -2.7553196   -2.7553196   -2.0290336  0.039424103   -2.7553196   0.72628609   424551 
 4401000   0.60633866   -2.7552544   -2.7552544   -2.0279625  0.027418322   -2.7552544    0.7272919   424551 
 4402000   0.60472725   -2.7535889   -2.7535889   -2.0282299  0.043319609   -2.7535889   0.72535905   424551 
 4403000   0.60602572   -2.7545731   -2.7545731   -2.0276566  0.040098915   -2.7545731   0.72691654   424551 
 4404000   0.60589768   -2.7540337   -2.7540337   -2.0272708  0.029573837   -2.7540337   0.72676296   424551 
 4405000   0.60556803     -2.75371     -2.75371   -2.0273424  0.038131037     -2.75371   0.72636755   424551 
 4406000   0.60749134   -2.7559437   -2.7559437   -2.0272691  0.045174756   -2.7559437   0.72867452   424551 
 4407000   0.60548127   -2.7547906   -2.7547906   -2.0285271  0.040279426   -2.7547906   0.72626348   424551 
 4408000   0.60547757   -2.7554126   -2.7554126   -2.0291536  0.031938776   -2.7554126   0.72625904   424551 
 4409000   0.60440064   -2.7533597   -2.7533597   -2.0283924  0.038769584   -2.7533597   0.72496728   424551 
 4410000   0.60447898   -2.7537678   -2.7537678   -2.0287066  0.036998296   -2.7537678   0.72506125   424551 
 4411000   0.60463911   -2.7546358   -2.7546358   -2.0293824   0.02588772   -2.7546358   0.72525333   424551 
 4412000   0.60574702   -2.7562872   -2.7562872   -2.0297049  0.046868891   -2.7562872   0.72658224   424551 
 4413000   0.60612042   -2.7574779   -2.7574779   -2.0304477  0.038294325   -2.7574779   0.72703013   424551 
 4414000     0.605897   -2.7571195   -2.7571195   -2.0303574  0.042275328   -2.7571195   0.72676214   424551 
 4415000   0.60630288   -2.7563626   -2.7563626   -2.0291136  0.035615438   -2.7563626   0.72724899   424551 
 4416000   0.60538774   -2.7562469   -2.7562469   -2.0300956  0.038156587   -2.7562469    0.7261513   424551 
 4417000   0.60496459   -2.7560347   -2.7560347    -2.030391  0.042127724   -2.7560347   0.72564373   424551 
 4418000    0.6053284   -2.7565087   -2.7565087   -2.0304286    0.0424574   -2.7565087   0.72608012   424551 
 4419000   0.60623408   -2.7572942   -2.7572942   -2.0301277  0.039983372   -2.7572942   0.72716647   424551 
 4420000   0.60605085   -2.7568809   -2.7568809   -2.0299342  0.042072341   -2.7568809   0.72694668   424551 
 4421000   0.60682817   -2.7580304   -2.7580304   -2.0301513  0.035399726   -2.7580304   0.72787907   424551 
 4422000   0.60718378   -2.7576461   -2.7576461   -2.0293405  0.039441581   -2.7576461   0.72830561   424551 
 4423000   0.60581093   -2.7564808   -2.7564808   -2.0298219  0.041103115   -2.7564808    0.7266589   424551 
 4424000   0.60593272   -2.7567408   -2.7567408   -2.0299358  0.036263654   -2.7567408   0.72680499   424551 
 4425000   0.60514798   -2.7565777   -2.7565777    -2.030714  0.038092902   -2.7565777   0.72586371   424551 
 4426000   0.60600107   -2.7570705   -2.7570705   -2.0301835  0.028656452   -2.7570705   0.72688697   424551 
 4427000   0.60632208    -2.757596    -2.757596    -2.030324  0.046001196    -2.757596   0.72727201   424551 
 4428000   0.60576532   -2.7574392   -2.7574392    -2.030835  0.037791267   -2.7574392   0.72660419   424551 
 4429000   0.60549023   -2.7568804   -2.7568804   -2.0306062  0.027409924   -2.7568804   0.72627423   424551 
 4430000   0.60526959   -2.7564551   -2.7564551   -2.0304456  0.047755071   -2.7564551   0.72600958   424551 
 4431000   0.60571854   -2.7571762   -2.7571762   -2.0306282  0.035943501   -2.7571762   0.72654808   424551 
 4432000   0.60395092   -2.7557451   -2.7557451   -2.0313172  0.039980871   -2.7557451   0.72442786   424551 
 4433000   0.60581358   -2.7577355   -2.7577355   -2.0310734  0.032841932   -2.7577355   0.72666208   424551 
 4434000   0.60534415   -2.7575923   -2.7575923   -2.0314933  0.029837589   -2.7575923   0.72609901   424551 
 4435000   0.60563325    -2.756952    -2.756952   -2.0305062  0.045024849    -2.756952   0.72644578   424551 
 4436000   0.60699455   -2.7590565   -2.7590565   -2.0309779  0.028019551   -2.7590565   0.72807864   424551 
 4437000   0.60521125     -2.75683     -2.75683   -2.0308904  0.042942743     -2.75683    0.7259396   424551 
 4438000   0.60593561   -2.7569975   -2.7569975    -2.030189  0.033052284   -2.7569975   0.72680846   424551 
 4439000   0.60581718    -2.756877    -2.756877   -2.0302106  0.041394386    -2.756877    0.7266664   424551 
 4440000   0.60589087   -2.7577526   -2.7577526   -2.0309978  0.037346925   -2.7577526   0.72675479   424551 
 4441000   0.60608976   -2.7570309   -2.7570309   -2.0300376  0.036731776   -2.7570309   0.72699335   424551 
 4442000   0.60529998   -2.7551902   -2.7551902   -2.0291441  0.042059167   -2.7551902   0.72604603   424551 
 4443000   0.60519516    -2.755285    -2.755285   -2.0293647  0.034570538    -2.755285    0.7259203   424551 
 4444000   0.60518342   -2.7554578   -2.7554578   -2.0295516  0.031098942   -2.7554578   0.72590621   424551 
 4445000   0.60568305   -2.7557809   -2.7557809   -2.0292754  0.030889683   -2.7557809   0.72650552   424551 
 4446000   0.60535324   -2.7554667   -2.7554667   -2.0293567  0.034737467   -2.7554667   0.72610991   424551 
 4447000   0.60409122   -2.7544677   -2.7544677   -2.0298716  0.025989904   -2.7544677   0.72459615   424551 
 4448000   0.60424926   -2.7540237   -2.7540237    -2.029238  0.030338986   -2.7540237   0.72478571   424551 
 4449000   0.60436914   -2.7537921   -2.7537921   -2.0288626  0.021259553   -2.7537921   0.72492951   424551 
 4450000   0.60558221   -2.7551446   -2.7551446     -2.02876  0.027522151   -2.7551446   0.72638455   424551 
 4451000   0.60516315   -2.7537594   -2.7537594   -2.0278775  0.040949552   -2.7537594    0.7258819   424551 
 4452000   0.60554672   -2.7536704   -2.7536704   -2.0273284  0.040106775   -2.7536704   0.72634198   424551 
 4453000   0.60544442   -2.7540745   -2.7540745   -2.0278552  0.043257448   -2.7540745   0.72621928   424551 
 4454000   0.60623757   -2.7548282   -2.7548282   -2.0276576  0.047235114   -2.7548282   0.72717065   424551 
 4455000   0.60658109   -2.7555701   -2.7555701   -2.0279874  0.035194736   -2.7555701    0.7275827   424551 
 4456000   0.60638407   -2.7550687   -2.7550687   -2.0277224  0.031428279   -2.7550687   0.72734638   424551 
 4457000   0.60508776   -2.7533546   -2.7533546   -2.0275631  0.044757342   -2.7533546   0.72579148   424551 
 4458000   0.60574996   -2.7550105   -2.7550105   -2.0284247  0.035738793   -2.7550105   0.72658577   424551 
 4459000   0.60549206   -2.7548072   -2.7548072   -2.0285307  0.044066586   -2.7548072   0.72627643   424551 
 4460000   0.60644597   -2.7565634   -2.7565634   -2.0291428  0.037447986   -2.7565634   0.72742062   424551 
 4461000   0.60669086   -2.7560925   -2.7560925   -2.0283781  0.049938236   -2.7560925   0.72771436   424551 
 4462000   0.60606742   -2.7548202   -2.7548202   -2.0278536  0.032428735   -2.7548202   0.72696656   424551 
 4463000   0.60628661   -2.7552144   -2.7552144    -2.027985  0.038453739   -2.7552144   0.72722947   424551 
 4464000   0.60608556   -2.7559272   -2.7559272   -2.0289389  0.036992327   -2.7559272   0.72698832   424551 
 4465000   0.60584743   -2.7556979   -2.7556979   -2.0289952  0.046956751   -2.7556979   0.72670268   424551 
 4466000   0.60576612   -2.7556589   -2.7556589   -2.0290537  0.034217982   -2.7556589   0.72660516   424551 
 4467000   0.60500615   -2.7554145   -2.7554145   -2.0297209  0.031252106   -2.7554145   0.72569359   424551 
 4468000   0.60559891   -2.7556442   -2.7556442   -2.0292396  0.040693953   -2.7556442   0.72640459   424551 
 4469000   0.60532977   -2.7551693   -2.7551693   -2.0290875  0.030762191   -2.7551693   0.72608176   424551 
 4470000   0.60524493   -2.7548597   -2.7548597   -2.0288798  0.033199461   -2.7548597      0.72598   424551 
 4471000   0.60672451   -2.7557218   -2.7557218    -2.027967  0.048594897   -2.7557218   0.72775472   424551 
 4472000   0.60703976   -2.7564357   -2.7564357   -2.0283028  0.041070508   -2.7564357   0.72813286   424551 
 4473000   0.60566415   -2.7550342   -2.7550342   -2.0285514  0.026922315   -2.7550342   0.72648284   424551 
 4474000   0.60635907   -2.7561036   -2.7561036   -2.0287872  0.034751281   -2.7561036   0.72731639   424551 
 4475000   0.60622916   -2.7562452   -2.7562452   -2.0290847  0.037222736   -2.7562452   0.72716056   424551 
 4476000   0.60504107   -2.7554364   -2.7554364   -2.0297009  0.029822685   -2.7554364   0.72573547   424551 
 4477000    0.6057687   -2.7562816   -2.7562816   -2.0296733  0.036193836   -2.7562816   0.72660825   424551 
 4478000   0.60349173   -2.7546274   -2.7546274   -2.0307503  0.029501385   -2.7546274   0.72387707   424551 
 4479000   0.60500658    -2.755924    -2.755924   -2.0302299  0.034247427    -2.755924   0.72569409   424551 
 4480000   0.60589885   -2.7561006   -2.7561006   -2.0293362  0.028027281   -2.7561006   0.72676436   424551 
 4481000   0.60485425   -2.7549317   -2.7549317   -2.0294203  0.042329057   -2.7549317   0.72551139   424551 
 4482000   0.60485005   -2.7559745   -2.7559745   -2.0304681  0.040529952   -2.7559745   0.72550634   424551 
 4483000   0.60508376   -2.7564304   -2.7564304   -2.0306437  0.032902261   -2.7564304   0.72578667   424551 
 4484000   0.60500559   -2.7559409   -2.7559409    -2.030248  0.038380332   -2.7559409   0.72569291   424551 
 4485000   0.60491705   -2.7561849   -2.7561849   -2.0305982  0.034933012   -2.7561849   0.72558671   424551 
 4486000   0.60457445   -2.7555372   -2.7555372   -2.0303615  0.031111572   -2.7555372   0.72517577   424551 
 4487000   0.60476192   -2.7549623   -2.7549623   -2.0295617  0.040081572   -2.7549623   0.72540063   424551 
 4488000   0.60585811   -2.7562971   -2.7562971   -2.0295816  0.034173506   -2.7562971   0.72671549   424551 
 4489000   0.60597568   -2.7559345   -2.7559345    -2.029078  0.043027066   -2.7559345   0.72685652   424551 
 4490000   0.60633842    -2.756471    -2.756471   -2.0291793  0.026625536    -2.756471   0.72729162   424551 
 4491000   0.60660577   -2.7563646   -2.7563646   -2.0287523  0.037384436   -2.7563646    0.7276123   424551 
 4492000   0.60639958   -2.7563819   -2.7563819   -2.0290169  0.035670381   -2.7563819   0.72736497   424551 
 4493000   0.60479722   -2.7539674   -2.7539674   -2.0285244  0.044295964   -2.7539674   0.72544297   424551 
 4494000   0.60540907   -2.7548565   -2.7548565   -2.0286796  0.036446007   -2.7548565   0.72617688   424551 
 4495000   0.60435116   -2.7530685   -2.7530685   -2.0281606  0.031908787   -2.7530685   0.72490793   424551 
 4496000    0.6067947   -2.7558833   -2.7558833   -2.0280444  0.033958969   -2.7558833   0.72783891   424551 
 4497000   0.60484488   -2.7536532   -2.7536532    -2.028153  0.039753881   -2.7536532   0.72550014   424551 
 4498000   0.60532166   -2.7543266   -2.7543266   -2.0282546  0.030879866   -2.7543266   0.72607203   424551 
 4499000   0.60493974   -2.7542332   -2.7542332   -2.0286193  0.035989144   -2.7542332   0.72561393   424551 
 4500000   0.60472696   -2.7541845   -2.7541845   -2.0288258  0.026654156   -2.7541845    0.7253587   424551 
 4501000   0.60552538   -2.7545488   -2.7545488   -2.0282325  0.027787869   -2.7545488   0.72631639   424551 
 4502000   0.60570849   -2.7555074   -2.7555074   -2.0289714  0.035891048   -2.7555074   0.72653602   424551 
 4503000    0.6061937   -2.7555555   -2.7555555   -2.0284375  0.027450786   -2.7555555   0.72711803   424551 
 4504000   0.60500276   -2.7537422   -2.7537422   -2.0280527  0.044674516   -2.7537422   0.72568951   424551 
 4505000   0.60573309   -2.7552638   -2.7552638   -2.0286983  0.043560424   -2.7552638   0.72656553   424551 
 4506000   0.60498915   -2.7541205   -2.7541205   -2.0284473  0.039244403   -2.7541205    0.7256732   424551 
 4507000    0.6065906   -2.7558824   -2.7558824   -2.0282883  0.038036493   -2.7558824    0.7275941   424551 
 4508000   0.60504274   -2.7537262   -2.7537262   -2.0279887  0.033900075   -2.7537262   0.72573747   424551 
 4509000   0.60584651   -2.7550528   -2.7550528   -2.0283512  0.040250768   -2.7550528   0.72670158   424551 
 4510000   0.60541724   -2.7548502   -2.7548502   -2.0286635  0.046060243   -2.7548502   0.72618668   424551 
 4511000   0.60572778   -2.7554763   -2.7554763   -2.0289171  0.039633932   -2.7554763   0.72655917   424551 
 4512000   0.60580902   -2.7555156   -2.7555156    -2.028859  0.037911599   -2.7555156   0.72665661   424551 
 4513000   0.60598115    -2.755914    -2.755914   -2.0290509  0.046961589    -2.755914   0.72686308   424551 
 4514000   0.60524427    -2.754473    -2.754473   -2.0284938  0.030901262    -2.754473   0.72597921   424551 
 4515000   0.60631188   -2.7560464   -2.7560464   -2.0287866  0.033736626   -2.7560464   0.72725979   424551 
 4516000    0.6054342   -2.7553756   -2.7553756   -2.0291686   0.04879064   -2.7553756   0.72620702   424551 
 4517000   0.60536659   -2.7555175   -2.7555175   -2.0293915  0.033618063   -2.7555175   0.72612593   424551 
 4518000    0.6061956   -2.7565564   -2.7565564   -2.0294361  0.039701639   -2.7565564   0.72712031   424551 
 4519000   0.60561793   -2.7561624   -2.7561624    -2.029735  0.028539955   -2.7561624    0.7264274   424551 
 4520000    0.6048609   -2.7556808   -2.7556808   -2.0301615  0.030007135   -2.7556808   0.72551936   424551 
 4521000   0.60563569   -2.7573634   -2.7573634   -2.0309147  0.039608893   -2.7573634    0.7264487   424551 
 4522000   0.60607038   -2.7576649   -2.7576649   -2.0306948  0.040434702   -2.7576649    0.7269701   424551 
 4523000   0.60561469   -2.7565312   -2.7565312   -2.0301077  0.036640089   -2.7565312   0.72642351   424551 
 4524000    0.6059951   -2.7575029   -2.7575029   -2.0306231    0.0319146   -2.7575029   0.72687981   424551 
 4525000   0.60541176   -2.7564687   -2.7564687   -2.0302886  0.042518093   -2.7564687    0.7261801   424551 
 4526000   0.60497931   -2.7559944   -2.7559944    -2.030333  0.037097753   -2.7559944   0.72566139   424551 
 4527000   0.60456077   -2.7550435   -2.7550435   -2.0298842   0.03392473   -2.7550435   0.72515936   424551 
 4528000   0.60509854   -2.7567194   -2.7567194    -2.030915  0.033957105   -2.7567194    0.7258044   424551 
 4529000   0.60540914   -2.7577227   -2.7577227   -2.0315458  0.028063272   -2.7577227   0.72617696   424551 
 4530000   0.60401104   -2.7563726   -2.7563726   -2.0318726  0.036154713   -2.7563726   0.72449996   424551 
 4531000   0.60525249   -2.7573157   -2.7573157   -2.0313266  0.035764105   -2.7573157   0.72598907   424551 
 4532000   0.60365263   -2.7553396   -2.7553396   -2.0312695  0.029550707   -2.7553396   0.72407006   424551 
 4533000    0.6052766   -2.7562976   -2.7562976   -2.0302796  0.028486165   -2.7562976   0.72601798   424551 
 4534000   0.60456554   -2.7560551   -2.7560551     -2.03089  0.036047414   -2.7560551   0.72516509   424551 
 4535000   0.60556211   -2.7560877   -2.7560877   -2.0297272  0.026545686   -2.7560877   0.72636045   424551 
 4536000    0.6065409   -2.7563065   -2.7563065    -2.028772  0.027348403   -2.7563065   0.72753449   424551 
 4537000   0.60845407   -2.7585062   -2.7585062   -2.0286769  0.031327509   -2.7585062    0.7298293   424551 
 4538000   0.60733067   -2.7577859   -2.7577859   -2.0293041  0.040380329   -2.7577859    0.7284818   424551 
 4539000   0.60633299   -2.7565516   -2.7565516   -2.0292665  0.035735647   -2.7565516    0.7272851   424551 
 4540000   0.60649207     -2.75663     -2.75663    -2.029154  0.049231663     -2.75663   0.72747592   424551 
 4541000   0.60641405   -2.7572825   -2.7572825   -2.0299001  0.047898361   -2.7572825   0.72738234   424551 
 4542000    0.6066466   -2.7574194   -2.7574194   -2.0297582  0.045337458   -2.7574194   0.72766127   424551 
 4543000   0.60528522    -2.756204    -2.756204   -2.0301757  0.038684952    -2.756204   0.72602832   424551 
 4544000    0.6049919   -2.7566077   -2.7566077   -2.0309312   0.03610301   -2.7566077   0.72567649   424551 
 4545000   0.60391553   -2.7552336   -2.7552336   -2.0308482  0.043232673   -2.7552336   0.72438541   424551 
 4546000    0.6040213   -2.7559611   -2.7559611   -2.0314488  0.031857937   -2.7559611   0.72451227   424551 
 4547000   0.60397471   -2.7554853   -2.7554853   -2.0310289  0.037306388   -2.7554853   0.72445639   424551 
 4548000   0.60451879   -2.7563438   -2.7563438   -2.0312348  0.036199783   -2.7563438     0.725109   424551 
 4549000    0.6043433   -2.7553265   -2.7553265    -2.030428  0.028301473   -2.7553265    0.7248985   424551 
 4550000   0.60493146   -2.7553778   -2.7553778   -2.0297738  0.035786418   -2.7553778   0.72560399   424551 
 4551000   0.60505289    -2.756067    -2.756067   -2.0303174  0.028138021    -2.756067   0.72574965   424551 
 4552000   0.60444082   -2.7561983   -2.7561983   -2.0311829  0.033154518   -2.7561983   0.72501548   424551 
 4553000   0.60455343   -2.7562864   -2.7562864   -2.0311358  0.036455595   -2.7562864   0.72515055   424551 
 4554000    0.6044855   -2.7554002   -2.7554002   -2.0303312  0.035782344   -2.7554002   0.72506907   424551 
 4555000   0.60474002   -2.7548883   -2.7548883   -2.0295139  0.036426448   -2.7548883   0.72537437   424551 
 4556000     0.604875   -2.7550669   -2.7550669   -2.0295306  0.028592554   -2.7550669   0.72553627   424551 
 4557000   0.60482782   -2.7558023   -2.7558023   -2.0303226  0.030943529   -2.7558023   0.72547968   424551 
 4558000   0.60650254   -2.7568591   -2.7568591   -2.0293706  0.035270186   -2.7568591   0.72748847   424551 
 4559000    0.6057666   -2.7560991   -2.7560991   -2.0294934  0.038101397   -2.7560991   0.72660573   424551 
 4560000   0.60704298    -2.757972    -2.757972   -2.0298353  0.047345382    -2.757972   0.72813672   424551 
 4561000   0.60553079   -2.7562253   -2.7562253   -2.0299025  0.049045172   -2.7562253   0.72632288   424551 
 4562000    0.6058169   -2.7567962   -2.7567962   -2.0301301  0.028572072   -2.7567962   0.72666607   424551 
 4563000   0.60539429   -2.7560579   -2.7560579   -2.0298987   0.02910593   -2.7560579   0.72615915   424551 
 4564000   0.60580891   -2.7577138   -2.7577138   -2.0310573  0.030580785   -2.7577138   0.72665648   424551 
 4565000   0.60455645   -2.7563247   -2.7563247   -2.0311705  0.043317701   -2.7563247   0.72515418   424551 
 4566000   0.60603004   -2.7573754   -2.7573754   -2.0304537  0.029765413   -2.7573754   0.72692172   424551 
 4567000   0.60539669   -2.7573472   -2.7573472   -2.0311852  0.034285725   -2.7573472   0.72616203   424551 
 4568000   0.60543709   -2.7571167   -2.7571167   -2.0309062  0.034972124   -2.7571167   0.72621049   424551 
 4569000   0.60579158    -2.758485    -2.758485   -2.0318493  0.043425516    -2.758485   0.72663569   424551 
 4570000   0.60706048   -2.7590347   -2.7590347   -2.0308769  0.034729854   -2.7590347   0.72815772   424551 
 4571000   0.60617166   -2.7575454   -2.7575454   -2.0304538  0.034165254   -2.7575454   0.72709159   424551 
 4572000   0.60600528   -2.7576014   -2.7576014   -2.0307094  0.028362091   -2.7576014   0.72689202   424551 
 4573000   0.60519185   -2.7568135   -2.7568135   -2.0308972  0.033262802   -2.7568135   0.72591633   424551 
 4574000   0.60503245   -2.7557032   -2.7557032   -2.0299781  0.036379184   -2.7557032   0.72572513   424551 
 4575000    0.6050634   -2.7557851   -2.7557851   -2.0300228  0.039613619   -2.7557851   0.72576225   424551 
 4576000   0.60476975   -2.7559332   -2.7559332   -2.0305231  0.029287261   -2.7559332   0.72541003   424551 
 4577000   0.60410886   -2.7555324   -2.7555324   -2.0309151  0.028817714   -2.7555324    0.7246173   424551 
 4578000   0.60530736   -2.7566635   -2.7566635   -2.0306086  0.037568177   -2.7566635   0.72605488   424551 
 4579000   0.60519465   -2.7570181   -2.7570181   -2.0310984  0.033846601   -2.7570181   0.72591969   424551 
 4580000     0.605236   -2.7571266   -2.7571266   -2.0311573  0.035114706   -2.7571266   0.72596929   424551 
 4581000   0.60465122   -2.7562211   -2.7562211   -2.0309533  0.036156572   -2.7562211   0.72526785   424551 
 4582000   0.60443884   -2.7569498   -2.7569498   -2.0319367  0.047225236   -2.7569498   0.72501311   424551 
 4583000   0.60484196   -2.7559873   -2.7559873   -2.0304906  0.033591298   -2.7559873   0.72549664   424551 
 4584000   0.60471768   -2.7564132   -2.7564132   -2.0310656  0.047683304   -2.7564132   0.72534757   424551 
 4585000   0.60354732    -2.755937    -2.755937   -2.0319933  0.025338339    -2.755937   0.72394375   424551 
 4586000   0.60565504   -2.7580656   -2.7580656   -2.0315936  0.041111946   -2.7580656   0.72647191   424551 
 4587000   0.60416458   -2.7563652   -2.7563652   -2.0316811  0.045290187   -2.7563652   0.72468414   424551 
 4588000    0.6050768   -2.7568945   -2.7568945   -2.0311162  0.039433656   -2.7568945   0.72577833   424551 
 4589000   0.60464411   -2.7564175   -2.7564175   -2.0311581  0.027453118   -2.7564175   0.72525933   424551 
 4590000   0.60407863   -2.7563193   -2.7563193   -2.0317383   0.02189382   -2.7563193   0.72458104   424551 
 4591000   0.60469587   -2.7572829   -2.7572829   -2.0319615  0.027307605   -2.7572829   0.72532141   424551 
 4592000   0.60481478    -2.756976    -2.756976    -2.031512  0.031981954    -2.756976   0.72546403   424551 
 4593000   0.60579283   -2.7580086   -2.7580086   -2.0313714  0.030231485   -2.7580086   0.72663719   424551 
 4594000   0.60505668    -2.757269    -2.757269   -2.0315148   0.04229674    -2.757269    0.7257542   424551 
 4595000   0.60578544     -2.75772     -2.75772   -2.0310917  0.039748285     -2.75772   0.72662833   424551 
 4596000   0.60550566   -2.7580005   -2.7580005   -2.0317077  0.039412929   -2.7580005   0.72629273   424551 
 4597000   0.60502294   -2.7582123   -2.7582123   -2.0324985  0.035755334   -2.7582123   0.72571372   424551 
 4598000   0.60445136   -2.7575205   -2.7575205   -2.0324924  0.033231549   -2.7575205   0.72502813   424551 
 4599000   0.60468965   -2.7576569   -2.7576569    -2.032343  0.034515993   -2.7576569   0.72531395   424551 
 4600000   0.60496865   -2.7576772   -2.7576772   -2.0320286   0.04076209   -2.7576772   0.72564861   424551 
 4601000   0.60565057     -2.75874     -2.75874   -2.0322734  0.035447216     -2.75874   0.72646656   424551 
 4602000   0.60537898   -2.7592764   -2.7592764   -2.0331356  0.037474645   -2.7592764   0.72614079   424551 
 4603000   0.60534371   -2.7585776   -2.7585776   -2.0324791    0.0470641   -2.7585776   0.72609848   424551 
 4604000   0.60541735   -2.7587589   -2.7587589   -2.0325721  0.041130355   -2.7587589   0.72618681   424551 
 4605000   0.60611743   -2.7587398   -2.7587398   -2.0317133  0.041990729   -2.7587398   0.72702654   424551 
 4606000    0.6065167   -2.7593424   -2.7593424   -2.0318369  0.037324524   -2.7593424   0.72750546   424551 
 4607000   0.60749563   -2.7590938   -2.7590938   -2.0304142  0.033805375   -2.7590938   0.72867966   424551 
 4608000   0.60697966   -2.7585041   -2.7585041   -2.0304433  0.050762456   -2.7585041   0.72806077   424551 
 4609000   0.60514472   -2.7575026   -2.7575026   -2.0316429  0.048248049   -2.7575026   0.72585979   424551 
 4610000     0.605833   -2.7579664   -2.7579664    -2.031281  0.041532532   -2.7579664   0.72668538   424551 
 4611000   0.60570577   -2.7581054   -2.7581054   -2.0315726  0.037687268   -2.7581054   0.72653277   424551 
 4612000   0.60324129   -2.7547863   -2.7547863   -2.0312096  0.038924739   -2.7547863   0.72357667   424551 
 4613000   0.60426017   -2.7557159   -2.7557159   -2.0309171  0.038216895   -2.7557159   0.72479879   424551 
 4614000   0.60414653   -2.7560249   -2.7560249   -2.0313624   0.03697211   -2.7560249   0.72466249   424551 
 4615000    0.6046594   -2.7561449   -2.7561449   -2.0308673  0.038790208   -2.7561449   0.72527766   424551 
 4616000   0.60666737   -2.7574817   -2.7574817   -2.0297955    0.0347463   -2.7574817   0.72768619   424551 
 4617000   0.60458708   -2.7546451   -2.7546451   -2.0294541  0.033892426   -2.7546451   0.72519092   424551 
 4618000   0.60544138   -2.7556515   -2.7556515   -2.0294358  0.035234957   -2.7556515   0.72621564   424551 
 4619000   0.60484092    -2.755159    -2.755159   -2.0296636  0.034584872    -2.755159    0.7254954   424551 
 4620000   0.60587145   -2.7562611   -2.7562611   -2.0295296  0.035167176   -2.7562611   0.72673149   424551 
 4621000   0.60509718   -2.7554881   -2.7554881   -2.0296853  0.040221448   -2.7554881   0.72580277   424551 
 4622000   0.60599689   -2.7563073   -2.7563073   -2.0294254  0.034181135   -2.7563073   0.72688196   424551 
 4623000   0.60520298   -2.7542886   -2.7542886   -2.0283589  0.034262725   -2.7542886   0.72592967   424551 
 4624000   0.60562857    -2.755256    -2.755256   -2.0288159  0.030922317    -2.755256   0.72644017   424551 
 4625000   0.60594622   -2.7562232   -2.7562232    -2.029402  0.047304194   -2.7562232   0.72682118   424551 
 4626000   0.60504252   -2.7542881   -2.7542881   -2.0285509  0.031662782   -2.7542881   0.72573721   424551 
 4627000   0.60618491   -2.7567579   -2.7567579   -2.0296504  0.038709428   -2.7567579   0.72710748   424551 
 4628000   0.60539943   -2.7557597   -2.7557597   -2.0295944  0.029737217   -2.7557597   0.72616531   424551 
 4629000   0.60490611   -2.7553624   -2.7553624   -2.0297888  0.045135469   -2.7553624   0.72557358   424551 
 4630000   0.60665649   -2.7581609   -2.7581609   -2.0304878  0.026615479   -2.7581609   0.72767313   424551 
 4631000   0.60449514   -2.7557064   -2.7557064   -2.0306258  0.029382024   -2.7557064   0.72508063   424551 
 4632000      0.60497   -2.7567646   -2.7567646   -2.0311143  0.026566942   -2.7567646   0.72565022   424551 
 4633000   0.60613763   -2.7577081   -2.7577081   -2.0306573   0.03034793   -2.7577081   0.72705077   424551 
 4634000     0.606198   -2.7572111   -2.7572111   -2.0300879  0.046324832   -2.7572111   0.72712319   424551 
 4635000   0.60716276    -2.758133    -2.758133   -2.0298526  0.034654129    -2.758133    0.7282804   424551 
 4636000   0.60474731    -2.755788    -2.755788   -2.0304049   0.03649883    -2.755788   0.72538311   424551 
 4637000   0.60462664   -2.7566609   -2.7566609   -2.0314225  0.025990759   -2.7566609   0.72523837   424551 
 4638000   0.60655276   -2.7591672   -2.7591672   -2.0316185  0.032051672   -2.7591672   0.72754872   424551 
 4639000   0.60685147   -2.7593635   -2.7593635   -2.0314565  0.043209745   -2.7593635   0.72790701   424551 
 4640000   0.60565685   -2.7585667   -2.7585667   -2.0320927  0.038413214   -2.7585667   0.72647408   424551 
 4641000   0.60577498   -2.7591213   -2.7591213   -2.0325055  0.029626658   -2.7591213   0.72661579   424551 
 4642000   0.60479996   -2.7577816   -2.7577816   -2.0323353  0.041149987   -2.7577816   0.72544626   424551 
 4643000   0.60538018   -2.7585906   -2.7585906   -2.0324483  0.040930196   -2.7585906   0.72614223   424551 
 4644000   0.60428465   -2.7576331   -2.7576331   -2.0328049  0.037617574   -2.7576331   0.72482816   424551 
 4645000   0.60396719   -2.7577172   -2.7577172   -2.0332699    0.0305726   -2.7577172   0.72444737   424551 
 4646000   0.60586399   -2.7586007   -2.7586007   -2.0318781  0.030197675   -2.7586007   0.72672255   424551 
 4647000   0.60508123   -2.7577209   -2.7577209   -2.0319372  0.034958644   -2.7577209   0.72578365   424551 
 4648000    0.6045453   -2.7573478   -2.7573478    -2.032207    0.0373062   -2.7573478    0.7251408   424551 
 4649000   0.60531072   -2.7583903   -2.7583903   -2.0323314  0.035569912   -2.7583903   0.72605891   424551 
 4650000   0.60631543    -2.759713    -2.759713    -2.032449  0.034679787    -2.759713   0.72726404   424551 
 4651000   0.60479582   -2.7574828   -2.7574828   -2.0320415  0.034349835   -2.7574828    0.7254413   424551 
 4652000   0.60477725   -2.7577628   -2.7577628   -2.0323438  0.028792888   -2.7577628   0.72541902   424551 
 4653000   0.60365912   -2.7564021   -2.7564021   -2.0323243  0.043256583   -2.7564021   0.72407785   424551 
 4654000   0.60447387   -2.7573277   -2.7573277   -2.0322726  0.036274783   -2.7573277   0.72505513   424551 
 4655000    0.6058896    -2.759027    -2.759027   -2.0322738  0.035978222    -2.759027   0.72675327   424551 
 4656000    0.6042547   -2.7571865   -2.7571865   -2.0323942  0.035901119   -2.7571865   0.72479223   424551 
 4657000   0.60412524    -2.757152    -2.757152    -2.032515  0.035001052    -2.757152   0.72463695   424551 
 4658000   0.60511116    -2.758133    -2.758133   -2.0323135  0.031143193    -2.758133   0.72581955   424551 
 4659000   0.60552657   -2.7584577   -2.7584577   -2.0321399  0.037851423   -2.7584577   0.72631782   424551 
 4660000   0.60609565   -2.7597579   -2.7597579   -2.0327574  0.022561456   -2.7597579   0.72700042   424551 
 4661000   0.60508923    -2.758947    -2.758947   -2.0331538  0.039311012    -2.758947   0.72579324   424551 
 4662000   0.60632569   -2.7604871   -2.7604871   -2.0332107  0.034710974   -2.7604871   0.72727634   424551 
 4663000   0.60518315   -2.7593887   -2.7593887   -2.0334828  0.035950403   -2.7593887   0.72590589   424551 
 4664000   0.60507302   -2.7595895   -2.7595895   -2.0338157  0.044320331   -2.7595895   0.72577379   424551 
 4665000   0.60508161   -2.7591222   -2.7591222   -2.0333381  0.034259299   -2.7591222    0.7257841   424551 
 4666000    0.6062838   -2.7607674   -2.7607674   -2.0335413  0.031885045   -2.7607674    0.7272261   424551 
 4667000   0.60633555   -2.7603703   -2.7603703   -2.0330821  0.030748342   -2.7603703   0.72728818   424551 
 4668000   0.60566276   -2.7591921   -2.7591921   -2.0327109  0.035445463   -2.7591921   0.72648117   424551 
 4669000   0.60619321    -2.760001    -2.760001   -2.0328836  0.038781495    -2.760001   0.72711744   424551 
 4670000   0.60561623    -2.760113    -2.760113   -2.0336877   0.03780503    -2.760113   0.72642536   424551 
 4671000   0.60576461   -2.7602788   -2.7602788   -2.0336754  0.040995054   -2.7602788   0.72660334   424551 
 4672000   0.60473575   -2.7591759   -2.7591759   -2.0338067  0.047081191   -2.7591759   0.72536925   424551 
 4673000   0.60577297    -2.760193    -2.760193   -2.0335797  0.039770411    -2.760193   0.72661337   424551 
 4674000   0.60524711   -2.7602141   -2.7602141   -2.0342315  0.040343397   -2.7602141   0.72598262   424551 
 4675000   0.60523646    -2.759102    -2.759102   -2.0331322  0.023687519    -2.759102   0.72596984   424551 
 4676000   0.60484328   -2.7588306   -2.7588306   -2.0333324  0.028990124   -2.7588306   0.72549823   424551 
 4677000   0.60336054   -2.7579341   -2.7579341   -2.0342144  0.041572386   -2.7579341    0.7237197   424551 
 4678000   0.60446411   -2.7583196   -2.7583196   -2.0332762  0.038240459   -2.7583196   0.72504341   424551 
 4679000   0.60466634   -2.7588112   -2.7588112   -2.0335252  0.043150043   -2.7588112   0.72528599   424551 
 4680000   0.60440845   -2.7584621   -2.7584621   -2.0334854  0.024500006   -2.7584621   0.72497665   424551 
 4681000   0.60490329   -2.7587668   -2.7587668   -2.0331966  0.039018734   -2.7587668    0.7255702   424551 
 4682000   0.60564507   -2.7596528   -2.7596528   -2.0331928  0.031618988   -2.7596528   0.72645995   424551 
 4683000   0.60602927   -2.7598629   -2.7598629   -2.0329421  0.032177899   -2.7598629    0.7269208   424551 
 4684000   0.60534864   -2.7587891   -2.7587891   -2.0326847  0.021884334   -2.7587891    0.7261044   424551 
 4685000    0.6064531   -2.7597157   -2.7597157   -2.0322865  0.042220111   -2.7597157   0.72742917   424551 
 4686000   0.60587048   -2.7602214   -2.7602214   -2.0334911   0.03312554   -2.7602214   0.72673033   424551 
 4687000   0.60461791   -2.7596767   -2.7596767   -2.0344488   0.04314779   -2.7596767   0.72522789   424551 
 4688000   0.60538326   -2.7607899   -2.7607899    -2.034644  0.034104783   -2.7607899   0.72614592   424551 
 4689000   0.60495885   -2.7602607   -2.7602607   -2.0346239  0.029435429   -2.7602607   0.72563685   424551 
 4690000   0.60554718   -2.7608004   -2.7608004   -2.0344579  0.026383457   -2.7608004   0.72634254   424551 
 4691000   0.60493716   -2.7602195   -2.7602195   -2.0346087  0.040229711   -2.7602195   0.72561083   424551 
 4692000    0.6059896   -2.7619904   -2.7619904   -2.0351172  0.041099939   -2.7619904   0.72687322   424551 
 4693000   0.60527748   -2.7613146   -2.7613146   -2.0352955  0.033789918   -2.7613146   0.72601904   424551 
 4694000   0.60332656   -2.7598538   -2.7598538   -2.0361749  0.040585815   -2.7598538   0.72367894   424551 
 4695000   0.60345998   -2.7602574   -2.7602574   -2.0364185   0.03436503   -2.7602574   0.72383898   424551 
 4696000   0.60473838   -2.7614433   -2.7614433   -2.0360709  0.038653976   -2.7614433    0.7253724   424551 
 4697000   0.60404255   -2.7608234   -2.7608234   -2.0362856  0.035520435   -2.7608234   0.72453776   424551 
 4698000   0.60495626   -2.7619201   -2.7619201   -2.0362863  0.032661925   -2.7619201   0.72563375   424551 
 4699000   0.60561557   -2.7619749   -2.7619749   -2.0355503  0.039733657   -2.7619749   0.72642457   424551 
 4700000   0.60500849   -2.7617192   -2.7617192   -2.0360228  0.039966613   -2.7617192   0.72569639   424551 
 4701000   0.60551321   -2.7616268   -2.7616268    -2.035325  0.035670777   -2.7616268    0.7263018   424551 
 4702000   0.60502756   -2.7613199   -2.7613199   -2.0356006  0.038786525   -2.7613199   0.72571926   424551 
 4703000   0.60600849   -2.7623003   -2.7623003   -2.0354044  0.033377413   -2.7623003   0.72689587   424551 
 4704000   0.60468233    -2.760656    -2.760656   -2.0353509   0.03689411    -2.760656   0.72530516   424551 
 4705000   0.60411014   -2.7607511   -2.7607511   -2.0361323  0.040745686   -2.7607511   0.72461884   424551 
 4706000   0.60585413   -2.7614778   -2.7614778   -2.0347671  0.036318421   -2.7614778   0.72671072   424551 
 4707000   0.60462519   -2.7603953   -2.7603953   -2.0351586  0.039472482   -2.7603953   0.72523663   424551 
 4708000   0.60497211   -2.7605187   -2.7605187   -2.0348659  0.040258212   -2.7605187   0.72565276   424551 
 4709000   0.60495491   -2.7603647   -2.7603647   -2.0347326  0.031640941   -2.7603647   0.72563212   424551 
 4710000   0.60511937   -2.7607408   -2.7607408   -2.0349114  0.032301634   -2.7607408   0.72582939   424551 
 4711000   0.60495691   -2.7605875   -2.7605875   -2.0349529  0.042354516   -2.7605875   0.72563452   424551 
 4712000   0.60541341   -2.7602822   -2.7602822   -2.0341001  0.038797747   -2.7602822   0.72618209   424551 
 4713000   0.60543604   -2.7607553   -2.7607553    -2.034546  0.031593601   -2.7607553   0.72620923   424551 
 4714000   0.60555236    -2.760429    -2.760429   -2.0340803  0.032147819    -2.760429   0.72634875   424551 
 4715000   0.60509013   -2.7608205   -2.7608205   -2.0350262  0.039531297   -2.7608205   0.72579431   424551 
 4716000   0.60430359   -2.7596342   -2.7596342   -2.0347834  0.037733853   -2.7596342   0.72485087   424551 
 4717000   0.60447302   -2.7595726   -2.7595726   -2.0345185  0.034436449   -2.7595726    0.7250541   424551 
 4718000   0.60493494   -2.7601086   -2.7601086   -2.0345004  0.043178165   -2.7601086   0.72560817   424551 
 4719000    0.6049849   -2.7601522   -2.7601522   -2.0344841   0.03601338   -2.7601522   0.72566809   424551 
 4720000   0.60447514   -2.7610698   -2.7610698   -2.0360131  0.029772447   -2.7610698   0.72505665   424551 
 4721000   0.60442897   -2.7611547   -2.7611547   -2.0361534  0.033771133   -2.7611547   0.72500126   424551 
 4722000   0.60416374   -2.7613054   -2.7613054   -2.0366223  0.032622506   -2.7613054   0.72468312   424551 
 4723000   0.60414162   -2.7606734   -2.7606734   -2.0360168  0.032302654   -2.7606734   0.72465659   424551 
 4724000   0.60370393   -2.7598323   -2.7598323   -2.0357007  0.035225008   -2.7598323    0.7241316   424551 
 4725000   0.60423327   -2.7606976   -2.7606976   -2.0359311  0.030630913   -2.7606976   0.72476653   424551 
 4726000   0.60321163   -2.7590539   -2.7590539   -2.0355128  0.036789807   -2.7590539   0.72354109   424551 
 4727000   0.60432108   -2.7612372   -2.7612372   -2.0363653  0.032111523   -2.7612372   0.72487185   424551 
 4728000   0.60523232   -2.7625174   -2.7625174   -2.0365526  0.037604652   -2.7625174   0.72596488   424551 
 4729000   0.60418617   -2.7616664   -2.7616664   -2.0369564  0.032297176   -2.7616664   0.72471003   424551 
 4730000   0.60456066   -2.7620237   -2.7620237   -2.0368645  0.027252634   -2.7620237   0.72515923   424551 
 4731000   0.60389688   -2.7615153   -2.7615153   -2.0371523  0.029340963   -2.7615153   0.72436304   424551 
 4732000   0.60443838   -2.7609654   -2.7609654   -2.0359529   0.04570039   -2.7609654   0.72501255   424551 
 4733000   0.60514129   -2.7617206   -2.7617206    -2.035865  0.035507135   -2.7617206   0.72585568   424551 
 4734000   0.60388981   -2.7607914   -2.7607914   -2.0364368  0.041026137   -2.7607914   0.72435456   424551 
 4735000   0.60475951    -2.762141    -2.762141   -2.0367433  0.038524654    -2.762141   0.72539774   424551 
 4736000   0.60444129   -2.7624387   -2.7624387   -2.0374226  0.031581826   -2.7624387   0.72501605   424551 
 4737000    0.6035679   -2.7608946   -2.7608946   -2.0369262  0.040171661   -2.7608946   0.72396843   424551 
 4738000   0.60503106   -2.7623492   -2.7623492   -2.0366257  0.034080942   -2.7623492   0.72572346   424551 
 4739000   0.60544603   -2.7627589   -2.7627589   -2.0365377  0.038425182   -2.7627589   0.72622121   424551 
 4740000   0.60513808   -2.7630928   -2.7630928    -2.037241  0.034052935   -2.7630928   0.72585184   424551 
 4741000   0.60630919   -2.7640605   -2.7640605   -2.0368039  0.038166472   -2.7640605   0.72725656   424551 
 4742000   0.60462029   -2.7627126   -2.7627126   -2.0374818  0.047928723   -2.7627126   0.72523075   424551 
 4743000   0.60537732    -2.762628    -2.762628   -2.0364892   0.03277421    -2.762628    0.7261388   424551 
 4744000   0.60427927   -2.7610547   -2.7610547    -2.036233  0.026864171   -2.7610547    0.7248217   424551 
 4745000   0.60590788   -2.7620999   -2.7620999   -2.0353247  0.044095763   -2.7620999   0.72677519   424551 
 4746000   0.60545672   -2.7620769   -2.7620769   -2.0358428  0.027687454   -2.7620769   0.72623404   424551 
 4747000   0.60520821   -2.7611965   -2.7611965   -2.0352606  0.048672757   -2.7611965   0.72593595   424551 
 4748000   0.60396869   -2.7597789   -2.7597789   -2.0353297  0.038654597   -2.7597789   0.72444918   424551 
 4749000   0.60490954   -2.7605901   -2.7605901   -2.0350124  0.033231778   -2.7605901   0.72557771   424551 
 4750000   0.60488008   -2.7621235   -2.7621235   -2.0365812  0.038547114   -2.7621235   0.72554236   424551 
 4751000   0.60438479   -2.7609077   -2.7609077   -2.0359594  0.029363104   -2.7609077   0.72494827   424551 
 4752000   0.60434255   -2.7607423   -2.7607423   -2.0358447  0.040239224   -2.7607423   0.72489761   424551 
 4753000   0.60429221    -2.761166    -2.761166   -2.0363288  0.048401196    -2.761166   0.72483723   424551 
 4754000   0.60499267   -2.7618359   -2.7618359   -2.0361585  0.026751613   -2.7618359   0.72567741   424551 
 4755000   0.60360417   -2.7602118   -2.7602118   -2.0361998  0.032324792   -2.7602118   0.72401194   424551 
 4756000   0.60520922   -2.7621418   -2.7621418   -2.0362046  0.038485211   -2.7621418   0.72593716   424551 
 4757000   0.60412342   -2.7613214   -2.7613214   -2.0366866   0.03475278   -2.7613214   0.72463477   424551 
 4758000   0.60463652   -2.7618153   -2.7618153   -2.0365651  0.040262738   -2.7618153   0.72525022   424551 
 4759000    0.6044307   -2.7617433   -2.7617433   -2.0367399  0.035431942   -2.7617433   0.72500334   424551 
 4760000   0.60562859   -2.7626017   -2.7626017   -2.0361615  0.040151619   -2.7626017   0.72644019   424551 
 4761000   0.60465817   -2.7618332   -2.7618332    -2.036557  0.028741492   -2.7618332   0.72527618   424551 
 4762000   0.60531909    -2.762176    -2.762176   -2.0361071  0.024122087    -2.762176   0.72606894   424551 
 4763000   0.60566401   -2.7637496   -2.7637496    -2.037267  0.034145748   -2.7637496   0.72648268   424551 
 4764000   0.60387413   -2.7616235   -2.7616235   -2.0372878  0.035713931   -2.7616235   0.72433575   424551 
 4765000   0.60439222   -2.7627547   -2.7627547   -2.0377975  0.037198074   -2.7627547   0.72495719   424551 
 4766000   0.60404229   -2.7633198   -2.7633198   -2.0387824  0.030216604   -2.7633198   0.72453745   424551 
 4767000   0.60347213    -2.762836    -2.762836   -2.0389825  0.041441792    -2.762836   0.72385356   424551 
 4768000   0.60463938   -2.7634746   -2.7634746   -2.0382209  0.040327997   -2.7634746   0.72525365   424551 
 4769000   0.60523708   -2.7639856   -2.7639856    -2.038015  0.043189192   -2.7639856   0.72597058   424551 
 4770000    0.6053514    -2.763349    -2.763349   -2.0372412  0.039748497    -2.763349   0.72610771   424551 
 4771000   0.60568505   -2.7641312   -2.7641312   -2.0376233  0.037406587   -2.7641312   0.72650791   424551 
 4772000   0.60522158   -2.7627098   -2.7627098   -2.0367578  0.039262703   -2.7627098   0.72595199   424551 
 4773000   0.60534819   -2.7625773   -2.7625773   -2.0364735  0.032054419   -2.7625773   0.72610385   424551 
 4774000   0.60381749   -2.7617116   -2.7617116   -2.0374438   0.03723395   -2.7617116    0.7242678   424551 
 4775000    0.6031448   -2.7614034   -2.7614034   -2.0379425  0.024194294   -2.7614034   0.72346092   424551 
 4776000   0.60310457   -2.7612692   -2.7612692   -2.0378565  0.034135738   -2.7612692   0.72341268   424551 
 4777000   0.60303381   -2.7609325   -2.7609325   -2.0376047    0.0329055   -2.7609325    0.7233278   424551 
 4778000    0.6056064   -2.7629375   -2.7629375   -2.0365239  0.041657337   -2.7629375   0.72641358   424551 
 4779000   0.60393158   -2.7614523   -2.7614523   -2.0370476  0.031708123   -2.7614523   0.72440466   424551 
 4780000   0.60309925    -2.761215    -2.761215   -2.0378087  0.039265462    -2.761215    0.7234063   424551 
 4781000   0.60309726   -2.7601549   -2.7601549    -2.036751  0.031951125   -2.7601549   0.72340391   424551 
 4782000   0.60288526   -2.7594326   -2.7594326    -2.036283  0.039842259   -2.7594326   0.72314962   424551 
 4783000   0.60393439   -2.7608046   -2.7608046   -2.0363966  0.030647582   -2.7608046   0.72440802   424551 
 4784000   0.60414502   -2.7613764   -2.7613764   -2.0367158  0.039741128   -2.7613764   0.72466067   424551 
 4785000    0.6053197   -2.7616735   -2.7616735   -2.0356038    0.0299664   -2.7616735   0.72606968   424551 
 4786000   0.60578791   -2.7625735   -2.7625735   -2.0359422  0.040385995   -2.7625735   0.72663129   424551 
 4787000   0.60471936   -2.7609494   -2.7609494   -2.0355998  0.036734652   -2.7609494   0.72534958   424551 
 4788000   0.60537227    -2.762083    -2.762083   -2.0359503   0.03413924    -2.762083   0.72613274   424551 
 4789000   0.60572926   -2.7622351   -2.7622351   -2.0356742  0.037641486   -2.7622351   0.72656094   424551 
 4790000    0.6055929   -2.7621793   -2.7621793   -2.0357819  0.034774754   -2.7621793   0.72639737   424551 
 4791000   0.60694056   -2.7642494   -2.7642494   -2.0362356  0.035606215   -2.7642494   0.72801388   424551 
 4792000    0.6061085   -2.7632922   -2.7632922   -2.0362763  0.030652752   -2.7632922   0.72701583   424551 
 4793000   0.60684395   -2.7642424   -2.7642424   -2.0363444  0.036613786   -2.7642424   0.72789799   424551 
 4794000   0.60722623   -2.7647963   -2.7647963   -2.0364397  0.047854393   -2.7647963   0.72835653   424551 
 4795000   0.60567577   -2.7639061   -2.7639061   -2.0374094  0.040940472   -2.7639061   0.72649678   424551 
 4796000   0.60692582   -2.7658725   -2.7658725   -2.0378763  0.039580835   -2.7658725    0.7279962   424551 
 4797000   0.60510645   -2.7635556   -2.7635556   -2.0377417  0.037890818   -2.7635556    0.7258139   424551 
 4798000    0.6045817     -2.76331     -2.76331   -2.0381256  0.041901814     -2.76331   0.72518446   424551 
 4799000   0.60493305   -2.7644182   -2.7644182   -2.0388123  0.032539374   -2.7644182    0.7256059   424551 
 4800000    0.6039719   -2.7635707   -2.7635707   -2.0391177  0.025678918   -2.7635707   0.72445302   424551 
 4801000   0.60306653   -2.7627305   -2.7627305   -2.0393635  0.033644893   -2.7627305   0.72336704   424551 
 4802000    0.6051222   -2.7648108   -2.7648108    -2.038978  0.023808603   -2.7648108   0.72583279   424551 
 4803000   0.60431443   -2.7630411   -2.7630411   -2.0381772  0.031140251   -2.7630411   0.72486388   424551 
 4804000   0.60504623   -2.7633556   -2.7633556   -2.0376139  0.030313782   -2.7633556   0.72574166   424551 
 4805000   0.60425579   -2.7637481   -2.7637481   -2.0389546  0.037938132   -2.7637481   0.72479354   424551 
 4806000   0.60488349   -2.7644182   -2.7644182   -2.0388717  0.041472201   -2.7644182   0.72554646   424551 
 4807000   0.60353247   -2.7622636   -2.7622636   -2.0383377  0.024966109   -2.7622636   0.72392594   424551 
 4808000   0.60257933   -2.7607655   -2.7607655   -2.0379829  0.040335115   -2.7607655   0.72278266   424551 
 4809000   0.60295224   -2.7613444   -2.7613444   -2.0381145  0.036798668   -2.7613444   0.72322996   424551 
 4810000   0.60409844   -2.7621108   -2.7621108    -2.037506  0.036729012   -2.7621108    0.7246048   424551 
 4811000   0.60361935    -2.761902    -2.761902   -2.0378718  0.033327472    -2.761902   0.72403015   424551 
 4812000   0.60413316     -2.76245     -2.76245   -2.0378036  0.026279368     -2.76245   0.72464645   424551 
 4813000   0.60360155   -2.7625395   -2.7625395   -2.0385307  0.028958523   -2.7625395   0.72400879   424551 
 4814000    0.6045112   -2.7627158   -2.7627158   -2.0376159  0.036422622   -2.7627158    0.7250999   424551 
 4815000    0.6038369   -2.7621142   -2.7621142   -2.0378231  0.036585064   -2.7621142   0.72429109   424551 
 4816000   0.60453333   -2.7630287   -2.7630287   -2.0379022  0.035982959   -2.7630287   0.72512645   424551 
 4817000   0.60561806   -2.7632367   -2.7632367   -2.0368092  0.031066949   -2.7632367   0.72642756   424551 
 4818000   0.60548707    -2.763284    -2.763284   -2.0370136  0.033678926    -2.763284   0.72627044   424551 
 4819000   0.60579137   -2.7637303   -2.7637303   -2.0370949  0.044445684   -2.7637303   0.72663544   424551 
 4820000   0.60479868   -2.7627862   -2.7627862   -2.0373415  0.024445129   -2.7627862   0.72544473   424551 
 4821000   0.60412473   -2.7619519   -2.7619519   -2.0373155  0.039629659   -2.7619519   0.72463633   424551 
 4822000   0.60448044    -2.763363    -2.763363      -2.0383  0.022344225    -2.763363   0.72506301   424551 
 4823000   0.60528984   -2.7634155   -2.7634155   -2.0373817  0.038569149   -2.7634155   0.72603386   424551 
 4824000   0.60566756   -2.7642799   -2.7642799    -2.037793  0.040194093   -2.7642799   0.72648693   424551 
 4825000   0.60524934   -2.7639601   -2.7639601   -2.0379748  0.033477248   -2.7639601   0.72598528   424551 
 4826000   0.60603393   -2.7657398   -2.7657398   -2.0388134  0.041952426   -2.7657398   0.72692638   424551 
 4827000   0.60445354   -2.7643287   -2.7643287   -2.0392979  0.044997065   -2.7643287   0.72503074   424551 
 4828000   0.60378348    -2.763522    -2.763522    -2.039295   0.03881497    -2.763522   0.72422701   424551 
 4829000   0.60451649   -2.7638905   -2.7638905   -2.0387843  0.023182845   -2.7638905   0.72510624   424551 
 4830000    0.6048101   -2.7643699   -2.7643699   -2.0389115  0.034223046   -2.7643699   0.72545842   424551 
 4831000   0.60475417   -2.7647609   -2.7647609   -2.0393696  0.043745275   -2.7647609   0.72539134   424551 
 4832000   0.60449301   -2.7643495   -2.7643495   -2.0392714  0.039567019   -2.7643495   0.72507808   424551 
 4833000    0.6047998   -2.7644271   -2.7644271    -2.038981  0.036639671   -2.7644271   0.72544607   424551 
 4834000   0.60496293   -2.7645329   -2.7645329   -2.0388912  0.048165889   -2.7645329   0.72564174   424551 
 4835000   0.60413523   -2.7628694   -2.7628694   -2.0382204  0.036303391   -2.7628694   0.72464893   424551 
 4836000   0.60403976   -2.7630505   -2.7630505   -2.0385161  0.034106208   -2.7630505   0.72453441   424551 
 4837000   0.60426932   -2.7630545   -2.7630545   -2.0382447  0.050960947   -2.7630545   0.72480976   424551 
 4838000   0.60413221   -2.7629921   -2.7629921   -2.0383468  0.034768929   -2.7629921    0.7246453   424551 
 4839000   0.60448766   -2.7638765   -2.7638765   -2.0388048  0.041568724   -2.7638765   0.72507167   424551 
 4840000   0.60462594   -2.7636533   -2.7636533   -2.0384158  0.033671094   -2.7636533   0.72523753   424551 
 4841000   0.60476821    -2.763847    -2.763847   -2.0384388  0.035123637    -2.763847   0.72540818   424551 
 4842000    0.6044196   -2.7634153   -2.7634153   -2.0384253  0.039509484   -2.7634153   0.72499003   424551 
 4843000    0.6033817   -2.7632592   -2.7632592   -2.0395141  0.028177979   -2.7632592   0.72374509   424551 
 4844000   0.60457564   -2.7648085   -2.7648085   -2.0396313  0.030604144   -2.7648085    0.7251772   424551 
 4845000   0.60448597   -2.7645953   -2.7645953   -2.0395257  0.033203939   -2.7645953   0.72506964   424551 
 4846000   0.60302271   -2.7625194   -2.7625194    -2.039205  0.027189785   -2.7625194   0.72331448   424551 
 4847000   0.60507439   -2.7645344   -2.7645344   -2.0387589  0.031710028   -2.7645344   0.72577543   424551 
 4848000   0.60407982   -2.7635621   -2.7635621   -2.0389796  0.039033937   -2.7635621   0.72458247   424551 
 4849000   0.60489449   -2.7642619   -2.7642619   -2.0387022   0.03876251   -2.7642619   0.72555965   424551 
 4850000   0.60449051   -2.7640124   -2.7640124   -2.0389373  0.032620141   -2.7640124   0.72507508   424551 
 4851000   0.60391633   -2.7631133   -2.7631133   -2.0387269  0.033136675   -2.7631133   0.72438637   424551 
 4852000   0.60461009   -2.7629518   -2.7629518   -2.0377333  0.034524483   -2.7629518   0.72521852   424551 
 4853000   0.60432175    -2.762954    -2.762954   -2.0380813  0.034872586    -2.762954   0.72487265   424551 
 4854000   0.60506519   -2.7633652   -2.7633652   -2.0376008  0.038398384   -2.7633652    0.7257644   424551 
 4855000   0.60445328   -2.7633959   -2.7633959   -2.0383655  0.040579573   -2.7633959   0.72503043   424551 
 4856000   0.60353795   -2.7624631   -2.7624631   -2.0385306  0.038969277   -2.7624631   0.72393251   424551 
 4857000   0.60404202   -2.7633682   -2.7633682   -2.0388311  0.042546339   -2.7633682   0.72453713   424551 
 4858000   0.60486184   -2.7644589   -2.7644589   -2.0389384  0.044703193   -2.7644589   0.72552049   424551 
 4859000   0.60456582      -2.7645      -2.7645   -2.0393346  0.037430359      -2.7645   0.72516541   424551 
 4860000   0.60420032   -2.7639005   -2.7639005   -2.0391735  0.041111364   -2.7639005     0.724727   424551 
 4861000   0.60340244   -2.7624281   -2.7624281   -2.0386582   0.03676348   -2.7624281   0.72376997   424551 
 4862000   0.60533203   -2.7639002   -2.7639002   -2.0378157  0.023930478   -2.7639002   0.72608447   424551 
 4863000   0.60511331   -2.7641784   -2.7641784   -2.0383563  0.032895393   -2.7641784   0.72582212   424551 
 4864000   0.60538117   -2.7646332   -2.7646332   -2.0384897  0.032518418   -2.7646332   0.72614342   424551 
 4865000   0.60493084   -2.7645079   -2.7645079   -2.0389046  0.040366173   -2.7645079   0.72560325   424551 
 4866000   0.60606978   -2.7655203   -2.7655203   -2.0385509  0.038062953   -2.7655203   0.72696939   424551 
 4867000   0.60475354   -2.7632666   -2.7632666   -2.0378761  0.032888516   -2.7632666   0.72539058   424551 
 4868000   0.60464579   -2.7636449   -2.7636449   -2.0383836  0.041558966   -2.7636449   0.72526133   424551 
 4869000   0.60413427   -2.7628236   -2.7628236   -2.0381758  0.040547566   -2.7628236   0.72464778   424551 
 4870000   0.60503069   -2.7635997   -2.7635997   -2.0378767  0.040487628   -2.7635997   0.72572302   424551 
 4871000   0.60527242   -2.7640854   -2.7640854   -2.0380724  0.033538129   -2.7640854   0.72601297   424551 
 4872000   0.60557051    -2.764101    -2.764101   -2.0377304  0.032761748    -2.764101   0.72637053   424551 
 4873000   0.60427078    -2.762464    -2.762464   -2.0376525  0.030249218    -2.762464   0.72481152   424551 
 4874000   0.60392519   -2.7628506   -2.7628506   -2.0384536  0.034489994   -2.7628506   0.72439699   424551 
 4875000   0.60384821    -2.762633    -2.762633   -2.0383283  0.041012607    -2.762633   0.72430465   424551 
 4876000   0.60454051   -2.7632115   -2.7632115   -2.0380765  0.037676247   -2.7632115   0.72513505   424551 
 4877000   0.60355656   -2.7621659   -2.7621659   -2.0382111   0.04108225   -2.7621659   0.72395483   424551 
 4878000    0.6036767    -2.762226    -2.762226   -2.0381271  0.040172108    -2.762226   0.72409894   424551 
 4879000   0.60507955   -2.7639163   -2.7639163   -2.0381347  0.029141479   -2.7639163   0.72578163   424551 
 4880000   0.60530353   -2.7644863   -2.7644863    -2.038436  0.026225353   -2.7644863   0.72605028   424551 
 4881000   0.60484681   -2.7634883   -2.7634883   -2.0379859  0.045467682   -2.7634883   0.72550245   424551 
 4882000   0.60452398   -2.7631055   -2.7631055   -2.0379903  0.040223153   -2.7631055   0.72511522   424551 
 4883000   0.60354414   -2.7620131   -2.7620131   -2.0380732  0.037715267   -2.7620131   0.72393993   424551 
 4884000   0.60459769   -2.7627065   -2.7627065   -2.0375029  0.032636093   -2.7627065   0.72520364   424551 
 4885000   0.60464775   -2.7626104   -2.7626104   -2.0373467  0.031281294   -2.7626104   0.72526369   424551 
 4886000   0.60509316   -2.7634635   -2.7634635   -2.0376655  0.033201846   -2.7634635   0.72579795   424551 
 4887000   0.60547108   -2.7638146   -2.7638146   -2.0375633  0.033084856   -2.7638146   0.72625126   424551 
 4888000   0.60552258   -2.7647329   -2.7647329   -2.0384199  0.051514754   -2.7647329   0.72631303   424551 
 4889000   0.60520435   -2.7649238   -2.7649238   -2.0389925  0.040993219   -2.7649238   0.72593132   424551 
 4890000   0.60453525     -2.76411     -2.76411   -2.0389813  0.038270159     -2.76411   0.72512874   424551 
 4891000   0.60324626   -2.7629274   -2.7629274   -2.0393447  0.027800508   -2.7629274   0.72358263   424551 
 4892000   0.60371299   -2.7631153   -2.7631153   -2.0389729  0.035602545   -2.7631153   0.72414247   424551 
 4893000   0.60475542   -2.7642092   -2.7642092   -2.0388164   0.03541896   -2.7642092   0.72539284   424551 
 4894000   0.60521982   -2.7644065   -2.7644065   -2.0384566  0.035757996   -2.7644065   0.72594988   424551 
 4895000   0.60549907   -2.7646927   -2.7646927   -2.0384079  0.026565214   -2.7646927   0.72628483   424551 
 4896000    0.6041047   -2.7619093   -2.7619093    -2.037297   0.02431346   -2.7619093   0.72461231   424551 
 4897000   0.60440483   -2.7629663   -2.7629663    -2.037994  0.039425451   -2.7629663   0.72497231   424551 
 4898000   0.60434106    -2.763253    -2.763253   -2.0383572  0.020163188    -2.763253   0.72489582   424551 
 4899000   0.60638176   -2.7655499   -2.7655499   -2.0382063   0.04504406   -2.7655499   0.72734361   424551 
 4900000   0.60539426   -2.7637459   -2.7637459   -2.0375868  0.033218589   -2.7637459   0.72615911   424551 
 4901000   0.60627856   -2.7649288   -2.7649288   -2.0377089  0.028701115   -2.7649288   0.72721981   424551 
 4902000    0.6063085   -2.7652776   -2.7652776   -2.0380219  0.028867321   -2.7652776   0.72725573   424551 
 4903000   0.60413596   -2.7629917   -2.7629917   -2.0383419  0.035137409   -2.7629917    0.7246498   424551 
 4904000   0.60622118   -2.7649282   -2.7649282   -2.0377772  0.048978348   -2.7649282   0.72715099   424551 
 4905000   0.60481069    -2.762932    -2.762932   -2.0374728  0.038973765    -2.762932   0.72545914   424551 
 4906000   0.60546706   -2.7641484   -2.7641484    -2.037902  0.032462773   -2.7641484   0.72624644   424551 
 4907000    0.6046829   -2.7627767   -2.7627767   -2.0374709  0.046711513   -2.7627767   0.72530585   424551 
 4908000   0.60331054   -2.7611988   -2.7611988   -2.0375391  0.023103487   -2.7611988   0.72365973   424551 
 4909000   0.60421445   -2.7621426   -2.7621426   -2.0373987  0.036983344   -2.7621426   0.72474396   424551 
 4910000   0.60340327   -2.7616958   -2.7616958   -2.0379249  0.027713043   -2.7616958   0.72377095   424551 
 4911000    0.6054229   -2.7634576   -2.7634576   -2.0372641  0.036405838   -2.7634576   0.72619346   424551 
 4912000   0.60513172   -2.7631073   -2.7631073   -2.0372631   0.03061168   -2.7631073   0.72584421   424551 
 4913000   0.60387895   -2.7622119   -2.7622119   -2.0378704  0.031137832   -2.7622119   0.72434153   424551 
 4914000   0.60326033   -2.7623365   -2.7623365    -2.038737  0.027151382   -2.7623365   0.72359951   424551 
 4915000   0.60393314   -2.7622956   -2.7622956    -2.037889  0.017162253   -2.7622956   0.72440653   424551 
 4916000   0.60405967   -2.7627382   -2.7627382   -2.0381799  0.033828342   -2.7627382    0.7245583   424551 
 4917000   0.60482342    -2.763425    -2.763425   -2.0379506  0.040586485    -2.763425    0.7254744   424551 
 4918000   0.60458032   -2.7640328   -2.7640328     -2.03885  0.034909343   -2.7640328   0.72518281   424551 
 4919000   0.60379268   -2.7630744   -2.7630744   -2.0388364  0.040071291   -2.7630744   0.72423805   424551 
 4920000   0.60545445   -2.7651123   -2.7651123    -2.038881  0.029293509   -2.7651123   0.72623131   424551 
 4921000     0.605468   -2.7647587   -2.7647587   -2.0385112  0.047034829   -2.7647587   0.72624757   424551 
 4922000   0.60636342   -2.7659221   -2.7659221   -2.0386005  0.034251402   -2.7659221    0.7273216   424551 
 4923000    0.6064501   -2.7660906   -2.7660906    -2.038665  0.040427222   -2.7660906   0.72742558   424551 
 4924000   0.60614517   -2.7664469   -2.7664469   -2.0393871  0.035956026   -2.7664469   0.72705981   424551 
 4925000   0.60592587   -2.7659522   -2.7659522   -2.0391554  0.033757891   -2.7659522   0.72679678   424551 
 4926000   0.60570162   -2.7658213   -2.7658213   -2.0392936  0.023551833   -2.7658213   0.72652779   424551 
 4927000   0.60413874   -2.7644118   -2.7644118   -2.0397586  0.029242018   -2.7644118   0.72465314   424551 
 4928000   0.60438283   -2.7649122   -2.7649122   -2.0399662  0.030451646   -2.7649122   0.72494592   424551 
 4929000   0.60380294   -2.7631164   -2.7631164    -2.038866  0.035606792   -2.7631164   0.72425035   424551 
 4930000   0.60446688   -2.7642026   -2.7642026   -2.0391559  0.037957894   -2.7642026   0.72504674   424551 
 4931000   0.60485116   -2.7645925   -2.7645925   -2.0390848  0.038383933   -2.7645925   0.72550768   424551 
 4932000   0.60444904   -2.7647967   -2.7647967   -2.0397714  0.037582517   -2.7647967   0.72502535   424551 
 4933000   0.60455021     -2.76455     -2.76455   -2.0394034  0.027587633     -2.76455   0.72514669   424551 
 4934000   0.60430573   -2.7642268   -2.7642268   -2.0393734  0.039207423   -2.7642268   0.72485345   424551 
 4935000   0.60577448   -2.7650928   -2.7650928   -2.0384777  0.034488096   -2.7650928   0.72661518   424551 
 4936000   0.60429419   -2.7629826   -2.7629826    -2.038143  0.033249746   -2.7629826    0.7248396   424551 
 4937000   0.60581916   -2.7652211   -2.7652211   -2.0385523  0.041053625   -2.7652211   0.72666878   424551 
 4938000   0.60532102   -2.7639559   -2.7639559   -2.0378846  0.038468929   -2.7639559   0.72607126   424551 
 4939000   0.60579188   -2.7650978   -2.7650978   -2.0384617    0.0410558   -2.7650978   0.72663605   424551 
 4940000   0.60455626   -2.7638174   -2.7638174   -2.0386634  0.050803977   -2.7638174   0.72515395   424551 
 4941000   0.60490663   -2.7644263   -2.7644263   -2.0388521  0.036320788   -2.7644263   0.72557421   424551 
 4942000   0.60497504   -2.7645042   -2.7645042   -2.0388479  0.036967113   -2.7645042   0.72565627   424551 
 4943000   0.60525903   -2.7651088   -2.7651088   -2.0391119   0.03508792   -2.7651088   0.72599691   424551 
 4944000   0.60350534   -2.7634209   -2.7634209   -2.0395276  0.042903304   -2.7634209   0.72389339   424551 
 4945000   0.60424325   -2.7632278   -2.7632278   -2.0384493  0.048894023   -2.7632278    0.7247785   424551 
 4946000   0.60356621   -2.7636709   -2.7636709   -2.0397045  0.045301216   -2.7636709    0.7239664   424551 
 4947000    0.6029307   -2.7634286   -2.7634286   -2.0402245  0.042262786   -2.7634286   0.72320412   424551 
 4948000   0.60389544   -2.7645903   -2.7645903    -2.040229  0.044499072   -2.7645903    0.7243613   424551 
 4949000   0.60312188   -2.7631219   -2.7631219   -2.0396885  0.021301527   -2.7631219   0.72343343   424551 
 4950000   0.60381367   -2.7641979   -2.7641979   -2.0399347  0.031057809   -2.7641979   0.72426323   424551 
 4951000    0.6027586   -2.7628624   -2.7628624   -2.0398647  0.041144064   -2.7628624   0.72299769   424551 
 4952000   0.60374574   -2.7647817   -2.7647817   -2.0405999  0.036162717   -2.7647817   0.72418175   424551 
 4953000   0.60378162   -2.7635177   -2.7635177   -2.0392929  0.035795179   -2.7635177   0.72422479   424551 
 4954000   0.60452193   -2.7641867   -2.7641867   -2.0390739  0.030708208   -2.7641867   0.72511277   424551 
 4955000   0.60484521   -2.7643119   -2.7643119   -2.0388114  0.028515358   -2.7643119   0.72550054   424551 
 4956000   0.60437534   -2.7644384   -2.7644384   -2.0395014  0.034044441   -2.7644384   0.72493694   424551 
 4957000   0.60463672   -2.7646238   -2.7646238   -2.0393733  0.041934451   -2.7646238   0.72525047   424551 
 4958000   0.60486761   -2.7651212   -2.7651212   -2.0395938  0.028481674   -2.7651212   0.72552741   424551 
 4959000   0.60465741    -2.764611    -2.764611   -2.0393358  0.041572922    -2.764611   0.72527528   424551 
 4960000     0.604508   -2.7643335   -2.7643335   -2.0392374  0.049824887   -2.7643335   0.72509606   424551 
 4961000   0.60463384   -2.7652457   -2.7652457   -2.0399987  0.025863757   -2.7652457   0.72524701   424551 
 4962000   0.60524877   -2.7648783   -2.7648783   -2.0388937  0.040110955   -2.7648783    0.7259846   424551 
 4963000   0.60535516   -2.7649228   -2.7649228   -2.0388105  0.043931278   -2.7649228   0.72611222   424551 
 4964000   0.60318575   -2.7630049   -2.7630049   -2.0394948  0.039773078   -2.7630049   0.72351005   424551 
 4965000   0.60409307   -2.7636678   -2.7636678   -2.0390694  0.027255164   -2.7636678   0.72459836   424551 
 4966000      0.60465    -2.764159    -2.764159   -2.0388927   0.02989722    -2.764159   0.72526639   424551 
 4967000   0.60452692   -2.7644125   -2.7644125   -2.0392938  0.035682277   -2.7644125   0.72511876   424551 
 4968000   0.60485721   -2.7646418   -2.7646418   -2.0391269  0.039641848   -2.7646418   0.72551493   424551 
 4969000   0.60476034   -2.7645897   -2.7645897   -2.0391909  0.032495522   -2.7645897   0.72539875   424551 
 4970000    0.6035977   -2.7638729   -2.7638729   -2.0398687  0.033686364   -2.7638729   0.72400418   424551 
 4971000    0.6043461   -2.7647926   -2.7647926   -2.0398908  0.036255976   -2.7647926   0.72490187   424551 
 4972000   0.60431673   -2.7644162   -2.7644162   -2.0395496   0.02930406   -2.7644162   0.72486663   424551 
 4973000   0.60417336   -2.7643203   -2.7643203   -2.0396256  0.038849164   -2.7643203   0.72469466   424551 
 4974000   0.60537608   -2.7651362   -2.7651362   -2.0389989  0.033795665   -2.7651362   0.72613731   424551 
 4975000    0.6040912   -2.7633629   -2.7633629   -2.0387668  0.040851151   -2.7633629   0.72459612   424551 
 4976000   0.60530085   -2.7638999   -2.7638999   -2.0378528  0.027320117   -2.7638999   0.72604707   424551 
 4977000    0.6055969   -2.7643984   -2.7643984   -2.0379962  0.031016047   -2.7643984   0.72640218   424551 
 4978000   0.60460941   -2.7636787   -2.7636787    -2.038461   0.02136949   -2.7636787    0.7252177   424551 
 4979000   0.60366053   -2.7620459   -2.7620459   -2.0379663  0.046919877   -2.7620459   0.72407954   424551 
 4980000   0.60498074   -2.7634051   -2.7634051    -2.037742  0.042313354   -2.7634051   0.72566311   424551 
 4981000    0.6056921   -2.7643862   -2.7643862   -2.0378698  0.031307301   -2.7643862   0.72651637   424551 
 4982000   0.60407612   -2.7631384   -2.7631384   -2.0385604  0.026740117   -2.7631384   0.72457802   424551 
 4983000   0.60372126   -2.7633795   -2.7633795   -2.0392271  0.026493368   -2.7633795   0.72415238   424551 
 4984000   0.60278483   -2.7614973   -2.7614973   -2.0384681    0.0322879   -2.7614973   0.72302915   424551 
 4985000   0.60368358   -2.7622056   -2.7622056   -2.0380984  0.031256338   -2.7622056   0.72410719   424551 
 4986000   0.60438441   -2.7635732   -2.7635732   -2.0386254  0.032746356   -2.7635732   0.72494781   424551 
 4987000   0.60376209   -2.7630395   -2.7630395   -2.0388381  0.023839768   -2.7630395   0.72420136   424551 
 4988000   0.60280071   -2.7624149   -2.7624149   -2.0393667  0.041655176   -2.7624149    0.7230482   424551 
 4989000   0.60437651   -2.7637771   -2.7637771   -2.0388387  0.027237146   -2.7637771   0.72493835   424551 
 4990000   0.60313422   -2.7627337   -2.7627337   -2.0392855  0.035416466   -2.7627337   0.72344824   424551 
 4991000   0.60399425   -2.7637568   -2.7637568    -2.039277  0.038268347   -2.7637568   0.72447983   424551 
 4992000   0.60461571   -2.7643514   -2.7643514   -2.0391261  0.033649903   -2.7643514   0.72522526   424551 
 4993000   0.60478095   -2.7649675   -2.7649675    -2.039544  0.027882064   -2.7649675   0.72542346   424551 
 4994000    0.6043125   -2.7649686   -2.7649686    -2.040107  0.031300981   -2.7649686   0.72486157   424551 
 4995000    0.6045342   -2.7652417   -2.7652417   -2.0401142  0.037201274   -2.7652417   0.72512749   424551 
 4996000   0.60515326   -2.7660108   -2.7660108   -2.0401408  0.025970588   -2.7660108   0.72587004   424551 
 4997000   0.60479531    -2.766022    -2.766022   -2.0405813  0.039066414    -2.766022   0.72544068   424551 
 4998000   0.60534924   -2.7661543   -2.7661543   -2.0400492  0.031781785   -2.7661543   0.72610511   424551 
 4999000    0.6047533   -2.7659373   -2.7659373    -2.040547    0.0284467   -2.7659373   0.72539029   424551 
 5000000   0.60606507   -2.7669241   -2.7669241   -2.0399604  0.034324511   -2.7669241   0.72696373   424551 
Loop time of 19738.7 on 288 procs for 5000000 steps with 424551 atoms

Performance: 109429.945 tau/day, 253.310 timesteps/s
91.5% CPU use with 288 MPI tasks x 1 OpenMP threads

MPI task timing breakdown:
Section |  min time  |  avg time  |  max time  |%varavg|  %CPU | %total
-----------------------------------------------------------------------
Pair    | 434.73     | 2520.2     | 5175       |2171.1 |  95.1 | 12.77
Bond    | 3.2118     | 3.4263     | 3.8615     |   5.5 | 100.0 |  0.02
Neigh   | 941.97     | 3487.9     | 6448.9     |2069.6 |  99.1 | 17.67
Comm    | 3732.2     | 9088.4     | 14647      |2600.1 |  89.6 | 46.04
Output  | 618.82     | 624.81     | 637.53     |  25.5 |  88.2 |  3.17
Modify  | 1977.4     | 3866.5     | 8074.3     |1564.1 |  90.4 | 19.59
Other   |            | 147.4      |            |       |       |  0.75

Nlocal:        1474.14 ave        2576 max        1027 min
Histogram: 5 71 93 68 34 14 1 1 0 1
Nghost:        7017.99 ave       10265 max        2243 min
Histogram: 20 8 14 18 24 21 61 69 36 17
Neighs:        39872.4 ave       84737 max        3153 min
Histogram: 24 10 46 44 48 43 26 21 19 7

Total # of neighbors = 11483239
Ave neighs/atom = 27.047961
Ave special neighs/atom = 0.0000000
Neighbor list builds = 497627
Dangerous builds = 451800

Total wall time: 5:29:04
