LAMMPS (24 Dec 2020)
OMP_NUM_THREADS environment is not set. Defaulting to 1 thread. (src/comm.cpp:94)
  using 1 OpenMP thread(s) per MPI task
#Read the equilibrated lj fluid and add nanocubes

units           lj
atom_style      full
atom_modify     map array first cubes
dimension       3
boundary        p p f
pair_style      lj/cut/opt 2.5

variable        sigma           equal 1.0
variable        epsilon         equal 1.0
read_restart	restart.dat.3000000
Reading restart file ...
  restart file = 29 Oct 2020, LAMMPS = 24 Dec 2020
  restoring atom style full from restart
  orthogonal box = (0.0000000 0.0000000 0.0000000) to (100.00000 100.00000 200.00000)
  4 by 5 by 12 MPI processor grid
  restoring pair style lj/cut/opt from restart
  1010000 atoms
Finding 1-2 1-3 1-4 neighbors ...
  special bond factors lj:    0        0        0       
  special bond factors coul:  0        0        0       
     0 = max # of 1-2 neighbors
     0 = max # of 1-3 neighbors
     0 = max # of 1-4 neighbors
     1 = max # of special neighbors
  special bonds CPU = 1.925 seconds
  read_restart CPU = 2.566 seconds

group		solvent type 1
1010000 atoms in group solvent
read_data	data490_500.cubes group cubes add append
Reading data file ...
  orthogonal box = (0.0000000 0.0000000 0.0000000) to (100.00000 100.00000 200.00000)
  4 by 5 by 12 MPI processor grid
  reading atoms ...
  560070 atoms
  reading velocities ...
  560070 velocities
Finding 1-2 1-3 1-4 neighbors ...
  special bond factors lj:    0        0        0       
  special bond factors coul:  0        0        0       
     0 = max # of 1-2 neighbors
     0 = max # of 1-3 neighbors
     0 = max # of 1-4 neighbors
     1 = max # of special neighbors
  special bonds CPU = 0.005 seconds
  read_data CPU = 1.386 seconds

group 		hull  type 2
218540 atoms in group hull
group 		dummy type 3
341530 atoms in group dummy

neighbor      0.4 bin
neigh_modify  exclude molecule/intra cubes


pair_modify   shift yes

pair_coeff    1 1 1.0 1.0 #solvent
pair_coeff    2 2 0.6 1.0 0.7147 #np
pair_coeff    3 3 0.0 0.0 0.0 #dummy
pair_coeff    2 3 0.0 0.0 0.0 #np dummy
pair_coeff    1 2 0.8 1.0 #np solvent
pair_coeff    1 3 0.0 0.0 2.5 #dummy solvent

# delete solvent where the cubes are
delete_atoms  overlap 1.0 solvent cubes
System init for delete_atoms ...
Neighbor list info ...
  update every 1 steps, delay 10 steps, check yes
  max neighbors/atom: 2000, page size: 100000
  master list distance cutoff = 2.9
  ghost atom cutoff = 2.9
  binsize = 1.45, bins = 69 69 138
  2 neighbor lists, perpetual/occasional/extra = 1 1 0
  (1) command delete_atoms, occasional
      attributes: full, newton on
      pair build: full/bin
      stencil: full/bin/3d
      bin: standard
  (2) pair lj/cut/opt, perpetual
      attributes: half, newton on
      pair build: half/bin/newton
      stencil: half/bin/3d/newton
      bin: standard
WARNING: Delete_atoms cutoff > minimum neighbor cutoff (src/delete_atoms.cpp:307)
WARNING: Ignoring 'compress yes' for molecular system (src/delete_atoms.cpp:125)
Deleted 499530 atoms, new total = 1070540


pair_coeff    1 1 1.0 1.0 #solvent
pair_coeff    2 2 0.6 1.0 0.7147 #np
pair_coeff    3 3 0.0 0.0 0.0 #dummy
pair_coeff    2 3 0.0 0.0 0.0 #np dummy
pair_coeff    1 2 0.8 1.0 #np solvent
pair_coeff    1 3 0.0 0.0 0.0 #dummy solvent


comm_modify   mode multi cutoff/multi 1 2.5 cutoff/multi 2 2.5 cutoff/multi 3 6.95

reset_timestep 	0

balance 	1.05 shift z 10 1.05
Balancing ...
Neighbor list info ...
  update every 1 steps, delay 10 steps, check yes
  max neighbors/atom: 2000, page size: 100000
  master list distance cutoff = 2.9
  ghost atom cutoff = 6.95
  binsize = 1.45, bins = 69 69 138
  1 neighbor lists, perpetual/occasional/extra = 1 0 0
  (1) pair lj/cut/opt, perpetual
      attributes: half, newton on
      pair build: half/bin/newton
      stencil: half/bin/3d/newton
      bin: standard
 rebalancing time: 0.014 seconds
  iteration count = 5
  initial/final maximal load/proc = 6759.0000 5358.0000
  initial/final imbalance factor  = 1.5152727 1.2011882
  x cuts: 0.0000000 0.25000000 0.50000000 0.75000000 1.0000000
  y cuts: 0.0000000 0.20000000 0.40000000 0.60000000 0.80000000 1.0000000
  z cuts: 0.0000000 0.059895833 0.11718750 0.17447917 0.23437500 0.28645833 0.34895833 0.40364583 0.47135417 0.52343750 0.57291667 0.63541667 1.0000000

####################### WALLS ###########################

variable       epsilonWall equal 2*${epsilon}
variable       epsilonWall equal 2*1
variable       repulsive   equal   0.7147*${sigma}
variable       repulsive   equal   0.7147*1
variable       full	   equal   3*${sigma}
variable       full	   equal   3*1
region         lowWall block EDGE EDGE EDGE EDGE EDGE 2

fix            topWall all wall/lj93 zhi EDGE 	       ${epsilonWall} ${sigma} ${repulsive} units box
fix            topWall all wall/lj93 zhi EDGE 	       2 ${sigma} ${repulsive} units box
fix            topWall all wall/lj93 zhi EDGE 	       2 1 ${repulsive} units box
fix            topWall all wall/lj93 zhi EDGE 	       2 1 0.7147 units box
fix            lowSol solvent wall/lj93 zlo EDGE                ${epsilonWall} ${sigma} ${full} units box
fix            lowSol solvent wall/lj93 zlo EDGE                2 ${sigma} ${full} units box
fix            lowSol solvent wall/lj93 zlo EDGE                2 1 ${full} units box
fix            lowSol solvent wall/lj93 zlo EDGE                2 1 3 units box
fix 	       lowCub cubes wall/lj93 zlo EDGE                ${epsilonWall} ${sigma} ${repulsive} units box
fix 	       lowCub cubes wall/lj93 zlo EDGE                2 ${sigma} ${repulsive} units box
fix 	       lowCub cubes wall/lj93 zlo EDGE                2 1 ${repulsive} units box
fix 	       lowCub cubes wall/lj93 zlo EDGE                2 1 0.7147 units box


###################### COMPUTES ##########################

compute        bin1 solvent chunk/atom bin/1d z upper 1.0


######################  FIXES ############################


fix             peclet solvent ave/chunk 10000 1 10000 bin1 density/number norm                  none ave one file density.profile

fix              temp solvent ave/chunk 10000 1 10000 bin1 temp norm                  none ave one file temp.profile

fix             1 cubes rigid/nve/small molecule #temp ${temp} ${temp} 10
  create bodies CPU = 0.059 seconds
  490 rigid bodies with 560070 atoms
  6.9283411 = max distance from body owner to body atom

fix             2 solvent nvt temp ${temp} ${temp} 10
fix             2 solvent nvt temp 1.2 ${temp} 10
fix             2 solvent nvt temp 1.2 1.2 10

#### Load balancing

fix             bal all balance 1000 1.05 shift z 10 1.05

############### Diagnostics and computes ###################

compute        	com cubes          rigid/local   1 mol x y z
compute        	quat cubes         rigid/local   1 mol quatw quati quatj quatk

compute 	cc2 cubes 	   chunk/atom 	 molecule
compute 	msd cubes 	   msd/chunk 	 cc2

fix 		msd all ave/time  1 1 10000 c_msd[*] file dump.msd ave one mode vector

dump            1 all custom 500000 dump.lammpstrj id mol type x y z
dump		cubetrj hull custom 500000 cubes.lammpstrj id mol type x y z
dump            com cubes local 10000 dump.*.xyz c_com[*]
dump	        xyz hull xyz 100000 cubes.xyz
dump            quat cubes      local 10000 dump.*.quat c_quat[*]
#dump		mol cubes molfile 10000 mol.xyz xyz


dump            2 all image 10000 image.*.png type type
dump_modify     2 pad 8
dump		image cubes image 10000 image_cubes.*.png type type
dump_modify	image pad 8
dump            3 all movie 5000 movie.avi type type
dump		4 cubes movie 5000 movie_cubes.avi type type


thermo          1000
thermo_style    custom step temp epair evdwl etotal press pe ke atoms

restart         1000000 restart.dat
timestep        0.005
timer           full
New timer settings: style=full  mode=nosync  timeout=off

#equilibration run with nvt on
run            2000000
Per MPI rank memory allocation (min/avg/max) = 19.34 | 29.04 | 32.49 Mbytes
Step Temp E_pair E_vdwl TotEng Press PotEng KinEng Atoms 
       0   0.85367057   -1.9697504   -1.9697504   -1.3579905  -0.35004369   -1.9697504    0.6117599  1070540 
    1000   0.86805187   -1.9692898   -1.9692898   -1.3472239  -0.03010079   -1.9692898   0.62206587  1070540 
    2000   0.88532968   -1.9649675   -1.9649675   -1.3305199 -0.0013000996   -1.9649675   0.63444754  1070540 
    3000   0.90467482   -1.9600376   -1.9600376   -1.3117269  0.013257085   -1.9600376   0.64831071  1070540 
    4000   0.92211393   -1.9523884   -1.9523884   -1.2915804  0.050091942   -1.9523884   0.66080797  1070540 
    5000   0.93851022    -1.943187    -1.943187    -1.270629  0.070351955    -1.943187   0.67255794  1070540 
    6000   0.95438189   -1.9327979   -1.9327979    -1.248866  0.096771406   -1.9327979   0.68393194  1070540 
    7000   0.97109781   -1.9225587   -1.9225587   -1.2266478   0.11505938   -1.9225587   0.69591095  1070540 
    8000   0.98600154   -1.9105682   -1.9105682   -1.2039769   0.12871226   -1.9105682    0.7065913  1070540 
    9000    1.0025836   -1.8997419   -1.8997419   -1.1812675   0.14599532   -1.8997419   0.71847438  1070540 
   10000    1.0157585   -1.8864834   -1.8864834   -1.1585676   0.16726668   -1.8864834   0.72791585  1070540 
   11000    1.0279167   -1.8723545   -1.8723545   -1.1357259    0.1798086   -1.8723545   0.73662868  1070540 
   12000    1.0380629   -1.8568246   -1.8568246   -1.1129249    0.1763153   -1.8568246   0.74389969  1070540 
   13000    1.0466007   -1.8401036   -1.8401036   -1.0900856   0.16880003   -1.8401036   0.75001802  1070540 
   14000    1.0536976   -1.8224471   -1.8224471   -1.0673432    0.1549514   -1.8224471   0.75510388  1070540 
   15000    1.0561594   -1.8013428   -1.8013428   -1.0444748   0.15249732   -1.8013428   0.75686804  1070540 
   16000    1.0609124   -1.7817952   -1.7817952   -1.0215211    0.1203002   -1.7817952   0.76027411  1070540 
   17000    1.0615952   -1.7591492   -1.7591492   -0.9983857   0.10622275   -1.7591492   0.76076345  1070540 
   18000    1.0610178    -1.735588    -1.735588  -0.97523832  0.097913345    -1.735588   0.76034967  1070540 
   19000    1.0635719   -1.7139816   -1.7139816  -0.95180159  0.085484037   -1.7139816   0.76218004  1070540 
   20000    1.0663558    -1.692514    -1.692514  -0.92833899  0.076435185    -1.692514   0.76417504  1070540 
   21000    1.0692844   -1.6712167   -1.6712167  -0.90494302  0.068568737   -1.6712167    0.7662737  1070540 
   22000    1.0739842   -1.6509613   -1.6509613  -0.88131967  0.069470493   -1.6509613   0.76964167  1070540 
   23000    1.0770252   -1.6295525   -1.6295525  -0.85773155  0.067474202   -1.6295525   0.77182094  1070540 
   24000     1.081734   -1.6094247   -1.6094247  -0.83422929  0.066688617   -1.6094247   0.77519539  1070540 
   25000    1.0871999   -1.5899041   -1.5899041  -0.81079176  0.064765701   -1.5899041   0.77911238  1070540 
   26000    1.0940949    -1.571493    -1.571493   -0.7874395  0.070932365    -1.571493   0.78405351  1070540 
   27000    1.0993745    -1.552063    -1.552063  -0.76422606  0.072625949    -1.552063   0.78783699  1070540 
   28000    1.1044663   -1.5325037   -1.5325037  -0.74101781   0.08032989   -1.5325037   0.79148588  1070540 
   29000    1.1114234   -1.5147852   -1.5147852   -0.7183137  0.076202935   -1.5147852    0.7964715  1070540 
   30000    1.1178892   -1.4970765   -1.4970765  -0.69597144  0.088610424   -1.4970765   0.80110501  1070540 
   31000     1.126194   -1.4807929   -1.4807929   -0.6737365  0.089910359   -1.4807929    0.8070564  1070540 
   32000    1.1331853   -1.4641425   -1.4641425  -0.65207596  0.092367681   -1.4641425   0.81206653  1070540 
   33000    1.1393828   -1.4472318   -1.4472318  -0.63072404  0.087879731   -1.4472318   0.81650781  1070540 
   34000    1.1448428   -1.4304367   -1.4304367  -0.61001611  0.099138111   -1.4304367   0.82042059  1070540 
   35000    1.1523432   -1.4156207   -1.4156207  -0.58982515   0.10547418   -1.4156207   0.82579556  1070540 
   36000    1.1612706   -1.4024384   -1.4024384  -0.57024534   0.11230656   -1.4024384    0.8321931  1070540 
   37000    1.1667053   -1.3874765   -1.3874765  -0.55138878   0.12222991   -1.3874765   0.83608776  1070540 
   38000    1.1748717   -1.3754061   -1.3754061  -0.53346608   0.12984657   -1.3754061   0.84193998  1070540 
   39000     1.179252   -1.3617323   -1.3617323  -0.51665335   0.13045183   -1.3617323   0.84507899  1070540 
   40000    1.1853081   -1.3502217   -1.3502217  -0.50080272   0.13353599   -1.3502217   0.84941896  1070540 
   41000    1.1908974    -1.339601    -1.339601  -0.48617663   0.13665325    -1.339601   0.85342435  1070540 
   42000     1.196386   -1.3299693   -1.3299693  -0.47261168   0.14473539   -1.3299693   0.85735766  1070540 
   43000    1.2029389   -1.3229555   -1.3229555  -0.46090186   0.14789987   -1.3229555   0.86205361  1070540 
   44000    1.2063837    -1.315699    -1.315699   -0.4511768    0.1420417    -1.315699   0.86452221  1070540 
   45000    1.2086101   -1.3100178   -1.3100178  -0.44390017   0.15253165   -1.3100178   0.86611767  1070540 
   46000    1.2092096   -1.3054622   -1.3054622  -0.43891489    0.1555663   -1.3054622   0.86654728  1070540 
   47000    1.2083595   -1.3024565   -1.3024565   -0.4365184   0.15767067   -1.3024565    0.8659381  1070540 
   48000    1.2064251   -1.3013322   -1.3013322  -0.43678032   0.15874707   -1.3013322   0.86455188  1070540 
   49000    1.2051582   -1.3025368   -1.3025368  -0.43889279    0.1511653   -1.3025368   0.86364399  1070540 
   50000    1.1996469   -1.3017144   -1.3017144  -0.44201998   0.15773065   -1.3017144   0.85969443  1070540 
   51000    1.1960044   -1.3019175   -1.3019175  -0.44483336   0.15257372   -1.3019175   0.85708418  1070540 
   52000    1.1960694   -1.3035016   -1.3035016  -0.44637091   0.15397854   -1.3035016   0.85713073  1070540 
   53000    1.1952898   -1.3027595   -1.3027595  -0.44618743   0.15654394   -1.3027595   0.85657205  1070540 
   54000    1.1975617   -1.3026908   -1.3026908  -0.44449066   0.15582675   -1.3026908   0.85820014  1070540 
   55000    1.1983927    -1.300525    -1.300525  -0.44172935   0.15243736    -1.300525   0.85879565  1070540 
   56000    1.2001867   -1.2982916   -1.2982916  -0.43821034   0.16159002   -1.2982916    0.8600813  1070540 
   57000    1.2054018   -1.2987186   -1.2987186  -0.43490009   0.16014126   -1.2987186   0.86381855  1070540 
   58000    1.2042626   -1.2956207   -1.2956207  -0.43261851   0.16296326   -1.2956207   0.86300217  1070540 
   59000    1.2053069   -1.2951511   -1.2951511  -0.43140062   0.16605024   -1.2951511   0.86375052  1070540 
   60000    1.2032585   -1.2936088   -1.2936088  -0.43132624   0.16288364   -1.2936088   0.86228259  1070540 
   61000    1.2005541   -1.2923028   -1.2923028  -0.43195822   0.15792575   -1.2923028   0.86034462  1070540 
   62000    1.1998335   -1.2924839   -1.2924839   -0.4326557   0.16067793   -1.2924839   0.85982815  1070540 
   63000    1.1998114   -1.2920368   -1.2920368   -0.4322245   0.15194174   -1.2920368   0.85981234  1070540 
   64000    1.1986359   -1.2897205   -1.2897205  -0.43075057    0.1603378   -1.2897205   0.85896997  1070540 
   65000    1.1995957   -1.2877544   -1.2877544  -0.42809666   0.15874628   -1.2877544   0.85965774  1070540 
   66000    1.2028191   -1.2863565   -1.2863565  -0.42438877   0.16154329   -1.2863565    0.8619677  1070540 
   67000    1.2058261    -1.284636    -1.284636  -0.42051341   0.16403964    -1.284636    0.8641226  1070540 
   68000    1.2072612    -1.282528    -1.282528  -0.41737695   0.17205134    -1.282528   0.86515107  1070540 
   69000    1.2081333   -1.2814619   -1.2814619  -0.41568584   0.17043735   -1.2814619   0.86577603  1070540 
   70000    1.2091752   -1.2821493   -1.2821493  -0.41562664   0.16457793   -1.2821493   0.86652268  1070540 
   71000    1.2097218   -1.2843826   -1.2843826  -0.41746822    0.1601291   -1.2843826   0.86691435  1070540 
   72000    1.2066268    -1.285898    -1.285898  -0.42120154   0.16366626    -1.285898   0.86469644  1070540 
   73000    1.2039952   -1.2891714   -1.2891714  -0.42636082   0.17274343   -1.2891714   0.86281055  1070540 
   74000    1.2010472   -1.2919278   -1.2919278  -0.43122989   0.17508265   -1.2919278   0.86069794  1070540 
   75000    1.2001168   -1.2960271   -1.2960271  -0.43599596    0.1701743   -1.2960271   0.86003118  1070540 
   76000    1.1992914   -1.2988969   -1.2988969  -0.43945724   0.17321581   -1.2988969   0.85943969  1070540 
   77000    1.1992004   -1.3009466   -1.3009466  -0.44157219   0.17957749   -1.3009466   0.85937446  1070540 
   78000    1.1992253   -1.3024029   -1.3024029  -0.44301059   0.18432889   -1.3024029   0.85939236  1070540 
   79000    1.1996175   -1.3037956   -1.3037956  -0.44412218   0.18303561   -1.3037956   0.85967338  1070540 
   80000     1.202518   -1.3069045   -1.3069045  -0.44515253   0.17889849   -1.3069045   0.86175194  1070540 
   81000    1.2031425   -1.3087284   -1.3087284  -0.44652891   0.18704685   -1.3087284   0.86219949  1070540 
   82000    1.2024279   -1.3101526   -1.3101526  -0.44846516   0.18147365   -1.3101526   0.86168742  1070540 
   83000    1.2003633   -1.3117977   -1.3117977  -0.45158989   0.18799608   -1.3117977   0.86020782  1070540 
   84000    1.1986202   -1.3135951   -1.3135951  -0.45463643   0.18794938   -1.3135951   0.85895868  1070540 
   85000    1.1993584   -1.3173415   -1.3173415   -0.4578538   0.17913626   -1.3173415   0.85948775  1070540 
   86000    1.1968763   -1.3181225   -1.3181225  -0.46041357   0.18314331   -1.3181225   0.85770896  1070540 
   87000    1.1959279    -1.318787    -1.318787  -0.46175771   0.18976045    -1.318787   0.85702931  1070540 
   88000    1.1956125   -1.3188347   -1.3188347  -0.46203146   0.17663317   -1.3188347   0.85680329  1070540 
   89000    1.1959161   -1.3172778   -1.3172778  -0.46025689   0.17996788   -1.3172778   0.85702088  1070540 
   90000     1.196217   -1.3144074   -1.3144074  -0.45717085   0.17549918   -1.3144074   0.85723655  1070540 
   91000     1.198797   -1.3114464   -1.3114464  -0.45236097   0.18533012   -1.3114464   0.85908539  1070540 
   92000    1.1991174   -1.3068509   -1.3068509   -0.4475359   0.17371078   -1.3068509   0.85931502  1070540 
   93000    1.2008434   -1.3027889   -1.3027889  -0.44223701   0.18154563   -1.3027889   0.86055192  1070540 
   94000    1.2026978   -1.2991112   -1.2991112  -0.43723043   0.17184702   -1.2991112   0.86188079  1070540 
   95000    1.2023684   -1.2944071   -1.2944071  -0.43276233   0.17041109   -1.2944071   0.86164475  1070540 
   96000    1.2027896   -1.2907581   -1.2907581  -0.42881154   0.17538115   -1.2907581   0.86194656  1070540 
   97000    1.2021308   -1.2868577   -1.2868577  -0.42538322   0.16844055   -1.2868577   0.86147449  1070540 
   98000    1.2014119   -1.2835441   -1.2835441  -0.42258478   0.16802874   -1.2835441   0.86095931  1070540 
   99000    1.2023505   -1.2815889   -1.2815889  -0.41995694   0.15584845   -1.2815889   0.86163193  1070540 
  100000    1.2024794   -1.2790512   -1.2790512  -0.41732688   0.16409348   -1.2790512    0.8617243  1070540 
  101000    1.2019323   -1.2763233   -1.2763233   -0.4149911   0.16009108   -1.2763233   0.86133222  1070540 
  102000    1.2024096   -1.2745516   -1.2745516  -0.41287738   0.16301371   -1.2745516   0.86167426  1070540 
  103000    1.2031198   -1.2731681   -1.2731681  -0.41098489   0.15994836   -1.2731681   0.86218326  1070540 
  104000    1.2034625   -1.2718726   -1.2718726  -0.40944372   0.14801444   -1.2718726   0.86242883  1070540 
  105000    1.2025221   -1.2698792   -1.2698792  -0.40812436   0.16089607   -1.2698792   0.86175489  1070540 
  106000     1.201902   -1.2682823   -1.2682823  -0.40697172   0.16050358   -1.2682823   0.86131054  1070540 
  107000    1.2034231   -1.2684787   -1.2684787  -0.40607816   0.15386951   -1.2684787   0.86240054  1070540 
  108000    1.2017059   -1.2668392   -1.2668392  -0.40566924   0.15773801   -1.2668392   0.86116997  1070540 
  109000     1.202376   -1.2668721   -1.2668721  -0.40522192   0.15138691   -1.2668721   0.86165018  1070540 
  110000    1.2025972    -1.266886    -1.266886  -0.40507733   0.15305276    -1.266886   0.86180869  1070540 
  111000    1.2018813   -1.2667367   -1.2667367  -0.40544105   0.15742431   -1.2667367   0.86129567  1070540 
  112000    1.2016057   -1.2674696   -1.2674696  -0.40637141   0.15523306   -1.2674696   0.86109818  1070540 
  113000    1.2014876   -1.2685136   -1.2685136  -0.40750003   0.15169598   -1.2685136   0.86101359  1070540 
  114000    1.1985647   -1.2673718   -1.2673718  -0.40845284   0.15948816   -1.2673718   0.85891893  1070540 
  115000    1.1977652     -1.26734     -1.26734  -0.40899403   0.15906058     -1.26734   0.85834601  1070540 
  116000    1.1983846   -1.2678844   -1.2678844  -0.40909455   0.15782627   -1.2678844   0.85878985  1070540 
  117000    1.2002192   -1.2686086   -1.2686086  -0.40850397    0.1554288   -1.2686086   0.86010461  1070540 
  118000    1.2013924    -1.269004    -1.269004  -0.40805871   0.15433127    -1.269004    0.8609453  1070540 
  119000    1.2008854   -1.2684671   -1.2684671  -0.40788507   0.16079527   -1.2684671   0.86058202  1070540 
  120000    1.2002664   -1.2681103   -1.2681103  -0.40797191   0.15975736   -1.2681103    0.8601384  1070540 
  121000    1.1994177   -1.2678394   -1.2678394  -0.40830915   0.15775968   -1.2678394   0.85953023  1070540 
  122000    1.1988385   -1.2679665   -1.2679665   -0.4088513   0.15796077   -1.2679665   0.85911517  1070540 
  123000    1.2002983   -1.2691126   -1.2691126  -0.40895129   0.16354963   -1.2691126    0.8601613  1070540 
  124000    1.1989608   -1.2680792   -1.2680792  -0.40887648   0.16847404   -1.2680792   0.85920277  1070540 
  125000    1.1999656   -1.2687301   -1.2687301  -0.40880726   0.16260567   -1.2687301   0.85992284  1070540 
  126000     1.198971   -1.2675342   -1.2675342  -0.40832406   0.15668728   -1.2675342   0.85921012  1070540 
  127000    1.2010646   -1.2682431   -1.2682431  -0.40753271   0.15087747   -1.2682431   0.86071041  1070540 
  128000    1.2025255   -1.2683519   -1.2683519  -0.40659454   0.15811954   -1.2683519   0.86175734  1070540 
  129000    1.2022149   -1.2674261   -1.2674261  -0.40589136   0.15929446   -1.2674261   0.86153477  1070540 
  130000    1.2025412   -1.2670387   -1.2670387  -0.40527007   0.16149782   -1.2670387   0.86176858  1070540 
  131000    1.2031771   -1.2675618   -1.2675618  -0.40533752   0.16418877   -1.2675618   0.86222426  1070540 
  132000    1.2026859   -1.2679521   -1.2679521  -0.40607982   0.16483593   -1.2679521   0.86187225  1070540 
  133000    1.2021108   -1.2686825   -1.2686825  -0.40722237   0.16623058   -1.2686825   0.86146016  1070540 
  134000    1.2010058   -1.2691813   -1.2691813    -0.408513   0.15911181   -1.2691813   0.86066829  1070540 
  135000     1.200717   -1.2703225   -1.2703225  -0.40986117   0.16075115   -1.2703225   0.86046131  1070540 
  136000    1.2007642     -1.27119     -1.27119   -0.4106948   0.16503042     -1.27119   0.86049518  1070540 
  137000    1.2015153   -1.2723222   -1.2723222  -0.41128886   0.16610111   -1.2723222   0.86103339  1070540 
  138000    1.2015406   -1.2729913   -1.2729913  -0.41193981   0.17551435   -1.2729913    0.8610515  1070540 
  139000    1.2018849   -1.2740972   -1.2740972   -0.4127989   0.16208933   -1.2740972   0.86129827  1070540 
  140000    1.2034208   -1.2764312   -1.2764312  -0.41403225   0.17274352   -1.2764312   0.86239896  1070540 
  141000    1.2019649   -1.2772105   -1.2772105  -0.41585495   0.17082648   -1.2772105   0.86135557  1070540 
  142000    1.2011558   -1.2790317   -1.2790317  -0.41825594   0.17039537   -1.2790317   0.86077581  1070540 
  143000    1.2003129   -1.2808075   -1.2808075  -0.42063571   0.17505818   -1.2808075   0.86017174  1070540 
  144000    1.2001637   -1.2832722   -1.2832722  -0.42320738   0.17928675   -1.2832722   0.86006478  1070540 
  145000    1.1974361    -1.283527    -1.283527   -0.4254169   0.17457639    -1.283527   0.85811014  1070540 
  146000    1.1984008   -1.2859628   -1.2859628  -0.42716131   0.17950414   -1.2859628   0.85880146  1070540 
  147000    1.1967078   -1.2856972   -1.2856972  -0.42810895   0.17276604   -1.2856972   0.85758826  1070540 
  148000     1.199649   -1.2879286   -1.2879286  -0.42823259   0.17932674   -1.2879286   0.85969599  1070540 
  149000    1.2001649    -1.287999    -1.287999  -0.42793331   0.16527056    -1.287999   0.86006571  1070540 
  150000      1.19923   -1.2870437   -1.2870437  -0.42764804   0.17767859   -1.2870437   0.85939569  1070540 
  151000    1.1991416   -1.2865942   -1.2865942   -0.4272619   0.18114144   -1.2865942   0.85933233  1070540 
  152000    1.1996583   -1.2864112   -1.2864112  -0.42670861   0.16911062   -1.2864112    0.8597026  1070540 
  153000    1.2016771   -1.2876409   -1.2876409  -0.42649155   0.18023939   -1.2876409   0.86114938  1070540 
  154000    1.2002694    -1.286559    -1.286559  -0.42641844   0.16926632    -1.286559   0.86014055  1070540 
  155000     1.199485   -1.2860576   -1.2860576  -0.42647923   0.17914304   -1.2860576   0.85957841  1070540 
  156000    1.1977918   -1.2846984   -1.2846984  -0.42633337   0.17609345   -1.2846984   0.85836505  1070540 
  157000    1.1984784   -1.2845852   -1.2845852  -0.42572815   0.17364932   -1.2845852   0.85885705  1070540 
  158000    1.1983506    -1.283148    -1.283148  -0.42438248   0.16366495    -1.283148   0.85876553  1070540 
  159000    1.1975819   -1.2804183   -1.2804183  -0.42220369   0.16481339   -1.2804183   0.85821462  1070540 
  160000    1.1971519   -1.2769765   -1.2769765  -0.41906999   0.17032214   -1.2769765   0.85790648  1070540 
  161000    1.2006048   -1.2758539   -1.2758539  -0.41547294    0.1661069   -1.2758539   0.86038093  1070540 
  162000     1.202073   -1.2732581   -1.2732581  -0.41182507   0.17342739   -1.2732581   0.86143305  1070540 
  163000    1.2036249   -1.2717305   -1.2717305  -0.40918535   0.16943112   -1.2717305   0.86254519  1070540 
  164000    1.2038252   -1.2704141   -1.2704141   -0.4077254   0.16666272   -1.2704141    0.8626887  1070540 
  165000    1.2032216   -1.2694694   -1.2694694  -0.40721326   0.16537644   -1.2694694   0.86225616  1070540 
  166000    1.2006531   -1.2679275   -1.2679275  -0.40751193   0.15975089   -1.2679275   0.86041553  1070540 
  167000    1.2004594   -1.2681117   -1.2681117  -0.40783503   0.15071216   -1.2681117   0.86027668  1070540 
  168000     1.199222   -1.2670315   -1.2670315  -0.40764148   0.16990279   -1.2670315   0.85938997  1070540 
  169000    1.1980528   -1.2655707   -1.2655707  -0.40701861   0.15480074   -1.2655707   0.85855213  1070540 
  170000    1.1992005   -1.2651321   -1.2651321  -0.40575757   0.16186141   -1.2651321   0.85937453  1070540 
  171000    1.1989745   -1.2630073   -1.2630073  -0.40379473   0.15898588   -1.2630073   0.85921259  1070540 
  172000    1.2009106   -1.2619888   -1.2619888  -0.40138868   0.16453406   -1.2619888   0.86060008  1070540 
  173000    1.2014997   -1.2607668   -1.2607668  -0.39974456   0.16518435   -1.2607668   0.86102224  1070540 
  174000    1.2053087   -1.2626054   -1.2626054  -0.39885354   0.15670337   -1.2626054   0.86375187  1070540 
  175000    1.2014412   -1.2600606   -1.2600606   -0.3990803   0.16503922   -1.2600606    0.8609803  1070540 
  176000       1.2026   -1.2619354   -1.2619354  -0.40012472   0.16346524   -1.2619354   0.86181071  1070540 
  177000    1.2008169   -1.2620748   -1.2620748  -0.40154188   0.15701232   -1.2620748   0.86053292  1070540 
  178000    1.2002537    -1.263278    -1.263278  -0.40314866   0.16194597    -1.263278   0.86012929  1070540 
  179000    1.1966664   -1.2622152   -1.2622152  -0.40465661   0.16377621   -1.2622152    0.8575586  1070540 
  180000    1.1982082   -1.2640471   -1.2640471  -0.40538357   0.15819683   -1.2640471   0.85866348  1070540 
  181000     1.199488   -1.2647658   -1.2647658  -0.40518525   0.15836553   -1.2647658   0.85958057  1070540 
  182000    1.1987037   -1.2634861   -1.2634861  -0.40446755    0.1598023   -1.2634861   0.85901854  1070540 
  183000    1.1988316   -1.2622078   -1.2622078  -0.40309755   0.15779077   -1.2622078   0.85911023  1070540 
  184000    1.2006202   -1.2619899   -1.2619899  -0.40159792   0.16061628   -1.2619899   0.86039198  1070540 
  185000    1.2031266   -1.2622577   -1.2622577  -0.40006955   0.15685705   -1.2622577   0.86218812  1070540 
  186000    1.2026434    -1.261472    -1.261472  -0.39963017   0.16648412    -1.261472   0.86184183  1070540 
  187000    1.2027746   -1.2621048   -1.2621048  -0.40016902    0.1581437   -1.2621048   0.86193582  1070540 
  188000    1.2006634   -1.2618927   -1.2618927  -0.40146985   0.15725228   -1.2618927   0.86042288  1070540 
  189000    1.2003484   -1.2632234   -1.2632234  -0.40302618   0.15745491   -1.2632234   0.86019719  1070540 
  190000    1.1996352   -1.2643379   -1.2643379  -0.40465186    0.1517791   -1.2643379   0.85968608  1070540 
  191000    1.1986551   -1.2649521   -1.2649521  -0.40596838   0.15739928   -1.2649521   0.85898372  1070540 
  192000    1.1981065   -1.2651334   -1.2651334  -0.40654284   0.16178634   -1.2651334   0.85859056  1070540 
  193000    1.1981986    -1.265423    -1.265423  -0.40676641   0.16270838    -1.265423   0.85865657  1070540 
  194000    1.1993191   -1.2658188   -1.2658188  -0.40635924    0.1619523   -1.2658188   0.85945952  1070540 
  195000    1.2005354   -1.2657873   -1.2657873  -0.40545607   0.17015391   -1.2657873   0.86033119  1070540 
  196000    1.2022718    -1.266203    -1.266203  -0.40462745   0.16548018    -1.266203   0.86157552  1070540 
  197000    1.2031616   -1.2666876   -1.2666876   -0.4044745   0.16707148   -1.2666876   0.86221314  1070540 
  198000    1.2025811   -1.2668689   -1.2668689  -0.40507172   0.15897054   -1.2668689    0.8617972  1070540 
  199000    1.2035738   -1.2686797   -1.2686797  -0.40617113   0.15687817   -1.2686797   0.86250855  1070540 
  200000    1.2001853   -1.2676754   -1.2676754  -0.40759518   0.16478601   -1.2676754   0.86008026  1070540 
  201000    1.1993019   -1.2683102   -1.2683102  -0.40886296   0.16610291   -1.2683102    0.8594472  1070540 
  202000    1.2007783   -1.2705674   -1.2705674  -0.41006218    0.1619849   -1.2705674   0.86050525  1070540 
  203000    1.2010051   -1.2715963   -1.2715963   -0.4109285   0.17202001   -1.2715963    0.8606678  1070540 
  204000    1.1997707   -1.2716802   -1.2716802  -0.41189697   0.17455002   -1.2716802   0.85978318  1070540 
  205000    1.2018115   -1.2739083   -1.2739083  -0.41266267   0.16646044   -1.2739083   0.86124566  1070540 
  206000    1.2011399   -1.2744491   -1.2744491  -0.41368472   0.17068866   -1.2744491    0.8607644  1070540 
  207000    1.1999858   -1.2745648   -1.2745648  -0.41462751   0.17360623   -1.2745648   0.85993729  1070540 
  208000    1.1987556   -1.2745419   -1.2745419  -0.41548622   0.17546459   -1.2745419   0.85905572  1070540 
  209000    1.2004094   -1.2763294   -1.2763294  -0.41608858   0.16702262   -1.2763294   0.86024086  1070540 
  210000    1.1998101   -1.2764048   -1.2764048   -0.4165934   0.16899602   -1.2764048    0.8598114  1070540 
  211000    1.1981409   -1.2752454   -1.2752454  -0.41663017   0.17039078   -1.2752454   0.85861525  1070540 
  212000    1.1998952   -1.2760454   -1.2760454  -0.41617299   0.16578063   -1.2760454   0.85987242  1070540 
  213000    1.1999794   -1.2756109   -1.2756109  -0.41567821   0.17172912   -1.2756109   0.85993271  1070540 
  214000    1.2010686   -1.2761979   -1.2761979  -0.41548462   0.17563453   -1.2761979    0.8607133  1070540 
  215000    1.2002464   -1.2757891   -1.2757891  -0.41566504   0.18038004   -1.2757891   0.86012407  1070540 
  216000    1.1999142   -1.2759493   -1.2759493  -0.41606328   0.17231214   -1.2759493   0.85988603  1070540 
  217000     1.199396   -1.2761881   -1.2761881  -0.41667347   0.16879809   -1.2761881   0.85951463  1070540 
  218000    1.1994722   -1.2764305   -1.2764305  -0.41686125   0.17415822   -1.2764305   0.85956928  1070540 
  219000    1.1994506   -1.2765664   -1.2765664  -0.41701256   0.16810423   -1.2765664   0.85955382  1070540 
  220000    1.1980489   -1.2750867   -1.2750867   -0.4165374   0.15849385   -1.2750867    0.8585493  1070540 
  221000    1.1986218   -1.2742471   -1.2742471  -0.41528727   0.16805384   -1.2742471   0.85895984  1070540 
  222000     1.199046   -1.2727971   -1.2727971  -0.41353324   0.16586385   -1.2727971   0.85926382  1070540 
  223000    1.2004687   -1.2715488   -1.2715488  -0.41126544    0.1741006   -1.2715488   0.86028339  1070540 
  224000    1.2012107   -1.2698941   -1.2698941  -0.40907897   0.16766083   -1.2698941   0.86081514  1070540 
  225000    1.2028643   -1.2694117   -1.2694117  -0.40741152   0.16354545   -1.2694117   0.86200014  1070540 
  226000    1.2012625   -1.2673507   -1.2673507  -0.40649845      0.16781   -1.2673507   0.86085222  1070540 
  227000    1.2019925     -1.26744     -1.26744  -0.40606455   0.16937122     -1.26744    0.8613754  1070540 
  228000    1.2006963   -1.2665856   -1.2665856  -0.40613909   0.16226211   -1.2665856   0.86044651  1070540 
  229000    1.1993775   -1.2658335   -1.2658335  -0.40633207    0.1620781   -1.2658335    0.8595014  1070540 
  230000    1.1996698   -1.2659358   -1.2659358  -0.40622491   0.16354054   -1.2659358   0.85971088  1070540 
  231000    1.2008682   -1.2662521   -1.2662521  -0.40568237   0.16599259   -1.2662521    0.8605697  1070540 
  232000    1.2002548   -1.2652085   -1.2652085  -0.40507843   0.16149462   -1.2652085   0.86013009  1070540 
  233000    1.1997958   -1.2639754   -1.2639754   -0.4041742   0.15429821   -1.2639754    0.8598012  1070540 
  234000    1.2002142   -1.2632555   -1.2632555  -0.40315446   0.15756627   -1.2632555   0.86010104  1070540 
  235000    1.2016067   -1.2633778   -1.2633778  -0.40227887   0.15807818   -1.2633778   0.86109893  1070540 
  236000    1.2021211   -1.2629454   -1.2629454  -0.40147791   0.15873691   -1.2629454   0.86146751  1070540 
  237000    1.2022185   -1.2627691   -1.2627691  -0.40123179   0.15751273   -1.2627691   0.86153732  1070540 
  238000    1.2021104   -1.2626692   -1.2626692  -0.40120933   0.16310536   -1.2626692   0.86145984  1070540 
  239000      1.19979   -1.2615311   -1.2615311   -0.4017341    0.1623232   -1.2615311   0.85979702  1070540 
  240000    1.1997704   -1.2617788   -1.2617788  -0.40199585    0.1479612   -1.2617788   0.85978295  1070540 
  241000    1.1977749   -1.2605104   -1.2605104  -0.40215754    0.1594515   -1.2605104   0.85835291  1070540 
  242000    1.1996973   -1.2614382   -1.2614382   -0.4017076   0.16191704   -1.2614382   0.85973056  1070540 
  243000    1.1980973   -1.2598834   -1.2598834  -0.40129937   0.16034335   -1.2598834   0.85858401  1070540 
  244000    1.2012011   -1.2615764   -1.2615764  -0.40076815   0.16069499   -1.2615764   0.86080823  1070540 
  245000    1.2024576   -1.2621118   -1.2621118  -0.40040315   0.16055767   -1.2621118   0.86170868  1070540 
  246000     1.200909   -1.2612698   -1.2612698  -0.40067086   0.16048535   -1.2612698    0.8605989  1070540 
  247000    1.2002188   -1.2616714   -1.2616714  -0.40156712   0.16562273   -1.2616714   0.86010427  1070540 
  248000     1.199031   -1.2618824   -1.2618824  -0.40262936   0.15765976   -1.2618824   0.85925306  1070540 
  249000    1.1990919   -1.2625498   -1.2625498  -0.40325304   0.15385787   -1.2625498   0.85929674  1070540 
  250000    1.1995376   -1.2631047   -1.2631047  -0.40348855   0.15310018   -1.2631047   0.85961614  1070540 
  251000    1.1976954   -1.2612201   -1.2612201  -0.40292411   0.16502874   -1.2612201   0.85829598  1070540 
  252000    1.1993009   -1.2617139   -1.2617139  -0.40226741    0.1566907   -1.2617139   0.85944649  1070540 
  253000    1.2012626   -1.2624347   -1.2624347  -0.40158243   0.15497391   -1.2624347   0.86085232  1070540 
  254000    1.2013975   -1.2621454   -1.2621454  -0.40119644   0.16681486   -1.2621454   0.86094895  1070540 
  255000    1.2018606   -1.2629475   -1.2629475  -0.40166669   0.16234497   -1.2629475   0.86128082  1070540 
  256000    1.2002247   -1.2628106   -1.2628106  -0.40270211   0.16757604   -1.2628106   0.86010852  1070540 
  257000    1.2009184   -1.2647748   -1.2647748  -0.40416915   0.15937798   -1.2647748   0.86060566  1070540 
  258000    1.1991113   -1.2646067   -1.2646067   -0.4052961    0.1633449   -1.2646067   0.85931062  1070540 
  259000    1.1983249   -1.2648656   -1.2648656  -0.40611846   0.16241078   -1.2648656    0.8587471  1070540 
  260000    1.1987816   -1.2656231   -1.2656231  -0.40654869   0.16580081   -1.2656231   0.85907441  1070540 
  261000    1.1994877   -1.2660742   -1.2660742  -0.40649387   0.16340794   -1.2660742   0.85958037  1070540 
  262000    1.2002588   -1.2663574   -1.2663574   -0.4062244   0.16750192   -1.2663574   0.86013299  1070540 
  263000    1.2006616   -1.2666121   -1.2666121  -0.40619048    0.1645534   -1.2666121   0.86042162  1070540 
  264000    1.2005422   -1.2667095   -1.2667095  -0.40637341    0.1651142   -1.2667095   0.86033607  1070540 
  265000    1.2014407   -1.2677094   -1.2677094   -0.4067295   0.16857455   -1.2677094   0.86097994  1070540 
  266000     1.200437    -1.267529    -1.267529  -0.40726832   0.16700131    -1.267529    0.8602607  1070540 
  267000    1.2011352   -1.2685613   -1.2685613  -0.40780032   0.16527871   -1.2685613   0.86076099  1070540 
  268000    1.1993097   -1.2678087   -1.2678087  -0.40835581   0.16436538   -1.2678087   0.85945285  1070540 
  269000    1.2005371   -1.2694112   -1.2694112  -0.40907878   0.16626893   -1.2694112   0.86033239  1070540 
  270000    1.2010716    -1.270439    -1.270439  -0.40972357   0.16392312    -1.270439   0.86071543  1070540 
  271000    1.1990035   -1.2696564   -1.2696564    -0.410423   0.17022733   -1.2696564   0.85923338  1070540 
  272000    1.2000803   -1.2711885   -1.2711885  -0.41118347   0.16165054   -1.2711885   0.86000507  1070540 
  273000    1.1998682   -1.2718038   -1.2718038  -0.41195069   0.16461968   -1.2718038   0.85985306  1070540 
  274000     1.199102   -1.2718237   -1.2718237  -0.41251975   0.16609203   -1.2718237   0.85930398  1070540 
  275000    1.1997842   -1.2725968   -1.2725968  -0.41280391   0.16292572   -1.2725968   0.85979285  1070540 
  276000    1.1981221   -1.2714092   -1.2714092  -0.41280748    0.1605897   -1.2714092   0.85860174  1070540 
  277000    1.1991405   -1.2717598   -1.2717598  -0.41242819    0.1694551   -1.2717598   0.85933158  1070540 
  278000    1.1996972   -1.2718766   -1.2718766  -0.41214615   0.17019461   -1.2718766   0.85973049  1070540 
  279000    1.1999207   -1.2716956   -1.2716956   -0.4118049   0.16985233   -1.2716956   0.85989065  1070540 
  280000    1.1991826    -1.270875    -1.270875  -0.41151326   0.17443068    -1.270875   0.85936172  1070540 
  281000    1.2009057   -1.2715738   -1.2715738  -0.41097725   0.16407093   -1.2715738   0.86059656  1070540 
  282000    1.1996566   -1.2703491   -1.2703491  -0.41064771   0.16890158   -1.2703491   0.85970141  1070540 
  283000    1.2004089   -1.2700263   -1.2700263  -0.40978575   0.16709521   -1.2700263   0.86024055  1070540 
  284000    1.2001949   -1.2693121   -1.2693121  -0.40922495    0.1742651   -1.2693121   0.86008715  1070540 
  285000    1.2019576   -1.2700741   -1.2700741  -0.40872378   0.16673288   -1.2700741   0.86135036  1070540 
  286000    1.1989181   -1.2677358   -1.2677358  -0.40856357   0.17091838   -1.2677358    0.8591722  1070540 
  287000    1.1994989   -1.2679606   -1.2679606  -0.40837217   0.16987352   -1.2679606   0.85958839  1070540 
  288000    1.1992754   -1.2674106   -1.2674106  -0.40798231   0.16321145   -1.2674106   0.85942826  1070540 
  289000    1.2001197   -1.2676974   -1.2676974  -0.40766414   0.16452929   -1.2676974   0.86003326  1070540 
  290000    1.1990415   -1.2662163   -1.2662163  -0.40695567   0.16624769   -1.2662163   0.85926064  1070540 
  291000    1.1995872    -1.265873    -1.265873  -0.40622132   0.16617716    -1.265873   0.85965171  1070540 
  292000    1.1997752   -1.2652675   -1.2652675  -0.40548116   0.16869676   -1.2652675   0.85978639  1070540 
  293000    1.2004936   -1.2648242   -1.2648242  -0.40452299   0.15312675   -1.2648242    0.8603012  1070540 
  294000     1.200128   -1.2636917   -1.2636917  -0.40365249   0.16520273   -1.2636917    0.8600392  1070540 
  295000    1.2016883   -1.2641318   -1.2641318  -0.40297446   0.16109493   -1.2641318   0.86115736  1070540 
  296000    1.2024637     -1.26416     -1.26416  -0.40244696   0.16187182     -1.26416   0.86171304  1070540 
  297000    1.2002906   -1.2628298   -1.2628298  -0.40267403   0.15667317   -1.2628298   0.86015578  1070540 
  298000    1.1996591   -1.2624691   -1.2624691  -0.40276591   0.15969571   -1.2624691   0.85970322  1070540 
  299000    1.1992393    -1.262309    -1.262309   -0.4029066   0.15893393    -1.262309   0.85940236  1070540 
  300000     1.200877   -1.2634454   -1.2634454  -0.40286935   0.16428849   -1.2634454     0.860576  1070540 
  301000    1.1994333   -1.2624715   -1.2624715  -0.40293014    0.1641027   -1.2624715    0.8595414  1070540 
  302000    1.1991792   -1.2619636   -1.2619636  -0.40260427   0.15716947   -1.2619636    0.8593593  1070540 
  303000    1.2017298    -1.263531    -1.263531  -0.40234388   0.15986558    -1.263531   0.86118715  1070540 
  304000    1.2017391   -1.2632196   -1.2632196   -0.4020258   0.15370408   -1.2632196    0.8611938  1070540 
  305000    1.1980192   -1.2602449   -1.2602449  -0.40171684   0.16330488   -1.2602449   0.85852803  1070540 
  306000    1.1986327   -1.2602099   -1.2602099  -0.40124228   0.16801317   -1.2602099   0.85896765  1070540 
  307000    1.2017569    -1.262075    -1.262075  -0.40086843   0.15577366    -1.262075   0.86120654  1070540 
  308000    1.2003051   -1.2608123   -1.2608123  -0.40064618   0.16218699   -1.2608123   0.86016612  1070540 
  309000    1.2004241   -1.2609383   -1.2609383  -0.40068688   0.16924903   -1.2609383   0.86025144  1070540 
  310000    1.2019629   -1.2623925   -1.2623925  -0.40103832   0.15991192   -1.2623925   0.86135419  1070540 
  311000      1.20117   -1.2625731   -1.2625731  -0.40178718   0.15844059   -1.2625731   0.86078592  1070540 
  312000    1.2006724   -1.2631525   -1.2631525  -0.40272317   0.16455201   -1.2631525   0.86042934  1070540 
  313000    1.1996382   -1.2632445   -1.2632445  -0.40355629   0.16644212   -1.2632445   0.85968825  1070540 
  314000    1.1985935   -1.2632678   -1.2632678  -0.40432816    0.1604955   -1.2632678   0.85893961  1070540 
  315000    1.1986319   -1.2635444   -1.2635444  -0.40457724    0.1676681   -1.2635444   0.85896712  1070540 
  316000    1.1996121   -1.2641061   -1.2641061  -0.40443658   0.15729358   -1.2641061   0.85966953  1070540 
  317000    1.1984517   -1.2626529   -1.2626529  -0.40381489   0.15924398   -1.2626529   0.85883797  1070540 
  318000    1.2006238   -1.2634789   -1.2634789  -0.40308433   0.16813662   -1.2634789   0.86039453  1070540 
  319000    1.2021607   -1.2646467   -1.2646467  -0.40315078   0.15313595   -1.2646467   0.86149593  1070540 
  320000    1.2026884   -1.2654275   -1.2654275  -0.40355347   0.16384349   -1.2654275   0.86187406  1070540 
  321000    1.2021823    -1.265894    -1.265894  -0.40438257   0.16713145    -1.265894   0.86151138  1070540 
  322000    1.1982986   -1.2642516   -1.2642516  -0.40552334   0.16109667   -1.2642516   0.85872824  1070540 
  323000    1.1983852    -1.265325    -1.265325  -0.40653466    0.1686596    -1.265325   0.85879032  1070540 
  324000     1.199488   -1.2670367   -1.2670367   -0.4074561   0.16121347   -1.2670367   0.85958062  1070540 
  325000    1.1978992   -1.2663447   -1.2663447  -0.40790268   0.16130122   -1.2663447   0.85844203  1070540 
  326000    1.1982889   -1.2665942   -1.2665942  -0.40787297     0.164927   -1.2665942   0.85872125  1070540 
  327000    1.1988893   -1.2664393   -1.2664393  -0.40728773   0.16786677   -1.2664393   0.85915156  1070540 
  328000    1.1993826   -1.2664711   -1.2664711  -0.40696602   0.16907972   -1.2664711   0.85950507  1070540 
  329000    1.1983995   -1.2653376   -1.2653376  -0.40653705    0.1668716   -1.2653376   0.85880052  1070540 
  330000    1.2014649   -1.2672548   -1.2672548   -0.4062575   0.16274305   -1.2672548   0.86099729  1070540 
  331000    1.2023398   -1.2681987   -1.2681987  -0.40657446   0.16114036   -1.2681987   0.86162422  1070540 
  332000    1.2000025   -1.2673687   -1.2673687  -0.40741937    0.1617318   -1.2673687   0.85994931  1070540 
  333000    1.1997651   -1.2684768   -1.2684768  -0.40869756    0.1679764   -1.2684768   0.85977919  1070540 
  334000    1.2004399   -1.2698678   -1.2698678    -0.409605   0.17389919   -1.2698678   0.86026275  1070540 
  335000    1.1985217   -1.2693953   -1.2693953  -0.41050722   0.16625571   -1.2693953   0.85888811  1070540 
  336000    1.1982933   -1.2698199   -1.2698199  -0.41109543   0.15571764   -1.2698199   0.85872446  1070540 
  337000    1.1990315   -1.2706585   -1.2706585  -0.41140504   0.16855246   -1.2706585   0.85925343  1070540 
  338000    1.1992428    -1.270598    -1.270598  -0.41119309   0.16763112    -1.270598   0.85940491  1070540 
  339000    1.1988226   -1.2698611   -1.2698611  -0.41075735   0.16411218   -1.2698611   0.85910376  1070540 
  340000    1.1990981    -1.269384    -1.269384  -0.41008286   0.17155363    -1.269384   0.85930118  1070540 
  341000    1.2007723   -1.2700687   -1.2700687  -0.40956775    0.1642968   -1.2700687   0.86050092  1070540 
  342000    1.2009425   -1.2696967   -1.2696967  -0.40907379   0.16197957   -1.2696967   0.86062289  1070540 
  343000    1.2009178    -1.269064    -1.269064  -0.40845878   0.17158072    -1.269064   0.86060521  1070540 
  344000    1.2018538   -1.2699416   -1.2699416  -0.40866556    0.1658265   -1.2699416   0.86127599  1070540 
  345000    1.1993485   -1.2686126   -1.2686126  -0.40913193    0.1611218   -1.2686126   0.85948062  1070540 
  346000    1.1987617   -1.2686508   -1.2686508  -0.40959068   0.16838361   -1.2686508   0.85906009  1070540 
  347000    1.1978758   -1.2684238   -1.2684238  -0.40999858   0.16280388   -1.2684238   0.85842523  1070540 
  348000    1.1996556   -1.2695604   -1.2695604  -0.40985966   0.16780796   -1.2695604   0.85970071  1070540 
  349000    1.1969005    -1.267477    -1.267477  -0.40975071   0.16385118    -1.267477    0.8577263  1070540 
  350000    1.1990092   -1.2681561   -1.2681561  -0.40891869   0.16554917   -1.2681561   0.85923745  1070540 
  351000    1.1990486   -1.2670421   -1.2670421  -0.40777637   0.16954346   -1.2670421   0.85926572  1070540 
  352000    1.2005147   -1.2668327   -1.2668327   -0.4065163   0.16463752   -1.2668327   0.86031635  1070540 
  353000    1.2006433    -1.265645    -1.265645  -0.40523651   0.16232631    -1.265645   0.86040854  1070540 
  354000    1.2012196   -1.2651676   -1.2651676  -0.40434608    0.1683708   -1.2651676   0.86082151  1070540 
  355000    1.2016594   -1.2652371   -1.2652371  -0.40410044    0.1680018   -1.2652371    0.8611367  1070540 
  356000    1.2021228   -1.2659198   -1.2659198  -0.40445104    0.1650593   -1.2659198   0.86146877  1070540 
  357000    1.2030794   -1.2673096   -1.2673096  -0.40515537   0.15711944   -1.2673096   0.86215426  1070540 
  358000    1.1993651   -1.2658371   -1.2658371   -0.4063446   0.16224242   -1.2658371   0.85949254  1070540 
  359000    1.1997328   -1.2670833   -1.2670833  -0.40732727   0.16115013   -1.2670833   0.85975599  1070540 
  360000    1.1981174   -1.2666394   -1.2666394  -0.40804101     0.158768   -1.2666394   0.85859842  1070540 
  361000    1.1963787   -1.2651179   -1.2651179  -0.40776552   0.16190915   -1.2651179   0.85735239  1070540 
  362000    1.1982875   -1.2656625   -1.2656625   -0.4069422   0.16602371   -1.2656625    0.8587203  1070540 
  363000    1.1990789    -1.264972    -1.264972   -0.4056846   0.16294586    -1.264972   0.85928742  1070540 
  364000    1.2002944    -1.264312    -1.264312  -0.40415348   0.15637562    -1.264312   0.86015848  1070540 
  365000     1.202742   -1.2649402   -1.2649402  -0.40302769   0.15999233   -1.2649402   0.86191249  1070540 
  366000    1.2014712   -1.2633601   -1.2633601  -0.40235825   0.15774042   -1.2633601    0.8610018  1070540 
  367000    1.2033292   -1.2648114   -1.2648114  -0.40247812   0.16201191   -1.2648114   0.86233326  1070540 
  368000    1.1997136   -1.2629587   -1.2629587  -0.40321643   0.16033817   -1.2629587   0.85974225  1070540 
  369000    1.2003815   -1.2646088   -1.2646088  -0.40438793   0.16358961   -1.2646088   0.86022089  1070540 
  370000    1.1987387    -1.264334    -1.264334  -0.40529043    0.1633212    -1.264334    0.8590436  1070540 
  371000    1.1975573   -1.2641545   -1.2641545  -0.40595751   0.16563895   -1.2641545     0.858197  1070540 
  372000    1.1988996   -1.2652946   -1.2652946  -0.40613568   0.15592957   -1.2652946   0.85915894  1070540 
  373000    1.1983813   -1.2645893   -1.2645893  -0.40580175   0.15988178   -1.2645893   0.85878752  1070540 
  374000    1.1990604   -1.2642939   -1.2642939  -0.40501973   0.15628663   -1.2642939   0.85927419  1070540 
  375000    1.2006214   -1.2644429   -1.2644429  -0.40405015   0.16710414   -1.2644429   0.86039279  1070540 
  376000    1.2024916   -1.2647659   -1.2647659  -0.40303287   0.16381728   -1.2647659   0.86173301  1070540 
  377000    1.2011282   -1.2635244   -1.2635244  -0.40276841   0.16813142   -1.2635244   0.86075599  1070540 
  378000    1.2013929   -1.2637927   -1.2637927  -0.40284697   0.15842554   -1.2637927   0.86094569  1070540 
  379000    1.2014709   -1.2642617   -1.2642617  -0.40326012   0.16495891   -1.2642617    0.8610016  1070540 
  380000    1.2001231   -1.2639229   -1.2639229   -0.4038872   0.16094908   -1.2639229   0.86003574  1070540 
  381000    1.1997616   -1.2642012   -1.2642012  -0.40442453   0.16454095   -1.2642012   0.85977664  1070540 
  382000     1.199396   -1.2646051   -1.2646051   -0.4050904   0.17248075   -1.2646051   0.85951466  1070540 
  383000    1.1987559   -1.2646435   -1.2646435  -0.40558754   0.16668111   -1.2646435   0.85905597  1070540 
  384000    1.1998374   -1.2658223   -1.2658223  -0.40599132   0.15874927   -1.2658223     0.859831  1070540 
  385000     1.198641   -1.2651335   -1.2651335  -0.40615985   0.15745436   -1.2651335   0.85897363  1070540 
  386000    1.1999809   -1.2659809   -1.2659809  -0.40604709   0.16986307   -1.2659809    0.8599338  1070540 
  387000    1.1997945   -1.2660036   -1.2660036  -0.40620342   0.16899161   -1.2660036   0.85980021  1070540 
  388000    1.2006362   -1.2666032   -1.2666032  -0.40619979   0.15472538   -1.2666032   0.86040344  1070540 
  389000    1.2001733   -1.2662399   -1.2662399  -0.40616814   0.16213235   -1.2662399   0.86007172  1070540 
  390000    1.1997427   -1.2661594   -1.2661594  -0.40639625   0.16201524   -1.2661594   0.85976312  1070540 
  391000     1.200652   -1.2671439   -1.2671439  -0.40672919   0.17159874   -1.2671439   0.86041472  1070540 
  392000    1.2005107   -1.2675848   -1.2675848  -0.40727125   0.16669437   -1.2675848   0.86031351  1070540 
  393000    1.1998485    -1.267948    -1.267948  -0.40810906   0.17081132    -1.267948    0.8598389  1070540 
  394000    1.1992333   -1.2684634   -1.2684634  -0.40906534   0.16238005   -1.2684634   0.85939804  1070540 
  395000    1.1994865   -1.2693921   -1.2693921  -0.40981256   0.16616659   -1.2693921   0.85957951  1070540 
  396000    1.1977129   -1.2681457   -1.2681457  -0.40983713   0.16465363   -1.2681457   0.85830855  1070540 
  397000     1.200068   -1.2688631   -1.2688631  -0.40886682    0.1686826   -1.2688631   0.85999623  1070540 
  398000     1.199973    -1.267979    -1.267979  -0.40805084    0.1668197    -1.267979   0.85992814  1070540 
  399000    1.2005179   -1.2673246   -1.2673246  -0.40700601   0.16547002   -1.2673246   0.86031861  1070540 
  400000    1.2012947   -1.2672814   -1.2672814  -0.40640612   0.16844276   -1.2672814    0.8608753  1070540 
  401000    1.2028068   -1.2681691   -1.2681691  -0.40621014   0.16028847   -1.2681691   0.86195894  1070540 
  402000      1.20124   -1.2679257   -1.2679257   -0.4070896    0.1587417   -1.2679257   0.86083611  1070540 
  403000    1.1994978   -1.2675983   -1.2675983  -0.40801071   0.16777468   -1.2675983   0.85958761  1070540 
  404000    1.1999902   -1.2688579   -1.2688579  -0.40891741   0.16534483   -1.2688579   0.85994045  1070540 
  405000    1.1976795   -1.2679218   -1.2679218  -0.40963723    0.1583282   -1.2679218   0.85828459  1070540 
  406000    1.1990448   -1.2687921   -1.2687921  -0.40952909   0.16995629   -1.2687921   0.85926301  1070540 
  407000    1.1982527   -1.2678183   -1.2678183  -0.40912297   0.16107222   -1.2678183   0.85869536  1070540 
  408000    1.1990378   -1.2675845   -1.2675845  -0.40832658    0.1689592   -1.2675845   0.85925795  1070540 
  409000    1.1995807   -1.2670471   -1.2670471  -0.40740012   0.16155147   -1.2670471   0.85964699  1070540 
  410000     1.201178   -1.2670646   -1.2670646  -0.40627289   0.16697866   -1.2670646   0.86079169  1070540 
  411000    1.2017444   -1.2668187   -1.2668187  -0.40562107   0.16973036   -1.2668187   0.86119761  1070540 
  412000    1.2000775   -1.2656991   -1.2656991  -0.40569603   0.15955304   -1.2656991   0.86000303  1070540 
  413000    1.2007979   -1.2668511   -1.2668511  -0.40633185   0.16098482   -1.2668511   0.86051929  1070540 
  414000    1.2003216    -1.267058    -1.267058  -0.40688003   0.16597247    -1.267058   0.86017794  1070540 
  415000    1.1994448   -1.2667165   -1.2667165  -0.40716682     0.167674   -1.2667165   0.85954965  1070540 
  416000    1.1987758   -1.2665638   -1.2665638  -0.40749356   0.15953769   -1.2665638   0.85907024  1070540 
  417000    1.1997371   -1.2672739   -1.2672739   -0.4075148   0.15811239   -1.2672739   0.85975912  1070540 
  418000    1.1997179    -1.266739    -1.266739  -0.40699369   0.16234017    -1.266739   0.85974532  1070540 
  419000    1.2013448   -1.2671032   -1.2671032  -0.40619199   0.15561406   -1.2671032   0.86091121  1070540 
  420000    1.2010133   -1.2663339   -1.2663339  -0.40566028   0.16739651   -1.2663339   0.86067364  1070540 
  421000    1.2000686   -1.2651243   -1.2651243  -0.40512765   0.16504701   -1.2651243   0.85999668  1070540 
  422000    1.1994965   -1.2644693   -1.2644693   -0.4048826   0.16433161   -1.2644693   0.85958671  1070540 
  423000    1.2006396   -1.2652455   -1.2652455  -0.40483965   0.16081559   -1.2652455   0.86040586  1070540 
  424000    1.1994395     -1.26468     -1.26468  -0.40513418   0.16521563     -1.26468   0.85954584  1070540 
  425000    1.1990322   -1.2645104   -1.2645104  -0.40525642    0.1624505   -1.2645104   0.85925394  1070540 
  426000    1.1987073   -1.2644975   -1.2644975  -0.40547639   0.15662051   -1.2644975   0.85902113  1070540 
  427000    1.2000613   -1.2653406   -1.2653406  -0.40534922   0.14878551   -1.2653406    0.8599914  1070540 
  428000     1.199788   -1.2650526   -1.2650526  -0.40525704   0.16117377   -1.2650526   0.85979558  1070540 
  429000    1.2002842   -1.2653093   -1.2653093  -0.40515818   0.16269342   -1.2653093   0.86015115  1070540 
  430000    1.1987012   -1.2641097   -1.2641097    -0.405093   0.16634187   -1.2641097   0.85901674  1070540 
  431000    1.2009329    -1.265496    -1.265496  -0.40487993   0.15546768    -1.265496   0.86061606  1070540 
  432000    1.2017609   -1.2659311   -1.2659311  -0.40472164   0.16801504   -1.2659311   0.86120944  1070540 
  433000    1.2002619   -1.2650533   -1.2650533  -0.40491817   0.16115342   -1.2650533   0.86013518  1070540 
  434000    1.1988595   -1.2644047   -1.2644047  -0.40527452   0.16194304   -1.2644047   0.85913022  1070540 
  435000    1.1981234   -1.2641064   -1.2641064  -0.40550378   0.15873975   -1.2641064   0.85860265  1070540 
  436000     1.199767   -1.2650229   -1.2650229  -0.40524237   0.16271384   -1.2650229   0.85978051  1070540 
  437000    1.2010089   -1.2653334   -1.2653334  -0.40466289    0.1643639   -1.2653334    0.8606705  1070540 
  438000    1.1996335   -1.2645077   -1.2645077  -0.40482288   0.17081142   -1.2645077   0.85968487  1070540 
  439000    1.2001248   -1.2646954   -1.2646954  -0.40465846   0.15867972   -1.2646954   0.86003691  1070540 
  440000    1.2007555   -1.2651791   -1.2651791  -0.40469015   0.16731383   -1.2651791   0.86048891  1070540 
  441000     1.199556    -1.264748    -1.264748  -0.40511866   0.15480897    -1.264748   0.85962935  1070540 
  442000    1.2005113    -1.265924    -1.265924  -0.40561014   0.16076346    -1.265924   0.86031388  1070540 
  443000    1.2000731   -1.2660343   -1.2660343  -0.40603442   0.16583482   -1.2660343    0.8599999  1070540 
  444000    1.1978647   -1.2649853   -1.2649853  -0.40656798   0.15722248   -1.2649853   0.85841727  1070540 
  445000    1.1990249   -1.2657932   -1.2657932  -0.40654445    0.1601876   -1.2657932   0.85924873  1070540 
  446000     1.200537   -1.2666244   -1.2666244  -0.40629206   0.16489386   -1.2666244    0.8603323  1070540 
  447000    1.2007587   -1.2665552   -1.2665552    -0.406064   0.16099699   -1.2665552   0.86049117  1070540 
  448000    1.2004107   -1.2662791   -1.2662791  -0.40603728   0.15963929   -1.2662791   0.86024181  1070540 
  449000    1.2000615    -1.265852    -1.265852  -0.40586045   0.17008347    -1.265852   0.85999154  1070540 
  450000    1.1998636   -1.2658387   -1.2658387   -0.4059889    0.1581313   -1.2658387   0.85984975  1070540 
  451000    1.1997618   -1.2661042   -1.2661042  -0.40632734   0.16321006   -1.2661042   0.85977683  1070540 
  452000    1.1989518   -1.2659393   -1.2659393  -0.40674297   0.16473417   -1.2659393   0.85919637  1070540 
  453000    1.2002841   -1.2672234   -1.2672234  -0.40707236   0.17450754   -1.2672234   0.86015107  1070540 
  454000    1.1996716   -1.2672409   -1.2672409  -0.40752874   0.16323093   -1.2672409   0.85971219  1070540 
  455000    1.1994345   -1.2677034   -1.2677034  -0.40816114   0.16651193   -1.2677034   0.85954225  1070540 
  456000    1.1998847   -1.2682969   -1.2682969  -0.40843206   0.15584076   -1.2682969   0.85986485  1070540 
  457000     1.200619   -1.2687622   -1.2687622  -0.40837112   0.15719269   -1.2687622   0.86039108  1070540 
  458000    1.1997597   -1.2680338   -1.2680338  -0.40825855   0.16902509   -1.2680338   0.85977529  1070540 
  459000     1.199986    -1.268064    -1.268064  -0.40812656   0.16530366    -1.268064   0.85993744  1070540 
  460000    1.1992091   -1.2672635   -1.2672635  -0.40788277   0.16399251   -1.2672635   0.85938073  1070540 
  461000      1.20003   -1.2675127   -1.2675127  -0.40754372   0.17329243   -1.2675127   0.85996902  1070540 
  462000    1.2006431    -1.267724    -1.267724  -0.40731566   0.16701908    -1.267724   0.86040838  1070540 
  463000     1.199513   -1.2669893   -1.2669893  -0.40739074   0.16715706   -1.2669893   0.85959854  1070540 
  464000    1.2005799   -1.2677486   -1.2677486  -0.40738552   0.16747557   -1.2677486   0.86036307  1070540 
  465000    1.2016266   -1.2686621   -1.2686621  -0.40754897   0.16677108   -1.2686621   0.86111313  1070540 
  466000    1.2000206   -1.2680098   -1.2680098  -0.40804754   0.16349618   -1.2680098   0.85996224  1070540 
  467000    1.1991971   -1.2681556   -1.2681556  -0.40878346   0.16462444   -1.2681556   0.85937214  1070540 
  468000    1.1985479   -1.2686355   -1.2686355  -0.40972856   0.16001654   -1.2686355   0.85890692  1070540 
  469000    1.1984937   -1.2689224   -1.2689224   -0.4100544     0.159034   -1.2689224   0.85886805  1070540 
  470000     1.198206   -1.2685146   -1.2685146  -0.40985277   0.16306058   -1.2685146   0.85866186  1070540 
  471000    1.1977341   -1.2674275   -1.2674275  -0.40910376   0.16794213   -1.2674275   0.85832371  1070540 
  472000    1.2002587   -1.2681976   -1.2681976  -0.40806468   0.16765889   -1.2681976    0.8601329  1070540 
  473000    1.2007416   -1.2675685   -1.2675685  -0.40708959    0.1673885   -1.2675685   0.86047895  1070540 
  474000    1.2020056   -1.2675955   -1.2675955  -0.40621074    0.1653505   -1.2675955   0.86138479  1070540 
  475000    1.2001876   -1.2660624   -1.2660624  -0.40598042   0.17106839   -1.2660624   0.86008193  1070540 
  476000    1.2008621   -1.2670692   -1.2670692  -0.40650393    0.1671291   -1.2670692   0.86056528  1070540 
  477000    1.1999808    -1.267314    -1.267314  -0.40738031   0.16527487    -1.267314   0.85993371  1070540 
  478000     1.198483   -1.2672111   -1.2672111  -0.40835069   0.17385237   -1.2672111   0.85886042  1070540 
  479000    1.1982842   -1.2677646   -1.2677646  -0.40904672   0.16383137   -1.2677646    0.8587179  1070540 
  480000    1.1986309   -1.2679462   -1.2679462   -0.4089798   0.16292838   -1.2679462   0.85896638  1070540 
  481000    1.1990975   -1.2675396   -1.2675396  -0.40823881   0.16184873   -1.2675396   0.85930078  1070540 
  482000    1.2000419   -1.2671635   -1.2671635  -0.40718592   0.16687456   -1.2671635   0.85997754  1070540 
  483000    1.2012075   -1.2670463   -1.2670463  -0.40623345   0.16332709   -1.2670463   0.86081282  1070540 
  484000    1.2012966   -1.2663567   -1.2663567  -0.40548002   0.17131427   -1.2663567   0.86087669  1070540 
  485000    1.2013811   -1.2660389   -1.2660389  -0.40510167   0.16200903   -1.2660389   0.86093724  1070540 
  486000    1.2015908   -1.2664149   -1.2664149  -0.40532741   0.15880675   -1.2664149   0.86108753  1070540 
  487000    1.1997603   -1.2658723   -1.2658723  -0.40609654   0.16023089   -1.2658723   0.85977575  1070540 
  488000    1.1999533   -1.2668482   -1.2668482   -0.4069342   0.16169284   -1.2668482   0.85991404  1070540 
  489000    1.1996936   -1.2673086   -1.2673086  -0.40758073   0.16127952   -1.2673086   0.85972791  1070540 
  490000    1.1986939   -1.2673894   -1.2673894  -0.40837788   0.16321591   -1.2673894   0.85901151  1070540 
  491000    1.1982375    -1.267095    -1.267095  -0.40841059   0.15989272    -1.267095   0.85868444  1070540 
  492000    1.1993639   -1.2673206   -1.2673206  -0.40782897   0.16632933   -1.2673206   0.85949165  1070540 
  493000    1.1991205   -1.2662235   -1.2662235  -0.40690628   0.16097926   -1.2662235   0.85931722  1070540 
  494000    1.1996876   -1.2659318   -1.2659318  -0.40620817   0.16962904   -1.2659318   0.85972362  1070540 
  495000     1.201217   -1.2663341   -1.2663341  -0.40551445   0.16295627   -1.2663341   0.86081962  1070540 
  496000    1.2021264   -1.2667937   -1.2667937  -0.40532236   0.15426655   -1.2667937   0.86147133  1070540 
  497000    1.2013863    -1.266682    -1.266682  -0.40574103     0.162768    -1.266682   0.86094098  1070540 
  498000    1.1987783   -1.2657273   -1.2657273  -0.40665533   0.16844116   -1.2657273   0.85907202  1070540 
  499000    1.1988658   -1.2663906   -1.2663906   -0.4072559   0.15683996   -1.2663906   0.85913473  1070540 
  500000    1.1990228   -1.2668845   -1.2668845  -0.40763726   0.16161783   -1.2668845   0.85924719  1070540 
  501000    1.2002797   -1.2678489   -1.2678489  -0.40770093   0.16432529   -1.2678489   0.86014797  1070540 
  502000    1.1983183   -1.2660811   -1.2660811  -0.40733873   0.16554244   -1.2660811   0.85874235  1070540 
  503000     1.198856   -1.2660231   -1.2660231  -0.40689546    0.1685456   -1.2660231   0.85912766  1070540 
  504000    1.2019511   -1.2677244   -1.2677244   -0.4063787   0.16808677   -1.2677244   0.86134567  1070540 
  505000    1.1999138   -1.2658662   -1.2658662  -0.40598047   0.16552935   -1.2658662   0.85988571  1070540 
  506000    1.2022888   -1.2676707   -1.2676707  -0.40608295   0.16465331   -1.2676707    0.8615877  1070540 
  507000    1.2024844   -1.2682326   -1.2682326  -0.40650472   0.16461326   -1.2682326   0.86172788  1070540 
  508000    1.1998871   -1.2673981   -1.2673981  -0.40753156   0.16930403   -1.2673981   0.85986656  1070540 
  509000    1.1975931   -1.2668835   -1.2668835  -0.40866084   0.15913957   -1.2668835   0.85822266  1070540 
  510000    1.1979302   -1.2677376   -1.2677376   -0.4092733   0.17058347   -1.2677376   0.85846425  1070540 
  511000    1.1972247   -1.2674783   -1.2674783  -0.40951959   0.16280969   -1.2674783   0.85795867  1070540 
  512000    1.1986652   -1.2681132   -1.2681132  -0.40912223   0.16307854   -1.2681132   0.85899093  1070540 
  513000    1.1989155   -1.2673771   -1.2673771  -0.40820675    0.1628003   -1.2673771   0.85917032  1070540 
  514000    1.2001975   -1.2673801   -1.2673801  -0.40729108   0.17721146   -1.2673801   0.86008902  1070540 
  515000    1.2029429   -1.2687793   -1.2687793  -0.40672282   0.16545918   -1.2687793   0.86205643  1070540 
  516000     1.201495   -1.2672337   -1.2672337  -0.40621488   0.15528079   -1.2672337   0.86101886  1070540 
  517000    1.2015084   -1.2671539   -1.2671539  -0.40612542   0.16588808   -1.2671539   0.86102844  1070540 
  518000    1.1999715   -1.2663867   -1.2663867  -0.40645957   0.17186904   -1.2663867   0.85992709  1070540 
  519000    1.2001822   -1.2669815   -1.2669815  -0.40690338    0.1630846   -1.2669815   0.86007808  1070540 
  520000    1.2000106   -1.2676521   -1.2676521    -0.407697   0.16196349   -1.2676521   0.85995512  1070540 
  521000    1.2007245   -1.2685611   -1.2685611  -0.40809435   0.16219049   -1.2685611   0.86046671  1070540 
  522000     1.198448   -1.2670334   -1.2670334  -0.40819815   0.15837302   -1.2670334   0.85883529  1070540 
  523000    1.2012978   -1.2692074   -1.2692074  -0.40832992    0.1684574   -1.2692074   0.86087752  1070540 
  524000    1.2010807   -1.2690862   -1.2690862  -0.40836429   0.16667578   -1.2690862   0.86072193  1070540 
  525000    1.1994842   -1.2680397   -1.2680397  -0.40846182   0.16914964   -1.2680397   0.85957786  1070540 
  526000    1.1987089   -1.2675673   -1.2675673  -0.40854503   0.16061558   -1.2675673   0.85902226  1070540 
  527000    1.1989741    -1.267568    -1.267568  -0.40835563   0.16473498    -1.267568   0.85921234  1070540 
  528000     1.201296   -1.2690348   -1.2690348   -0.4081586   0.15795133   -1.2690348   0.86087625  1070540 
  529000    1.1994561   -1.2677165   -1.2677165  -0.40815878   0.16289664   -1.2677165   0.85955774  1070540 
  530000    1.2001723   -1.2681615   -1.2681615  -0.40809055    0.1700265   -1.2681615   0.86007098  1070540 
  531000    1.2006027   -1.2685395   -1.2685395  -0.40816008   0.16718036   -1.2685395   0.86037938  1070540 
  532000    1.1996147   -1.2676001   -1.2676001  -0.40792869   0.16264369   -1.2676001   0.85967138  1070540 
  533000    1.2007367   -1.2681405   -1.2681405  -0.40766498   0.16580624   -1.2681405   0.86047547  1070540 
  534000    1.1988503   -1.2669016   -1.2669016  -0.40777806   0.16596116   -1.2669016   0.85912357  1070540 
  535000    1.1996497    -1.267692    -1.267692  -0.40799554   0.16445379    -1.267692   0.85969649  1070540 
  536000    1.1995875   -1.2676315   -1.2676315  -0.40797959   0.16633828   -1.2676315   0.85965192  1070540 
  537000    1.1999794   -1.2677033   -1.2677033  -0.40777051   0.16875739   -1.2677033   0.85993277  1070540 
  538000    1.1997072   -1.2675557   -1.2675557  -0.40781806   0.16191236   -1.2675557   0.85973769  1070540 
  539000    1.1993671   -1.2672187   -1.2672187  -0.40772473   0.16270586   -1.2672187   0.85949392  1070540 
  540000    1.1973262   -1.2655085   -1.2655085  -0.40747714   0.16800686   -1.2655085   0.85803136  1070540 
  541000    1.1992114   -1.2662604   -1.2662604  -0.40687797   0.16866865   -1.2662604   0.85938241  1070540 
  542000    1.2005052   -1.2665521   -1.2665521  -0.40624251   0.15560445   -1.2665521   0.86030955  1070540 
  543000    1.2016466   -1.2670196   -1.2670196  -0.40589206   0.16201254   -1.2670196   0.86112749  1070540 
  544000    1.2025242   -1.2676786   -1.2676786  -0.40592213   0.15967332   -1.2676786   0.86175643  1070540 
  545000    1.2006551    -1.267057    -1.267057  -0.40664008   0.16203605    -1.267057   0.86041693  1070540 
  546000    1.1989681   -1.2665854   -1.2665854  -0.40737741   0.16656781   -1.2665854   0.85920804  1070540 
  547000    1.1999284   -1.2680164   -1.2680164  -0.40812021   0.16278585   -1.2680164   0.85989616  1070540 
  548000    1.1975792   -1.2668731   -1.2668731  -0.40866045   0.15929988   -1.2668731   0.85821269  1070540 
  549000    1.1991486   -1.2681472   -1.2681472  -0.40880978   0.16156075   -1.2681472   0.85933737  1070540 
  550000    1.1986558   -1.2672864   -1.2672864  -0.40830216   0.16899734   -1.2672864   0.85898423  1070540 
  551000    1.2002086   -1.2675036   -1.2675036  -0.40740664   0.16408748   -1.2675036   0.86009701  1070540 
  552000    1.2002967   -1.2668895   -1.2668895  -0.40672938   0.16848313   -1.2668895   0.86016013  1070540 
  553000    1.2015595   -1.2671135   -1.2671135  -0.40604836   0.17386266   -1.2671135   0.86106509  1070540 
  554000     1.202037    -1.267157    -1.267157  -0.40574973   0.16629759    -1.267157   0.86140726  1070540 
  555000    1.2007872   -1.2661867   -1.2661867  -0.40567511   0.16119068   -1.2661867   0.86051162  1070540 
  556000    1.1999021   -1.2657976   -1.2657976   -0.4059202   0.17105982   -1.2657976   0.85987738  1070540 
  557000     1.199712   -1.2659553   -1.2659553  -0.40621419   0.16436358   -1.2659553    0.8597411  1070540 
  558000    1.2007718   -1.2667983   -1.2667983  -0.40629764   0.16178798   -1.2667983   0.86050062  1070540 
  559000     1.200741   -1.2670824   -1.2670824  -0.40660384   0.16826718   -1.2670824   0.86047854  1070540 
  560000    1.2003374    -1.267114    -1.267114  -0.40692475   0.15994093    -1.267114   0.86018929  1070540 
  561000    1.1978865   -1.2658738   -1.2658738  -0.40744089   0.16725337   -1.2658738   0.85843293  1070540 
  562000    1.2016616   -1.2690666   -1.2690666  -0.40792837   0.16397558   -1.2690666   0.86113822  1070540 
  563000     1.197233   -1.2663691   -1.2663691   -0.4084045   0.16502689   -1.2663691   0.85796457  1070540 
  564000     1.198298   -1.2668687   -1.2668687  -0.40814085   0.16083564   -1.2668687   0.85872782  1070540 
  565000    1.2008004   -1.2679049   -1.2679049  -0.40738387   0.16133502   -1.2679049   0.86052108  1070540 
  566000    1.1991514   -1.2659239   -1.2659239  -0.40658459   0.16875094   -1.2659239   0.85933935  1070540 
  567000    1.2011722   -1.2667021   -1.2667021  -0.40591458   0.16344574   -1.2667021   0.86078756  1070540 
  568000    1.2016381   -1.2667326   -1.2667326  -0.40561124   0.16403345   -1.2667326   0.86112141  1070540 
  569000    1.1998884   -1.2656262   -1.2656262  -0.40575868    0.1628172   -1.2656262    0.8598675  1070540 
  570000    1.1996684   -1.2658211   -1.2658211   -0.4061112    0.1640506   -1.2658211   0.85970987  1070540 
  571000    1.2006284    -1.266812    -1.266812  -0.40641421   0.15909194    -1.266812   0.86039783  1070540 
  572000    1.2003935    -1.266892    -1.266892  -0.40666248   0.16545547    -1.266892    0.8602295  1070540 
  573000    1.1995695   -1.2664323   -1.2664323  -0.40679327   0.16751289   -1.2664323   0.85963903  1070540 
  574000    1.1994207   -1.2663538   -1.2663538  -0.40682137   0.16007507   -1.2663538   0.85953239  1070540 
  575000    1.2003415   -1.2667075   -1.2667075  -0.40651526   0.16444842   -1.2667075   0.86019221  1070540 
  576000    1.2001189   -1.2666029   -1.2666029  -0.40657016   0.15531681   -1.2666029   0.86003271  1070540 
  577000    1.2016096   -1.2679888   -1.2679888  -0.40688775   0.16201469   -1.2679888   0.86110101  1070540 
  578000    1.1978165   -1.2657901   -1.2657901  -0.40740734   0.16581211   -1.2657901   0.85838278  1070540 
  579000    1.1991923   -1.2673811   -1.2673811  -0.40801244   0.15711693   -1.2673811   0.85936868  1070540 
  580000    1.1993825   -1.2679296   -1.2679296  -0.40842458   0.16305198   -1.2679296     0.859505  1070540 
  581000    1.1993399   -1.2681118   -1.2681118  -0.40863734   0.16135976   -1.2681118   0.85947449  1070540 
  582000    1.1986657   -1.2677813   -1.2677813  -0.40878993   0.16530079   -1.2677813   0.85899132  1070540 
  583000     1.199314   -1.2678514   -1.2678514  -0.40839555   0.17521902   -1.2678514   0.85945588  1070540 
  584000    1.1996084   -1.2676789   -1.2676789  -0.40801201   0.16095126   -1.2676789   0.85966686  1070540 
  585000    1.2001233   -1.2674992   -1.2674992  -0.40746341   0.16817057   -1.2674992   0.86003583  1070540 
  586000    1.1984512   -1.2657559   -1.2657559  -0.40691834   0.16767572   -1.2657559   0.85883761  1070540 
  587000    1.2013752    -1.267373    -1.267373  -0.40644003   0.17057438    -1.267373   0.86093297  1070540 
  588000    1.2013946    -1.267159    -1.267159  -0.40621207   0.16659374    -1.267159    0.8609469  1070540 
  589000     1.199782   -1.2663497   -1.2663497  -0.40655845   0.16699475   -1.2663497   0.85979127  1070540 
  590000    1.2009502   -1.2676744   -1.2676744  -0.40704599   0.16022345   -1.2676744   0.86062844  1070540 
  591000    1.2002156   -1.2681017   -1.2681017  -0.40799967   0.16816584   -1.2681017   0.86010201  1070540 
  592000    1.1998194   -1.2686191   -1.2686191  -0.40880095   0.16682504   -1.2686191   0.85981811  1070540 
  593000    1.1982622   -1.2684695   -1.2684695  -0.40976738   0.15387657   -1.2684695   0.85870217  1070540 
  594000    1.1995589   -1.2697742   -1.2697742  -0.41014276   0.16103823   -1.2697742   0.85963144  1070540 
  595000    1.1984288   -1.2689275   -1.2689275  -0.41010596   0.16118648   -1.2689275   0.85882154  1070540 
  596000    1.1987924   -1.2689166   -1.2689166  -0.40983446   0.15749199   -1.2689166   0.85908209  1070540 
  597000    1.2006196   -1.2695778   -1.2695778  -0.40918628     0.164058   -1.2695778   0.86039154  1070540 
  598000    1.2002708   -1.2686336   -1.2686336  -0.40849202   0.16098449   -1.2686336   0.86014154  1070540 
  599000    1.2006208    -1.268083    -1.268083  -0.40769059   0.16468741    -1.268083   0.86039242  1070540 
  600000    1.2004997   -1.2670498   -1.2670498  -0.40674418   0.15977923   -1.2670498   0.86030557  1070540 
  601000    1.2008916   -1.2663902   -1.2663902  -0.40580378   0.16191714   -1.2663902   0.86058647  1070540 
  602000    1.2016783   -1.2666107   -1.2666107  -0.40546051   0.15978041   -1.2666107   0.86115018  1070540 
  603000    1.2033923   -1.2679385   -1.2679385  -0.40555994   0.15613913   -1.2679385   0.86237853  1070540 
  604000     1.199972   -1.2660837   -1.2660837  -0.40615632   0.15938628   -1.2660837   0.85992741  1070540 
  605000    1.2005801   -1.2672177   -1.2672177  -0.40685452   0.16259475   -1.2672177   0.86036322  1070540 
  606000    1.2000766   -1.2678431   -1.2678431  -0.40784069   0.16456836   -1.2678431   0.86000243  1070540 
  607000    1.1981317    -1.267029    -1.267029  -0.40842036   0.16294331    -1.267029   0.85860861  1070540 
  608000    1.1978381   -1.2674737   -1.2674737   -0.4090755   0.16174143   -1.2674737   0.85839822  1070540 
  609000    1.1988444   -1.2681333   -1.2681333  -0.40901388   0.16559556   -1.2681333    0.8591194  1070540 
  610000    1.1979855   -1.2671445   -1.2671445   -0.4086406   0.17188756   -1.2671445   0.85850388  1070540 
  611000    1.2001285   -1.2678618   -1.2678618  -0.40782217   0.15777812   -1.2678618   0.86003959  1070540 
  612000    1.2000287   -1.2668196   -1.2668196  -0.40685148   0.16024298   -1.2668196   0.85996808  1070540 
  613000    1.2020797   -1.2674496   -1.2674496  -0.40601178   0.16253973   -1.2674496   0.86143784  1070540 
  614000    1.2009019   -1.2659784   -1.2659784  -0.40538463   0.16677219   -1.2659784   0.86059382  1070540 
  615000    1.2009614   -1.2657813   -1.2657813  -0.40514484   0.15744277   -1.2657813   0.86063643  1070540 
  616000     1.200652    -1.265687    -1.265687  -0.40527233   0.16930671    -1.265687   0.86041472  1070540 
  617000    1.2001209   -1.2657965   -1.2657965  -0.40576241   0.16399369   -1.2657965   0.86003412  1070540 
  618000    1.2002837   -1.2668285   -1.2668285  -0.40667764   0.17161949   -1.2668285   0.86015084  1070540 
  619000    1.2001378    -1.267704    -1.267704  -0.40765773   0.16059559    -1.267704   0.86004623  1070540 
  620000    1.1991897   -1.2678313   -1.2678313  -0.40846443   0.16557509   -1.2678313   0.85936683  1070540 
  621000    1.1984307   -1.2680668   -1.2680668  -0.40924385   0.16820495   -1.2680668   0.85882291  1070540 
  622000    1.1984784   -1.2681571   -1.2681571  -0.40930005    0.1609646   -1.2681571   0.85885709  1070540 
  623000    1.1977251   -1.2666818   -1.2666818  -0.40836458   0.16024923   -1.2666818   0.85831723  1070540 
  624000    1.2004186   -1.2672381   -1.2672381  -0.40699059   0.16555319   -1.2672381    0.8602475  1070540 
  625000    1.2003684   -1.2660441   -1.2660441  -0.40583265    0.1608557   -1.2660441   0.86021148  1070540 
  626000     1.203329   -1.2673002   -1.2673002  -0.40496702    0.1670351   -1.2673002   0.86233314  1070540 
  627000     1.202093   -1.2665444   -1.2665444  -0.40509698   0.16663621   -1.2665444   0.86144741  1070540 
  628000    1.2003878   -1.2661742   -1.2661742  -0.40594882   0.16106492   -1.2661742   0.86022541  1070540 
  629000    1.1998144   -1.2670488   -1.2670488  -0.40723425   0.16395059   -1.2670488   0.85981451  1070540 
  630000    1.1990977   -1.2676602   -1.2676602  -0.40835928   0.16402516   -1.2676602   0.85930092  1070540 
  631000    1.1989602   -1.2684018   -1.2684018   -0.4091995   0.16713978   -1.2684018   0.85920234  1070540 
  632000    1.1974583   -1.2676348   -1.2676348  -0.40950878   0.17138826   -1.2676348   0.85812604  1070540 
  633000    1.1989468   -1.2685584   -1.2685584  -0.40936564   0.16039885   -1.2685584   0.85919273  1070540 
  634000    1.1992835   -1.2680604   -1.2680604  -0.40862635   0.16591937   -1.2680604   0.85943407  1070540 
  635000    1.2000892   -1.2679868   -1.2679868  -0.40797542   0.16047802   -1.2679868   0.86001139  1070540 
  636000    1.2015099    -1.268263    -1.268263  -0.40723346   0.16482066    -1.268263   0.86102956  1070540 
  637000    1.2018538   -1.2680922   -1.2680922  -0.40681625   0.16866019   -1.2680922   0.86127598  1070540 
  638000    1.1991733   -1.2662322   -1.2662322  -0.40687711   0.16121905   -1.2662322   0.85935505  1070540 
  639000    1.2002949   -1.2671313   -1.2671313  -0.40697249   0.16548674   -1.2671313   0.86015882  1070540 
  640000    1.2008322   -1.2677234   -1.2677234  -0.40717958   0.16603665   -1.2677234   0.86054386  1070540 
  641000    1.2009489   -1.2682509   -1.2682509  -0.40762333    0.1595855   -1.2682509   0.86062754  1070540 
  642000    1.1986411   -1.2671647   -1.2671647  -0.40819107   0.16574375   -1.2671647   0.85897367  1070540 
  643000    1.2000556   -1.2683171   -1.2683171  -0.40832981   0.16420107   -1.2683171   0.85998731  1070540 
  644000    1.1995327   -1.2680885   -1.2680885   -0.4084759   0.15968539   -1.2680885   0.85961264  1070540 
  645000    1.1997037    -1.268246    -1.268246  -0.40851089    0.1601249    -1.268246   0.85973516  1070540 
  646000    1.2012162   -1.2687583   -1.2687583  -0.40793928     0.159981   -1.2687583   0.86081904  1070540 
  647000    1.1994925   -1.2674298   -1.2674298    -0.407846   0.17038432   -1.2674298   0.85958381  1070540 
  648000    1.2001709   -1.2675753   -1.2675753  -0.40750531   0.16873473   -1.2675753      0.86007  1070540 
  649000    1.2025226   -1.2689382   -1.2689382  -0.40718295   0.15868933   -1.2689382   0.86175528  1070540 
  650000    1.2000108   -1.2671733   -1.2671733  -0.40721808   0.17388187   -1.2671733   0.85995525  1070540 
  651000    1.2007024   -1.2681112   -1.2681112  -0.40766033   0.16534007   -1.2681112   0.86045085  1070540 
  652000    1.2001308    -1.268326    -1.268326  -0.40828479   0.16812679    -1.268326   0.86004124  1070540 
  653000    1.2013498   -1.2696012   -1.2696012  -0.40868643   0.16780414   -1.2696012   0.86091482  1070540 
  654000    1.1986857   -1.2680792   -1.2680792  -0.40907348   0.15389724   -1.2680792   0.85900567  1070540 
  655000    1.1999127   -1.2690071   -1.2690071  -0.40912217   0.16505815   -1.2690071   0.85988494  1070540 
  656000     1.198931    -1.268172    -1.268172  -0.40899058   0.16314046    -1.268172   0.85918144  1070540 
  657000    1.2002028   -1.2686996   -1.2686996  -0.40860677   0.16497664   -1.2686996   0.86009287  1070540 
  658000     1.201745   -1.2694012   -1.2694012  -0.40820322   0.16485735   -1.2694012   0.86119802  1070540 
  659000    1.1993812    -1.267492    -1.267492  -0.40798794   0.16741238    -1.267492   0.85950405  1070540 
  660000    1.2009367   -1.2683758   -1.2683758  -0.40775704   0.16180086   -1.2683758   0.86061879  1070540 
  661000    1.1976792   -1.2658479   -1.2658479  -0.40756358    0.1601194   -1.2658479   0.85828435  1070540 
  662000    1.2003413    -1.267393    -1.267393  -0.40720092   0.17190758    -1.267393   0.86019207  1070540 
  663000    1.2003378   -1.2674245   -1.2674245  -0.40723491   0.16384608   -1.2674245   0.86018954  1070540 
  664000    1.2003787   -1.2675464   -1.2675464  -0.40732753   0.16792135   -1.2675464   0.86021889  1070540 
  665000    1.2002849   -1.2676182   -1.2676182  -0.40746658   0.16485847   -1.2676182   0.86015166  1070540 
  666000    1.2020576   -1.2690454   -1.2690454  -0.40762338   0.16527045   -1.2690454     0.861422  1070540 
  667000    1.2011348   -1.2686795   -1.2686795   -0.4079188   0.16040443   -1.2686795   0.86076074  1070540 
  668000    1.1992577   -1.2673647   -1.2673647  -0.40794917   0.16518653   -1.2673647   0.85941555  1070540 
  669000    1.2008522   -1.2685896   -1.2685896  -0.40803143    0.1666166   -1.2685896   0.86055821  1070540 
  670000    1.1998984   -1.2680506   -1.2680506  -0.40817589   0.16026743   -1.2680506   0.85987472  1070540 
  671000    1.1986874   -1.2672643   -1.2672643  -0.40825739   0.16727921   -1.2672643   0.85900688  1070540 
  672000    1.1983685   -1.2666648   -1.2666648  -0.40788644   0.17079402   -1.2666648   0.85877836  1070540 
  673000    1.2002673   -1.2674575   -1.2674575  -0.40731842    0.1665059   -1.2674575   0.86013908  1070540 
  674000    1.2008265   -1.2671748   -1.2671748  -0.40663509   0.17119777   -1.2671748   0.86053976  1070540 
  675000    1.2015282    -1.267318    -1.267318  -0.40627533   0.16441073    -1.267318   0.86104264  1070540 
  676000    1.2003153   -1.2665264   -1.2665264  -0.40635294   0.16597213   -1.2665264   0.86017346  1070540 
  677000    1.2007061   -1.2671154   -1.2671154  -0.40666184    0.1630088   -1.2671154   0.86045352  1070540 
  678000    1.2001642   -1.2674595   -1.2674595  -0.40739431   0.17232447   -1.2674595   0.86006514  1070540 
  679000    1.1995077   -1.2677748   -1.2677748  -0.40818013   0.16421913   -1.2677748   0.85959469  1070540 
  680000    1.1987229   -1.2680614   -1.2680614  -0.40902911   0.16560248   -1.2680614   0.85903232  1070540 
  681000    1.1989554   -1.2685487   -1.2685487  -0.40934974    0.1643953   -1.2685487   0.85919895  1070540 
  682000    1.1973697   -1.2677368   -1.2677368  -0.40967421   0.16541375   -1.2677368    0.8580626  1070540 
  683000    1.1986722   -1.2682804   -1.2682804   -0.4092845   0.15689227   -1.2682804   0.85899594  1070540 
  684000     1.200103   -1.2685516   -1.2685516  -0.40853029   0.16902776   -1.2685516   0.86002131  1070540 
  685000     1.200032   -1.2674957   -1.2674957  -0.40752529    0.1617739   -1.2674957   0.85997045  1070540 
  686000    1.2011976   -1.2674972   -1.2674972  -0.40669152   0.16994851   -1.2674972    0.8608057  1070540 
  687000    1.2010115     -1.26653     -1.26653  -0.40585766   0.16562577     -1.26653   0.86067234  1070540 
  688000    1.2020905   -1.2668335   -1.2668335  -0.40538794   0.16768029   -1.2668335   0.86144557  1070540 
  689000     1.200379   -1.2656916   -1.2656916  -0.40547255   0.16305651   -1.2656916   0.86021909  1070540 
  690000    1.2011925   -1.2670127   -1.2670127  -0.40621058   0.16268762   -1.2670127   0.86080208  1070540 
  691000    1.2001383    -1.267484    -1.267484  -0.40743744   0.16936899    -1.267484   0.86004659  1070540 
  692000    1.2002481   -1.2689808   -1.2689808  -0.40885549   0.16443953   -1.2689808    0.8601253  1070540 
  693000    1.1988587   -1.2694633   -1.2694633  -0.41033373   0.16335287   -1.2694633   0.85912962  1070540 
  694000     1.198543   -1.2703568   -1.2703568  -0.41145346   0.16236735   -1.2703568   0.85890338  1070540 
  695000    1.1975422   -1.2699199   -1.2699199  -0.41173366   0.16513088   -1.2699199   0.85818622  1070540 
  696000    1.1973288   -1.2691603   -1.2691603  -0.41112703   0.16728677   -1.2691603   0.85803327  1070540 
  697000    1.1971886   -1.2677674   -1.2677674  -0.40983459   0.16357439   -1.2677674   0.85793279  1070540 
  698000    1.2005402   -1.2682125   -1.2682125  -0.40787785   0.16556714   -1.2682125   0.86033461  1070540 
  699000    1.2026827   -1.2680162   -1.2680162  -0.40614619   0.15719523   -1.2680162   0.86186999  1070540 
  700000    1.2020384   -1.2666624   -1.2666624  -0.40525408   0.16672755   -1.2666624   0.86140829  1070540 
  701000    1.2018502   -1.2664729   -1.2664729   -0.4051995   0.16522206   -1.2664729   0.86127337  1070540 
  702000    1.2016132   -1.2671518   -1.2671518  -0.40604826   0.15843458   -1.2671518   0.86110354  1070540 
  703000    1.2015671   -1.2680743   -1.2680743  -0.40700376   0.16540009   -1.2680743    0.8610705  1070540 
  704000    1.1991461   -1.2676055   -1.2676055  -0.40826986   0.16825275   -1.2676055   0.85933559  1070540 
  705000    1.1977515   -1.2676209   -1.2676209  -0.40928468   0.16809426   -1.2676209    0.8583362  1070540 
  706000    1.1973211   -1.2678205   -1.2678205   -0.4097927   0.16572811   -1.2678205   0.85802776  1070540 
  707000     1.198566   -1.2687644   -1.2687644  -0.40984454   0.15530434   -1.2687644   0.85891987  1070540 
  708000    1.1987373   -1.2685571   -1.2685571  -0.40951443   0.16239263   -1.2685571   0.85904265  1070540 
  709000    1.2002533   -1.2688838   -1.2688838  -0.40875474   0.15818183   -1.2688838   0.86012903  1070540 
  710000    1.1997361    -1.267709    -1.267709  -0.40795057   0.16674004    -1.267709    0.8597584  1070540 
  711000    1.1993652   -1.2665926   -1.2665926  -0.40710004   0.16181713   -1.2665926   0.85949258  1070540 
  712000    1.2008919   -1.2669721   -1.2669721  -0.40638549   0.16027206   -1.2669721   0.86058664  1070540 
  713000    1.2005926   -1.2666327   -1.2666327  -0.40626058   0.16873275   -1.2666327   0.86037216  1070540 
  714000    1.2006365   -1.2670148   -1.2670148   -0.4066112    0.1691708   -1.2670148   0.86040362  1070540 
  715000    1.2004816   -1.2677683   -1.2677683  -0.40747574   0.16334458   -1.2677683    0.8602926  1070540 
  716000     1.199903   -1.2685353   -1.2685353  -0.40865725   0.16715223   -1.2685353   0.85987802  1070540 
  717000    1.1988692   -1.2686148   -1.2686148   -0.4094777   0.15914286   -1.2686148   0.85913713  1070540 
  718000    1.1990121   -1.2696415   -1.2696415  -0.41040198   0.16319122   -1.2696415   0.85923952  1070540 
  719000    1.1978626   -1.2690344   -1.2690344   -0.4106186   0.16371493   -1.2690344   0.85841582  1070540 
  720000    1.1982863   -1.2694133   -1.2694133  -0.41069387   0.16818765   -1.2694133   0.85871939  1070540 
  721000    1.1985327   -1.2690644   -1.2690644  -0.41016839   0.15529447   -1.2690644     0.858896  1070540 
  722000    1.1987632   -1.2683115   -1.2683115  -0.40925025   0.16403911   -1.2683115   0.85906121  1070540 
  723000    1.1992163   -1.2677682   -1.2677682  -0.40838226     0.162885   -1.2677682   0.85938589  1070540 
  724000    1.2008507   -1.2679633   -1.2679633  -0.40740618   0.15960381   -1.2679633   0.86055713  1070540 
  725000    1.1992695   -1.2663392   -1.2663392  -0.40691516   0.17390261   -1.2663392   0.85942403  1070540 
  726000    1.2017253     -1.26806     -1.26806  -0.40687613   0.15884729     -1.26806    0.8611839  1070540 
  727000    1.2001523   -1.2674368   -1.2674368  -0.40738017   0.16280544   -1.2674368   0.86005663  1070540 
  728000    1.2011095   -1.2687593   -1.2687593  -0.40801671   0.15820196   -1.2687593    0.8607426  1070540 
  729000    1.2002968   -1.2688951   -1.2688951  -0.40873494   0.16240096   -1.2688951   0.86016021  1070540 
  730000    1.1990566   -1.2688142   -1.2688142  -0.40954272   0.16999815   -1.2688142   0.85927145  1070540 
  731000    1.1993592   -1.2697495   -1.2697495  -0.41026122    0.1592787   -1.2697495   0.85948833  1070540 
  732000    1.1988403   -1.2696233   -1.2696233  -0.41050691   0.17340718   -1.2696233   0.85911643  1070540 
  733000     1.197574   -1.2685513   -1.2685513  -0.41034225   0.16008994   -1.2685513   0.85820901  1070540 
  734000    1.1981535   -1.2680676   -1.2680676  -0.40944328   0.16478785   -1.2680676   0.85862427  1070540 
  735000    1.1998257   -1.2681991   -1.2681991  -0.40837648    0.1678294   -1.2681991   0.85982261  1070540 
  736000    1.2014373   -1.2683146   -1.2683146  -0.40733706   0.16353392   -1.2683146   0.86097754  1070540 
  737000    1.2045708   -1.2701321   -1.2701321  -0.40690901   0.16542301   -1.2701321   0.86322305  1070540 
  738000    1.2018805   -1.2687723   -1.2687723  -0.40747713   0.16355982   -1.2687723   0.86129515  1070540 
  739000    1.2004811    -1.268844    -1.268844  -0.40855175   0.16073192    -1.268844   0.86029229  1070540 
  740000    1.1982075   -1.2684304   -1.2684304   -0.4097674   0.15833488   -1.2684304   0.85866299  1070540 
  741000    1.1984296   -1.2693731   -1.2693731  -0.41055092   0.16585849   -1.2693731   0.85882215  1070540 
  742000    1.1993972   -1.2702744   -1.2702744   -0.4107589    0.1633459   -1.2702744   0.85951555  1070540 
  743000    1.1993992   -1.2701345   -1.2701345  -0.41061756   0.17026015   -1.2701345   0.85951692  1070540 
  744000    1.1982646   -1.2689601   -1.2689601  -0.41025617   0.16448388   -1.2689601   0.85870389  1070540 
  745000    1.1992612   -1.2689355   -1.2689355  -0.40951746    0.1617422   -1.2689355   0.85941806  1070540 
  746000    1.2008299    -1.269388    -1.269388  -0.40884576   0.15669008    -1.269388   0.86054222  1070540 
  747000    1.2004914   -1.2682333   -1.2682333  -0.40793367   0.17217618   -1.2682333   0.86029964  1070540 
  748000    1.2004473   -1.2674282   -1.2674282  -0.40716013   0.16700234   -1.2674282   0.86026808  1070540 
  749000    1.2027053   -1.2689241   -1.2689241  -0.40703793   0.15958751   -1.2689241   0.86188616  1070540 
  750000    1.2009891   -1.2682671   -1.2682671  -0.40761071   0.16617432   -1.2682671   0.86065635  1070540 
  751000    1.2006334   -1.2688899   -1.2688899  -0.40848846   0.16626458   -1.2688899   0.86040142  1070540 
  752000    1.1995956   -1.2690191   -1.2690191  -0.40936145   0.16432825   -1.2690191   0.85965768  1070540 
  753000    1.1987793   -1.2690564   -1.2690564  -0.40998366   0.15656394   -1.2690564   0.85907276  1070540 
  754000    1.1976201    -1.268625    -1.268625    -0.410383   0.17319078    -1.268625     0.858242  1070540 
  755000    1.1995452   -1.2697714   -1.2697714  -0.41014983   0.16683025   -1.2697714   0.85962157  1070540 
  756000    1.1995566   -1.2691632   -1.2691632  -0.40953343    0.1595757   -1.2691632   0.85962976  1070540 
  757000    1.2005698   -1.2692192   -1.2692192  -0.40886332   0.16410261   -1.2692192   0.86035584  1070540 
  758000    1.2010673   -1.2688943   -1.2688943  -0.40818192   0.16242591   -1.2688943   0.86071234  1070540 
  759000    1.2020277   -1.2689498   -1.2689498  -0.40754923   0.16074221   -1.2689498   0.86140057  1070540 
  760000    1.2019308   -1.2690441   -1.2690441  -0.40771291   0.16561281   -1.2690441   0.86133117  1070540 
  761000    1.2027805   -1.2702893   -1.2702893  -0.40834926   0.16135433   -1.2702893   0.86194008  1070540 
  762000    1.1995955   -1.2689846   -1.2689846  -0.40932695   0.17083088   -1.2689846   0.85965763  1070540 
  763000    1.1981967   -1.2688081   -1.2688081  -0.41015287   0.16556171   -1.2688081    0.8586552  1070540 
  764000    1.1988024   -1.2697224   -1.2697224  -0.41063316   0.16439881   -1.2697224   0.85908926  1070540 
  765000    1.1984197   -1.2692761   -1.2692761  -0.41046103    0.1600706   -1.2692761   0.85881503  1070540 
  766000    1.1982058    -1.268386    -1.268386  -0.40972423   0.16321538    -1.268386   0.85866175  1070540 
  767000    1.2015498   -1.2698005   -1.2698005  -0.40874232   0.15683559   -1.2698005   0.86105814  1070540 
  768000    1.2009607   -1.2685193   -1.2685193  -0.40788328   0.16909111   -1.2685193   0.86063597  1070540 
  769000    1.2014751   -1.2686977   -1.2686977  -0.40769311   0.16723184   -1.2686977   0.86100462  1070540 
  770000    1.2004785   -1.2679447   -1.2679447  -0.40765434   0.16989818   -1.2679447   0.86029037  1070540 
  771000      1.19969   -1.2680928   -1.2680928   -0.4083674   0.17309176   -1.2680928   0.85972535  1070540 
  772000    1.1987268   -1.2681648   -1.2681648  -0.40912971   0.15856325   -1.2681648    0.8590351  1070540 
  773000    1.1986088   -1.2686079   -1.2686079  -0.40965733   0.16606202   -1.2686079   0.85895056  1070540 
  774000    1.1974096   -1.2679492   -1.2679492  -0.40985801   0.15786971   -1.2679492   0.85809117  1070540 
  775000    1.2009794    -1.269952    -1.269952  -0.40930265   0.16360293    -1.269952   0.86064936  1070540 
  776000    1.1991419   -1.2680829   -1.2680829  -0.40875026   0.17076392   -1.2680829    0.8593326  1070540 
  777000    1.2002701   -1.2683293   -1.2683293  -0.40818832   0.16521166   -1.2683293   0.86014103  1070540 
  778000    1.2014931   -1.2688777   -1.2688777  -0.40786015   0.16756212   -1.2688777   0.86101751  1070540 
  779000    1.2017459   -1.2692866   -1.2692866  -0.40808798   0.16890755   -1.2692866   0.86119864  1070540 
  780000    1.2007818   -1.2691628   -1.2691628  -0.40865496   0.16056585   -1.2691628   0.86050779  1070540 
  781000    1.2001029   -1.2690537   -1.2690537  -0.40903241   0.16568741   -1.2690537   0.86002126  1070540 
  782000    1.1986058   -1.2680759   -1.2680759   -0.4091275   0.16911795   -1.2680759    0.8589484  1070540 
  783000    1.2000806   -1.2690128   -1.2690128  -0.40900754   0.16182901   -1.2690128   0.86000525  1070540 
  784000    1.2017974   -1.2699931   -1.2699931  -0.40875758   0.16293268   -1.2699931   0.86123554  1070540 
  785000    1.2000268   -1.2685707   -1.2685707  -0.40860404   0.16605024   -1.2685707   0.85996669  1070540 
  786000     1.199169   -1.2679729   -1.2679729  -0.40862095   0.17061325   -1.2679729   0.85935196  1070540 
  787000      1.19814   -1.2674009   -1.2674009  -0.40878637   0.16694603   -1.2674009   0.85861456  1070540 
  788000    1.2000574   -1.2687235   -1.2687235  -0.40873481   0.15199649   -1.2687235   0.85998867  1070540 
  789000    1.1994671   -1.2684114   -1.2684114  -0.40884579   0.16963038   -1.2684114   0.85956565  1070540 
  790000    1.1975247   -1.2673108   -1.2673108  -0.40913708   0.16296792   -1.2673108   0.85817367  1070540 
  791000     1.200383   -1.2692951   -1.2692951  -0.40907316   0.16573409   -1.2692951   0.86022196  1070540 
  792000    1.1991431   -1.2683259   -1.2683259  -0.40899245   0.16165418   -1.2683259   0.85933346  1070540 
  793000    1.1997309   -1.2685762   -1.2685762  -0.40882152   0.17087733   -1.2685762   0.85975466  1070540 
  794000    1.2004058   -1.2690276   -1.2690276  -0.40878926   0.16443777   -1.2690276    0.8602383  1070540 
  795000    1.1998466   -1.2687958   -1.2687958  -0.40895826   0.15794497   -1.2687958   0.85983754  1070540 
  796000    1.2001675   -1.2688204   -1.2688204  -0.40875292   0.16739469   -1.2688204   0.86006752  1070540 
  797000    1.1993277   -1.2678671   -1.2678671  -0.40840145   0.16651851   -1.2678671   0.85946569  1070540 
  798000    1.2019794   -1.2691948   -1.2691948  -0.40782876   0.16016791   -1.2691948   0.86136599  1070540 
  799000    1.2001024   -1.2678613   -1.2678613  -0.40784039    0.1577528   -1.2678613   0.86002092  1070540 
  800000    1.1986723   -1.2669563   -1.2669563  -0.40796025   0.16386488   -1.2669563   0.85899603  1070540 
  801000    1.1994029   -1.2675427   -1.2675427  -0.40802316   0.16230323   -1.2675427   0.85951958  1070540 
  802000    1.2010708   -1.2688708   -1.2688708   -0.4081559   0.16706949   -1.2688708   0.86071489  1070540 
  803000    1.1989276   -1.2677413   -1.2677413  -0.40856226   0.15667623   -1.2677413     0.859179  1070540 
  804000     1.199083   -1.2680712   -1.2680712   -0.4087808   0.16123533   -1.2680712   0.85929037  1070540 
  805000    1.1990271   -1.2680476   -1.2680476  -0.40879732   0.16255686   -1.2680476    0.8592503  1070540 
  806000    1.1984173   -1.2675968   -1.2675968  -0.40878352   0.16655062   -1.2675968   0.85881332  1070540 
  807000    1.1992574    -1.267633    -1.267633  -0.40821764   0.16518019    -1.267633   0.85941536  1070540 
  808000    1.2019199   -1.2690131   -1.2690131  -0.40768973   0.16866674   -1.2690131   0.86132333  1070540 
  809000    1.2003915   -1.2679598   -1.2679598  -0.40773171   0.16396619   -1.2679598   0.86022806  1070540 
  810000    1.2005102   -1.2679716   -1.2679716  -0.40765845   0.16504847   -1.2679716   0.86031315  1070540 
  811000    1.2000291   -1.2677813   -1.2677813  -0.40781296   0.16065285   -1.2677813   0.85996836  1070540 
  812000    1.1991551   -1.2675422   -1.2675422  -0.40820018   0.16460059   -1.2675422   0.85934202  1070540 
  813000    1.1984368   -1.2674132   -1.2674132  -0.40858591     0.168218   -1.2674132    0.8588273  1070540 
  814000    1.2021333   -1.2703223   -1.2703223  -0.40884602   0.15697772   -1.2703223   0.86147626  1070540 
  815000    1.1987422   -1.2679105   -1.2679105  -0.40886433   0.16983051   -1.2679105   0.85904614  1070540 
  816000    1.1997584    -1.268547    -1.268547  -0.40877262   0.16052307    -1.268547   0.85977437  1070540 
  817000    1.1997852   -1.2682058   -1.2682058  -0.40841227   0.15744155   -1.2682058   0.85979357  1070540 
  818000    1.1998331   -1.2677159   -1.2677159  -0.40788798    0.1657687   -1.2677159   0.85982788  1070540 
  819000    1.2002981   -1.2676862   -1.2676862  -0.40752509   0.17283326   -1.2676862   0.86016111  1070540 
  820000    1.2010302   -1.2682159   -1.2682159  -0.40753016   0.16534649   -1.2682159   0.86068578  1070540 
  821000    1.2002135    -1.268098    -1.268098  -0.40799752   0.16483264    -1.268098   0.86010051  1070540 
  822000    1.1995992    -1.268441    -1.268441   -0.4087807   0.16222182    -1.268441   0.85966027  1070540 
  823000    1.1981787   -1.2684253   -1.2684253  -0.40978295   0.16468005   -1.2684253   0.85864232  1070540 
  824000    1.1970224   -1.2681232   -1.2681232   -0.4103095   0.15893973   -1.2681232   0.85781371  1070540 
  825000    1.1990804   -1.2692229   -1.2692229   -0.4099344   0.16372233   -1.2692229    0.8592885  1070540 
  826000    1.1990949   -1.2684383   -1.2684383  -0.40913942   0.16271526   -1.2684383    0.8592989  1070540 
  827000    1.2004608   -1.2683739   -1.2683739  -0.40809611   0.16673241   -1.2683739   0.86027775  1070540 
  828000    1.2010189   -1.2679363   -1.2679363  -0.40725863    0.1650801   -1.2679363    0.8606777  1070540 
  829000    1.2027033   -1.2686213   -1.2686213  -0.40673651   0.16410552   -1.2686213   0.86188475  1070540 
  830000     1.201918   -1.2684199   -1.2684199  -0.40709793   0.16513299   -1.2684199     0.861322  1070540 
  831000    1.2022328   -1.2693813   -1.2693813  -0.40783379   0.16568568   -1.2693813   0.86154755  1070540 
  832000    1.1996817   -1.2688511   -1.2688511  -0.40913167    0.1636472   -1.2688511   0.85971943  1070540 
  833000    1.1985605   -1.2690986   -1.2690986  -0.41018273    0.1611272   -1.2690986   0.85891591  1070540 
  834000    1.1964251   -1.2682494   -1.2682494  -0.41086374   0.16314782   -1.2682494   0.85738567  1070540 
  835000    1.1995313   -1.2703119   -1.2703119  -0.41070029   0.16043639   -1.2703119   0.85961164  1070540 
  836000     1.196593   -1.2674402   -1.2674402  -0.40993422    0.1669963   -1.2674402     0.857506  1070540 
  837000    1.2011147   -1.2697306   -1.2697306  -0.40898425   0.16617839   -1.2697306   0.86074633  1070540 
  838000    1.2024338   -1.2697323   -1.2697323  -0.40804069   0.16254558   -1.2697323   0.86169164  1070540 
  839000    1.2012433   -1.2683792   -1.2683792  -0.40754068   0.16475724   -1.2683792   0.86083849  1070540 
  840000    1.2012957   -1.2686518   -1.2686518  -0.40777579   0.15976725   -1.2686518   0.86087603  1070540 
  841000     1.200697   -1.2686129   -1.2686129  -0.40816599    0.1593856   -1.2686129   0.86044696  1070540 
  842000    1.2006645    -1.269303    -1.269303  -0.40887928   0.16160795    -1.269303   0.86042372  1070540 
  843000     1.199668   -1.2692215   -1.2692215   -0.4095119   0.16237041   -1.2692215   0.85970956  1070540 
  844000    1.1989373   -1.2691458   -1.2691458  -0.40995983   0.16578811   -1.2691458   0.85918597  1070540 
  845000    1.1982522   -1.2686339   -1.2686339  -0.40993888   0.16300045   -1.2686339   0.85869498  1070540 
  846000    1.2008067   -1.2699569   -1.2699569  -0.40943128    0.1673325   -1.2699569   0.86052564  1070540 
  847000    1.2020162   -1.2702082   -1.2702082  -0.40881583   0.16206113   -1.2702082   0.86139233  1070540 
  848000     1.201411   -1.2695203   -1.2695203  -0.40856161    0.1634558   -1.2695203   0.86095868  1070540 
  849000     1.200288   -1.2687043   -1.2687043  -0.40855033   0.16658298   -1.2687043   0.86015392  1070540 
  850000    1.1992915   -1.2685937   -1.2685937  -0.40915396    0.1582382   -1.2685937   0.85943977  1070540 
  851000     1.199037   -1.2689442   -1.2689442  -0.40968678   0.16234438   -1.2689442   0.85925738  1070540 
  852000    1.1993676    -1.269234    -1.269234  -0.40973972   0.16363576    -1.269234   0.85949429  1070540 
  853000    1.1998749    -1.269894    -1.269894  -0.41003614   0.16318966    -1.269894   0.85985782  1070540 
  854000    1.1977725   -1.2684348   -1.2684348  -0.41008356   0.16433208   -1.2684348   0.85835121  1070540 
  855000    1.1974472   -1.2679965   -1.2679965  -0.40987844   0.16029992   -1.2679965   0.85811809  1070540 
  856000    1.1998277   -1.2691061   -1.2691061  -0.40928206   0.16677377   -1.2691061   0.85982404  1070540 
  857000    1.2012412   -1.2696574   -1.2696574   -0.4088204   0.16808162   -1.2696574   0.86083697  1070540 
  858000    1.2011212   -1.2692522   -1.2692522  -0.40850124   0.16018863   -1.2692522     0.860751  1070540 
  859000    1.1994277   -1.2680867   -1.2680867  -0.40854926   0.16401225   -1.2680867   0.85953739  1070540 
  860000    1.1994966   -1.2682168   -1.2682168     -0.40863    0.1682403   -1.2682168   0.85958678  1070540 
  861000    1.2001514   -1.2688173   -1.2688173  -0.40876125   0.17204273   -1.2688173   0.86005602  1070540 
  862000    1.2020858    -1.270513    -1.270513  -0.40907072   0.16649842    -1.270513   0.86144223  1070540 
  863000    1.1996999   -1.2694263   -1.2694263  -0.40969388     0.162237   -1.2694263   0.85973243  1070540 
  864000    1.2000672   -1.2705681   -1.2705681   -0.4105724    0.1652622   -1.2705681   0.85999567  1070540 
  865000    1.1989643   -1.2706975   -1.2706975  -0.41149221   0.16728175   -1.2706975    0.8592053  1070540 
  866000    1.1973435    -1.269927    -1.269927  -0.41188316   0.16230777    -1.269927   0.85804383  1070540 
  867000    1.2004985   -1.2716173   -1.2716173  -0.41131261   0.16339994   -1.2716173   0.86030474  1070540 
  868000    1.1995716   -1.2698696   -1.2698696  -0.41022912   0.16725907   -1.2698696   0.85964051  1070540 
  869000    1.1994534   -1.2685545   -1.2685545  -0.40899869   0.16022961   -1.2685545   0.85955579  1070540 
  870000    1.2010147   -1.2683587   -1.2683587  -0.40768402   0.16120038   -1.2683587   0.86067469  1070540 
  871000    1.2031512   -1.2689471   -1.2689471  -0.40674136   0.16693062   -1.2689471    0.8622057  1070540 
  872000     1.204161    -1.269062    -1.269062  -0.40613267   0.15972297    -1.269062   0.86292934  1070540 
  873000    1.2022157   -1.2681044   -1.2681044   -0.4065691   0.16988493   -1.2681044   0.86153532  1070540 
  874000    1.1999692   -1.2676926   -1.2676926  -0.40776722   0.15647959   -1.2676926   0.85992543  1070540 
  875000    1.1997524   -1.2686916   -1.2686916  -0.40892155   0.16633622   -1.2686916   0.85977006  1070540 
  876000    1.1995171   -1.2696088   -1.2696088  -0.41000731   0.15926217   -1.2696088   0.85960146  1070540 
  877000     1.197637   -1.2688208   -1.2688208  -0.41056665   0.15716814   -1.2688208   0.85825414  1070540 
  878000    1.1985877   -1.2693121   -1.2693121  -0.41037667   0.16280535   -1.2693121    0.8589354  1070540 
  879000    1.1985748   -1.2687766   -1.2687766  -0.40985041   0.15978226   -1.2687766    0.8589262  1070540 
  880000    1.2007438   -1.2694319   -1.2694319  -0.40895142   0.16710466   -1.2694319   0.86048053  1070540 
  881000    1.2026938   -1.2700687   -1.2700687  -0.40819075   0.16613576   -1.2700687   0.86187794  1070540 
  882000    1.2016952   -1.2692592   -1.2692592  -0.40809691    0.1622104   -1.2692592   0.86116232  1070540 
  883000    1.1996267   -1.2681822   -1.2681822  -0.40850221   0.16439052   -1.2681822   0.85967996  1070540 
  884000    1.2013979   -1.2698951   -1.2698951  -0.40894579   0.15626101   -1.2698951    0.8609493  1070540 
  885000    1.2000213   -1.2699843   -1.2699843   -0.4100215   0.16646601   -1.2699843   0.85996279  1070540 
  886000    1.1997731   -1.2707217   -1.2707217  -0.41093677   0.16630197   -1.2707217   0.85978491  1070540 
  887000    1.1985867   -1.2706231   -1.2706231  -0.41168839   0.15294249   -1.2706231    0.8589347  1070540 
  888000     1.199214   -1.2711074   -1.2711074  -0.41172318   0.16759533   -1.2711074   0.85938421  1070540 
  889000    1.2000306   -1.2715801   -1.2715801  -0.41161072   0.16267908   -1.2715801   0.85996943  1070540 
  890000    1.1980602   -1.2697883   -1.2697883  -0.41123091   0.16720029   -1.2697883   0.85855741  1070540 
  891000    1.1998111   -1.2701532   -1.2701532  -0.41034108   0.17049131   -1.2701532   0.85981212  1070540 
  892000    1.2003046   -1.2697275   -1.2697275  -0.40956177   0.16850763   -1.2697275   0.86016576  1070540 
  893000    1.2010637   -1.2698631   -1.2698631  -0.40915328   0.16188836   -1.2698631   0.86070981  1070540 
  894000    1.1999048   -1.2687966   -1.2687966  -0.40891728   0.16534797   -1.2687966   0.85987928  1070540 
  895000    1.2008434   -1.2690955   -1.2690955  -0.40854357   0.17097082   -1.2690955   0.86055193  1070540 
  896000    1.2004833   -1.2690615   -1.2690615  -0.40876766   0.17320911   -1.2690615   0.86029384  1070540 
  897000    1.1996377   -1.2687934   -1.2687934  -0.40910553    0.1610579   -1.2687934   0.85968785  1070540 
  898000    1.1995587   -1.2691126   -1.2691126  -0.40948139   0.17290279   -1.2691126   0.85963125  1070540 
  899000     1.200311   -1.2697468   -1.2697468  -0.40957648   0.16982107   -1.2697468   0.86017036  1070540 
  900000    1.1992175   -1.2692319   -1.2692319  -0.40984514   0.16522306   -1.2692319   0.85938672  1070540 
  901000    1.2000237   -1.2700182   -1.2700182  -0.41005368   0.15638478   -1.2700182    0.8599645  1070540 
  902000    1.2010024   -1.2711625   -1.2711625  -0.41049659   0.15652766   -1.2711625   0.86066586  1070540 
  903000    1.1990835   -1.2702136   -1.2702136  -0.41092289   0.16426691   -1.2702136    0.8592907  1070540 
  904000    1.1997078   -1.2709731   -1.2709731    -0.411235   0.15462806   -1.2709731   0.85973813  1070540 
  905000     1.198833   -1.2702502   -1.2702502  -0.41113902   0.15400575   -1.2702502   0.85911118  1070540 
  906000    1.1993443   -1.2701547   -1.2701547  -0.41067703   0.16833375   -1.2701547   0.85947763  1070540 
  907000    1.2011962   -1.2709118   -1.2709118  -0.41010712   0.17126003   -1.2709118   0.86080473  1070540 
  908000    1.2018294   -1.2711519   -1.2711519  -0.40989335   0.16817612   -1.2711519   0.86125853  1070540 
  909000    1.2012149   -1.2707082   -1.2707082  -0.40989009   0.15987281   -1.2707082   0.86081814  1070540 
  910000    1.2008863   -1.2708218   -1.2708218  -0.41023918   0.15665064   -1.2708218   0.86058263  1070540 
  911000    1.1994926   -1.2705178   -1.2705178  -0.41093392   0.16830222   -1.2705178   0.85958389  1070540 
  912000    1.1992107   -1.2709646   -1.2709646  -0.41158269   0.15856626   -1.2709646   0.85938187  1070540 
  913000    1.1984978   -1.2708731   -1.2708731  -0.41200208   0.16934689   -1.2708731     0.858871  1070540 
  914000    1.1981849   -1.2705299   -1.2705299  -0.41188309   0.16595482   -1.2705299   0.85864677  1070540 
  915000    1.1983117   -1.2700401   -1.2700401   -0.4113025   0.16343967   -1.2700401   0.85873764  1070540 
  916000    1.2015115   -1.2713545   -1.2713545  -0.41032378   0.15972013   -1.2713545   0.86103068  1070540 
  917000    1.2006615   -1.2699654   -1.2699654  -0.40954387   0.16165139   -1.2699654   0.86042153  1070540 
  918000     1.201709   -1.2702865   -1.2702865  -0.40911429   0.16196806   -1.2702865   0.86117219  1070540 
  919000    1.2014847   -1.2701583   -1.2701583  -0.40914678   0.16109415   -1.2701583    0.8610115  1070540 
  920000    1.2012169   -1.2704357   -1.2704357  -0.40961618   0.15295374   -1.2704357   0.86081956  1070540 
  921000    1.1997615   -1.2698987   -1.2698987  -0.41012214    0.1653225   -1.2698987    0.8597766  1070540 
  922000    1.1987577   -1.2698197   -1.2698197  -0.41076243   0.16963873   -1.2698197   0.85905726  1070540 
  923000    1.1984047   -1.2701369   -1.2701369  -0.41133266   0.16191232   -1.2701369   0.85880425  1070540 
  924000    1.2002536   -1.2716126   -1.2716126  -0.41148336   0.16234157   -1.2716126   0.86012924  1070540 
  925000    1.1977812   -1.2693586   -1.2693586  -0.41100106   0.16690093   -1.2693586   0.85835749  1070540 
  926000    1.1996923    -1.269826    -1.269826  -0.41009902   0.16464064    -1.269826     0.859727  1070540 
  927000    1.1989745   -1.2683882   -1.2683882  -0.40917559   0.17160655   -1.2683882   0.85921259  1070540 
  928000    1.2011215   -1.2691585   -1.2691585  -0.40840723   0.16150038   -1.2691585   0.86075122  1070540 
  929000    1.2006776   -1.2685143   -1.2685143  -0.40808122   0.16935085   -1.2685143    0.8604331  1070540 
  930000    1.2020316   -1.2699835   -1.2699835  -0.40858012   0.16079126   -1.2699835   0.86140337  1070540 
  931000    1.2010426   -1.2702669   -1.2702669  -0.40957222   0.17197316   -1.2702669   0.86069468  1070540 
  932000    1.1999519   -1.2706616   -1.2706616  -0.41074854   0.16885632   -1.2706616   0.85991302  1070540 
  933000    1.1984148   -1.2705557   -1.2705557  -0.41174414   0.16846308   -1.2705557   0.85881153  1070540 
  934000    1.1972219   -1.2703365   -1.2703365  -0.41237982   0.16611338   -1.2703365   0.85795663  1070540 
  935000    1.1991391   -1.2717912   -1.2717912  -0.41246068   0.15636669   -1.2717912   0.85933054  1070540 
  936000    1.1994927   -1.2715162   -1.2715162   -0.4119322   0.15537009   -1.2715162   0.85958396  1070540 
  937000    1.2004152    -1.271287    -1.271287  -0.41104194   0.16125544    -1.271287   0.86024507  1070540 
  938000    1.2010626   -1.2708686   -1.2708686  -0.41015957   0.16509207   -1.2708686   0.86070902  1070540 
  939000    1.2006572   -1.2700507   -1.2700507  -0.40963224   0.16832737   -1.2700507    0.8604185  1070540 
  940000     1.200779   -1.2700345   -1.2700345  -0.40952877   0.15853319   -1.2700345   0.86050574  1070540 
  941000    1.2005352   -1.2702143   -1.2702143  -0.40988333   0.16774676   -1.2702143   0.86033101  1070540 
  942000    1.1988244   -1.2694565   -1.2694565  -0.41035146   0.15329257   -1.2694565   0.85910507  1070540 
  943000    1.1987704    -1.269721    -1.269721  -0.41065461   0.16848409    -1.269721   0.85906637  1070540 
  944000    1.1992631   -1.2701057   -1.2701057  -0.41068627   0.16404026   -1.2701057   0.85941939  1070540 
  945000    1.2007836   -1.2709634   -1.2709634  -0.41045436   0.16072462   -1.2709634   0.86050902  1070540 
  946000    1.2001098   -1.2699679   -1.2699679  -0.40994165   0.18070151   -1.2699679   0.86002622  1070540 
  947000    1.1999242   -1.2696706   -1.2696706  -0.40977739   0.16505471   -1.2696706   0.85989319  1070540 
  948000    1.1998685   -1.2693625   -1.2693625  -0.40950921   0.16248295   -1.2693625   0.85985326  1070540 
  949000    1.2013284   -1.2702395   -1.2702395  -0.40934008   0.16734894   -1.2702395   0.86089947  1070540 
  950000    1.2004947   -1.2699759   -1.2699759  -0.40967395   0.16680849   -1.2699759     0.860302  1070540 
  951000    1.1995877    -1.269822    -1.269822  -0.41016994   0.17068846    -1.269822   0.85965203  1070540 
  952000    1.1989994   -1.2699355   -1.2699355  -0.41070509    0.1658142   -1.2699355   0.85923043  1070540 
  953000    1.1979896   -1.2692384   -1.2692384  -0.41073154   0.16066763   -1.2692384   0.85850684  1070540 
  954000    1.1983948    -1.269454    -1.269454  -0.41065689   0.16360503    -1.269454   0.85879715  1070540 
  955000    1.2004489   -1.2704365   -1.2704365  -0.41016731   0.16314972   -1.2704365   0.86026919  1070540 
  956000    1.2003445   -1.2698815   -1.2698815  -0.40968715   0.16548661   -1.2698815   0.86019436  1070540 
  957000     1.202333   -1.2706136   -1.2706136  -0.40899425   0.16305889   -1.2706136   0.86161937  1070540 
  958000    1.2000343   -1.2691134   -1.2691134  -0.40914131   0.16293697   -1.2691134   0.85997205  1070540 
  959000    1.1993176   -1.2689574   -1.2689574  -0.40949886   0.17289323   -1.2689574   0.85945852  1070540 
  960000    1.2007252    -1.270564    -1.270564  -0.41009678   0.16456895    -1.270564   0.86046723  1070540 
  961000    1.1990017   -1.2702748   -1.2702748  -0.41104266   0.17005122   -1.2702748   0.85923213  1070540 
  962000    1.1975489   -1.2701649   -1.2701649   -0.4119739   0.16768786   -1.2701649   0.85819101  1070540 
  963000    1.1991331   -1.2716057   -1.2716057  -0.41227943   0.16946405   -1.2716057   0.85932626  1070540 
  964000    1.1974302   -1.2699734   -1.2699734  -0.41186745   0.16251647   -1.2699734   0.85810592  1070540 
  965000    1.1986661   -1.2699638   -1.2699638  -0.41097222   0.16551046   -1.2699638   0.85899163  1070540 
  966000    1.2006147     -1.27017     -1.27017  -0.40978198   0.16277647     -1.27017   0.86038804  1070540 
  967000    1.2027534   -1.2708681   -1.2708681  -0.40894743   0.16583696   -1.2708681   0.86192068  1070540 
  968000    1.2030258   -1.2713094   -1.2713094  -0.40919352   0.16500492   -1.2713094   0.86211587  1070540 
  969000    1.2008758    -1.270162    -1.270162   -0.4095869   0.16748287    -1.270162   0.86057513  1070540 
  970000    1.2013984    -1.271063    -1.271063  -0.41011338   0.16187391    -1.271063    0.8609496  1070540 
  971000    1.2001502    -1.270935    -1.270935  -0.41087987   0.16919056    -1.270935   0.86005517  1070540 
  972000    1.1996029   -1.2714547   -1.2714547  -0.41179176   0.16757771   -1.2714547   0.85966293  1070540 
  973000     1.197421   -1.2701328   -1.2701328  -0.41203343    0.1606434   -1.2701328   0.85809935  1070540 
  974000    1.1982532   -1.2705405   -1.2705405  -0.41184483   0.15568981   -1.2705405   0.85869571  1070540 
  975000    1.1992203   -1.2701125   -1.2701125  -0.41072369   0.16842571   -1.2701125   0.85938877  1070540 
  976000    1.2002146   -1.2698921   -1.2698921  -0.40979085   0.16962471   -1.2698921    0.8601013  1070540 
  977000    1.1995027   -1.2689362   -1.2689362  -0.40934511    0.1688602   -1.2689362   0.85959109  1070540 
  978000    1.2025651   -1.2710376   -1.2710376  -0.40925187   0.16359564   -1.2710376   0.86178574  1070540 
  979000     1.199826   -1.2693043   -1.2693043  -0.40948154   0.16099878   -1.2693043   0.85982281  1070540 
  980000    1.1996287   -1.2693542   -1.2693542  -0.40967277   0.16090758   -1.2693542   0.85968141  1070540 
  981000    1.2014419   -1.2707791   -1.2707791  -0.40979835   0.17006609   -1.2707791    0.8609808  1070540 
  982000    1.1998922   -1.2700395   -1.2700395  -0.41016931   0.16272077   -1.2700395   0.85987023  1070540 
  983000    1.1980824   -1.2692478   -1.2692478   -0.4106745   0.16217119   -1.2692478   0.85857328  1070540 
  984000    1.1978394   -1.2701611   -1.2701611  -0.41176194   0.16772276   -1.2701611   0.85839916  1070540 
  985000    1.1980705   -1.2711607   -1.2711607  -0.41259592   0.16489929   -1.2711607   0.85856476  1070540 
  986000    1.1963947    -1.270396    -1.270396   -0.4130321   0.16028972    -1.270396   0.85736386  1070540 
  987000    1.1987971   -1.2713292   -1.2713292   -0.4122437   0.15801836   -1.2713292    0.8590855  1070540 
  988000    1.2003056   -1.2709418   -1.2709418  -0.41077529    0.1567411   -1.2709418   0.86016651  1070540 
  989000     1.200711   -1.2702234   -1.2702234  -0.40976639    0.1641807   -1.2702234   0.86045705  1070540 
  990000    1.2020748   -1.2707985   -1.2707985  -0.40936417   0.16121257   -1.2707985   0.86143438  1070540 
  991000    1.2005722   -1.2698386   -1.2698386  -0.40948104    0.1670039   -1.2698386   0.86035753  1070540 
  992000    1.2008203   -1.2704764   -1.2704764  -0.40994111   0.16246736   -1.2704764   0.86053533  1070540 
  993000    1.1994769   -1.2699332   -1.2699332  -0.41036059   0.16802709   -1.2699332   0.85957261  1070540 
  994000    1.1995711   -1.2705052   -1.2705052  -0.41086508   0.17457649   -1.2705052   0.85964017  1070540 
  995000    1.1991487    -1.270571    -1.270571  -0.41123359   0.16389383    -1.270571   0.85933743  1070540 
  996000    1.1983149   -1.2702208   -1.2702208   -0.4114809   0.16006117   -1.2702208   0.85873995  1070540 
  997000    1.1980646   -1.2702408   -1.2702408  -0.41168029   0.16302662   -1.2702408   0.85856053  1070540 
  998000    1.1986167   -1.2699892   -1.2699892  -0.41103306   0.15796532   -1.2699892   0.85895617  1070540 
  999000    1.1993915   -1.2694048   -1.2694048   -0.4098933   0.15817334   -1.2694048   0.85951147  1070540 
 1000000    1.2015324   -1.2698061   -1.2698061  -0.40876042   0.16627931   -1.2698061   0.86104563  1070540 
 1001000    1.2010268    -1.268954    -1.268954  -0.40827065   0.16826817    -1.268954   0.86068334  1070540 
 1002000    1.2011653    -1.269463    -1.269463  -0.40868035   0.16189407    -1.269463   0.86078261  1070540 
 1003000    1.2000627   -1.2691722   -1.2691722  -0.40917975   0.16131191   -1.2691722   0.85999241  1070540 
 1004000     1.201129   -1.2711362   -1.2711362  -0.41037959   0.16096231   -1.2711362   0.86075657  1070540 
 1005000    1.2010973   -1.2720805   -1.2720805   -0.4113467   0.16154512   -1.2720805   0.86073382  1070540 
 1006000    1.1990495   -1.2712761   -1.2712761  -0.41200977   0.16878044   -1.2712761   0.85926632  1070540 
 1007000    1.1993864   -1.2716934   -1.2716934  -0.41218557   0.16553009   -1.2716934   0.85950779  1070540 
 1008000    1.1986713   -1.2710424   -1.2710424  -0.41204711   0.16124576   -1.2710424   0.85899533  1070540 
 1009000    1.1985299   -1.2704764   -1.2704764  -0.41158236   0.16720082   -1.2704764   0.85889401  1070540 
 1010000    1.1998541   -1.2708334   -1.2708334  -0.41099046   0.17025143   -1.2708334   0.85984291  1070540 
 1011000    1.2004029   -1.2706636   -1.2706636  -0.41042741   0.17483303   -1.2706636   0.86023624  1070540 
 1012000    1.2010424   -1.2707267   -1.2707267  -0.41003223    0.1556135   -1.2707267   0.86069452  1070540 
 1013000    1.2013039   -1.2704646   -1.2704646  -0.40958268   0.16576667   -1.2704646   0.86088193  1070540 
 1014000     1.200702   -1.2697148   -1.2697148  -0.40926422   0.16369326   -1.2697148   0.86045061  1070540 
 1015000    1.2016403   -1.2705099   -1.2705099  -0.40938687   0.17265041   -1.2705099   0.86112301  1070540 
 1016000     1.201054   -1.2708742   -1.2708742  -0.41017137   0.15969719   -1.2708742   0.86070281  1070540 
 1017000    1.1984733   -1.2700454   -1.2700454  -0.41119199   0.16733899   -1.2700454   0.85885341  1070540 
 1018000    1.1990131   -1.2711371   -1.2711371  -0.41189679   0.15186704   -1.2711371   0.85924029  1070540 
 1019000    1.2000299   -1.2719238   -1.2719238  -0.41195486   0.16358126   -1.2719238   0.85996894  1070540 
 1020000    1.1979227    -1.270146    -1.270146  -0.41168707    0.1664425    -1.270146   0.85845888  1070540 
 1021000    1.1983131   -1.2696671   -1.2696671  -0.41092847   0.16508938   -1.2696671    0.8587386  1070540 
 1022000    1.1994868   -1.2692785   -1.2692785  -0.40969876   0.16460529   -1.2692785   0.85957975  1070540 
 1023000    1.2016695   -1.2697969   -1.2697969  -0.40865301   0.15838169   -1.2697969   0.86114391  1070540 
 1024000    1.2020375   -1.2697167   -1.2697167  -0.40830905     0.161563   -1.2697167   0.86140766  1070540 
 1025000    1.2018747   -1.2696732   -1.2696732  -0.40838222   0.15901538   -1.2696732   0.86129094  1070540 
 1026000    1.2012405   -1.2695073   -1.2695073  -0.40867084   0.16573844   -1.2695073   0.86083645  1070540 
 1027000    1.2010526   -1.2699618   -1.2699618  -0.40925994   0.16670304   -1.2699618   0.86070181  1070540 
 1028000    1.1999369   -1.2699076   -1.2699076  -0.41000531   0.16868307   -1.2699076    0.8599023  1070540 
 1029000    1.1996714   -1.2701814   -1.2701814  -0.41046934   0.16672951   -1.2701814   0.85971204  1070540 
 1030000    1.2003108   -1.2709504   -1.2709504  -0.41078013   0.16333321   -1.2709504   0.86017024  1070540 
 1031000    1.1991614   -1.2702416   -1.2702416  -0.41089509   0.16670587   -1.2702416   0.85934654  1070540 
 1032000    1.1990056   -1.2699245   -1.2699245  -0.41068958   0.15805467   -1.2699245   0.85923491  1070540 
 1033000    1.2009543   -1.2710329   -1.2710329  -0.41040148   0.16453329   -1.2710329   0.86063141  1070540 
 1034000    1.2000649   -1.2700845   -1.2700845  -0.41009047   0.17422647   -1.2700845     0.859994  1070540 
 1035000    1.2007699    -1.270589    -1.270589  -0.41008976   0.16338716    -1.270589   0.86049923  1070540 
 1036000    1.1996965   -1.2703353   -1.2703353  -0.41060536   0.16752222   -1.2703353   0.85972999  1070540 
 1037000    1.2011053   -1.2722342   -1.2722342  -0.41149466   0.15910613   -1.2722342   0.86073959  1070540 
 1038000    1.1986537   -1.2712902   -1.2712902  -0.41230746   0.16110136   -1.2712902   0.85898269  1070540 
 1039000    1.1988264   -1.2719712   -1.2719712  -0.41286466   0.15830365   -1.2719712    0.8591065  1070540 
 1040000    1.1998871   -1.2728091   -1.2728091  -0.41294254   0.15816427   -1.2728091   0.85986658  1070540 
 1041000    1.1996209   -1.2724676   -1.2724676  -0.41279176   0.16762328   -1.2724676   0.85967583  1070540 
 1042000    1.1979043   -1.2704235   -1.2704235   -0.4119778    0.1655443   -1.2704235   0.85844569  1070540 
 1043000    1.2002086   -1.2707709   -1.2707709   -0.4106739   0.16422424   -1.2707709   0.86009697  1070540 
 1044000    1.2021898   -1.2712392   -1.2712392  -0.40972249    0.1661695   -1.2712392   0.86151675  1070540 
 1045000    1.2023243   -1.2711192   -1.2711192   -0.4095061   0.16771301   -1.2711192   0.86161312  1070540 
 1046000    1.2005201   -1.2703275   -1.2703275  -0.41000734   0.16281571   -1.2703275   0.86032021  1070540 
 1047000    1.2000592   -1.2707224   -1.2707224  -0.41073247   0.16844791   -1.2707224    0.8599899  1070540 
 1048000    1.1988456   -1.2703673   -1.2703673  -0.41124708   0.16402572   -1.2703673   0.85912023  1070540 
 1049000    1.2002043   -1.2715162   -1.2715162  -0.41142228   0.15326551   -1.2715162   0.86009393  1070540 
 1050000    1.1992053   -1.2708743   -1.2708743  -0.41149627   0.15804486   -1.2708743   0.85937804  1070540 
 1051000    1.1982182   -1.2698875   -1.2698875  -0.41121694   0.16897559   -1.2698875    0.8586706  1070540 
 1052000    1.2000628   -1.2704424   -1.2704424  -0.41044988   0.15485516   -1.2704424   0.85999254  1070540 
 1053000    1.2013529   -1.2705095   -1.2705095  -0.40959249   0.15866931   -1.2705095   0.86091702  1070540 
 1054000    1.2018462   -1.2705294   -1.2705294  -0.40925891   0.16536936   -1.2705294   0.86127053  1070540 
 1055000     1.202183   -1.2709459   -1.2709459  -0.40943396    0.1691985   -1.2709459   0.86151192  1070540 
 1056000    1.2010833   -1.2705151   -1.2705151  -0.40979132   0.16547334   -1.2705151   0.86072381  1070540 
 1057000    1.2002458   -1.2704092   -1.2704092  -0.41028554   0.15911902   -1.2704092   0.86012365  1070540 
 1058000    1.1999403   -1.2709775   -1.2709775   -0.4110728   0.15987421   -1.2709775   0.85990471  1070540 
 1059000    1.1980159   -1.2701499   -1.2701499  -0.41162423   0.17294121   -1.2701499   0.85852562  1070540 
 1060000    1.1997189   -1.2713496   -1.2713496  -0.41160361   0.16047611   -1.2713496   0.85974604  1070540 
 1061000    1.1996434   -1.2707777   -1.2707777  -0.41108577    0.1625473   -1.2707777   0.85969194  1070540 
 1062000    1.2007284   -1.2706323   -1.2706323  -0.41016285   0.16435969   -1.2706323   0.86046947  1070540 
 1063000    1.2013819    -1.269754    -1.269754  -0.40881616   0.17209905    -1.269754   0.86093783  1070540 
 1064000    1.2023033   -1.2698048   -1.2698048  -0.40820672   0.16401724   -1.2698048   0.86159809  1070540 
 1065000    1.2027455   -1.2701429   -1.2701429   -0.4082279   0.16321042   -1.2701429   0.86191502  1070540 
 1066000    1.2001975   -1.2693052   -1.2693052  -0.40921618   0.16976378   -1.2693052   0.86008901  1070540 
 1067000    1.1993067   -1.2704034   -1.2704034  -0.41095273   0.15361237   -1.2704034    0.8594507  1070540 
 1068000    1.1996641    -1.271342    -1.271342  -0.41163516   0.16717222    -1.271342   0.85970682  1070540 
 1069000    1.2006216   -1.2721163   -1.2721163  -0.41172334   0.16735994   -1.2721163   0.86039294  1070540 
 1070000    1.1994972   -1.2713298   -1.2713298  -0.41174265    0.1637972   -1.2713298   0.85958715  1070540 
 1071000    1.1999569   -1.2714065   -1.2714065  -0.41148994   0.16646065   -1.2714065   0.85991659  1070540 
 1072000    1.2008589   -1.2716313   -1.2716313  -0.41106825    0.1641918   -1.2716313   0.86056301  1070540 
 1073000    1.2001068   -1.2706742   -1.2706742  -0.41065014   0.15996852   -1.2706742   0.86002403  1070540 
 1074000    1.2006429   -1.2705128   -1.2705128  -0.41010465   0.16484548   -1.2705128   0.86040819  1070540 
 1075000    1.2008835   -1.2699613   -1.2699613  -0.40938063   0.16206472   -1.2699613   0.86058064  1070540 
 1076000    1.2036543   -1.2715269   -1.2715269  -0.40896069    0.1674192   -1.2715269   0.86256623  1070540 
 1077000    1.2013963   -1.2702098   -1.2702098  -0.40926172   0.16565199   -1.2702098    0.8609481  1070540 
 1078000    1.2001638   -1.2705985   -1.2705985  -0.41053364   0.16695631   -1.2705985   0.86006488  1070540 
 1079000    1.1981921   -1.2704912   -1.2704912  -0.41183932   0.16780025   -1.2704912   0.85865189  1070540 
 1080000    1.1968632   -1.2701375   -1.2701375  -0.41243783   0.15838526   -1.2701375   0.85769963  1070540 
 1081000    1.1986492   -1.2712481   -1.2712481  -0.41226863   0.16586574   -1.2712481   0.85897949  1070540 
 1082000     1.199581   -1.2711025   -1.2711025  -0.41145528   0.16158454   -1.2711025   0.85964721  1070540 
 1083000    1.1994205    -1.270043    -1.270043  -0.41051074   0.15658558    -1.270043   0.85953222  1070540 
 1084000    1.2005512    -1.269973    -1.269973  -0.40963052   0.17233313    -1.269973   0.86034252  1070540 
 1085000    1.2007784   -1.2698576   -1.2698576  -0.40935227   0.16512256   -1.2698576   0.86050529  1070540 
 1086000    1.1998997   -1.2691788   -1.2691788  -0.40930324   0.16487144   -1.2691788    0.8598756  1070540 
 1087000    1.2009003   -1.2700306   -1.2700306  -0.40943786   0.16301401   -1.2700306   0.86059269  1070540 
 1088000    1.1998038   -1.2696282   -1.2696282  -0.40982129   0.16746021   -1.2696282   0.85980687  1070540 
 1089000    1.2002027   -1.2707763   -1.2707763  -0.41068351   0.16053265   -1.2707763   0.86009277  1070540 
 1090000    1.1990309   -1.2710356   -1.2710356  -0.41178258     0.158018   -1.2710356   0.85925303  1070540 
 1091000    1.1986982   -1.2714265   -1.2714265  -0.41241186   0.16290838   -1.2714265   0.85901462  1070540 
 1092000    1.1976113   -1.2707443   -1.2707443  -0.41250854   0.15830968   -1.2707443   0.85823573  1070540 
 1093000      1.19894   -1.2706911   -1.2706911  -0.41150325   0.17136693   -1.2706911   0.85918787  1070540 
 1094000    1.2026697   -1.2711416   -1.2711416  -0.40928089   0.16458533   -1.2711416   0.86186071  1070540 
 1095000    1.2025506   -1.2706014   -1.2706014   -0.4088261   0.17097043   -1.2706014    0.8617753  1070540 
 1096000    1.2013255   -1.2701051   -1.2701051  -0.40920766   0.16408917   -1.2701051   0.86089741  1070540 
 1097000    1.2009608   -1.2705252   -1.2705252   -0.4098892   0.16591154   -1.2705252   0.86063604  1070540 
 1098000    1.1996373   -1.2702931   -1.2702931  -0.41060554   0.16425334   -1.2702931   0.85968757  1070540 
 1099000    1.1984268   -1.2700352   -1.2700352  -0.41121509   0.17441077   -1.2700352   0.85882014  1070540 
 1100000    1.1991838   -1.2710225   -1.2710225  -0.41165991   0.17231297   -1.2710225    0.8593626  1070540 
 1101000    1.1990837   -1.2714164   -1.2714164  -0.41212554   0.15757804   -1.2714164   0.85929087  1070540 
 1102000    1.1996533   -1.2720742   -1.2720742  -0.41237511   0.15946348   -1.2720742   0.85969905  1070540 
 1103000    1.1997153   -1.2720475   -1.2720475  -0.41230407   0.16461016   -1.2720475   0.85974345  1070540 
 1104000    1.2005695   -1.2724399   -1.2724399  -0.41208421   0.15514004   -1.2724399   0.86035565  1070540 
 1105000    1.1994626   -1.2710179   -1.2710179  -0.41145554   0.16677051   -1.2710179   0.85956238  1070540 
 1106000    1.1998933   -1.2702099   -1.2702099  -0.41033889    0.1732213   -1.2702099   0.85987101  1070540 
 1107000    1.2018968   -1.2706588   -1.2706588  -0.40935204    0.1673032   -1.2706588   0.86130678  1070540 
 1108000    1.1996933   -1.2687443   -1.2687443  -0.40901662   0.16540103   -1.2687443   0.85972772  1070540 
 1109000    1.2019587   -1.2704308   -1.2704308  -0.40907958   0.16528123   -1.2704308   0.86135117  1070540 
 1110000    1.2008453   -1.2702324   -1.2702324  -0.40967913   0.16561545   -1.2702324   0.86055323  1070540 
 1111000    1.1987433   -1.2699392   -1.2699392  -0.41089228   0.15742372   -1.2699392   0.85904693  1070540 
 1112000    1.1981557   -1.2702824   -1.2702824  -0.41165664   0.17039585   -1.2702824    0.8586258  1070540 
 1113000    1.1993279   -1.2712572   -1.2712572  -0.41179138   0.16396596   -1.2712572   0.85946584  1070540 
 1114000     1.201128   -1.2723415   -1.2723415  -0.41158561   0.16418382   -1.2723415   0.86075585  1070540 
 1115000     1.200608   -1.2719723   -1.2719723  -0.41158904   0.16595944   -1.2719723   0.86038323  1070540 
 1116000    1.2007647   -1.2720434   -1.2720434  -0.41154788   0.16485204   -1.2720434   0.86049548  1070540 
 1117000    1.1987518   -1.2708276   -1.2708276  -0.41177456   0.15390946   -1.2708276     0.859053  1070540 
 1118000    1.2003084   -1.2718157   -1.2718157   -0.4116472   0.16461463   -1.2718157   0.86016854  1070540 
 1119000    1.2005829   -1.2718646   -1.2718646   -0.4114994   0.16296745   -1.2718646   0.86036521  1070540 
 1120000    1.2009079   -1.2718975   -1.2718975  -0.41129939   0.15942502   -1.2718975   0.86059815  1070540 
 1121000    1.2007379   -1.2716803   -1.2716803  -0.41120401   0.16125036   -1.2716803   0.86047632  1070540 
 1122000    1.2005744   -1.2714679   -1.2714679  -0.41110872   0.16225154   -1.2714679   0.86035915  1070540 
 1123000    1.2010797    -1.271597    -1.271597  -0.41087576   0.16628903    -1.271597   0.86072122  1070540 
 1124000    1.1997806   -1.2704596   -1.2704596   -0.4106693   0.16335708   -1.2704596    0.8597903  1070540 
 1125000    1.1998919   -1.2704027   -1.2704027  -0.41053269   0.17444349   -1.2704027   0.85987003  1070540 
 1126000    1.2013524   -1.2715336   -1.2715336  -0.41061696   0.16378291   -1.2715336   0.86091668  1070540 
 1127000    1.2008004   -1.2714074   -1.2714074  -0.41088624   0.16482199   -1.2714074   0.86052112  1070540 
 1128000    1.2004009   -1.2716157   -1.2716157  -0.41138095   0.15952402   -1.2716157   0.86023479  1070540 
 1129000    1.2006325   -1.2722462   -1.2722462  -0.41184542   0.16526025   -1.2722462   0.86040077  1070540 
 1130000    1.1990856   -1.2717124   -1.2717124  -0.41242016   0.16082889   -1.2717124   0.85929223  1070540 
 1131000    1.1976715   -1.2710001   -1.2710001  -0.41272129    0.1556014   -1.2710001   0.85827881  1070540 
 1132000    1.2015179   -1.2731253   -1.2731253  -0.41208999   0.15815043   -1.2731253   0.86103526  1070540 
 1133000     1.199339   -1.2704128   -1.2704128  -0.41093902   0.16352682   -1.2704128   0.85947379  1070540 
 1134000    1.2015082    -1.270663    -1.270663  -0.40963472   0.16343035    -1.270663   0.86102832  1070540 
 1135000    1.2015871    -1.270133    -1.270133  -0.40904813    0.1700189    -1.270133   0.86108488  1070540 
 1136000     1.199968   -1.2691891   -1.2691891  -0.40926448   0.16797029   -1.2691891    0.8599246  1070540 
 1137000    1.1998725   -1.2692902   -1.2692902   -0.4094341   0.16477834   -1.2692902   0.85985612  1070540 
 1138000     1.199695    -1.269518    -1.269518  -0.40978909   0.15943802    -1.269518   0.85972893  1070540 
 1139000    1.2009478   -1.2707528   -1.2707528  -0.41012612   0.16831138   -1.2707528   0.86062671  1070540 
 1140000    1.1993689   -1.2701137   -1.2701137  -0.41061841   0.16131051   -1.2701137   0.85949524  1070540 
 1141000    1.1994322    -1.271021    -1.271021   -0.4114804   0.16759818    -1.271021   0.85954061  1070540 
 1142000    1.1985696   -1.2716735   -1.2716735    -0.412751   0.15922636   -1.2716735   0.85892248  1070540 
 1143000    1.1967559   -1.2716633   -1.2716633  -0.41404059    0.1668408   -1.2716633    0.8576227  1070540 
 1144000    1.1971272   -1.2719316   -1.2719316  -0.41404283   0.16114209   -1.2719316   0.85788881  1070540 
 1145000    1.2004996   -1.2737829   -1.2737829  -0.41347736   0.15773366   -1.2737829   0.86030551  1070540 
 1146000    1.1987199   -1.2718258   -1.2718258  -0.41279564   0.15561314   -1.2718258   0.85903014  1070540 
 1147000    1.2002554     -1.27233     -1.27233  -0.41219947   0.16413958     -1.27233   0.86013054  1070540 
 1148000    1.1989761   -1.2711125   -1.2711125  -0.41189878   0.15766555   -1.2711125   0.85921372  1070540 
 1149000    1.1989493   -1.2708539   -1.2708539   -0.4116594   0.15912417   -1.2708539   0.85919452  1070540 
 1150000    1.2013495   -1.2724204   -1.2724204  -0.41150586   0.16936772   -1.2724204   0.86091458  1070540 
 1151000      1.20001   -1.2713817   -1.2713817  -0.41142706    0.1666567   -1.2713817   0.85995469  1070540 
 1152000    1.2007541   -1.2722037   -1.2722037  -0.41171584   0.17111672   -1.2722037    0.8604879  1070540 
 1153000    1.1992518   -1.2720585   -1.2720585  -0.41264718   0.16497597   -1.2720585    0.8594113  1070540 
 1154000    1.1979065   -1.2724287   -1.2724287  -0.41398142    0.1672329   -1.2724287   0.85844724  1070540 
 1155000    1.1979138   -1.2731487   -1.2731487  -0.41469624   0.15971141   -1.2731487   0.85845248  1070540 
 1156000    1.1986927   -1.2734039   -1.2734039  -0.41439324    0.1673831   -1.2734039   0.85901066  1070540 
 1157000    1.1980358   -1.2719386   -1.2719386  -0.41339871   0.16212643   -1.2719386   0.85853992  1070540 
 1158000      1.19911   -1.2716086   -1.2716086  -0.41229893   0.17348931   -1.2716086   0.85930972  1070540 
 1159000    1.1984943   -1.2708831   -1.2708831  -0.41201463   0.16860023   -1.2708831   0.85886848  1070540 
 1160000    1.1994706   -1.2711999   -1.2711999  -0.41163183   0.17002592   -1.2711999    0.8595681  1070540 
 1161000     1.199184    -1.270524    -1.270524  -0.41116124    0.1639171    -1.270524   0.85936274  1070540 
 1162000    1.2005186   -1.2706683   -1.2706683  -0.41034919   0.16432549   -1.2706683   0.86031912  1070540 
 1163000    1.2020154   -1.2712136   -1.2712136  -0.40982181   0.16683172   -1.2712136   0.86139181  1070540 
 1164000     1.201238   -1.2705677   -1.2705677    -0.409733   0.15716953   -1.2705677   0.86083472  1070540 
 1165000    1.1994394    -1.269755    -1.269755  -0.41020923   0.16139871    -1.269755   0.85954576  1070540 
 1166000    1.1997985   -1.2707363   -1.2707363  -0.41093325   0.16172297   -1.2707363   0.85980307  1070540 
 1167000    1.1988583   -1.2711363   -1.2711363  -0.41200695   0.16894713   -1.2711363   0.85912937  1070540 
 1168000    1.1983335   -1.2718562   -1.2718562  -0.41310292   0.16406292   -1.2718562   0.85875324  1070540 
 1169000    1.1978319   -1.2719819   -1.2719819  -0.41358815   0.15889002   -1.2719819   0.85839377  1070540 
 1170000    1.1982724   -1.2720471   -1.2720471  -0.41333763   0.16731347   -1.2720471    0.8587095  1070540 
 1171000    1.1983971   -1.2714032   -1.2714032   -0.4126044   0.15758722   -1.2714032    0.8587988  1070540 
 1172000    1.1988095   -1.2704915   -1.2704915  -0.41139709   0.16387491   -1.2704915   0.85909438  1070540 
 1173000    1.1998377   -1.2704807   -1.2704807  -0.41064955   0.15856215   -1.2704807   0.85983118  1070540 
 1174000    1.2008731   -1.2710737   -1.2710737  -0.41050046   0.15914274   -1.2710737    0.8605732  1070540 
 1175000    1.1995703   -1.2702203   -1.2702203  -0.41058076   0.16347052   -1.2702203   0.85963959  1070540 
 1176000    1.1992245   -1.2700199   -1.2700199  -0.41062811   0.16863713   -1.2700199    0.8593918  1070540 
 1177000     1.200313   -1.2706626   -1.2706626  -0.41049079   0.16476739   -1.2706626   0.86017178  1070540 
 1178000     1.201167    -1.271317    -1.271317  -0.41053313   0.15822708    -1.271317   0.86078383  1070540 
 1179000    1.2023553    -1.272329    -1.272329  -0.41069368   0.16845428    -1.272329   0.86163535  1070540 
 1180000    1.2000497   -1.2709341   -1.2709341  -0.41095099   0.15558121   -1.2709341   0.85998315  1070540 
 1181000     1.200048   -1.2715863   -1.2715863  -0.41160438   0.15544569   -1.2715863   0.85998187  1070540 
 1182000    1.2007614   -1.2724267   -1.2724267  -0.41193354   0.16092316   -1.2724267   0.86049316  1070540 
 1183000    1.2011609   -1.2732589   -1.2732589  -0.41247952   0.16353186   -1.2732589   0.86077943  1070540 
 1184000    1.1992309   -1.2723356   -1.2723356  -0.41293924   0.16632842   -1.2723356   0.85939632  1070540 
 1185000    1.1991722   -1.2728672   -1.2728672  -0.41351298   0.16364509   -1.2728672   0.85935427  1070540 
 1186000     1.198584   -1.2727012   -1.2727012  -0.41376847   0.15965269   -1.2727012   0.85893276  1070540 
 1187000     1.199187   -1.2728004   -1.2728004  -0.41343547   0.16418797   -1.2728004    0.8593649  1070540 
 1188000    1.1990371   -1.2712308   -1.2712308   -0.4119733   0.16418243   -1.2712308   0.85925746  1070540 
 1189000    1.2012845   -1.2716358   -1.2716358  -0.41076781   0.16200323   -1.2716358   0.86086804  1070540 
 1190000    1.2020919   -1.2716483   -1.2716483  -0.41020171   0.16191814   -1.2716483   0.86144657  1070540 
 1191000    1.2013189   -1.2710728   -1.2710728  -0.41018016   0.16046698   -1.2710728   0.86089265  1070540 
 1192000    1.2006995   -1.2710504   -1.2710504  -0.41060162    0.1664331   -1.2710504   0.86044876  1070540 
 1193000    1.1997391   -1.2713716   -1.2713716  -0.41161106   0.16811773   -1.2713716   0.85976056  1070540 
 1194000    1.2011877   -1.2731962   -1.2731962  -0.41239755   0.16499686   -1.2731962   0.86079865  1070540 
 1195000    1.1999117    -1.272412    -1.272412  -0.41252779   0.16625878    -1.272412   0.85988425  1070540 
 1196000    1.1984391   -1.2713057   -1.2713057  -0.41247676   0.16186743   -1.2713057   0.85882893  1070540 
 1197000    1.2003094   -1.2725097   -1.2725097  -0.41234052   0.17052235   -1.2725097   0.86016919  1070540 
 1198000    1.2012527   -1.2729842   -1.2729842  -0.41213895   0.15924534   -1.2729842   0.86084523  1070540 
 1199000    1.2000952   -1.2721922   -1.2721922  -0.41217654   0.16701574   -1.2721922   0.86001569  1070540 
 1200000    1.1997441   -1.2719321   -1.2719321  -0.41216801   0.15223786   -1.2719321   0.85976412  1070540 
 1201000    1.2010318    -1.272743    -1.272743  -0.41205607   0.16281566    -1.272743   0.86068691  1070540 
 1202000     1.198498   -1.2711281   -1.2711281  -0.41225693   0.16859401   -1.2711281   0.85887114  1070540 
 1203000    1.1999353   -1.2720224   -1.2720224  -0.41212126   0.15688289   -1.2720224   0.85990111  1070540 
 1204000    1.2005413   -1.2724348   -1.2724348  -0.41209941   0.16813326   -1.2724348   0.86033538  1070540 
 1205000    1.1993261   -1.2717758   -1.2717758  -0.41231123   0.17192567   -1.2717758   0.85946456  1070540 
 1206000    1.1991285   -1.2726801   -1.2726801  -0.41335718   0.16707734   -1.2726801   0.85932296  1070540 
 1207000    1.1975784   -1.2729431   -1.2729431  -0.41473101   0.16921044   -1.2729431   0.85821213  1070540 
 1208000    1.1983076   -1.2741689   -1.2741689  -0.41543419   0.16423093   -1.2741689   0.85873466  1070540 
 1209000    1.1964701   -1.2724061   -1.2724061  -0.41498822   0.16928631   -1.2724061   0.85741788  1070540 
 1210000    1.1995395   -1.2735485   -1.2735485  -0.41393101   0.16457514   -1.2735485   0.85961753  1070540 
 1211000    1.2004472   -1.2731804   -1.2731804   -0.4129125   0.16411205   -1.2731804   0.86026794  1070540 
 1212000    1.1995217   -1.2719125   -1.2719125  -0.41230772   0.16173503   -1.2719125   0.85960477  1070540 
 1213000    1.2014623   -1.2727917   -1.2727917  -0.41179626   0.16838705   -1.2727917   0.86099544  1070540 
 1214000    1.1986467   -1.2703769   -1.2703769  -0.41139924   0.16812617   -1.2703769   0.85897767  1070540 
 1215000    1.2009036   -1.2717835   -1.2717835  -0.41118854   0.16867357   -1.2717835   0.86059501  1070540 
 1216000    1.1998931   -1.2710103   -1.2710103  -0.41113944    0.1692267   -1.2710103    0.8598709  1070540 
 1217000    1.1993032   -1.2709027   -1.2709027  -0.41145454   0.16561413   -1.2709027   0.85944817  1070540 
 1218000    1.1992574   -1.2719371   -1.2719371  -0.41252175   0.16357992   -1.2719371   0.85941535  1070540 
 1219000     1.196938   -1.2714892   -1.2714892  -0.41373602     0.161073   -1.2714892   0.85775317  1070540 
 1220000    1.1977255   -1.2724932   -1.2724932  -0.41417566   0.16526598   -1.2724932   0.85831754  1070540 
 1221000    1.1980931   -1.2725436   -1.2725436  -0.41396259   0.15931256   -1.2725436   0.85858099  1070540 
 1222000    1.1998536   -1.2730412   -1.2730412  -0.41319864   0.16200709   -1.2730412    0.8598426  1070540 
 1223000    1.1989821   -1.2712673   -1.2712673  -0.41204924   0.17303277   -1.2712673   0.85921808  1070540 
 1224000    1.2005274   -1.2714664   -1.2714664  -0.41114097   0.16435501   -1.2714664   0.86032547  1070540 
 1225000    1.2011983   -1.2716941   -1.2716941  -0.41088789   0.16296265   -1.2716941   0.86080622  1070540 
 1226000     1.200796   -1.2716834   -1.2716834  -0.41116546    0.1636256   -1.2716834    0.8605179  1070540 
 1227000    1.2008999   -1.2720054   -1.2720054  -0.41141294   0.16847561   -1.2720054   0.86059243  1070540 
 1228000    1.1994464   -1.2711887   -1.2711887  -0.41163789   0.16243425   -1.2711887   0.85955078  1070540 
 1229000    1.1993258   -1.2712866   -1.2712866  -0.41182222   0.16937145   -1.2712866   0.85946438  1070540 
 1230000    1.1996355   -1.2712663   -1.2712663  -0.41158004   0.16265643   -1.2712663   0.85968627  1070540 
 1231000    1.2011036   -1.2718577   -1.2718577  -0.41111929   0.16148309   -1.2718577   0.86073837  1070540 
 1232000    1.2001502   -1.2704286   -1.2704286  -0.41037347   0.16341876   -1.2704286   0.86005517  1070540 
 1233000    1.2030137   -1.2715639   -1.2715639  -0.40945676   0.16734863   -1.2715639   0.86210717  1070540 
 1234000    1.2022319   -1.2705846   -1.2705846   -0.4090377   0.16743366   -1.2705846    0.8615469  1070540 
 1235000    1.2010999   -1.2705452   -1.2705452  -0.40980947   0.17441535   -1.2705452   0.86073575  1070540 
 1236000    1.2029615   -1.2734543   -1.2734543  -0.41138453    0.1560278   -1.2734543   0.86206976  1070540 
 1237000    1.1999455   -1.2724228   -1.2724228  -0.41251432   0.15815503   -1.2724228   0.85990845  1070540 
 1238000    1.1991582   -1.2719473   -1.2719473  -0.41260309   0.16807181   -1.2719473   0.85934425  1070540 
 1239000    1.1998236   -1.2721561   -1.2721561    -0.412335   0.16246732   -1.2721561   0.85982112  1070540 
 1240000    1.1996817   -1.2718352   -1.2718352  -0.41211583   0.16139859   -1.2718352   0.85971938  1070540 
 1241000    1.1987637   -1.2704129   -1.2704129   -0.4113514   0.15695107   -1.2704129   0.85906151  1070540 
 1242000     1.200265   -1.2707434   -1.2707434  -0.41060603   0.16709064   -1.2707434    0.8601374  1070540 
 1243000    1.1989985   -1.2687733   -1.2687733  -0.40954351   0.16549952   -1.2687733   0.85922984  1070540 
 1244000    1.2011519   -1.2696161   -1.2696161  -0.40884304   0.16449292   -1.2696161   0.86077301  1070540 
 1245000    1.2016131   -1.2697466   -1.2697466  -0.40864317   0.16375908   -1.2697466   0.86110346  1070540 
 1246000    1.2022149   -1.2704604   -1.2704604  -0.40892567    0.1699674   -1.2704604   0.86153473  1070540 
 1247000    1.2007158   -1.2700854   -1.2700854  -0.40962493   0.16604617   -1.2700854   0.86046045  1070540 
 1248000    1.2005148   -1.2703316   -1.2703316  -0.41001524   0.16551444   -1.2703316    0.8603164  1070540 
 1249000     1.200791   -1.2710117   -1.2710117  -0.41049734   0.16226303   -1.2710117   0.86051434  1070540 
 1250000    1.2007846   -1.2714888   -1.2714888  -0.41097903   0.16919796   -1.2714888   0.86050973  1070540 
 1251000    1.1996454   -1.2713783   -1.2713783   -0.4116849   0.15572575   -1.2713783   0.85969335  1070540 
 1252000    1.1992461   -1.2714752   -1.2714752  -0.41206794   0.16575251   -1.2714752   0.85940727  1070540 
 1253000    1.1989312   -1.2715215   -1.2715215  -0.41233991    0.1624068   -1.2715215   0.85918161  1070540 
 1254000    1.2000868   -1.2724607   -1.2724607  -0.41245102   0.16613482   -1.2724607   0.86000969  1070540 
 1255000     1.199898   -1.2722682   -1.2722682   -0.4123938   0.16429017   -1.2722682   0.85987439  1070540 
 1256000    1.1981928   -1.2713879   -1.2713879  -0.41273543   0.17159997   -1.2713879   0.85865246  1070540 
 1257000    1.1999684   -1.2731061   -1.2731061  -0.41318128    0.1607563   -1.2731061   0.85992483  1070540 
 1258000    1.1976937   -1.2721176   -1.2721176  -0.41382286   0.16921231   -1.2721176   0.85829479  1070540 
 1259000     1.198516   -1.2729571   -1.2729571   -0.4140731   0.16077928   -1.2729571     0.858884  1070540 
 1260000    1.1987177   -1.2729558   -1.2729558  -0.41392722    0.1656409   -1.2729558   0.85902856  1070540 
 1261000     1.198032   -1.2717149   -1.2717149  -0.41317768   0.16121234   -1.2717149    0.8585372  1070540 
 1262000    1.2009454   -1.2725837   -1.2725837  -0.41195871   0.15840853   -1.2725837   0.86062498  1070540 
 1263000    1.2009658   -1.2719036   -1.2719036  -0.41126398   0.16528471   -1.2719036   0.86063964  1070540 
 1264000    1.2007853   -1.2717356   -1.2717356  -0.41122538   0.16585975   -1.2717356   0.86051024  1070540 
 1265000    1.2007532   -1.2720366   -1.2720366  -0.41154934   0.16406999   -1.2720366   0.86048725  1070540 
 1266000    1.1997695   -1.2719984   -1.2719984  -0.41221608     0.168152   -1.2719984   0.85978233  1070540 
 1267000    1.2002293   -1.2728702   -1.2728702  -0.41275844   0.15977552   -1.2728702    0.8601118  1070540 
 1268000    1.2005845   -1.2734373   -1.2734373  -0.41307093   0.16893463   -1.2734373   0.86036639  1070540 
 1269000    1.1972937   -1.2710809   -1.2710809   -0.4130728   0.16830616   -1.2710809   0.85800814  1070540 
 1270000    1.2006804   -1.2733485   -1.2733485  -0.41291341   0.17130362   -1.2733485   0.86043507  1070540 
 1271000    1.2002226   -1.2730941   -1.2730941  -0.41298703   0.16357183   -1.2730941   0.86010704  1070540 
 1272000    1.1986402   -1.2719171   -1.2719171  -0.41294409   0.16657973   -1.2719171   0.85897305  1070540 
 1273000    1.1998905   -1.2726068   -1.2726068  -0.41273775   0.16646076   -1.2726068   0.85986901  1070540 
 1274000    1.1988931   -1.2716988   -1.2716988  -0.41254455   0.16962014   -1.2716988    0.8591543  1070540 
 1275000    1.2009434   -1.2728528   -1.2728528  -0.41222929   0.16676074   -1.2728528   0.86062354  1070540 
 1276000    1.2012918   -1.2724284   -1.2724284  -0.41155519   0.16298484   -1.2724284   0.86087326  1070540 
 1277000    1.2033424   -1.2727305   -1.2727305  -0.41038776   0.15760524   -1.2727305   0.86234276  1070540 
 1278000    1.2008746   -1.2701723   -1.2701723  -0.40959796   0.16947752   -1.2701723   0.86057429  1070540 
 1279000    1.2021129   -1.2709738   -1.2709738  -0.40951222   0.15791481   -1.2709738   0.86146162  1070540 
 1280000    1.2017992   -1.2713829   -1.2713829  -0.41014608   0.17342829   -1.2713829   0.86123687  1070540 
 1281000    1.2009565   -1.2722447   -1.2722447  -0.41161177   0.16111541   -1.2722447   0.86063295  1070540 
 1282000    1.1987983   -1.2714208   -1.2714208  -0.41233448   0.17262146   -1.2714208   0.85908635  1070540 
 1283000     1.199829   -1.2725205   -1.2725205  -0.41269558   0.15747993   -1.2725205   0.85982496  1070540 
 1284000    1.1997263   -1.2724963   -1.2724963  -0.41274495   0.16694859   -1.2724963   0.85975139  1070540 
 1285000    1.1996827   -1.2724117   -1.2724117  -0.41269154   0.16518761   -1.2724117   0.85972013  1070540 
 1286000    1.1994927   -1.2720166   -1.2720166  -0.41243271   0.16816042   -1.2720166   0.85958393  1070540 
 1287000    1.1981748   -1.2709553   -1.2709553  -0.41231584   0.16512052   -1.2709553   0.85863951  1070540 
 1288000    1.2017417   -1.2727106   -1.2727106  -0.41151498   0.16772764   -1.2727106   0.86119561  1070540 
 1289000    1.2029901   -1.2726432   -1.2726432  -0.41055297   0.16110228   -1.2726432   0.86209025  1070540 
 1290000    1.2005284   -1.2703484   -1.2703484  -0.41002222   0.16517124   -1.2703484    0.8603262  1070540 
 1291000    1.2006882    -1.270308    -1.270308  -0.40986735   0.16834293    -1.270308   0.86044068  1070540 
 1292000    1.2011732   -1.2711439   -1.2711439   -0.4103556   0.16838556   -1.2711439   0.86078825  1070540 
 1293000    1.1993007   -1.2711322   -1.2711322  -0.41168583     0.163785   -1.2711322   0.85944639  1070540 
 1294000    1.1996937    -1.272552    -1.272552  -0.41282405   0.15882803    -1.272552   0.85972797  1070540 
 1295000    1.1978187    -1.271402    -1.271402   -0.4130176   0.16477889    -1.271402   0.85838436  1070540 
 1296000    1.1994112   -1.2721582   -1.2721582  -0.41263265   0.15322886   -1.2721582   0.85952556  1070540 
 1297000    1.2003821   -1.2724996   -1.2724996  -0.41227833   0.15632706   -1.2724996   0.86022131  1070540 
 1298000    1.1976898   -1.2702629   -1.2702629  -0.41197091   0.16905104   -1.2702629   0.85829196  1070540 
 1299000    1.2006008   -1.2713134   -1.2713134  -0.41093535   0.16553408   -1.2713134   0.86037807  1070540 
 1300000    1.2007341   -1.2704177   -1.2704177  -0.40994414   0.16155181   -1.2704177   0.86047356  1070540 
 1301000    1.2018595   -1.2705479   -1.2705479  -0.40926784   0.16971609   -1.2705479   0.86128009  1070540 
 1302000    1.2009202   -1.2701985   -1.2701985  -0.40959157   0.16723239   -1.2701985   0.86060694  1070540 
 1303000    1.2002886   -1.2710969   -1.2710969  -0.41094255   0.16626248   -1.2710969   0.86015433  1070540 
 1304000     1.198345   -1.2718232   -1.2718232  -0.41306174    0.1620192   -1.2718232   0.85876147  1070540 
 1305000    1.1992844   -1.2726349   -1.2726349  -0.41320021   0.15978067   -1.2726349   0.85943465  1070540 
 1306000    1.2009338   -1.2739751   -1.2739751  -0.41335841   0.16498123   -1.2739751   0.86061665  1070540 
 1307000    1.1990575   -1.2726399   -1.2726399  -0.41336782   0.16377295   -1.2726399   0.85927209  1070540 
 1308000    1.1995937    -1.272564    -1.272564  -0.41290765   0.16047438    -1.272564   0.85965633  1070540 
 1309000    1.1989262   -1.2713188   -1.2713188  -0.41214078   0.17116155   -1.2713188   0.85917801  1070540 
 1310000    1.2013851   -1.2724891   -1.2724891  -0.41154907   0.17307257   -1.2724891   0.86094007  1070540 
 1311000    1.2012503   -1.2720146   -1.2720146  -0.41117113   0.16146651   -1.2720146   0.86084348  1070540 
 1312000    1.2008375   -1.2716661   -1.2716661  -0.41111844   0.16680446   -1.2716661   0.86054769  1070540 
 1313000    1.1999017   -1.2711744   -1.2711744  -0.41129739   0.17219066   -1.2711744   0.85987703  1070540 
 1314000     1.200986   -1.2724315   -1.2724315  -0.41177738   0.16565577   -1.2724315   0.86065408  1070540 
 1315000    1.1998304   -1.2728412   -1.2728412   -0.4130152   0.17136578   -1.2728412     0.859826  1070540 
 1316000    1.1997946     -1.27377     -1.27377   -0.4139697   0.16564545     -1.27377   0.85980034  1070540 
 1317000    1.1991025   -1.2737279   -1.2737279  -0.41442357   0.16038458   -1.2737279   0.85930434  1070540 
 1318000    1.1981458    -1.272996    -1.272996  -0.41437719   0.17059767    -1.272996   0.85861877  1070540 
 1319000    1.1991626   -1.2731043   -1.2731043  -0.41375695   0.15836976   -1.2731043   0.85934737  1070540 
 1320000    1.2018109   -1.2739596   -1.2739596  -0.41271433   0.16517281   -1.2739596   0.86124525  1070540 
 1321000    1.2007255   -1.2721648   -1.2721648  -0.41169739   0.15981344   -1.2721648   0.86046739  1070540 
 1322000    1.2022942   -1.2723307   -1.2723307   -0.4107392   0.16475545   -1.2723307   0.86159155  1070540 
 1323000    1.2019789   -1.2713562   -1.2713562  -0.40999065   0.17661025   -1.2713562    0.8613656  1070540 
 1324000    1.2032849   -1.2714192   -1.2714192  -0.40911763    0.1754527   -1.2714192   0.86230157  1070540 
 1325000    1.2043464   -1.2716316   -1.2716316  -0.40856933   0.17207616   -1.2716316   0.86306225  1070540 
 1326000     1.202493   -1.2709027   -1.2709027  -0.40916868   0.16152846   -1.2709027   0.86173405  1070540 
 1327000    1.2025204   -1.2725096   -1.2725096  -0.41075593    0.1618573   -1.2725096   0.86175368  1070540 
 1328000    1.2006836    -1.272594    -1.272594  -0.41215668   0.16527054    -1.272594   0.86043736  1070540 
 1329000    1.2000213   -1.2729543   -1.2729543  -0.41299157   0.16720259   -1.2729543   0.85996277  1070540 
 1330000     1.199273    -1.273043    -1.273043  -0.41361646   0.16762166    -1.273043   0.85942655  1070540 
 1331000    1.1977337   -1.2723478   -1.2723478  -0.41402432   0.15876299   -1.2723478   0.85832344  1070540 
 1332000    1.1989876   -1.2727437   -1.2727437  -0.41352164   0.15749794   -1.2727437   0.85922201  1070540 
 1333000    1.2001365   -1.2725778   -1.2725778  -0.41253248   0.16977964   -1.2725778   0.86004535  1070540 
 1334000    1.2012407   -1.2725854   -1.2725854  -0.41174875   0.16700342   -1.2725854   0.86083662  1070540 
 1335000    1.2002152    -1.271401    -1.271401  -0.41129927   0.16605552    -1.271401   0.86010168  1070540 
 1336000    1.2015124   -1.2721899   -1.2721899  -0.41115859   0.16474051   -1.2721899   0.86103133  1070540 
 1337000    1.2001647   -1.2713995   -1.2713995  -0.41133401   0.16065964   -1.2713995   0.86006552  1070540 
 1338000    1.1986814   -1.2711067   -1.2711067   -0.4121041   0.16742057   -1.2711067   0.85900258  1070540 
 1339000    1.1995163   -1.2731709   -1.2731709  -0.41357003   0.16735668   -1.2731709   0.85960088  1070540 
 1340000    1.1985641   -1.2734493   -1.2734493  -0.41453075   0.16003309   -1.2734493   0.85891851  1070540 
 1341000    1.1989772    -1.273703    -1.273703  -0.41448844   0.16553691    -1.273703   0.85921452  1070540 
 1342000    1.1977975   -1.2724868   -1.2724868  -0.41411773   0.15825876   -1.2724868   0.85836911  1070540 
 1343000     1.199081   -1.2725536   -1.2725536   -0.4132647   0.16543875   -1.2725536   0.85928892  1070540 
 1344000    1.1993978   -1.2718616   -1.2718616  -0.41234561   0.16187323   -1.2718616   0.85951594  1070540 
 1345000    1.2002652   -1.2720224   -1.2720224  -0.41188489   0.16985838   -1.2720224   0.86013754  1070540 
 1346000    1.2015849   -1.2728368   -1.2728368  -0.41175355   0.16217441   -1.2728368   0.86108328  1070540 
 1347000    1.2002699   -1.2721092   -1.2721092  -0.41196827   0.16343886   -1.2721092   0.86014089  1070540 
 1348000    1.1996856   -1.2720618   -1.2720618  -0.41233963   0.16596057   -1.2720618   0.85972218  1070540 
 1349000    1.1989519   -1.2718968   -1.2718968  -0.41270041   0.16569323   -1.2718968   0.85919644  1070540 
 1350000    1.1976623   -1.2713212   -1.2713212  -0.41304897   0.16185098   -1.2713212   0.85827224  1070540 
 1351000    1.2000682   -1.2728432   -1.2728432  -0.41284681   0.16413742   -1.2728432   0.85999641  1070540 
 1352000    1.2008916   -1.2727197   -1.2727197  -0.41213331   0.16671509   -1.2727197   0.86058643  1070540 
 1353000    1.2015466    -1.271733    -1.271733  -0.41067714    0.1716038    -1.271733   0.86105585  1070540 
 1354000    1.2017334   -1.2710581   -1.2710581  -0.40986842   0.15905582   -1.2710581   0.86118969  1070540 
 1355000    1.2029845   -1.2717392   -1.2717392  -0.40965291    0.1590264   -1.2717392   0.86208626  1070540 
 1356000    1.2012904   -1.2713513   -1.2713513  -0.41047906   0.17243315   -1.2713513   0.86087224  1070540 
 1357000    1.2005527   -1.2720316   -1.2720316  -0.41168808   0.16330227   -1.2720316   0.86034356  1070540 
 1358000    1.2002318   -1.2724779   -1.2724779  -0.41236428   0.16217361   -1.2724779   0.86011361  1070540 
 1359000    1.1986152   -1.2717057   -1.2717057  -0.41275065   0.16879085   -1.2717057   0.85895509  1070540 
 1360000     1.200467   -1.2733574   -1.2733574  -0.41307522   0.16423863   -1.2733574   0.86028213  1070540 
 1361000    1.1983427   -1.2721162   -1.2721162  -0.41335634   0.16176658   -1.2721162   0.85875985  1070540 
 1362000    1.2006849   -1.2737554   -1.2737554  -0.41331712   0.16463137   -1.2737554   0.86043831  1070540 
 1363000    1.1988652   -1.2723043   -1.2723043  -0.41317001   0.16741835   -1.2723043   0.85913431  1070540 
 1364000    1.2007876   -1.2733326   -1.2733326  -0.41282075   0.16679719   -1.2733326   0.86051189  1070540 
 1365000    1.2005926   -1.2724552   -1.2724552  -0.41208305   0.16816561   -1.2724552   0.86037214  1070540 
 1366000    1.2016286   -1.2723395   -1.2723395  -0.41122491   0.16450458   -1.2723395   0.86111459  1070540 
 1367000    1.2030787   -1.2729462   -1.2729462   -0.4107924   0.16935595   -1.2729462    0.8621538  1070540 
 1368000    1.2022134   -1.2726545   -1.2726545  -0.41112091   0.16905604   -1.2726545   0.86153364  1070540 
 1369000    1.2011059   -1.2734692   -1.2734692  -0.41272924   0.16341955   -1.2734692      0.86074  1070540 
 1370000    1.2000449   -1.2737593   -1.2737593  -0.41377958   0.16299362   -1.2737593   0.85997968  1070540 
 1371000    1.1987202   -1.2731118   -1.2731118   -0.4140814   0.16952401   -1.2731118   0.85903038  1070540 
 1372000    1.1997174   -1.2739422   -1.2739422  -0.41419727   0.16455163   -1.2739422   0.85974497  1070540 
 1373000    1.1988195   -1.2732803   -1.2732803  -0.41417875   0.16181351   -1.2732803   0.85910153  1070540 
 1374000    1.1997372    -1.273414    -1.273414  -0.41365488   0.16008384    -1.273414   0.85975916  1070540 
 1375000    1.2008787   -1.2732783   -1.2732783  -0.41270116    0.1633608   -1.2732783   0.86057719  1070540 
 1376000    1.2010782   -1.2726056   -1.2726056  -0.41188544   0.15952067   -1.2726056    0.8607202  1070540 
 1377000     1.202252   -1.2732231   -1.2732231  -0.41166175   0.16273364   -1.2732231    0.8615613  1070540 
 1378000    1.2022579   -1.2736866   -1.2736866  -0.41212101   0.15576672   -1.2736866   0.86156559  1070540 
 1379000    1.1998259   -1.2737084   -1.2737084  -0.41388563   0.16081224   -1.2737084   0.85982274  1070540 
 1380000    1.1973519   -1.2731913   -1.2731913  -0.41514153    0.1594411   -1.2731913   0.85804979  1070540 
 1381000    1.1981481   -1.2739152   -1.2739152  -0.41529481    0.1610627   -1.2739152   0.85862039  1070540 
 1382000    1.1980177   -1.2735595   -1.2735595  -0.41503251   0.16370058   -1.2735595   0.85852696  1070540 
 1383000    1.1986054   -1.2734552   -1.2734552   -0.4145071   0.16654539   -1.2734552   0.85894808  1070540 
 1384000    1.1998564   -1.2737747   -1.2737747  -0.41393011   0.16768632   -1.2737747   0.85984463  1070540 
 1385000    1.2010349   -1.2736863   -1.2736863  -0.41299719   0.16895184   -1.2736863   0.86068911  1070540 
 1386000    1.2014211   -1.2738033   -1.2738033   -0.4128374   0.15916746   -1.2738033   0.86096589  1070540 
 1387000    1.2007884   -1.2732385   -1.2732385    -0.412726   0.17013896   -1.2732385   0.86051246  1070540 
 1388000    1.1993986    -1.273274    -1.273274  -0.41375742   0.16485005    -1.273274   0.85951653  1070540 
 1389000    1.1984426   -1.2740044   -1.2740044  -0.41517289   0.16154466   -1.2740044   0.85883147  1070540 
 1390000    1.1987528   -1.2748405   -1.2748405  -0.41578671   0.16981667   -1.2748405   0.85905375  1070540 
 1391000    1.1992322   -1.2750188   -1.2750188  -0.41562152   0.16036136   -1.2750188    0.8593973  1070540 
 1392000    1.1980945   -1.2733372   -1.2733372  -0.41475527   0.16192795   -1.2733372   0.85858197  1070540 
 1393000    1.2001851   -1.2741604   -1.2741604  -0.41408024   0.16297196   -1.2741604   0.86008014  1070540 
 1394000    1.2011077    -1.274312    -1.274312  -0.41357068   0.16009445    -1.274312   0.86074131  1070540 
 1395000    1.2002396    -1.273546    -1.273546  -0.41342679   0.15874377    -1.273546   0.86011918  1070540 
 1396000    1.2006737   -1.2737945   -1.2737945  -0.41336418   0.16177487   -1.2737945   0.86043028  1070540 
 1397000    1.2004967   -1.2738403   -1.2738403  -0.41353681   0.16560762   -1.2738403   0.86030344  1070540 
 1398000    1.2000579   -1.2737248   -1.2737248   -0.4137358   0.16717042   -1.2737248   0.85998898  1070540 
 1399000     1.197956   -1.2726542   -1.2726542  -0.41417146   0.16749387   -1.2726542   0.85848276  1070540 
 1400000    1.1998942   -1.2742282   -1.2742282   -0.4143565    0.1644906   -1.2742282    0.8598717  1070540 
 1401000    1.1994106    -1.273687    -1.273687   -0.4141619   0.16520973    -1.273687   0.85952512  1070540 
 1402000    1.2006963   -1.2740518   -1.2740518   -0.4136053    0.1676282   -1.2740518   0.86044649  1070540 
 1403000    1.1996604   -1.2723978   -1.2723978  -0.41269362    0.1583048   -1.2723978   0.85970417  1070540 
 1404000    1.2015469   -1.2729489   -1.2729489   -0.4118928   0.16215181   -1.2729489   0.86105606  1070540 
 1405000    1.2019812   -1.2729937   -1.2729937  -0.41162643   0.16365315   -1.2729937   0.86136728  1070540 
 1406000     1.200767   -1.2725408   -1.2725408   -0.4120436   0.16810412   -1.2725408   0.86049715  1070540 
 1407000    1.2018608   -1.2744104   -1.2744104  -0.41312939   0.16286476   -1.2744104     0.861281  1070540 
 1408000    1.1990186   -1.2736138   -1.2736138  -0.41436959   0.16418424   -1.2736138   0.85924421  1070540 
 1409000    1.1981161   -1.2733795   -1.2733795  -0.41478205   0.17676698   -1.2733795   0.85859748  1070540 
 1410000    1.1989365   -1.2736432   -1.2736432  -0.41445781   0.16420752   -1.2736432   0.85918535  1070540 
 1411000    1.1993283   -1.2734193   -1.2734193  -0.41395314   0.16346603   -1.2734193   0.85946613  1070540 
 1412000    1.2000335   -1.2733095   -1.2733095  -0.41333793   0.16383989   -1.2733095   0.85997154  1070540 
 1413000    1.2000555   -1.2728895   -1.2728895  -0.41290225   0.16204856   -1.2728895   0.85998729  1070540 
 1414000    1.2009526   -1.2732485   -1.2732485  -0.41261835   0.17052317   -1.2732485   0.86063017  1070540 
 1415000    1.2003857   -1.2727372   -1.2727372  -0.41251326   0.16811462   -1.2727372    0.8602239  1070540 
 1416000    1.2003533   -1.2727659   -1.2727659   -0.4125652   0.15633776   -1.2727659   0.86020071  1070540 
 1417000    1.1992705     -1.27266     -1.27266   -0.4132353   0.16219255     -1.27266   0.85942472  1070540 
 1418000    1.1994197   -1.2742952   -1.2742952   -0.4147635   0.16381948   -1.2742952   0.85953168  1070540 
 1419000    1.1966041   -1.2736712   -1.2736712   -0.4161573   0.16623173   -1.2736712   0.85751389  1070540 
 1420000    1.1984673   -1.2751629   -1.2751629   -0.4163138   0.16221782   -1.2751629   0.85884911  1070540 
 1421000     1.197002    -1.273518    -1.273518  -0.41571892   0.16306692    -1.273518   0.85779909  1070540 
 1422000    1.1988546   -1.2734702   -1.2734702  -0.41434357   0.16522885   -1.2734702   0.85912667  1070540 
 1423000    1.2017056   -1.2745003   -1.2745003   -0.4133305    0.1586279   -1.2745003   0.86116977  1070540 
 1424000    1.2012019    -1.273659    -1.273659  -0.41285019   0.17294589    -1.273659   0.86080883  1070540 
 1425000    1.1997732   -1.2723341   -1.2723341  -0.41254912   0.16750574   -1.2723341   0.85978495  1070540 
 1426000    1.2013998   -1.2734947   -1.2734947  -0.41254412    0.1595061   -1.2734947   0.86095062  1070540 
 1427000    1.2010811   -1.2734273   -1.2734273  -0.41270506   0.16299747   -1.2734273   0.86072226  1070540 
 1428000    1.2014032   -1.2747156   -1.2747156  -0.41376247   0.16782803   -1.2747156   0.86095308  1070540 
 1429000    1.1979402   -1.2735582   -1.2735582  -0.41508679   0.16203054   -1.2735582   0.85847138  1070540 
 1430000    1.1989603   -1.2746107   -1.2746107  -0.41540827   0.16733125   -1.2746107   0.85920242  1070540 
 1431000    1.1983309   -1.2738195   -1.2738195   -0.4150681   0.16164501   -1.2738195   0.85875137  1070540 
 1432000    1.1985574   -1.2735307   -1.2735307  -0.41461695   0.16387058   -1.2735307   0.85891371  1070540 
 1433000    1.1999135   -1.2738292   -1.2738292  -0.41394363   0.15559489   -1.2738292   0.85988552  1070540 
 1434000    1.2009317   -1.2739089   -1.2739089  -0.41329374   0.16883468   -1.2739089   0.86061515  1070540 
 1435000    1.1998089   -1.2728437   -1.2728437  -0.41303314   0.16360158   -1.2728437   0.85981053  1070540 
 1436000    1.2002444   -1.2731097   -1.2731097  -0.41298706   0.16625491   -1.2731097   0.86012265  1070540 
 1437000     1.201342   -1.2736416   -1.2736416  -0.41273238   0.17228278   -1.2736416   0.86090924  1070540 
 1438000    1.2012713   -1.2741155   -1.2741155  -0.41325698   0.16238635   -1.2741155   0.86085854  1070540 
 1439000    1.1985009   -1.2738276   -1.2738276  -0.41495435   0.15921617   -1.2738276   0.85887324  1070540 
 1440000    1.1973184   -1.2740837   -1.2740837  -0.41605786   0.16657999   -1.2740837   0.85802584  1070540 
 1441000     1.197667   -1.2747062   -1.2747062  -0.41643051   0.16461414   -1.2747062   0.85827566  1070540 
 1442000    1.1979883   -1.2741713   -1.2741713  -0.41566542   0.15902826   -1.2741713   0.85850588  1070540 
 1443000    1.2011444   -1.2754253   -1.2754253  -0.41465772   0.16239013   -1.2754253   0.86076757  1070540 
 1444000    1.2004615   -1.2740298   -1.2740298  -0.41375155   0.15383818   -1.2740298   0.86027825  1070540 
 1445000    1.2003597   -1.2735677   -1.2735677  -0.41336248    0.1691432   -1.2735677   0.86020526  1070540 
 1446000    1.2013496    -1.274384    -1.274384  -0.41346931   0.17045017    -1.274384   0.86091468  1070540 
 1447000    1.2010139   -1.2745544   -1.2745544  -0.41388027   0.17286055   -1.2745544   0.86067409  1070540 
 1448000    1.2000603   -1.2745298   -1.2745298  -0.41453903   0.15968327   -1.2745298   0.85999072  1070540 
 1449000    1.2006218   -1.2756826   -1.2756826  -0.41528956   0.16774634   -1.2756826   0.86039307  1070540 
 1450000    1.2005988   -1.2762554   -1.2762554  -0.41587876   0.16224672   -1.2762554   0.86037665  1070540 
 1451000    1.1993988   -1.2752546   -1.2752546  -0.41573796   0.15920859   -1.2752546   0.85951667  1070540 
 1452000     1.199309   -1.2749868   -1.2749868  -0.41553453   0.16124581   -1.2749868   0.85945232  1070540 
 1453000    1.1993835   -1.2747741   -1.2747741  -0.41526839   0.15991596   -1.2747741   0.85950574  1070540 
 1454000    1.1983341    -1.273437    -1.273437   -0.4146833   0.16418378    -1.273437   0.85875371  1070540 
 1455000    1.2003647   -1.2742211   -1.2742211  -0.41401224   0.17036525   -1.2742211   0.86020884  1070540 
 1456000    1.1985866   -1.2723475   -1.2723475  -0.41341287     0.178242   -1.2723475   0.85893461  1070540 
 1457000     1.199933   -1.2733825   -1.2733825  -0.41348305   0.16230275   -1.2733825   0.85989947  1070540 
 1458000    1.2006781    -1.273857    -1.273857  -0.41342353    0.1725376    -1.273857   0.86043345  1070540 
 1459000    1.1988585   -1.2731498   -1.2731498  -0.41402036   0.16756539   -1.2731498   0.85912946  1070540 
 1460000    1.1986516   -1.2744605   -1.2744605  -0.41547931   0.16917491   -1.2744605   0.85898119  1070540 
 1461000    1.1988103   -1.2754947   -1.2754947  -0.41639984   0.16502515   -1.2754947    0.8590949  1070540 
 1462000    1.1986289   -1.2756336   -1.2756336  -0.41666864   0.16205978   -1.2756336   0.85896496  1070540 
 1463000    1.1977405   -1.2746552   -1.2746552   -0.4163269   0.16132604   -1.2746552   0.85832828  1070540 
 1464000    1.1985155   -1.2744713   -1.2744713  -0.41558767   0.16472157   -1.2744713   0.85888366  1070540 
 1465000    1.1983743   -1.2733604   -1.2733604  -0.41457793   0.17008966   -1.2733604   0.85878246  1070540 
 1466000    1.1994552   -1.2734466   -1.2734466  -0.41388954    0.1621415   -1.2734466   0.85955711  1070540 
 1467000    1.2001959   -1.2736625   -1.2736625  -0.41357462   0.16266937   -1.2736625   0.86008786  1070540 
 1468000    1.2003841   -1.2737292   -1.2737292  -0.41350648   0.16546694   -1.2737292   0.86022275  1070540 
 1469000    1.2014243   -1.2745025   -1.2745025  -0.41353435   0.16430092   -1.2745025   0.86096818  1070540 
 1470000    1.1991517   -1.2732219   -1.2732219  -0.41388235   0.17200096   -1.2732219   0.85933958  1070540 
 1471000    1.1993646    -1.273688    -1.273688  -0.41419584    0.1671002    -1.273688   0.85949216  1070540 
 1472000    1.2000288   -1.2740897   -1.2740897  -0.41412154   0.16301399   -1.2740897   0.85996815  1070540 
 1473000    1.2016963   -1.2742408   -1.2742408  -0.41307769   0.17259396   -1.2742408   0.86116314  1070540 
 1474000     1.201416   -1.2727748   -1.2727748  -0.41181258   0.16469692   -1.2727748   0.86096227  1070540 
 1475000    1.2032409   -1.2734589   -1.2734589  -0.41118885   0.16488944   -1.2734589   0.86227001  1070540 
 1476000    1.2007914   -1.2721377   -1.2721377   -0.4116231   0.16274167   -1.2721377   0.86051465  1070540 
 1477000    1.2016373   -1.2735309   -1.2735309  -0.41241007   0.17404493   -1.2735309    0.8611208  1070540 
 1478000    1.2007791    -1.274161    -1.274161  -0.41365514   0.15895216    -1.274161   0.86050583  1070540 
 1479000    1.2004142    -1.274432    -1.274432  -0.41418765   0.16058713    -1.274432   0.86024433  1070540 
 1480000    1.1995627   -1.2741641   -1.2741641  -0.41452997   0.16560414   -1.2741641   0.85963412  1070540 
 1481000    1.1993804   -1.2738631   -1.2738631  -0.41435958   0.16269608   -1.2738631   0.85950349  1070540 
 1482000    1.1997845   -1.2738695   -1.2738695  -0.41407638   0.16319902   -1.2738695    0.8597931  1070540 
 1483000    1.2022528   -1.2753639   -1.2753639  -0.41380199   0.16922923   -1.2753639   0.86156188  1070540 
 1484000    1.2008589   -1.2744257   -1.2744257  -0.41386267   0.15825303   -1.2744257     0.860563  1070540 
 1485000    1.1985944   -1.2735677   -1.2735677  -0.41462746   0.16908607   -1.2735677   0.85894024  1070540 
 1486000    1.1998876    -1.275521    -1.275521  -0.41565409   0.15796238    -1.275521   0.85986695  1070540 
 1487000    1.1981891   -1.2753154   -1.2753154  -0.41666568   0.16394774   -1.2753154   0.85864975  1070540 
 1488000    1.1987145   -1.2754005   -1.2754005  -0.41637424   0.15816219   -1.2754005   0.85902628  1070540 
 1489000    1.1994212    -1.275017    -1.275017  -0.41548421    0.1653587    -1.275017   0.85953275  1070540 
 1490000    1.2003453   -1.2741265   -1.2741265  -0.41393153   0.16099096   -1.2741265   0.86019494  1070540 
 1491000    1.2009752   -1.2739229   -1.2739229  -0.41327656   0.16412001   -1.2739229   0.86064634  1070540 
 1492000    1.2003996   -1.2729366   -1.2729366  -0.41270282   0.17043613   -1.2729366   0.86023383  1070540 
 1493000    1.2002968   -1.2728007   -1.2728007   -0.4126405   0.16585176   -1.2728007   0.86016017  1070540 
 1494000    1.2016328    -1.273962    -1.273962   -0.4128444   0.16789005    -1.273962   0.86111762  1070540 
 1495000    1.2022466   -1.2752348   -1.2752348  -0.41367735   0.16552839   -1.2752348   0.86155745  1070540 
 1496000    1.1984728   -1.2736207   -1.2736207  -0.41476765   0.16401641   -1.2736207   0.85885308  1070540 
 1497000    1.2008964   -1.2760278   -1.2760278  -0.41543792   0.15788928   -1.2760278   0.86058991  1070540 
 1498000    1.1995136   -1.2750892   -1.2750892  -0.41549023    0.1637952   -1.2750892   0.85959897  1070540 
 1499000     1.198354   -1.2740644   -1.2740644   -0.4152965   0.15718268   -1.2740644   0.85876793  1070540 
 1500000    1.1998955   -1.2747605   -1.2747605  -0.41488792   0.16314189   -1.2747605   0.85987259  1070540 
 1501000    1.2004397    -1.274917    -1.274917  -0.41465438   0.16979384    -1.274917   0.86026259  1070540 
 1502000    1.1997003   -1.2742728   -1.2742728  -0.41454012   0.16970465   -1.2742728   0.85973272  1070540 
 1503000    1.2007466   -1.2747156   -1.2747156  -0.41423305   0.16340847   -1.2747156   0.86048256  1070540 
 1504000     1.201367   -1.2752029   -1.2752029   -0.4142758   0.16282454   -1.2752029    0.8609271  1070540 
 1505000    1.2000307    -1.274469    -1.274469  -0.41449949   0.16552327    -1.274469   0.85996949  1070540 
 1506000    1.1976054   -1.2735289   -1.2735289  -0.41529747   0.15947443   -1.2735289   0.85823146  1070540 
 1507000    1.1984682   -1.2755569   -1.2755569  -0.41670711   0.16372339   -1.2755569    0.8588498  1070540 
 1508000    1.1961249   -1.2745997   -1.2745997  -0.41742919   0.16192356   -1.2745997   0.85717052  1070540 
 1509000    1.1966745   -1.2743106   -1.2743106   -0.4167462   0.15502171   -1.2743106   0.85756441  1070540 
 1510000    1.1991946   -1.2747716   -1.2747716  -0.41540126   0.16296697   -1.2747716   0.85937035  1070540 
 1511000    1.2005609   -1.2745966   -1.2745966  -0.41424713   0.16101865   -1.2745966   0.86034947  1070540 
 1512000    1.2015688   -1.2745775   -1.2745775  -0.41350576   0.16219942   -1.2745775   0.86107172  1070540 
 1513000     1.200753   -1.2735186   -1.2735186  -0.41303146   0.16703191   -1.2735186   0.86048715  1070540 
 1514000    1.2007852   -1.2736156   -1.2736156  -0.41310534   0.16524823   -1.2736156   0.86051021  1070540 
 1515000    1.2001985   -1.2737041   -1.2737041   -0.4136143   0.16636536   -1.2737041   0.86008978  1070540 
 1516000    1.2002338   -1.2743334   -1.2743334  -0.41421831   0.16528181   -1.2743334   0.86011504  1070540 
 1517000     1.200968    -1.275801    -1.275801  -0.41515981    0.1583152    -1.275801   0.86064122  1070540 
 1518000    1.1980334   -1.2745131   -1.2745131   -0.4159749    0.1594008   -1.2745131   0.85853817  1070540 
 1519000     1.198025   -1.2748157   -1.2748157  -0.41628358   0.16735938   -1.2748157   0.85853214  1070540 
 1520000    1.1977586   -1.2742671   -1.2742671  -0.41592581   0.16363177   -1.2742671   0.85834128  1070540 
 1521000    1.2003112   -1.2746167   -1.2746167  -0.41444621    0.1606575   -1.2746167    0.8601705  1070540 
 1522000    1.2007687   -1.2732138   -1.2732138  -0.41271546    0.1663046   -1.2732138   0.86049838  1070540 
 1523000     1.201041   -1.2731886   -1.2731886  -0.41249508   0.16779649   -1.2731886   0.86069351  1070540 
 1524000    1.2008181   -1.2730589   -1.2730589   -0.4125251   0.16106558   -1.2730589   0.86053379  1070540 
 1525000    1.1999672   -1.2728655   -1.2728655   -0.4129415   0.16492392   -1.2728655   0.85992403  1070540 
 1526000    1.2007073   -1.2737505   -1.2737505  -0.41329612   0.17078225   -1.2737505   0.86045435  1070540 
 1527000    1.1987897   -1.2732396   -1.2732396  -0.41415945    0.1683794   -1.2732396    0.8590802  1070540 
 1528000    1.2015204   -1.2759891   -1.2759891  -0.41495202   0.16679978   -1.2759891   0.86103708  1070540 
 1529000    1.1978624   -1.2738832   -1.2738832  -0.41546751   0.15644378   -1.2738832   0.85841565  1070540 
 1530000    1.1987295   -1.2747997   -1.2747997  -0.41576265   0.16060724   -1.2747997   0.85903707  1070540 
 1531000    1.1990649   -1.2746661   -1.2746661  -0.41538871   0.16517761   -1.2746661   0.85927737  1070540 
 1532000    1.1993198   -1.2739957   -1.2739957  -0.41453564   0.16638076   -1.2739957   0.85946004  1070540 
 1533000    1.2017347   -1.2737492   -1.2737492  -0.41255856   0.16194333   -1.2737492   0.86119061  1070540 
 1534000    1.2013112    -1.272628    -1.272628  -0.41174086   0.17504922    -1.272628   0.86088717  1070540 
 1535000    1.2020861   -1.2735689   -1.2735689   -0.4121265   0.16707655   -1.2735689   0.86144243  1070540 
 1536000    1.2021282   -1.2743306   -1.2743306  -0.41285796   0.15786237   -1.2743306   0.86147259  1070540 
 1537000    1.2007838    -1.274226    -1.274226  -0.41371681   0.17384896    -1.274226   0.86050919  1070540 
 1538000    1.1999116   -1.2744172   -1.2744172  -0.41453303   0.16830008   -1.2744172   0.85988415  1070540 
 1539000    1.1970296   -1.2729363   -1.2729363  -0.41511745   0.16838816   -1.2729363   0.85781883  1070540 
 1540000    1.2000633   -1.2747962   -1.2747962  -0.41480339   0.16475026   -1.2747962   0.85999285  1070540 
 1541000    1.1995484   -1.2739228   -1.2739228   -0.4142989   0.16800046   -1.2739228   0.85962386  1070540 
 1542000    1.2002024   -1.2740452   -1.2740452  -0.41395259   0.16440928   -1.2740452   0.86009258  1070540 
 1543000    1.1992908   -1.2728505   -1.2728505  -0.41341126   0.17197193   -1.2728505   0.85943924  1070540 
 1544000    1.2021532   -1.2740846   -1.2740846  -0.41259404   0.16597389   -1.2740846   0.86149053  1070540 
 1545000    1.2028637   -1.2737738   -1.2737738  -0.41177407   0.16828885   -1.2737738   0.86199968  1070540 
 1546000     1.202028   -1.2727124   -1.2727124  -0.41131158   0.16319008   -1.2727124   0.86140079  1070540 
 1547000    1.2009561   -1.2719653   -1.2719653   -0.4113326   0.16742967   -1.2719653   0.86063267  1070540 
 1548000    1.2015946    -1.273553    -1.273553  -0.41246274   0.16440036    -1.273553   0.86109024  1070540 
 1549000    1.2003103   -1.2741691   -1.2741691   -0.4139992   0.16732886   -1.2741691    0.8601699  1070540 
 1550000    1.1984372   -1.2735617   -1.2735617  -0.41473417   0.17246665   -1.2735617   0.85882756  1070540 
 1551000    1.2001313   -1.2751021   -1.2751021  -0.41506051   0.16370983   -1.2751021   0.86004162  1070540 
 1552000    1.1986084   -1.2741418   -1.2741418  -0.41519155   0.16935769   -1.2741418   0.85895027  1070540 
 1553000    1.1989361   -1.2740005   -1.2740005  -0.41481543   0.16527396   -1.2740005   0.85918508  1070540 
 1554000     1.201159   -1.2748706   -1.2748706  -0.41409257   0.16642025   -1.2748706   0.86077807  1070540 
 1555000    1.2004495   -1.2737593   -1.2737593  -0.41348964   0.16480037   -1.2737593   0.86026962  1070540 
 1556000    1.2020179   -1.2743038   -1.2743038  -0.41291028   0.16510456   -1.2743038   0.86139356  1070540 
 1557000    1.2015473   -1.2741464   -1.2741464  -0.41309007   0.16406958   -1.2741464   0.86105635  1070540 
 1558000    1.2005186   -1.2743969   -1.2743969  -0.41407777   0.16863618   -1.2743969   0.86031914  1070540 
 1559000     1.197576   -1.2738655   -1.2738655  -0.41565515   0.15672009   -1.2738655    0.8582104  1070540 
 1560000    1.1982872   -1.2750142   -1.2750142  -0.41629405   0.16381175   -1.2750142    0.8587201  1070540 
 1561000     1.198389    -1.275164    -1.275164  -0.41637097   0.15826711    -1.275164   0.85879303  1070540 
 1562000    1.1986203   -1.2746651   -1.2746651  -0.41570635   0.16821014   -1.2746651   0.85895879  1070540 
 1563000    1.2006556   -1.2751015   -1.2751015  -0.41468414   0.16056821   -1.2751015   0.86041731  1070540 
 1564000    1.2006485   -1.2743155   -1.2743155  -0.41390331   0.16318858   -1.2743155   0.86041221  1070540 
 1565000    1.2003483   -1.2737944   -1.2737944  -0.41359734   0.16646605   -1.2737944   0.86019708  1070540 
 1566000    1.2008463   -1.2740296   -1.2740296  -0.41347563   0.15742349   -1.2740296   0.86055399  1070540 
 1567000     1.200408   -1.2740902   -1.2740902  -0.41385029   0.16882076   -1.2740902   0.86023992  1070540 
 1568000    1.2015584   -1.2752436   -1.2752436  -0.41417929   0.15704648   -1.2752436   0.86106428  1070540 
 1569000    1.1998562   -1.2745031   -1.2745031  -0.41465863   0.15590301   -1.2745031   0.85984444  1070540 
 1570000     1.199137   -1.2739486   -1.2739486  -0.41461961   0.15838152   -1.2739486   0.85932904  1070540 
 1571000    1.1991365   -1.2737833   -1.2737833  -0.41445459   0.16190111   -1.2737833   0.85932871  1070540 
 1572000    1.2009127   -1.2746538   -1.2746538  -0.41405228   0.16284105   -1.2746538   0.86060153  1070540 
 1573000    1.1996676   -1.2729734   -1.2729734  -0.41326415    0.1579094   -1.2729734   0.85970929  1070540 
 1574000    1.2022057   -1.2731527   -1.2731527  -0.41162457   0.16620653   -1.2731527   0.86152818  1070540 
 1575000    1.2018287   -1.2721718   -1.2721718  -0.41091377   0.16635111   -1.2721718     0.861258  1070540 
 1576000    1.2017777   -1.2725418   -1.2725418   -0.4113204   0.16847873   -1.2725418   0.86122143  1070540 
 1577000    1.2015071    -1.273397    -1.273397  -0.41236945   0.16705948    -1.273397   0.86102755  1070540 
 1578000    1.2003543   -1.2736639   -1.2736639  -0.41346251   0.16663183   -1.2736639   0.86020142  1070540 
 1579000    1.1991511   -1.2733681   -1.2733681  -0.41402897   0.16535417   -1.2733681   0.85933918  1070540 
 1580000     1.199824   -1.2743381   -1.2743381  -0.41451669   0.16704936   -1.2743381    0.8598214  1070540 
 1581000    1.2006867   -1.2753159   -1.2753159  -0.41487626   0.17065391   -1.2753159   0.86043963  1070540 
 1582000    1.1991287   -1.2743983   -1.2743983  -0.41507518   0.16554591   -1.2743983   0.85932308  1070540 
 1583000    1.1985741   -1.2742993   -1.2742993  -0.41537366   0.16813968   -1.2742993   0.85892568  1070540 
 1584000    1.1991491   -1.2749755   -1.2749755  -0.41563774   0.16687464   -1.2749755   0.85933773  1070540 
 1585000     1.199176   -1.2749405   -1.2749405  -0.41558351   0.16050429   -1.2749405   0.85935703  1070540 
 1586000    1.1979044   -1.2735683   -1.2735683  -0.41512253   0.16532299   -1.2735683   0.85844575  1070540 
 1587000    1.2026335   -1.2758742   -1.2758742  -0.41403952   0.16123395   -1.2758742   0.86183472  1070540 
 1588000    1.1996551   -1.2726913   -1.2726913  -0.41299099   0.16403109   -1.2726913   0.85970034  1070540 
 1589000    1.2015545   -1.2734048   -1.2734048  -0.41234332   0.16334452   -1.2734048   0.86106151  1070540 
 1590000    1.2006216   -1.2726853   -1.2726853   -0.4122924   0.16837199   -1.2726853   0.86039293  1070540 
 1591000    1.2018848   -1.2742147   -1.2742147  -0.41291648   0.17002868   -1.2742147   0.86129819  1070540 
 1592000    1.2020665   -1.2754451   -1.2754451  -0.41401664   0.16184978   -1.2754451   0.86142843  1070540 
 1593000    1.2012266   -1.2756529   -1.2756529  -0.41482637    0.1694118   -1.2756529   0.86082649  1070540 
 1594000    1.1979533   -1.2738492   -1.2738492  -0.41536842   0.16162567   -1.2738492    0.8584808  1070540 
 1595000    1.1993397   -1.2746658   -1.2746658  -0.41519145   0.17224604   -1.2746658   0.85947435  1070540 
 1596000    1.2007159   -1.2756292   -1.2756292  -0.41516869   0.17074772   -1.2756292   0.86046055  1070540 
 1597000    1.1996338   -1.2747418   -1.2747418  -0.41505676   0.16128484   -1.2747418   0.85968507  1070540 
 1598000    1.2007763   -1.2755869   -1.2755869  -0.41508308   0.16467888   -1.2755869   0.86050379  1070540 
 1599000    1.1999755   -1.2750802   -1.2750802  -0.41515025   0.16322903   -1.2750802   0.85992993  1070540 
 1600000    1.1997368   -1.2755158   -1.2755158  -0.41575698   0.16605131   -1.2755158   0.85975886  1070540 
 1601000    1.1982839   -1.2751933   -1.2751933  -0.41647561   0.16124823   -1.2751933    0.8587177  1070540 
 1602000    1.1988395   -1.2763474   -1.2763474  -0.41723157   0.15813971   -1.2763474   0.85911586  1070540 
 1603000    1.1977794   -1.2757566   -1.2757566  -0.41740037    0.1651466   -1.2757566   0.85835619  1070540 
 1604000    1.2001816   -1.2768694   -1.2768694  -0.41679176   0.16895965   -1.2768694   0.86007765  1070540 
 1605000    1.1996108   -1.2751314   -1.2751314  -0.41546277   0.16010018   -1.2751314   0.85966861  1070540 
 1606000    1.2004968   -1.2745666   -1.2745666  -0.41426311   0.16052533   -1.2745666   0.86030352  1070540 
 1607000    1.2010948   -1.2744464   -1.2744464  -0.41371437   0.16243654   -1.2744464   0.86073207  1070540 
 1608000    1.2022759   -1.2752279   -1.2752279  -0.41364946   0.15524578   -1.2752279   0.86157848  1070540 
 1609000    1.2013324   -1.2747031   -1.2747031  -0.41380074   0.15964109   -1.2747031   0.86090237  1070540 
 1610000    1.1996311   -1.2739029   -1.2739029  -0.41421976   0.16210988   -1.2739029   0.85968313  1070540 
 1611000    1.1989998   -1.2740054   -1.2740054  -0.41477468   0.15589097   -1.2740054   0.85923073  1070540 
 1612000    1.1993696   -1.2747431   -1.2747431  -0.41524734   0.16250033   -1.2747431   0.85949573  1070540 
 1613000     1.196918    -1.273376    -1.273376  -0.41563708   0.16758695    -1.273376    0.8577389  1070540 
 1614000     1.198816   -1.2752208   -1.2752208  -0.41612175   0.15956735   -1.2752208   0.85909901  1070540 
 1615000    1.1984476    -1.275169    -1.275169  -0.41633401   0.15953525    -1.275169   0.85883499  1070540 
 1616000    1.1981675    -1.274674    -1.274674  -0.41603978   0.16320175    -1.274674   0.85863427  1070540 
 1617000     1.199346   -1.2746159   -1.2746159  -0.41513714   0.16625347   -1.2746159   0.85947881  1070540 
 1618000    1.1989247   -1.2733983   -1.2733983  -0.41422132    0.1687221   -1.2733983   0.85917694  1070540 
 1619000    1.1999726   -1.2731953   -1.2731953  -0.41326747   0.15509677   -1.2731953   0.85992787  1070540 
 1620000    1.2022903   -1.2743042   -1.2743042  -0.41271543   0.16692935   -1.2743042   0.86158876  1070540 
 1621000    1.2009972    -1.273309    -1.273309  -0.41264689   0.15888597    -1.273309   0.86066211  1070540 
 1622000    1.2001677   -1.2731762   -1.2731762  -0.41310846     0.163704   -1.2731762    0.8600677  1070540 
 1623000     1.199338    -1.273403    -1.273403  -0.41392995   0.16883145    -1.273403   0.85947309  1070540 
 1624000    1.1976521   -1.2732223   -1.2732223  -0.41495738    0.1622445   -1.2732223   0.85826495  1070540 
 1625000    1.1978304   -1.2741118   -1.2741118  -0.41571905   0.15687371   -1.2741118   0.85839274  1070540 
 1626000    1.1987344     -1.27493     -1.27493  -0.41588944   0.16314994     -1.27493   0.85904053  1070540 
 1627000    1.1989582   -1.2750406   -1.2750406  -0.41583964   0.16616764   -1.2750406   0.85920094  1070540 
 1628000    1.1991867   -1.2743044   -1.2743044   -0.4149397   0.16375163   -1.2743044   0.85936471  1070540 
 1629000    1.1999153   -1.2735371   -1.2735371  -0.41365025   0.15631762   -1.2735371   0.85988681  1070540 
 1630000    1.1994828    -1.272275    -1.272275   -0.4126981   0.16789673    -1.272275   0.85957687  1070540 
 1631000    1.2023165    -1.274017    -1.274017  -0.41240942   0.16856818    -1.274017   0.86160755  1070540 
 1632000    1.1999923   -1.2722889   -1.2722889  -0.41234686   0.16641864   -1.2722889   0.85994201  1070540 
 1633000    1.1995616   -1.2724775   -1.2724775  -0.41284416   0.17103844   -1.2724775   0.85963334  1070540 
 1634000    1.1975998   -1.2717137   -1.2717137  -0.41348629   0.16640157   -1.2717137   0.85822745  1070540 
 1635000    1.1997579   -1.2739943   -1.2739943  -0.41422021   0.17024693   -1.2739943   0.85977404  1070540 
 1636000    1.1989626   -1.2739625   -1.2739625  -0.41475842   0.15778261   -1.2739625   0.85920406  1070540 
 1637000    1.2003696   -1.2754032   -1.2754032  -0.41519077   0.16474048   -1.2754032   0.86021239  1070540 
 1638000    1.1991969    -1.275308    -1.275308    -0.415936   0.15854619    -1.275308     0.859372  1070540 
 1639000    1.1980398   -1.2751056   -1.2751056  -0.41656285    0.1690752   -1.2751056   0.85854274  1070540 
 1640000    1.1982735   -1.2755029   -1.2755029  -0.41679263   0.16853665   -1.2755029   0.85871027  1070540 
 1641000    1.1975742   -1.2743629   -1.2743629  -0.41615381   0.16433004   -1.2743629   0.85820908  1070540 
 1642000     1.200405   -1.2748313   -1.2748313  -0.41459355   0.17172361   -1.2748313   0.86023772  1070540 
 1643000    1.2009638   -1.2743767   -1.2743767   -0.4137385   0.16231401   -1.2743767   0.86063816  1070540 
 1644000    1.2003387   -1.2733884   -1.2733884  -0.41319817   0.16330504   -1.2733884   0.86019023  1070540 
 1645000    1.2024133   -1.2748542   -1.2748542  -0.41317728   0.15502001   -1.2748542   0.86167696  1070540 
 1646000    1.2000259   -1.2735479   -1.2735479   -0.4135818   0.17000748   -1.2735479   0.85996605  1070540 
 1647000    1.1978954   -1.2722708   -1.2722708  -0.41383148   0.16611368   -1.2722708   0.85843928  1070540 
 1648000    1.1984256   -1.2728356   -1.2728356  -0.41401636   0.16155875   -1.2728356   0.85881924  1070540 
 1649000    1.2007342   -1.2741789   -1.2741789  -0.41370518   0.17377672   -1.2741789   0.86047368  1070540 
 1650000    1.2010554   -1.2738937   -1.2738937  -0.41318983   0.15891547   -1.2738937   0.86070385  1070540 
 1651000    1.2013324   -1.2733234   -1.2733234  -0.41242103   0.16674354   -1.2733234   0.86090234  1070540 
 1652000    1.2017465   -1.2732912   -1.2732912  -0.41209215   0.16619904   -1.2732912    0.8611991  1070540 
 1653000    1.2017835   -1.2736876   -1.2736876  -0.41246193   0.16242186   -1.2736876   0.86122564  1070540 
 1654000    1.1998523   -1.2735118   -1.2735118  -0.41367021   0.16608789   -1.2735118   0.85984163  1070540 
 1655000    1.1997329   -1.2746131   -1.2746131  -0.41485703   0.16300123   -1.2746131    0.8597561  1070540 
 1656000    1.1976596   -1.2737027   -1.2737027  -0.41543235   0.16696398   -1.2737027    0.8582703  1070540 
 1657000    1.1987238   -1.2744643   -1.2744643  -0.41543136   0.16508304   -1.2744643   0.85903296  1070540 
 1658000    1.2010407   -1.2758989   -1.2758989  -0.41520556   0.16315892   -1.2758989   0.86069333  1070540 
 1659000    1.2004778   -1.2753583   -1.2753583  -0.41506838   0.16072353   -1.2753583   0.86028994  1070540 
 1660000     1.200683   -1.2749683   -1.2749683   -0.4145313   0.16746592   -1.2749683   0.86043697  1070540 
 1661000     1.199925    -1.273247    -1.273247  -0.41335328   0.16781657    -1.273247   0.85989374  1070540 
 1662000    1.2019154   -1.2733863   -1.2733863  -0.41206625    0.1654115   -1.2733863   0.86132009  1070540 
 1663000    1.2037793   -1.2743741   -1.2743741  -0.41171829   0.16206374   -1.2743741   0.86265584  1070540 
 1664000    1.2034922   -1.2746064   -1.2746064  -0.41215625   0.17317441   -1.2746064   0.86245012  1070540 
 1665000    1.2014485   -1.2746823   -1.2746823  -0.41369678   0.16573087   -1.2746823   0.86098552  1070540 
 1666000    1.1997482   -1.2742611   -1.2742611  -0.41449404   0.16333248   -1.2742611   0.85976709  1070540 
 1667000    1.2002668    -1.274589    -1.274589  -0.41445036   0.16360641    -1.274589   0.86013869  1070540 
 1668000    1.2011041   -1.2753046   -1.2753046  -0.41456586   0.16589726   -1.2753046    0.8607387  1070540 
 1669000    1.2004022   -1.2750693   -1.2750693  -0.41483356    0.1564282   -1.2750693   0.86023576  1070540 
 1670000    1.2001025   -1.2748666   -1.2748666  -0.41484564   0.16962206   -1.2748666   0.86002097  1070540 
 1671000    1.1990927   -1.2739833   -1.2739833  -0.41468606   0.16193661   -1.2739833   0.85929728  1070540 
 1672000    1.2000311   -1.2741887   -1.2741887   -0.4142189   0.17256951   -1.2741887   0.85996976  1070540 
 1673000    1.1999866   -1.2732888   -1.2732888   -0.4133509   0.16220671   -1.2732888   0.85993792  1070540 
 1674000    1.2022383   -1.2741054   -1.2741054  -0.41255386   0.16812286   -1.2741054   0.86155154  1070540 
 1675000    1.2014244   -1.2731551   -1.2731551  -0.41218684   0.17077622   -1.2731551   0.86096826  1070540 
 1676000    1.2020332   -1.2737878   -1.2737878  -0.41238326   0.16912146   -1.2737878   0.86140454  1070540 
 1677000    1.2008262   -1.2740868   -1.2740868  -0.41354718    0.1673865   -1.2740868   0.86053961  1070540 
 1678000    1.1994129     -1.27475     -1.27475  -0.41522322   0.16347916     -1.27475   0.85952678  1070540 
 1679000    1.1992275   -1.2750408   -1.2750408  -0.41564691   0.15323198   -1.2750408   0.85939394  1070540 
 1680000      1.19885   -1.2746233   -1.2746233  -0.41549994    0.1631323   -1.2746233   0.85912337  1070540 
 1681000     1.199892   -1.2748793   -1.2748793  -0.41500911   0.15379455   -1.2748793   0.85987014  1070540 
 1682000    1.2000306   -1.2741734   -1.2741734  -0.41420394   0.16471158   -1.2741734   0.85996945  1070540 
 1683000    1.2007088    -1.274301    -1.274301  -0.41384558   0.16568941    -1.274301   0.86045546  1070540 
 1684000    1.2018202   -1.2746997   -1.2746997  -0.41344782   0.16815298   -1.2746997   0.86125191  1070540 
 1685000     1.200852   -1.2742344   -1.2742344  -0.41367632   0.16563904   -1.2742344   0.86055805  1070540 
 1686000    1.2000446   -1.2748502   -1.2748502  -0.41487072   0.16864753   -1.2748502   0.85997947  1070540 
 1687000    1.1978105   -1.2748296   -1.2748296  -0.41645106    0.1663603   -1.2748296   0.85837849  1070540 
 1688000    1.1969631   -1.2746163   -1.2746163  -0.41684513   0.16730569   -1.2746163   0.85777119  1070540 
 1689000    1.1981318   -1.2749665   -1.2749665  -0.41635779   0.15587009   -1.2749665   0.85860872  1070540 
 1690000    1.1999777   -1.2756995   -1.2756995  -0.41576798   0.16682831   -1.2756995   0.85993154  1070540 
 1691000    1.1994397   -1.2745398   -1.2745398  -0.41499379   0.16715294   -1.2745398     0.859546  1070540 
 1692000    1.2010465   -1.2747687   -1.2747687  -0.41407127   0.15776345   -1.2747687   0.86069744  1070540 
 1693000    1.2017264   -1.2747555   -1.2747555  -0.41357079   0.16631387   -1.2747555   0.86118468  1070540 
 1694000    1.2012245    -1.274542    -1.274542  -0.41371696   0.15931759    -1.274542   0.86082503  1070540 
 1695000    1.1995333   -1.2733914   -1.2733914  -0.41377838   0.16058212   -1.2733914   0.85961304  1070540 
 1696000    1.1996212   -1.2739552   -1.2739552  -0.41427914    0.1609939   -1.2739552   0.85967603  1070540 
 1697000    1.2005039   -1.2750832   -1.2750832  -0.41477452   0.15308947   -1.2750832   0.86030864  1070540 
 1698000    1.1980652   -1.2741893   -1.2741893  -0.41562838   0.16659626   -1.2741893   0.85856095  1070540 
 1699000    1.1977937   -1.2749754   -1.2749754  -0.41660899   0.16068735   -1.2749754   0.85836639  1070540 
 1700000    1.1957876   -1.2743817   -1.2743817  -0.41745293   0.15835931   -1.2743817    0.8569288  1070540 
 1701000    1.1984457   -1.2763468   -1.2763468  -0.41751311   0.16117232   -1.2763468   0.85883368  1070540 
 1702000    1.1984043     -1.27471     -1.27471  -0.41590595   0.16285786     -1.27471   0.85880402  1070540 
 1703000    1.2013937   -1.2753305   -1.2753305  -0.41438431   0.16370991   -1.2753305   0.86094623  1070540 
 1704000    1.2006004   -1.2741515   -1.2741515  -0.41377373   0.16138488   -1.2741515   0.86037775  1070540 
 1705000    1.2019913   -1.2749364   -1.2749364   -0.4135619   0.16715481   -1.2749364   0.86137449  1070540 
 1706000    1.2003221   -1.2741996   -1.2741996  -0.41402128   0.17488321   -1.2741996   0.86017833  1070540 
 1707000    1.1998441   -1.2744523   -1.2744523  -0.41461647   0.16255637   -1.2744523    0.8598358  1070540 
 1708000    1.1991435   -1.2746975   -1.2746975   -0.4153638   0.16597752   -1.2746975    0.8593337  1070540 
 1709000     1.200451   -1.2760854   -1.2760854  -0.41581473   0.16520307   -1.2760854   0.86027071  1070540 
 1710000    1.1981977   -1.2745943   -1.2745943  -0.41593842   0.17190532   -1.2745943   0.85865591  1070540 
 1711000    1.1986847   -1.2748378   -1.2748378  -0.41583283    0.1564724   -1.2748378   0.85900493  1070540 
 1712000    1.1989469   -1.2741708   -1.2741708  -0.41497799   0.16368677   -1.2741708   0.85919285  1070540 
 1713000    1.2009219   -1.2739617   -1.2739617  -0.41335357   0.16770425   -1.2739617   0.86060814  1070540 
 1714000    1.2020373    -1.273958    -1.273958  -0.41255047    0.1687986    -1.273958   0.86140749  1070540 
 1715000    1.1999724   -1.2727217   -1.2727217  -0.41279397    0.1645315   -1.2727217   0.85992771  1070540 
 1716000    1.1997506   -1.2728827   -1.2728827  -0.41311389   0.17029365   -1.2728827   0.85976877  1070540 
 1717000    1.1996655   -1.2736116   -1.2736116  -0.41390384   0.17174802   -1.2736116   0.85970777  1070540 
 1718000    1.1996039   -1.2740092   -1.2740092  -0.41434558   0.16648672   -1.2740092   0.85966365  1070540 
 1719000    1.1995475   -1.2743358   -1.2743358  -0.41471255    0.1661112   -1.2743358   0.85962326  1070540 
 1720000     1.199779   -1.2748437   -1.2748437   -0.4150546   0.16639063   -1.2748437   0.85978913  1070540 
 1721000    1.1990223   -1.2745742   -1.2745742   -0.4153273   0.15732358   -1.2745742   0.85924687  1070540 
 1722000    1.1976044   -1.2741886   -1.2741886  -0.41595786   0.16226643   -1.2741886   0.85823073  1070540 
 1723000    1.1975994   -1.2749249   -1.2749249  -0.41669771   0.17552987   -1.2749249    0.8582272  1070540 
 1724000    1.1982673   -1.2755938   -1.2755938  -0.41688797   0.16125949   -1.2755938   0.85870579  1070540 
 1725000    1.2004415   -1.2769345   -1.2769345  -0.41667056   0.16877825   -1.2769345   0.86026392  1070540 
 1726000    1.1994833   -1.2755173   -1.2755173  -0.41594007   0.16005623   -1.2755173   0.85957719  1070540 
 1727000    1.2012814   -1.2759235   -1.2759235   -0.4150577    0.1628833   -1.2759235   0.86086575  1070540 
 1728000     1.200946   -1.2751096   -1.2751096   -0.4144842   0.16916903   -1.2751096   0.86062545  1070540 
 1729000    1.2002761    -1.274009    -1.274009  -0.41386368   0.17127749    -1.274009   0.86014537  1070540 
 1730000    1.1992474   -1.2729401   -1.2729401  -0.41353201   0.15673665   -1.2729401   0.85940814  1070540 
 1731000      1.20173   -1.2745025   -1.2745025  -0.41331525   0.16824781   -1.2745025   0.86118728  1070540 
 1732000    1.2001302   -1.2739254   -1.2739254  -0.41388458    0.1668313   -1.2739254   0.86004082  1070540 
 1733000    1.1990053   -1.2742584   -1.2742584  -0.41502377   0.16537303   -1.2742584   0.85923465  1070540 
 1734000    1.1999756   -1.2761313   -1.2761313  -0.41620132   0.16351316   -1.2761313   0.85992999  1070540 
 1735000     1.197913    -1.275022    -1.275022   -0.4165701   0.16282949    -1.275022   0.85845192  1070540 
 1736000    1.1973065   -1.2743948   -1.2743948  -0.41637755   0.16230515   -1.2743948   0.85801728  1070540 
 1737000     1.199562   -1.2752213   -1.2752213  -0.41558771   0.16952363   -1.2752213   0.85963362  1070540 
 1738000    1.1993475   -1.2741829   -1.2741829  -0.41470305   0.16145715   -1.2741829   0.85947989  1070540 
 1739000    1.1991051   -1.2731146   -1.2731146  -0.41380842   0.16629928   -1.2731146   0.85930617  1070540 
 1740000    1.2011655    -1.274091    -1.274091  -0.41330822   0.15774406    -1.274091   0.86078276  1070540 
 1741000    1.2009494   -1.2740256   -1.2740256  -0.41339771   0.16218422   -1.2740256   0.86062785  1070540 
 1742000    1.1991799    -1.273076    -1.273076  -0.41371618   0.16773933    -1.273076   0.85935984  1070540 
 1743000     1.202353   -1.2755159   -1.2755159  -0.41388221   0.16294683   -1.2755159   0.86163372  1070540 
 1744000    1.1987911   -1.2732263   -1.2732263  -0.41414507   0.16386631   -1.2732263    0.8590812  1070540 
 1745000    1.1992636   -1.2738235   -1.2738235  -0.41440371   0.16370608   -1.2738235   0.85941982  1070540 
 1746000    1.1994961   -1.2741162   -1.2741162  -0.41452976   0.16682709   -1.2741162   0.85958643  1070540 
 1747000    1.2008113   -1.2751451   -1.2751451  -0.41461618   0.15656032   -1.2751451   0.86052888  1070540 
 1748000    1.1996534   -1.2749429   -1.2749429  -0.41524378   0.16986548   -1.2749429   0.85969913  1070540 
 1749000    1.1988755   -1.2755505   -1.2755505  -0.41640889   0.16302204   -1.2755505   0.85914164  1070540 
 1750000    1.1970937   -1.2754462   -1.2754462  -0.41758143   0.16347527   -1.2754462   0.85786478  1070540 
 1751000    1.1983991   -1.2765639   -1.2765639  -0.41776364   0.17132978   -1.2765639   0.85880024  1070540 
 1752000    1.1973212   -1.2750688   -1.2750688  -0.41704092   0.16179129   -1.2750688   0.85802784  1070540 
 1753000    1.1982883   -1.2747438   -1.2747438  -0.41602295   0.17514204   -1.2747438   0.85872089  1070540 
 1754000    1.2001909   -1.2750584   -1.2750584  -0.41497411    0.1620595   -1.2750584   0.86008427  1070540 
 1755000    1.2015244   -1.2756054   -1.2756054  -0.41456553   0.15718713   -1.2756054    0.8610399  1070540 
 1756000    1.2002198   -1.2743992   -1.2743992  -0.41429414   0.15385868   -1.2743992   0.86010504  1070540 
 1757000    1.1992834   -1.2735378   -1.2735378  -0.41410381   0.16567772   -1.2735378   0.85943395  1070540 
 1758000    1.2014032   -1.2748821   -1.2748821  -0.41392901   0.16349505   -1.2748821   0.86095307  1070540 
 1759000    1.1987918   -1.2734106   -1.2734106  -0.41432887   0.16794655   -1.2734106    0.8590817  1070540 
 1760000    1.2004678   -1.2755934   -1.2755934   -0.4153106   0.16269576   -1.2755934   0.86028277  1070540 
 1761000    1.1980179   -1.2749588   -1.2749588  -0.41643173    0.1628077   -1.2749588   0.85852707  1070540 
 1762000    1.1973114   -1.2748588   -1.2748588    -0.416838   0.15912001   -1.2748588   0.85802081  1070540 
 1763000    1.1975215   -1.2746461   -1.2746461  -0.41647474   0.16536168   -1.2746461   0.85817137  1070540 
 1764000    1.1994666   -1.2745152   -1.2745152  -0.41494993   0.17209616   -1.2745152   0.85956527  1070540 
 1765000     1.199678   -1.2733926   -1.2733926  -0.41367582   0.17230433   -1.2733926   0.85971676  1070540 
 1766000    1.2008819   -1.2738441   -1.2738441  -0.41326459   0.16826827   -1.2738441   0.86057949  1070540 
 1767000     1.202053   -1.2748337   -1.2748337  -0.41341502   0.16459282   -1.2748337   0.86141872  1070540 
 1768000    1.2001377   -1.2740552   -1.2740552  -0.41400907   0.16264608   -1.2740552   0.86004618  1070540 
 1769000    1.2010404   -1.2754912   -1.2754912  -0.41479815   0.16433574   -1.2754912   0.86069307  1070540 
 1770000    1.2002209   -1.2756979   -1.2756979  -0.41559216   0.16653336   -1.2756979   0.86010578  1070540 
 1771000    1.1998029   -1.2761699   -1.2761699  -0.41636362   0.16484415   -1.2761699   0.85980625  1070540 
 1772000    1.1995873   -1.2764229   -1.2764229  -0.41677116   0.17398627   -1.2764229   0.85965178  1070540 
 1773000    1.2003122   -1.2770384   -1.2770384  -0.41686716   0.17117515   -1.2770384    0.8601712  1070540 
 1774000    1.2001567   -1.2765501   -1.2765501  -0.41649027   0.16617808   -1.2765501    0.8600598  1070540 
 1775000     1.200848   -1.2759633   -1.2759633  -0.41540815   0.15679114   -1.2759633   0.86055517  1070540 
 1776000    1.2002607   -1.2739666   -1.2739666  -0.41383233   0.16747463   -1.2739666    0.8601343  1070540 
 1777000    1.2013269   -1.2741357   -1.2741357  -0.41323728   0.16800396   -1.2741357   0.86089842  1070540 
 1778000    1.2011255   -1.2741723   -1.2741723   -0.4134182     0.166911   -1.2741723   0.86075409  1070540 
 1779000    1.2002452   -1.2739652   -1.2739652  -0.41384204   0.15929885   -1.2739652    0.8601232  1070540 
 1780000    1.2015258   -1.2747683   -1.2747683  -0.41372735   0.16950046   -1.2747683   0.86104094  1070540 
 1781000    1.1993128   -1.2737902   -1.2737902  -0.41433513   0.16401317   -1.2737902   0.85945504  1070540 
 1782000    1.2004113    -1.275194    -1.275194  -0.41495176   0.16186882    -1.275194   0.86024222  1070540 
 1783000     1.198957   -1.2749582   -1.2749582  -0.41575807   0.16838685   -1.2749582   0.85920009  1070540 
 1784000    1.1984125   -1.2754032   -1.2754032   -0.4165933   0.16706309   -1.2754032   0.85880988  1070540 
 1785000    1.1972012   -1.2750941   -1.2750941  -0.41715227   0.16539597   -1.2750941   0.85794183  1070540 
 1786000    1.1974416   -1.2750478   -1.2750478  -0.41693365   0.16594245   -1.2750478   0.85811412  1070540 
 1787000    1.2008428   -1.2759185   -1.2759185  -0.41536699   0.16389827   -1.2759185   0.86055148  1070540 
 1788000     1.201191   -1.2744448   -1.2744448  -0.41364377   0.16809777   -1.2744448   0.86080099  1070540 
 1789000    1.2016151   -1.2743732   -1.2743732  -0.41326832   0.16785697   -1.2743732   0.86110492  1070540 
 1790000     1.201636    -1.274688    -1.274688  -0.41356816   0.15999912    -1.274688   0.86111986  1070540 
 1791000    1.1987507   -1.2733501   -1.2733501  -0.41429783   0.15832391   -1.2733501   0.85905222  1070540 
 1792000    1.2007489   -1.2755077   -1.2755077   -0.4150235   0.16521105   -1.2755077   0.86048415  1070540 
 1793000    1.1992958   -1.2750535   -1.2750535  -0.41561066    0.1644634   -1.2750535   0.85944287  1070540 
 1794000    1.1991258   -1.2751007   -1.2751007   -0.4157797   0.16190105   -1.2751007   0.85932104  1070540 
 1795000    1.1998333   -1.2755078   -1.2755078  -0.41567975   0.16174899   -1.2755078   0.85982805  1070540 
 1796000    1.1981119   -1.2737918   -1.2737918  -0.41519729   0.16748778   -1.2737918   0.85859446  1070540 
 1797000     1.201271   -1.2750251   -1.2750251  -0.41416679   0.16379036   -1.2750251   0.86085831  1070540 
 1798000    1.2003561   -1.2730088   -1.2730088  -0.41280606   0.16185859   -1.2730088    0.8602027  1070540 
 1799000    1.2020393   -1.2732557   -1.2732557  -0.41184682   0.17320022   -1.2732557   0.86140889  1070540 
 1800000    1.2019469   -1.2735017   -1.2735017    -0.412159   0.16314302   -1.2735017   0.86134266  1070540 
 1801000    1.2003146   -1.2732051   -1.2732051  -0.41303219   0.17372042   -1.2732051   0.86017294  1070540 
 1802000     1.199776    -1.273685    -1.273685  -0.41389806   0.16996765    -1.273685   0.85978696  1070540 
 1803000    1.2009891   -1.2751655   -1.2751655  -0.41450918   0.16698323   -1.2751655   0.86065629  1070540 
 1804000    1.2009672   -1.2757439   -1.2757439  -0.41510323   0.17033382   -1.2757439   0.86064065  1070540 
 1805000    1.1986751   -1.2747126   -1.2747126  -0.41571458   0.15289301   -1.2747126   0.85899806  1070540 
 1806000     1.199217   -1.2754841   -1.2754841  -0.41609767   0.17147811   -1.2754841    0.8593864  1070540 
 1807000    1.1976791   -1.2744927   -1.2744927  -0.41620842   0.16310729   -1.2744927   0.85828426  1070540 
 1808000    1.2003682   -1.2759183   -1.2759183  -0.41570688   0.16216306   -1.2759183   0.86021139  1070540 
 1809000    1.2004344   -1.2752797   -1.2752797   -0.4150209   0.16327658   -1.2752797   0.86025881  1070540 
 1810000    1.2024596   -1.2757761   -1.2757761  -0.41406593   0.17249755   -1.2757761   0.86171013  1070540 
 1811000    1.2000699   -1.2733857   -1.2733857   -0.4133881   0.16112677   -1.2733857   0.85999763  1070540 
 1812000    1.2002401   -1.2730021   -1.2730021  -0.41288256   0.15909505   -1.2730021   0.86011957  1070540 
 1813000    1.2013718   -1.2737993   -1.2737993  -0.41286873   0.15756229   -1.2737993   0.86093058  1070540 
 1814000    1.2008036   -1.2741591   -1.2741591  -0.41363574   0.16276087   -1.2741591   0.86052337  1070540 
 1815000    1.1987227   -1.2743017   -1.2743017  -0.41526957   0.16714239   -1.2743017   0.85903214  1070540 
 1816000     1.198961   -1.2752679   -1.2752679  -0.41606494   0.16050058   -1.2752679   0.85920294  1070540 
 1817000    1.2000281   -1.2762854   -1.2762854  -0.41631772   0.16730028   -1.2762854   0.85996766  1070540 
 1818000    1.1993435   -1.2755658   -1.2755658  -0.41608873   0.17000736   -1.2755658   0.85947705  1070540 
 1819000    1.2001884   -1.2753774   -1.2753774  -0.41529488   0.16170626   -1.2753774   0.86008251  1070540 
 1820000    1.1990196   -1.2735843   -1.2735843  -0.41433938   0.17336231   -1.2735843   0.85924493  1070540 
 1821000    1.2004497   -1.2739209   -1.2739209  -0.41365109   0.18150216   -1.2739209   0.86026979  1070540 
 1822000     1.200509   -1.2737277   -1.2737277  -0.41341549   0.16355438   -1.2737277   0.86031226  1070540 
 1823000    1.2014613   -1.2745239   -1.2745239  -0.41352922   0.16588605   -1.2745239   0.86099468  1070540 
 1824000    1.2004955   -1.2746152   -1.2746152  -0.41431253   0.16370883   -1.2746152   0.86030262  1070540 
 1825000    1.1989953   -1.2746874   -1.2746874  -0.41545985   0.16381654   -1.2746874   0.85922751  1070540 
 1826000    1.1980379   -1.2750243   -1.2750243  -0.41648285    0.1640131   -1.2750243   0.85854143  1070540 
 1827000    1.1976988    -1.275086    -1.275086   -0.4167876   0.16496311    -1.275086   0.85829839  1070540 
 1828000    1.1986162   -1.2755104   -1.2755104  -0.41655452   0.16570374   -1.2755104   0.85895587  1070540 
 1829000    1.1983752   -1.2747296   -1.2747296  -0.41594644   0.15702088   -1.2747296   0.85878312  1070540 
 1830000    1.1992224   -1.2746401   -1.2746401  -0.41524988   0.17633249   -1.2746401   0.85939025  1070540 
 1831000    1.2000509   -1.2745508   -1.2745508  -0.41456682   0.16779701   -1.2745508   0.85998396  1070540 
 1832000    1.2008385    -1.274654    -1.274654  -0.41410563   0.17138071    -1.274654   0.86054842  1070540 
 1833000    1.2005811   -1.2742801   -1.2742801  -0.41391615   0.17064019   -1.2742801    0.8603639  1070540 
 1834000    1.2013603   -1.2752254   -1.2752254  -0.41430312    0.1667448   -1.2752254   0.86092232  1070540 
 1835000    1.1996448   -1.2745215   -1.2745215  -0.41482853   0.15380716   -1.2745215   0.85969295  1070540 
 1836000     1.197622   -1.2740341   -1.2740341   -0.4157907   0.16197116   -1.2740341   0.85824338  1070540 
 1837000    1.1976066   -1.2745213   -1.2745213  -0.41628897   0.15712496   -1.2745213   0.85823235  1070540 
 1838000     1.199429   -1.2757201   -1.2757201  -0.41618183   0.16348804   -1.2757201   0.85953829  1070540 
 1839000    1.2001993    -1.275891    -1.275891  -0.41580067    0.1612442    -1.275891   0.86009032  1070540 
 1840000    1.2009818   -1.2752107   -1.2752107  -0.41455961   0.16084007   -1.2752107   0.86065112  1070540 
 1841000    1.2027774   -1.2752734   -1.2752734  -0.41333559   0.16466885   -1.2752734   0.86193786  1070540 
 1842000    1.2025446   -1.2747267   -1.2747267  -0.41295568   0.16789663   -1.2747267   0.86177105  1070540 
 1843000    1.2009291   -1.2741021   -1.2741021  -0.41348878    0.1697184   -1.2741021   0.86061333  1070540 
 1844000    1.2015039   -1.2753435   -1.2753435  -0.41431826   0.16183451   -1.2753435   0.86102527  1070540 
 1845000    1.2002181   -1.2754738   -1.2754738  -0.41537002   0.16565899   -1.2754738   0.86010378  1070540 
 1846000    1.2004524    -1.276299    -1.276299  -0.41602725   0.15977912    -1.276299   0.86027172  1070540 
 1847000    1.1992377   -1.2755984   -1.2755984  -0.41619714    0.1558218   -1.2755984   0.85940126  1070540 
 1848000    1.2001896   -1.2758942   -1.2758942  -0.41581085   0.16841972   -1.2758942   0.86008337  1070540 
 1849000    1.1987108   -1.2746655   -1.2746655  -0.41564193   0.16739028   -1.2746655    0.8590236  1070540 
 1850000    1.1999759   -1.2751753   -1.2751753  -0.41524507   0.16493603   -1.2751753   0.85993026  1070540 
 1851000    1.2000551    -1.274637    -1.274637  -0.41465003   0.15792478    -1.274637   0.85998699  1070540 
 1852000    1.2014102   -1.2748259   -1.2748259   -0.4138678   0.16459497   -1.2748259   0.86095807  1070540 
 1853000     1.200288   -1.2730283   -1.2730283  -0.41287437   0.16820895   -1.2730283    0.8601539  1070540 
 1854000    1.2029222   -1.2741727   -1.2741727  -0.41213107   0.17685939   -1.2741727   0.86204164  1070540 
 1855000    1.2030659    -1.274145    -1.274145  -0.41200038   0.15658328    -1.274145    0.8621446  1070540 
 1856000    1.1998578   -1.2730024   -1.2730024  -0.41315677   0.16726717   -1.2730024   0.85984562  1070540 
 1857000    1.2013466   -1.2760438   -1.2760438  -0.41513135   0.16327757   -1.2760438   0.86091248  1070540 
 1858000    1.1979053   -1.2742714   -1.2742714  -0.41582501   0.16485499   -1.2742714   0.85844643  1070540 
 1859000     1.198231   -1.2745348   -1.2745348  -0.41585502    0.1596936   -1.2745348   0.85867982  1070540 
 1860000    1.2004167   -1.2757984   -1.2757984  -0.41555232   0.16516113   -1.2757984    0.8602461  1070540 
 1861000     1.199175   -1.2745563   -1.2745563  -0.41520002   0.17152706   -1.2745563   0.85935627  1070540 
 1862000    1.2003706   -1.2753003   -1.2753003  -0.41508722   0.16447896   -1.2753003    0.8602131  1070540 
 1863000    1.1998809   -1.2746798   -1.2746798  -0.41481772   0.16145478   -1.2746798   0.85986213  1070540 
 1864000    1.2002765   -1.2750213   -1.2750213  -0.41487573   0.15773449   -1.2750213   0.86014562  1070540 
 1865000    1.1995034   -1.2744549   -1.2744549  -0.41486332   0.15277632   -1.2744549   0.85959159  1070540 
 1866000    1.2001968   -1.2751178   -1.2751178  -0.41502922   0.16715243   -1.2751178   0.86008855  1070540 
 1867000    1.1997538   -1.2751213   -1.2751213  -0.41535027   0.16657034   -1.2751213   0.85977105  1070540 
 1868000    1.1988346   -1.2749243   -1.2749243  -0.41581192   0.16247211   -1.2749243   0.85911237  1070540 
 1869000    1.1994083   -1.2753232   -1.2753232  -0.41579975   0.17300605   -1.2753232   0.85952347  1070540 
 1870000     1.199032   -1.2750548   -1.2750548  -0.41580102   0.16444904   -1.2750548    0.8592538  1070540 
 1871000     1.199123   -1.2745154   -1.2745154  -0.41519641   0.16595517   -1.2745154   0.85931903  1070540 
 1872000    1.2012597   -1.2749413   -1.2749413  -0.41409106   0.17784645   -1.2749413   0.86085025  1070540 
 1873000    1.2014301   -1.2743942   -1.2743942   -0.4134219   0.16578189   -1.2743942   0.86097235  1070540 
 1874000    1.2021261    -1.274506    -1.274506  -0.41303489   0.16400122    -1.274506   0.86147115  1070540 
 1875000    1.2019886   -1.2750035   -1.2750035  -0.41363095      0.16539   -1.2750035   0.86137258  1070540 
 1876000    1.1998564   -1.2747526   -1.2747526  -0.41490807   0.17281125   -1.2747526   0.85984458  1070540 
 1877000    1.1991791    -1.275265    -1.275265  -0.41590576   0.16218665    -1.275265    0.8593592  1070540 
 1878000    1.1984068   -1.2748431   -1.2748431  -0.41603732   0.16813727   -1.2748431   0.85880575  1070540 
 1879000    1.1992639   -1.2754007   -1.2754007  -0.41598069   0.16284939   -1.2754007   0.85942001  1070540 
 1880000     1.198431   -1.2748025   -1.2748025   -0.4159794   0.15545046   -1.2748025   0.85882311  1070540 
 1881000    1.1997409   -1.2751999   -1.2751999  -0.41543809    0.1622192   -1.2751999   0.85976185  1070540 
 1882000    1.2000868   -1.2747509   -1.2747509  -0.41474114   0.16537875   -1.2747509   0.86000972  1070540 
 1883000    1.1999298    -1.273846    -1.273846  -0.41394875   0.16214877    -1.273846   0.85989723  1070540 
 1884000    1.2017859   -1.2744648   -1.2744648  -0.41323743   0.16205189   -1.2744648   0.86122735  1070540 
 1885000     1.201949   -1.2742415   -1.2742415  -0.41289732   0.16577169   -1.2742415   0.86134419  1070540 
 1886000    1.2000994   -1.2738189   -1.2738189  -0.41380012   0.16386743   -1.2738189   0.86001874  1070540 
 1887000    1.2000341   -1.2754035   -1.2754035  -0.41543158   0.17006115   -1.2754035   0.85997193  1070540 
 1888000    1.1981963   -1.2750564   -1.2750564  -0.41640151   0.16176247   -1.2750564    0.8586549  1070540 
 1889000     1.197296   -1.2744088   -1.2744088    -0.416399    0.1604299   -1.2744088   0.85800978  1070540 
 1890000    1.1978322   -1.2741149   -1.2741149  -0.41572091   0.16126376   -1.2741149   0.85839403  1070540 
 1891000    1.1992424   -1.2744503   -1.2744503  -0.41504574   0.16191818   -1.2744503   0.85940457  1070540 
 1892000    1.2001605   -1.2744556   -1.2744556  -0.41439311   0.16086752   -1.2744556   0.86006252  1070540 
 1893000    1.2008298   -1.2743039   -1.2743039  -0.41376171   0.16065243   -1.2743039   0.86054219  1070540 
 1894000    1.2016005   -1.2747105   -1.2747105  -0.41361609     0.167055   -1.2747105   0.86109442  1070540 
 1895000    1.2006525   -1.2742711   -1.2742711    -0.413856   0.16312235   -1.2742711   0.86041509  1070540 
 1896000    1.1995941    -1.273882    -1.273882  -0.41422536   0.17091023    -1.273882   0.85965665  1070540 
 1897000    1.1992915   -1.2740248   -1.2740248  -0.41458504   0.16295107   -1.2740248   0.85943978  1070540 
 1898000    1.1998431   -1.2747142   -1.2747142  -0.41487918   0.16426295   -1.2747142   0.85983505  1070540 
 1899000    1.2015623   -1.2760021   -1.2760021  -0.41493509   0.16694824   -1.2760021   0.86106705  1070540 
 1900000    1.1998991   -1.2750909   -1.2750909  -0.41521572   0.16056312   -1.2750909   0.85987523  1070540 
 1901000     1.199277   -1.2747985   -1.2747985  -0.41536915   0.17420259   -1.2747985    0.8594294  1070540 
 1902000    1.1994267   -1.2751391   -1.2751391  -0.41560251   0.16405154   -1.2751391   0.85953664  1070540 
 1903000    1.1993373   -1.2751784   -1.2751784   -0.4157058   0.15814265   -1.2751784   0.85947258  1070540 
 1904000    1.1992472   -1.2752225   -1.2752225  -0.41581452   0.16422839   -1.2752225   0.85940802  1070540 
 1905000    1.1993307   -1.2754504   -1.2754504  -0.41598255    0.1594667   -1.2754504   0.85946788  1070540 
 1906000    1.2010735   -1.2765056   -1.2765056  -0.41578877   0.16995468   -1.2765056   0.86071679  1070540 
 1907000    1.1987311   -1.2746228   -1.2746228  -0.41558455    0.1696853   -1.2746228    0.8590382  1070540 
 1908000    1.2010465    -1.276177    -1.276177   -0.4154795   0.17791106    -1.276177   0.86069748  1070540 
 1909000    1.1995865   -1.2752898   -1.2752898  -0.41563864   0.16304236   -1.2752898   0.85965119  1070540 
 1910000    1.1993024   -1.2756131   -1.2756131  -0.41616554   0.16549109   -1.2756131   0.85944755  1070540 
 1911000    1.1998019   -1.2765921   -1.2765921  -0.41678653   0.16398313   -1.2765921   0.85980555  1070540 
 1912000    1.2000421   -1.2773459   -1.2773459  -0.41736816   0.16134128   -1.2773459    0.8599777  1070540 
 1913000    1.2002584   -1.2780498   -1.2780498  -0.41791714   0.16489957   -1.2780498   0.86013266  1070540 
 1914000    1.1978931   -1.2768536   -1.2768536  -0.41841593   0.15915218   -1.2768536   0.85843768  1070540 
 1915000     1.196909   -1.2760641   -1.2760641  -0.41833168   0.16808028   -1.2760641    0.8577324  1070540 
 1916000    1.1993695   -1.2766862   -1.2766862  -0.41719052    0.1666736   -1.2766862   0.85949566  1070540 
 1917000    1.1993675   -1.2750974   -1.2750974   -0.4156032   0.16661423   -1.2750974   0.85949421  1070540 
 1918000    1.2007138   -1.2754374   -1.2754374  -0.41497835    0.1624404   -1.2754374   0.86045906  1070540 
 1919000    1.2011213    -1.275637    -1.275637  -0.41488593   0.16305962    -1.275637   0.86075109  1070540 
 1920000    1.1999255   -1.2750061   -1.2750061  -0.41511191   0.16336566   -1.2750061   0.85989415  1070540 
 1921000    1.2002634   -1.2755531   -1.2755531  -0.41541681   0.16649625   -1.2755531   0.86013629  1070540 
 1922000     1.199676   -1.2754259   -1.2754259  -0.41571063   0.16416089   -1.2754259   0.85971531  1070540 
 1923000    1.1990731    -1.275424    -1.275424  -0.41614072   0.17267795    -1.275424   0.85928328  1070540 
 1924000    1.1998316   -1.2763422   -1.2763422  -0.41651533   0.15696995   -1.2763422   0.85982684  1070540 
 1925000    1.1975446   -1.2748653   -1.2748653  -0.41667742   0.16384349   -1.2748653    0.8581879  1070540 
 1926000    1.2000157   -1.2760728   -1.2760728    -0.416114   0.17257547   -1.2760728   0.85995878  1070540 
 1927000    1.1991393   -1.2745232   -1.2745232  -0.41519252   0.16754633   -1.2745232   0.85933068  1070540 
 1928000    1.2014623   -1.2753244   -1.2753244  -0.41432894   0.16684619   -1.2753244   0.86099544  1070540 
 1929000    1.2025827   -1.2758504   -1.2758504  -0.41405201    0.1687123   -1.2758504   0.86179836  1070540 
 1930000    1.1996196   -1.2743233   -1.2743233  -0.41464848   0.17049178   -1.2743233   0.85967487  1070540 
 1931000     1.199499   -1.2749766   -1.2749766  -0.41538806   0.15860327   -1.2749766    0.8595885  1070540 
 1932000    1.2007792   -1.2765049   -1.2765049    -0.415999   0.16098633   -1.2765049   0.86050588  1070540 
 1933000     1.200241   -1.2767512   -1.2767512  -0.41663098   0.16334734   -1.2767512   0.86012024  1070540 
 1934000    1.1980489    -1.275772    -1.275772  -0.41722269   0.16511617    -1.275772   0.85854928  1070540 
 1935000    1.1983278   -1.2766134   -1.2766134  -0.41786425   0.16183614   -1.2766134   0.85874917  1070540 
 1936000    1.1973315   -1.2763209   -1.2763209  -0.41828569   0.15931426   -1.2763209   0.85803522  1070540 
 1937000    1.1965834   -1.2759294   -1.2759294  -0.41843033   0.16934514   -1.2759294   0.85749909  1070540 
 1938000    1.1985514   -1.2767187   -1.2767187  -0.41780934    0.1648386   -1.2767187   0.85890941  1070540 
 1939000    1.1996681   -1.2763275   -1.2763275  -0.41661786   0.16598577   -1.2763275   0.85970967  1070540 
 1940000    1.2019364   -1.2770605   -1.2770605  -0.41572527   0.17070181   -1.2770605   0.86133519  1070540 
 1941000    1.2014593   -1.2762047   -1.2762047  -0.41521141   0.17753733   -1.2762047   0.86099324  1070540 
 1942000    1.2005942   -1.2755655   -1.2755655  -0.41519217   0.16122859   -1.2755655   0.86037331  1070540 
 1943000    1.2005069   -1.2759376   -1.2759376  -0.41562683    0.1608967   -1.2759376   0.86031077  1070540 
 1944000    1.2007195   -1.2763984   -1.2763984  -0.41593532   0.16703963   -1.2763984   0.86046313  1070540 
 1945000    1.2000947   -1.2765756   -1.2765756  -0.41656025   0.16081155   -1.2765756   0.86001537  1070540 
 1946000    1.1990018   -1.2764601   -1.2764601  -0.41722792    0.1649015   -1.2764601   0.85923215  1070540 
 1947000    1.1985549   -1.2765747   -1.2765747   -0.4176628   0.16510814   -1.2765747   0.85891194  1070540 
 1948000    1.1990437   -1.2766594   -1.2766594  -0.41739719   0.16485332   -1.2766594   0.85926223  1070540 
 1949000    1.1992703   -1.2761048   -1.2761048  -0.41668027   0.16169229   -1.2761048   0.85942455  1070540 
 1950000    1.2010408   -1.2758834   -1.2758834  -0.41519008   0.16379595   -1.2758834   0.86069335  1070540 
 1951000    1.2021555   -1.2758831   -1.2758831  -0.41439098   0.16901096   -1.2758831   0.86149216  1070540 
 1952000    1.2001513   -1.2742026   -1.2742026  -0.41414663   0.16570598   -1.2742026   0.86005593  1070540 
 1953000    1.2005313   -1.2748517   -1.2748517  -0.41452339   0.16582957   -1.2748517   0.86032826  1070540 
 1954000     1.201373   -1.2760142   -1.2760142  -0.41508279   0.16676314   -1.2760142   0.86093142  1070540 
 1955000    1.1999068   -1.2760057   -1.2760057  -0.41612499   0.16371644   -1.2760057   0.85988072  1070540 
 1956000    1.1981384   -1.2753779   -1.2753779   -0.4167644   0.16621853   -1.2753779   0.85861347  1070540 
 1957000    1.1988284   -1.2760273   -1.2760273  -0.41691935   0.16473344   -1.2760273   0.85910791  1070540 
 1958000    1.1997369   -1.2766078   -1.2766078  -0.41684884   0.16376791   -1.2766078   0.85975893  1070540 
 1959000    1.2002602   -1.2766693   -1.2766693  -0.41653532   0.15810168   -1.2766693   0.86013397  1070540 
 1960000    1.1997837   -1.2760839   -1.2760839  -0.41629139   0.16107306   -1.2760839   0.85979248  1070540 
 1961000    1.1997921   -1.2757102   -1.2757102  -0.41591173   0.16543796   -1.2757102   0.85979849  1070540 
 1962000     1.199675   -1.2753367   -1.2753367  -0.41562207   0.16831704   -1.2753367   0.85971458  1070540 
 1963000    1.2003409   -1.2752737   -1.2752737   -0.4150819   0.17069443   -1.2752737   0.86019182  1070540 
 1964000    1.2005946   -1.2750207   -1.2750207  -0.41464706   0.15975089   -1.2750207   0.86037362  1070540 
 1965000    1.2012106    -1.274623    -1.274623  -0.41380798   0.16691198    -1.274623   0.86081503  1070540 
 1966000    1.2024819   -1.2752571   -1.2752571  -0.41353105   0.16091119   -1.2752571   0.86172608  1070540 
 1967000    1.2024944   -1.2760835   -1.2760835  -0.41434853    0.1723241   -1.2760835   0.86173501  1070540 
 1968000    1.1981657   -1.2748098   -1.2748098  -0.41617687   0.16511033   -1.2748098   0.85863297  1070540 
 1969000    1.1991485   -1.2761946   -1.2761946  -0.41685725   0.17032217   -1.2761946   0.85933732  1070540 
 1970000    1.1992103   -1.2765093   -1.2765093  -0.41712769   0.16371944   -1.2765093   0.85938159  1070540 
 1971000    1.1995276   -1.2763272   -1.2763272  -0.41671822   0.16726866   -1.2763272   0.85960898  1070540 
 1972000    1.2007899   -1.2767981   -1.2767981  -0.41628453   0.16392028   -1.2767981   0.86051356  1070540 
 1973000    1.2000135   -1.2753562   -1.2753562  -0.41539902   0.16445812   -1.2753562   0.85995719  1070540 
 1974000    1.2011265   -1.2750693   -1.2750693  -0.41431454   0.16821521   -1.2750693   0.86075477  1070540 
 1975000    1.2009625   -1.2743516   -1.2743516  -0.41371437   0.16021255   -1.2743516   0.86063724  1070540 
 1976000    1.2006346     -1.27399     -1.27399  -0.41358774   0.17250321     -1.27399   0.86040228  1070540 
 1977000    1.2018827   -1.2753214   -1.2753214  -0.41402469   0.16131209   -1.2753214   0.86129666  1070540 
 1978000    1.2000328    -1.274609    -1.274609  -0.41463804   0.16530985    -1.274609   0.85997098  1070540 
 1979000    1.1993091    -1.274337    -1.274337  -0.41488455   0.17143833    -1.274337   0.85945242  1070540 
 1980000    1.1988414   -1.2741271   -1.2741271  -0.41500986   0.17019516   -1.2741271   0.85911723  1070540 
 1981000    1.2003753   -1.2754152   -1.2754152  -0.41519874    0.1598292   -1.2754152   0.86021649  1070540 
 1982000    1.2002294    -1.275538    -1.275538  -0.41542612   0.15680125    -1.275538   0.86011188  1070540 
 1983000    1.2008615   -1.2762128   -1.2762128  -0.41564796   0.16541867   -1.2762128   0.86056485  1070540 
 1984000    1.1990046    -1.275243    -1.275243  -0.41600884   0.16072971    -1.275243    0.8592342  1070540 
 1985000    1.2006601   -1.2763965   -1.2763965  -0.41597593   0.16436168   -1.2763965   0.86042054  1070540 
 1986000    1.2007302   -1.2762902   -1.2762902  -0.41581941   0.16348345   -1.2762902   0.86047077  1070540 
 1987000    1.2013653   -1.2760375   -1.2760375  -0.41511157   0.16370843   -1.2760375   0.86092591  1070540 
 1988000    1.2036448    -1.276784    -1.276784  -0.41422463   0.15843284    -1.276784   0.86255942  1070540 
 1989000      1.20229   -1.2751974   -1.2751974  -0.41360883   0.16351154   -1.2751974   0.86158856  1070540 
 1990000    1.2015328   -1.2746174   -1.2746174   -0.4135714   0.16432487   -1.2746174   0.86104595  1070540 
 1991000    1.2002115     -1.27441     -1.27441  -0.41431096   0.16595042     -1.27441   0.86009905  1070540 
 1992000    1.1999526   -1.2753675   -1.2753675  -0.41545399   0.16001742   -1.2753675    0.8599135  1070540 
 1993000    1.2009301   -1.2767395   -1.2767395  -0.41612544   0.16696835   -1.2767395   0.86061402  1070540 
 1994000    1.1998383   -1.2767274   -1.2767274  -0.41689581   0.16345494   -1.2767274   0.85983161  1070540 
 1995000     1.199372     -1.27673     -1.27673   -0.4172325     0.162968     -1.27673    0.8594975  1070540 
 1996000    1.1983022     -1.27589     -1.27589  -0.41715922   0.17475666     -1.27589   0.85873079  1070540 
 1997000    1.1987008   -1.2757775   -1.2757775  -0.41676104   0.16397207   -1.2757775   0.85901644  1070540 
 1998000    1.2010498    -1.276904    -1.276904  -0.41620418   0.16754645    -1.276904   0.86069981  1070540 
 1999000    1.1993473    -1.275089    -1.275089  -0.41560922   0.17632356    -1.275089   0.85947974  1070540 
 2000000    1.1999871   -1.2754087   -1.2754087  -0.41547038   0.16873782   -1.2754087   0.85993829  1070540 
Loop time of 6712.74 on 240 procs for 2000000 steps with 1070540 atoms

Performance: 128710.536 tau/day, 297.941 timesteps/s
95.5% CPU use with 240 MPI tasks x 1 OpenMP threads

MPI task timing breakdown:
Section |  min time  |  avg time  |  max time  |%varavg|  %CPU | %total
-----------------------------------------------------------------------
Pair    | 981.38     | 1144.7     | 1431.4     | 232.4 |  96.9 | 17.05
Bond    | 1.3421     | 1.4822     | 1.6467     |   4.9 | 100.0 |  0.02
Neigh   | 1101.3     | 1642.7     | 2147.4     | 621.6 |  99.4 | 24.47
Comm    | 2125.7     | 2708.9     | 3562.6     | 515.4 |  93.7 | 40.35
Output  | 74.142     | 74.32      | 74.331     |   0.1 |  89.4 |  1.11
Modify  | 806.42     | 1062.7     | 1460.9     | 378.7 |  94.0 | 15.83
Other   |            | 77.94      |            |       |       |  1.16

Nlocal:        4460.58 ave        6564 max        2850 min
Histogram: 11 13 23 49 60 46 30 6 0 2
Nghost:        9097.73 ave       12793 max        3223 min
Histogram: 13 7 2 9 20 30 68 50 34 7
Neighs:        51975.9 ave       68917 max       41465 min
Histogram: 6 30 51 62 37 23 14 8 6 3

Total # of neighbors = 12474212
Ave neighs/atom = 11.652261
Ave special neighs/atom = 0.0000000
Neighbor list builds = 200000
Dangerous builds = 198000

#real run at target temp with nve+langevin
unfix 	       2
fix 	       2 solvent nve

## Thermostat
region          regthermo block EDGE EDGE EDGE EDGE 0 10
group           thermo dynamic solvent region regthermo every 1000
dynamic group thermo defined
fix             3 thermo langevin ${temp} ${temp} 10 156453
fix             3 thermo langevin 1.2 ${temp} 10 156453
fix             3 thermo langevin 1.2 1.2 10 156453

run 		2000000
Per MPI rank memory allocation (min/avg/max) = 19.48 | 29.69 | 32.68 Mbytes
Step Temp E_pair E_vdwl TotEng Press PotEng KinEng Atoms 
 2000000    1.1999871   -1.2754087   -1.2754087  -0.41547038   0.27904269   -1.2754087   0.85993829  1070540 
 2001000    1.2004411   -1.2758939   -1.2758939  -0.41563032   0.16484764   -1.2758939   0.86026358  1070540 
 2002000    1.2013809   -1.2763562   -1.2763562  -0.41541907   0.17100922   -1.2763562   0.86093709  1070540 
 2003000    1.2000275   -1.2753716   -1.2753716  -0.41540439   0.16755789   -1.2753716   0.85996719  1070540 
 2004000     1.201057    -1.276226    -1.276226  -0.41552102   0.16505029    -1.276226   0.86070499  1070540 
 2005000    1.1990829   -1.2747942   -1.2747942  -0.41550388   0.17360259   -1.2747942   0.85929031  1070540 
 2006000    1.2002904   -1.2753145   -1.2753145  -0.41515896   0.16279785   -1.2753145   0.86015558  1070540 
 2007000    1.1994265   -1.2747807   -1.2747807   -0.4152442   0.16632668   -1.2747807   0.85953653  1070540 
 2008000    1.1992143   -1.2748068   -1.2748068  -0.41542239   0.15998214   -1.2748068   0.85938442  1070540 
 2009000    1.2002436   -1.2753996   -1.2753996  -0.41527754   0.16502214   -1.2753996   0.86012209  1070540 
 2010000    1.2006774   -1.2760334   -1.2760334  -0.41560045   0.17002329   -1.2760334   0.86043297  1070540 
 2011000    1.2022088   -1.2768848   -1.2768848  -0.41535443   0.16676539   -1.2768848    0.8615304  1070540 
 2012000    1.2009454   -1.2760461   -1.2760461  -0.41542107   0.16743739   -1.2760461   0.86062501  1070540 
 2013000    1.2010099   -1.2762155   -1.2762155  -0.41554432   0.16414398   -1.2762155    0.8606712  1070540 
 2014000    1.2014712   -1.2762237   -1.2762237  -0.41522182   0.16842389   -1.2762237   0.86100183  1070540 
 2015000    1.1996176   -1.2754141   -1.2754141  -0.41574064   0.16190339   -1.2754141   0.85967346  1070540 
 2016000    1.2013527   -1.2766118   -1.2766118  -0.41569491   0.17386811   -1.2766118   0.86091685  1070540 
 2017000    1.2011298   -1.2764704   -1.2764704  -0.41571325   0.16644276   -1.2764704   0.86075713  1070540 
 2018000    1.2009329   -1.2757988   -1.2757988  -0.41518274   0.16991234   -1.2757988   0.86061604  1070540 
 2019000    1.1997725   -1.2755353   -1.2755353  -0.41575087    0.1700651   -1.2755353   0.85978447  1070540 
 2020000    1.2002496   -1.2754688   -1.2754688  -0.41534246   0.16193219   -1.2754688   0.86012634  1070540 
 2021000    1.2002247   -1.2752941   -1.2752941  -0.41518558   0.15391086   -1.2752941   0.86010854  1070540 
 2022000    1.2012429   -1.2761125   -1.2761125  -0.41527436   0.15675731   -1.2761125   0.86083818  1070540 
 2023000    1.2007723    -1.275381    -1.275381  -0.41488009   0.16793211    -1.275381   0.86050095  1070540 
 2024000    1.2005807   -1.2748656   -1.2748656  -0.41450195   0.16874563   -1.2748656   0.86036362  1070540 
 2025000     1.201401   -1.2754967   -1.2754967  -0.41454515   0.16334193   -1.2754967   0.86095152  1070540 
 2026000    1.2013128   -1.2758538   -1.2758538  -0.41496552   0.16645884   -1.2758538   0.86088829  1070540 
 2027000     1.201981   -1.2760818   -1.2760818  -0.41471463   0.16585359   -1.2760818   0.86136716  1070540 
 2028000    1.2007628    -1.275178    -1.275178  -0.41468388   0.16804917    -1.275178   0.86049411  1070540 
 2029000    1.2016941   -1.2754908   -1.2754908  -0.41432925   0.17785294   -1.2754908   0.86116154  1070540 
 2030000    1.2015624   -1.2753171   -1.2753171  -0.41424999   0.16531327   -1.2753171   0.86106714  1070540 
 2031000    1.2019129   -1.2756995   -1.2756995   -0.4143811   0.17015373   -1.2756995   0.86131836  1070540 
 2032000    1.2008932   -1.2751473   -1.2751473  -0.41455971   0.17612849   -1.2751473   0.86058757  1070540 
 2033000    1.1998232   -1.2743977   -1.2743977  -0.41457693   0.16995016   -1.2743977   0.85982079  1070540 
 2034000    1.2007662   -1.2748105   -1.2748105  -0.41431386   0.16629182   -1.2748105   0.86049661  1070540 
 2035000    1.2005601   -1.2746805   -1.2746805  -0.41433165   0.16645903   -1.2746805   0.86034887  1070540 
 2036000    1.2007799   -1.2748101   -1.2748101  -0.41430371    0.1680749   -1.2748101   0.86050636  1070540 
 2037000    1.2004793   -1.2744828   -1.2744828  -0.41419178   0.16278168   -1.2744828   0.86029098  1070540 
 2038000    1.2028055   -1.2754587   -1.2754587  -0.41350066   0.16548033   -1.2754587     0.861958  1070540 
 2039000     1.202896   -1.2749476   -1.2749476   -0.4129248   0.16893073   -1.2749476   0.86202281  1070540 
 2040000     1.203221   -1.2753548   -1.2753548  -0.41309908   0.16509692   -1.2753548   0.86225574  1070540 
 2041000    1.2037135   -1.2756747   -1.2756747  -0.41306601   0.16921727   -1.2756747   0.86260865  1070540 
 2042000    1.2016222    -1.274311    -1.274311  -0.41320094   0.16166319    -1.274311   0.86111004  1070540 
 2043000    1.2003911   -1.2738725   -1.2738725  -0.41364476   0.16862462   -1.2738725   0.86022776  1070540 
 2044000    1.2046084   -1.2767107   -1.2767107  -0.41346068   0.16984818   -1.2767107   0.86325001  1070540 
 2045000     1.201794   -1.2750669   -1.2750669  -0.41383375   0.16653649   -1.2750669   0.86123313  1070540 
 2046000    1.2014834   -1.2745894   -1.2745894  -0.41357883   0.16310205   -1.2745894   0.86101056  1070540 
 2047000    1.2024951   -1.2751193   -1.2751193   -0.4133838   0.17572334   -1.2751193   0.86173554  1070540 
 2048000    1.2009646   -1.2739444   -1.2739444  -0.41330566   0.16980411   -1.2739444   0.86063873  1070540 
 2049000    1.2019321   -1.2739097   -1.2739097  -0.41257761   0.16412526   -1.2739097   0.86133208  1070540 
 2050000    1.2049159   -1.2761835   -1.2761835  -0.41271316   0.16536536   -1.2761835   0.86347033  1070540 
 2051000    1.2035059   -1.2754845   -1.2754845   -0.4130246   0.16911369   -1.2754845   0.86245988  1070540 
 2052000    1.2014551   -1.2742961   -1.2742961  -0.41330582   0.16850422   -1.2742961   0.86099025  1070540 
 2053000    1.2005674    -1.274155    -1.274155  -0.41380083   0.17144026    -1.274155   0.86035415  1070540 
 2054000    1.2008142    -1.274355    -1.274355  -0.41382396   0.16532013    -1.274355     0.860531  1070540 
 2055000     1.202024    -1.274937    -1.274937  -0.41353908   0.16379813    -1.274937   0.86139792  1070540 
 2056000    1.2022177   -1.2749415   -1.2749415   -0.4134048   0.16328114   -1.2749415   0.86153675  1070540 
 2057000    1.2027451   -1.2755981   -1.2755981  -0.41368343   0.16888307   -1.2755981   0.86191468  1070540 
 2058000     1.202152   -1.2745235   -1.2745235  -0.41303381   0.16752549   -1.2745235   0.86148968  1070540 
 2059000    1.2017692   -1.2743439   -1.2743439  -0.41312858   0.16821257   -1.2743439   0.86121536  1070540 
 2060000     1.202674   -1.2748107   -1.2748107  -0.41294696   0.16232119   -1.2748107   0.86186375  1070540 
 2061000    1.2003825   -1.2735832   -1.2735832   -0.4133616   0.16224588   -1.2735832   0.86022163  1070540 
 2062000    1.2026098   -1.2744106   -1.2744106  -0.41259284    0.1713342   -1.2744106   0.86181773  1070540 
 2063000    1.2032144   -1.2750341   -1.2750341  -0.41278308   0.16940671   -1.2750341   0.86225103  1070540 
 2064000    1.2030715   -1.2746112   -1.2746112  -0.41246263   0.16834836   -1.2746112   0.86214862  1070540 
 2065000     1.202151   -1.2737463   -1.2737463   -0.4122574   0.17453352   -1.2737463   0.86148894  1070540 
 2066000    1.2039557   -1.2749616   -1.2749616  -0.41217936   0.17082758   -1.2749616   0.86278225  1070540 
 2067000     1.204809   -1.2747894   -1.2747894  -0.41139565   0.17206289   -1.2747894   0.86339372  1070540 
 2068000    1.2029108   -1.2737252   -1.2737252  -0.41169176   0.17015876   -1.2737252   0.86203344  1070540 
 2069000    1.2031934   -1.2739995   -1.2739995  -0.41176356   0.17156196   -1.2739995   0.86223599  1070540 
 2070000    1.2027514   -1.2736041   -1.2736041  -0.41168493   0.17060573   -1.2736041   0.86191921  1070540 
 2071000    1.2048298   -1.2753804   -1.2753804  -0.41197168   0.17244119   -1.2753804   0.86340867  1070540 
 2072000    1.2032071   -1.2739024   -1.2739024  -0.41165661   0.16915421   -1.2739024   0.86224575  1070540 
 2073000    1.2040871   -1.2744911   -1.2744911  -0.41161469   0.17334635   -1.2744911   0.86287642  1070540 
 2074000    1.2034743   -1.2742082   -1.2742082   -0.4117709   0.16887324   -1.2742082   0.86243726  1070540 
 2075000    1.2032392   -1.2743211   -1.2743211  -0.41205227   0.16931178   -1.2743211   0.86226882  1070540 
 2076000    1.2042845   -1.2751615   -1.2751615  -0.41214371   0.16691016   -1.2751615   0.86301784  1070540 
 2077000    1.2021128   -1.2735075   -1.2735075  -0.41204593   0.17069236   -1.2735075   0.86146158  1070540 
 2078000    1.2035299   -1.2746316   -1.2746316  -0.41215453   0.16662262   -1.2746316   0.86247708  1070540 
 2079000    1.2029061   -1.2742061   -1.2742061  -0.41217604   0.17731408   -1.2742061    0.8620301  1070540 
 2080000     1.203525   -1.2746504   -1.2746504   -0.4121768   0.16129076   -1.2746504    0.8624736  1070540 
 2081000    1.2030126   -1.2743161   -1.2743161  -0.41220976   0.17291392   -1.2743161   0.86210637  1070540 
 2082000    1.2031633   -1.2743519   -1.2743519  -0.41213752   0.16970828   -1.2743519   0.86221437  1070540 
 2083000      1.20119   -1.2727467   -1.2727467  -0.41194639   0.16920192   -1.2727467   0.86080031  1070540 
 2084000    1.2024033   -1.2732781   -1.2732781  -0.41160838   0.17499347   -1.2732781   0.86166976  1070540 
 2085000    1.2038915   -1.2742072   -1.2742072  -0.41147103   0.16870427   -1.2742072   0.86273621  1070540 
 2086000    1.2021763   -1.2729733   -1.2729733  -0.41146621    0.1633025   -1.2729733   0.86150705  1070540 
 2087000    1.2025182    -1.273764    -1.273764  -0.41201193    0.1680974    -1.273764   0.86175208  1070540 
 2088000    1.2021115   -1.2737723   -1.2737723  -0.41231169   0.17557036   -1.2737723   0.86146063  1070540 
 2089000    1.2027094   -1.2744314   -1.2744314  -0.41254222   0.15866798   -1.2744314   0.86188916  1070540 
 2090000    1.2021088   -1.2737709   -1.2737709  -0.41231217   0.16830296   -1.2737709    0.8614587  1070540 
 2091000    1.2037845   -1.2746601   -1.2746601  -0.41200057   0.16914287   -1.2746601   0.86265955  1070540 
 2092000    1.2022385   -1.2735949   -1.2735949  -0.41204325   0.17101795   -1.2735949   0.86155164  1070540 
 2093000    1.2030987   -1.2743142   -1.2743142  -0.41214606   0.16306426   -1.2743142   0.86216811  1070540 
 2094000    1.2035427   -1.2745142   -1.2745142   -0.4120279   0.16918311   -1.2745142   0.86248629  1070540 
 2095000    1.2031214   -1.2739914   -1.2739914  -0.41180705   0.16856053   -1.2739914   0.86218439  1070540 
 2096000    1.2041365   -1.2743296   -1.2743296  -0.41141779   0.16255834   -1.2743296   0.86291179  1070540 
 2097000    1.2039557   -1.2741629   -1.2741629  -0.41138066   0.16619248   -1.2741629   0.86278222  1070540 
 2098000    1.2037707   -1.2742671   -1.2742671  -0.41161743   0.16969362   -1.2742671   0.86264968  1070540 
 2099000    1.2034654   -1.2741512   -1.2741512  -0.41172037   0.16773494   -1.2741512   0.86243086  1070540 
 2100000    1.2051808    -1.275347    -1.275347  -0.41168684    0.1645968    -1.275347   0.86366016  1070540 
 2101000    1.2037624    -1.274564    -1.274564  -0.41192024   0.17572381    -1.274564   0.86264372  1070540 
 2102000    1.2031713   -1.2743606   -1.2743606   -0.4121404   0.16961307   -1.2743606   0.86222015  1070540 
 2103000    1.2030067    -1.274308    -1.274308  -0.41220583   0.17031929    -1.274308   0.86210214  1070540 
 2104000    1.2042663   -1.2752355   -1.2752355  -0.41223067   0.16882379   -1.2752355   0.86300485  1070540 
 2105000    1.2028212   -1.2745571   -1.2745571  -0.41258783   0.16937916   -1.2745571   0.86196927  1070540 
 2106000    1.2026714   -1.2744915   -1.2744915  -0.41262965   0.16349132   -1.2744915   0.86186189  1070540 
 2107000    1.2042457    -1.275636    -1.275636  -0.41264593    0.1648718    -1.275636   0.86299003  1070540 
 2108000    1.2018247   -1.2732754   -1.2732754  -0.41202022   0.17128783   -1.2732754   0.86125514  1070540 
 2109000    1.2031079   -1.2743412   -1.2743412  -0.41216645     0.165527   -1.2743412   0.86217472  1070540 
 2110000    1.2025208   -1.2739787   -1.2739787  -0.41222467   0.17145435   -1.2739787   0.86175399  1070540 
 2111000    1.2018604   -1.2731346   -1.2731346  -0.41185396   0.16269335   -1.2731346   0.86128068  1070540 
 2112000    1.2040442   -1.2741665   -1.2741665  -0.41132087   0.17479921   -1.2741665   0.86284566  1070540 
 2113000    1.2040372   -1.2745686   -1.2745686  -0.41172796   0.17024094   -1.2745686   0.86284066  1070540 
 2114000    1.2019668   -1.2735737   -1.2735737  -0.41221675   0.16493674   -1.2735737   0.86135695  1070540 
 2115000    1.2039801   -1.2748563   -1.2748563  -0.41205655   0.17124423   -1.2748563   0.86279975  1070540 
 2116000    1.2052045   -1.2753988   -1.2753988   -0.4117216    0.1597023   -1.2753988   0.86367716  1070540 
 2117000    1.2039601   -1.2748448   -1.2748448  -0.41205936   0.17126864   -1.2748448   0.86278542  1070540 
 2118000    1.2025634     -1.27421     -1.27421  -0.41242549   0.17084608     -1.27421   0.86178446  1070540 
 2119000    1.2036359   -1.2746171   -1.2746171  -0.41206401   0.16450505   -1.2746171   0.86255304  1070540 
 2120000    1.2033678   -1.2746953   -1.2746953   -0.4123343   0.16693558   -1.2746953   0.86236098  1070540 
 2121000    1.2019609   -1.2738543   -1.2738543  -0.41250161    0.1656004   -1.2738543   0.86135272  1070540 
 2122000    1.2055381   -1.2759673   -1.2759673  -0.41205101   0.16239743   -1.2759673   0.86391626  1070540 
 2123000    1.2025787    -1.273804    -1.273804   -0.4120085   0.16657248    -1.273804   0.86179546  1070540 
 2124000    1.2047557   -1.2754082   -1.2754082  -0.41205271   0.16957162   -1.2754082   0.86335553  1070540 
 2125000    1.2044398   -1.2752671   -1.2752671  -0.41213791   0.16858805   -1.2752671   0.86312919  1070540 
 2126000    1.2034382   -1.2744754   -1.2744754  -0.41206398   0.17059619   -1.2744754   0.86241142  1070540 
 2127000    1.2046947   -1.2751227   -1.2751227  -0.41181086   0.16979237   -1.2751227   0.86331181  1070540 
 2128000    1.2042299   -1.2747069   -1.2747069  -0.41172815   0.17052275   -1.2747069   0.86297876  1070540 
 2129000    1.2032101   -1.2738776   -1.2738776  -0.41162972   0.16589546   -1.2738776    0.8622479  1070540 
 2130000    1.2039549   -1.2744077   -1.2744077  -0.41162604   0.16450833   -1.2744077    0.8627817  1070540 
 2131000    1.2048067   -1.2745084   -1.2745084  -0.41111634   0.16941108   -1.2745084    0.8633921  1070540 
 2132000    1.2040753    -1.274016    -1.274016    -0.411148   0.16607159    -1.274016   0.86286799  1070540 
 2133000    1.2056173   -1.2748735   -1.2748735  -0.41090055   0.16604297   -1.2748735   0.86397299  1070540 
 2134000    1.2054913   -1.2752203   -1.2752203  -0.41133765   0.16947985   -1.2752203   0.86388269  1070540 
 2135000    1.2033385   -1.2736238   -1.2736238  -0.41128381   0.16592468   -1.2736238   0.86233994  1070540 
 2136000    1.2044747   -1.2742158   -1.2742158  -0.41106157   0.16482831   -1.2742158    0.8631542  1070540 
 2137000    1.2030705   -1.2726627   -1.2726627  -0.41051483   0.17140392   -1.2726627   0.86214788  1070540 
 2138000    1.2052931   -1.2743522   -1.2743522  -0.41061153   0.16703745   -1.2743522   0.86374065  1070540 
 2139000    1.2046639   -1.2735439   -1.2735439  -0.41025409   0.17312849   -1.2735439   0.86328977  1070540 
 2140000    1.2036141   -1.2731111   -1.2731111  -0.41057362   0.17589798   -1.2731111   0.86253748  1070540 
 2141000    1.2055568   -1.2741888   -1.2741888  -0.41025911   0.16041351   -1.2741888   0.86392967  1070540 
 2142000     1.205318   -1.2740921   -1.2740921  -0.41033367   0.16364986   -1.2740921   0.86375847  1070540 
 2143000    1.2049168   -1.2737819   -1.2737819  -0.41031085    0.1696398   -1.2737819   0.86347102  1070540 
 2144000    1.2042086   -1.2731043   -1.2731043  -0.41014085   0.17312377   -1.2731043   0.86296348  1070540 
 2145000    1.2056265   -1.2734375   -1.2734375  -0.40945787   0.16980458   -1.2734375   0.86397961  1070540 
 2146000    1.2055914   -1.2731225   -1.2731225  -0.40916809   0.16391134   -1.2731225   0.86395441  1070540 
 2147000    1.2053934   -1.2737035   -1.2737035  -0.40989099   0.16239585   -1.2737035   0.86381252  1070540 
 2148000    1.2060738   -1.2737453   -1.2737453  -0.40944519   0.16065434   -1.2737453    0.8643001  1070540 
 2149000    1.2059638   -1.2740382   -1.2740382  -0.40981689   0.16353072   -1.2740382   0.86422131  1070540 
 2150000    1.2063339   -1.2743422   -1.2743422  -0.40985573   0.15849234   -1.2743422   0.86448652  1070540 
 2151000    1.2064115   -1.2740207   -1.2740207  -0.40947854   0.16694602   -1.2740207   0.86454213  1070540 
 2152000    1.2042405    -1.272788    -1.272788  -0.40980166   0.17266412    -1.272788   0.86298636  1070540 
 2153000    1.2059693   -1.2743565   -1.2743565  -0.41013121   0.16586092   -1.2743565   0.86422527  1070540 
 2154000    1.2069223   -1.2747243   -1.2747243  -0.40981615    0.1678311   -1.2747243   0.86490817  1070540 
 2155000    1.2060698   -1.2738768   -1.2738768  -0.40957953   0.17512279   -1.2738768   0.86429723  1070540 
 2156000    1.2062463   -1.2742038   -1.2742038  -0.40978005   0.17404784   -1.2742038   0.86442373  1070540 
 2157000    1.2082315   -1.2754825   -1.2754825  -0.40963616   0.16626634   -1.2754825   0.86584635  1070540 
 2158000     1.205418   -1.2733592   -1.2733592   -0.4095291   0.17557215   -1.2733592   0.86383015  1070540 
 2159000    1.2065095   -1.2736698   -1.2736698  -0.40905743   0.16722831   -1.2736698   0.86461239  1070540 
 2160000    1.2058917   -1.2734606   -1.2734606  -0.40929099   0.16893339   -1.2734606    0.8641696  1070540 
 2161000    1.2067018   -1.2741485   -1.2741485   -0.4093983   0.16600171   -1.2741485   0.86475016  1070540 
 2162000    1.2061348   -1.2737118   -1.2737118    -0.409368   0.16617752   -1.2737118   0.86434383  1070540 
 2163000    1.2049067   -1.2729625   -1.2729625  -0.40949872   0.17038929   -1.2729625   0.86346375  1070540 
 2164000    1.2050797   -1.2730371   -1.2730371  -0.40944935   0.16327873   -1.2730371   0.86358777  1070540 
 2165000    1.2061289   -1.2740021   -1.2740021  -0.40966251    0.1784957   -1.2740021   0.86433962  1070540 
 2166000     1.205376   -1.2740673   -1.2740673  -0.41026724   0.16888193   -1.2740673   0.86380007  1070540 
 2167000    1.2063033   -1.2741099   -1.2741099  -0.40964529   0.16670852   -1.2741099   0.86446459  1070540 
 2168000     1.204982   -1.2728461   -1.2728461  -0.40932839   0.17815094   -1.2728461   0.86351772  1070540 
 2169000    1.2065396   -1.2740215   -1.2740215  -0.40938756   0.16463171   -1.2740215   0.86463395  1070540 
 2170000    1.2063916   -1.2741501   -1.2741501  -0.40962222   0.16561005   -1.2741501   0.86452789  1070540 
 2171000    1.2050972   -1.2730218   -1.2730218  -0.40942155   0.16990056   -1.2730218   0.86360027  1070540 
 2172000    1.2048258    -1.272694    -1.272694   -0.4092882   0.17644941    -1.272694   0.86340576  1070540 
 2173000    1.2062066   -1.2734591   -1.2734591  -0.40906385   0.17510926   -1.2734591    0.8643953  1070540 
 2174000    1.2058322   -1.2731404   -1.2731404  -0.40901341   0.16475976   -1.2731404     0.864127  1070540 
 2175000     1.206967   -1.2739363   -1.2739363  -0.40899609   0.17575495   -1.2739363   0.86494025  1070540 
 2176000    1.2051376   -1.2728088   -1.2728088  -0.40917956   0.17020976   -1.2728088   0.86362925  1070540 
 2177000    1.2059971    -1.273524    -1.273524  -0.40927881   0.17140587    -1.273524   0.86424519  1070540 
 2178000     1.206221   -1.2736878   -1.2736878  -0.40928217   0.17459771   -1.2736878   0.86440559  1070540 
 2179000    1.2063301   -1.2737297   -1.2737297  -0.40924593   0.16832098   -1.2737297   0.86448376  1070540 
 2180000    1.2042126   -1.2718637   -1.2718637   -0.4088974   0.16740246   -1.2718637   0.86296635  1070540 
 2181000    1.2057764   -1.2726264   -1.2726264  -0.40853934   0.17161374   -1.2726264   0.86408703  1070540 
 2182000    1.2067796   -1.2732354   -1.2732354  -0.40842951    0.1726732   -1.2732354   0.86480594  1070540 
 2183000    1.2066076   -1.2729706   -1.2729706  -0.40828799   0.17480281   -1.2729706   0.86468264  1070540 
 2184000    1.2063778   -1.2731581   -1.2731581  -0.40864014   0.16070329   -1.2731581   0.86451799  1070540 
 2185000    1.2071489   -1.2739317   -1.2739317  -0.40886117   0.16795769   -1.2739317   0.86507055  1070540 
 2186000    1.2062513   -1.2730037   -1.2730037  -0.40857641   0.16232537   -1.2730037    0.8644273  1070540 
 2187000    1.2046391   -1.2711963   -1.2711963  -0.40792436   0.17145678   -1.2711963   0.86327195  1070540 
 2188000    1.2082169   -1.2737665   -1.2737665  -0.40793057   0.16954468   -1.2737665    0.8658359  1070540 
 2189000    1.2059873   -1.2721246   -1.2721246  -0.40788642   0.17169955   -1.2721246   0.86423813  1070540 
 2190000    1.2062386   -1.2725828   -1.2725828  -0.40816452   0.16228143   -1.2725828   0.86441825  1070540 
 2191000    1.2073696   -1.2732155   -1.2732155  -0.40798673   0.17048322   -1.2732155   0.86522874  1070540 
 2192000    1.2087479   -1.2735255   -1.2735255  -0.40730903   0.16873638   -1.2735255   0.86621648  1070540 
 2193000    1.2084769   -1.2733162   -1.2733162  -0.40729394    0.1703773   -1.2733162   0.86602226  1070540 
 2194000    1.2066534   -1.2718473   -1.2718473  -0.40713182   0.16950683   -1.2718473   0.86471551  1070540 
 2195000    1.2075274   -1.2721981   -1.2721981  -0.40685633   0.17223762   -1.2721981   0.86534178  1070540 
 2196000      1.20702   -1.2720002   -1.2720002    -0.407022   0.17094852   -1.2720002   0.86497819  1070540 
 2197000    1.2073601   -1.2724448   -1.2724448   -0.4072229   0.17053701   -1.2724448   0.86522191  1070540 
 2198000    1.2080321   -1.2730491   -1.2730491  -0.40734562   0.16735136   -1.2730491   0.86570347  1070540 
 2199000    1.2070563   -1.2724946   -1.2724946  -0.40749037   0.16382871   -1.2724946   0.86500423  1070540 
 2200000    1.2061502   -1.2716325   -1.2716325  -0.40727762   0.17142398   -1.2716325   0.86435488  1070540 
 2201000    1.2086704   -1.2729811   -1.2729811  -0.40682015   0.17034848   -1.2729811   0.86616092  1070540 
 2202000    1.2083104    -1.272651    -1.272651  -0.40674809   0.17238924    -1.272651   0.86590291  1070540 
 2203000    1.2079472   -1.2725695   -1.2725695  -0.40692681   0.17010679   -1.2725695   0.86564267  1070540 
 2204000    1.2092076   -1.2731406   -1.2731406  -0.40659471   0.16986888   -1.2731406   0.86654587  1070540 
 2205000    1.2067383   -1.2717153   -1.2717153  -0.40693891    0.1740023   -1.2717153   0.86477635  1070540 
 2206000    1.2081934   -1.2729083   -1.2729083  -0.40708918   0.16971738   -1.2729083    0.8658191  1070540 
 2207000    1.2069047   -1.2724227   -1.2724227  -0.40752707   0.17254258   -1.2724227   0.86489558  1070540 
 2208000    1.2070887   -1.2727197   -1.2727197  -0.40769223   0.17180857   -1.2727197   0.86502745  1070540 
 2209000    1.2069343   -1.2726837   -1.2726837  -0.40776693   0.17064143   -1.2726837   0.86491678  1070540 
 2210000    1.2073232   -1.2722894   -1.2722894  -0.40709396   0.17233713   -1.2722894   0.86519549  1070540 
 2211000    1.2072838   -1.2719131   -1.2719131  -0.40674588   0.17789209   -1.2719131   0.86516723  1070540 
 2212000      1.20879   -1.2731111   -1.2731111  -0.40686445   0.17542017   -1.2731111    0.8662466  1070540 
 2213000    1.2096887   -1.2738219   -1.2738219  -0.40693119   0.16941564   -1.2738219   0.86689068  1070540 
 2214000    1.2068243   -1.2721562   -1.2721562  -0.40731831   0.16803228   -1.2721562   0.86483792  1070540 
 2215000    1.2075943   -1.2725271   -1.2725271  -0.40713736   0.17203137   -1.2725271   0.86538974  1070540 
 2216000    1.2078983   -1.2724041   -1.2724041  -0.40679653   0.16993327   -1.2724041   0.86560761  1070540 
 2217000    1.2065831    -1.271566    -1.271566   -0.4069009   0.16983127    -1.271566   0.86466509  1070540 
 2218000    1.2060181   -1.2713106   -1.2713106  -0.40705038   0.17377062   -1.2713106   0.86426019  1070540 
 2219000    1.2082802   -1.2729419   -1.2729419   -0.4070606   0.17195993   -1.2729419   0.86588125  1070540 
 2220000    1.2068846   -1.2723043   -1.2723043   -0.4074231   0.17413436   -1.2723043   0.86488118  1070540 
 2221000    1.2071697   -1.2726223   -1.2726223  -0.40753684   0.17274133   -1.2726223   0.86508546  1070540 
 2222000    1.2071856   -1.2723689   -1.2723689  -0.40727207   0.16534109   -1.2723689   0.86509687  1070540 
 2223000    1.2080207   -1.2727968   -1.2727968  -0.40710149   0.18434741   -1.2727968   0.86569535  1070540 
 2224000    1.2078074   -1.2722451   -1.2722451  -0.40670269   0.16756065   -1.2722451   0.86554245  1070540 
 2225000    1.2076437   -1.2720906   -1.2720906  -0.40666546   0.16455422   -1.2720906   0.86542512  1070540 
 2226000    1.2086958   -1.2730194   -1.2730194  -0.40684025   0.16838688   -1.2730194   0.86617913  1070540 
 2227000     1.207533   -1.2726637   -1.2726637   -0.4073179   0.16683146   -1.2726637   0.86534581  1070540 
 2228000    1.2066265   -1.2720151   -1.2720151  -0.40731888   0.17958349   -1.2720151   0.86469624  1070540 
 2229000    1.2078843   -1.2731071   -1.2731071  -0.40750953   0.16329952   -1.2731071   0.86559754  1070540 
 2230000    1.2068553   -1.2718853   -1.2718853  -0.40702516   0.16897682   -1.2718853   0.86486014  1070540 
 2231000    1.2099137   -1.2737048   -1.2737048  -0.40665289   0.17596146   -1.2737048   0.86705188  1070540 
 2232000    1.2085073   -1.2731134   -1.2731134  -0.40706938   0.16984275   -1.2731134     0.866044  1070540 
 2233000    1.2089349   -1.2737485   -1.2737485  -0.40739804   0.17926741   -1.2737485   0.86635048  1070540 
 2234000    1.2088929   -1.2734266   -1.2734266  -0.40710623   0.17248447   -1.2734266   0.86632035  1070540 
 2235000    1.2072127   -1.2725407   -1.2725407  -0.40742434   0.16798626   -1.2725407   0.86511632  1070540 
 2236000    1.2068662    -1.272568    -1.272568  -0.40769995   0.16888389    -1.272568   0.86486801  1070540 
 2237000    1.2064754   -1.2725617   -1.2725617  -0.40797379   0.16694017   -1.2725617   0.86458796  1070540 
 2238000    1.2067812   -1.2724786   -1.2724786  -0.40767149   0.17730549   -1.2724786    0.8648071  1070540 
 2239000     1.207113   -1.2727766   -1.2727766  -0.40773182   0.17399312   -1.2727766   0.86504481  1070540 
 2240000     1.209695   -1.2744768   -1.2744768  -0.40758164   0.16967623   -1.2744768   0.86689519  1070540 
 2241000    1.2067866   -1.2724351   -1.2724351  -0.40762418    0.1684044   -1.2724351   0.86481092  1070540 
 2242000    1.2078448   -1.2729773   -1.2729773  -0.40740808    0.1731558   -1.2729773   0.86556924  1070540 
 2243000    1.2080258   -1.2730551   -1.2730551  -0.40735609   0.16295891   -1.2730551   0.86569899  1070540 
 2244000    1.2070107   -1.2720173   -1.2720173  -0.40704577   0.16919831   -1.2720173   0.86497153  1070540 
 2245000     1.207643    -1.272426    -1.272426  -0.40700132   0.17317813    -1.272426   0.86542468  1070540 
 2246000    1.2071862   -1.2722956   -1.2722956  -0.40719835   0.16646833   -1.2722956    0.8650973  1070540 
 2247000    1.2073452   -1.2720465   -1.2720465   -0.4068353   0.16861852   -1.2720465   0.86521124  1070540 
 2248000    1.2085406   -1.2731331   -1.2731331   -0.4070652   0.17576435   -1.2731331   0.86606792  1070540 
 2249000    1.2071915    -1.272301    -1.272301  -0.40719994   0.16490617    -1.272301   0.86510108  1070540 
 2250000    1.2069804   -1.2714314   -1.2714314   -0.4064816   0.17100178   -1.2714314    0.8649498  1070540 
 2251000    1.2079237   -1.2723102   -1.2723102  -0.40668441   0.17463911   -1.2723102   0.86562581  1070540 
 2252000    1.2076837   -1.2726867   -1.2726867  -0.40723289   0.16996051   -1.2726867   0.86545384  1070540 
 2253000    1.2069382    -1.273022    -1.273022  -0.40810245   0.16719325    -1.273022   0.86491957  1070540 
 2254000    1.2076991   -1.2733787   -1.2733787   -0.4079138   0.15961131   -1.2733787   0.86546487  1070540 
 2255000    1.2079544   -1.2735064   -1.2735064  -0.40785862   0.17252565   -1.2735064   0.86564781  1070540 
 2256000    1.2081137   -1.2734652   -1.2734652   -0.4077032   0.16334257   -1.2734652   0.86576197  1070540 
 2257000    1.2080618   -1.2738761   -1.2738761  -0.40815137   0.16693616   -1.2738761   0.86572475  1070540 
 2258000    1.2082564   -1.2738343   -1.2738343  -0.40797005   0.17260165   -1.2738343   0.86586426  1070540 
 2259000    1.2086503   -1.2739446   -1.2739446   -0.4077981   0.16804806   -1.2739446   0.86614647  1070540 
 2260000    1.2066931   -1.2727306   -1.2727306  -0.40798668   0.17030278   -1.2727306   0.86474396  1070540 
 2261000    1.2074631   -1.2725832   -1.2725832  -0.40728747   0.17232502   -1.2725832   0.86529574  1070540 
 2262000    1.2069909   -1.2724473   -1.2724473     -0.40749   0.16918649   -1.2724473   0.86495733  1070540 
 2263000    1.2065085   -1.2724487   -1.2724487  -0.40783707   0.17489288   -1.2724487   0.86461165  1070540 
 2264000    1.2064016   -1.2722244   -1.2722244   -0.4076894   0.16802322   -1.2722244   0.86453503  1070540 
 2265000    1.2067784   -1.2720456   -1.2720456  -0.40724053   0.16766617   -1.2720456   0.86480507  1070540 
 2266000    1.2052744   -1.2709864   -1.2709864  -0.40725918   0.16436542   -1.2709864   0.86372723  1070540 
 2267000    1.2064983   -1.2718343   -1.2718343  -0.40722996   0.16727283   -1.2718343   0.86460433  1070540 
 2268000    1.2071482   -1.2720939   -1.2720939  -0.40702385   0.16128815   -1.2720939   0.86507004  1070540 
 2269000     1.208322   -1.2726278   -1.2726278  -0.40671656   0.17229754   -1.2726278   0.86591121  1070540 
 2270000    1.2075747   -1.2720558   -1.2720558  -0.40668016   0.17205724   -1.2720558   0.86537568  1070540 
 2271000     1.206439    -1.271735    -1.271735  -0.40717318   0.16922974    -1.271735   0.86456182  1070540 
 2272000    1.2067692   -1.2726562   -1.2726562  -0.40785775   0.16309162   -1.2726562   0.86479849  1070540 
 2273000    1.2078166   -1.2731634   -1.2731634  -0.40761434   0.17098119   -1.2731634   0.86554909  1070540 
 2274000    1.2067729    -1.272024    -1.272024  -0.40722285   0.16494515    -1.272024   0.86480115  1070540 
 2275000    1.2078363    -1.272808    -1.272808  -0.40724484   0.16985884    -1.272808    0.8655632  1070540 
 2276000    1.2082007   -1.2728738   -1.2728738   -0.4070495   0.17149482   -1.2728738   0.86582428  1070540 
 2277000    1.2088221   -1.2734447   -1.2734447  -0.40717511   0.16691022   -1.2734447   0.86626963  1070540 
 2278000    1.2085106   -1.2728719   -1.2728719  -0.40682548   0.17165228   -1.2728719   0.86604638  1070540 
 2279000    1.2089108   -1.2731422   -1.2731422  -0.40680897   0.17848029   -1.2731422    0.8663332  1070540 
 2280000    1.2089549   -1.2726376   -1.2726376  -0.40627281   0.16779594   -1.2726376   0.86636481  1070540 
 2281000    1.2098747   -1.2736481   -1.2736481  -0.40662412   0.17159684   -1.2736481   0.86702395  1070540 
 2282000    1.2073436   -1.2720274   -1.2720274  -0.40681734    0.1707061   -1.2720274   0.86521009  1070540 
 2283000    1.2082463   -1.2724956   -1.2724956   -0.4066386    0.1615308   -1.2724956   0.86585701  1070540 
 2284000    1.2071461    -1.271392    -1.271392  -0.40632338   0.16754283    -1.271392   0.86506859  1070540 
 2285000     1.207647   -1.2714708   -1.2714708  -0.40604326   0.16619077   -1.2714708   0.86542749  1070540 
 2286000    1.2085697     -1.27231     -1.27231  -0.40622124   0.16701655     -1.27231   0.86608875  1070540 
 2287000    1.2092665   -1.2726285   -1.2726285  -0.40604044   0.17759694   -1.2726285   0.86658806  1070540 
 2288000    1.2083698   -1.2721879   -1.2721879  -0.40624241   0.17034453   -1.2721879   0.86594552  1070540 
 2289000    1.2082712   -1.2720783   -1.2720783  -0.40620349   0.17309008   -1.2720783   0.86587483  1070540 
 2290000    1.2087163   -1.2723887   -1.2723887  -0.40619482   0.16824872   -1.2723887   0.86619383  1070540 
 2291000    1.2087523   -1.2720909   -1.2720909  -0.40587131   0.16996109   -1.2720909   0.86621963  1070540 
 2292000    1.2085502   -1.2719415   -1.2719415  -0.40586676   0.17311582   -1.2719415   0.86607474  1070540 
 2293000    1.2075584   -1.2706442   -1.2706442  -0.40528019   0.17597372   -1.2706442   0.86536399  1070540 
 2294000    1.2077834   -1.2712744   -1.2712744  -0.40574912   0.17650546   -1.2712744   0.86552527  1070540 
 2295000    1.2082198   -1.2716314   -1.2716314  -0.40579344   0.17576539   -1.2716314   0.86583798  1070540 
 2296000    1.2085231   -1.2721778   -1.2721778  -0.40612244   0.17615457   -1.2721778   0.86605534  1070540 
 2297000    1.2076363   -1.2716257   -1.2716257   -0.4062058   0.17464977   -1.2716257   0.86541985  1070540 
 2298000    1.2076404   -1.2718594   -1.2718594  -0.40643663   0.16753138   -1.2718594   0.86542279  1070540 
 2299000    1.2079356   -1.2717538   -1.2717538  -0.40611946    0.1765912   -1.2717538   0.86563433  1070540 
 2300000    1.2088879   -1.2722402   -1.2722402  -0.40592337   0.16468867   -1.2722402   0.86631679  1070540 
 2301000    1.2083029    -1.271918    -1.271918  -0.40602046   0.16739188    -1.271918   0.86589753  1070540 
 2302000    1.2109099    -1.273683    -1.273683  -0.40591726   0.17052289    -1.273683   0.86776576  1070540 
 2303000    1.2093347    -1.271825    -1.271825  -0.40518802   0.16625111    -1.271825   0.86663696  1070540 
 2304000    1.2082321   -1.2714708   -1.2714708  -0.40562402   0.16653527   -1.2714708   0.86584678  1070540 
 2305000     1.209177   -1.2723168   -1.2723168  -0.40579289   0.17336747   -1.2723168   0.86652395  1070540 
 2306000     1.208072   -1.2713615   -1.2713615  -0.40562945   0.17074457   -1.2713615   0.86573207  1070540 
 2307000    1.2097277   -1.2722899   -1.2722899  -0.40537128   0.16437717   -1.2722899   0.86691859  1070540 
 2308000    1.2100521   -1.2722401   -1.2722401  -0.40508905   0.16981797   -1.2722401   0.86715107  1070540 
 2309000    1.2079716   -1.2702479   -1.2702479  -0.40458781     0.166902   -1.2702479   0.86566013  1070540 
 2310000    1.2091566   -1.2709537   -1.2709537   -0.4044443   0.17451421   -1.2709537   0.86650936  1070540 
 2311000    1.2099921   -1.2716804   -1.2716804  -0.40457233   0.16448009   -1.2716804   0.86710806  1070540 
 2312000    1.2106237   -1.2725735   -1.2725735  -0.40501285   0.17549669   -1.2725735   0.86756067  1070540 
 2313000     1.210101   -1.2722596   -1.2722596  -0.40507344   0.16815538   -1.2722596   0.86718614  1070540 
 2314000    1.2089698   -1.2717184   -1.2717184  -0.40534292   0.17472369   -1.2717184   0.86637546  1070540 
 2315000    1.2099619   -1.2725687   -1.2725687  -0.40548231    0.1748169   -1.2725687   0.86708641  1070540 
 2316000    1.2094913   -1.2722088   -1.2722088  -0.40545956   0.17353921   -1.2722088   0.86674921  1070540 
 2317000     1.210445   -1.2732148   -1.2732148  -0.40578219   0.17197661   -1.2732148   0.86743261  1070540 
 2318000     1.209437   -1.2721804   -1.2721804  -0.40547011   0.17433516   -1.2721804   0.86671031  1070540 
 2319000    1.2077315   -1.2709955   -1.2709955  -0.40550749   0.17633302   -1.2709955   0.86548804  1070540 
 2320000    1.2106541   -1.2728365   -1.2728365    -0.405254   0.17566419   -1.2728365   0.86758247  1070540 
 2321000    1.2098921   -1.2725285   -1.2725285  -0.40549209   0.16873764   -1.2725285   0.86703638  1070540 
 2322000    1.2097811   -1.2726462   -1.2726462  -0.40568929   0.16859536   -1.2726462    0.8669569  1070540 
 2323000    1.2089118    -1.271779    -1.271779  -0.40544517   0.17179908    -1.271779   0.86633387  1070540 
 2324000    1.2085231   -1.2714704   -1.2714704  -0.40541503   0.17104369   -1.2714704   0.86605534  1070540 
 2325000    1.2084525   -1.2711213   -1.2711213  -0.40511654   0.17547759   -1.2711213   0.86600479  1070540 
 2326000    1.2090802   -1.2722327   -1.2722327  -0.40577808   0.17462039   -1.2722327   0.86645461  1070540 
 2327000    1.2088046   -1.2718408   -1.2718408  -0.40558367   0.17414916   -1.2718408   0.86625709  1070540 
 2328000    1.2088112   -1.2718879   -1.2718879  -0.40562603   0.16865122   -1.2718879   0.86626183  1070540 
 2329000    1.2115557   -1.2735342   -1.2735342  -0.40530556   0.17158653   -1.2735342    0.8682286  1070540 
 2330000     1.210418   -1.2727294   -1.2727294  -0.40531615   0.17390986   -1.2727294   0.86741329  1070540 
 2331000    1.2111616   -1.2736262   -1.2736262  -0.40567998   0.17236884   -1.2736262   0.86794619  1070540 
 2332000    1.2089489   -1.2716159   -1.2716159  -0.40525537   0.17041034   -1.2716159    0.8663605  1070540 
 2333000    1.2094404   -1.2722394   -1.2722394  -0.40552667   0.17084694   -1.2722394   0.86671273  1070540 
 2334000     1.210006   -1.2721319   -1.2721319   -0.4050139   0.17866102   -1.2721319   0.86711801  1070540 
 2335000    1.2105547   -1.2727442   -1.2727442  -0.40523294   0.18102074   -1.2727442   0.86751126  1070540 
 2336000    1.2109637   -1.2731692   -1.2731692  -0.40536489    0.1722225   -1.2731692   0.86780432  1070540 
 2337000    1.2104413   -1.2726926   -1.2726926  -0.40526269   0.17005705   -1.2726926   0.86742995  1070540 
 2338000    1.2108968   -1.2729489   -1.2729489  -0.40519252   0.17092423   -1.2729489   0.86775637  1070540 
 2339000    1.2112077   -1.2727601   -1.2727601  -0.40478091   0.17071217   -1.2727601   0.86797918  1070540 
 2340000     1.209578   -1.2718331   -1.2718331  -0.40502179   0.17326008   -1.2718331    0.8668113  1070540 
 2341000    1.2100015   -1.2719454   -1.2719454  -0.40483058    0.1708943   -1.2719454    0.8671148  1070540 
 2342000    1.2105257   -1.2720435   -1.2720435  -0.40455308   0.17537532   -1.2720435   0.86749043  1070540 
 2343000    1.2105494   -1.2718814   -1.2718814  -0.40437399   0.16828909   -1.2718814   0.86750743  1070540 
 2344000    1.2099992   -1.2719922   -1.2719922  -0.40487897   0.17094381   -1.2719922   0.86711318  1070540 
 2345000    1.2091078   -1.2708299   -1.2708299  -0.40435556   0.18074453   -1.2708299   0.86647433  1070540 
 2346000     1.209427   -1.2715789   -1.2715789  -0.40487575   0.16996111   -1.2715789    0.8667031  1070540 
 2347000    1.2114985   -1.2733376   -1.2733376  -0.40515002   0.16674706   -1.2733376   0.86818757  1070540 
 2348000    1.2099043   -1.2720728   -1.2720728  -0.40502767   0.17494831   -1.2720728   0.86704514  1070540 
 2349000    1.2110696   -1.2728323   -1.2728323  -0.40495206   0.17081772   -1.2728323   0.86788027  1070540 
 2350000    1.2095396   -1.2717077   -1.2717077  -0.40492386   0.17300045   -1.2717077    0.8667838  1070540 
 2351000     1.209951   -1.2720943   -1.2720943  -0.40501569   0.17190524   -1.2720943   0.86707864  1070540 
 2352000     1.209596     -1.27197     -1.27197  -0.40514582   0.16430041     -1.27197   0.86682419  1070540 
 2353000    1.2123575    -1.272964    -1.272964  -0.40416083   0.16800356    -1.272964   0.86880314  1070540 
 2354000    1.2109905   -1.2720719   -1.2720719  -0.40424836   0.16809522   -1.2720719   0.86782354  1070540 
 2355000    1.2106463   -1.2715876   -1.2715876  -0.40401067   0.17143006   -1.2715876    0.8675769  1070540 
 2356000    1.2119545   -1.2725477   -1.2725477  -0.40403334   0.17575743   -1.2725477   0.86851436  1070540 
 2357000    1.2101644   -1.2718722   -1.2718722  -0.40464069    0.1709839   -1.2718722   0.86723153  1070540 
 2358000    1.2086571   -1.2709197   -1.2709197  -0.40476836   0.17169241   -1.2709197   0.86615135  1070540 
 2359000      1.20801   -1.2704964   -1.2704964  -0.40480871   0.16238637   -1.2704964   0.86568769  1070540 
 2360000     1.208675   -1.2708939   -1.2708939   -0.4047297   0.16950778   -1.2708939   0.86616423  1070540 
 2361000    1.2100765   -1.2716183   -1.2716183  -0.40444976   0.17021235   -1.2716183   0.86716857  1070540 
 2362000    1.2094887   -1.2714419   -1.2714419  -0.40469461   0.17917855   -1.2714419   0.86674729  1070540 
 2363000    1.2086537   -1.2707583   -1.2707583  -0.40460941   0.17667603   -1.2707583   0.86614893  1070540 
 2364000    1.2098214   -1.2713142   -1.2713142  -0.40432842   0.16573978   -1.2713142   0.86698575  1070540 
 2365000    1.2094662   -1.2709314   -1.2709314  -0.40420019   0.17048484   -1.2709314   0.86673122  1070540 
 2366000    1.2095774   -1.2710127   -1.2710127  -0.40420187   0.16716074   -1.2710127   0.86681086  1070540 
 2367000    1.2105309   -1.2715132   -1.2715132  -0.40401905   0.16774851   -1.2715132   0.86749418  1070540 
 2368000    1.2102502   -1.2715279   -1.2715279  -0.40423488   0.17366067   -1.2715279   0.86729301  1070540 
 2369000    1.2106964   -1.2711916   -1.2711916  -0.40357881   0.17364338   -1.2711916   0.86761279  1070540 
 2370000     1.210373   -1.2706837   -1.2706837  -0.40330268    0.1700452   -1.2706837   0.86738106  1070540 
 2371000    1.2086425   -1.2698334   -1.2698334   -0.4036925   0.17085136   -1.2698334   0.86614094  1070540 
 2372000    1.2090965   -1.2703098   -1.2703098  -0.40384358   0.16382564   -1.2703098   0.86646626  1070540 
 2373000    1.2095243    -1.270644    -1.270644  -0.40387117   0.17326941    -1.270644   0.86677281  1070540 
 2374000    1.2094686   -1.2706892   -1.2706892  -0.40395628   0.17193849   -1.2706892   0.86673289  1070540 
 2375000    1.2099797   -1.2710952   -1.2710952  -0.40399599   0.16538676   -1.2710952   0.86709917  1070540 
 2376000    1.2103285   -1.2712815   -1.2712815  -0.40393241   0.17219636   -1.2712815   0.86734912  1070540 
 2377000     1.208236   -1.2698717   -1.2698717  -0.40402207   0.17023292   -1.2698717   0.86584964  1070540 
 2378000    1.2100926   -1.2710566   -1.2710566  -0.40387656   0.17646684   -1.2710566   0.86718008  1070540 
 2379000     1.211935   -1.2722003   -1.2722003  -0.40369988   0.16913268   -1.2722003   0.86850037  1070540 
 2380000    1.2093326   -1.2709107   -1.2709107  -0.40427525   0.16993204   -1.2709107   0.86663543  1070540 
 2381000    1.2093831   -1.2710375   -1.2710375  -0.40436587   0.16908352   -1.2710375   0.86667162  1070540 
 2382000    1.2093468    -1.271216    -1.271216  -0.40457038   0.16776923    -1.271216   0.86664562  1070540 
 2383000     1.207661   -1.2699389   -1.2699389  -0.40450133   0.16907606   -1.2699389   0.86543752  1070540 
 2384000    1.2098901   -1.2711223   -1.2711223  -0.40408735   0.17011905   -1.2711223   0.86703498  1070540 
 2385000    1.2092381   -1.2709747   -1.2709747  -0.40440695   0.17676798   -1.2709747   0.86656772  1070540 
 2386000      1.21081   -1.2716288   -1.2716288  -0.40393454   0.17560893   -1.2716288   0.86769422  1070540 
 2387000    1.2083455   -1.2698173   -1.2698173  -0.40388922   0.17271639   -1.2698173   0.86592805  1070540 
 2388000    1.2087129    -1.270251    -1.270251  -0.40405967   0.16993174    -1.270251   0.86619134  1070540 
 2389000    1.2086333   -1.2702254   -1.2702254  -0.40409106   0.17036973   -1.2702254   0.86613435  1070540 
 2390000    1.2094439   -1.2708035   -1.2708035  -0.40408833    0.1738107   -1.2708035    0.8667152  1070540 
 2391000    1.2098502   -1.2707248   -1.2707248  -0.40371844    0.1746172   -1.2707248    0.8670064  1070540 
 2392000     1.211437   -1.2717523   -1.2717523  -0.40360875   0.16957785   -1.2717523   0.86814352  1070540 
 2393000     1.210852   -1.2708159   -1.2708159   -0.4030916   0.18150271   -1.2708159   0.86772433  1070540 
 2394000     1.209647   -1.2699653   -1.2699653  -0.40310455   0.17309255   -1.2699653   0.86686075  1070540 
 2395000    1.2108618   -1.2708474   -1.2708474  -0.40311608   0.17293732   -1.2708474   0.86773133  1070540 
 2396000    1.2116538   -1.2718864   -1.2718864   -0.4035875   0.17460301   -1.2718864   0.86829889  1070540 
 2397000    1.2104991   -1.2708898   -1.2708898  -0.40341839   0.17797709   -1.2708898   0.86747139  1070540 
 2398000     1.210681   -1.2716205   -1.2716205  -0.40401874   0.17083466   -1.2716205   0.86760176  1070540 
 2399000    1.2109598   -1.2718618   -1.2718618   -0.4040603   0.17307452   -1.2718618   0.86780154  1070540 
 2400000    1.2114298   -1.2719319   -1.2719319  -0.40379354   0.17224569   -1.2719319   0.86813837  1070540 
 2401000     1.209955   -1.2711372   -1.2711372  -0.40405571   0.17365938   -1.2711372   0.86708147  1070540 
 2402000    1.2089972   -1.2703638   -1.2703638   -0.4039687   0.17675655   -1.2703638   0.86639507  1070540 
 2403000    1.2099325   -1.2710947   -1.2710947  -0.40402936   0.17040909   -1.2710947   0.86706533  1070540 
 2404000    1.2101644   -1.2711202   -1.2711202  -0.40388867   0.17522225   -1.2711202   0.86723151  1070540 
 2405000    1.2101565   -1.2708565   -1.2708565  -0.40363062   0.17328886   -1.2708565   0.86722587  1070540 
 2406000    1.2121259   -1.2721056   -1.2721056  -0.40346842   0.16949458   -1.2721056   0.86863722  1070540 
 2407000    1.2110972   -1.2714826   -1.2714826  -0.40358257   0.17287988   -1.2714826   0.86789998  1070540 
 2408000    1.2121831   -1.2720705   -1.2720705  -0.40339235   0.17432511   -1.2720705   0.86867816  1070540 
 2409000    1.2116906   -1.2714626   -1.2714626  -0.40313731   0.17339717   -1.2714626   0.86832528  1070540 
 2410000    1.2117071   -1.2718785   -1.2718785  -0.40354147   0.17432443   -1.2718785   0.86833705  1070540 
 2411000    1.2103822   -1.2713558   -1.2713558   -0.4039682   0.17269475   -1.2713558   0.86738763  1070540 
 2412000    1.2114096   -1.2720756   -1.2720756  -0.40395168   0.16985113   -1.2720756   0.86812388  1070540 
 2413000    1.2098918    -1.270618    -1.270618  -0.40358184   0.17030958    -1.270618   0.86703619  1070540 
 2414000    1.2092336   -1.2701247   -1.2701247   -0.4035602   0.16948345   -1.2701247   0.86656452  1070540 
 2415000    1.2098426    -1.270606    -1.270606  -0.40360504   0.17434792    -1.270606   0.86700094  1070540 
 2416000    1.2111133   -1.2717728   -1.2717728  -0.40386122    0.1708397   -1.2717728   0.86791158  1070540 
 2417000    1.2120583    -1.272157    -1.272157  -0.40356821   0.17252101    -1.272157   0.86858874  1070540 
 2418000    1.2102796   -1.2710378   -1.2710378  -0.40372367   0.17687249   -1.2710378   0.86731411  1070540 
 2419000     1.210832   -1.2707488   -1.2707488  -0.40303879   0.17145436   -1.2707488   0.86770998  1070540 
 2420000    1.2096453   -1.2700215   -1.2700215    -0.403162   0.16393912   -1.2700215   0.86685954  1070540 
 2421000    1.2102492   -1.2706841   -1.2706841  -0.40339172   0.16357003   -1.2706841   0.86729234  1070540 
 2422000    1.2108931   -1.2716162   -1.2716162  -0.40386247   0.16425975   -1.2716162   0.86775375  1070540 
 2423000    1.2102105   -1.2708926   -1.2708926  -0.40362797   0.17812864   -1.2708926   0.86726459  1070540 
 2424000    1.2094352   -1.2702088   -1.2702088  -0.40349981   0.16711089   -1.2702088   0.86670896  1070540 
 2425000    1.2122974   -1.2721524   -1.2721524  -0.40339226   0.17165035   -1.2721524   0.86876012  1070540 
 2426000    1.2113112   -1.2711125   -1.2711125  -0.40305912   0.17034136   -1.2711125   0.86805336  1070540 
 2427000    1.2114441   -1.2713248   -1.2713248   -0.4031762   0.17153879   -1.2713248    0.8681486  1070540 
 2428000    1.2092626   -1.2698422   -1.2698422  -0.40325686   0.16989312   -1.2698422    0.8665853  1070540 
 2429000    1.2115703   -1.2715245   -1.2715245  -0.40328543   0.16920096   -1.2715245   0.86823903  1070540 
 2430000    1.2104597   -1.2708026   -1.2708026   -0.4033594   0.17366514   -1.2708026   0.86744316  1070540 
 2431000    1.2112606   -1.2707079   -1.2707079  -0.40269086   0.17589916   -1.2707079   0.86801709  1070540 
 2432000    1.2107666   -1.2705402   -1.2705402  -0.40287716   0.17540702   -1.2705402   0.86766307  1070540 
 2433000    1.2104314   -1.2697959   -1.2697959  -0.40237303   0.17530105   -1.2697959   0.86742285  1070540 
 2434000    1.2113012   -1.2705805   -1.2705805  -0.40253422   0.17749987   -1.2705805   0.86804623  1070540 
 2435000    1.2113299   -1.2708076   -1.2708076  -0.40274084   0.16825074   -1.2708076   0.86806679  1070540 
 2436000    1.2121812   -1.2718902   -1.2718902  -0.40321329   0.16540458   -1.2718902   0.86867686  1070540 
 2437000    1.2101419   -1.2705303   -1.2705303  -0.40331489   0.16649923   -1.2705303    0.8672154  1070540 
 2438000    1.2103992    -1.271094    -1.271094  -0.40369417   0.17457053    -1.271094   0.86739981  1070540 
 2439000    1.2118567   -1.2716296   -1.2716296  -0.40318539   0.17882413   -1.2716296   0.86844426  1070540 
 2440000    1.2095042   -1.2705329   -1.2705329   -0.4037745   0.17739026   -1.2705329   0.86675841  1070540 
 2441000     1.209975   -1.2707437   -1.2707437  -0.40364789   0.17149223   -1.2707437   0.86709585  1070540 
 2442000    1.2088644   -1.2700503   -1.2700503  -0.40375039   0.16967263   -1.2700503   0.86629994  1070540 
 2443000    1.2085524   -1.2697343   -1.2697343  -0.40365796   0.17180907   -1.2697343   0.86607635  1070540 
 2444000    1.2102411   -1.2712316   -1.2712316  -0.40394507   0.17677556   -1.2712316   0.86728649  1070540 
 2445000    1.2093842   -1.2708866   -1.2708866  -0.40421416   0.16354741   -1.2708866   0.86667246  1070540 
 2446000    1.2084229   -1.2704462   -1.2704462  -0.40446269   0.17031607   -1.2704462   0.86598352  1070540 
 2447000      1.21002   -1.2710218   -1.2710218  -0.40389375   0.17409492   -1.2710218   0.86712804  1070540 
 2448000     1.208666   -1.2699061   -1.2699061  -0.40374834   0.16866327   -1.2699061   0.86615779  1070540 
 2449000    1.2107545   -1.2707757   -1.2707757  -0.40312127   0.17620373   -1.2707757   0.86765439  1070540 
 2450000    1.2096912   -1.2705356   -1.2705356  -0.40364316   0.16890076   -1.2705356   0.86689244  1070540 
 2451000    1.2103039   -1.2707497   -1.2707497  -0.40341818   0.17100366   -1.2707497   0.86733149  1070540 
 2452000    1.2104232   -1.2703665   -1.2703665  -0.40294948   0.17446578   -1.2703665   0.86741703  1070540 
 2453000    1.2099051   -1.2699615   -1.2699615  -0.40291571   0.16661155   -1.2699615   0.86704575  1070540 
 2454000    1.2108633   -1.2705709   -1.2705709  -0.40283853   0.17596594   -1.2705709   0.86773238  1070540 
 2455000    1.2129816   -1.2715355   -1.2715355  -0.40228513   0.17633802   -1.2715355    0.8692504  1070540 
 2456000    1.2116269   -1.2706859   -1.2706859  -0.40240635   0.17628525   -1.2706859   0.86827958  1070540 
 2457000    1.2107732   -1.2704799   -1.2704799  -0.40281211   0.16940964   -1.2704799   0.86766784  1070540 
 2458000    1.2115521    -1.271389    -1.271389  -0.40316301   0.18109512    -1.271389   0.86822598  1070540 
 2459000    1.2115078   -1.2709951   -1.2709951  -0.40280082   0.16678546   -1.2709951   0.86819424  1070540 
 2460000    1.2109388   -1.2705094   -1.2705094  -0.40272288   0.17385728   -1.2705094   0.86778649  1070540 
 2461000    1.2105475   -1.2703318   -1.2703318  -0.40282569   0.17138184   -1.2703318   0.86750609  1070540 
 2462000     1.210715   -1.2702232   -1.2702232  -0.40259702   0.17479726   -1.2702232   0.86762613  1070540 
 2463000    1.2127857   -1.2717453   -1.2717453  -0.40263528   0.17431795   -1.2717453   0.86911004  1070540 
 2464000    1.2127801   -1.2714747   -1.2714747  -0.40236867   0.16754413   -1.2714747   0.86910601  1070540 
 2465000     1.212544   -1.2715212   -1.2715212  -0.40258439   0.16993327   -1.2715212   0.86893683  1070540 
 2466000    1.2127546   -1.2717346   -1.2717346  -0.40264683    0.1722423   -1.2717346   0.86908776  1070540 
 2467000    1.2124836   -1.2708512   -1.2708512  -0.40195768   0.17528758   -1.2708512   0.86889353  1070540 
 2468000    1.2118461   -1.2705995   -1.2705995  -0.40216275   0.17301507   -1.2705995   0.86843672  1070540 
 2469000    1.2132491   -1.2718782   -1.2718782   -0.4024361   0.16172956   -1.2718782    0.8694421  1070540 
 2470000    1.2110472   -1.2703253   -1.2703253  -0.40246109   0.17494678   -1.2703253   0.86786417  1070540 
 2471000    1.2093336   -1.2692375   -1.2692375  -0.40260139   0.17287557   -1.2692375   0.86663616  1070540 
 2472000    1.2107807   -1.2708926   -1.2708926  -0.40321934   0.17654925   -1.2708926   0.86767322  1070540 
 2473000    1.2112715   -1.2708117   -1.2708117  -0.40278681    0.1724692   -1.2708117   0.86802492  1070540 
 2474000    1.2109922   -1.2707349   -1.2707349   -0.4029101   0.17062165   -1.2707349   0.86782476  1070540 
 2475000    1.2106078   -1.2704773   -1.2704773  -0.40292798   0.16786385   -1.2704773    0.8675493  1070540 
 2476000    1.2095481   -1.2695146   -1.2695146  -0.40272472   0.16846967   -1.2695146   0.86678989  1070540 
 2477000    1.2104915   -1.2700921   -1.2700921  -0.40262615   0.16798606   -1.2700921   0.86746598  1070540 
 2478000    1.2099615   -1.2696849   -1.2696849  -0.40259875   0.16855052   -1.2696849   0.86708612  1070540 
 2479000    1.2106745   -1.2700322   -1.2700322  -0.40243509   0.17304618   -1.2700322   0.86759711  1070540 
 2480000    1.2099851   -1.2699811   -1.2699811  -0.40287797   0.18064769   -1.2699811   0.86710309  1070540 
 2481000    1.2108455   -1.2705759   -1.2705759  -0.40285628   0.17496605   -1.2705759   0.86771965  1070540 
 2482000    1.2109817   -1.2704804   -1.2704804  -0.40266321   0.17434867   -1.2704804   0.86781722  1070540 
 2483000    1.2106572   -1.2708698   -1.2708698  -0.40328505    0.1762465   -1.2708698   0.86758472  1070540 
 2484000    1.2088698   -1.2696487   -1.2696487   -0.4033449   0.17198956   -1.2696487   0.86630377  1070540 
 2485000    1.2113083   -1.2711794   -1.2711794  -0.40312818   0.16815346   -1.2711794   0.86805127  1070540 
 2486000    1.2108336   -1.2703432   -1.2703432  -0.40263206   0.16698913   -1.2703432    0.8677111  1070540 
 2487000    1.2112798   -1.2704317   -1.2704317  -0.40240088   0.17522648   -1.2704317   0.86803085  1070540 
 2488000    1.2109299   -1.2699926   -1.2699926   -0.4022125   0.17325403   -1.2699926   0.86778014  1070540 
 2489000    1.2124005    -1.271217    -1.271217  -0.40238301   0.16945052    -1.271217   0.86883396  1070540 
 2490000     1.212389   -1.2711649   -1.2711649  -0.40233912   0.17279479   -1.2711649   0.86882574  1070540 
 2491000     1.211849   -1.2705466   -1.2705466  -0.40210787   0.17837024   -1.2705466   0.86843877  1070540 
 2492000    1.2116367   -1.2704156   -1.2704156  -0.40212894   0.17278557   -1.2704156   0.86828661  1070540 
 2493000    1.2112542   -1.2699493   -1.2699493  -0.40193678   0.17471198   -1.2699493   0.86801253  1070540 
 2494000    1.2114196   -1.2700341   -1.2700341  -0.40190308   0.17101913   -1.2700341   0.86813104  1070540 
 2495000    1.2118081   -1.2700593   -1.2700593  -0.40164986   0.17698565   -1.2700593   0.86840947  1070540 
 2496000    1.2122418   -1.2706174   -1.2706174  -0.40189712   0.17977276   -1.2706174   0.86872026  1070540 
 2497000    1.2125489    -1.270943    -1.270943  -0.40200266   0.16910811    -1.270943   0.86894033  1070540 
 2498000     1.212682   -1.2712479   -1.2712479  -0.40221223   0.16815305   -1.2712479    0.8690357  1070540 
 2499000    1.2109073   -1.2705684   -1.2705684  -0.40280451   0.16767954   -1.2705684   0.86776391  1070540 
 2500000    1.2111377   -1.2702115   -1.2702115  -0.40228246   0.17481919   -1.2702115   0.86792907  1070540 
 2501000      1.21225   -1.2709502   -1.2709502    -0.402224   0.16825005   -1.2709502   0.86872616  1070540 
 2502000    1.2114339   -1.2703225   -1.2703225  -0.40218124   0.17990288   -1.2703225   0.86814129  1070540 
 2503000    1.2115646   -1.2708841   -1.2708841  -0.40264913   0.17866414   -1.2708841   0.86823498  1070540 
 2504000    1.2120301   -1.2705691   -1.2705691  -0.40200054   0.17527848   -1.2705691   0.86856858  1070540 
 2505000    1.2119648   -1.2709952   -1.2709952  -0.40247348   0.17756223   -1.2709952   0.86852175  1070540 
 2506000    1.2110305   -1.2701485   -1.2701485  -0.40229633   0.17643691   -1.2701485   0.86785219  1070540 
 2507000    1.2110495   -1.2693883   -1.2693883  -0.40152241   0.16820512   -1.2693883   0.86786584  1070540 
 2508000    1.2122712   -1.2703493   -1.2703493  -0.40160793   0.17648932   -1.2703493   0.86874135  1070540 
 2509000    1.2132976   -1.2713987   -1.2713987  -0.40192176   0.17002637   -1.2713987    0.8694769  1070540 
 2510000    1.2135732    -1.271029    -1.271029  -0.40135469   0.16750987    -1.271029   0.86967434  1070540 
 2511000    1.2105698   -1.2690912   -1.2690912  -0.40156914   0.17181686   -1.2690912   0.86752204  1070540 
 2512000    1.2131585   -1.2714583   -1.2714583  -0.40208113   0.17671004   -1.2714583   0.86937715  1070540 
 2513000    1.2129688   -1.2714033   -1.2714033  -0.40216203   0.17565163   -1.2714033   0.86924127  1070540 
 2514000    1.2106465    -1.269789    -1.269789  -0.40221198   0.17161662    -1.269789   0.86757704  1070540 
 2515000    1.2110205   -1.2703957   -1.2703957   -0.4025507   0.17387328   -1.2703957   0.86784505  1070540 
 2516000    1.2123666   -1.2712053   -1.2712053  -0.40239555   0.17670764   -1.2712053   0.86880971  1070540 
 2517000    1.2111341   -1.2705365   -1.2705365  -0.40261003   0.17020872   -1.2705365   0.86792643  1070540 
 2518000     1.210294   -1.2699298   -1.2699298  -0.40260532   0.18030783   -1.2699298   0.86732444  1070540 
 2519000    1.2131907   -1.2720414   -1.2720414  -0.40264117   0.17265742   -1.2720414   0.86940026  1070540 
 2520000    1.2121058   -1.2711672   -1.2711672  -0.40254434   0.17186473   -1.2711672   0.86862282  1070540 
 2521000    1.2125503   -1.2713509   -1.2713509  -0.40240957   0.17055535   -1.2713509   0.86894131  1070540 
 2522000    1.2123225   -1.2712291   -1.2712291  -0.40245104   0.17197738   -1.2712291   0.86877806  1070540 
 2523000    1.2110453   -1.2701822   -1.2701822  -0.40231934   0.17363372   -1.2701822   0.86786281  1070540 
 2524000    1.2111831   -1.2701802   -1.2701802  -0.40221867   0.17457383   -1.2701802   0.86796156  1070540 
 2525000    1.2107588   -1.2700886   -1.2700886  -0.40243106   0.17495584   -1.2700886   0.86765749  1070540 
 2526000    1.2121799   -1.2712105   -1.2712105  -0.40253462    0.1712649   -1.2712105   0.86867588  1070540 
 2527000    1.2116079   -1.2705665   -1.2705665  -0.40230051   0.17746866   -1.2705665   0.86826596  1070540 
 2528000    1.2108269    -1.270466    -1.270466  -0.40275963   0.17582388    -1.270466   0.86770633  1070540 
 2529000    1.2121033   -1.2717575   -1.2717575  -0.40313648   0.17028918   -1.2717575   0.86862102  1070540 
 2530000    1.2113219   -1.2709054   -1.2709054  -0.40284437   0.17627099   -1.2709054   0.86806106  1070540 
 2531000    1.2113096    -1.270724    -1.270724  -0.40267178   0.17476493    -1.270724   0.86805225  1070540 
 2532000    1.2121589   -1.2710067   -1.2710067  -0.40234585   0.17748397   -1.2710067   0.86866085  1070540 
 2533000    1.2114357   -1.2702896   -1.2702896  -0.40214696   0.17914098   -1.2702896    0.8681426  1070540 
 2534000     1.211721   -1.2705124   -1.2705124  -0.40216534    0.1819777   -1.2705124   0.86834704  1070540 
 2535000    1.2114384   -1.2700528   -1.2700528  -0.40190823   0.17401416   -1.2700528   0.86814453  1070540 
 2536000    1.2139347   -1.2715711   -1.2715711  -0.40163764   0.17752846   -1.2715711   0.86993342  1070540 
 2537000    1.2119177   -1.2703296   -1.2703296  -0.40184161   0.17078333   -1.2703296   0.86848802  1070540 
 2538000    1.2134634    -1.271837    -1.271837  -0.40224128   0.17968382    -1.271837   0.86959568  1070540 
 2539000    1.2132448    -1.271553    -1.271553    -0.402114   0.16214376    -1.271553   0.86943905  1070540 
 2540000    1.2136389   -1.2720083   -1.2720083  -0.40228688   0.17429494   -1.2720083   0.86972142  1070540 
 2541000    1.2116042   -1.2701009   -1.2701009  -0.40183753   0.17166716   -1.2701009   0.86826334  1070540 
 2542000    1.2126364   -1.2707534   -1.2707534  -0.40175035   0.17267834   -1.2707534   0.86900305  1070540 
 2543000    1.2120599   -1.2697703   -1.2697703   -0.4011804   0.17173948   -1.2697703    0.8685899  1070540 
 2544000    1.2115614   -1.2699464   -1.2699464  -0.40171368   0.18016319   -1.2699464   0.86823267  1070540 
 2545000    1.2130241   -1.2706039   -1.2706039  -0.40132301   0.17236697   -1.2706039   0.86928087  1070540 
 2546000    1.2116151   -1.2696722   -1.2696722  -0.40140104   0.17262327   -1.2696722   0.86827112  1070540 
 2547000    1.2126999   -1.2705014   -1.2705014  -0.40145283   0.16910699   -1.2705014   0.86904857  1070540 
 2548000    1.2134076    -1.270845    -1.270845  -0.40128926   0.16757592    -1.270845    0.8695557  1070540 
 2549000    1.2127538   -1.2704573   -1.2704573  -0.40137009   0.17339212   -1.2704573   0.86908719  1070540 
 2550000    1.2125547   -1.2701355   -1.2701355  -0.40119095   0.16966148   -1.2701355   0.86894451  1070540 
 2551000    1.2136201   -1.2708237   -1.2708237  -0.40111572   0.16543902   -1.2708237   0.86970799  1070540 
 2552000    1.2114335   -1.2696854   -1.2696854  -0.40154436   0.17517799   -1.2696854     0.868141  1070540 
 2553000     1.214051   -1.2713101   -1.2713101  -0.40129333   0.17097559   -1.2713101   0.87001675  1070540 
 2554000    1.2124373   -1.2699906   -1.2699906  -0.40113026   0.17847289   -1.2699906   0.86886035  1070540 
 2555000    1.2123948   -1.2699432   -1.2699432  -0.40111334   0.17592544   -1.2699432   0.86882991  1070540 
 2556000    1.2126374   -1.2701739   -1.2701739  -0.40117016   0.17255162   -1.2701739   0.86900376  1070540 
 2557000    1.2125774   -1.2698939   -1.2698939   -0.4009331   0.17497409   -1.2698939   0.86896075  1070540 
 2558000    1.2137237   -1.2705754   -1.2705754  -0.40079314   0.17657866   -1.2705754   0.86978222  1070540 
 2559000    1.2129479   -1.2706178   -1.2706178  -0.40139155   0.17728003   -1.2706178   0.86922625  1070540 
 2560000    1.2120411   -1.2692306   -1.2692306  -0.40065418    0.1725345   -1.2692306   0.86857641  1070540 
 2561000    1.2140509    -1.271233    -1.271233  -0.40121628   0.16759053    -1.271233   0.87001669  1070540 
 2562000     1.212578   -1.2698924   -1.2698924  -0.40093125   0.16984351   -1.2698924   0.86896118  1070540 
 2563000    1.2131462   -1.2703191   -1.2703191  -0.40095075   0.16834301   -1.2703191   0.86936834  1070540 
 2564000    1.2114021   -1.2693061   -1.2693061   -0.4011876   0.17286913   -1.2693061    0.8681185  1070540 
 2565000    1.2139752   -1.2709005   -1.2709005  -0.40093804   0.17642417   -1.2709005   0.86996248  1070540 
 2566000    1.2124232   -1.2699254   -1.2699254  -0.40107519   0.16627068   -1.2699254   0.86885026  1070540 
 2567000    1.2119274   -1.2701718   -1.2701718  -0.40167685   0.16602467   -1.2701718   0.86849494  1070540 
 2568000    1.2144914   -1.2712301   -1.2712301  -0.40089775   0.17937086   -1.2712301    0.8703324  1070540 
 2569000    1.2124929   -1.2701943   -1.2701943  -0.40129411   0.16939969   -1.2701943   0.86890019  1070540 
 2570000    1.2133799   -1.2710217   -1.2710217  -0.40148586   0.17778652   -1.2710217   0.86953583  1070540 
 2571000    1.2122878   -1.2704992   -1.2704992  -0.40174599   0.16999841   -1.2704992   0.86875325  1070540 
 2572000    1.2122045     -1.27036     -1.27036  -0.40166643   0.17046513     -1.27036   0.86869355  1070540 
 2573000    1.2116071   -1.2700716   -1.2700716  -0.40180623   0.17441451   -1.2700716   0.86826539  1070540 
 2574000    1.2111932    -1.269652    -1.269652  -0.40168313   0.17920005    -1.269652   0.86796883  1070540 
 2575000    1.2124186   -1.2712467   -1.2712467  -0.40239974   0.17429282   -1.2712467   0.86884695  1070540 
 2576000    1.2130408   -1.2715825   -1.2715825  -0.40228963   0.18000915   -1.2715825   0.86929287  1070540 
 2577000    1.2128846   -1.2711422   -1.2711422  -0.40196132   0.16664916   -1.2711422   0.86918088  1070540 
 2578000    1.2130761   -1.2714325   -1.2714325  -0.40211437   0.17799464   -1.2714325   0.86931812  1070540 
 2579000    1.2133095   -1.2710974   -1.2710974  -0.40161199   0.17035142   -1.2710974   0.86948541  1070540 
 2580000    1.2106295   -1.2698207   -1.2698207  -0.40225586   0.17559326   -1.2698207   0.86756482  1070540 
 2581000    1.2122229   -1.2707378   -1.2707378  -0.40203106   0.16761775   -1.2707378   0.86870675  1070540 
 2582000    1.2128124   -1.2708584   -1.2708584  -0.40172927   0.17677894   -1.2708584   0.86912915  1070540 
 2583000    1.2119732    -1.270763    -1.270763  -0.40223528   0.17163561    -1.270763   0.86852775  1070540 
 2584000    1.2100833   -1.2690705   -1.2690705  -0.40189708   0.17834876   -1.2690705   0.86717346  1070540 
 2585000    1.2107186   -1.2697927   -1.2697927  -0.40216397    0.1761224   -1.2697927   0.86762868  1070540 
 2586000    1.2109095   -1.2697866   -1.2697866  -0.40202104   0.16513128   -1.2697866   0.86776553  1070540 
 2587000    1.2120227   -1.2702772   -1.2702772  -0.40171395   0.17611858   -1.2702772   0.86856327  1070540 
 2588000    1.2127489   -1.2708759   -1.2708759  -0.40179224   0.16692414   -1.2708759   0.86908365  1070540 
 2589000    1.2097889   -1.2689265   -1.2689265  -0.40196401   0.16923793   -1.2689265   0.86696247  1070540 
 2590000    1.2123406   -1.2705612   -1.2705612  -0.40177017   0.17355106   -1.2705612   0.86879107  1070540 
 2591000    1.2120492   -1.2701765   -1.2701765  -0.40159429   0.18334836   -1.2701765   0.86858225  1070540 
 2592000    1.2134179    -1.270907    -1.270907  -0.40134397   0.17688629    -1.270907   0.86956304  1070540 
 2593000    1.2124674   -1.2696954   -1.2696954  -0.40081347   0.18121823   -1.2696954    0.8688819  1070540 
 2594000    1.2143779   -1.2706509   -1.2706509  -0.40039989    0.1794891   -1.2706509   0.87025103  1070540 
 2595000    1.2139497   -1.2700323   -1.2700323  -0.40008816   0.17851178   -1.2700323   0.86994416  1070540 
 2596000    1.2142907   -1.2697933   -1.2697933  -0.39960475   0.17561323   -1.2697933   0.87018853  1070540 
 2597000    1.2140579   -1.2699404   -1.2699404  -0.39991868   0.18111345   -1.2699404   0.87002172  1070540 
 2598000    1.2137204   -1.2695243   -1.2695243  -0.39974446    0.1806788   -1.2695243   0.86977987  1070540 
 2599000    1.2134009   -1.2693157   -1.2693157   -0.3997648   0.17842874   -1.2693157   0.86955091  1070540 
 2600000    1.2158175   -1.2712818   -1.2712818  -0.39999918   0.17295186   -1.2712818   0.87128265  1070540 
 2601000    1.2131094   -1.2698405   -1.2698405  -0.40049843   0.18274195   -1.2698405   0.86934203  1070540 
 2602000    1.2138939   -1.2703633   -1.2703633  -0.40045906   0.18130695   -1.2703633    0.8699042  1070540 
 2603000    1.2136572   -1.2707435   -1.2707435  -0.40100895   0.17168522   -1.2707435   0.86973457  1070540 
 2604000    1.2127188   -1.2697866   -1.2697866  -0.40072448   0.17266431   -1.2697866   0.86906209  1070540 
 2605000    1.2132847   -1.2707909   -1.2707909  -0.40132325   0.17030305   -1.2707909   0.86946764  1070540 
 2606000    1.2139348   -1.2707778   -1.2707778  -0.40084431    0.1721953   -1.2707778   0.86993348  1070540 
 2607000    1.2143099   -1.2710282   -1.2710282  -0.40082586   0.17517163   -1.2710282   0.87020231  1070540 
 2608000    1.2147597   -1.2711992   -1.2711992  -0.40067458   0.17278526   -1.2711992   0.87052465  1070540 
 2609000    1.2134712   -1.2706805   -1.2706805  -0.40107923   0.17483206   -1.2706805    0.8696013  1070540 
 2610000    1.2121309   -1.2702495   -1.2702495  -0.40160873    0.1780619   -1.2702495    0.8686408  1070540 
 2611000    1.2124393   -1.2698864   -1.2698864  -0.40102463    0.1765833   -1.2698864   0.86886179  1070540 
 2612000    1.2126682   -1.2705716   -1.2705716  -0.40154578    0.1652567   -1.2705716   0.86902585  1070540 
 2613000     1.213561   -1.2713181   -1.2713181  -0.40165242   0.17292223   -1.2713181   0.86966565  1070540 
 2614000    1.2125688   -1.2704705   -1.2704705  -0.40151591    0.1758075   -1.2704705   0.86895461  1070540 
 2615000    1.2128149   -1.2709802   -1.2709802  -0.40184928    0.1736896   -1.2709802   0.86913093  1070540 
 2616000    1.2127131   -1.2703854   -1.2703854  -0.40132735   0.17752707   -1.2703854   0.86905803  1070540 
 2617000    1.2122441   -1.2700959   -1.2700959  -0.40137403   0.17663333   -1.2700959   0.86872191  1070540 
 2618000    1.2117733   -1.2695537   -1.2695537  -0.40116926   0.18346233   -1.2695537   0.86838449  1070540 
 2619000     1.213324   -1.2704813   -1.2704813  -0.40098548   0.16714532   -1.2704813    0.8694958  1070540 
 2620000    1.2127027   -1.2701783   -1.2701783  -0.40112776   0.17698865   -1.2701783   0.86905057  1070540 
 2621000    1.2121685   -1.2694665   -1.2694665  -0.40079875   0.17562478   -1.2694665    0.8686677  1070540 
 2622000    1.2135142   -1.2705064   -1.2705064  -0.40087431    0.1732974   -1.2705064    0.8696321  1070540 
 2623000    1.2136199   -1.2705006   -1.2705006  -0.40079269   0.17009851   -1.2705006   0.86970786  1070540 
 2624000    1.2123123   -1.2700984   -1.2700984  -0.40132764   0.16784198   -1.2700984   0.86877076  1070540 
 2625000     1.214635   -1.2710718   -1.2710718  -0.40063652   0.16877588   -1.2710718   0.87043531  1070540 
 2626000    1.2120708   -1.2695405   -1.2695405  -0.40094284   0.17153437   -1.2695405   0.86859771  1070540 
 2627000    1.2149194   -1.2714931   -1.2714931  -0.40085402    0.1793287   -1.2714931   0.87063906  1070540 
 2628000    1.2148385   -1.2708718   -1.2708718   -0.4002907   0.17244883   -1.2708718   0.87058108  1070540 
 2629000     1.214798   -1.2708332   -1.2708332   -0.4002811   0.17414069   -1.2708332   0.87055207  1070540 
 2630000    1.2145925   -1.2711445   -1.2711445  -0.40073969   0.17566157   -1.2711445   0.87040485  1070540 
 2631000    1.2130075   -1.2698801   -1.2698801  -0.40061112     0.177726   -1.2698801   0.86926901  1070540 
 2632000    1.2151748   -1.2713515   -1.2713515  -0.40052942   0.18184011   -1.2713515   0.87082212  1070540 
 2633000    1.2161241    -1.272279    -1.272279  -0.40077658   0.17632844    -1.272279    0.8715024  1070540 
 2634000    1.2127443   -1.2700225   -1.2700225  -0.40094219   0.17575439   -1.2700225   0.86908034  1070540 
 2635000    1.2138476   -1.2709905   -1.2709905  -0.40111948   0.17528267   -1.2709905     0.869871  1070540 
 2636000    1.2147145   -1.2720121   -1.2720121  -0.40151981   0.17483589   -1.2720121   0.87049225  1070540 
 2637000    1.2142428   -1.2711964   -1.2711964  -0.40104222   0.18227422   -1.2711964   0.87015422  1070540 
 2638000    1.2122248   -1.2696168   -1.2696168  -0.40090872   0.16925114   -1.2696168   0.86870806  1070540 
 2639000    1.2128878   -1.2701624   -1.2701624  -0.40097912   0.16525134   -1.2701624   0.86918323  1070540 
 2640000    1.2132375   -1.2705938   -1.2705938  -0.40115995    0.1764557   -1.2705938   0.86943383  1070540 
 2641000     1.212144   -1.2698636   -1.2698636  -0.40121347    0.1737348   -1.2698636   0.86865018  1070540 
 2642000    1.2142221   -1.2717345   -1.2717345  -0.40159519   0.17297148   -1.2717345   0.87013935  1070540 
 2643000    1.2140291   -1.2713531   -1.2713531  -0.40135201   0.17446857   -1.2713531    0.8700011  1070540 
 2644000    1.2149836   -1.2722498   -1.2722498  -0.40156472    0.1726034   -1.2722498   0.87068511  1070540 
 2645000    1.2142848   -1.2719887   -1.2719887  -0.40180432   0.17491567   -1.2719887   0.87018434  1070540 
 2646000     1.213293   -1.2708776   -1.2708776    -0.401404   0.18039746   -1.2708776   0.86947359  1070540 
 2647000    1.2146051   -1.2712539   -1.2712539  -0.40084007   0.17395295   -1.2712539   0.87041384  1070540 
 2648000    1.2162439   -1.2720767   -1.2720767  -0.40048842   0.17127679   -1.2720767   0.87158827  1070540 
 2649000    1.2161836   -1.2725504   -1.2725504  -0.40100541   0.16813477   -1.2725504   0.87154502  1070540 
 2650000    1.2151675   -1.2716104   -1.2716104  -0.40079351   0.18070014   -1.2716104   0.87081692  1070540 
 2651000    1.2142634   -1.2713298   -1.2713298  -0.40116083   0.17338122   -1.2713298   0.87016899  1070540 
 2652000     1.213566   -1.2701053   -1.2701053  -0.40043611   0.17177398   -1.2701053    0.8696692  1070540 
 2653000     1.214295   -1.2705791   -1.2705791  -0.40038742   0.17355361   -1.2705791   0.87019166  1070540 
 2654000    1.2137687   -1.2707565   -1.2707565  -0.40094205   0.18076861   -1.2707565   0.86981445  1070540 
 2655000    1.2161629   -1.2721862   -1.2721862  -0.40065598   0.17901776   -1.2721862   0.87153022  1070540 
 2656000    1.2128273   -1.2699374   -1.2699374  -0.40079761   0.16775889   -1.2699374   0.86913982  1070540 
 2657000    1.2145559   -1.2711713   -1.2711713  -0.40079274   0.17399554   -1.2711713   0.87037861  1070540 
 2658000    1.2151558   -1.2712508   -1.2712508  -0.40044233   0.17295291   -1.2712508   0.87080847  1070540 
 2659000    1.2157795   -1.2715881   -1.2715881  -0.40033266   0.17146609   -1.2715881   0.87125545  1070540 
 2660000    1.2141098   -1.2703943   -1.2703943  -0.40033541   0.16988881   -1.2703943   0.87005892  1070540 
 2661000    1.2135077   -1.2702418   -1.2702418   -0.4006144   0.17830991   -1.2702418   0.86962743  1070540 
 2662000    1.2136396    -1.270035    -1.270035  -0.40031306   0.17699997    -1.270035   0.86972196  1070540 
 2663000    1.2143237    -1.270206    -1.270206  -0.39999381   0.17527217    -1.270206   0.87021223  1070540 
 2664000     1.214427   -1.2701143   -1.2701143  -0.39982806   0.17868151   -1.2701143   0.87028625  1070540 
 2665000    1.2132788   -1.2690204   -1.2690204  -0.39955701   0.17216319   -1.2690204    0.8694634  1070540 
 2666000    1.2155712    -1.270714    -1.270714  -0.39960781   0.17343316    -1.270714    0.8711062  1070540 
 2667000    1.2159554   -1.2712016   -1.2712016  -0.39982014    0.1731968   -1.2712016   0.87138148  1070540 
 2668000    1.2148143   -1.2703065   -1.2703065  -0.39974273   0.18066851   -1.2703065   0.87056375  1070540 
 2669000    1.2127348   -1.2690863   -1.2690863  -0.40001276   0.17664881   -1.2690863   0.86907357  1070540 
 2670000    1.2140208   -1.2700632   -1.2700632  -0.40006806   0.17853419   -1.2700632   0.86999515  1070540 
 2671000    1.2149439   -1.2707804   -1.2707804  -0.40012371   0.17202491   -1.2707804   0.87065668  1070540 
 2672000    1.2143363   -1.2702655   -1.2702655   -0.4000443   0.18205457   -1.2702655   0.87022122  1070540 
 2673000    1.2144721   -1.2700229   -1.2700229  -0.39970439   0.17616134   -1.2700229   0.87031855  1070540 
 2674000    1.2164092   -1.2716632   -1.2716632  -0.39995648   0.16390419   -1.2716632   0.87170668  1070540 
 2675000    1.2149892   -1.2700113   -1.2700113  -0.39932221    0.1675067   -1.2700113   0.87068912  1070540 
 2676000    1.2138884   -1.2692086   -1.2692086   -0.3993084   0.18009134   -1.2692086   0.86990023  1070540 
 2677000    1.2150654   -1.2696432   -1.2696432  -0.39889942   0.18146008   -1.2696432   0.87074373  1070540 
 2678000    1.2161123   -1.2706968   -1.2706968  -0.39920289   0.17155095   -1.2706968   0.87149391  1070540 
 2679000    1.2148443   -1.2696949   -1.2696949  -0.39910963   0.17488975   -1.2696949   0.87058527  1070540 
 2680000     1.213652   -1.2680851   -1.2680851  -0.39835427    0.1732048   -1.2680851   0.86973082  1070540 
 2681000    1.2150717   -1.2689156   -1.2689156  -0.39816734   0.17632773   -1.2689156   0.87074822  1070540 
 2682000    1.2153861    -1.269332    -1.269332   -0.3983584   0.17828351    -1.269332   0.87097355  1070540 
 2683000    1.2151572   -1.2694383   -1.2694383  -0.39862883   0.17562052   -1.2694383   0.87080949  1070540 
 2684000    1.2141423   -1.2685436   -1.2685436  -0.39846146   0.18015173   -1.2685436   0.87008216  1070540 
 2685000    1.2143911   -1.2691087   -1.2691087  -0.39884823   0.18183312   -1.2691087   0.87026049  1070540 
 2686000     1.215089   -1.2693939   -1.2693939  -0.39863334    0.1737652   -1.2693939   0.87076059  1070540 
 2687000    1.2159818   -1.2696665   -1.2696665  -0.39826613   0.17564451   -1.2696665   0.87140039  1070540 
 2688000    1.2147719   -1.2689041   -1.2689041   -0.3983707   0.17997333   -1.2689041   0.87053336  1070540 
 2689000    1.2150864    -1.269327    -1.269327  -0.39856828   0.16985471    -1.269327   0.87075873  1070540 
 2690000    1.2163082   -1.2697121   -1.2697121  -0.39807778   0.17981695   -1.2697121    0.8716343  1070540 
 2691000    1.2162452   -1.2697339   -1.2697339  -0.39814466   0.17832867   -1.2697339   0.87158919  1070540 
 2692000    1.2146682   -1.2687437   -1.2687437  -0.39828464   0.17984299   -1.2687437   0.87045906  1070540 
 2693000    1.2160155   -1.2699893   -1.2699893  -0.39856467   0.17292079   -1.2699893   0.87142459  1070540 
 2694000    1.2157433   -1.2695288   -1.2695288  -0.39829931   0.17461792   -1.2695288   0.87122951  1070540 
 2695000    1.2175036   -1.2703336   -1.2703336  -0.39784254   0.18457816   -1.2703336   0.87249102  1070540 
 2696000    1.2167119   -1.2700261   -1.2700261  -0.39810244   0.17363854   -1.2700261   0.87192366  1070540 
 2697000    1.2164182   -1.2701479   -1.2701479  -0.39843478    0.1730018   -1.2701479   0.87171314  1070540 
 2698000    1.2156479   -1.2690588   -1.2690588  -0.39789769   0.17848374   -1.2690588   0.87116113  1070540 
 2699000    1.2164686   -1.2697266   -1.2697266  -0.39797729    0.1800056   -1.2697266   0.87174926  1070540 
 2700000    1.2162217   -1.2699926   -1.2699926  -0.39842021   0.17845541   -1.2699926   0.87157236  1070540 
 2701000    1.2144263    -1.268374    -1.268374  -0.39808831   0.17086761    -1.268374   0.87028573  1070540 
 2702000    1.2154025   -1.2690804   -1.2690804  -0.39809514   0.17684292   -1.2690804   0.87098528  1070540 
 2703000    1.2158895   -1.2696784   -1.2696784  -0.39834409   0.17733094   -1.2696784   0.87133426  1070540 
 2704000    1.2154083    -1.269258    -1.269258  -0.39826853    0.1759946    -1.269258   0.87098946  1070540 
 2705000     1.215699   -1.2696729   -1.2696729  -0.39847512   0.16887246   -1.2696729   0.87119778  1070540 
 2706000    1.2138598   -1.2684395   -1.2684395  -0.39855977   0.17231839   -1.2684395   0.86987975  1070540 
 2707000    1.2150987    -1.269472    -1.269472   -0.3987044   0.16800358    -1.269472   0.87076756  1070540 
 2708000    1.2151836   -1.2695449   -1.2695449  -0.39871642   0.16680852   -1.2695449   0.87082844  1070540 
 2709000    1.2164377   -1.2705074   -1.2705074  -0.39878023   0.17119108   -1.2705074   0.87172715  1070540 
 2710000    1.2149506   -1.2697041   -1.2697041  -0.39904267   0.17365261   -1.2697041   0.87066142  1070540 
 2711000    1.2152105   -1.2693532   -1.2693532  -0.39850554   0.17695952   -1.2693532   0.87084767  1070540 
 2712000     1.216129   -1.2704385   -1.2704385  -0.39893261   0.16793619   -1.2704385   0.87150589  1070540 
 2713000     1.214205   -1.2692853   -1.2692853  -0.39915814    0.1759831   -1.2692853   0.87012711  1070540 
 2714000    1.2140066   -1.2688898   -1.2688898  -0.39890483   0.17387214   -1.2688898   0.86998497  1070540 
 2715000    1.2159372   -1.2702842   -1.2702842   -0.3989157   0.17966187   -1.2702842   0.87136845  1070540 
 2716000    1.2151876   -1.2699927   -1.2699927  -0.39916136    0.1778269   -1.2699927   0.87083131  1070540 
 2717000    1.2141755   -1.2687593   -1.2687593  -0.39865333   0.17665026   -1.2687593   0.87010599  1070540 
 2718000    1.2143555   -1.2689307   -1.2689307  -0.39869573   0.17499344   -1.2689307   0.87023498  1070540 
 2719000    1.2157913   -1.2702949   -1.2702949  -0.39903104   0.17721911   -1.2702949    0.8712639  1070540 
 2720000    1.2163985   -1.2705906   -1.2705906  -0.39889155   0.16379369   -1.2705906   0.87169907  1070540 
 2721000    1.2166225   -1.2706168   -1.2706168  -0.39875724   0.16912772   -1.2706168   0.87185958  1070540 
 2722000    1.2151249   -1.2693828   -1.2693828  -0.39859641    0.1744379   -1.2693828   0.87078638  1070540 
 2723000    1.2162019   -1.2695901   -1.2695901  -0.39803186   0.17470944   -1.2695901   0.87155819  1070540 
 2724000    1.2160097   -1.2696454   -1.2696454  -0.39822495   0.16813835   -1.2696454   0.87142043  1070540 
 2725000    1.2151313   -1.2693023   -1.2693023   -0.3985114   0.17537097   -1.2693023   0.87079094  1070540 
 2726000    1.2143244   -1.2690841   -1.2690841  -0.39887136   0.18433861   -1.2690841    0.8702127  1070540 
 2727000    1.2160408   -1.2701108   -1.2701108  -0.39866812   0.17429259   -1.2701108   0.87144268  1070540 
 2728000    1.2145667   -1.2695817   -1.2695817   -0.3991953   0.17353652   -1.2695817   0.87038636  1070540 
 2729000    1.2158242   -1.2706291   -1.2706291  -0.39934161   0.18105616   -1.2706291   0.87128751  1070540 
 2730000    1.2168837   -1.2716352   -1.2716352  -0.39958844   0.16617642   -1.2716352   0.87204676  1070540 
 2731000    1.2143199   -1.2695265   -1.2695265   -0.3993171    0.1739093   -1.2695265   0.87020944  1070540 
 2732000    1.2167632   -1.2704056   -1.2704056  -0.39844523    0.1777778   -1.2704056    0.8719604  1070540 
 2733000    1.2161876   -1.2703714   -1.2703714  -0.39882349   0.17638218   -1.2703714   0.87154794  1070540 
 2734000    1.2158957   -1.2704554   -1.2704554  -0.39911665    0.1718294   -1.2704554   0.87133871  1070540 
 2735000     1.215422   -1.2702231   -1.2702231  -0.39922388   0.18838626   -1.2702231   0.87099923  1070540 
 2736000    1.2138929   -1.2693715   -1.2693715  -0.39946797   0.17794144   -1.2693715   0.86990349  1070540 
 2737000    1.2146822   -1.2695453   -1.2695453  -0.39907614   0.17483458   -1.2695453   0.87046914  1070540 
 2738000    1.2134609   -1.2687449   -1.2687449  -0.39915101   0.17099921   -1.2687449   0.86959389  1070540 
 2739000    1.2163804   -1.2710447   -1.2710447  -0.39935859    0.1710511   -1.2710447   0.87168606  1070540 
 2740000    1.2159484   -1.2711254   -1.2711254  -0.39974892   0.17991922   -1.2711254   0.87137647  1070540 
 2741000     1.214154   -1.2693901   -1.2693901  -0.39929951     0.177202   -1.2693901    0.8700906  1070540 
 2742000    1.2151546   -1.2699034   -1.2699034  -0.39909574   0.17590901   -1.2699034   0.87080761  1070540 
 2743000    1.2149279   -1.2699107   -1.2699107  -0.39926552   0.17364597   -1.2699107   0.87064516  1070540 
 2744000    1.2145292   -1.2697297   -1.2697297  -0.39937016   0.17755697   -1.2697297   0.87035949  1070540 
 2745000    1.2147757   -1.2698303   -1.2698303  -0.39929423   0.17159697   -1.2698303   0.87053609  1070540 
 2746000    1.2161747   -1.2702821   -1.2702821  -0.39874346   0.18119926   -1.2702821   0.87153868  1070540 
 2747000    1.2160214     -1.27026     -1.27026  -0.39883116   0.17395953     -1.27026    0.8714288  1070540 
 2748000    1.2142461   -1.2690361   -1.2690361  -0.39887954   0.18237028   -1.2690361   0.87015656  1070540 
 2749000     1.215568   -1.2695475   -1.2695475  -0.39844367   0.17609085   -1.2695475   0.87110386  1070540 
 2750000    1.2159643    -1.269891    -1.269891   -0.3985031    0.1735808    -1.269891   0.87138791  1070540 
 2751000     1.214939   -1.2691489   -1.2691489  -0.39849574   0.18181112   -1.2691489   0.87065312  1070540 
 2752000    1.2153769   -1.2694217   -1.2694217  -0.39845472   0.17665013   -1.2694217   0.87096694  1070540 
 2753000    1.2152184   -1.2700521   -1.2700521   -0.3991988   0.16847714   -1.2700521   0.87085335  1070540 
 2754000    1.2129244   -1.2685579   -1.2685579   -0.3993484   0.18165545   -1.2685579   0.86920945  1070540 
 2755000    1.2147888   -1.2701758   -1.2701758  -0.39963031    0.1743372   -1.2701758   0.87054549  1070540 
 2756000    1.2155554   -1.2704306   -1.2704306  -0.39933567   0.18020271   -1.2704306   0.87109489  1070540 
 2757000    1.2149426   -1.2699578   -1.2699578  -0.39930209   0.17040793   -1.2699578    0.8706557  1070540 
 2758000    1.2152414    -1.270214    -1.270214  -0.39934417   0.17282115    -1.270214   0.87086982  1070540 
 2759000    1.2148448   -1.2701414   -1.2701414  -0.39955578    0.1790697   -1.2701414   0.87058564  1070540 
 2760000    1.2153964   -1.2698727   -1.2698727  -0.39889179   0.17901665   -1.2698727   0.87098094  1070540 
 2761000    1.2168373   -1.2706659   -1.2706659  -0.39865235   0.17998427   -1.2706659   0.87201351  1070540 
 2762000    1.2162139   -1.2703288   -1.2703288  -0.39876202   0.17903262   -1.2703288   0.87156677  1070540 
 2763000    1.2144752   -1.2690602   -1.2690602  -0.39873944   0.17174257   -1.2690602   0.87032079  1070540 
 2764000    1.2154472   -1.2699902   -1.2699902  -0.39897292   0.16709756   -1.2699902   0.87101731  1070540 
 2765000    1.2162819   -1.2704307   -1.2704307  -0.39881523   0.17752766   -1.2704307   0.87161547  1070540 
 2766000    1.2148939   -1.2696915   -1.2696915  -0.39907065   0.17678182   -1.2696915   0.87062084  1070540 
 2767000    1.2141263   -1.2686024   -1.2686024  -0.39853164   0.17366824   -1.2686024   0.87007073  1070540 
 2768000    1.2132757   -1.2684976   -1.2684976  -0.39903647   0.18150707   -1.2684976   0.86946116  1070540 
 2769000    1.2148204   -1.2692985   -1.2692985  -0.39873039   0.17180354   -1.2692985   0.87056816  1070540 
 2770000     1.215511   -1.2701846   -1.2701846  -0.39912162   0.17561887   -1.2701846   0.87106301  1070540 
 2771000    1.2154098   -1.2700191   -1.2700191  -0.39902854   0.17153317   -1.2700191   0.87099055  1070540 
 2772000     1.215695   -1.2697061   -1.2697061  -0.39851119   0.17720684   -1.2697061   0.87119488  1070540 
 2773000    1.2157671   -1.2707229   -1.2707229  -0.39947628   0.18145949   -1.2707229   0.87124658  1070540 
 2774000    1.2142908    -1.268942    -1.268942  -0.39875346   0.17639856    -1.268942   0.87018858  1070540 
 2775000    1.2161724   -1.2700799   -1.2700799   -0.3985429   0.17627894   -1.2700799   0.87153703  1070540 
 2776000    1.2155878   -1.2696964   -1.2696964  -0.39857826   0.17716873   -1.2696964   0.87111809  1070540 
 2777000    1.2161824   -1.2704477   -1.2704477  -0.39890353   0.17017006   -1.2704477    0.8715442  1070540 
 2778000    1.2152221   -1.2696093   -1.2696093  -0.39875327   0.17653189   -1.2696093   0.87085601  1070540 
 2779000    1.2149389   -1.2695081   -1.2695081  -0.39885507    0.1720027   -1.2695081   0.87065308  1070540 
 2780000    1.2155477   -1.2696217   -1.2696217  -0.39853243   0.17489658   -1.2696217   0.87108932  1070540 
 2781000     1.215936   -1.2699738   -1.2699738  -0.39860616   0.17574469   -1.2699738   0.87136763  1070540 
 2782000    1.2147435   -1.2689695   -1.2689695  -0.39845653   0.17158204   -1.2689695     0.870513  1070540 
 2783000    1.2151793   -1.2694239   -1.2694239  -0.39859858   0.17669106   -1.2694239   0.87082533  1070540 
 2784000     1.216459   -1.2706185   -1.2706185  -0.39887608   0.17974614   -1.2706185   0.87174241  1070540 
 2785000    1.2155715   -1.2693511   -1.2693511  -0.39824473   0.18001196   -1.2693511   0.87110637  1070540 
 2786000    1.2150136   -1.2692038   -1.2692038  -0.39849727   0.17730488   -1.2692038   0.87070657  1070540 
 2787000    1.2167518   -1.2701273   -1.2701273  -0.39817508    0.1805961   -1.2701273   0.87195223  1070540 
 2788000    1.2161407    -1.269664    -1.269664  -0.39814974   0.17554126    -1.269664   0.87151429  1070540 
 2789000    1.2159798    -1.269513    -1.269513    -0.398114   0.17473592    -1.269513   0.87139902  1070540 
 2790000    1.2183368   -1.2707866   -1.2707866  -0.39769847   0.17652573   -1.2707866    0.8730881  1070540 
 2791000    1.2169279   -1.2699562   -1.2699562  -0.39787778   0.18080297   -1.2699562   0.87207846  1070540 
 2792000    1.2155725    -1.268728    -1.268728  -0.39762093   0.17619569    -1.268728   0.87110712  1070540 
 2793000    1.2160639   -1.2691645   -1.2691645  -0.39770525   0.17054243   -1.2691645   0.87145923  1070540 
 2794000    1.2150241   -1.2682234   -1.2682234  -0.39750929    0.1730912   -1.2682234   0.87071415  1070540 
 2795000    1.2162404   -1.2684823   -1.2684823  -0.39689654   0.17159513   -1.2684823   0.87158572  1070540 
 2796000    1.2173113   -1.2689551   -1.2689551  -0.39660193   0.17752955   -1.2689551   0.87235318  1070540 
 2797000    1.2157777   -1.2680262   -1.2680262  -0.39677203   0.17497934   -1.2680262   0.87125413  1070540 
 2798000    1.2187761   -1.2699887   -1.2699887  -0.39658575   0.17189073   -1.2699887    0.8734029  1070540 
 2799000    1.2180548    -1.269218    -1.269218  -0.39633195    0.1812227    -1.269218   0.87288601  1070540 
 2800000    1.2172424   -1.2692114   -1.2692114  -0.39690757     0.175576   -1.2692114    0.8723038  1070540 
 2801000    1.2171962   -1.2690404   -1.2690404  -0.39676968   0.18062108   -1.2690404   0.87227069  1070540 
 2802000    1.2171726   -1.2694162   -1.2694162  -0.39716242   0.17654675   -1.2694162   0.87225376  1070540 
 2803000    1.2167292   -1.2694464   -1.2694464   -0.3975104   0.17471712   -1.2694464   0.87193604  1070540 
 2804000    1.2165337   -1.2685589   -1.2685589  -0.39676296   0.17522425   -1.2685589   0.87179591  1070540 
 2805000    1.2148897    -1.267766    -1.267766  -0.39714822   0.16948317    -1.267766    0.8706178  1070540 
 2806000    1.2153348   -1.2679089   -1.2679089  -0.39697219   0.17315563   -1.2679089   0.87093675  1070540 
 2807000    1.2157391   -1.2678056   -1.2678056  -0.39657912   0.17408532   -1.2678056   0.87122653  1070540 
 2808000    1.2162265    -1.268876    -1.268876   -0.3973002   0.16921018    -1.268876   0.87157577  1070540 
 2809000    1.2142998   -1.2677565   -1.2677565  -0.39756139    0.1731535   -1.2677565   0.87019509  1070540 
 2810000    1.2162308   -1.2691573   -1.2691573  -0.39757847   0.16554904   -1.2691573   0.87157884  1070540 
 2811000    1.2164745   -1.2694163   -1.2694163  -0.39766275   0.18611509   -1.2694163   0.87175353  1070540 
 2812000    1.2139551   -1.2679935   -1.2679935   -0.3980455   0.18031922   -1.2679935   0.86994803  1070540 
 2813000    1.2147058   -1.2685709   -1.2685709  -0.39808484    0.1827257   -1.2685709   0.87048601  1070540 
 2814000    1.2151071   -1.2689109   -1.2689109  -0.39813735   0.16950513   -1.2689109   0.87077357  1070540 
 2815000    1.2141351    -1.267852    -1.267852  -0.39777498   0.17793351    -1.267852   0.87007703  1070540 
 2816000     1.217657   -1.2698961   -1.2698961  -0.39729521   0.17354199   -1.2698961   0.87260091  1070540 
 2817000    1.2154264    -1.268352    -1.268352  -0.39734956   0.17199583    -1.268352   0.87100245  1070540 
 2818000    1.2154934   -1.2679204   -1.2679204  -0.39686994   0.17658354   -1.2679204   0.87105043  1070540 
 2819000    1.2174653   -1.2691204   -1.2691204  -0.39665688   0.17612107   -1.2691204   0.87246356  1070540 
 2820000    1.2163426   -1.2682568   -1.2682568  -0.39659782   0.18161938   -1.2682568   0.87165901  1070540 
 2821000     1.216684   -1.2680258   -1.2680258  -0.39612215   0.17023911   -1.2680258   0.87190364  1070540 
 2822000    1.2155924   -1.2676642   -1.2676642  -0.39654288    0.1793002   -1.2676642   0.87112137  1070540 
 2823000    1.2161159   -1.2679506   -1.2679506   -0.3964541   0.17654661   -1.2679506   0.87149655  1070540 
 2824000    1.2176936   -1.2692099   -1.2692099   -0.3965828   0.17596948   -1.2692099   0.87262714  1070540 
 2825000    1.2165342   -1.2689089   -1.2689089   -0.3971126   0.17834455   -1.2689089   0.87179626  1070540 
 2826000    1.2167231   -1.2691828   -1.2691828  -0.39725113   0.17162548   -1.2691828   0.87193166  1070540 
 2827000    1.2167993   -1.2689775   -1.2689775  -0.39699127   0.18229476   -1.2689775   0.87198624  1070540 
 2828000    1.2181281   -1.2694663   -1.2694663  -0.39652777   0.18222022   -1.2694663   0.87293853  1070540 
 2829000     1.216492   -1.2681854   -1.2681854  -0.39641936   0.17490541   -1.2681854   0.87176602  1070540 
 2830000     1.216794   -1.2681575   -1.2681575  -0.39617504   0.18269506   -1.2681575    0.8719825  1070540 
 2831000     1.217309   -1.2685121   -1.2685121  -0.39616059   0.17275927   -1.2685121   0.87235151  1070540 
 2832000    1.2180818   -1.2687674   -1.2687674  -0.39586206   0.17192304   -1.2687674   0.87290537  1070540 
 2833000    1.2166196   -1.2682377   -1.2682377  -0.39638022   0.18344221   -1.2682377   0.87185751  1070540 
 2834000    1.2178869   -1.2694531   -1.2694531   -0.3966875   0.17970225   -1.2694531   0.87276565  1070540 
 2835000     1.217256   -1.2688717   -1.2688717  -0.39655812   0.17621294   -1.2688717   0.87231357  1070540 
 2836000    1.2170417   -1.2685431   -1.2685431  -0.39638315   0.17625907   -1.2685431   0.87215996  1070540 
 2837000    1.2161532    -1.268329    -1.268329  -0.39680568   0.17755264    -1.268329   0.87152329  1070540 
 2838000     1.217176   -1.2688201   -1.2688201   -0.3965639   0.17245249   -1.2688201    0.8722562  1070540 
 2839000    1.2155813   -1.2680595   -1.2680595   -0.3969461   0.18204377   -1.2680595   0.87111342  1070540 
 2840000     1.216834   -1.2686226   -1.2686226  -0.39661149   0.17367172   -1.2686226   0.87201116  1070540 
 2841000    1.2178376   -1.2689647   -1.2689647  -0.39623437   0.17735895   -1.2689647   0.87273032  1070540 
 2842000      1.21743   -1.2692495   -1.2692495  -0.39681121   0.17960169   -1.2692495   0.87243826  1070540 
 2843000     1.216491   -1.2682588   -1.2682588  -0.39649347   0.17557294   -1.2682588   0.87176535  1070540 
 2844000    1.2164245    -1.268082    -1.268082  -0.39636435   0.17496883    -1.268082   0.87171766  1070540 
 2845000    1.2177032   -1.2694915   -1.2694915  -0.39685744     0.174867   -1.2694915   0.87263406  1070540 
 2846000    1.2168407   -1.2686507   -1.2686507  -0.39663471   0.17027047   -1.2686507   0.87201596  1070540 
 2847000     1.216931   -1.2686049   -1.2686049  -0.39652429   0.17844605   -1.2686049   0.87208065  1070540 
 2848000    1.2159583   -1.2680053   -1.2680053  -0.39662168     0.177231   -1.2680053   0.87138362  1070540 
 2849000    1.2174433   -1.2693297   -1.2693297  -0.39688191   0.17351726   -1.2693297   0.87244779  1070540 
 2850000    1.2158307    -1.268253    -1.268253  -0.39696091   0.18165098    -1.268253   0.87129212  1070540 
 2851000    1.2170915   -1.2691083   -1.2691083  -0.39691262   0.17570605   -1.2691083   0.87219568  1070540 
 2852000    1.2165226   -1.2686228   -1.2686228  -0.39683483   0.17511878   -1.2686228   0.87178796  1070540 
 2853000    1.2194092   -1.2708738   -1.2708738  -0.39701722   0.16845252   -1.2708738   0.87385657  1070540 
 2854000    1.2162771   -1.2684136   -1.2684136  -0.39680153   0.17708537   -1.2684136   0.87161202  1070540 
 2855000    1.2168621   -1.2692876   -1.2692876  -0.39725637   0.17200937   -1.2692876   0.87203126  1070540 
 2856000    1.2171935   -1.2693785   -1.2693785  -0.39710977   0.17295375   -1.2693785   0.87226873  1070540 
 2857000    1.2161946   -1.2684597   -1.2684597  -0.39690673   0.18254273   -1.2684597   0.87155293  1070540 
 2858000    1.2174695    -1.269082    -1.269082   -0.3966155   0.17086135    -1.269082   0.87246653  1070540 
 2859000    1.2172721   -1.2691116   -1.2691116  -0.39678653   0.17262719   -1.2691116   0.87232511  1070540 
 2860000     1.216906   -1.2684921   -1.2684921   -0.3964294   0.18046517   -1.2684921    0.8720627  1070540 
 2861000    1.2160805   -1.2682212   -1.2682212  -0.39675004   0.17280859   -1.2682212   0.87147119  1070540 
 2862000    1.2177677   -1.2696202   -1.2696202  -0.39693996   0.16797548   -1.2696202   0.87268022  1070540 
 2863000    1.2176258   -1.2695636   -1.2695636  -0.39698502   0.17901677   -1.2695636   0.87257858  1070540 
 2864000    1.2185888   -1.2697357   -1.2697357  -0.39646706   0.17581759   -1.2697357   0.87326864  1070540 
 2865000    1.2195024   -1.2705365   -1.2705365  -0.39661317   0.17583041   -1.2705365   0.87392334  1070540 
 2866000    1.2181513   -1.2698144   -1.2698144  -0.39685925    0.1810052   -1.2698144   0.87295517  1070540 
 2867000    1.2186832   -1.2704398   -1.2704398   -0.3971035   0.17395191   -1.2704398   0.87333628  1070540 
 2868000    1.2172736   -1.2696104   -1.2696104  -0.39728417   0.16924421   -1.2696104   0.87232618  1070540 
 2869000    1.2158671   -1.2687247   -1.2687247  -0.39740649   0.18420182   -1.2687247   0.87131822  1070540 
 2870000    1.2158511   -1.2683526   -1.2683526  -0.39704591   0.16998639   -1.2683526   0.87130674  1070540 
 2871000    1.2179659   -1.2701231   -1.2701231  -0.39730079   0.17318008   -1.2701231    0.8728223  1070540 
 2872000    1.2169131   -1.2693113   -1.2693113  -0.39724348   0.17511847   -1.2693113   0.87206785  1070540 
 2873000     1.216067   -1.2688775   -1.2688775  -0.39741602   0.17921729   -1.2688775   0.87146145  1070540 
 2874000    1.2171616   -1.2689111   -1.2689111  -0.39666526   0.18311078   -1.2689111   0.87224588  1070540 
 2875000    1.2174547   -1.2690632   -1.2690632  -0.39660729   0.17932716   -1.2690632   0.87245592  1070540 
 2876000    1.2170826    -1.268571    -1.268571   -0.3963817   0.17787326    -1.268571   0.87218932  1070540 
 2877000    1.2171573   -1.2685589   -1.2685589  -0.39631606   0.17190345   -1.2685589   0.87224283  1070540 
 2878000      1.21749   -1.2687013   -1.2687013  -0.39622007   0.18251113   -1.2687013   0.87248121  1070540 
 2879000     1.217869   -1.2692921   -1.2692921  -0.39653921   0.17664702   -1.2692921   0.87275287  1070540 
 2880000    1.2193635   -1.2699405   -1.2699405  -0.39611666   0.17722946   -1.2699405   0.87382384  1070540 
 2881000    1.2183797   -1.2690883   -1.2690883  -0.39596956    0.1819734   -1.2690883   0.87311879  1070540 
 2882000    1.2171201   -1.2682329   -1.2682329  -0.39601668   0.17994046   -1.2682329   0.87221617  1070540 
 2883000    1.2197139   -1.2699661   -1.2699661  -0.39589112   0.17803449   -1.2699661   0.87407495  1070540 
 2884000    1.2197303   -1.2692725   -1.2692725  -0.39518579   0.17592855   -1.2692725   0.87408671  1070540 
 2885000     1.219772   -1.2691612   -1.2691612  -0.39504468   0.18115233   -1.2691612   0.87411655  1070540 
 2886000    1.2204547   -1.2702364   -1.2702364  -0.39563053   0.17428984   -1.2702364   0.87460585  1070540 
 2887000    1.2193278   -1.2692371   -1.2692371  -0.39543888   0.17192238   -1.2692371   0.87379825  1070540 
 2888000    1.2189184   -1.2693616   -1.2693616  -0.39585678    0.1755218   -1.2693616   0.87350486  1070540 
 2889000    1.2180162   -1.2689499   -1.2689499  -0.39609157   0.17541768   -1.2689499   0.87285831  1070540 
 2890000    1.2170918   -1.2684915   -1.2684915  -0.39629562   0.17889374   -1.2684915   0.87219591  1070540 
 2891000    1.2182076   -1.2693999   -1.2693999   -0.3964044   0.17344333   -1.2693999   0.87299548  1070540 
 2892000    1.2190293   -1.2696857   -1.2696857  -0.39610141   0.18104344   -1.2696857    0.8735843  1070540 
 2893000    1.2173288   -1.2686329   -1.2686329   -0.3962672   0.17926644   -1.2686329   0.87236571  1070540 
 2894000    1.2182402   -1.2693623   -1.2693623  -0.39634342    0.1764875   -1.2693623   0.87301888  1070540 
 2895000    1.2185241   -1.2702283   -1.2702283  -0.39700599   0.17354231   -1.2702283    0.8732223  1070540 
 2896000    1.2176792   -1.2693855   -1.2693855  -0.39676866   0.18250345   -1.2693855   0.87261682  1070540 
 2897000    1.2176285   -1.2688593   -1.2688593  -0.39627883   0.17272031   -1.2688593   0.87258052  1070540 
 2898000    1.2196147   -1.2697227   -1.2697227  -0.39571885   0.17907661   -1.2697227   0.87400384  1070540 
 2899000    1.2183775   -1.2692855   -1.2692855  -0.39616818   0.17071407   -1.2692855   0.87311727  1070540 
 2900000     1.218299   -1.2694407   -1.2694407  -0.39637978   0.17288619   -1.2694407   0.87306097  1070540 
 2901000    1.2187535   -1.2690816   -1.2690816   -0.3956949   0.17857375   -1.2690816   0.87338669  1070540 
 2902000    1.2190745   -1.2695593   -1.2695593  -0.39594262   0.17541871   -1.2695593    0.8736167  1070540 
 2903000    1.2191807   -1.2697526   -1.2697526  -0.39605976   0.17199559   -1.2697526    0.8736928  1070540 
 2904000    1.2181443   -1.2691981   -1.2691981  -0.39624798   0.18027956   -1.2691981   0.87295011  1070540 
 2905000    1.2199677   -1.2705514   -1.2705514  -0.39629462   0.17697971   -1.2705514   0.87425681  1070540 
 2906000    1.2186413   -1.2696469   -1.2696469  -0.39634063   0.17309451   -1.2696469   0.87330627  1070540 
 2907000    1.2185747   -1.2698855   -1.2698855  -0.39662689   0.18051688   -1.2698855   0.87325859  1070540 
 2908000    1.2177046   -1.2689489   -1.2689489   -0.3963138   0.18368043   -1.2689489   0.87263505  1070540 
 2909000    1.2177859   -1.2684954   -1.2684954  -0.39580213   0.18575323   -1.2684954   0.87269331  1070540 
 2910000    1.2205034   -1.2703688   -1.2703688  -0.39572814   0.17584772   -1.2703688    0.8746407  1070540 
 2911000    1.2180995   -1.2689432   -1.2689432  -0.39602516   0.18472775   -1.2689432   0.87291802  1070540 
 2912000    1.2188621   -1.2694395   -1.2694395  -0.39597501   0.17476864   -1.2694395   0.87346452  1070540 
 2913000    1.2184008   -1.2690816   -1.2690816  -0.39594769   0.17969097   -1.2690816   0.87313394  1070540 
 2914000    1.2174367   -1.2685219   -1.2685219  -0.39607888   0.17414875   -1.2685219   0.87244301  1070540 
 2915000    1.2169798   -1.2680124   -1.2680124  -0.39589674   0.18539333   -1.2680124   0.87211564  1070540 
 2916000    1.2182947    -1.268703    -1.268703  -0.39564512   0.18227432    -1.268703   0.87305793  1070540 
 2917000    1.2183319   -1.2693589   -1.2693589  -0.39627433   0.18100519   -1.2693589   0.87308456  1070540 
 2918000    1.2191202   -1.2694649   -1.2694649  -0.39581546   0.17405341   -1.2694649   0.87364945  1070540 
 2919000    1.2192668   -1.2694379   -1.2694379  -0.39568333   0.17182035   -1.2694379   0.87375452  1070540 
 2920000    1.2183064   -1.2690173   -1.2690173  -0.39595101   0.18107687   -1.2690173   0.87306629  1070540 
 2921000    1.2170866   -1.2682282   -1.2682282  -0.39603609   0.16898191   -1.2682282   0.87219212  1070540 
 2922000    1.2185591   -1.2692556   -1.2692556  -0.39600824   0.17624251   -1.2692556   0.87324741  1070540 
 2923000    1.2185577   -1.2694102   -1.2694102  -0.39616385   0.16799083   -1.2694102   0.87324638  1070540 
 2924000    1.2175366   -1.2686431   -1.2686431   -0.3961285   0.17089827   -1.2686431   0.87251461  1070540 
 2925000    1.2178199   -1.2688658   -1.2688658  -0.39614817   0.18089277   -1.2688658   0.87271762  1070540 
 2926000     1.218785   -1.2698692   -1.2698692  -0.39645993   0.17376889   -1.2698692    0.8734093  1070540 
 2927000     1.217836   -1.2695214   -1.2695214  -0.39679224   0.17789538   -1.2695214    0.8727292  1070540 
 2928000    1.2189881   -1.2708543   -1.2708543  -0.39729953   0.17493864   -1.2708543   0.87355479  1070540 
 2929000    1.2179776   -1.2700722   -1.2700722  -0.39724151   0.18208336   -1.2700722   0.87283069  1070540 
 2930000    1.2179614   -1.2697863   -1.2697863  -0.39696726   0.17374633   -1.2697863   0.87281908  1070540 
 2931000    1.2192796   -1.2704492   -1.2704492  -0.39668549   0.18310048   -1.2704492   0.87376373  1070540 
 2932000     1.219712    -1.270261    -1.270261  -0.39618741   0.17931268    -1.270261   0.87407357  1070540 
 2933000    1.2192538   -1.2697034   -1.2697034  -0.39595826   0.17650395   -1.2697034   0.87374518  1070540 
 2934000    1.2167985   -1.2688994   -1.2688994  -0.39691379   0.18107612   -1.2688994   0.87198566  1070540 
 2935000    1.2175288   -1.2691484   -1.2691484  -0.39663941   0.17535706   -1.2691484   0.87250902  1070540 
 2936000    1.2190858   -1.2697632   -1.2697632  -0.39613844   0.17733448   -1.2697632    0.8736248  1070540 
 2937000    1.2173174   -1.2687143   -1.2687143  -0.39635679   0.17774121   -1.2687143   0.87235756  1070540 
 2938000    1.2167735   -1.2680568   -1.2680568  -0.39608906   0.17677703   -1.2680568   0.87196779  1070540 
 2939000    1.2181501   -1.2690448   -1.2690448  -0.39609053   0.17757655   -1.2690448    0.8729543  1070540 
 2940000    1.2179373   -1.2688714   -1.2688714  -0.39606965   0.17637863   -1.2688714   0.87280178  1070540 
 2941000    1.2181342   -1.2690701   -1.2690701  -0.39612723   0.17785117   -1.2690701   0.87294286  1070540 
 2942000    1.2178458   -1.2692022   -1.2692022  -0.39646596   0.18388005   -1.2692022   0.87273624  1070540 
 2943000    1.2174482   -1.2692181   -1.2692181   -0.3967668   0.17532009   -1.2692181   0.87245125  1070540 
 2944000    1.2183718    -1.269581    -1.269581  -0.39646787   0.17232078    -1.269581   0.87311315  1070540 
 2945000    1.2183154    -1.269362    -1.269362  -0.39628929    0.1864008    -1.269362   0.87307274  1070540 
 2946000    1.2199227   -1.2702832   -1.2702832  -0.39605864   0.17400175   -1.2702832   0.87422457  1070540 
 2947000     1.218096    -1.268905    -1.268905  -0.39598956    0.1881939    -1.268905   0.87291549  1070540 
 2948000    1.2186933   -1.2694234   -1.2694234  -0.39607983   0.17633254   -1.2694234   0.87334357  1070540 
 2949000     1.219506   -1.2704587   -1.2704587   -0.3965327    0.1809798   -1.2704587   0.87392598  1070540 
 2950000    1.2189598   -1.2693436   -1.2693436  -0.39580908   0.17297845   -1.2693436   0.87353454  1070540 
 2951000    1.2177682   -1.2685607   -1.2685607  -0.39588006   0.17545443   -1.2685607   0.87268062  1070540 
 2952000    1.2190545   -1.2693472   -1.2693472  -0.39574483    0.1767597   -1.2693472   0.87360241  1070540 
 2953000    1.2171588   -1.2678201   -1.2678201  -0.39557625   0.17618081   -1.2678201   0.87224388  1070540 
 2954000    1.2164407   -1.2675994   -1.2675994   -0.3958701   0.17553076   -1.2675994    0.8717293  1070540 
 2955000    1.2174991   -1.2688961   -1.2688961  -0.39640828    0.1729581   -1.2688961   0.87248779  1070540 
 2956000    1.2183477   -1.2696069   -1.2696069  -0.39651101   0.18217733   -1.2696069   0.87309587  1070540 
 2957000    1.2166169   -1.2679666   -1.2679666  -0.39611106   0.17704145   -1.2679666   0.87185553  1070540 
 2958000    1.2197828   -1.2702636   -1.2702636  -0.39613934   0.16920465   -1.2702636    0.8741243  1070540 
 2959000    1.2175442   -1.2691644   -1.2691644  -0.39664433   0.16759668   -1.2691644   0.87252005  1070540 
 2960000    1.2175635   -1.2689738   -1.2689738  -0.39643989   0.17476326   -1.2689738    0.8725339  1070540 
 2961000    1.2177912   -1.2685339   -1.2685339  -0.39583682   0.18335742   -1.2685339   0.87269705  1070540 
 2962000    1.2172884   -1.2684923   -1.2684923  -0.39615547   0.17750676   -1.2684923   0.87233679  1070540 
 2963000    1.2182549    -1.268783    -1.268783   -0.3957536   0.17703128    -1.268783   0.87302941  1070540 
 2964000    1.2191931   -1.2693923   -1.2693923  -0.39569064   0.17780618   -1.2693923    0.8737017  1070540 
 2965000    1.2184709   -1.2688373   -1.2688373  -0.39565315   0.17051897   -1.2688373   0.87318419  1070540 
 2966000     1.218442   -1.2692517   -1.2692517  -0.39608826   0.17970716   -1.2692517   0.87316345  1070540 
 2967000    1.2174562   -1.2682479   -1.2682479  -0.39579084   0.17782768   -1.2682479   0.87245701  1070540 
 2968000    1.2182425   -1.2688089   -1.2688089  -0.39578844   0.18623413   -1.2688089   0.87302048  1070540 
 2969000    1.2180295   -1.2687699   -1.2687699  -0.39590205   0.17508578   -1.2687699   0.87286789  1070540 
 2970000    1.2195148   -1.2699151   -1.2699151  -0.39598291   0.18194697   -1.2699151   0.87393223  1070540 
 2971000    1.2196917   -1.2696086   -1.2696086  -0.39554955   0.18164377   -1.2696086   0.87405905  1070540 
 2972000    1.2180056   -1.2685349   -1.2685349  -0.39568416   0.17321579   -1.2685349   0.87285076  1070540 
 2973000    1.2163635   -1.2672965   -1.2672965  -0.39562253   0.17945701   -1.2672965   0.87167399  1070540 
 2974000    1.2167732   -1.2677974   -1.2677974  -0.39582979    0.1706334   -1.2677974   0.87196758  1070540 
 2975000    1.2190417   -1.2691986   -1.2691986  -0.39560538   0.17518265   -1.2691986    0.8735932  1070540 
 2976000    1.2188534   -1.2688245   -1.2688245  -0.39536624   0.17903555   -1.2688245   0.87345828  1070540 
 2977000    1.2214491   -1.2706148   -1.2706148  -0.39529644   0.17481974   -1.2706148    0.8753184  1070540 
 2978000     1.219027   -1.2692158   -1.2692158  -0.39563311   0.18223919   -1.2692158   0.87358268  1070540 
 2979000    1.2202243   -1.2698434   -1.2698434   -0.3954027   0.18027946   -1.2698434   0.87444069  1070540 
 2980000    1.2181453   -1.2687347   -1.2687347  -0.39578387   0.17561758   -1.2687347   0.87295084  1070540 
 2981000     1.218743   -1.2692678   -1.2692678  -0.39588866   0.17064118   -1.2692678   0.87337914  1070540 
 2982000    1.2169648   -1.2684152   -1.2684152  -0.39631029   0.18167314   -1.2684152   0.87210489  1070540 
 2983000    1.2170416   -1.2684619   -1.2684619  -0.39630202   0.17921563   -1.2684619   0.87215988  1070540 
 2984000    1.2167115   -1.2683426   -1.2683426  -0.39641926   0.17675433   -1.2683426   0.87192335  1070540 
 2985000     1.218021   -1.2686974   -1.2686974  -0.39583563   0.17549626   -1.2686974   0.87286176  1070540 
 2986000    1.2183079   -1.2692148   -1.2692148  -0.39614741   0.17842422   -1.2692148   0.87306739  1070540 
 2987000    1.2168693   -1.2685615   -1.2685615  -0.39652509   0.17775535   -1.2685615   0.87203643  1070540 
 2988000     1.217431   -1.2689098   -1.2689098  -0.39647086   0.17533451   -1.2689098   0.87243896  1070540 
 2989000    1.2184441   -1.2698412   -1.2698412   -0.3966763   0.17360934   -1.2698412   0.87316495  1070540 
 2990000    1.2184757   -1.2696426   -1.2696426  -0.39645495   0.18503292   -1.2696426   0.87318764  1070540 
 2991000    1.2193781    -1.269759    -1.269759  -0.39592473    0.1793352    -1.269759    0.8738343  1070540 
 2992000    1.2186201   -1.2694688   -1.2694688  -0.39617769   0.17671831   -1.2694688   0.87329107  1070540 
 2993000    1.2171501   -1.2683424   -1.2683424  -0.39610473   0.17984923   -1.2683424   0.87223764  1070540 
 2994000    1.2175771   -1.2685437   -1.2685437   -0.3960001   0.18278151   -1.2685437   0.87254363  1070540 
 2995000      1.21995   -1.2699139   -1.2699139  -0.39566982     0.175961   -1.2699139   0.87424411  1070540 
 2996000     1.218242   -1.2689662   -1.2689662  -0.39594602   0.17185013   -1.2689662   0.87302016  1070540 
 2997000    1.2184814   -1.2691269   -1.2691269  -0.39593515    0.1733392   -1.2691269   0.87319172  1070540 
 2998000    1.2181492   -1.2687231   -1.2687231  -0.39576941   0.17841217   -1.2687231   0.87295366  1070540 
 2999000    1.2179055   -1.2682947   -1.2682947  -0.39551569   0.18172786   -1.2682947     0.872779  1070540 
 3000000    1.2180792   -1.2689382   -1.2689382  -0.39603475   0.17903033   -1.2689382   0.87290346  1070540 
 3001000    1.2185046   -1.2691322   -1.2691322   -0.3959239   0.18000495   -1.2691322    0.8732083  1070540 
 3002000    1.2179737   -1.2687239   -1.2687239  -0.39589606   0.18384774   -1.2687239   0.87282788  1070540 
 3003000    1.2195731   -1.2697709   -1.2697709  -0.39579688   0.17627591   -1.2697709   0.87397401  1070540 
 3004000    1.2171336    -1.268269    -1.268269  -0.39604316    0.1786594    -1.268269   0.87222581  1070540 
 3005000    1.2184582   -1.2692251   -1.2692251  -0.39605001   0.16855807   -1.2692251   0.87317508  1070540 
 3006000    1.2178157   -1.2681972   -1.2681972  -0.39548258   0.17508822   -1.2681972   0.87271465  1070540 
 3007000    1.2180692   -1.2685382   -1.2685382  -0.39564189   0.17723444   -1.2685382   0.87289631  1070540 
 3008000    1.2188394   -1.2691146   -1.2691146  -0.39566637   0.17503988   -1.2691146   0.87344826  1070540 
 3009000     1.217668   -1.2687178   -1.2687178  -0.39610903   0.18012189   -1.2687178   0.87260881  1070540 
 3010000    1.2192001   -1.2693612   -1.2693612  -0.39565449   0.17259473   -1.2693612   0.87370675  1070540 
 3011000    1.2200151   -1.2696893   -1.2696893  -0.39539848     0.172007   -1.2696893    0.8742908  1070540 
 3012000    1.2185368   -1.2686103   -1.2686103  -0.39537893   0.17966674   -1.2686103   0.87323142  1070540 
 3013000    1.2189287   -1.2693185   -1.2693185  -0.39580622   0.17881277   -1.2693185   0.87351226  1070540 
 3014000     1.221278   -1.2707711   -1.2707711  -0.39557523    0.1851937   -1.2707711   0.87519584  1070540 
 3015000    1.2193796   -1.2696247   -1.2696247  -0.39578939   0.17615145   -1.2696247   0.87383535  1070540 
 3016000    1.2197709    -1.269298    -1.269298   -0.3951822   0.17995126    -1.269298    0.8741158  1070540 
 3017000    1.2192086   -1.2689201   -1.2689201  -0.39520734   0.17241101   -1.2689201    0.8737128  1070540 
 3018000    1.2192426   -1.2689171   -1.2689171  -0.39517994   0.17662376   -1.2689171    0.8737372  1070540 
 3019000     1.218567   -1.2685869   -1.2685869  -0.39533388   0.18331758   -1.2685869   0.87325302  1070540 
 3020000    1.2184921   -1.2683459   -1.2683459  -0.39514651   0.17931973   -1.2683459   0.87319937  1070540 
 3021000    1.2212285   -1.2702612   -1.2702612  -0.39510086   0.17183908   -1.2702612   0.87516031  1070540 
 3022000    1.2213783   -1.2702442   -1.2702442  -0.39497657   0.17673391   -1.2702442   0.87526766  1070540 
 3023000    1.2191878   -1.2691655   -1.2691655  -0.39546764   0.18387852   -1.2691655    0.8736979  1070540 
 3024000    1.2174201   -1.2683153   -1.2683153  -0.39588421   0.17555161   -1.2683153   0.87243112  1070540 
 3025000     1.218365   -1.2692524   -1.2692524  -0.39614409   0.17634528   -1.2692524    0.8731083  1070540 
 3026000     1.218711   -1.2688599   -1.2688599  -0.39550369   0.18545532   -1.2688599   0.87335624  1070540 
 3027000    1.2205372   -1.2700474   -1.2700474  -0.39538249   0.17390724   -1.2700474   0.87466494  1070540 
 3028000    1.2182516   -1.2680662   -1.2680662  -0.39503921    0.1742669   -1.2680662   0.87302702  1070540 
 3029000     1.218794   -1.2683648   -1.2683648  -0.39494904   0.17703603   -1.2683648   0.87341571  1070540 
 3030000     1.219654   -1.2691338   -1.2691338  -0.39510181   0.17595229   -1.2691338   0.87403203  1070540 
 3031000    1.2183339   -1.2675028   -1.2675028  -0.39441688   0.17634486   -1.2675028   0.87308596  1070540 
 3032000    1.2181931    -1.267956    -1.267956  -0.39497089   0.17121855    -1.267956   0.87298507  1070540 
 3033000    1.2208176   -1.2696576   -1.2696576  -0.39479169   0.17985928   -1.2696576   0.87486588  1070540 
 3034000    1.2201339   -1.2691869   -1.2691869  -0.39481094    0.1756714   -1.2691869   0.87437594  1070540 
 3035000    1.2199215   -1.2687664   -1.2687664   -0.3945427    0.1823966   -1.2687664   0.87422369  1070540 
 3036000    1.2189329   -1.2679503   -1.2679503  -0.39443503   0.18087197   -1.2679503   0.87351526  1070540 
 3037000    1.2206211   -1.2688536   -1.2688536  -0.39412853   0.17660286   -1.2688536   0.87472506  1070540 
 3038000    1.2216572   -1.2699205   -1.2699205  -0.39445295   0.17598379   -1.2699205   0.87546754  1070540 
 3039000    1.2197514   -1.2686462   -1.2686462   -0.3945444   0.17415089   -1.2686462   0.87410178  1070540 
 3040000    1.2202821   -1.2693048   -1.2693048  -0.39482264   0.17909282   -1.2693048   0.87448215  1070540 
 3041000    1.2191759   -1.2685923   -1.2685923  -0.39490289   0.18885565   -1.2685923   0.87368941  1070540 
 3042000    1.2196298   -1.2688584   -1.2688584  -0.39484374   0.17168394   -1.2688584   0.87401465  1070540 
 3043000    1.2178802   -1.2680376   -1.2680376  -0.39527676   0.17143493   -1.2680376   0.87276084  1070540 
 3044000    1.2205558   -1.2689991   -1.2689991  -0.39432085   0.17916525   -1.2689991   0.87467828  1070540 
 3045000    1.2202077   -1.2685032   -1.2685032  -0.39407436   0.18245841   -1.2685032   0.87442882  1070540 
 3046000    1.2192199   -1.2680153   -1.2680153  -0.39429431   0.18248747   -1.2680153   0.87372095  1070540 
 3047000    1.2196471   -1.2684389   -1.2684389   -0.3944119   0.18234373   -1.2684389   0.87402703  1070540 
 3048000    1.2205204   -1.2690654   -1.2690654  -0.39441246   0.17808253   -1.2690654    0.8746529  1070540 
 3049000    1.2186622    -1.268063    -1.268063  -0.39474173    0.1819447    -1.268063   0.87332125  1070540 
 3050000    1.2207916   -1.2691473   -1.2691473  -0.39430006   0.18360026   -1.2691473   0.87484721  1070540 
 3051000    1.2204934   -1.2689135   -1.2689135  -0.39427994   0.18044351   -1.2689135   0.87463355  1070540 
 3052000    1.2192856   -1.2678998   -1.2678998  -0.39413185   0.17726826   -1.2678998     0.873768  1070540 
 3053000    1.2201028    -1.268763    -1.268763   -0.3944094   0.17503558    -1.268763   0.87435363  1070540 
 3054000     1.218817   -1.2678074   -1.2678074  -0.39437522   0.18487965   -1.2678074   0.87343222  1070540 
 3055000    1.2197821   -1.2685076   -1.2685076  -0.39438377    0.1795081   -1.2685076   0.87412379  1070540 
 3056000    1.2198772   -1.2691146   -1.2691146  -0.39492265   0.18190948   -1.2691146   0.87419194  1070540 
 3057000    1.2207351   -1.2695154   -1.2695154  -0.39470866   0.18035231   -1.2695154   0.87480676  1070540 
 3058000    1.2202137   -1.2690157   -1.2690157  -0.39458259   0.17340187   -1.2690157   0.87443311  1070540 
 3059000    1.2189043    -1.268248    -1.268248  -0.39475325   0.17550044    -1.268248   0.87349477  1070540 
 3060000    1.2198257    -1.269191    -1.269191    -0.395036    0.1781564    -1.269191   0.87415503  1070540 
 3061000    1.2196543   -1.2693371   -1.2693371  -0.39530489   0.18157217   -1.2693371    0.8740322  1070540 
 3062000    1.2200166   -1.2691554   -1.2691554  -0.39486352   0.17770662   -1.2691554   0.87429187  1070540 
 3063000    1.2192803   -1.2686678   -1.2686678  -0.39490364   0.17999753   -1.2686678   0.87376421  1070540 
 3064000    1.2204688   -1.2692591   -1.2692591  -0.39464316   0.17440301   -1.2692591   0.87461594  1070540 
 3065000    1.2188549   -1.2686266   -1.2686266  -0.39516721   0.18114796   -1.2686266   0.87345938  1070540 
 3066000    1.2196022   -1.2689867   -1.2689867  -0.39499186   0.18325929   -1.2689867   0.87399486  1070540 
 3067000    1.2208349   -1.2699845   -1.2699845  -0.39510621   0.18221641   -1.2699845    0.8748783  1070540 
 3068000    1.2210196    -1.269431    -1.269431  -0.39442034   0.17826409    -1.269431   0.87501064  1070540 
 3069000    1.2211127   -1.2694662   -1.2694662  -0.39438889   0.18310726   -1.2694662   0.87507731  1070540 
 3070000    1.2236144   -1.2707916   -1.2707916  -0.39392154   0.17981637   -1.2707916    0.8768701  1070540 
 3071000     1.220091   -1.2689567   -1.2689567  -0.39461152   0.17948037   -1.2689567   0.87434514  1070540 
 3072000    1.2212605   -1.2695326   -1.2695326  -0.39434936   0.18507607   -1.2695326   0.87518327  1070540 
 3073000    1.2207696   -1.2694266   -1.2694266  -0.39459514   0.18577259   -1.2694266   0.87483147  1070540 
 3074000    1.2208901    -1.269307    -1.269307  -0.39438917   0.17560074    -1.269307   0.87491783  1070540 
 3075000    1.2219787     -1.27018     -1.27018  -0.39448206   0.17319076     -1.27018   0.87569797  1070540 
 3076000    1.2211787   -1.2696067   -1.2696067    -0.394482   0.18849366   -1.2696067   0.87512466  1070540 
 3077000    1.2222254   -1.2702997   -1.2702997  -0.39442495   0.18203404   -1.2702997   0.87587474  1070540 
 3078000    1.2202877   -1.2692548   -1.2692548  -0.39476868   0.18678469   -1.2692548    0.8744861  1070540 
 3079000    1.2210949   -1.2699853   -1.2699853  -0.39492075   0.17790972   -1.2699853   0.87506457  1070540 
 3080000    1.2206716    -1.269796    -1.269796  -0.39503478   0.18455469    -1.269796   0.87476123  1070540 
 3081000    1.2191923   -1.2684194   -1.2684194  -0.39471829   0.17444381   -1.2684194   0.87370114  1070540 
 3082000    1.2199136   -1.2688514   -1.2688514  -0.39463331   0.18633107   -1.2688514   0.87421805  1070540 
 3083000    1.2194847   -1.2683567   -1.2683567  -0.39444602   0.17779907   -1.2683567   0.87391071  1070540 
 3084000    1.2191102   -1.2680675   -1.2680675  -0.39442519   0.18520032   -1.2680675   0.87364231  1070540 
 3085000    1.2195489   -1.2682429   -1.2682429  -0.39428619   0.18439601   -1.2682429   0.87395672  1070540 
 3086000    1.2204792   -1.2687722   -1.2687722  -0.39414884   0.18108413   -1.2687722   0.87462334  1070540 
 3087000     1.220939   -1.2690439   -1.2690439  -0.39409099   0.18544333   -1.2690439    0.8749529  1070540 
 3088000    1.2198829    -1.268604    -1.268604  -0.39440798    0.1744759    -1.268604   0.87419603  1070540 
 3089000    1.2201733   -1.2685119   -1.2685119  -0.39410769   0.17298933   -1.2685119   0.87440416  1070540 
 3090000    1.2210167   -1.2687041   -1.2687041  -0.39369553   0.18060192   -1.2687041   0.87500854  1070540 
 3091000    1.2200805   -1.2681061   -1.2681061  -0.39376848   0.18096983   -1.2681061   0.87433765  1070540 
 3092000    1.2205547   -1.2688993   -1.2688993  -0.39422178   0.17771138   -1.2688993    0.8746775  1070540 
 3093000    1.2198898   -1.2682904   -1.2682904  -0.39408939   0.18330806   -1.2682904   0.87420097  1070540 
 3094000    1.2198075   -1.2683908   -1.2683908  -0.39424875   0.18277838   -1.2683908   0.87414203  1070540 
 3095000    1.2199045   -1.2678345   -1.2678345  -0.39362299   0.17930435   -1.2678345   0.87421156  1070540 
 3096000    1.2213006    -1.269073    -1.269073  -0.39386098   0.17472472    -1.269073   0.87521199  1070540 
 3097000    1.2198046   -1.2681849   -1.2681849  -0.39404497   0.17564076   -1.2681849   0.87413997  1070540 
 3098000    1.2209809   -1.2689112   -1.2689112   -0.3939283   0.17543761   -1.2689112   0.87498287  1070540 
 3099000    1.2188165   -1.2674221   -1.2674221  -0.39399021    0.1788054   -1.2674221   0.87343186  1070540 
 3100000     1.220485   -1.2688384   -1.2688384  -0.39421086    0.1781414   -1.2688384   0.87462752  1070540 
 3101000    1.2221248   -1.2700411   -1.2700411  -0.39423847   0.17665883   -1.2700411   0.87580268  1070540 
 3102000     1.219169   -1.2685121   -1.2685121  -0.39482766   0.18302807   -1.2685121   0.87368447  1070540 
 3103000    1.2188768   -1.2679438   -1.2679438  -0.39446877   0.17150516   -1.2679438   0.87347503  1070540 
 3104000    1.2203865   -1.2686202   -1.2686202  -0.39406326   0.17879914   -1.2686202   0.87455691  1070540 
 3105000    1.2194412   -1.2681657   -1.2681657  -0.39428621   0.17345275   -1.2681657   0.87387949  1070540 
 3106000    1.2197595   -1.2685608   -1.2685608  -0.39445321   0.17950393   -1.2685608   0.87410762  1070540 
 3107000    1.2220229    -1.270018    -1.270018  -0.39428842   0.18311607    -1.270018   0.87572959  1070540 
 3108000    1.2209295   -1.2690863   -1.2690863   -0.3941403   0.18085381   -1.2690863   0.87494604  1070540 
 3109000    1.2216371   -1.2698958   -1.2698958  -0.39444265   0.18669945   -1.2698958   0.87545317  1070540 
 3110000    1.2209915   -1.2697285   -1.2697285  -0.39473796   0.17971981   -1.2697285    0.8749905  1070540 
 3111000    1.2187572   -1.2680181   -1.2680181  -0.39462874   0.18372348   -1.2680181   0.87338936  1070540 
 3112000    1.2219019   -1.2697192   -1.2697192  -0.39407633   0.17870083   -1.2697192   0.87564288  1070540 
 3113000    1.2203712   -1.2685808   -1.2685808  -0.39403482   0.18376957   -1.2685808   0.87454597  1070540 
 3114000    1.2212845   -1.2693259   -1.2693259  -0.39412535   0.17314382   -1.2693259    0.8752005  1070540 
 3115000     1.220879   -1.2683839   -1.2683839  -0.39347403   0.18381752   -1.2683839   0.87490988  1070540 
 3116000    1.2187911   -1.2669031   -1.2669031  -0.39348947   0.17744398   -1.2669031   0.87341365  1070540 
 3117000     1.222179   -1.2692642   -1.2692642  -0.39342276   0.18712334   -1.2692642   0.87584148  1070540 
 3118000    1.2204728   -1.2681602   -1.2681602  -0.39354145    0.1777226   -1.2681602   0.87461878  1070540 
 3119000    1.2213462   -1.2689102   -1.2689102  -0.39366552   0.17563145   -1.2689102   0.87524469  1070540 
 3120000    1.2204127   -1.2689228   -1.2689228  -0.39434709   0.18134575   -1.2689228   0.87457568  1070540 
 3121000    1.2219071   -1.2692978   -1.2692978  -0.39365116   0.18253418   -1.2692978   0.87564661  1070540 
 3122000    1.2216872   -1.2688148   -1.2688148   -0.3933258   0.18278555   -1.2688148   0.87548902  1070540 
 3123000    1.2217872   -1.2686787   -1.2686787    -0.393118   0.17566732   -1.2686787   0.87556073  1070540 
 3124000    1.2218789   -1.2684566   -1.2684566  -0.39283011   0.18559259   -1.2684566   0.87562645  1070540 
 3125000    1.2214694   -1.2683465   -1.2683465  -0.39301356   0.18417222   -1.2683465   0.87533296  1070540 
 3126000    1.2237295   -1.2698089   -1.2698089  -0.39285623   0.17805391   -1.2698089   0.87695262  1070540 
 3127000     1.221757   -1.2687851   -1.2687851  -0.39324605   0.17528689   -1.2687851   0.87553904  1070540 
 3128000    1.2208282   -1.2682864   -1.2682864  -0.39341288   0.18352175   -1.2682864   0.87487349  1070540 
 3129000    1.2203973    -1.268379    -1.268379  -0.39381437   0.17982872    -1.268379   0.87456467  1070540 
 3130000     1.221703    -1.269526    -1.269526  -0.39402567   0.17096935    -1.269526   0.87550035  1070540 
 3131000     1.221264   -1.2693196   -1.2693196  -0.39413383   0.17657103   -1.2693196   0.87518575  1070540 
 3132000    1.2212656   -1.2692611   -1.2692611  -0.39407418   0.18708917   -1.2692611    0.8751869  1070540 
 3133000    1.2195905   -1.2678915   -1.2678915  -0.39390496   0.17634029   -1.2678915   0.87398654  1070540 
 3134000    1.2210056   -1.2695053   -1.2695053  -0.39450468   0.17974529   -1.2695053   0.87500059  1070540 
 3135000    1.2205012   -1.2692269   -1.2692269  -0.39458779   0.18240076   -1.2692269   0.87463913  1070540 
 3136000    1.2208006   -1.2686586   -1.2686586  -0.39380498   0.18175176   -1.2686586   0.87485367  1070540 
 3137000    1.2221077   -1.2698903   -1.2698903  -0.39409991   0.17855414   -1.2698903   0.87579037  1070540 
 3138000    1.2199184   -1.2682687   -1.2682687  -0.39404723   0.17953339   -1.2682687   0.87422151  1070540 
 3139000    1.2212087   -1.2694064   -1.2694064  -0.39426018   0.17425784   -1.2694064   0.87514617  1070540 
 3140000    1.2217245   -1.2694961   -1.2694961  -0.39398032   0.17582855   -1.2694961   0.87551581  1070540 
 3141000    1.2204645   -1.2683906   -1.2683906  -0.39377779   0.17113241   -1.2683906   0.87461285  1070540 
 3142000     1.221251   -1.2689774   -1.2689774    -0.393801   0.18163729   -1.2689774   0.87517643  1070540 
 3143000    1.2211905   -1.2689502   -1.2689502  -0.39381713    0.1726383   -1.2689502   0.87513309  1070540 
 3144000    1.2217118   -1.2690681   -1.2690681  -0.39356141   0.18547089   -1.2690681   0.87550666  1070540 
 3145000     1.221123   -1.2683849   -1.2683849  -0.39330017   0.17012749   -1.2683849   0.87508473  1070540 
 3146000    1.2201047   -1.2672016   -1.2672016  -0.39284666   0.17833017   -1.2672016   0.87435498  1070540 
 3147000    1.2200797   -1.2671161   -1.2671161  -0.39277906    0.1775671   -1.2671161   0.87433707  1070540 
 3148000     1.220777   -1.2673885   -1.2673885  -0.39255168   0.17953388   -1.2673885   0.87483681  1070540 
 3149000    1.2203941   -1.2671159   -1.2671159   -0.3925535   0.17806474   -1.2671159   0.87456237  1070540 
 3150000    1.2206679   -1.2674653   -1.2674653  -0.39270669   0.18317522   -1.2674653    0.8747586  1070540 
 3151000    1.2216041   -1.2684256   -1.2684256  -0.39299616   0.17257278   -1.2684256   0.87542948  1070540 
 3152000    1.2221726    -1.268722    -1.268722   -0.3928851   0.17924281    -1.268722   0.87583689  1070540 
 3153000    1.2204335   -1.2673131   -1.2673131  -0.39272245   0.17828083   -1.2673131    0.8745906  1070540 
 3154000    1.2212338   -1.2680679   -1.2680679  -0.39290374   0.18012403   -1.2680679   0.87516415  1070540 
 3155000    1.2221569   -1.2682252   -1.2682252  -0.39239958   0.18463164   -1.2682252   0.87582567  1070540 
 3156000    1.2216832   -1.2679722   -1.2679722  -0.39248603   0.17522636   -1.2679722   0.87548615  1070540 
 3157000    1.2207821   -1.2676432   -1.2676432  -0.39280276   0.17291422   -1.2676432   0.87484041  1070540 
 3158000    1.2208366   -1.2673544   -1.2673544  -0.39247485     0.182648   -1.2673544    0.8748795  1070540 
 3159000    1.2234655   -1.2687344   -1.2687344  -0.39197105   0.17799106   -1.2687344    0.8767634  1070540 
 3160000    1.2227758   -1.2682734   -1.2682734  -0.39200428   0.19078028   -1.2682734   0.87626916  1070540 
 3161000    1.2217895    -1.267832    -1.267832  -0.39226965   0.17516799    -1.267832   0.87556233  1070540 
 3162000    1.2223259    -1.268486    -1.268486  -0.39253922   0.18324241    -1.268486   0.87594676  1070540 
 3163000    1.2224689   -1.2686373   -1.2686373  -0.39258803    0.1828135   -1.2686373   0.87604927  1070540 
 3164000    1.2223092   -1.2684498   -1.2684498  -0.39251504   0.18070118   -1.2684498    0.8759348  1070540 
 3165000    1.2205814   -1.2672871   -1.2672871  -0.39259046   0.18277897   -1.2672871    0.8746966  1070540 
 3166000    1.2217847   -1.2681908   -1.2681908  -0.39263194   0.17737399   -1.2681908   0.87555889  1070540 
 3167000    1.2214304   -1.2678431   -1.2678431  -0.39253803   0.18092445   -1.2678431   0.87530504  1070540 
 3168000    1.2209236   -1.2676499   -1.2676499  -0.39270806   0.17849924   -1.2676499   0.87494183  1070540 
 3169000    1.2216575   -1.2678368   -1.2678368  -0.39236899   0.17803291   -1.2678368    0.8754678  1070540 
 3170000    1.2211327   -1.2678121   -1.2678121  -0.39272042   0.18182575   -1.2678121   0.87509169  1070540 
 3171000    1.2218182   -1.2680762   -1.2680762  -0.39249327   0.18272357   -1.2680762   0.87558291  1070540 
 3172000     1.221083   -1.2677014   -1.2677014  -0.39264534   0.18266992   -1.2677014   0.87505604  1070540 
 3173000    1.2220986   -1.2682103   -1.2682103  -0.39242642   0.17593179   -1.2682103   0.87578389  1070540 
 3174000    1.2223202   -1.2684247   -1.2684247  -0.39248209   0.18012205   -1.2684247   0.87594264  1070540 
 3175000    1.2199496   -1.2670608   -1.2670608  -0.39281693   0.17310201   -1.2670608   0.87424382  1070540 
 3176000    1.2218163   -1.2679983   -1.2679983   -0.3924168   0.17714615   -1.2679983   0.87558153  1070540 
 3177000     1.222313   -1.2686096   -1.2686096  -0.39267207   0.17678102   -1.2686096   0.87593749  1070540 
 3178000    1.2212204   -1.2678665   -1.2678665  -0.39271192   0.17985085   -1.2678665   0.87515455  1070540 
 3179000    1.2206842   -1.2676949   -1.2676949  -0.39292464   0.17667461   -1.2676949   0.87477027  1070540 
 3180000     1.221017    -1.267969    -1.267969  -0.39296016   0.18064871    -1.267969    0.8750088  1070540 
 3181000    1.2226093   -1.2689673   -1.2689673   -0.3928175   0.18405217   -1.2689673   0.87614984  1070540 
 3182000    1.2228976   -1.2688503   -1.2688503  -0.39249379   0.17265251   -1.2688503   0.87635648  1070540 
 3183000    1.2217947   -1.2678071   -1.2678071  -0.39224107   0.17799516   -1.2678071   0.87556605  1070540 
 3184000     1.223297   -1.2692521   -1.2692521  -0.39260942    0.1794551   -1.2692521   0.87664266  1070540 
 3185000     1.224367   -1.2699489   -1.2699489  -0.39253942   0.17901498   -1.2699489   0.87740944  1070540 
 3186000    1.2218963   -1.2683371   -1.2683371   -0.3926982   0.18352178   -1.2683371   0.87563889  1070540 
 3187000    1.2214612   -1.2680162   -1.2680162   -0.3926891   0.17923175   -1.2680162   0.87532708  1070540 
 3188000    1.2224663   -1.2679715   -1.2679715  -0.39192418     0.181259   -1.2679715   0.87604733  1070540 
 3189000    1.2230421   -1.2683386   -1.2683386  -0.39187857   0.18109703   -1.2683386   0.87646001  1070540 
 3190000    1.2237283    -1.268993    -1.268993  -0.39204127   0.18222014    -1.268993   0.87695173  1070540 
 3191000    1.2229951   -1.2682153   -1.2682153  -0.39178902   0.18422067   -1.2682153   0.87642632  1070540 
 3192000      1.22196   -1.2679386   -1.2679386  -0.39225407   0.17647131   -1.2679386   0.87568457  1070540 
 3193000      1.22263   -1.2687939   -1.2687939  -0.39262918   0.18046708   -1.2687939   0.87616468  1070540 
 3194000     1.221537   -1.2676418   -1.2676418  -0.39226041   0.17991679   -1.2676418    0.8753814  1070540 
 3195000    1.2233065   -1.2690836   -1.2690836  -0.39243411   0.17439809   -1.2690836   0.87664947  1070540 
 3196000    1.2221497   -1.2680497   -1.2680497  -0.39222919   0.18010663   -1.2680497   0.87582051  1070540 
 3197000    1.2226208   -1.2679262   -1.2679262  -0.39176807   0.18220668   -1.2679262   0.87615812  1070540 
 3198000    1.2232129   -1.2684566   -1.2684566  -0.39187415   0.17692755   -1.2684566   0.87658242  1070540 
 3199000    1.2234944   -1.2687203   -1.2687203  -0.39193614   0.18060697   -1.2687203   0.87678416  1070540 
 3200000    1.2226305   -1.2681279   -1.2681279  -0.39196287   0.18765055   -1.2681279   0.87616504  1070540 
 3201000    1.2200956   -1.2669051   -1.2669051   -0.3925566   0.18071485   -1.2669051   0.87434849  1070540 
 3202000    1.2214988   -1.2684218   -1.2684218  -0.39306773   0.17799692   -1.2684218   0.87535406  1070540 
 3203000    1.2198377   -1.2666236   -1.2666236     -0.39246   0.17935954   -1.2666236   0.87416363  1070540 
 3204000    1.2206747   -1.2672133   -1.2672133  -0.39244986   0.18095748   -1.2672133   0.87476349  1070540 
 3205000    1.2226363   -1.2684428   -1.2684428  -0.39227364   0.18172753   -1.2684428   0.87616916  1070540 
 3206000     1.222411    -1.267942    -1.267942   -0.3919342   0.17679418    -1.267942   0.87600775  1070540 
 3207000    1.2220609   -1.2678768   -1.2678768  -0.39211988   0.18235227   -1.2678768   0.87575688  1070540 
 3208000    1.2223256    -1.268089    -1.268089  -0.39214242   0.18474027    -1.268089   0.87594654  1070540 
 3209000    1.2220789   -1.2683277   -1.2683277    -0.392558   0.18165032   -1.2683277   0.87576974  1070540 
 3210000    1.2213135   -1.2678469   -1.2678469  -0.39262567   0.17785201   -1.2678469   0.87522127  1070540 
 3211000    1.2224627   -1.2690985   -1.2690985  -0.39305374   0.17269858   -1.2690985   0.87604477  1070540 
 3212000    1.2208664   -1.2678454   -1.2678454  -0.39294455   0.17773967   -1.2678454   0.87490087  1070540 
 3213000    1.2226172   -1.2685994   -1.2685994  -0.39244389   0.18209702   -1.2685994   0.87615553  1070540 
 3214000    1.2214586   -1.2682588   -1.2682588  -0.39293356   0.17922608   -1.2682588   0.87532524  1070540 
 3215000    1.2231181   -1.2695288   -1.2695288  -0.39301439   0.17581062   -1.2695288   0.87651444  1070540 
 3216000    1.2222264   -1.2689116   -1.2689116  -0.39303611   0.17595776   -1.2689116   0.87587545  1070540 
 3217000    1.2224492   -1.2689396   -1.2689396  -0.39290451   0.18118176   -1.2689396   0.87603511  1070540 
 3218000    1.2209073   -1.2676108   -1.2676108  -0.39268062   0.18324243   -1.2676108   0.87493019  1070540 
 3219000    1.2221333   -1.2685811   -1.2685811  -0.39277234    0.1757722   -1.2685811   0.87580871  1070540 
 3220000    1.2230805   -1.2688849   -1.2688849  -0.39239736   0.18437742   -1.2688849   0.87648753  1070540 
 3221000    1.2224226   -1.2684303   -1.2684303  -0.39241427   0.17888886   -1.2684303   0.87601603  1070540 
 3222000    1.2230761   -1.2686936   -1.2686936  -0.39220925   0.18553546   -1.2686936   0.87648437  1070540 
 3223000    1.2221693   -1.2684413   -1.2684413  -0.39260679   0.17169261   -1.2684413   0.87583456  1070540 
 3224000    1.2204579   -1.2676251   -1.2676251  -0.39301703    0.1824283   -1.2676251   0.87460809  1070540 
 3225000    1.2209414   -1.2677027   -1.2677027  -0.39274811   0.17972348   -1.2677027   0.87495462  1070540 
 3226000    1.2225948     -1.26849     -1.26849  -0.39235058   0.17956331     -1.26849   0.87613944  1070540 
 3227000    1.2214281   -1.2680784   -1.2680784  -0.39277503   0.18146039   -1.2680784   0.87530336  1070540 
 3228000    1.2235327    -1.269833    -1.269833  -0.39302139   0.17154499    -1.269833   0.87681158  1070540 
 3229000    1.2243588   -1.2695596   -1.2695596  -0.39215599   0.18180974   -1.2695596   0.87740357  1070540 
 3230000    1.2228624   -1.2684167   -1.2684167  -0.39208551   0.19256148   -1.2684167   0.87633123  1070540 
 3231000    1.2229499   -1.2682754   -1.2682754  -0.39188142   0.17696027   -1.2682754   0.87639395  1070540 
 3232000    1.2214677   -1.2674902   -1.2674902  -0.39215842   0.18261296   -1.2674902   0.87533175  1070540 
 3233000    1.2225172   -1.2679825   -1.2679825  -0.39189863   0.17544397   -1.2679825   0.87608383  1070540 
 3234000    1.2233244   -1.2687138   -1.2687138  -0.39205151    0.1804343   -1.2687138   0.87666227  1070540 
 3235000    1.2230747   -1.2683247   -1.2683247  -0.39184133   0.18229447   -1.2683247   0.87648335  1070540 
 3236000    1.2235841   -1.2691151   -1.2691151  -0.39226669    0.1845642   -1.2691151   0.87684838  1070540 
 3237000    1.2216981   -1.2678346   -1.2678346  -0.39233777   0.17280003   -1.2678346   0.87549686  1070540 
 3238000    1.2216605   -1.2679805   -1.2679805   -0.3925106   0.17948838   -1.2679805   0.87546988  1070540 
 3239000    1.2214576   -1.2679796   -1.2679796  -0.39265513   0.18403087   -1.2679796   0.87532449  1070540 
 3240000    1.2214374   -1.2680163   -1.2680163  -0.39270629   0.17958862   -1.2680163   0.87531002  1070540 
 3241000    1.2201994   -1.2669359   -1.2669359  -0.39251303   0.18999893   -1.2669359   0.87442288  1070540 
 3242000    1.2222441   -1.2686598   -1.2686598  -0.39277167   0.17884217   -1.2686598   0.87588817  1070540 
 3243000     1.221636   -1.2681101   -1.2681101  -0.39265777   0.18545321   -1.2681101   0.87545232  1070540 
 3244000    1.2217431   -1.2683359   -1.2683359  -0.39280685   0.17839754   -1.2683359    0.8755291  1070540 
 3245000    1.2228334   -1.2689104   -1.2689104  -0.39260001   0.17867266   -1.2689104   0.87631041  1070540 
 3246000    1.2210248   -1.2681706   -1.2681706  -0.39315619   0.18072772   -1.2681706   0.87501439  1070540 
 3247000    1.2217922   -1.2684396   -1.2684396  -0.39287534   0.18165394   -1.2684396   0.87556428  1070540 
 3248000    1.2219822     -1.26863     -1.26863  -0.39292953   0.18541922     -1.26863   0.87570044  1070540 
 3249000    1.2211335   -1.2682415   -1.2682415  -0.39314918   0.18044333   -1.2682415   0.87509229  1070540 
 3250000    1.2215909   -1.2688273   -1.2688273  -0.39340727   0.17915884   -1.2688273   0.87542005  1070540 
 3251000    1.2204673   -1.2678557   -1.2678557  -0.39324083    0.1771787   -1.2678557   0.87461483  1070540 
 3252000    1.2224203   -1.2693537   -1.2693537  -0.39333924   0.18317226   -1.2693537   0.87601441  1070540 
 3253000     1.220877   -1.2682736   -1.2682736  -0.39336515   0.19498942   -1.2682736   0.87490847  1070540 
 3254000    1.2230336   -1.2693316   -1.2693316  -0.39287773   0.18068591   -1.2693316   0.87645388  1070540 
 3255000    1.2232127   -1.2690979   -1.2690979  -0.39251564   0.18554915   -1.2690979   0.87658229  1070540 
 3256000    1.2212059   -1.2682213   -1.2682213  -0.39307716   0.18247851   -1.2682213   0.87514416  1070540 
 3257000    1.2206331   -1.2677352   -1.2677352  -0.39300155   0.17999105   -1.2677352   0.87473363  1070540 
 3258000    1.2229881   -1.2688548   -1.2688548   -0.3924335   0.18498903   -1.2688548    0.8764213  1070540 
 3259000    1.2205302   -1.2673662   -1.2673662  -0.39270631   0.18445366   -1.2673662   0.87465993  1070540 
 3260000    1.2213945   -1.2681726   -1.2681726   -0.3928933   0.17768499   -1.2681726   0.87527927  1070540 
 3261000    1.2225658   -1.2688486   -1.2688486     -0.39273   0.17742154   -1.2688486   0.87611864  1070540 
 3262000    1.2223721   -1.2686973   -1.2686973  -0.39271741   0.18212447   -1.2686973   0.87597986  1070540 
 3263000    1.2228542   -1.2690647   -1.2690647  -0.39273942   0.17365356   -1.2690647   0.87632532  1070540 
 3264000    1.2221923   -1.2685738   -1.2685738  -0.39272276   0.17553447   -1.2685738   0.87585101  1070540 
 3265000    1.2219214   -1.2681557   -1.2681557  -0.39249885   0.17989736   -1.2681557   0.87565686  1070540 
 3266000     1.221971   -1.2681096   -1.2681096  -0.39241716   0.17257555   -1.2681096   0.87569244  1070540 
 3267000    1.2232592   -1.2685848   -1.2685848  -0.39196926    0.1791231   -1.2685848   0.87661559  1070540 
 3268000    1.2230136   -1.2681686   -1.2681686  -0.39172903   0.18384129   -1.2681686   0.87643958  1070540 
 3269000     1.223532   -1.2687465   -1.2687465  -0.39193545    0.1834951   -1.2687465   0.87681106  1070540 
 3270000    1.2229041   -1.2685195   -1.2685195  -0.39215838   0.18164317   -1.2685195    0.8763611  1070540 
 3271000    1.2227825   -1.2682726   -1.2682726   -0.3919987   0.18196088   -1.2682726   0.87627393  1070540 
 3272000    1.2210816   -1.2669185   -1.2669185  -0.39186343   0.19008607   -1.2669185   0.87505504  1070540 
 3273000    1.2220079   -1.2674136   -1.2674136   -0.3916947   0.18365092   -1.2674136   0.87571887  1070540 
 3274000    1.2220896   -1.2674039   -1.2674039  -0.39162645   0.17160601   -1.2674039   0.87577742  1070540 
 3275000     1.222536   -1.2676636   -1.2676636  -0.39156632    0.1779334   -1.2676636   0.87609729  1070540 
 3276000    1.2220397   -1.2679618   -1.2679618  -0.39222013   0.17817643   -1.2679618   0.87574168  1070540 
 3277000    1.2228632   -1.2681698   -1.2681698  -0.39183805   0.18101727   -1.2681698   0.87633177  1070540 
 3278000    1.2231444   -1.2686837   -1.2686837  -0.39215046   0.17930753   -1.2686837   0.87653328  1070540 
 3279000    1.2230694   -1.2680624   -1.2680624  -0.39158286   0.18854168   -1.2680624   0.87647956  1070540 
 3280000    1.2232972   -1.2681811   -1.2681811  -0.39153827   0.17676313   -1.2681811   0.87664278  1070540 
 3281000    1.2216815   -1.2675648   -1.2675648  -0.39207977   0.18693931   -1.2675648   0.87548499  1070540 
 3282000     1.221647   -1.2675022   -1.2675022  -0.39204198    0.1780394   -1.2675022   0.87546023  1070540 
 3283000     1.221857   -1.2682363   -1.2682363  -0.39262558   0.17747706   -1.2682363   0.87561071  1070540 
 3284000    1.2224652    -1.268675    -1.268675  -0.39262838   0.17452725    -1.268675   0.87604657  1070540 
 3285000    1.2245236   -1.2696001   -1.2696001  -0.39207845   0.18498273   -1.2696001   0.87752166  1070540 
 3286000    1.2232649   -1.2684637   -1.2684637  -0.39184404   0.17905156   -1.2684637   0.87661968  1070540 
 3287000     1.221963   -1.2679557   -1.2679557  -0.39226897   0.17737919   -1.2679557    0.8756867  1070540 
 3288000    1.2212148   -1.2676103   -1.2676103  -0.39245978   0.18314372   -1.2676103   0.87515051  1070540 
 3289000    1.2232023   -1.2687995   -1.2687995  -0.39222467   0.17751333   -1.2687995   0.87657484  1070540 
 3290000    1.2234255   -1.2695084   -1.2695084   -0.3927736   0.18201325   -1.2695084   0.87673477  1070540 
 3291000    1.2219391   -1.2688059   -1.2688059  -0.39313637   0.18687499   -1.2688059   0.87566955  1070540 
 3292000    1.2213095   -1.2687747   -1.2687747  -0.39355628   0.18791953   -1.2687747   0.87521837  1070540 
 3293000    1.2214046   -1.2687838   -1.2687838  -0.39349727   0.17822305   -1.2687838   0.87528653  1070540 
 3294000    1.2230105   -1.2693939   -1.2693939  -0.39295659   0.18144972   -1.2693939   0.87643734  1070540 
 3295000    1.2224684   -1.2692358   -1.2692358  -0.39318698   0.19176606   -1.2692358   0.87604886  1070540 
 3296000    1.2217942   -1.2683477   -1.2683477  -0.39278199     0.173513   -1.2683477   0.87556574  1070540 
 3297000    1.2215221   -1.2686671   -1.2686671  -0.39329636   0.18017122   -1.2686671   0.87537073  1070540 
 3298000    1.2208898   -1.2685999   -1.2685999  -0.39368232   0.17280332   -1.2685999   0.87491759  1070540 
 3299000    1.2228562   -1.2691057   -1.2691057   -0.3927789   0.18165934   -1.2691057   0.87632678  1070540 
 3300000    1.2215632   -1.2685531   -1.2685531  -0.39315294   0.17712326   -1.2685531   0.87540016  1070540 
 3301000    1.2208138   -1.2684272   -1.2684272  -0.39356413   0.18234063   -1.2684272   0.87486311  1070540 
 3302000    1.2212046   -1.2686128   -1.2686128   -0.3934696   0.18182257   -1.2686128   0.87514317  1070540 
 3303000    1.2219367    -1.269351    -1.269351  -0.39368315   0.17917137    -1.269351   0.87566782  1070540 
 3304000    1.2227045   -1.2696879   -1.2696879  -0.39346979   0.17598712   -1.2696879   0.87621809  1070540 
 3305000    1.2212193   -1.2686078   -1.2686078  -0.39345409   0.17681241   -1.2686078   0.87515374  1070540 
 3306000    1.2204282   -1.2676398   -1.2676398  -0.39305298   0.18481074   -1.2676398   0.87458685  1070540 
 3307000    1.2204123   -1.2680481   -1.2680481  -0.39347266   0.18610169   -1.2680481   0.87457544  1070540 
 3308000    1.2228437   -1.2690019   -1.2690019  -0.39268415   0.18171231   -1.2690019   0.87631779  1070540 
 3309000    1.2218192   -1.2685302   -1.2685302  -0.39294654   0.18068099   -1.2685302   0.87558364  1070540 
 3310000    1.2221997   -1.2681323   -1.2681323  -0.39227593   0.18751984   -1.2681323   0.87585632  1070540 
 3311000    1.2221553   -1.2681577   -1.2681577  -0.39233323   0.17155333   -1.2681577   0.87582449  1070540 
 3312000    1.2237118   -1.2689531   -1.2689531  -0.39201321   0.17525185   -1.2689531    0.8769399  1070540 
 3313000    1.2233126   -1.2686744   -1.2686744  -0.39202052   0.19357004   -1.2686744   0.87665386  1070540 
 3314000    1.2216361   -1.2679731   -1.2679731  -0.39252068   0.18340773   -1.2679731   0.87545243  1070540 
 3315000    1.2214181   -1.2676389   -1.2676389   -0.3923427    0.1869971   -1.2676389   0.87529618  1070540 
 3316000    1.2209081    -1.267418    -1.267418   -0.3924872   0.18055336    -1.267418   0.87493075  1070540 
 3317000    1.2229211   -1.2688318   -1.2688318  -0.39245852   0.18095316   -1.2688318   0.87637326  1070540 
 3318000    1.2215413   -1.2677971   -1.2677971  -0.39241264   0.18612001   -1.2677971   0.87538448  1070540 
 3319000    1.2207927    -1.267839    -1.267839  -0.39299101   0.18954766    -1.267839   0.87484801  1070540 
 3320000    1.2212155   -1.2677153   -1.2677153  -0.39256432   0.18296828   -1.2677153   0.87515103  1070540 
 3321000    1.2218862   -1.2681485   -1.2681485  -0.39251685   0.18063244   -1.2681485   0.87563164  1070540 
 3322000    1.2213417   -1.2684437   -1.2684437  -0.39320229   0.18172761   -1.2684437   0.87524144  1070540 
 3323000    1.2208908   -1.2684445   -1.2684445  -0.39352619   0.18199903   -1.2684445   0.87491835  1070540 
 3324000    1.2210549   -1.2684594   -1.2684594  -0.39342347   0.17396995   -1.2684594    0.8750359  1070540 
 3325000    1.2206128   -1.2677727   -1.2677727  -0.39305357   0.17801852   -1.2677727   0.87471909  1070540 
 3326000    1.2222718   -1.2687862   -1.2687862  -0.39287816   0.17980609   -1.2687862   0.87590801  1070540 
 3327000    1.2213509   -1.2677481   -1.2677481  -0.39250005   0.17897487   -1.2677481   0.87524805  1070540 
 3328000    1.2222114   -1.2680841   -1.2680841  -0.39221935   0.17980034   -1.2680841   0.87586473  1070540 
 3329000     1.222479    -1.268521    -1.268521   -0.3924646   0.19031708    -1.268521   0.87605644  1070540 
 3330000    1.2221551    -1.267945    -1.267945   -0.3921206   0.18349854    -1.267945   0.87582438  1070540 
 3331000    1.2220506   -1.2686173   -1.2686173  -0.39286781   0.17563378   -1.2686173   0.87574947  1070540 
 3332000    1.2228114   -1.2690186   -1.2690186  -0.39272395   0.17823704   -1.2690186   0.87629466  1070540 
 3333000    1.2223793    -1.268146    -1.268146    -0.392161   0.18319996    -1.268146   0.87598503  1070540 
 3334000    1.2220301   -1.2681971   -1.2681971  -0.39246232   0.17623372   -1.2681971    0.8757348  1070540 
 3335000    1.2231219   -1.2686146   -1.2686146  -0.39209745   0.17434026   -1.2686146   0.87651718  1070540 
 3336000    1.2221692   -1.2678585   -1.2678585  -0.39202406   0.18099207   -1.2678585   0.87583444  1070540 
 3337000    1.2222486   -1.2677867   -1.2677867   -0.3918953   0.18157022   -1.2677867   0.87589135  1070540 
 3338000    1.2235969   -1.2685922   -1.2685922  -0.39173457   0.17986417   -1.2685922   0.87685761  1070540 
 3339000    1.2240617   -1.2690213   -1.2690213  -0.39183062    0.1841781   -1.2690213   0.87719066  1070540 
 3340000    1.2218201   -1.2675869   -1.2675869  -0.39200258   0.18318851   -1.2675869   0.87558432  1070540 
 3341000    1.2222927   -1.2677756   -1.2677756   -0.3918527   0.18707953   -1.2677756   0.87592293  1070540 
 3342000    1.2243264   -1.2689751   -1.2689751  -0.39159482   0.17800032   -1.2689751   0.87738033  1070540 
 3343000    1.2231801   -1.2681292   -1.2681292  -0.39157031   0.18205061   -1.2681292   0.87655891  1070540 
 3344000    1.2221407   -1.2670523   -1.2670523  -0.39123824   0.18247849   -1.2670523   0.87581406  1070540 
 3345000    1.2245786   -1.2686029   -1.2686029  -0.39104177   0.17573402   -1.2686029   0.87756109  1070540 
 3346000    1.2229239   -1.2677558   -1.2677558  -0.39138051   0.18554456   -1.2677558   0.87637532  1070540 
 3347000    1.2236577   -1.2683164   -1.2683164  -0.39141527   0.18424572   -1.2683164   0.87690113  1070540 
 3348000    1.2245985   -1.2688643   -1.2688643  -0.39128895   0.18170215   -1.2688643   0.87757537  1070540 
 3349000    1.2222222   -1.2677091   -1.2677091  -0.39183668   0.17944302   -1.2677091   0.87587244  1070540 
 3350000    1.2223236   -1.2678015   -1.2678015   -0.3918564   0.18620228   -1.2678015    0.8759451  1070540 
 3351000    1.2227511   -1.2678205   -1.2678205  -0.39156899   0.18840099   -1.2678205   0.87625147  1070540 
 3352000     1.223648   -1.2682681   -1.2682681  -0.39137388   0.17706913   -1.2682681   0.87689419  1070540 
 3353000    1.2238057   -1.2685964   -1.2685964   -0.3915892   0.17728582   -1.2685964   0.87700723  1070540 
 3354000    1.2240386   -1.2688351   -1.2688351  -0.39166096   0.17641989   -1.2688351   0.87717411  1070540 
 3355000    1.2218248   -1.2675368   -1.2675368   -0.3919491   0.18795046   -1.2675368   0.87558769  1070540 
 3356000     1.223307   -1.2689574   -1.2689574  -0.39230758   0.17885484   -1.2689574   0.87664981  1070540 
 3357000    1.2232273   -1.2692791   -1.2692791  -0.39268639   0.17807411   -1.2692791   0.87659273  1070540 
 3358000    1.2221829    -1.268183    -1.268183  -0.39233879   0.17465779    -1.268183   0.87584425  1070540 
 3359000     1.223068   -1.2684987   -1.2684987   -0.3920201   0.17520058   -1.2684987   0.87647856  1070540 
 3360000    1.2231425   -1.2687925   -1.2687925  -0.39226055    0.1852124   -1.2687925   0.87653198  1070540 
 3361000    1.2229206   -1.2686507   -1.2686507  -0.39227774   0.18437395   -1.2686507   0.87637292  1070540 
 3362000    1.2225252   -1.2682919   -1.2682919  -0.39220233   0.18380151   -1.2682919   0.87608959  1070540 
 3363000     1.223567   -1.2694093   -1.2694093  -0.39257313   0.17605969   -1.2694093   0.87683614  1070540 
 3364000    1.2225507   -1.2682641   -1.2682641  -0.39215628   0.18355954   -1.2682641   0.87610787  1070540 
 3365000    1.2238003   -1.2697592   -1.2697592   -0.3927559   0.17908787   -1.2697592   0.87700334  1070540 
 3366000    1.2238655   -1.2694387   -1.2694387  -0.39238865   0.17979993   -1.2694387   0.87705008  1070540 
 3367000    1.2230755   -1.2683502   -1.2683502  -0.39186629   0.18815363   -1.2683502   0.87648395  1070540 
 3368000    1.2238952   -1.2689083   -1.2689083  -0.39183695   0.18754116   -1.2689083   0.87707136  1070540 
 3369000    1.2242821    -1.268556    -1.268556   -0.3912074   0.17577793    -1.268556   0.87734859  1070540 
 3370000    1.2245006   -1.2690552   -1.2690552     -0.39155   0.18425807   -1.2690552   0.87750523  1070540 
 3371000    1.2245976   -1.2690089   -1.2690089  -0.39143427   0.18234658   -1.2690089   0.87757468  1070540 
 3372000    1.2247744   -1.2694765   -1.2694765  -0.39177505   0.17635383   -1.2694765   0.87770141  1070540 
 3373000    1.2233024   -1.2679581   -1.2679581  -0.39131154   0.18270067   -1.2679581   0.87664651  1070540 
 3374000    1.2244382   -1.2688307   -1.2688307  -0.39137021   0.17963203   -1.2688307   0.87746049  1070540 
 3375000    1.2217504   -1.2671039   -1.2671039  -0.39156953   0.17239229   -1.2671039   0.87553437  1070540 
 3376000    1.2229797   -1.2683759   -1.2683759  -0.39196065   0.18267564   -1.2683759   0.87641528  1070540 
 3377000    1.2235696   -1.2685033   -1.2685033   -0.3916653   0.18736653   -1.2685033   0.87683799  1070540 
 3378000    1.2234645   -1.2680316   -1.2680316   -0.3912689   0.18215257   -1.2680316   0.87676269  1070540 
 3379000    1.2227137    -1.267887    -1.267887  -0.39166237   0.18662582    -1.267887   0.87622463  1070540 
 3380000    1.2225388   -1.2673928   -1.2673928  -0.39129348   0.17779862   -1.2673928   0.87609933  1070540 
 3381000    1.2233763   -1.2683835   -1.2683835  -0.39168398     0.177099   -1.2683835    0.8766995  1070540 
 3382000    1.2243614   -1.2684512   -1.2684512  -0.39104581   0.18177885   -1.2684512   0.87740541  1070540 
 3383000    1.2228898   -1.2670738   -1.2670738  -0.39072295   0.18813133   -1.2670738   0.87635085  1070540 
 3384000    1.2235766    -1.267667    -1.267667    -0.390824   0.18149213    -1.267667   0.87684304  1070540 
 3385000    1.2224921   -1.2671608   -1.2671608  -0.39109494   0.17509172   -1.2671608   0.87606584  1070540 
 3386000    1.2235068   -1.2675518   -1.2675518  -0.39075885   0.18289024   -1.2675518     0.876793  1070540 
 3387000    1.2244076   -1.2680545   -1.2680545  -0.39061596   0.17930535   -1.2680545   0.87743852  1070540 
 3388000    1.2229065   -1.2672928   -1.2672928  -0.39092996   0.17908199   -1.2672928   0.87636285  1070540 
 3389000     1.221471   -1.2663244   -1.2663244  -0.39099031   0.18254188   -1.2663244   0.87533408  1070540 
 3390000    1.2228415   -1.2675064   -1.2675064  -0.39119014   0.17820274   -1.2675064   0.87631624  1070540 
 3391000    1.2233373   -1.2678004   -1.2678004  -0.39112879   0.18308962   -1.2678004   0.87667156  1070540 
 3392000    1.2223658   -1.2670846   -1.2670846  -0.39110921   0.17449028   -1.2670846   0.87597535  1070540 
 3393000    1.2222902   -1.2671439   -1.2671439   -0.3912227   0.18345469   -1.2671439   0.87592119  1070540 
 3394000    1.2229332   -1.2679245   -1.2679245  -0.39154249   0.17466291   -1.2679245   0.87638197  1070540 
 3395000    1.2243519    -1.268313    -1.268313   -0.3909143   0.18926038    -1.268313   0.87739866  1070540 
 3396000    1.2244025   -1.2680123   -1.2680123  -0.39057735   0.18494592   -1.2680123   0.87743491  1070540 
 3397000    1.2236558   -1.2674923   -1.2674923  -0.39059255   0.17832743   -1.2674923   0.87689977  1070540 
 3398000    1.2240204   -1.2675303   -1.2675303   -0.3903692   0.18839195   -1.2675303   0.87716106  1070540 
 3399000    1.2236039   -1.2672337   -1.2672337  -0.39037109   0.17580698   -1.2672337   0.87686258  1070540 
 3400000    1.2218247    -1.266102    -1.266102  -0.39051442   0.18345653    -1.266102   0.87558758  1070540 
 3401000    1.2210608   -1.2658755   -1.2658755  -0.39083534   0.18146826   -1.2658755   0.87504019  1070540 
 3402000       1.2227   -1.2669654   -1.2669654  -0.39075055   0.18284171   -1.2669654   0.87621484  1070540 
 3403000    1.2237631    -1.267363    -1.267363  -0.39038633   0.18960662    -1.267363    0.8769767  1070540 
 3404000    1.2239876   -1.2677915   -1.2677915   -0.3906539   0.18376019   -1.2677915   0.87713757  1070540 
 3405000    1.2237664   -1.2674413   -1.2674413   -0.3904623   0.17507358   -1.2674413   0.87697903  1070540 
 3406000    1.2232812   -1.2672961   -1.2672961  -0.39066473   0.17588172   -1.2672961   0.87663135  1070540 
 3407000    1.2250691    -1.268535    -1.268535  -0.39062237   0.17428754    -1.268535   0.87791262  1070540 
 3408000    1.2240664    -1.267608    -1.267608  -0.39041392   0.18051598    -1.267608   0.87719404  1070540 
 3409000    1.2233652   -1.2673002   -1.2673002  -0.39060864    0.1818812   -1.2673002   0.87669155  1070540 
 3410000    1.2245517   -1.2685405   -1.2685405  -0.39099872   0.18988349   -1.2685405   0.87754182  1070540 
 3411000    1.2225559   -1.2667578   -1.2667578  -0.39064623   0.18575679   -1.2667578   0.87611161  1070540 
 3412000    1.2222688   -1.2672716   -1.2672716  -0.39136576    0.1730212   -1.2672716   0.87590585  1070540 
 3413000    1.2225312   -1.2672712   -1.2672712  -0.39117734   0.18371341   -1.2672712    0.8760939  1070540 
 3414000    1.2231947   -1.2676661   -1.2676661  -0.39109672   0.18058216   -1.2676661   0.87656937  1070540 
 3415000    1.2226964   -1.2675393   -1.2675393  -0.39132704    0.1732516   -1.2675393   0.87621228  1070540 
 3416000    1.2231611   -1.2676214   -1.2676214  -0.39107615   0.18073637   -1.2676214   0.87654525  1070540 
 3417000    1.2232579   -1.2677205   -1.2677205  -0.39110582   0.18624969   -1.2677205   0.87661466  1070540 
 3418000    1.2235154   -1.2673977   -1.2673977  -0.39059849   0.18299495   -1.2673977   0.87679921  1070540 
 3419000    1.2223306   -1.2667127   -1.2667127   -0.3907626   0.18194286   -1.2667127   0.87595013  1070540 
 3420000     1.223198   -1.2677763   -1.2677763  -0.39120463   0.18094371   -1.2677763    0.8765717  1070540 
 3421000    1.2239306   -1.2681124   -1.2681124   -0.3910157   0.19750755   -1.2681124    0.8770967  1070540 
 3422000    1.2226472   -1.2673444   -1.2673444  -0.39116739   0.18434628   -1.2673444     0.876177  1070540 
 3423000    1.2231141   -1.2682586   -1.2682586  -0.39174698    0.1847042   -1.2682586   0.87651158  1070540 
 3424000    1.2228003   -1.2674859   -1.2674859  -0.39119913   0.18664636   -1.2674859   0.87628673  1070540 
 3425000    1.2232609   -1.2680179   -1.2680179  -0.39140103   0.17951215   -1.2680179   0.87661682  1070540 
 3426000    1.2238534   -1.2687973   -1.2687973  -0.39175586    0.1764227   -1.2687973   0.87704141  1070540 
 3427000    1.2229182   -1.2682463   -1.2682463  -0.39187508   0.17967531   -1.2682463    0.8763712  1070540 
 3428000    1.2239094   -1.2684707   -1.2684707  -0.39138921   0.18383713   -1.2684707    0.8770815  1070540 
 3429000    1.2235229   -1.2686139   -1.2686139  -0.39180935   0.17821174   -1.2686139   0.87680456  1070540 
 3430000    1.2221466   -1.2673353   -1.2673353  -0.39151699   0.17979849   -1.2673353   0.87581829  1070540 
 3431000    1.2245319   -1.2693275   -1.2693275  -0.39179988   0.18280692   -1.2693275   0.87752764  1070540 
 3432000    1.2225415   -1.2676802   -1.2676802  -0.39157893   0.17980798   -1.2676802   0.87610126  1070540 
 3433000    1.2234473    -1.267947    -1.267947  -0.39119662   0.18287228    -1.267947   0.87675034  1070540 
 3434000    1.2229254   -1.2673718   -1.2673718  -0.39099543   0.17755129   -1.2673718   0.87637636  1070540 
 3435000     1.223277   -1.2671574   -1.2671574  -0.39052914   0.18662712   -1.2671574   0.87662831  1070540 
 3436000    1.2235397   -1.2676977   -1.2676977  -0.39088112   0.18830757   -1.2676977   0.87681663  1070540 
 3437000    1.2245934   -1.2681739   -1.2681739  -0.39060219   0.18117972   -1.2681739   0.87757173  1070540 
 3438000    1.2238577   -1.2678542   -1.2678542  -0.39080978   0.17206685   -1.2678542   0.87704445  1070540 
 3439000    1.2217033   -1.2665468   -1.2665468  -0.39104622   0.18099582   -1.2665468   0.87550062  1070540 
 3440000     1.222529   -1.2675526   -1.2675526   -0.3914603   0.18150359   -1.2675526   0.87609231  1070540 
 3441000    1.2231957   -1.2680981   -1.2680981  -0.39152797   0.17925206   -1.2680981    0.8765701  1070540 
 3442000    1.2231994   -1.2673533   -1.2673533  -0.39078058    0.1839524   -1.2673533    0.8765727  1070540 
 3443000    1.2253007   -1.2691121   -1.2691121  -0.39103355   0.18436969   -1.2691121   0.87807856  1070540 
 3444000    1.2243894   -1.2686191   -1.2686191  -0.39119365   0.18145958   -1.2686191   0.87742548  1070540 
 3445000    1.2236909   -1.2680737   -1.2680737  -0.39114877   0.17909474   -1.2680737   0.87692492  1070540 
 3446000    1.2242912   -1.2687178   -1.2687178  -0.39136264   0.18615876   -1.2687178   0.87735515  1070540 
 3447000     1.223659   -1.2674922   -1.2674922  -0.39059017   0.18258647   -1.2674922   0.87690207  1070540 
 3448000    1.2245745   -1.2680956   -1.2680956  -0.39053748   0.18283856   -1.2680956   0.87755815  1070540 
 3449000    1.2245399   -1.2678002   -1.2678002  -0.39026682   0.17928878   -1.2678002   0.87753334  1070540 
 3450000    1.2239619   -1.2667771   -1.2667771  -0.38965792   0.18055533   -1.2667771   0.87711914  1070540 
 3451000    1.2241352   -1.2671316   -1.2671316  -0.38988819   0.17854665   -1.2671316   0.87724336  1070540 
 3452000    1.2237191   -1.2673721   -1.2673721  -0.39042698   0.18542985   -1.2673721   0.87694515  1070540 
 3453000    1.2251132   -1.2680028   -1.2680028  -0.39005857   0.18350472   -1.2680028   0.87794422  1070540 
 3454000    1.2266278   -1.2691106   -1.2691106  -0.39008106   0.18928676   -1.2691106   0.87902959  1070540 
 3455000    1.2249154   -1.2682177   -1.2682177  -0.39041528   0.17684205   -1.2682177   0.87780243  1070540 
 3456000    1.2256866   -1.2684904   -1.2684904  -0.39013532   0.17968997   -1.2684904   0.87835508  1070540 
 3457000    1.2240085   -1.2676761   -1.2676761  -0.39052358   0.17628234   -1.2676761   0.87715254  1070540 
 3458000    1.2250881   -1.2683159   -1.2683159  -0.39038974   0.17741252   -1.2683159   0.87792619  1070540 
 3459000    1.2242289   -1.2673982   -1.2673982  -0.39008774   0.18748535   -1.2673982   0.87731045  1070540 
 3460000    1.2241444    -1.267298    -1.267298   -0.3900481   0.18590329    -1.267298   0.87724992  1070540 
 3461000    1.2253361   -1.2682433   -1.2682433  -0.39013937   0.17551348   -1.2682433   0.87810392  1070540 
 3462000    1.2243061   -1.2675517   -1.2675517  -0.39018583   0.17995934   -1.2675517   0.87736583  1070540 
 3463000    1.2231848   -1.2665785   -1.2665785   -0.3900162   0.17399759   -1.2665785   0.87656225  1070540 
 3464000    1.2234584   -1.2671407   -1.2671407  -0.39038242   0.17846363   -1.2671407   0.87675831  1070540 
 3465000    1.2226117   -1.2666049   -1.2666049  -0.39045333   0.18482258   -1.2666049   0.87615155  1070540 
 3466000    1.2230757   -1.2664896   -1.2664896  -0.39000544   0.17186169   -1.2664896   0.87648411  1070540 
 3467000    1.2237491   -1.2674571   -1.2674571  -0.39049047   0.18341363   -1.2674571   0.87696663  1070540 
 3468000    1.2248425   -1.2679726   -1.2679726  -0.39022235   0.18634866   -1.2679726   0.87775024  1070540 
 3469000     1.224197   -1.2671406   -1.2671406  -0.38985294   0.18130419   -1.2671406   0.87728764  1070540 
 3470000     1.223964   -1.2672593   -1.2672593  -0.39013869   0.18017297   -1.2672593   0.87712064  1070540 
 3471000    1.2232217   -1.2670408   -1.2670408  -0.39045206   0.18912758   -1.2670408   0.87658869  1070540 
 3472000    1.2238973   -1.2674467   -1.2674467  -0.39037382   0.17977419   -1.2674467   0.87707287  1070540 
 3473000    1.2232733   -1.2668583   -1.2668583  -0.39023263   0.18317055   -1.2668583   0.87662567  1070540 
 3474000     1.224414   -1.2677762   -1.2677762  -0.39033309   0.17354865   -1.2677762   0.87744312  1070540 
 3475000    1.2230992   -1.2668481   -1.2668481  -0.39034718   0.19002216   -1.2668481   0.87650095  1070540 
 3476000    1.2225077   -1.2667393   -1.2667393  -0.39066233   0.18364609   -1.2667393   0.87607701  1070540 
 3477000    1.2248602    -1.267992    -1.267992  -0.39022917    0.1778364    -1.267992   0.87776287  1070540 
 3478000     1.223369   -1.2668849   -1.2668849  -0.39019063   0.18682616   -1.2668849    0.8766943  1070540 
 3479000    1.2232756   -1.2668556   -1.2668556  -0.39022831   0.18464828   -1.2668556   0.87662733  1070540 
 3480000      1.22475   -1.2680148   -1.2680148  -0.39033088   0.17784727   -1.2680148   0.87768392  1070540 
 3481000    1.2242818   -1.2678792   -1.2678792  -0.39053077   0.18315718   -1.2678792   0.87734843  1070540 
 3482000    1.2243901   -1.2681807   -1.2681807  -0.39075463   0.19127001   -1.2681807   0.87742604  1070540 
 3483000    1.2250163   -1.2684292   -1.2684292  -0.39055448   0.18772646   -1.2684292   0.87787477  1070540 
 3484000    1.2250913   -1.2683931   -1.2683931  -0.39046458   0.18591528   -1.2683931   0.87792851  1070540 
 3485000    1.2240215    -1.268267    -1.268267  -0.39110518   0.18760603    -1.268267   0.87716186  1070540 
 3486000    1.2236169   -1.2682681   -1.2682681  -0.39139619   0.19039201   -1.2682681    0.8768719  1070540 
 3487000    1.2251467   -1.2688808   -1.2688808  -0.39091264   0.17790846   -1.2688808   0.87796819  1070540 
 3488000    1.2248747   -1.2687016   -1.2687016   -0.3909283   0.18021665   -1.2687016   0.87777327  1070540 
 3489000    1.2249562   -1.2685472   -1.2685472   -0.3907155   0.18710763   -1.2685472   0.87783172  1070540 
 3490000    1.2250755   -1.2688763   -1.2688763  -0.39095911   0.18400855   -1.2688763   0.87791722  1070540 
 3491000    1.2235298   -1.2682064   -1.2682064  -0.39139689    0.1903346   -1.2682064   0.87680951  1070540 
 3492000    1.2235692   -1.2683704   -1.2683704  -0.39153271   0.18275685   -1.2683704   0.87683774  1070540 
 3493000    1.2230541   -1.2677421   -1.2677421   -0.3912735   0.18345702   -1.2677421   0.87646857  1070540 
 3494000    1.2251109   -1.2689916   -1.2689916  -0.39104904    0.1846299   -1.2689916   0.87794253  1070540 
 3495000     1.222511   -1.2669192   -1.2669192  -0.39083979   0.18331316   -1.2669192   0.87607941  1070540 
 3496000    1.2238757   -1.2675574   -1.2675574  -0.39050006   0.18191273   -1.2675574   0.87705737  1070540 
 3497000    1.2243223   -1.2681883   -1.2681883  -0.39081085   0.18104627   -1.2681883   0.87737742  1070540 
 3498000    1.2255544   -1.2695159   -1.2695159  -0.39125552   0.18816927   -1.2695159   0.87826039  1070540 
 3499000    1.2252468   -1.2691358   -1.2691358   -0.3910959    0.1894012   -1.2691358   0.87803991  1070540 
 3500000    1.2230006   -1.2674107   -1.2674107  -0.39098046   0.18765792   -1.2674107   0.87643028  1070540 
 3501000    1.2248623   -1.2686374   -1.2686374    -0.390873   0.17541867   -1.2686374   0.87776443  1070540 
 3502000    1.2255404   -1.2690577   -1.2690577  -0.39080737   0.18407359   -1.2690577    0.8782503  1070540 
 3503000    1.2248542     -1.26853     -1.26853  -0.39077147   0.17862729     -1.26853   0.87775858  1070540 
 3504000    1.2256641   -1.2694461   -1.2694461  -0.39110712   0.18754636   -1.2694461   0.87833897  1070540 
 3505000    1.2255283   -1.2691709   -1.2691709   -0.3909292   0.17863078   -1.2691709    0.8782417  1070540 
 3506000    1.2256483    -1.268994    -1.268994  -0.39066634   0.17640764    -1.268994    0.8783277  1070540 
 3507000    1.2248845   -1.2681954   -1.2681954  -0.39041507   0.18637149   -1.2681954   0.87778029  1070540 
 3508000    1.2259279     -1.26908     -1.26908  -0.39055192      0.18649     -1.26908   0.87852803  1070540 
 3509000    1.2239269   -1.2678183   -1.2678183  -0.39072416   0.18536287   -1.2678183   0.87709409  1070540 
 3510000    1.2245607   -1.2680699   -1.2680699  -0.39052166   0.18067612   -1.2680699   0.87754828  1070540 
 3511000    1.2254131   -1.2688384   -1.2688384  -0.39067933   0.17922812   -1.2688384   0.87815911  1070540 
 3512000    1.2246547   -1.2682924   -1.2682924  -0.39067673   0.18442079   -1.2682924   0.87761564  1070540 
 3513000    1.2236504   -1.2671606   -1.2671606  -0.39026469   0.18761335   -1.2671606   0.87689593  1070540 
 3514000      1.22443   -1.2677297   -1.2677297  -0.39027512   0.18293048   -1.2677297   0.87745459  1070540 
 3515000     1.224495   -1.2668456   -1.2668456  -0.38934444   0.19176887   -1.2668456   0.87750118  1070540 
 3516000    1.2250462   -1.2678777   -1.2678777  -0.38998148   0.17983795   -1.2678777   0.87789621  1070540 
 3517000    1.2249849   -1.2672053   -1.2672053    -0.389353   0.18445122   -1.2672053   0.87785225  1070540 
 3518000    1.2248456    -1.266774    -1.266774  -0.38902154   0.18991714    -1.266774   0.87775243  1070540 
 3519000    1.2253301   -1.2675011   -1.2675011  -0.38940153   0.18743916   -1.2675011    0.8780996  1070540 
 3520000    1.2269635   -1.2682487   -1.2682487  -0.38897857   0.18123373   -1.2682487   0.87927014  1070540 
 3521000    1.2267866   -1.2678475   -1.2678475  -0.38870412   0.18355064   -1.2678475   0.87914339  1070540 
 3522000    1.2249021   -1.2669623   -1.2669623  -0.38916939   0.18862713   -1.2669623   0.87779294  1070540 
 3523000    1.2252049   -1.2671429   -1.2671429  -0.38913297   0.17981382   -1.2671429   0.87800994  1070540 
 3524000    1.2243461   -1.2666134   -1.2666134  -0.38921891   0.18801073   -1.2666134    0.8773945  1070540 
 3525000    1.2258283   -1.2675706   -1.2675706   -0.3891139   0.18504838   -1.2675706   0.87845665  1070540 
 3526000    1.2247097   -1.2672794   -1.2672794  -0.38962442   0.18720781   -1.2672794   0.87765502  1070540 
 3527000    1.2261692   -1.2679335   -1.2679335  -0.38923254   0.17874426   -1.2679335   0.87870092  1070540 
 3528000    1.2248543   -1.2670534   -1.2670534  -0.38929472   0.19101962   -1.2670534   0.87775868  1070540 
 3529000    1.2276318    -1.269311    -1.269311  -0.38956192   0.17803718    -1.269311   0.87974907  1070540 
 3530000    1.2262748   -1.2683981   -1.2683981  -0.38962151   0.18361716   -1.2683981   0.87877664  1070540 
 3531000    1.2247713   -1.2676747   -1.2676747  -0.38997553    0.1818467   -1.2676747   0.87769917  1070540 
 3532000    1.2231591   -1.2665546   -1.2665546  -0.39001072   0.17064239   -1.2665546   0.87654385  1070540 
 3533000    1.2247114   -1.2673588   -1.2673588  -0.38970255   0.18563228   -1.2673588   0.87765627  1070540 
 3534000    1.2246029   -1.2668918   -1.2668918  -0.38931329   0.18140439   -1.2668918   0.87757854  1070540 
 3535000    1.2268752   -1.2689619   -1.2689619  -0.38975507     0.182007   -1.2689619   0.87920687  1070540 
 3536000    1.2252226   -1.2675976   -1.2675976  -0.38957505   0.17859109   -1.2675976    0.8780226  1070540 
 3537000    1.2240896   -1.2670961   -1.2670961  -0.38988541   0.18558522   -1.2670961   0.87721069  1070540 
 3538000    1.2257075   -1.2681639   -1.2681639  -0.38979377   0.17574786   -1.2681639    0.8783701  1070540 
 3539000    1.2231612   -1.2661553   -1.2661553  -0.38960999   0.17366218   -1.2661553   0.87654536  1070540 
 3540000    1.2235779   -1.2669123   -1.2669123  -0.39006831   0.19207311   -1.2669123   0.87684399  1070540 
 3541000     1.223766   -1.2667393   -1.2667393  -0.38976052   0.18312856   -1.2667393   0.87697876  1070540 
 3542000     1.224458   -1.2669215   -1.2669215  -0.38944683   0.17837013   -1.2669215   0.87747468  1070540 
 3543000    1.2267953   -1.2683297   -1.2683297  -0.38918005   0.17968343   -1.2683297   0.87914962  1070540 
 3544000    1.2257491   -1.2676916   -1.2676916  -0.38929168   0.19275147   -1.2676916   0.87839989  1070540 
 3545000    1.2257505   -1.2682719   -1.2682719    -0.389871   0.18031287   -1.2682719   0.87840093  1070540 
 3546000    1.2257224   -1.2680676   -1.2680676  -0.38968686   0.18423247   -1.2680676   0.87838078  1070540 
 3547000    1.2274979   -1.2695399   -1.2695399  -0.38988675   0.18492173   -1.2695399   0.87965313  1070540 
 3548000    1.2235349   -1.2661748   -1.2661748  -0.38936161   0.19369187   -1.2661748   0.87681315  1070540 
 3549000    1.2257389   -1.2674391   -1.2674391  -0.38904646   0.17792922   -1.2674391   0.87839261  1070540 
 3550000    1.2255442   -1.2676354   -1.2676354  -0.38938235    0.1821306   -1.2676354   0.87825304  1070540 
 3551000    1.2257477   -1.2683319   -1.2683319  -0.38993304   0.17752897   -1.2683319   0.87839891  1070540 
 3552000    1.2256362   -1.2684266   -1.2684266  -0.39010757   0.18074064   -1.2684266     0.878319  1070540 
 3553000    1.2238919   -1.2675427   -1.2675427   -0.3904737   0.18187916   -1.2675427   0.87706896  1070540 
 3554000    1.2254882   -1.2680585   -1.2680585  -0.38984561    0.1881666   -1.2680585    0.8782129  1070540 
 3555000    1.2243926   -1.2667396   -1.2667396   -0.3893118   0.18950286   -1.2667396   0.87742777  1070540 
 3556000     1.225405   -1.2671472   -1.2671472  -0.38899393   0.17404549   -1.2671472    0.8781533  1070540 
 3557000    1.2267898   -1.2684514   -1.2684514  -0.38930567   0.18127006   -1.2684514   0.87914569  1070540 
 3558000    1.2234113   -1.2667568   -1.2667568   -0.3900322   0.17907266   -1.2667568   0.87672455  1070540 
 3559000    1.2255961   -1.2683448   -1.2683448  -0.39005457   0.18576885   -1.2683448   0.87829028  1070540 
 3560000    1.2238678   -1.2672998   -1.2672998  -0.39024807   0.17631342   -1.2672998   0.87705169  1070540 
 3561000    1.2261856   -1.2687067   -1.2687067  -0.38999405   0.18284132   -1.2687067    0.8787127  1070540 
 3562000    1.2242147   -1.2671601   -1.2671601  -0.38985978   0.18405544   -1.2671601   0.87730033  1070540 
 3563000    1.2270317   -1.2687972   -1.2687972  -0.38947818   0.19297301   -1.2687972   0.87931901  1070540 
 3564000    1.2272031   -1.2684823   -1.2684823  -0.38904042   0.18737297   -1.2684823   0.87944185  1070540 
 3565000    1.2264133   -1.2682064   -1.2682064  -0.38933058   0.17870361   -1.2682064   0.87887585  1070540 
 3566000    1.2257242   -1.2676839   -1.2676839  -0.38930178   0.17729687   -1.2676839   0.87838209  1070540 
 3567000    1.2260693   -1.2682427   -1.2682427  -0.38961335   0.18723333   -1.2682427   0.87862936  1070540 
 3568000    1.2262213   -1.2681624   -1.2681624  -0.38942414    0.1851532   -1.2681624   0.87873826  1070540 
 3569000    1.2247408   -1.2675442   -1.2675442   -0.3898668   0.19131611   -1.2675442   0.87767736  1070540 
 3570000    1.2246073    -1.267252    -1.267252  -0.38967034   0.18423578    -1.267252   0.87758169  1070540 
 3571000    1.2263113   -1.2680183   -1.2680183  -0.38921548   0.18580832   -1.2680183   0.87880278  1070540 
 3572000    1.2263099   -1.2684225   -1.2684225  -0.38962068   0.18555638   -1.2684225   0.87880177  1070540 
 3573000    1.2246441   -1.2676746   -1.2676746  -0.39006655   0.18543806   -1.2676746   0.87760803  1070540 
 3574000    1.2265237   -1.2688002   -1.2688002  -0.38984519   0.17310837   -1.2688002   0.87895502  1070540 
 3575000    1.2257123   -1.2679754   -1.2679754   -0.3896019   0.17900309   -1.2679754   0.87837355  1070540 
 3576000    1.2251198   -1.2673243   -1.2673243  -0.38937538   0.18521238   -1.2673243   0.87794895  1070540 
 3577000    1.2247615   -1.2676242   -1.2676242  -0.38993202   0.18545839   -1.2676242   0.87769216  1070540 
 3578000    1.2250246   -1.2672673   -1.2672673  -0.38938662   0.18274788   -1.2672673   0.87788071  1070540 
 3579000    1.2249956   -1.2674525   -1.2674525  -0.38959254    0.1788036   -1.2674525   0.87785995  1070540 
 3580000    1.2260139   -1.2684908   -1.2684908  -0.38990113   0.18196592   -1.2684908   0.87858964  1070540 
 3581000     1.226006   -1.2685179   -1.2685179   -0.3899339   0.18571279   -1.2685179   0.87858403  1070540 
 3582000     1.224911   -1.2673584   -1.2673584  -0.38955911   0.18483267   -1.2673584   0.87779928  1070540 
 3583000    1.2247457   -1.2670037   -1.2670037  -0.38932287   0.18298765   -1.2670037   0.87768086  1070540 
 3584000    1.2254951   -1.2678193   -1.2678193  -0.38960142   0.18468233   -1.2678193   0.87821785  1070540 
 3585000    1.2244607    -1.267175    -1.267175  -0.38969844   0.18412444    -1.267175   0.87747659  1070540 
 3586000    1.2245284   -1.2673344   -1.2673344  -0.38980927    0.1850883   -1.2673344   0.87752511  1070540 
 3587000    1.2244733   -1.2672923   -1.2672923  -0.38980671   0.18113008   -1.2672923   0.87748564  1070540 
 3588000    1.2259892    -1.268114    -1.268114  -0.38954209   0.18265182    -1.268114   0.87857194  1070540 
 3589000    1.2262092   -1.2686557   -1.2686557   -0.3899261   0.18021302   -1.2686557   0.87872963  1070540 
 3590000    1.2242707   -1.2672688   -1.2672688  -0.38992843   0.18644334   -1.2672688   0.87734042  1070540 
 3591000    1.2250347   -1.2678975   -1.2678975  -0.39000955   0.18064208   -1.2678975   0.87788795  1070540 
 3592000    1.2247809   -1.2675082   -1.2675082  -0.38980214   0.17961283   -1.2675082   0.87770606  1070540 
 3593000    1.2249063   -1.2675441   -1.2675441  -0.38974821   0.18276164   -1.2675441   0.87779593  1070540 
 3594000    1.2238674    -1.266665    -1.266665  -0.38961354   0.19476196    -1.266665   0.87705146  1070540 
 3595000    1.2265801   -1.2684297   -1.2684297   -0.3894343   0.19009247   -1.2684297   0.87899539  1070540 
 3596000    1.2258315   -1.2679478   -1.2679478  -0.38948886   0.18348864   -1.2679478   0.87845892  1070540 
 3597000    1.2270736   -1.2690612   -1.2690612  -0.38971207   0.18189165   -1.2690612   0.87934908  1070540 
 3598000    1.2243228   -1.2672178   -1.2672178  -0.38983994    0.1774842   -1.2672178   0.87737781  1070540 
 3599000    1.2268745   -1.2691767   -1.2691767  -0.38997027   0.17971269   -1.2691767   0.87920638  1070540 
 3600000     1.224622   -1.2677405   -1.2677405   -0.3901483   0.18496929   -1.2677405   0.87759221  1070540 
 3601000    1.2259243   -1.2681608   -1.2681608  -0.38963535   0.18091994   -1.2681608   0.87852542  1070540 
 3602000    1.2257078   -1.2683253   -1.2683253  -0.38995497   0.19046691   -1.2683253   0.87837033  1070540 
 3603000    1.2258559   -1.2681638   -1.2681638  -0.38968734   0.17490558   -1.2681638   0.87847642  1070540 
 3604000    1.2230591   -1.2664643   -1.2664643  -0.38999211   0.18095897   -1.2664643   0.87647222  1070540 
 3605000    1.2252272   -1.2676238   -1.2676238   -0.3895979   0.18701399   -1.2676238   0.87802589  1070540 
 3606000    1.2253102   -1.2674124   -1.2674124  -0.38932708   0.17934778   -1.2674124   0.87808535  1070540 
 3607000    1.2262116   -1.2682268   -1.2682268  -0.38949552    0.1823882   -1.2682268   0.87873132  1070540 
 3608000    1.2253813   -1.2679702   -1.2679702  -0.38983384   0.18601329   -1.2679702   0.87813633  1070540 
 3609000     1.225085   -1.2677046   -1.2677046  -0.38978061   0.18118333   -1.2677046   0.87792402  1070540 
 3610000    1.2259574   -1.2682476   -1.2682476  -0.38969844   0.18384284   -1.2682476   0.87854915  1070540 
 3611000    1.2255279   -1.2679483   -1.2679483  -0.38970685   0.18159132   -1.2679483   0.87824141  1070540 
 3612000    1.2234932   -1.2666895   -1.2666895  -0.38990625   0.18364071   -1.2666895   0.87678328  1070540 
 3613000      1.22538   -1.2681486   -1.2681486  -0.39001321   0.18585293   -1.2681486   0.87813541  1070540 
 3614000    1.2240347   -1.2677149   -1.2677149   -0.3905436   0.18098162   -1.2677149   0.87717135  1070540 
 3615000    1.2253319    -1.268468    -1.268468  -0.39036713   0.17839646    -1.268468   0.87810092  1070540 
 3616000    1.2241952   -1.2679575   -1.2679575  -0.39067118   0.18054673   -1.2679575   0.87728634  1070540 
 3617000     1.225008    -1.268181    -1.268181  -0.39031219   0.17720874    -1.268181   0.87786882  1070540 
 3618000    1.2244149   -1.2676164   -1.2676164  -0.39017262    0.1819934   -1.2676164   0.87744381  1070540 
 3619000    1.2240892   -1.2673319   -1.2673319  -0.39012159   0.18579732   -1.2673319   0.87721036  1070540 
 3620000    1.2237703   -1.2672774   -1.2672774  -0.39029555   0.18777708   -1.2672774   0.87698182  1070540 
 3621000    1.2248257   -1.2683369   -1.2683369  -0.39059876   0.18510893   -1.2683369   0.87773818  1070540 
 3622000    1.2254809    -1.268405    -1.268405  -0.39019729   0.18038481    -1.268405   0.87820769  1070540 
 3623000    1.2236744   -1.2671368   -1.2671368  -0.39022368   0.18158509   -1.2671368   0.87691312  1070540 
 3624000    1.2254779    -1.268588    -1.268588  -0.39038248   0.18518673    -1.268588   0.87820555  1070540 
 3625000    1.2234998   -1.2673712   -1.2673712  -0.39058315   0.18141044   -1.2673712   0.87678803  1070540 
 3626000    1.2240612   -1.2676196   -1.2676196  -0.39042932   0.18283181   -1.2676196   0.87719029  1070540 
 3627000    1.2247835   -1.2676879   -1.2676879  -0.38998004   0.17923767   -1.2676879   0.87770789  1070540 
 3628000    1.2231934   -1.2667504   -1.2667504  -0.39018199    0.1842498   -1.2667504   0.87656844  1070540 
 3629000     1.224942   -1.2678952   -1.2678952  -0.39007372   0.18413175   -1.2678952   0.87782149  1070540 
 3630000    1.2226871   -1.2664163   -1.2664163  -0.39021073    0.1829074   -1.2664163   0.87620557  1070540 
 3631000    1.2256565   -1.2680924   -1.2680924  -0.38975884   0.18027197   -1.2680924   0.87833354  1070540 
 3632000    1.2255707   -1.2682079   -1.2682079  -0.38993584   0.18292227   -1.2682079   0.87827203  1070540 
 3633000    1.2263967   -1.2683517   -1.2683517  -0.38948774   0.18611108   -1.2683517   0.87886397  1070540 
 3634000    1.2244647   -1.2673093   -1.2673093  -0.38982985   0.18222281   -1.2673093   0.87747945  1070540 
 3635000    1.2238173   -1.2669112   -1.2669112  -0.38989573   0.17987782   -1.2669112   0.87701551  1070540 
 3636000    1.2256279    -1.268429    -1.268429  -0.39011594    0.1784587    -1.268429   0.87831304  1070540 
 3637000    1.2270557    -1.269491    -1.269491  -0.39015483   0.18254708    -1.269491   0.87933621  1070540 
 3638000     1.225078   -1.2680531   -1.2680531  -0.39013417   0.18272277   -1.2680531   0.87791895  1070540 
 3639000    1.2243726   -1.2675396   -1.2675396  -0.39012614   0.18557686   -1.2675396   0.87741345  1070540 
 3640000    1.2252308   -1.2678878   -1.2678878  -0.38985928   0.17949072   -1.2678878   0.87802851  1070540 
 3641000    1.2238134   -1.2666948   -1.2666948  -0.38968208   0.18565462   -1.2666948   0.87701274  1070540 
 3642000     1.225907   -1.2681158   -1.2681158  -0.38960276   0.18088658   -1.2681158   0.87851305  1070540 
 3643000    1.2251487   -1.2671149   -1.2671149  -0.38914525   0.17675985   -1.2671149   0.87796962  1070540 
 3644000    1.2263745    -1.267813    -1.267813  -0.38896493   0.18054996    -1.267813   0.87884811  1070540 
 3645000    1.2263491   -1.2675377   -1.2675377  -0.38870787   0.18136674   -1.2675377   0.87882987  1070540 
 3646000     1.227972   -1.2689421   -1.2689421  -0.38894924   0.18083493   -1.2689421   0.87999287  1070540 
 3647000    1.2263027   -1.2677638   -1.2677638  -0.38896715   0.18157762   -1.2677638   0.87879664  1070540 
 3648000    1.2263552   -1.2680583   -1.2680583  -0.38922402   0.18368601   -1.2680583   0.87883426  1070540 
 3649000     1.226187   -1.2676603   -1.2676603  -0.38894664    0.1848082   -1.2676603    0.8787137  1070540 
 3650000     1.226442   -1.2679217   -1.2679217  -0.38902532   0.17325044   -1.2679217   0.87889642  1070540 
 3651000    1.2266687    -1.268089    -1.268089  -0.38903013   0.18525046    -1.268089   0.87905888  1070540 
 3652000    1.2267333   -1.2679656   -1.2679656  -0.38886037   0.18126143   -1.2679656   0.87910523  1070540 
 3653000    1.2272477    -1.268189    -1.268189  -0.38871516   0.18302541    -1.268189    0.8794738  1070540 
 3654000    1.2271986   -1.2682167   -1.2682167  -0.38877813   0.18563291   -1.2682167   0.87943861  1070540 
 3655000    1.2273528   -1.2683362   -1.2683362  -0.38878699   0.18083704   -1.2683362   0.87954916  1070540 
 3656000    1.2264786   -1.2676312   -1.2676312  -0.38870846   0.18102604   -1.2676312   0.87892269  1070540 
 3657000    1.2273567   -1.2684077   -1.2684077  -0.38885577   0.19169326   -1.2684077   0.87955196  1070540 
 3658000    1.2273956   -1.2685594   -1.2685594  -0.38897959   0.18385311   -1.2685594    0.8795798  1070540 
 3659000    1.2270041    -1.268324    -1.268324  -0.38902466    0.1819122    -1.268324   0.87929929  1070540 
 3660000    1.2277771   -1.2685718   -1.2685718  -0.38871858   0.18106673   -1.2685718   0.87985318  1070540 
 3661000    1.2260041   -1.2672745   -1.2672745  -0.38869192   0.18439709   -1.2672745   0.87858263  1070540 
 3662000     1.225704   -1.2664903   -1.2664903  -0.38812277   0.18373844   -1.2664903   0.87836755  1070540 
 3663000    1.2273279   -1.2673107   -1.2673107  -0.38777941   0.19077984   -1.2673107   0.87953128  1070540 
 3664000    1.2261049   -1.2672034   -1.2672034  -0.38854852    0.1849523   -1.2672034   0.87865488  1070540 
 3665000    1.2254574   -1.2670663   -1.2670663  -0.38887545   0.18536759   -1.2670663   0.87819089  1070540 
 3666000    1.2272272   -1.2686118   -1.2686118  -0.38915261   0.18240391   -1.2686118   0.87945916  1070540 
 3667000    1.2269903   -1.2685553   -1.2685553  -0.38926592   0.19265376   -1.2685553   0.87928939  1070540 
 3668000    1.2270874   -1.2683544   -1.2683544  -0.38899546   0.17664524   -1.2683544   0.87935898  1070540 
 3669000    1.2269364   -1.2681787   -1.2681787  -0.38892788   0.19144525   -1.2681787   0.87925078  1070540 
 3670000    1.2257105   -1.2670196   -1.2670196  -0.38864742   0.18409906   -1.2670196   0.87837223  1070540 
 3671000    1.2261114   -1.2672464   -1.2672464  -0.38858683   0.18244088   -1.2672464   0.87865954  1070540 
 3672000    1.2245814   -1.2663326   -1.2663326  -0.38876954    0.1839263   -1.2663326   0.87756311  1070540 
 3673000    1.2256567   -1.2673466   -1.2673466  -0.38901294   0.18551667   -1.2673466   0.87833367  1070540 
 3674000    1.2271022   -1.2682975   -1.2682975  -0.38892791   0.17584154   -1.2682975   0.87936958  1070540 
 3675000    1.2257207   -1.2675165   -1.2675165  -0.38913694   0.18261534   -1.2675165   0.87837957  1070540 
 3676000    1.2269432   -1.2682709   -1.2682709   -0.3890153    0.1808739   -1.2682709   0.87925562  1070540 
 3677000    1.2259977   -1.2677413   -1.2677413  -0.38916324   0.18639599   -1.2677413   0.87857808  1070540 
 3678000    1.2265606   -1.2676906   -1.2676906  -0.38870912   0.18084874   -1.2676906   0.87898143  1070540 
 3679000     1.225215   -1.2667485   -1.2667485  -0.38873135   0.18910774   -1.2667485   0.87801718  1070540 
 3680000    1.2267176   -1.2674748   -1.2674748  -0.38838086   0.17745195   -1.2674748   0.87909397  1070540 
 3681000    1.2273375   -1.2681282   -1.2681282  -0.38858998   0.18210541   -1.2681282   0.87953819  1070540 
 3682000    1.2266189   -1.2675339   -1.2675339  -0.38851067   0.18242589   -1.2675339   0.87902322  1070540 
 3683000    1.2259614   -1.2675218   -1.2675218  -0.38896973   0.18625743   -1.2675218   0.87855207  1070540 
 3684000    1.2267561   -1.2682081   -1.2682081  -0.38908653    0.1770836   -1.2682081   0.87912154  1070540 
 3685000    1.2261678   -1.2679625   -1.2679625  -0.38926253   0.18215134   -1.2679625   0.87869992  1070540 
 3686000    1.2253897   -1.2679074   -1.2679074  -0.38976503   0.18616895   -1.2679074   0.87814232  1070540 
 3687000    1.2246887   -1.2669404   -1.2669404  -0.38930037   0.18329709   -1.2669404   0.87764002  1070540 
 3688000    1.2258612    -1.267534    -1.267534  -0.38905372   0.18419606    -1.267534   0.87848023  1070540 
 3689000     1.226803   -1.2677643   -1.2677643  -0.38860918   0.18156736   -1.2677643   0.87915517  1070540 
 3690000    1.2256597   -1.2670129   -1.2670129  -0.38867705   0.18069257   -1.2670129   0.87833583  1070540 
 3691000    1.2247271    -1.266295    -1.266295  -0.38862747   0.17779929    -1.266295   0.87766755  1070540 
 3692000    1.2260218   -1.2671088   -1.2671088  -0.38851348   0.17725544   -1.2671088   0.87859534  1070540 
 3693000    1.2234915   -1.2655151   -1.2655151  -0.38873304   0.17573874   -1.2655151   0.87678203  1070540 
 3694000    1.2261467   -1.2675092   -1.2675092  -0.38882442   0.18593252   -1.2675092   0.87868479  1070540 
 3695000    1.2258813   -1.2671838   -1.2671838  -0.38868921   0.18396606   -1.2671838   0.87849461  1070540 
 3696000     1.227542   -1.2684047   -1.2684047     -0.38872   0.18338802   -1.2684047   0.87968473  1070540 
 3697000    1.2268402   -1.2675654   -1.2675654  -0.38838357   0.19108642   -1.2675654    0.8791818  1070540 
 3698000     1.227553    -1.267844    -1.267844  -0.38815142   0.18500058    -1.267844    0.8796926  1070540 
 3699000    1.2259949   -1.2666253   -1.2666253  -0.38804925   0.18779136   -1.2666253   0.87857605  1070540 
 3700000    1.2275306    -1.267895    -1.267895  -0.38821839   0.18348142    -1.267895    0.8796766  1070540 
 3701000    1.2269687   -1.2675793   -1.2675793   -0.3883054   0.18559418   -1.2675793   0.87927392  1070540 
 3702000     1.227793   -1.2681802   -1.2681802   -0.3883156   0.18121671   -1.2681802   0.87986457  1070540 
 3703000    1.2258128   -1.2671325   -1.2671325  -0.38868694   0.18111398   -1.2671325   0.87844552  1070540 
 3704000    1.2263646   -1.2674989   -1.2674989   -0.3886579   0.18479829   -1.2674989   0.87884101  1070540 
 3705000    1.2267798    -1.267577    -1.267577  -0.38843847   0.17392904    -1.267577   0.87913849  1070540 
 3706000    1.2259982   -1.2664658   -1.2664658  -0.38788743   0.18676765   -1.2664658   0.87857842  1070540 
 3707000    1.2258536   -1.2667425   -1.2667425  -0.38826776   0.18557808   -1.2667425   0.87847476  1070540 
 3708000    1.2270376   -1.2673162   -1.2673162  -0.38799295   0.18921271   -1.2673162   0.87932326  1070540 
 3709000    1.2258549    -1.266224    -1.266224   -0.3877483   0.18183849    -1.266224   0.87847574  1070540 
 3710000    1.2257122   -1.2667638   -1.2667638  -0.38839035   0.18671846   -1.2667638   0.87837348  1070540 
 3711000    1.2250109   -1.2662253   -1.2662253  -0.38835445    0.1799388   -1.2662253   0.87787089  1070540 
 3712000    1.2271852    -1.267523    -1.267523  -0.38809403   0.18444011    -1.267523   0.87942901  1070540 
 3713000    1.2278831   -1.2682541   -1.2682541  -0.38832486   0.17922691   -1.2682541    0.8799292  1070540 
 3714000    1.2273133   -1.2674771   -1.2674771  -0.38795625   0.18610668   -1.2674771   0.87952085  1070540 
 3715000    1.2268423   -1.2670984   -1.2670984  -0.38791504   0.18861243   -1.2670984   0.87918334  1070540 
 3716000    1.2294232   -1.2685029   -1.2685029  -0.38747007   0.18269746   -1.2685029   0.88103281  1070540 
 3717000     1.227851   -1.2672872   -1.2672872  -0.38738105   0.18364789   -1.2672872   0.87990619  1070540 
 3718000    1.2288241   -1.2678225   -1.2678225  -0.38721896    0.1855763   -1.2678225   0.88060352  1070540 
 3719000    1.2273979   -1.2667133   -1.2667133  -0.38713188   0.18432702   -1.2667133   0.87958146  1070540 
 3720000    1.2276426    -1.266973    -1.266973  -0.38721625   0.18454377    -1.266973   0.87975679  1070540 
 3721000    1.2291416   -1.2675182   -1.2675182  -0.38668714   0.18623551   -1.2675182   0.88083103  1070540 
 3722000    1.2290446   -1.2677286   -1.2677286  -0.38696708   0.18339066   -1.2677286   0.88076155  1070540 
 3723000    1.2254187   -1.2654344   -1.2654344  -0.38727131   0.18608738   -1.2654344    0.8781631  1070540 
 3724000    1.2267592   -1.2664075   -1.2664075  -0.38728377   0.17537957   -1.2664075   0.87912373  1070540 
 3725000    1.2264765   -1.2668574   -1.2668574  -0.38793625    0.1874301   -1.2668574   0.87892118  1070540 
 3726000    1.2249635   -1.2656609   -1.2656609  -0.38782404   0.17765872   -1.2656609   0.87783689  1070540 
 3727000      1.22544   -1.2662652   -1.2662652  -0.38808683   0.18532212   -1.2662652   0.87817838  1070540 
 3728000    1.2245565   -1.2651451   -1.2651451  -0.38759981    0.1850589   -1.2651451   0.87754527  1070540 
 3729000    1.2275407   -1.2673649   -1.2673649  -0.38768112   0.18176789   -1.2673649   0.87968378  1070540 
 3730000      1.22632   -1.2664717   -1.2664717  -0.38766271   0.17489595   -1.2664717   0.87880901  1070540 
 3731000    1.2264131   -1.2664336   -1.2664336  -0.38755791   0.18558239   -1.2664336   0.87887572  1070540 
 3732000    1.2283562   -1.2679589   -1.2679589  -0.38769072   0.17528356   -1.2679589   0.88026817  1070540 
 3733000    1.2266333   -1.2667199   -1.2667199  -0.38768638   0.18820676   -1.2667199   0.87903351  1070540 
 3734000    1.2256318   -1.2664616   -1.2664616  -0.38814579   0.18355505   -1.2664616   0.87831583  1070540 
 3735000    1.2258074   -1.2668456   -1.2668456  -0.38840392   0.18812939   -1.2668456   0.87844168  1070540 
 3736000    1.2247874   -1.2662331   -1.2662331  -0.38852237   0.18216784   -1.2662331   0.87771071  1070540 
 3737000    1.2275834   -1.2682176   -1.2682176  -0.38850314   0.18313407   -1.2682176   0.87971443  1070540 
 3738000     1.225955   -1.2669748   -1.2669748  -0.38842732   0.18393487   -1.2669748   0.87854747  1070540 
 3739000     1.226628   -1.2673961   -1.2673961  -0.38836635    0.1795621   -1.2673961   0.87902977  1070540 
 3740000    1.2276128   -1.2682372   -1.2682372  -0.38850178   0.17745432   -1.2682372   0.87973544  1070540 
 3741000    1.2272716    -1.268306    -1.268306  -0.38881507   0.18566306    -1.268306   0.87949093  1070540 
 3742000    1.2264567    -1.267446    -1.267446  -0.38853905   0.18016692    -1.267446     0.878907  1070540 
 3743000    1.2275187   -1.2682115   -1.2682115  -0.38854345   0.18177766   -1.2682115   0.87966802  1070540 
 3744000    1.2274006   -1.2682613   -1.2682613  -0.38867795   0.18477083   -1.2682613   0.87958339  1070540 
 3745000    1.2261881   -1.2670649   -1.2670649  -0.38835041   0.18559686   -1.2670649   0.87871447  1070540 
 3746000    1.2257185   -1.2667004   -1.2667004  -0.38832241   0.17898918   -1.2667004   0.87837798  1070540 
 3747000    1.2250972   -1.2664108   -1.2664108  -0.38847805   0.18817732   -1.2664108   0.87793273  1070540 
 3748000    1.2278847   -1.2684891   -1.2684891  -0.38855881   0.18176748   -1.2684891   0.87993032  1070540 
 3749000    1.2253902   -1.2668978   -1.2668978  -0.38875507   0.19082381   -1.2668978    0.8781427  1070540 
 3750000    1.2262924   -1.2675307   -1.2675307  -0.38874148   0.18155403   -1.2675307   0.87878922  1070540 
 3751000    1.2263559   -1.2679326   -1.2679326   -0.3890979   0.17838753   -1.2679326   0.87883475  1070540 
 3752000    1.2264519   -1.2682947   -1.2682947  -0.38939115   0.18674509   -1.2682947   0.87890358  1070540 
 3753000    1.2280308   -1.2689917   -1.2689917  -0.38895671   0.19009091   -1.2689917   0.88003504  1070540 
 3754000    1.2275773   -1.2686377   -1.2686377  -0.38892772   0.18221465   -1.2686377   0.87971002  1070540 
 3755000    1.2268745   -1.2682898   -1.2682898   -0.3890834   0.19393215   -1.2682898   0.87920642  1070540 
 3756000    1.2258235   -1.2681499   -1.2681499  -0.38969671   0.18710127   -1.2681499   0.87845322  1070540 
 3757000    1.2252368   -1.2675907   -1.2675907  -0.38955793   0.19161287   -1.2675907   0.87803276  1070540 
 3758000    1.2254067   -1.2676503   -1.2676503  -0.38949574   0.19341079   -1.2676503   0.87815452  1070540 
 3759000    1.2257528   -1.2679721   -1.2679721  -0.38956954   0.18272277   -1.2679721   0.87840257  1070540 
 3760000    1.2281261    -1.269502    -1.269502  -0.38939865   0.18666729    -1.269502   0.88010334  1070540 
 3761000    1.2274202   -1.2695828   -1.2695828  -0.38998536    0.1799912   -1.2695828   0.87959745  1070540 
 3762000    1.2257446   -1.2684628   -1.2684628  -0.39006614   0.18628237   -1.2684628   0.87839665  1070540 
 3763000    1.2247972   -1.2674011   -1.2674011  -0.38968336   0.18345279   -1.2674011   0.87771774  1070540 
 3764000    1.2269452   -1.2688922   -1.2688922  -0.38963517   0.18200513   -1.2688922   0.87925705  1070540 
 3765000      1.22715   -1.2693208   -1.2693208  -0.38991699   0.17747798   -1.2693208   0.87940384  1070540 
 3766000    1.2257664   -1.2679392   -1.2679392  -0.38952691   0.18683461   -1.2679392   0.87841229  1070540 
 3767000    1.2278916    -1.269358    -1.269358  -0.38942271   0.18805343    -1.269358   0.87993526  1070540 
 3768000    1.2269618   -1.2688305   -1.2688305  -0.38956159   0.17921372   -1.2688305   0.87926892  1070540 
 3769000    1.2270723   -1.2691416   -1.2691416  -0.38979346   0.18063871   -1.2691416   0.87934817  1070540 
 3770000    1.2261251   -1.2681654   -1.2681654  -0.38949608   0.18514009   -1.2681654   0.87866933  1070540 
 3771000    1.2266373   -1.2685195   -1.2685195  -0.38948305   0.18413598   -1.2685195   0.87903641  1070540 
 3772000    1.2265126   -1.2682252   -1.2682252  -0.38927812   0.17692671   -1.2682252   0.87894705  1070540 
 3773000    1.2260027   -1.2677771   -1.2677771  -0.38919544   0.18842338   -1.2677771   0.87858161  1070540 
 3774000    1.2272229   -1.2680797   -1.2680797  -0.38862368   0.18216834   -1.2680797   0.87945605  1070540 
 3775000    1.2275686   -1.2684094   -1.2684094  -0.38870565   0.18036178   -1.2684094   0.87970377  1070540 
 3776000    1.2258399   -1.2675322   -1.2675322  -0.38906722   0.17986462   -1.2675322   0.87846494  1070540 
 3777000    1.2272066   -1.2685345   -1.2685345   -0.3890901   0.17768317   -1.2685345   0.87944435  1070540 
 3778000    1.2261405   -1.2677996   -1.2677996  -0.38911916   0.19375391   -1.2677996   0.87868041  1070540 
 3779000    1.2274432   -1.2685867   -1.2685867  -0.38897271   0.18548551   -1.2685867   0.87961395  1070540 
 3780000    1.2273037   -1.2680944   -1.2680944  -0.38858048   0.17907365   -1.2680944   0.87951395  1070540 
 3781000    1.2262532   -1.2678334   -1.2678334  -0.38907233   0.18774348   -1.2678334   0.87876111  1070540 
 3782000    1.2282715   -1.2688013   -1.2688013  -0.38859377   0.18859822   -1.2688013   0.88020748  1070540 
 3783000    1.2262915   -1.2675659   -1.2675659  -0.38877723   0.18093671   -1.2675659   0.87878862  1070540 
 3784000    1.2254907   -1.2672258   -1.2672258  -0.38901109   0.18317427   -1.2672258   0.87821475  1070540 
 3785000    1.2259517   -1.2674451   -1.2674451  -0.38889998   0.18459348   -1.2674451   0.87854511  1070540 
 3786000    1.2271079   -1.2683955   -1.2683955  -0.38902185    0.1863606   -1.2683955   0.87937365  1070540 
 3787000    1.2250468   -1.2664816   -1.2664816    -0.388585   0.19033223   -1.2664816   0.87789661  1070540 
 3788000    1.2256186   -1.2670766   -1.2670766  -0.38877022   0.18691432   -1.2670766   0.87830635  1070540 
 3789000    1.2272126   -1.2685601   -1.2685601  -0.38911149   0.18103066   -1.2685601   0.87944864  1070540 
 3790000    1.2271102   -1.2683945   -1.2683945  -0.38901925   0.18468773   -1.2683945    0.8793753  1070540 
 3791000    1.2262093   -1.2675345   -1.2675345  -0.38880479   0.19016579   -1.2675345   0.87872969  1070540 
 3792000    1.2270581   -1.2686116   -1.2686116  -0.38927361   0.18739417   -1.2686116   0.87933795  1070540 
 3793000    1.2263674   -1.2675639   -1.2675639  -0.38872085   0.19466079   -1.2675639   0.87884302  1070540 
 3794000     1.226943   -1.2681833   -1.2681833  -0.38892781    0.1878741   -1.2681833    0.8792555  1070540 
 3795000    1.2270101    -1.268476    -1.268476  -0.38917242   0.18330964    -1.268476   0.87930357  1070540 
 3796000     1.227615   -1.2691031   -1.2691031  -0.38936608    0.1756927   -1.2691031   0.87973707  1070540 
 3797000    1.2254723   -1.2677339   -1.2677339  -0.38953236   0.18838106   -1.2677339   0.87820153  1070540 
 3798000    1.2259722   -1.2682223   -1.2682223  -0.38966256   0.18337755   -1.2682223   0.87855974  1070540 
 3799000    1.2273114   -1.2694892   -1.2694892  -0.38996968   0.18336438   -1.2694892   0.87951949  1070540 
 3800000    1.2267298   -1.2684246   -1.2684246  -0.38932198   0.18529051   -1.2684246   0.87910267  1070540 
 3801000    1.2257545   -1.2680057   -1.2680057  -0.38960191   0.18593801   -1.2680057   0.87840376  1070540 
 3802000    1.2251093   -1.2672236   -1.2672236  -0.38928219   0.18433478   -1.2672236   0.87794141  1070540 
 3803000    1.2263651   -1.2686475   -1.2686475  -0.38980615   0.17662104   -1.2686475   0.87884135  1070540 
 3804000    1.2268988   -1.2685447   -1.2685447  -0.38932083   0.18376324   -1.2685447   0.87922383  1070540 
 3805000    1.2264913   -1.2686046   -1.2686046  -0.38967285    0.1941248   -1.2686046   0.87893177  1070540 
 3806000    1.2271274   -1.2692989   -1.2692989  -0.38991127   0.18019599   -1.2692989   0.87938761  1070540 
 3807000    1.2264179    -1.268645    -1.268645   -0.3897659   0.18096771    -1.268645   0.87887915  1070540 
 3808000    1.2255159   -1.2675953   -1.2675953  -0.38936251   0.17989204   -1.2675953   0.87823281  1070540 
 3809000    1.2270897   -1.2688648   -1.2688648  -0.38950417   0.18126187   -1.2688648   0.87936063  1070540 
 3810000    1.2258802    -1.268246    -1.268246  -0.38975208    0.1854914    -1.268246   0.87849388  1070540 
 3811000    1.2248573   -1.2677592   -1.2677592  -0.38999837   0.18653973   -1.2677592    0.8777608  1070540 
 3812000    1.2266064    -1.269578    -1.269578  -0.39056379   0.18395552    -1.269578   0.87901423  1070540 
 3813000    1.2272565   -1.2695928   -1.2695928  -0.39011268   0.18564035   -1.2695928   0.87948013  1070540 
 3814000    1.2256973   -1.2683063   -1.2683063  -0.38994346   0.18304226   -1.2683063   0.87836281  1070540 
 3815000    1.2253303   -1.2685831   -1.2685831  -0.39048332   0.18203104   -1.2685831   0.87809978  1070540 
 3816000    1.2264752   -1.2691447   -1.2691447   -0.3902245   0.17803908   -1.2691447   0.87892021  1070540 
 3817000    1.2243841   -1.2678064   -1.2678064  -0.39038475   0.18774265   -1.2678064    0.8774217  1070540 
 3818000     1.225847   -1.2689775   -1.2689775  -0.39050743   0.18290851   -1.2689775   0.87847004  1070540 
 3819000     1.225087   -1.2684614   -1.2684614    -0.390536   0.17968967   -1.2684614    0.8779254  1070540 
 3820000    1.2257839   -1.2686919   -1.2686919   -0.3902671   0.18406821   -1.2686919    0.8784248  1070540 
 3821000    1.2260962   -1.2689037   -1.2689037  -0.39025501   0.18614112   -1.2689037   0.87864865  1070540 
 3822000    1.2250187   -1.2678262   -1.2678262  -0.38994974   0.18717605   -1.2678262   0.87787648  1070540 
 3823000    1.2246558   -1.2673228   -1.2673228  -0.38970641   0.17952077   -1.2673228   0.87761641  1070540 
 3824000    1.2276204   -1.2693822   -1.2693822  -0.38964124   0.18987439   -1.2693822   0.87974095  1070540 
 3825000    1.2261199   -1.2683181   -1.2683181  -0.38965251   0.18380889   -1.2683181   0.87866563  1070540 
 3826000    1.2275362   -1.2689458   -1.2689458  -0.38926521   0.17720972   -1.2689458   0.87968061  1070540 
 3827000     1.226477   -1.2675892   -1.2675892  -0.38866765   0.18945638   -1.2675892   0.87892153  1070540 
 3828000    1.2259329   -1.2677511   -1.2677511  -0.38921946   0.18270935   -1.2677511    0.8785316  1070540 
 3829000    1.2271473   -1.2683832   -1.2683832  -0.38898137   0.18153893   -1.2683832   0.87940185  1070540 
 3830000    1.2273178   -1.2687205   -1.2687205  -0.38919641   0.18382464   -1.2687205   0.87952408  1070540 
 3831000    1.2256167   -1.2678161   -1.2678161  -0.38951111   0.18187242   -1.2678161   0.87830504  1070540 
 3832000    1.2265213    -1.268575    -1.268575  -0.38962167   0.17634272    -1.268575   0.87895328  1070540 
 3833000    1.2258621   -1.2674245   -1.2674245  -0.38894357   0.18777473   -1.2674245   0.87848089  1070540 
 3834000    1.2252102   -1.2671912   -1.2671912  -0.38917742   0.18580965   -1.2671912   0.87801373  1070540 
 3835000    1.2247065   -1.2666915   -1.2666915  -0.38903871   0.18553979   -1.2666915   0.87765275  1070540 
 3836000    1.2276668   -1.2687315   -1.2687315  -0.38895731    0.1941993   -1.2687315   0.87977416  1070540 
 3837000      1.22514   -1.2665377   -1.2665377  -0.38857432   0.17958351   -1.2665377   0.87796337  1070540 
 3838000     1.227566    -1.268286    -1.268286  -0.38858403   0.17807463    -1.268286   0.87970194  1070540 
 3839000    1.2276507   -1.2680623   -1.2680623  -0.38829965   0.18448351   -1.2680623   0.87976262  1070540 
 3840000    1.2269693   -1.2677645   -1.2677645  -0.38849017    0.1852599   -1.2677645   0.87927435  1070540 
 3841000    1.2273055   -1.2678107   -1.2678107   -0.3882955   0.18480558   -1.2678107   0.87951523  1070540 
 3842000    1.2273957   -1.2678652   -1.2678652   -0.3882853   0.18783525   -1.2678652   0.87957986  1070540 
 3843000    1.2264974   -1.2671395   -1.2671395  -0.38820332   0.18194804   -1.2671395   0.87893617  1070540 
 3844000      1.22689   -1.2671609   -1.2671609  -0.38794333   0.19486833   -1.2671609   0.87921752  1070540 
 3845000    1.2279317   -1.2680645   -1.2680645   -0.3881005   0.18129949   -1.2680645   0.87996402  1070540 
 3846000    1.2277884   -1.2679498   -1.2679498   -0.3880885   0.17629111   -1.2679498   0.87986128  1070540 
 3847000    1.2281731   -1.2684536   -1.2684536  -0.38831658   0.18680629   -1.2684536   0.88013701  1070540 
 3848000    1.2272301    -1.267724    -1.267724  -0.38826281   0.18266855    -1.267724    0.8794612  1070540 
 3849000     1.226822   -1.2675171   -1.2675171  -0.38834831   0.18503051   -1.2675171   0.87916875  1070540 
 3850000    1.2260396   -1.2674493   -1.2674493  -0.38884124   0.18600889   -1.2674493   0.87860806  1070540 
 3851000    1.2263183   -1.2672942   -1.2672942  -0.38848642   0.18855812   -1.2672942    0.8788078  1070540 
 3852000    1.2272319   -1.2677508   -1.2677508  -0.38828822   0.18519208   -1.2677508   0.87946254  1070540 
 3853000    1.2264471   -1.2667082   -1.2667082  -0.38780817   0.18309019   -1.2667082   0.87890008  1070540 
 3854000     1.226254   -1.2671818   -1.2671818   -0.3884201   0.18134191   -1.2671818   0.87876169  1070540 
 3855000    1.2267011   -1.2672972   -1.2672972  -0.38821507   0.18841576   -1.2672972   0.87908209  1070540 
 3856000    1.2270855    -1.267345    -1.267345  -0.38798737   0.17644776    -1.267345   0.87935762  1070540 
 3857000    1.2264941   -1.2674529   -1.2674529  -0.38851908   0.18141539   -1.2674529   0.87893379  1070540 
 3858000    1.2275468   -1.2682308   -1.2682308  -0.38854264   0.18864438   -1.2682308    0.8796882  1070540 
 3859000    1.2259921   -1.2678315   -1.2678315  -0.38925745   0.18315812   -1.2678315   0.87857407  1070540 
 3860000    1.2257632   -1.2672934   -1.2672934  -0.38888336    0.1810363   -1.2672934   0.87841004  1070540 
 3861000    1.2269587   -1.2679434   -1.2679434  -0.38867669   0.18631866   -1.2679434   0.87926676  1070540 
 3862000    1.2262543   -1.2670016   -1.2670016  -0.38823966   0.18050565   -1.2670016   0.87876192  1070540 
 3863000    1.2281245   -1.2680257   -1.2680257  -0.38792358   0.18599452   -1.2680257   0.88010216  1070540 
 3864000    1.2278578   -1.2683173   -1.2683173  -0.38840631   0.18484048   -1.2683173   0.87991101  1070540 
 3865000    1.2265494   -1.2677094   -1.2677094  -0.38873593   0.18921069   -1.2677094   0.87897344  1070540 
 3866000    1.2256745   -1.2668524   -1.2668524  -0.38850598   0.17999866   -1.2668524   0.87834644  1070540 
 3867000    1.2260713   -1.2672161   -1.2672161   -0.3885853    0.1916511   -1.2672161   0.87863083  1070540 
 3868000    1.2269786   -1.2675091   -1.2675091  -0.38822809   0.19158285   -1.2675091   0.87928097  1070540 
 3869000    1.2288037   -1.2686119   -1.2686119  -0.38802301   0.18358837   -1.2686119   0.88058886  1070540 
 3870000    1.2297037   -1.2695487   -1.2695487  -0.38831483   0.18870956   -1.2695487   0.88123386  1070540 
 3871000    1.2259653   -1.2670017   -1.2670017  -0.38844693   0.18347538   -1.2670017   0.87855481  1070540 
 3872000    1.2277573   -1.2680812   -1.2680812  -0.38824218   0.18579499   -1.2680812     0.879839  1070540 
 3873000    1.2275592   -1.2675111   -1.2675111  -0.38781404   0.18236464   -1.2675111   0.87969708  1070540 
 3874000    1.2283701   -1.2676592   -1.2676592  -0.38738103   0.18507042   -1.2676592   0.88027817  1070540 
 3875000    1.2281987   -1.2680203   -1.2680203  -0.38786497   0.18716454   -1.2680203   0.88015532  1070540 
 3876000    1.2285811   -1.2680751   -1.2680751  -0.38764568   0.18605636   -1.2680751   0.88042941  1070540 
 3877000    1.2294995    -1.268938    -1.268938  -0.38785047   0.18759356    -1.268938   0.88108753  1070540 
 3878000    1.2269024   -1.2672877   -1.2672877  -0.38806137   0.18787652   -1.2672877   0.87922637  1070540 
 3879000    1.2263005   -1.2670233   -1.2670233  -0.38822822   0.19046334   -1.2670233   0.87879507  1070540 
 3880000    1.2286958   -1.2680662   -1.2680662   -0.3875546   0.19335804   -1.2680662    0.8805116  1070540 
 3881000     1.229221   -1.2684442   -1.2684442   -0.3875563   0.18680685   -1.2684442   0.88088793  1070540 
 3882000    1.2280578   -1.2679213   -1.2679213  -0.38786693   0.18773271   -1.2679213   0.88005438  1070540 
 3883000     1.229699   -1.2692586   -1.2692586   -0.3880281   0.18103352   -1.2692586   0.88123047  1070540 
 3884000    1.2285366   -1.2678915   -1.2678915  -0.38749403   0.17816486   -1.2678915    0.8803975  1070540 
 3885000    1.2295726   -1.2688107   -1.2688107  -0.38767078   0.18835851   -1.2688107   0.88113991  1070540 
 3886000    1.2276661   -1.2677788   -1.2677788  -0.38800518   0.18312121   -1.2677788   0.87977366  1070540 
 3887000     1.229195    -1.268853    -1.268853  -0.38798363   0.18214886    -1.268853   0.88086934  1070540 
 3888000    1.2269721   -1.2668554   -1.2668554  -0.38757901   0.18497071   -1.2668554   0.87927635  1070540 
 3889000    1.2285861   -1.2680404   -1.2680404  -0.38760748   0.17946538   -1.2680404   0.88043295  1070540 
 3890000    1.2273985   -1.2671793   -1.2671793  -0.38759734   0.18667062   -1.2671793   0.87958192  1070540 
 3891000    1.2278745   -1.2673314   -1.2673314  -0.38740835   0.18774688   -1.2673314   0.87992304  1070540 
 3892000    1.2287071   -1.2682553   -1.2682553  -0.38773562   0.17613137   -1.2682553   0.88051967  1070540 
 3893000    1.2261164    -1.266636    -1.266636  -0.38797293   0.18228221    -1.266636   0.87866311  1070540 
 3894000     1.228096   -1.2675511   -1.2675511  -0.38746934   0.18763913   -1.2675511   0.88008178  1070540 
 3895000    1.2273278   -1.2670776   -1.2670776  -0.38754638   0.18390396   -1.2670776   0.87953122  1070540 
 3896000    1.2270218   -1.2673854   -1.2673854  -0.38807351   0.18227859   -1.2673854   0.87931194  1070540 
 3897000    1.2283568   -1.2686341   -1.2686341  -0.38836547   0.18758652   -1.2686341   0.88026864  1070540 
 3898000    1.2288297   -1.2686132   -1.2686132  -0.38800567   0.18031239   -1.2686132   0.88060754  1070540 
 3899000    1.2288218   -1.2677714   -1.2677714  -0.38716952   0.18715568   -1.2677714   0.88060188  1070540 
 3900000    1.2273688   -1.2674725   -1.2674725  -0.38791184   0.18456939   -1.2674725   0.87956064  1070540 
 3901000    1.2280553   -1.2677001   -1.2677001  -0.38764754   0.18882279   -1.2677001   0.88005257  1070540 
 3902000     1.227737   -1.2676326   -1.2676326  -0.38780812   0.18933188   -1.2676326   0.87982449  1070540 
 3903000    1.2286754   -1.2687652   -1.2687652   -0.3882683   0.18517005   -1.2687652   0.88049692  1070540 
 3904000     1.228056   -1.2680839   -1.2680839  -0.38803078   0.18638063   -1.2680839   0.88005311  1070540 
 3905000    1.2272509   -1.2675782   -1.2675782  -0.38810207    0.1813534   -1.2675782   0.87947616  1070540 
 3906000    1.2279281   -1.2680908   -1.2680908  -0.38812936   0.19048364   -1.2680908   0.87996144  1070540 
 3907000    1.2281512   -1.2682137   -1.2682137   -0.3880924   0.18617982   -1.2682137   0.88012129  1070540 
 3908000    1.2269686   -1.2674836   -1.2674836  -0.38820973   0.19074976   -1.2674836   0.87927383  1070540 
 3909000    1.2280095   -1.2680689   -1.2680689  -0.38804917   0.17383106   -1.2680689   0.88001977  1070540 
 3910000    1.2269223   -1.2676723   -1.2676723  -0.38843165   0.18371564   -1.2676723   0.87924062  1070540 
 3911000    1.2284278    -1.268874    -1.268874  -0.38855454    0.1840326    -1.268874   0.88031951  1070540 
 3912000    1.2277663   -1.2682623   -1.2682623  -0.38841685   0.19297708   -1.2682623   0.87984544  1070540 
 3913000    1.2286215   -1.2690718   -1.2690718  -0.38861345   0.18292602   -1.2690718   0.88045833  1070540 
 3914000    1.2290389   -1.2690098   -1.2690098  -0.38825231    0.1774316   -1.2690098   0.88075744  1070540 
 3915000    1.2286431   -1.2683169   -1.2683169  -0.38784314    0.1854949   -1.2683169   0.88047381  1070540 
 3916000    1.2265939   -1.2673891   -1.2673891  -0.38838378   0.18403345   -1.2673891    0.8790053  1070540 
 3917000    1.2271722   -1.2678718   -1.2678718  -0.38845206   0.19139971   -1.2678718   0.87941975  1070540 
 3918000    1.2279441   -1.2684573   -1.2684573  -0.38848439   0.18538098   -1.2684573   0.87997288  1070540 
 3919000    1.2262633   -1.2675669   -1.2675669  -0.38879854   0.18701651   -1.2675669    0.8787684  1070540 
 3920000    1.2271753   -1.2682585   -1.2682585  -0.38883655   0.18864135   -1.2682585   0.87942196  1070540 
 3921000    1.2298191   -1.2694481   -1.2694481  -0.38813155   0.18319228   -1.2694481   0.88131657  1070540 
 3922000    1.2281512   -1.2681906   -1.2681906  -0.38806924   0.18956139   -1.2681906   0.88012132  1070540 
 3923000    1.2273285   -1.2678763   -1.2678763  -0.38834453   0.18922654   -1.2678763   0.87953176  1070540 
 3924000    1.2273362   -1.2674671   -1.2674671  -0.38792985   0.18277536   -1.2674671   0.87953727  1070540 
 3925000    1.2286102    -1.268796    -1.268796  -0.38834573   0.17813073    -1.268796   0.88045024  1070540 
 3926000    1.2288243   -1.2687519   -1.2687519   -0.3881483   0.18156316   -1.2687519   0.88060363  1070540 
 3927000    1.2269818   -1.2674287   -1.2674287  -0.38814543   0.18500371   -1.2674287   0.87928331  1070540 
 3928000    1.2269306   -1.2672052   -1.2672052  -0.38795859   0.18696539   -1.2672052   0.87924662  1070540 
 3929000    1.2276473    -1.267832    -1.267832  -0.38807176   0.18817781    -1.267832   0.87976021  1070540 
 3930000    1.2280096   -1.2676109   -1.2676109  -0.38759109   0.18014552   -1.2676109   0.88001984  1070540 
 3931000    1.2279613     -1.26735     -1.26735   -0.3873648   0.18521058     -1.26735   0.87998521  1070540 
 3932000    1.2282699   -1.2677909   -1.2677909  -0.38758455    0.1819713   -1.2677909   0.88020637  1070540 
 3933000    1.2273971   -1.2674279   -1.2674279  -0.38784702   0.18913645   -1.2674279   0.87958092  1070540 
 3934000    1.2280001   -1.2678017   -1.2678017   -0.3877887   0.18805036   -1.2678017   0.88001303  1070540 
 3935000    1.2272662   -1.2675114   -1.2675114  -0.38802434   0.18147067   -1.2675114   0.87948707  1070540 
 3936000    1.2288237   -1.2689175   -1.2689175  -0.38831429   0.18925451   -1.2689175   0.88060322  1070540 
 3937000    1.2277775   -1.2684833   -1.2684833   -0.3886298   0.19777446   -1.2684833   0.87985347  1070540 
 3938000    1.2276834   -1.2684402   -1.2684402  -0.38865415   0.18184843   -1.2684402   0.87978607  1070540 
 3939000    1.2278711   -1.2685293   -1.2685293  -0.38860867   0.18429478   -1.2685293   0.87992059  1070540 
 3940000    1.2277971   -1.2682108   -1.2682108   -0.3883432    0.1816463   -1.2682108   0.87986757  1070540 
 3941000    1.2281609   -1.2686433   -1.2686433    -0.388515   0.17723856   -1.2686433   0.88012825  1070540 
 3942000    1.2260117   -1.2668823   -1.2668823  -0.38829424   0.18689244   -1.2668823    0.8785881  1070540 
 3943000    1.2266719   -1.2667946   -1.2667946  -0.38773338   0.18349841   -1.2667946    0.8790612  1070540 
 3944000    1.2276789    -1.267625    -1.267625  -0.38784219    0.1801028    -1.267625   0.87978285  1070540 
 3945000    1.2273605   -1.2676684   -1.2676684   -0.3881137   0.18645402   -1.2676684   0.87955466  1070540 
 3946000    1.2279458   -1.2680693   -1.2680693  -0.38809519   0.18101024   -1.2680693   0.87997408  1070540 
 3947000     1.229445   -1.2688239   -1.2688239  -0.38777542   0.18375799   -1.2688239   0.88104844  1070540 
 3948000    1.2288811   -1.2682679   -1.2682679  -0.38762351   0.18837932   -1.2682679   0.88064438  1070540 
 3949000     1.229226   -1.2688269   -1.2688269  -0.38793532   0.18782136   -1.2688269   0.88089155  1070540 
 3950000    1.2279362   -1.2676274   -1.2676274  -0.38766019   0.18224639   -1.2676274   0.87996719  1070540 
 3951000    1.2297925    -1.268516    -1.268516  -0.38721859   0.18727758    -1.268516   0.88129746  1070540 
 3952000    1.2290327   -1.2682952   -1.2682952  -0.38754221   0.17895984   -1.2682952   0.88075302  1070540 
 3953000    1.2276942   -1.2671198   -1.2671198  -0.38732599   0.18861103   -1.2671198   0.87979381  1070540 
 3954000    1.2306179   -1.2687926   -1.2687926  -0.38690358   0.18401081   -1.2687926   0.88188899  1070540 
 3955000    1.2280716    -1.267394    -1.267394  -0.38732981     0.185111    -1.267394   0.88006422  1070540 
 3956000    1.2296293   -1.2680553   -1.2680553  -0.38687481   0.18903394   -1.2680553   0.88118051  1070540 
 3957000    1.2291623   -1.2683078   -1.2683078  -0.38746186    0.1788362   -1.2683078    0.8808459  1070540 
 3958000    1.2272795     -1.26721     -1.26721  -0.38771336   0.18817782     -1.26721   0.87949663  1070540 
 3959000    1.2285928   -1.2684912   -1.2684912   -0.3880534   0.17934264   -1.2684912   0.88043779  1070540 
 3960000    1.2271268    -1.267294    -1.267294  -0.38790683   0.18335612    -1.267294    0.8793872  1070540 
 3961000     1.227217   -1.2674535   -1.2674535  -0.38800162    0.1876692   -1.2674535   0.87945185  1070540 
 3962000    1.2274746   -1.2676511   -1.2676511   -0.3880147   0.18425736   -1.2676511   0.87963642  1070540 
 3963000    1.2271728    -1.267649    -1.267649  -0.38822882   0.18465925    -1.267649   0.87942017  1070540 
 3964000    1.2294042   -1.2691182   -1.2691182  -0.38809899   0.17316063   -1.2691182   0.88101924  1070540 
 3965000    1.2271521   -1.2675327   -1.2675327  -0.38812744   0.19291017   -1.2675327   0.87940529  1070540 
 3966000    1.2290101   -1.2681389   -1.2681389  -0.38740212   0.18400627   -1.2681389    0.8807368  1070540 
 3967000    1.2276851   -1.2680428   -1.2680428  -0.38825549   0.19051473   -1.2680428   0.87978729  1070540 
 3968000    1.2273547    -1.268037    -1.268037  -0.38848648   0.18235047    -1.268037   0.87955049  1070540 
 3969000    1.2282239   -1.2685659   -1.2685659  -0.38839251   0.18248212   -1.2685659   0.88017338  1070540 
 3970000    1.2278377   -1.2680861   -1.2680861   -0.3881895   0.17751779   -1.2680861   0.87989664  1070540 
 3971000    1.2286315   -1.2685924   -1.2685924  -0.38812691   0.18863776   -1.2685924   0.88046546  1070540 
 3972000    1.2267386   -1.2673892   -1.2673892  -0.38828016   0.17959205   -1.2673892   0.87910902  1070540 
 3973000     1.228992   -1.2687988   -1.2687988    -0.388075   0.18255596   -1.2687988   0.88072383  1070540 
 3974000    1.2295787   -1.2687416   -1.2687416  -0.38759734   0.18404464   -1.2687416   0.88114425  1070540 
 3975000    1.2289477   -1.2683354   -1.2683354   -0.3876433   0.18802477   -1.2683354   0.88069209  1070540 
 3976000     1.226048   -1.2664417   -1.2664417   -0.3878276   0.18725068   -1.2664417   0.87861407  1070540 
 3977000    1.2279247     -1.26799     -1.26799  -0.38803098   0.18397932     -1.26799   0.87995899  1070540 
 3978000    1.2274434    -1.267774    -1.267774  -0.38815996    0.1845667    -1.267774   0.87961406  1070540 
 3979000    1.2297771   -1.2695754   -1.2695754  -0.38828891   0.18520604   -1.2695754   0.88128645  1070540 
 3980000    1.2297098   -1.2692764   -1.2692764   -0.3880382   0.19198695   -1.2692764   0.88123823  1070540 
 3981000    1.2298883   -1.2691838   -1.2691838  -0.38781763   0.18198178   -1.2691838   0.88136618  1070540 
 3982000    1.2291379   -1.2685735   -1.2685735  -0.38774512   0.18184091   -1.2685735   0.88082837  1070540 
 3983000    1.2291343   -1.2679982   -1.2679982  -0.38717239   0.18996486   -1.2679982   0.88082578  1070540 
 3984000    1.2293912   -1.2684893   -1.2684893  -0.38747938   0.18654961   -1.2684893    0.8810099  1070540 
 3985000    1.2282294   -1.2674886   -1.2674886  -0.38731127    0.1792638   -1.2674886   0.88017733  1070540 
 3986000     1.228072   -1.2673947   -1.2673947  -0.38733016   0.18444908   -1.2673947   0.88006456  1070540 
 3987000    1.2293999    -1.268155    -1.268155  -0.38713886   0.18784142    -1.268155   0.88101616  1070540 
 3988000    1.2300792   -1.2684256   -1.2684256  -0.38692265   0.18095383   -1.2684256   0.88150295  1070540 
 3989000    1.2300705   -1.2686159   -1.2686159  -0.38711917   0.17910652   -1.2686159   0.88149669  1070540 
 3990000    1.2303312   -1.2684353   -1.2684353   -0.3867517   0.18184205   -1.2684353   0.88168356  1070540 
 3991000    1.2281769   -1.2672172   -1.2672172  -0.38707753   0.18666309   -1.2672172   0.88013972  1070540 
 3992000    1.2283334    -1.267553    -1.267553  -0.38730112    0.1885227    -1.267553   0.88025188  1070540 
 3993000     1.229415   -1.2689002   -1.2689002  -0.38787326   0.18867746   -1.2689002   0.88102694  1070540 
 3994000    1.2284024   -1.2681282   -1.2681282   -0.3878269   0.18875657   -1.2681282   0.88030134  1070540 
 3995000     1.230608   -1.2690134   -1.2690134  -0.38713155   0.18624777   -1.2690134   0.88188188  1070540 
 3996000    1.2288964   -1.2680214   -1.2680214  -0.38736607   0.19231899   -1.2680214   0.88065535  1070540 
 3997000    1.2299472   -1.2684615   -1.2684615  -0.38705311   0.18460942   -1.2684615   0.88140835  1070540 
 3998000    1.2286744   -1.2673329   -1.2673329  -0.38683661   0.18541602   -1.2673329   0.88049624  1070540 
 3999000    1.2287034    -1.267937    -1.267937  -0.38741995   0.17623664    -1.267937   0.88051703  1070540 
 4000000    1.2285878   -1.2675677   -1.2675677  -0.38713346   0.18277397   -1.2675677   0.88043419  1070540 
Loop time of 6518.03 on 240 procs for 2000000 steps with 1070540 atoms

Performance: 132555.372 tau/day, 306.841 timesteps/s
95.5% CPU use with 240 MPI tasks x 1 OpenMP threads

MPI task timing breakdown:
Section |  min time  |  avg time  |  max time  |%varavg|  %CPU | %total
-----------------------------------------------------------------------
Pair    | 868.41     | 1126.6     | 1399.4     | 332.8 |  96.7 | 17.28
Bond    | 1.3445     | 1.4695     | 1.6923     |   5.1 | 100.0 |  0.02
Neigh   | 1003.5     | 1642.6     | 2233.2     | 777.0 |  99.4 | 25.20
Comm    | 1865.6     | 2706.9     | 3598.2     | 632.7 |  93.6 | 41.53
Output  | 72.72      | 73.23      | 73.934     |   4.0 |  89.1 |  1.12
Modify  | 675.74     | 886.32     | 1347.8     | 402.3 |  94.2 | 13.60
Other   |            | 80.93      |            |       |       |  1.24

Nlocal:        4460.58 ave        5876 max        2817 min
Histogram: 4 10 21 19 32 58 46 35 12 3
Nghost:        9270.50 ave       13427 max        3135 min
Histogram: 19 1 6 16 14 27 67 63 24 3
Neighs:        51715.5 ave       70733 max       39225 min
Histogram: 11 23 56 56 40 13 10 17 11 3

Total # of neighbors = 12411726
Ave neighs/atom = 11.593893
Ave special neighs/atom = 0.0000000
Neighbor list builds = 200000
Dangerous builds = 198000

Total wall time: 3:40:36
