LAMMPS (24 Dec 2020)
OMP_NUM_THREADS environment is not set. Defaulting to 1 thread. (src/comm.cpp:94)
  using 1 OpenMP thread(s) per MPI task
# Simple rigid body system
# needed variables: startTemp, temp

units		lj
atom_style	full
dimension 	3
boundary	p p f
pair_style	lj/cut/opt 2.5

variable 	gcmcdisplace	equal 0
variable 	sigma		equal 1.0
variable 	epsilon 	equal 1.0


read_restart	restart.dat.3000000
Reading restart file ...
  restart file = 24 Dec 2020, LAMMPS = 24 Dec 2020
WARNING: Restart file used different # of processors: 48 vs. 192 (src/read_restart.cpp:697)
  restoring atom style full from restart
  orthogonal box = (0.0000000 0.0000000 0.0000000) to (80.000000 80.000000 160.00000)
  6 by 4 by 8 MPI processor grid
  restoring pair style lj/cut/opt from restart
  439061 atoms
Finding 1-2 1-3 1-4 neighbors ...
  special bond factors lj:    0        0        0       
  special bond factors coul:  0        0        0       
     0 = max # of 1-2 neighbors
     0 = max # of 1-3 neighbors
     0 = max # of 1-4 neighbors
     1 = max # of special neighbors
  special bonds CPU = 1.418 seconds
  read_restart CPU = 1.727 seconds

mass		1 1.0
mass		2 1.0
mass		3 1.0


group		solvent type 1
439061 atoms in group solvent


neighbor 	0.4 bin

pair_coeff	1 1 1.0 1.0
pair_coeff	2 2 0.0 0.0
pair_coeff	3 3 0.0 0.0
pair_coeff	2 3 0.0 0.0
pair_coeff	1 2*3 0.0 0.0

pair_modify 	shift yes


balance 	1.05 shift z 10 1.05
Balancing ...
Neighbor list info ...
  update every 1 steps, delay 10 steps, check yes
  max neighbors/atom: 2000, page size: 100000
  master list distance cutoff = 2.9
  ghost atom cutoff = 2.9
  binsize = 1.45, bins = 56 56 111
  1 neighbor lists, perpetual/occasional/extra = 1 0 0
  (1) pair lj/cut/opt, perpetual
      attributes: half, newton on
      pair build: half/bin/newton
      stencil: half/bin/3d/newton
      bin: standard
 rebalancing time: 0.036 seconds
  iteration count = 5
  initial/final maximal load/proc = 3162.0000 2575.0000
  initial/final imbalance factor  = 1.3827327 1.1260394
  x cuts: 0.0000000 0.16666667 0.33333333 0.50000000 0.66666667 0.83333333 1.0000000
  y cuts: 0.0000000 0.25000000 0.50000000 0.75000000 1.0000000
  z cuts: 0.0000000 0.097656250 0.18359375 0.27734375 0.37890625 0.47656250 0.57031250 0.67968750 1.0000000


####################### WALLS ###########################


variable       epsilonWall equal 2*${epsilon}
variable       epsilonWall equal 2*1

variable       cutoffTop   equal   0.7147*${sigma}
variable       cutoffTop   equal   0.7147*1

variable       cutoffLow   equal   3*${sigma}
variable       cutoffLow   equal   3*1


fix            topWall all wall/lj93 zhi EDGE                ${epsilonWall} ${sigma} ${cutoffTop} units box
fix            topWall all wall/lj93 zhi EDGE                2 ${sigma} ${cutoffTop} units box
fix            topWall all wall/lj93 zhi EDGE                2 1 ${cutoffTop} units box
fix            topWall all wall/lj93 zhi EDGE                2 1 0.7147 units box

fix            lowWall all wall/lj93 zlo EDGE                ${epsilonWall} ${sigma} ${cutoffLow} units box
fix            lowWall all wall/lj93 zlo EDGE                2 ${sigma} ${cutoffLow} units box
fix            lowWall all wall/lj93 zlo EDGE                2 1 ${cutoffLow} units box
fix            lowWall all wall/lj93 zlo EDGE                2 1 3 units box


###################### COMPUTES ##########################

compute        bin1 solvent chunk/atom bin/1d z upper 1.0



######################	FIXES ############################


fix 		peclet solvent ave/chunk 1000 1 1000 bin1 density/number norm 		 none ave one file density.profile

fix 		 temp solvent ave/chunk 1000 1 1000 bin1 temp norm none ave one file temp.profile

fix 		2 solvent nve

## Thermostat


region		regthermo block EDGE EDGE EDGE EDGE 0 20

group 		thermo dynamic solvent region regthermo every 1000
dynamic group thermo defined

fix 		3 thermo langevin ${startTemp} ${temp} 10 156453
fix 		3 thermo langevin 1.0 ${temp} 10 156453
fix 		3 thermo langevin 1.0 1.0 10 156453


## Evaporation

region		regevap block EDGE EDGE EDGE EDGE 140 158
fix 		gcmc solvent gcmc 100 100 0 1 780493 ${temp} ${mu} ${gcmcdisplace} region regevap
fix 		gcmc solvent gcmc 100 100 0 1 780493 1.0 ${mu} ${gcmcdisplace} region regevap
fix 		gcmc solvent gcmc 100 100 0 1 780493 1.0 -3.0 ${gcmcdisplace} region regevap
fix 		gcmc solvent gcmc 100 100 0 1 780493 1.0 -3.0 0 region regevap


#### Load balancing

fix 		bal all balance 1000 1.05 shift z 10 1.05

############### Diagnostics and computes ###################
#compute 	com cube	  rigid/local	1 mol x y z
#compute 	quat cube	  rigid/local	1 mol quatw quati quatj quatk

thermo 		1000
thermo_style 	custom step temp epair etotal press pe ke atoms

dump		1 all custom 100000 dump.lammpstrj id mol type x y z
dump 		2 all image 10000 image.*.png type type
dump 		3 all movie 1000 movie.avi type type
#dump 		com cube local 1000 dump.*.xyz c_com[*]
#dump		quat cube      local 1000 dump.*.quat c_quat[*]


restart 	1000000 restart.dat
timestep 	0.005
timer 		full
New timer settings: style=full  mode=nosync  timeout=off


run		5000000
Per MPI rank memory allocation (min/avg/max) = 9.923 | 9.986 | 10.01 Mbytes
Step Temp E_pair TotEng Press PotEng KinEng Atoms 
 3000000     1.016004   -3.1352716   -1.6112691  0.079025997   -3.1352716    1.5240025   439061 
 3001000    1.0153506   -3.1347379   -1.6117883  0.074735897   -3.1347379    1.5229496   439082 
 3002000    1.0161677    -3.137067    -1.613041  0.075325953    -3.137067     1.524026   439125 
 3003000    1.0154915   -3.1371892   -1.6141912  0.072799926   -3.1371892    1.5229979   439129 
 3004000    1.0141041   -3.1345715   -1.6137305  0.079184916   -3.1345715     1.520841   439151 
 3005000    1.0146836   -3.1361442   -1.6145797  0.076901138   -3.1361442    1.5215645   439193 
 3006000    1.0143601   -3.1354161   -1.6142986  0.077006437   -3.1354161    1.5211175   439182 
 3007000    1.0133974   -3.1337926   -1.6139423  0.072892639   -3.1337926    1.5198503   439131 
 3008000    1.0153147   -3.1356343   -1.6128218  0.076536722   -3.1356343    1.5228125   439106 
 3009000    1.0141116   -3.1347142   -1.6136612  0.075852076   -3.1347142     1.521053   439093 
 3010000    1.0141646   -3.1357927   -1.6146671  0.078534511   -3.1357927    1.5211256   439095 
 3011000    1.0147437    -3.136775   -1.6148223  0.073044667    -3.136775    1.5219527   439107 
 3012000    1.0151795     -3.13743   -1.6147579  0.075164766     -3.13743    1.5226721   439088 
 3013000    1.0154943    -3.135817    -1.612749  0.075989593    -3.135817     1.523068   439110 
 3014000    1.0166109   -3.1381488   -1.6134964  0.074533002   -3.1381488    1.5246524   439136 
 3015000    1.0152377   -3.1361475   -1.6136482  0.076376537   -3.1361475    1.5224994   439163 
 3016000     1.015741   -3.1369776   -1.6136401   0.07200413   -3.1369776    1.5233375   439139 
 3017000     1.016257   -3.1372741   -1.6131212  0.075464238   -3.1372741    1.5241529   439127 
 3018000     1.016945    -3.136938   -1.6117533  0.078889978    -3.136938    1.5251847   439127 
 3019000    1.0164016   -3.1359138   -1.6116378  0.082316042   -3.1359138     1.524276   439154 
 3020000    1.0169963   -3.1368046   -1.6116922  0.075167251   -3.1368046    1.5251124   439170 
 3021000    1.0156962   -3.1338577   -1.6106672  0.080541808   -3.1338577    1.5231905   439162 
 3022000    1.0161179   -3.1361259   -1.6123725  0.078353333   -3.1361259    1.5237534   439182 
 3023000    1.0157756   -3.1362661   -1.6129705  0.080175808   -3.1362661    1.5232956   439166 
 3024000    1.0146591   -3.1339834   -1.6123656  0.080559011   -3.1339834    1.5216178   439167 
 3025000    1.0144129   -3.1340152    -1.612829   0.08079274   -3.1340152    1.5211862   439185 
 3026000    1.0152695    -3.136253   -1.6137267   0.07525244    -3.136253    1.5225263   439169 
 3027000    1.0154209   -3.1373468   -1.6146004  0.071554803   -3.1373468    1.5227464   439171 
 3028000     1.015819   -3.1379291   -1.6146829  0.073208666   -3.1379291    1.5232463   439199 
 3029000    1.0150278   -3.1367443   -1.6147816  0.071208735   -3.1367443    1.5219627   439227 
 3030000    1.0144052   -3.1359133   -1.6148459  0.072361003   -3.1359133    1.5210674   439216 
 3031000    1.0129354   -3.1341136   -1.6152675  0.071272696   -3.1341136    1.5188462   439221 
 3032000     1.013731   -3.1342331   -1.6142805  0.073289886   -3.1342331    1.5199526   439246 
 3033000    1.0146016   -3.1351385   -1.6140018  0.071814228   -3.1351385    1.5211368   439281 
 3034000    1.0147082   -3.1332676   -1.6119365  0.078865106   -3.1332676    1.5213311   439271 
 3035000    1.0136915   -3.1317634   -1.6119704  0.074315361   -3.1317634     1.519793   439275 
 3036000    1.0145825   -3.1333852   -1.6123497  0.074718812   -3.1333852    1.5210354   439302 
 3037000    1.0148438   -3.1334646   -1.6120236  0.078003065   -3.1334646    1.5214409   439298 
 3038000    1.0160901   -3.1352715   -1.6119447  0.074086222   -3.1352715    1.5233267   439293 
 3039000    1.0156659   -3.1338827   -1.6111814  0.072571385   -3.1338827    1.5227012   439290 
 3040000     1.014281   -3.1332261    -1.612743  0.077034134   -3.1332261    1.5204831   439331 
 3041000    1.0142411   -3.1338187   -1.6134198  0.073162752   -3.1338187    1.5203989   439338 
 3042000    1.0138872   -3.1314432   -1.6116646  0.070603669   -3.1314432    1.5197786   439364 
 3043000    1.0150208   -3.1318398   -1.6105075  0.076558518   -3.1318398    1.5213323   439406 
 3044000    1.0149046   -3.1337474   -1.6125926  0.071404571   -3.1337474    1.5211547   439407 
 3045000    1.0134488   -3.1315943    -1.612625  0.076837702   -3.1315943    1.5189693   439408 
 3046000     1.015022   -3.1349014    -1.613543   0.07324075   -3.1349014    1.5213584   439399 
 3047000      1.01396    -3.132873   -1.6131099  0.076804536    -3.132873    1.5197631   439400 
 3048000    1.0153423   -3.1360235   -1.6143098  0.069496103   -3.1360235    1.5217137   439435 
 3049000    1.0143063   -3.1339524   -1.6139538  0.079038492   -3.1339524    1.5199986   439482 
 3050000    1.0154409   -3.1359616   -1.6142836  0.070090368   -3.1359616    1.5216781   439488 
 3051000    1.0146905   -3.1346632   -1.6140993  0.077071796   -3.1346632    1.5205639   439485 
 3052000    1.0122624   -3.1316252   -1.6146551   0.07678395   -3.1316252    1.5169701   439472 
 3053000     1.015242   -3.1363943   -1.6148378   0.07286055   -3.1363943    1.5215566   439437 
 3054000    1.0169577   -3.1388825   -1.6147617  0.073006372   -3.1388825    1.5241209   439439 
 3055000    1.0144669   -3.1356706   -1.6153726  0.075520179   -3.1356706     1.520298   439465 
 3056000    1.0142456    -3.136639   -1.6168179  0.075602535    -3.136639    1.5198211   439507 
 3057000    1.0143592   -3.1364342    -1.616678  0.072516764   -3.1364342    1.5197562   439575 
 3058000    1.0138181    -3.135159   -1.6162653  0.076568804    -3.135159    1.5188937   439590 
 3059000    1.0135801   -3.1360565   -1.6175056  0.067831366   -3.1360565    1.5185509   439586 
 3060000    1.0152714   -3.1366321   -1.6156545  0.075766172   -3.1366321    1.5209776   439617 
 3061000    1.0147158   -3.1354536   -1.6153118  0.079458702   -3.1354536    1.5201418   439618 
 3062000    1.0155163     -3.13719   -1.6158525  0.070070124     -3.13719    1.5213375   439619 
 3063000    1.0156848   -3.1369369   -1.6153919  0.078195906   -3.1369369     1.521545   439632 
 3064000    1.0156581   -3.1365886   -1.6151424  0.071481202   -3.1365886    1.5214462   439649 
 3065000    1.0163468    -3.136173   -1.6137125  0.079779451    -3.136173    1.5224605   439654 
 3066000    1.0173277   -3.1377095    -1.613797  0.079567388   -3.1377095    1.5239125   439659 
 3067000    1.0169704   -3.1372653   -1.6139538  0.080524422   -3.1372653    1.5233115   439678 
 3068000    1.0156503   -3.1358146   -1.6144389  0.079121818   -3.1358146    1.5213757   439666 
 3069000    1.0169288   -3.1389707   -1.6156072  0.071735661   -3.1389707    1.5233635   439645 
 3070000    1.0155215   -3.1377111   -1.6163416  0.081927906   -3.1377111    1.5213695   439612 
 3071000    1.0162678   -3.1370792   -1.6146054  0.073298113   -3.1370792    1.5224738   439616 
 3072000    1.0173364   -3.1389292    -1.614865   0.07182374   -3.1389292    1.5240642   439619 
 3073000    1.0159771   -3.1359211   -1.6138899  0.077685401   -3.1359211    1.5220312   439618 
 3074000    1.0138282   -3.1331449   -1.6143951  0.076762694   -3.1331449    1.5187498   439636 
 3075000    1.0157702   -3.1335993    -1.612044  0.071561004   -3.1335993    1.5215553   439666 
 3076000    1.0157127   -3.1335399    -1.612185  0.074663573   -3.1335399    1.5213549   439699 
 3077000    1.0157589   -3.1338837   -1.6124699  0.070510808   -3.1338837    1.5214138   439702 
 3078000    1.0164403   -3.1364622   -1.6140383  0.071393931   -3.1364622    1.5224239   439705 
 3079000       1.0169   -3.1360262   -1.6129831  0.076161652   -3.1360262    1.5230431   439725 
 3080000    1.0155099   -3.1342178   -1.6132946  0.069898319   -3.1342178    1.5209231   439736 
 3081000    1.0148067   -3.1333003   -1.6134442  0.070931421   -3.1333003    1.5198561   439740 
 3082000    1.0130839   -3.1312796    -1.614045  0.075109799   -3.1312796    1.5172346   439752 
 3083000     1.014492   -3.1331487   -1.6138122  0.074542505   -3.1331487    1.5193365   439754 
 3084000     1.013865   -3.1310968   -1.6127029  0.074006825   -3.1310968    1.5183939   439755 
 3085000    1.0149588   -3.1331036   -1.6131545  0.073357996   -3.1331036    1.5199491   439779 
 3086000    1.0142464    -3.133145   -1.6142938  0.072047299    -3.133145    1.5188511   439788 
 3087000    1.0130425   -3.1321776   -1.6150429  0.069932392   -3.1321776    1.5171347   439763 
 3088000    1.0134493   -3.1327693   -1.6150703  0.072351836   -3.1327693     1.517699   439776 
 3089000    1.0140986   -3.1334595   -1.6149021  0.074661201   -3.1334595    1.5185574   439809 
 3090000    1.0133919   -3.1321144   -1.6146773  0.077838429   -3.1321144    1.5174371   439827 
 3091000    1.0157029   -3.1341571   -1.6132769  0.073100318   -3.1341571    1.5208802   439832 
 3092000    1.0150328   -3.1342718    -1.614426   0.07679971   -3.1342718    1.5198458   439841 
 3093000    1.0156899   -3.1346195   -1.6138107  0.071920076   -3.1346195    1.5208088   439847 
 3094000     1.016396   -3.1336168   -1.6116885  0.073301205   -3.1336168    1.5219283   439829 
 3095000    1.0161792   -3.1333691   -1.6117446  0.078497593   -3.1333691    1.5216245   439823 
 3096000    1.0185909   -3.1368399   -1.6115903  0.076099552   -3.1368399    1.5252496   439819 
 3097000    1.0172885   -3.1358982   -1.6125088  0.078280974   -3.1358982    1.5233894   439793 
 3098000    1.0174817   -3.1368453   -1.6132393   0.07730483   -3.1368453     1.523606   439814 
 3099000    1.0162738   -3.1334181   -1.6116623  0.078238397   -3.1334181    1.5217558   439826 
 3100000    1.0177271   -3.1357147   -1.6119076  0.069927435   -3.1357147    1.5238072   439862 
 3101000    1.0177518   -3.1358737   -1.6120537  0.076214402   -3.1358737      1.52382   439869 
 3102000    1.0178578   -3.1372135   -1.6132382   0.07995906   -3.1372135    1.5239752   439870 
 3103000    1.0183682   -3.1368833   -1.6122167   0.07835235   -3.1368833    1.5246666   439891 
 3104000    1.0169695   -3.1366206   -1.6140066  0.078740695   -3.1366206     1.522614   439879 
 3105000    1.0157483   -3.1352752   -1.6144584  0.073382719   -3.1352752    1.5208168   439870 
 3106000    1.0171921   -3.1367064   -1.6136482  0.078024224   -3.1367064    1.5230582   439847 
 3107000    1.0165978   -3.1363261   -1.6141302  0.074512143   -3.1363261     1.522196   439839 
 3108000    1.0170733    -3.136451   -1.6135707  0.073559457    -3.136451    1.5228802   439847 
 3109000    1.0170457   -3.1354024   -1.6126362  0.078374185   -3.1354024    1.5227662   439868 
 3110000    1.0171457    -3.134183   -1.6112255  0.075649408    -3.134183    1.5229575   439856 
 3111000    1.0168045   -3.1338035   -1.6113673   0.08018475   -3.1338035    1.5224362   439859 
 3112000    1.0173289   -3.1349701    -1.611728  0.076072614   -3.1349701    1.5232421   439853 
 3113000    1.0176272   -3.1350598   -1.6115165  0.077307733   -3.1350598    1.5235433   439895 
 3114000    1.0171312   -3.1348306   -1.6119536  0.078514055   -3.1348306    1.5228769   439873 
 3115000    1.0169243   -3.1342888   -1.6117356   0.07258236   -3.1342888    1.5225533   439877 
 3116000    1.0156364   -3.1332251   -1.6124895  0.072784437   -3.1332251    1.5207356   439845 
 3117000    1.0161561   -3.1359282   -1.6142552  0.070602552   -3.1359282     1.521673   439799 
 3118000    1.0139734    -3.133136   -1.6146936  0.071919753    -3.133136    1.5184424   439788 
 3119000     1.014781   -3.1331647   -1.6134957  0.075371458   -3.1331647     1.519669   439783 
 3120000    1.0151545   -3.1320684   -1.6118884  0.070572694   -3.1320684    1.5201801   439797 
 3121000     1.015252   -3.1319562   -1.6117581  0.072732562   -3.1319562    1.5201981   439834 
 3122000    1.0136442   -3.1301431   -1.6122593   0.07816507   -3.1301431    1.5178838   439807 
 3123000    1.0148768   -3.1319676   -1.6122414  0.071454709   -3.1319676    1.5197262   439808 
 3124000    1.0141144   -3.1318974   -1.6131714  0.073887791   -3.1318974    1.5187261   439767 
 3125000    1.0137579   -3.1305032   -1.6122696  0.070391926   -3.1305032    1.5182336   439755 
 3126000    1.0142349   -3.1327737   -1.6138913  0.068865838   -3.1327737    1.5188824   439774 
 3127000    1.0147433   -3.1319209    -1.612284  0.070066644   -3.1319209    1.5196368   439776 
 3128000    1.0154648   -3.1332098   -1.6124096  0.069839769   -3.1332098    1.5208002   439752 
 3129000    1.0145897   -3.1317994   -1.6123994  0.073802972   -3.1317994    1.5193999   439778 
 3130000    1.0158949   -3.1334104   -1.6122047  0.074470488   -3.1334104    1.5212057   439821 
 3131000    1.0150546   -3.1330317    -1.613105  0.070132876   -3.1330317    1.5199267   439827 
 3132000    1.0165867   -3.1354867   -1.6132036  0.068871343   -3.1354867    1.5222831   439809 
 3133000    1.0152563    -3.134294   -1.6139235   0.07667071    -3.134294    1.5203704   439786 
 3134000    1.0174324   -3.1376449   -1.6141093  0.068171201   -3.1376449    1.5235357   439813 
 3135000    1.0161466   -3.1364752    -1.614948  0.075022549   -3.1364752    1.5215273   439837 
 3136000    1.0152171   -3.1348225   -1.6148149  0.071107835   -3.1348225    1.5200076   439874 
 3137000    1.0155737     -3.13495   -1.6144604  0.080584938     -3.13495    1.5204896   439889 
 3138000    1.0181168    -3.138776   -1.6145482  0.074929003    -3.138776    1.5242278   439909 
 3139000    1.0165925     -3.13689     -1.61492  0.070814942     -3.13689      1.52197   439902 
 3140000    1.0160093   -3.1369452   -1.6157964  0.076654416   -3.1369452    1.5211488   439887 
 3141000    1.0153419    -3.137457   -1.6172764   0.07324745    -3.137457    1.5201806   439878 
 3142000    1.0157577   -3.1388288   -1.6180601  0.074514686   -3.1388288    1.5207686   439888 
 3143000    1.0145561   -3.1384051   -1.6194354  0.073258257   -3.1384051    1.5189697   439888 
 3144000     1.015503    -3.139507   -1.6191889  0.074893146    -3.139507    1.5203181   439908 
 3145000    1.0156309   -3.1408985   -1.6203786  0.072942425   -3.1408985    1.5205199   439905 
 3146000    1.0175124   -3.1421852   -1.6188519  0.071143081   -3.1421852    1.5233333   439906 
 3147000      1.01679   -3.1422048   -1.6200533  0.070776348   -3.1422048    1.5221515   439935 
 3148000    1.0159274   -3.1396852   -1.6187559  0.077470081   -3.1396852    1.5209293   439915 
 3149000    1.0170542   -3.1414191   -1.6187752  0.072756429   -3.1414191    1.5226439   439907 
 3150000    1.0150779   -3.1382821   -1.6185554  0.077361417   -3.1382821    1.5197267   439895 
 3151000    1.0159756   -3.1382302    -1.617201  0.075697488   -3.1382302    1.5210292   439907 
 3152000    1.0158629   -3.1395032   -1.6187292  0.079626324   -3.1395032     1.520774   439932 
 3153000    1.0164375   -3.1401043   -1.6182591  0.079334578   -3.1401043    1.5218452   439871 
 3154000    1.0153914   -3.1392305   -1.6188651  0.081008076   -3.1392305    1.5203654   439846 
 3155000    1.0167647   -3.1405874   -1.6181553  0.071638874   -3.1405874     1.522432   439843 
 3156000    1.0176728   -3.1413095   -1.6176183  0.076744743   -3.1413095    1.5236912   439872 
 3157000    1.0162725   -3.1406967   -1.6191642  0.078775502   -3.1406967    1.5215325   439890 
 3158000    1.0162732   -3.1406857   -1.6192386  0.071441325   -3.1406857    1.5214471   439915 
 3159000    1.0155601   -3.1403126   -1.6199745  0.072154078   -3.1403126     1.520338   439927 
 3160000    1.0150663   -3.1380292   -1.6183822  0.074613411   -3.1380292     1.519647   439913 
 3161000    1.0145909   -3.1394862    -1.620613  0.071856348   -3.1394862    1.5188732   439931 
 3162000    1.0140803    -3.136927   -1.6189113   0.07183051    -3.136927    1.5180157   439958 
 3163000    1.0139341   -3.1362955   -1.6186091   0.07105787   -3.1362955    1.5176864   439990 
 3164000    1.0153227   -3.1369264   -1.6171407  0.072916017   -3.1369264    1.5197857   439984 
 3165000    1.0154401   -3.1378812   -1.6177642  0.072838783   -3.1378812    1.5201169   439939 
 3166000    1.0163506   -3.1385721   -1.6170887  0.074130614   -3.1385721    1.5214834   439938 
 3167000    1.0158341   -3.1378142   -1.6170454  0.072111266   -3.1378142    1.5207689   439921 
 3168000    1.0134352   -3.1334975   -1.6163647  0.076427714   -3.1334975    1.5171328   439934 
 3169000    1.0151582    -3.134782   -1.6150941  0.067815053    -3.134782    1.5196879   439941 
 3170000     1.015001   -3.1342796     -1.61482  0.076979199   -3.1342796    1.5194596   439939 
 3171000    1.0156081   -3.1356177   -1.6151906  0.074095752   -3.1356177    1.5204271   439922 
 3172000    1.0147962   -3.1329852   -1.6138736  0.072183434   -3.1329852    1.5191115   439951 
 3173000    1.0154165   -3.1340308   -1.6140978  0.075365792   -3.1340308     1.519933   439982 
 3174000    1.0145228   -3.1329524   -1.6143848  0.074814304   -3.1329524    1.5185676   439990 
 3175000    1.0157567   -3.1360478   -1.6155124   0.07541033   -3.1360478    1.5205355   439955 
 3176000    1.0144864   -3.1335466   -1.6149127  0.070041792   -3.1335466     1.518634   439955 
 3177000    1.0143481   -3.1336275   -1.6151938  0.078110021   -3.1336275    1.5184338   439953 
 3178000    1.0150524   -3.1352256   -1.6157789  0.071751875   -3.1352256    1.5194467   439965 
 3179000    1.0153764    -3.135672   -1.6157645   0.06629139    -3.135672    1.5199075   439972 
 3180000    1.0160698   -3.1360883   -1.6151429  0.068730182   -3.1360883    1.5209454   439972 
 3181000    1.0137754   -3.1336055   -1.6161186  0.075106001   -3.1336055    1.5174869   439979 
 3182000    1.0147503    -3.135819   -1.6169868  0.071358052    -3.135819    1.5188322   440012 
 3183000    1.0134266   -3.1351504   -1.6184131  0.070378977   -3.1351504    1.5167373   440045 
 3184000    1.0146198   -3.1365957   -1.6182003  0.072159625   -3.1365957    1.5183954   440082 
 3185000      1.01541   -3.1367196   -1.6171659  0.072037006   -3.1367196    1.5195537   440089 
 3186000     1.015363   -3.1374675   -1.6180152  0.071274893   -3.1374675    1.5194523   440098 
 3187000    1.0156656   -3.1365537   -1.6168075  0.073389249   -3.1365537    1.5197462   440144 
 3188000    1.0158405    -3.137571   -1.6174593  0.074345692    -3.137571    1.5201117   440114 
 3189000     1.016605   -3.1386879    -1.617332  0.073572344   -3.1386879    1.5213559   440085 
 3190000    1.0142435    -3.135487   -1.6176375   0.07396511    -3.135487    1.5178495   440077 
 3191000    1.0153155   -3.1374827   -1.6181119  0.069668144   -3.1374827    1.5193708   440101 
 3192000    1.0159158    -3.139686   -1.6194618  0.070717974    -3.139686    1.5202243   440114 
 3193000    1.0155665   -3.1394802   -1.6197613  0.076620434   -3.1394802    1.5197189   440109 
 3194000    1.0166346   -3.1418249    -1.620532  0.072692867   -3.1418249    1.5212929   440116 
 3195000    1.0161235     -3.14017   -1.6196108  0.076595027     -3.14017    1.5205592   440107 
 3196000     1.017233   -3.1421538   -1.6199342  0.070593807   -3.1421538    1.5222195   440107 
 3197000    1.0168223   -3.1410228   -1.6195803  0.072648241   -3.1410228    1.5214425   440154 
 3198000    1.0169795   -3.1419892    -1.620353  0.070896071   -3.1419892    1.5216362   440166 
 3199000     1.017683    -3.141912   -1.6192717  0.079229869    -3.141912    1.5226404   440180 
 3200000    1.0175286    -3.141125   -1.6187675  0.083126389    -3.141125    1.5223576   440195 
 3201000    1.0185244   -3.1438441   -1.6198928   0.07744396   -3.1438441    1.5239513   440165 
 3202000    1.0172718   -3.1426059   -1.6205116  0.079757712   -3.1426059    1.5220943   440160 
 3203000    1.0165239   -3.1417586   -1.6208766  0.081938932   -3.1417586     1.520882   440187 
 3204000    1.0170932   -3.1431137   -1.6214387   0.07729509   -3.1431137     1.521675   440204 
 3205000    1.0170397   -3.1441874    -1.622582  0.071457753   -3.1441874    1.5216054   440201 
 3206000    1.0178952   -3.1448145   -1.6219086  0.073599058   -3.1448145    1.5229059   440195 
 3207000     1.014809   -3.1422396   -1.6239855   0.07372636   -3.1422396    1.5182541   440205 
 3208000    1.0139991   -3.1416414   -1.6246438  0.072587782   -3.1416414    1.5169976   440218 
 3209000    1.0145458   -3.1415857   -1.6237494  0.073347839   -3.1415857    1.5178363   440212 
 3210000    1.0152157    -3.143293   -1.6243891   0.07352028    -3.143293    1.5189039   440193 
 3211000    1.0150171   -3.1429834   -1.6243454   0.07111418   -3.1429834     1.518638   440184 
 3212000     1.015463   -3.1437207   -1.6243846   0.07102494   -3.1437207    1.5193361   440175 
 3213000    1.0134152   -3.1396693   -1.6233937   0.07198216   -3.1396693    1.5162756   440174 
 3214000    1.0153903    -3.141732   -1.6225323  0.074545423    -3.141732    1.5191997   440183 
 3215000    1.0153676   -3.1419426   -1.6227803  0.074881209   -3.1419426    1.5191623   440184 
 3216000    1.0155057   -3.1423711    -1.622971  0.068969526   -3.1423711    1.5194001   440175 
 3217000    1.0149587    -3.141667   -1.6229716  0.074030552    -3.141667    1.5186955   440142 
 3218000    1.0160953   -3.1425704   -1.6222503  0.073483997   -3.1425704    1.5203201   440164 
 3219000    1.0157649   -3.1421776   -1.6223725  0.077793169   -3.1421776    1.5198051   440170 
 3220000    1.0142276   -3.1414845   -1.6238278  0.077454236   -3.1414845    1.5176567   440126 
 3221000    1.0147666    -3.141472   -1.6230778  0.074719885    -3.141472    1.5183942   440146 
 3222000    1.0152234   -3.1433607    -1.624214  0.077678999   -3.1433607    1.5191467   440126 
 3223000    1.0156679   -3.1435516   -1.6236706  0.071822153   -3.1435516     1.519881   440106 
 3224000    1.0152376   -3.1429896   -1.6236559  0.070519437   -3.1429896    1.5193337   440078 
 3225000    1.0159749   -3.1435129   -1.6231138  0.075350983   -3.1435129    1.5203991   440089 
 3226000    1.0166907   -3.1456805   -1.6241584  0.072797409   -3.1456805    1.5215222   440074 
 3227000    1.0149556   -3.1444861   -1.6256366  0.076824353   -3.1444861    1.5188495   440096 
 3228000       1.0159   -3.1461369   -1.6260053  0.071575341   -3.1461369    1.5201316   440134 
 3229000    1.0165419   -3.1450407   -1.6238934  0.071341331   -3.1450407    1.5211474   440118 
 3230000    1.0162063    -3.144209   -1.6236365  0.074630051    -3.144209    1.5205726   440139 
 3231000    1.0156991   -3.1455713   -1.6257404  0.075482756   -3.1455713    1.5198309   440134 
 3232000    1.0158428   -3.1462021   -1.6261079  0.072762589   -3.1462021    1.5200942   440120 
 3233000    1.0157902    -3.145987   -1.6259921   0.06995455    -3.145987    1.5199949   440126 
 3234000    1.0159072   -3.1463354   -1.6262034  0.076119416   -3.1463354     1.520132   440137 
 3235000    1.0150213   -3.1455435   -1.6266162  0.071276464   -3.1455435    1.5189272   440102 
 3236000    1.0159541   -3.1452293   -1.6248372  0.073589938   -3.1452293    1.5203921   440082 
 3237000    1.0171177   -3.1467657   -1.6246702  0.072336004   -3.1467657    1.5220954   440093 
 3238000    1.0166816   -3.1474961    -1.626036  0.075084432   -3.1474961    1.5214602   440088 
 3239000     1.016142   -3.1465888   -1.6260813   0.07419381   -3.1465888    1.5205075   440130 
 3240000     1.017506   -3.1472295   -1.6247018  0.076504941   -3.1472295    1.5225278   440136 
 3241000    1.0163939   -3.1451172   -1.6243882  0.076981218   -3.1451172    1.5207289   440175 
 3242000    1.0171872   -3.1464964    -1.624508  0.075468055   -3.1464964    1.5219884   440154 
 3243000    1.0165104   -3.1453839   -1.6242905  0.076472339   -3.1453839    1.5210933   440120 
 3244000    1.0153322    -3.144946     -1.62564  0.075795707    -3.144946     1.519306   440127 
 3245000    1.0158528   -3.1434345   -1.6234805  0.073718023   -3.1434345    1.5199539   440165 
 3246000    1.0159861   -3.1450556   -1.6247641  0.070861944   -3.1450556    1.5202915   440125 
 3247000    1.0170449   -3.1459437   -1.6242131  0.077128612   -3.1459437    1.5217306   440167 
 3248000    1.0178145    -3.146777   -1.6239571  0.079037821    -3.146777    1.5228198   440185 
 3249000    1.0154724    -3.143721   -1.6243915  0.078619166    -3.143721    1.5193295   440181 
 3250000    1.0170601   -3.1456316   -1.6239682  0.074631383   -3.1456316    1.5216634   440193 
 3251000    1.0159429    -3.145398   -1.6254474  0.078623758    -3.145398    1.5199506   440205 
 3252000    1.0174009   -3.1458334   -1.6238191  0.067045696   -3.1458334    1.5220143   440239 
 3253000    1.0175878   -3.1449367   -1.6226842  0.074454447   -3.1449367    1.5222525   440251 
 3254000    1.0171552   -3.1444967   -1.6228569  0.079148258   -3.1444967    1.5216398   440241 
 3255000    1.0164586   -3.1442569    -1.623521  0.072113942   -3.1442569    1.5207359   440201 
 3256000    1.0151723   -3.1438973   -1.6251307   0.07917387   -3.1438973    1.5187666   440214 
 3257000    1.0152072   -3.1434478   -1.6245738  0.068372036   -3.1434478     1.518874   440198 
 3258000    1.0158748   -3.1427932   -1.6227891  0.070169698   -3.1427932     1.520004   440160 
 3259000    1.0152901   -3.1424573   -1.6231624   0.07574004   -3.1424573    1.5192949   440112 
 3260000    1.0142696   -3.1422464   -1.6245234  0.071738861   -3.1422464     1.517723   440125 
 3261000    1.0147078   -3.1439095   -1.6256067  0.073840819   -3.1439095    1.5183028   440147 
 3262000    1.0144066   -3.1435415   -1.6256893  0.074542879   -3.1435415    1.5178521   440147 
 3263000    1.0129027   -3.1430826   -1.6274946   0.07003374   -3.1430826     1.515588   440151 
 3264000    1.0142283   -3.1451852   -1.6275654   0.06920115   -3.1451852    1.5176198   440137 
 3265000    1.0122046   -3.1431449   -1.6286703  0.070060197   -3.1431449    1.5144747   440171 
 3266000    1.0137122   -3.1436423   -1.6268844  0.073471733   -3.1436423     1.516758   440163 
 3267000    1.0127787   -3.1432265   -1.6279583  0.073377486   -3.1432265    1.5152682   440190 
 3268000    1.0126645   -3.1430423   -1.6279244  0.076186595   -3.1430423     1.515118   440184 
 3269000    1.0139644   -3.1455463   -1.6284455  0.071509649   -3.1455463    1.5171008   440173 
 3270000    1.0151748   -3.1472903   -1.6284062  0.069857567   -3.1472903    1.5188842   440181 
 3271000    1.0145146   -3.1467774   -1.6289154  0.073121282   -3.1467774     1.517862   440191 
 3272000    1.0143822   -3.1464289   -1.6288029  0.071552948   -3.1464289     1.517626   440202 
 3273000    1.0149862   -3.1481229   -1.6294657  0.070212482   -3.1481229    1.5186572   440165 
 3274000    1.0146181   -3.1482292   -1.6302262  0.072417664   -3.1482292     1.518003   440195 
 3275000    1.0163484   -3.1513705   -1.6307649  0.069611651   -3.1513705    1.5206056   440191 
 3276000    1.0165181   -3.1514615   -1.6306884  0.073317626   -3.1514615    1.5207731   440216 
 3277000    1.0151294   -3.1498304   -1.6312073  0.076489324   -3.1498304    1.5186231   440237 
 3278000    1.0168591   -3.1525797   -1.6313275     0.074582   -3.1525797    1.5212522   440225 
 3279000    1.0145828   -3.1502592   -1.6323539  0.077248354   -3.1502592    1.5179053   440208 
 3280000    1.0158269   -3.1518104   -1.6320162  0.081127139   -3.1518104    1.5197942   440200 
 3281000    1.0142194   -3.1505085   -1.6331433   0.07227153   -3.1505085    1.5173652   440207 
 3282000    1.0150905   -3.1528675   -1.6342543   0.07166738   -3.1528675    1.5186132   440223 
 3283000    1.0172622   -3.1537676   -1.6319642  0.073979842   -3.1537676    1.5218034   440240 
 3284000    1.0153591   -3.1524996   -1.6335157  0.075695385   -3.1524996    1.5189839   440232 
 3285000    1.0152072    -3.152322   -1.6335894  0.073036458    -3.152322    1.5187326   440239 
 3286000    1.0150824    -3.151933   -1.6334216  0.075961214    -3.151933    1.5185113   440249 
 3287000    1.0148053    -3.152653   -1.6346044  0.071252247    -3.152653    1.5180486   440263 
 3288000     1.015214   -3.1534492   -1.6346926  0.070217153   -3.1534492    1.5187566   440235 
 3289000    1.0154736   -3.1521056   -1.6329918   0.07019413   -3.1521056    1.5191139   440244 
 3290000    1.0151538   -3.1513961    -1.632833  0.070933292   -3.1513961    1.5185631   440265 
 3291000     1.014673   -3.1517879   -1.6340166  0.069583945   -3.1517879    1.5177713   440286 
 3292000    1.0131908   -3.1503517    -1.634639  0.069783688   -3.1503517    1.5157126   440240 
 3293000    1.0148582   -3.1525233    -1.634368  0.074757554   -3.1525233    1.5181552   440255 
 3294000     1.012816   -3.1503525   -1.6353004   0.07223229   -3.1503525    1.5150521   440269 
 3295000     1.014578   -3.1507784   -1.6331216  0.067925237   -3.1507784    1.5176568   440278 
 3296000     1.013375   -3.1510877   -1.6351477  0.073263095   -3.1510877      1.51594   440254 
 3297000    1.0129914   -3.1499153   -1.6345595  0.070344532   -3.1499153    1.5153559   440257 
 3298000    1.0122032   -3.1478823    -1.633709   0.07522733   -3.1478823    1.5141733   440258 
 3299000    1.0145095   -3.1500837   -1.6325984  0.067686455   -3.1500837    1.5174854   440298 
 3300000    1.0136352   -3.1489375    -1.632746  0.073749988   -3.1489375    1.5161915   440294 
 3301000    1.0129841   -3.1459174   -1.6308271   0.07414927   -3.1459174    1.5150902   440331 
 3302000    1.0151926    -3.149967   -1.6316357  0.074452773    -3.149967    1.5183313   440349 
 3303000    1.0141543   -3.1494421   -1.6326464  0.074771242   -3.1494421    1.5167957   440344 
 3304000    1.0144079   -3.1495809   -1.6325094  0.073893297   -3.1495809    1.5170716   440374 
 3305000    1.0147753   -3.1499521   -1.6324551  0.075632957   -3.1499521     1.517497   440410 
 3306000    1.0136114   -3.1465556   -1.6308817  0.077983925   -3.1465556    1.5156739   440434 
 3307000    1.0149282   -3.1482076   -1.6305991  0.071379965   -3.1482076    1.5176085   440444 
 3308000    1.0145977   -3.1474689   -1.6302202  0.076104218   -3.1474689    1.5172487   440405 
 3309000    1.0163327   -3.1501804   -1.6302786  0.075146505   -3.1501804    1.5199018   440388 
 3310000     1.015745   -3.1496735   -1.6306677  0.068456034   -3.1496735    1.5190057   440393 
 3311000     1.015421   -3.1488107   -1.6303068    0.0690097   -3.1488107     1.518504   440398 
 3312000    1.0163896   -3.1493004   -1.6294169  0.071972203   -3.1493004    1.5198834   440418 
 3313000    1.0165354   -3.1496121   -1.6295349  0.077275021   -3.1496121    1.5200773   440425 
 3314000    1.0156269   -3.1488905   -1.6303751  0.081255046   -3.1488905    1.5185154   440484 
 3315000    1.0147283   -3.1489289    -1.631788   0.07703275   -3.1489289    1.5171408   440493 
 3316000    1.0162599   -3.1506208   -1.6312694  0.074696053   -3.1506208    1.5193514   440516 
 3317000    1.0164267   -3.1517477   -1.6321262  0.071662406   -3.1517477    1.5196215   440510 
 3318000    1.0148986   -3.1494469     -1.63211  0.074922302   -3.1494469    1.5173369   440510 
 3319000    1.0149525   -3.1487969   -1.6313313  0.074858428   -3.1487969    1.5174656   440496 
 3320000    1.0154664   -3.1503229   -1.6320096  0.070275396   -3.1503229    1.5183133   440473 
 3321000    1.0139653   -3.1498195    -1.633723  0.073987828   -3.1498195    1.5160964   440465 
 3322000    1.0160233   -3.1502784   -1.6311186  0.068729955   -3.1502784    1.5191598   440469 
 3323000    1.0152787   -3.1475946   -1.6293654  0.075102684   -3.1475946    1.5182291   440416 
 3324000    1.0155298    -3.148637    -1.630122  0.073967827    -3.148637     1.518515   440442 
 3325000    1.0146006   -3.1484432    -1.631452  0.070241041   -3.1484432    1.5169912   440481 
 3326000    1.0176487    -3.151538   -1.6299962  0.072487775    -3.151538    1.5215418   440483 
 3327000    1.0155948   -3.1490152   -1.6306443   0.07074259   -3.1490152    1.5183709   440512 
 3328000    1.0158653   -3.1502674   -1.6315232  0.068997614   -3.1502674    1.5187442   440521 
 3329000    1.0169946   -3.1503545   -1.6299529  0.066693061   -3.1503545    1.5204015   440530 
 3330000    1.0180964   -3.1496554   -1.6276275  0.067474888   -3.1496554    1.5220279   440536 
 3331000    1.0177039   -3.1484477   -1.6270134  0.076300778   -3.1484477    1.5214343   440538 
 3332000    1.0163043   -3.1464753   -1.6271611  0.080382078   -3.1464753    1.5193143   440546 
 3333000    1.0174631   -3.1475945   -1.6266376  0.078781426   -3.1475945    1.5209569   440572 
 3334000    1.0174083   -3.1482002   -1.6274322  0.072837922   -3.1482002     1.520768   440603 
 3335000    1.0183275   -3.1505019   -1.6283115   0.07545348   -3.1505019    1.5221904   440589 
 3336000    1.0172445   -3.1488573   -1.6283513  0.075835405   -3.1488573    1.5205059   440608 
 3337000    1.0173131   -3.1491709   -1.6284382  0.070739229   -3.1491709    1.5207327   440572 
 3338000    1.0160748   -3.1485569   -1.6296338  0.067160865   -3.1485569     1.518923   440560 
 3339000    1.0155869   -3.1478295    -1.629653  0.075156976   -3.1478295    1.5181764   440565 
 3340000    1.0151404   -3.1463024   -1.6286867  0.078504767   -3.1463024    1.5176157   440534 
 3341000    1.0160673   -3.1483806    -1.629562  0.072269864   -3.1483806    1.5188186   440587 
 3342000    1.0148734   -3.1451367   -1.6280992  0.074792876   -3.1451367    1.5170375   440586 
 3343000    1.0164103   -3.1489352   -1.6294796  0.070727899   -3.1489352    1.5194556   440551 
 3344000    1.0153799   -3.1499353   -1.6319719  0.066918674   -3.1499353    1.5179634   440537 
 3345000    1.0150538   -3.1489563   -1.6315391  0.072595296   -3.1489563    1.5174173   440554 
 3346000    1.0167295   -3.1507307   -1.6307186   0.07554668   -3.1507307    1.5200121   440528 
 3347000    1.0156174   -3.1483379   -1.6300781  0.073725588   -3.1483379    1.5182599   440554 
 3348000    1.0154444   -3.1476098   -1.6297705   0.07765958   -3.1476098    1.5178393   440601 
 3349000    1.0162845   -3.1494849   -1.6304311  0.075940689   -3.1494849    1.5190537   440613 
 3350000    1.0170497    -3.151005   -1.6308661  0.077488707    -3.151005    1.5201389   440630 
 3351000    1.0166106   -3.1513326   -1.6319122  0.076501413   -3.1513326    1.5194204   440648 
 3352000    1.0159963   -3.1512213   -1.6326363  0.074546639   -3.1512213    1.5185851   440624 
 3353000    1.0176996   -3.1536431   -1.6326158  0.073208248   -3.1536431    1.5210273   440654 
 3354000    1.0166547    -3.151944   -1.6323715   0.07349585    -3.151944    1.5195725   440623 
 3355000    1.0184647   -3.1534988   -1.6313798  0.072885761   -3.1534988     1.522119   440669 
 3356000    1.0168948   -3.1508643    -1.631195  0.079881916   -3.1508643    1.5196693   440699 
 3357000    1.0164267   -3.1516503   -1.6325426  0.078378599   -3.1516503    1.5191077   440659 
 3358000    1.0167597   -3.1531351   -1.6334434  0.072485967   -3.1531351    1.5196916   440634 
 3359000    1.0175942   -3.1546968    -1.633827  0.072724349   -3.1546968    1.5208699   440654 
 3360000    1.0164121   -3.1526745   -1.6336369  0.073802328   -3.1526745    1.5190376   440673 
 3361000    1.0170524   -3.1549412   -1.6349743  0.075065141   -3.1549412    1.5199669   440681 
 3362000    1.0172489   -3.1546243   -1.6342981  0.071316501   -3.1546243    1.5203261   440662 
 3363000     1.018329   -3.1559807   -1.6339712  0.082256966   -3.1559807    1.5220095   440642 
 3364000    1.0177725   -3.1556055   -1.6344658  0.073646561   -3.1556055    1.5211397   440653 
 3365000    1.0170687   -3.1541528   -1.6340857  0.068593719   -3.1541528    1.5200672   440659 
 3366000    1.0158933   -3.1525569   -1.6342982   0.07439363   -3.1525569    1.5182587   440674 
 3367000    1.0159395   -3.1538862   -1.6356858   0.07218761   -3.1538862    1.5182004   440711 
 3368000    1.0159692   -3.1540775   -1.6359016  0.076923744   -3.1540775    1.5181759   440731 
 3369000    1.0174663   -3.1548333   -1.6345204  0.078192525   -3.1548333    1.5203129   440760 
 3370000    1.0149601   -3.1516273   -1.6350591  0.076266991   -3.1516273    1.5165682   440760 
 3371000    1.0144887   -3.1506025   -1.6347525  0.073972285   -3.1506025      1.51585   440764 
 3372000     1.015081   -3.1510312   -1.6342203   0.07568972   -3.1510312    1.5168108   440742 
 3373000    1.0165899    -3.153153   -1.6342013  0.068822431    -3.153153    1.5189517   440775 
 3374000    1.0177061   -3.1544643   -1.6339104  0.072585621   -3.1544643    1.5205539   440794 
 3375000    1.0164981   -3.1523731   -1.6336377   0.07159051   -3.1523731    1.5187354   440798 
 3376000    1.0170044   -3.1548409   -1.6352629  0.072230365   -3.1548409     1.519578   440773 
 3377000     1.016455   -3.1539913   -1.6352239  0.073859022   -3.1539913    1.5187674   440770 
 3378000    1.0163354   -3.1547027   -1.6360934  0.073889012   -3.1547027    1.5186093   440764 
 3379000    1.0169178   -3.1540717   -1.6346335  0.073819215   -3.1540717    1.5194382   440776 
 3380000    1.0170369   -3.1540445   -1.6345559  0.076253921   -3.1540445    1.5194886   440813 
 3381000    1.0188731   -3.1566151   -1.6342416  0.076577704   -3.1566151    1.5223736   440772 
 3382000    1.0164354    -3.153311   -1.6346038   0.07608438    -3.153311    1.5187072   440779 
 3383000     1.016868   -3.1530387   -1.6336335  0.078371681   -3.1530387    1.5194052   440764 
 3384000    1.0151893   -3.1508087   -1.6340633   0.07439968   -3.1508087    1.5167455   440808 
 3385000    1.0160064   -3.1530664    -1.635045  0.069918948   -3.1530664    1.5180214   440792 
 3386000    1.0159155   -3.1541294    -1.636237  0.071855914   -3.1541294    1.5178923   440790 
 3387000    1.0145725   -3.1522611   -1.6364268  0.075013883   -3.1522611    1.5158343   440805 
 3388000    1.0160439   -3.1527074   -1.6346541  0.078307848   -3.1527074    1.5180533   440799 
 3389000    1.0174594   -3.1532393   -1.6329849  0.071216354   -3.1532393    1.5202544   440774 
 3390000    1.0156326   -3.1514071   -1.6339168  0.074927325   -3.1514071    1.5174903   440784 
 3391000    1.0169393   -3.1532502   -1.6337902   0.07548329   -3.1532502    1.5194599   440779 
 3392000     1.017131   -3.1525006   -1.6327575   0.07531996   -3.1525006     1.519743   440780 
 3393000    1.0183349   -3.1532098   -1.6318095  0.072784194   -3.1532098    1.5214003   440821 
 3394000    1.0178793   -3.1525976   -1.6319125  0.073756326   -3.1525976    1.5206851   440831 
 3395000     1.016128   -3.1511397    -1.633102  0.079609285   -3.1511397    1.5180377   440840 
 3396000    1.0184248   -3.1548698   -1.6333732  0.075287317   -3.1548698    1.5214966   440832 
 3397000    1.0179901   -3.1536758   -1.6329838   0.07514741   -3.1536758     1.520692   440877 
 3398000    1.0180491   -3.1553811    -1.634532  0.079392153   -3.1553811    1.5208491   440857 
 3399000    1.0167036   -3.1546113   -1.6357792  0.075105067   -3.1546113    1.5188321   440859 
 3400000    1.0157182   -3.1526972   -1.6353406  0.073017931   -3.1526972    1.5173566   440860 
 3401000    1.0156798   -3.1522638   -1.6350264  0.068894871   -3.1522638    1.5172373   440878 
 3402000    1.0150141   -3.1534158   -1.6371419  0.067879123   -3.1534158    1.5162739   440869 
 3403000    1.0142037   -3.1529125   -1.6379765  0.068602361   -3.1529125     1.514936   440906 
 3404000    1.0133613   -3.1521355   -1.6386329  0.069116153   -3.1521355    1.5135027   440957 
 3405000    1.0147176   -3.1530723   -1.6375405  0.070168329   -3.1530723    1.5155318   440956 
 3406000    1.0146015    -3.151348   -1.6359965  0.074023734    -3.151348    1.5153515   440958 
 3407000    1.0164876   -3.1543079   -1.6362323  0.075436593   -3.1543079    1.5180756   440985 
 3408000    1.0144855   -3.1502971   -1.6351085  0.077268135   -3.1502971    1.5151886   440955 
 3409000    1.0157202   -3.1528751   -1.6357736   0.07306782   -3.1528751    1.5171016   440935 
 3410000    1.0173105   -3.1539915   -1.6343872  0.074280586   -3.1539915    1.5196043   440898 
 3411000    1.0168383   -3.1531104   -1.6342631  0.072204234   -3.1531104    1.5188474   440913 
 3412000    1.0167928   -3.1539925   -1.6351098  0.075392934   -3.1539925    1.5188827   440883 
 3413000    1.0176273   -3.1543555   -1.6343123  0.075766992   -3.1543555    1.5200431   440908 
 3414000    1.0174207   -3.1538581   -1.6341891  0.078560771   -3.1538581     1.519669   440927 
 3415000    1.0186929   -3.1551052   -1.6335773  0.073481691   -3.1551052    1.5215279   440939 
 3416000    1.0178445   -3.1537976   -1.6336369  0.073397638   -3.1537976    1.5201607   440968 
 3417000      1.01815   -3.1540702   -1.6334464  0.071828427   -3.1540702    1.5206238   440966 
 3418000    1.0162697   -3.1523642   -1.6345073  0.074924669   -3.1523642    1.5178569   440954 
 3419000    1.0189753   -3.1557115   -1.6338378  0.069200136   -3.1557115    1.5218737   440961 
 3420000    1.0155629   -3.1542893   -1.6374157  0.067547212   -3.1542893    1.5168735   440933 
 3421000    1.0164531    -3.154874   -1.6367397  0.071712523    -3.154874    1.5181343   440953 
 3422000    1.0146458   -3.1524125    -1.637036  0.076649167   -3.1524125    1.5153765   440970 
 3423000    1.0147248   -3.1528634   -1.6373896   0.07213147   -3.1528634    1.5154738   440976 
 3424000    1.0162526   -3.1540761   -1.6363686  0.070441741   -3.1540761    1.5177075   440990 
 3425000    1.0150777   -3.1529069   -1.6369093  0.072062453   -3.1529069    1.5159975   440977 
 3426000    1.0168196   -3.1554259   -1.6369371    0.0690318   -3.1554259    1.5184888   441009 
 3427000    1.0166146    -3.153828   -1.6356832  0.069499944    -3.153828    1.5181448   441020 
 3428000    1.0167505   -3.1538587   -1.6354834  0.073600356   -3.1538587    1.5183753   441012 
 3429000    1.0158096   -3.1530779   -1.6361456  0.074529532   -3.1530779    1.5169323   441023 
 3430000    1.0163775   -3.1535548   -1.6357778  0.071507835   -3.1535548     1.517777   441024 
 3431000      1.01524   -3.1534824    -1.637387  0.073536871   -3.1534824    1.5160955   441019 
 3432000    1.0156019   -3.1536996    -1.637019  0.076599216   -3.1536996    1.5166806   441006 
 3433000    1.0156072   -3.1531246   -1.6364292  0.065481532   -3.1531246    1.5166953   441004 
 3434000    1.0152352   -3.1529489   -1.6367335  0.074890976   -3.1529489    1.5162155   440982 
 3435000    1.0162988   -3.1542768   -1.6363454  0.074888077   -3.1542768    1.5179314   440945 
 3436000    1.0146005   -3.1526942   -1.6373201  0.068695388   -3.1526942    1.5153742   440951 
 3437000    1.0136223     -3.15207   -1.6382289  0.073850311     -3.15207     1.513841   440972 
 3438000    1.0153085   -3.1552998   -1.6388407  0.071884996   -3.1552998    1.5164591   440943 
 3439000    1.0146691   -3.1549696   -1.6394724  0.072883424   -3.1549696    1.5154972   440945 
 3440000    1.0148527   -3.1546033   -1.6388354  0.071751944   -3.1546033     1.515768   440946 
 3441000    1.0140489   -3.1530623   -1.6384192   0.07588807   -3.1530623    1.5146431   440924 
 3442000    1.0146282   -3.1543519   -1.6389466  0.076613192   -3.1543519    1.5154052   440954 
 3443000    1.0167229   -3.1564977    -1.638026  0.074183809   -3.1564977    1.5184718   440972 
 3444000    1.0170318   -3.1575342   -1.6385426  0.071527598   -3.1575342    1.5189916   440955 
 3445000    1.0166318   -3.1583239   -1.6397952  0.067379036   -3.1583239    1.5185286   440916 
 3446000    1.0156181    -3.157339   -1.6403005  0.076709017    -3.157339    1.5170385   440909 
 3447000    1.0161652   -3.1596115   -1.6416732  0.069890854   -3.1596115    1.5179383   440885 
 3448000    1.0155304   -3.1579305   -1.6411158  0.070697697   -3.1579305    1.5168146   440936 
 3449000     1.016564   -3.1589383   -1.6406177  0.073880364   -3.1589383    1.5183206   440947 
 3450000    1.0167996   -3.1612767   -1.6427076  0.079344761   -3.1612767    1.5185691   440977 
 3451000    1.0159223   -3.1598721   -1.6425616  0.075014444   -3.1598721    1.5173105   440962 
 3452000    1.0164248   -3.1605407   -1.6424969  0.068919557   -3.1605407    1.5180438   440967 
 3453000    1.0171096   -3.1610168     -1.64194  0.072373942   -3.1610168    1.5190768   440964 
 3454000     1.015545   -3.1603871   -1.6436916   0.07364865   -3.1603871    1.5166955   440977 
 3455000    1.0173083   -3.1627967   -1.6434059  0.079208077   -3.1627967    1.5193908   440959 
 3456000    1.0173766   -3.1627473   -1.6433406  0.074886792   -3.1627473    1.5194067   440984 
 3457000    1.0148626   -3.1596025   -1.6439675  0.072534508   -3.1596025     1.515635   440989 
 3458000    1.0178774   -3.1637436   -1.6436579   0.07299895   -3.1637436    1.5200857   441004 
 3459000     1.017708   -3.1624937   -1.6427713   0.07349795   -3.1624937    1.5197224   441036 
 3460000    1.0172486   -3.1611193   -1.6422791  0.073289953   -3.1611193    1.5188401   441093 
 3461000    1.0155207   -3.1590008   -1.6426959  0.076429452   -3.1590008    1.5163049   441080 
 3462000    1.0164481   -3.1591588   -1.6415035  0.075514103   -3.1591588    1.5176553   441090 
 3463000    1.0151573   -3.1575399   -1.6418772  0.072673319   -3.1575399    1.5156627   441109 
 3464000    1.0145282   -3.1557804   -1.6411085  0.074493263   -3.1557804    1.5146719   441124 
 3465000    1.0164483   -3.1593144   -1.6418516  0.070426569   -3.1593144    1.5174629   441146 
 3466000    1.0155801   -3.1591385   -1.6428583   0.06659406   -3.1591385    1.5162802   441113 
 3467000    1.0140441   -3.1581123   -1.6441255  0.075504506   -3.1581123    1.5139868   441113 
 3468000    1.0135753   -3.1561619   -1.6429092  0.071470117   -3.1561619    1.5132527   441123 
 3469000     1.014627   -3.1585114   -1.6436988  0.072069261   -3.1585114    1.5148125   441126 
 3470000    1.0150947     -3.15878   -1.6432795   0.07312044     -3.15878    1.5155006   441129 
 3471000    1.0140568   -3.1564152   -1.6424641  0.071562391   -3.1564152     1.513951   441129 
 3472000    1.0134623   -3.1566914   -1.6437035   0.07137803   -3.1566914    1.5129879   441151 
 3473000    1.0121207   -3.1560674   -1.6451235  0.071849919   -3.1560674     1.510944   441163 
 3474000    1.0144056   -3.1591154    -1.644733  0.069167009   -3.1591154    1.5143824   441155 
 3475000    1.0144138   -3.1583758   -1.6439364  0.071484362   -3.1583758    1.5144394   441142 
 3476000    1.0144479   -3.1562204   -1.6417026  0.079134984   -3.1562204    1.5145177   441134 
 3477000    1.0154864   -3.1589048   -1.6427852  0.072006583   -3.1589048    1.5161196   441119 
 3478000    1.0163093   -3.1590562   -1.6416563  0.068575428   -3.1590562    1.5173999   441104 
 3479000     1.017134   -3.1611742   -1.6424569  0.065941146   -3.1611742    1.5187172   441079 
 3480000    1.0162663   -3.1600346   -1.6425958  0.069268021   -3.1600346    1.5174388   441074 
 3481000    1.0167231   -3.1597186   -1.6416906  0.069294593   -3.1597186     1.518028   441101 
 3482000    1.0155163   -3.1591753    -1.642901  0.073517195   -3.1591753    1.5162743   441087 
 3483000    1.0160911   -3.1585884   -1.6414903  0.078298614   -3.1585884    1.5170981   441097 
 3484000     1.017474   -3.1607432   -1.6415218  0.071644479   -3.1607432    1.5192214   441080 
 3485000    1.0185166   -3.1627782    -1.642031  0.073724667   -3.1627782    1.5207472   441089 
 3486000    1.0181302   -3.1620392   -1.6417725  0.073649311   -3.1620392    1.5202667   441061 
 3487000     1.018935   -3.1626226   -1.6411403   0.07410549   -3.1626226    1.5214823   441057 
 3488000    1.0183982   -3.1617119   -1.6410346  0.073377722   -3.1617119    1.5206773   441058 
 3489000    1.0165948   -3.1600142   -1.6419094  0.078684139   -3.1600142    1.5181048   441023 
 3490000    1.0155575    -3.159184   -1.6425559  0.069177294    -3.159184    1.5166281   441002 
 3491000     1.016668   -3.1599923   -1.6417643  0.071122839   -3.1599923     1.518228   441019 
 3492000    1.0155585   -3.1598315   -1.6432844  0.071861026   -3.1598315    1.5165471   441026 
 3493000    1.0174515   -3.1634703   -1.6439896  0.067364741   -3.1634703    1.5194806   440995 
 3494000    1.0144805   -3.1599964   -1.6449252   0.07501182   -3.1599964    1.5150712   440987 
 3495000    1.0164844   -3.1611757     -1.64316  0.073318214   -3.1611757    1.5180157   441001 
 3496000    1.0161328   -3.1600498   -1.6424938  0.068677147   -3.1600498    1.5175561   440982 
 3497000    1.0145393   -3.1576488   -1.6425893  0.068673758   -3.1576488    1.5150595   441016 
 3498000    1.0149098   -3.1580904   -1.6424743  0.074953104   -3.1580904    1.5156161   441015 
 3499000    1.0144906   -3.1581432   -1.6430706  0.071982648   -3.1581432    1.5150726   440991 
 3500000    1.0141726   -3.1568663   -1.6422343  0.077456843   -3.1568663     1.514632   440981 
 3501000    1.0163301   -3.1607212   -1.6428119  0.065574193   -3.1607212    1.5179093   440965 
 3502000    1.0132377   -3.1562653   -1.6430569  0.075524591   -3.1562653    1.5132084   440989 
 3503000    1.0151348   -3.1583565   -1.6422463  0.066185469   -3.1583565    1.5161102   440969 
 3504000    1.0139047   -3.1556543   -1.6414773  0.069533917   -3.1556543     1.514177   440997 
 3505000     1.014918    -3.157265   -1.6415644  0.070378124    -3.157265    1.5157006   440994 
 3506000    1.0157152   -3.1589229   -1.6420593  0.070439829   -3.1589229    1.5168636   441002 
 3507000    1.0151102   -3.1579799   -1.6421057  0.071900345   -3.1579799    1.5158742   441027 
 3508000    1.0150098   -3.1584659   -1.6428036  0.071654872   -3.1584659    1.5156623   441045 
 3509000    1.0160879   -3.1581989   -1.6408544  0.068434205   -3.1581989    1.5173445   441024 
 3510000    1.0149002    -3.158171   -1.6425727  0.078490891    -3.158171    1.5155984   441016 
 3511000    1.0158315    -3.158454   -1.6415166  0.069626314    -3.158454    1.5169375   441031 
 3512000    1.0142049   -3.1562173   -1.6417225  0.077603036   -3.1562173    1.5144948   441035 
 3513000    1.0165722   -3.1590913   -1.6409857  0.070614538   -3.1590913    1.5181055   441013 
 3514000    1.0167221   -3.1594776   -1.6411104  0.074522866   -3.1594776    1.5183672   441002 
 3515000    1.0157756   -3.1604267    -1.643387  0.070409813   -3.1604267    1.5170397   440977 
 3516000     1.015946   -3.1609795   -1.6436991  0.067418161   -3.1609795    1.5172804   440981 
 3517000    1.0150697   -3.1599708   -1.6439784  0.071963244   -3.1599708    1.5159924   440975 
 3518000     1.014474   -3.1590107   -1.6438701  0.075320459   -3.1590107    1.5151406   440964 
 3519000     1.015853   -3.1610433   -1.6438019  0.070522139   -3.1610433    1.5172414   440952 
 3520000    1.0148769   -3.1598442   -1.6441535  0.076179715   -3.1598442    1.5156907   440979 
 3521000    1.0147756    -3.160429   -1.6450442  0.068414991    -3.160429    1.5153848   441024 
 3522000    1.0156804   -3.1622076   -1.6454992  0.065462942   -3.1622076    1.5167084   441032 
 3523000    1.0151961   -3.1607326   -1.6446958  0.074919585   -3.1607326    1.5160368   441017 
 3524000    1.0146411   -3.1603592   -1.6451065  0.071911314   -3.1603592    1.5152527   441004 
 3525000    1.0146803   -3.1605246   -1.6451722  0.070730125   -3.1605246    1.5153524   440992 
 3526000    1.0166405   -3.1618599   -1.6436455  0.066187527   -3.1618599    1.5182145   441011 
 3527000    1.0153829   -3.1600273   -1.6435534   0.07555477   -3.1600273     1.516474   440971 
 3528000    1.0157263   -3.1605226     -1.64367  0.068449273   -3.1605226    1.5168526   441010 
 3529000    1.0150252    -3.158694   -1.6429675  0.071006503    -3.158694    1.5157265   441033 
 3530000    1.0173185   -3.1626973   -1.6435255  0.074173435   -3.1626973    1.5191719   441027 
 3531000    1.0173062   -3.1619013   -1.6426859  0.073943453   -3.1619013    1.5192155   441009 
 3532000    1.0163276   -3.1624254   -1.6446197  0.072293415   -3.1624254    1.5178057   440994 
 3533000     1.015323   -3.1614463   -1.6451754  0.077820604   -3.1614463    1.5162709   441004 
 3534000    1.0152682   -3.1623478   -1.6460693  0.072762027   -3.1623478    1.5162785   440978 
 3535000    1.0143826   -3.1604022   -1.6454428  0.073677673   -3.1604022    1.5149594   440977 
 3536000    1.0148726   -3.1624989   -1.6467632  0.070791405   -3.1624989    1.5157358   440964 
 3537000    1.0160258   -3.1629387   -1.6455494  0.072104866   -3.1629387    1.5173893   440984 
 3538000    1.0148895   -3.1619941   -1.6462983  0.073977719   -3.1619941    1.5156958   440983 
 3539000    1.0151407   -3.1627406   -1.6466594  0.071813597   -3.1627406    1.5160812   440980 
 3540000    1.0136347   -3.1604702    -1.646724  0.074583087   -3.1604702    1.5137462   441005 
 3541000    1.0151591   -3.1614117   -1.6454921  0.069065825   -3.1614117    1.5159196   441035 
 3542000    1.0141774   -3.1592407   -1.6448316  0.070740953   -3.1592407    1.5144091   441048 
 3543000    1.0161743   -3.1622322   -1.6447484  0.070059541   -3.1622322    1.5174838   441021 
 3544000    1.0150369   -3.1618195   -1.6461717  0.069249234   -3.1618195    1.5156478   441061 
 3545000    1.0127234   -3.1589369    -1.646675  0.076878626   -3.1589369    1.5122619   441041 
 3546000    1.0136303   -3.1590953   -1.6455307  0.071957729   -3.1590953    1.5135646   441056 
 3547000    1.0155785   -3.1619588   -1.6454953  0.069096965   -3.1619588    1.5164635   441059 
 3548000    1.0146507    -3.160861   -1.6458002  0.076004884    -3.160861    1.5150608   441064 
 3549000    1.0139973   -3.1604723    -1.646418  0.073975153   -3.1604723    1.5140543   441073 
 3550000    1.0137885   -3.1606857   -1.6470426   0.06983717   -3.1606857     1.513643   441102 
 3551000    1.0158483   -3.1627163   -1.6460288  0.070236289   -3.1627163    1.5166875   441111 
 3552000    1.0154528   -3.1623918   -1.6464391  0.071532394   -3.1623918    1.5159527   441153 
 3553000    1.0156745   -3.1630152   -1.6467625  0.072997496   -3.1630152    1.5162527   441162 
 3554000    1.0149219   -3.1625191   -1.6475204  0.069829144   -3.1625191    1.5149987   441200 
 3555000    1.0163899   -3.1623239    -1.645103  0.074628454   -3.1623239    1.5172209   441191 
 3556000    1.0166593   -3.1625598   -1.6448335  0.079177889   -3.1625598    1.5177263   441161 
 3557000    1.0170558   -3.1644542   -1.6460431   0.07828693   -3.1644542    1.5184111   441134 
 3558000    1.0161845   -3.1627109   -1.6457313   0.07219288   -3.1627109    1.5169796   441172 
 3559000    1.0163784   -3.1647611   -1.6474163  0.074132462   -3.1647611    1.5173448   441150 
 3560000    1.0149192   -3.1615288   -1.6464105  0.076481491   -3.1615288    1.5151183   441164 
 3561000     1.017233   -3.1655212    -1.646873  0.072392528   -3.1655212    1.5186482   441142 
 3562000    1.0165221   -3.1646781   -1.6470877   0.07178336   -3.1646781    1.5175903   441141 
 3563000    1.0151234   -3.1625576   -1.6471172  0.078653921   -3.1625576    1.5154403   441159 
 3564000    1.0168599   -3.1640847   -1.6462345  0.070645794   -3.1640847    1.5178503   441212 
 3565000      1.01622    -3.163605    -1.646813  0.072944039    -3.163605     1.516792   441242 
 3566000    1.0156756   -3.1635206   -1.6475618  0.068799357   -3.1635206    1.5159589   441248 
 3567000    1.0151836   -3.1624796   -1.6472929  0.073202976   -3.1624796    1.5151867   441259 
 3568000    1.0147715   -3.1629357   -1.6484053  0.069884513   -3.1629357    1.5145304   441271 
 3569000    1.0136182   -3.1617599   -1.6489268  0.070115519   -3.1617599    1.5128332   441264 
 3570000    1.0140663   -3.1641752   -1.6506939  0.068835208   -3.1641752    1.5134813   441270 
 3571000    1.0145959   -3.1632654   -1.6490485   0.06552942   -3.1632654    1.5142169   441286 
 3572000    1.0142621   -3.1635393   -1.6498617  0.068444608   -3.1635393    1.5136776   441298 
 3573000    1.0143898   -3.1634188   -1.6495438  0.068211909   -3.1634188     1.513875   441296 
 3574000    1.0146935   -3.1634262   -1.6490912  0.068533438   -3.1634262     1.514335   441294 
 3575000     1.012452   -3.1604441   -1.6494679  0.069091395   -3.1604441    1.5109761   441298 
 3576000    1.0139312   -3.1628412   -1.6496232  0.066035877   -3.1628412     1.513218   441288 
 3577000    1.0144924   -3.1641503   -1.6500913  0.070875721   -3.1641503     1.514059   441287 
 3578000    1.0141492   -3.1629532    -1.649427  0.071136703   -3.1629532    1.5135262   441293 
 3579000    1.0135123   -3.1627197   -1.6500137  0.071588252   -3.1627197     1.512706   441255 
 3580000    1.0146411    -3.162867   -1.6484763   0.07571383    -3.162867    1.5143907   441255 
 3581000    1.0165144   -3.1652257   -1.6481008  0.069015276   -3.1652257    1.5171249   441273 
 3582000    1.0163067    -3.164887   -1.6481408  0.071827524    -3.164887    1.5167461   441293 
 3583000    1.0185049   -3.1664759    -1.646494  0.072331407   -3.1664759     1.519982   441306 
 3584000    1.0170537    -3.164642   -1.6468223  0.072969618    -3.164642    1.5178196   441305 
 3585000     1.016984   -3.1646599   -1.6469237  0.075895877   -3.1646599    1.5177362   441299 
 3586000    1.0169029   -3.1659643   -1.6484111  0.075770607   -3.1659643    1.5175533   441317 
 3587000    1.0149444   -3.1648117   -1.6500815  0.069663667   -3.1648117    1.5147302   441288 
 3588000    1.0160614   -3.1651572   -1.6488562  0.073489849   -3.1651572     1.516301   441316 
 3589000    1.0163879   -3.1653307   -1.6485803  0.073090289   -3.1653307    1.5167504   441327 
 3590000    1.0148668   -3.1617219    -1.647341  0.084791324   -3.1617219    1.5143809   441356 
 3591000    1.0168456   -3.1641602   -1.6467887  0.076890001   -3.1641602    1.5173715   441345 
 3592000    1.0165072   -3.1645198   -1.6478595   0.07460008   -3.1645198    1.5166603   441405 
 3593000     1.016115   -3.1638428   -1.6477848  0.073956988   -3.1638428     1.516058   441410 
 3594000     1.014883   -3.1629899   -1.6486706   0.07270768   -3.1629899    1.5143194   441381 
 3595000     1.015976   -3.1647382   -1.6488944  0.072751842   -3.1647382    1.5158438   441412 
 3596000    1.0159196    -3.163745   -1.6480128  0.069403273    -3.163745    1.5157322   441420 
 3597000    1.0150538   -3.1628508   -1.6484173  0.068551008   -3.1628508    1.5144335   441422 
 3598000    1.0168476   -3.1635218   -1.6465081  0.071158188   -3.1635218    1.5170136   441450 
 3599000     1.015283   -3.1616087   -1.6468984  0.072765282   -3.1616087    1.5147103   441441 
 3600000    1.0154069   -3.1621496   -1.6472441  0.072582681   -3.1621496    1.5149055   441438 
 3601000    1.0140972   -3.1616047   -1.6486327  0.072348278   -3.1616047     1.512972   441432 
 3602000    1.0137719   -3.1614814   -1.6491214   0.07305334   -3.1614814      1.51236   441469 
 3603000    1.0161384   -3.1635201   -1.6475336  0.070741919   -3.1635201    1.5159865   441441 
 3604000    1.0153337   -3.1621044    -1.647411  0.074790292   -3.1621044    1.5146933   441468 
 3605000     1.014582   -3.1614018   -1.6477613  0.072225573   -3.1614018    1.5136405   441448 
 3606000    1.0151752   -3.1630632   -1.6486304  0.071003901   -3.1630632    1.5144328   441475 
 3607000    1.0147644   -3.1621291   -1.6482714  0.070229634   -3.1621291    1.5138578   441464 
 3608000    1.0155685   -3.1628177   -1.6478564  0.072806712   -3.1628177    1.5149612   441492 
 3609000    1.0140891   -3.1601573   -1.6474612  0.072030645   -3.1601573    1.5126961   441509 
 3610000    1.0141907   -3.1606576   -1.6478717   0.06678569   -3.1606576    1.5127859   441527 
 3611000    1.0161273    -3.164774   -1.6492607  0.065423209    -3.164774    1.5155133   441574 
 3612000    1.0138704   -3.1614667   -1.6493846  0.070824644   -3.1614667    1.5120822   441593 
 3613000     1.015496   -3.1638602   -1.6494085  0.075458864   -3.1638602    1.5144518   441609 
 3614000    1.0151497   -3.1641965   -1.6502475  0.066961223   -3.1641965     1.513949   441605 
 3615000    1.0158275   -3.1643557   -1.6496496  0.069281463   -3.1643557    1.5147061   441679 
 3616000    1.0163407   -3.1640637   -1.6486062  0.067228654   -3.1640637    1.5154575   441683 
 3617000    1.0158103   -3.1632179   -1.6486026   0.06865457   -3.1632179    1.5146152   441698 
 3618000    1.0159192   -3.1632206   -1.6484635  0.070411717   -3.1632206    1.5147571   441704 
 3619000    1.0161909   -3.1643577   -1.6491545    0.0706796   -3.1643577    1.5152033   441692 
 3620000    1.0170094   -3.1654397   -1.6489439  0.075028046   -3.1654397    1.5164958   441671 
 3621000    1.0152963   -3.1642824   -1.6502794  0.071494835   -3.1642824     1.514003   441653 
 3622000    1.0163267   -3.1654021   -1.6499311  0.071553939   -3.1654021     1.515471   441673 
 3623000    1.0163877   -3.1656989   -1.6500203  0.072696084   -3.1656989    1.5156787   441639 
 3624000    1.0164858   -3.1669255    -1.651207  0.073068184   -3.1669255    1.5157186   441670 
 3625000    1.0165894   -3.1680512   -1.6522846  0.073669915   -3.1680512    1.5157666   441701 
 3626000    1.0166102   -3.1671754   -1.6513606  0.072725416   -3.1671754    1.5158147   441696 
 3627000    1.0156518   -3.1649729   -1.6505255  0.075756504   -3.1649729    1.5144474   441678 
 3628000    1.0171808   -3.1661729    -1.649401  0.072352095   -3.1661729    1.5167719   441665 
 3629000    1.0169496   -3.1654284   -1.6491693  0.078681759   -3.1654284    1.5162591   441714 
 3630000    1.0178578   -3.1668302   -1.6493477  0.074626643   -3.1668302    1.5174825   441752 
 3631000    1.0169054   -3.1650635    -1.649121  0.078762054   -3.1650635    1.5159425   441787 
 3632000    1.0178623   -3.1668034   -1.6495992  0.070238724   -3.1668034    1.5172042   441835 
 3633000    1.0162339   -3.1649394   -1.6502344  0.072106036   -3.1649394    1.5147049   441856 
 3634000    1.0175193   -3.1666821   -1.6501368  0.068500468   -3.1666821    1.5165453   441878 
 3635000    1.0173719   -3.1664601    -1.650227  0.069717527   -3.1664601    1.5162331   441905 
 3636000    1.0160227   -3.1647244   -1.6506255  0.075990057   -3.1647244    1.5140989   441941 
 3637000    1.0158844    -3.165379   -1.6514348  0.071141318    -3.165379    1.5139443   441926 
 3638000    1.0161983   -3.1654014   -1.6510066  0.070385313   -3.1654014    1.5143948   441931 
 3639000    1.0159732   -3.1642755   -1.6501613  0.070624202   -3.1642755    1.5141142   441915 
 3640000    1.0157601    -3.163611   -1.6499102  0.072424171    -3.163611    1.5137008   441943 
 3641000    1.0163833   -3.1641489   -1.6495297  0.070887359   -3.1641489    1.5146192   441946 
 3642000    1.0148368   -3.1609357   -1.6485562  0.077378628   -3.1609357    1.5123795   441927 
 3643000    1.0155298   -3.1630886   -1.6496455  0.075155179   -3.1630886    1.5134431   441918 
 3644000    1.0166357    -3.164522   -1.6495713  0.068732336    -3.164522    1.5149507   441959 
 3645000    1.0175565    -3.164587    -1.648271  0.068322097    -3.164587     1.516316   441961 
 3646000    1.0162074    -3.162424    -1.648108  0.072783685    -3.162424    1.5143159   441958 
 3647000    1.0165663   -3.1632549    -1.648627  0.071323529   -3.1632549    1.5146279   442023 
 3648000    1.0170183   -3.1618967   -1.6467427  0.072085869   -3.1618967     1.515154   442066 
 3649000    1.0184095   -3.1632117   -1.6460022  0.074357926   -3.1632117    1.5172095   442071 
 3650000    1.0169637   -3.1618187   -1.6467357  0.079637922   -3.1618187     1.515083   442063 
 3651000    1.0178648   -3.1620491   -1.6456785  0.071185908   -3.1620491    1.5163706   442079 
 3652000    1.0169647   -3.1618932    -1.646819  0.071208751   -3.1618932    1.5150742   442066 
 3653000    1.0170573   -3.1624279   -1.6472329  0.073088266   -3.1624279     1.515195   442071 
 3654000    1.0164011   -3.1612987   -1.6472012  0.072609336   -3.1612987    1.5140975   442106 
 3655000    1.0157402   -3.1602552   -1.6472483  0.072207243   -3.1602552    1.5130069   442137 
 3656000    1.0147896   -3.1579664   -1.6463343  0.067807642   -3.1579664     1.511632   442125 
 3657000    1.0169929   -3.1601206   -1.6453128  0.070818072   -3.1601206    1.5148077   442156 
 3658000    1.0158534   -3.1601428   -1.6471555  0.070365475   -3.1601428    1.5129873   442192 
 3659000    1.0170345   -3.1601671   -1.6454892  0.074744542   -3.1601671    1.5146779   442212 
 3660000    1.0181291   -3.1614378   -1.6452257  0.071744117   -3.1614378    1.5162121   442240 
 3661000    1.0197878   -3.1635763   -1.6449661  0.064280276   -3.1635763    1.5186101   442261 
 3662000     1.018841   -3.1616574   -1.6444503  0.071577912   -3.1616574    1.5172071   442259 
 3663000    1.0181442   -3.1617179   -1.6455896  0.074033359   -3.1617179    1.5161283   442271 
 3664000    1.0175739   -3.1610653   -1.6458855  0.076615613   -3.1610653    1.5151798   442300 
 3665000    1.0184181   -3.1616228   -1.6452169  0.076773173   -3.1616228    1.5164059   442309 
 3666000    1.0166347   -3.1591899   -1.6454908  0.073625534   -3.1591899    1.5136991   442324 
 3667000    1.0164091   -3.1591136   -1.6458325   0.06885555   -3.1591136    1.5132811   442348 
 3668000    1.0158352   -3.1584326    -1.645982  0.074768637   -3.1584326    1.5124506   442341 
 3669000    1.0154909   -3.1589666   -1.6470868  0.070599486   -3.1589666    1.5118798   442358 
 3670000    1.0162592   -3.1606413   -1.6475457   0.06921372   -3.1606413    1.5130955   442337 
 3671000    1.0163602   -3.1610162   -1.6477224  0.068986534   -3.1610162    1.5132938   442323 
 3672000    1.0163611   -3.1621347   -1.6489593  0.068719913   -3.1621347    1.5131754   442358 
 3673000    1.0179044   -3.1632719   -1.6478912  0.071404957   -3.1632719    1.5153807   442385 
 3674000    1.0172094    -3.162098   -1.6476357  0.073904126    -3.162098    1.5144623   442351 
 3675000    1.0187711   -3.1645969   -1.6477237  0.074092381   -3.1645969    1.5168732   442326 
 3676000    1.0195125   -3.1637751   -1.6458153  0.073930547   -3.1637751    1.5179599   442331 
 3677000    1.0200517   -3.1641746   -1.6455629  0.073286645   -3.1641746    1.5186117   442375 
 3678000    1.0181296   -3.1611468    -1.645376  0.076544566   -3.1611468    1.5157707   442369 
 3679000    1.0206889   -3.1639268   -1.6444043   0.07155484   -3.1639268    1.5195225   442386 
 3680000    1.0184904   -3.1611802   -1.6450095  0.070130365   -3.1611802    1.5161708   442409 
 3681000    1.0200623   -3.1648904   -1.6462733  0.074434331   -3.1648904    1.5186171   442378 
 3682000    1.0178275    -3.161119   -1.6459658  0.074446173    -3.161119    1.5151532   442418 
 3683000    1.0183744   -3.1630731   -1.6471503  0.069677326   -3.1630731    1.5159227   442431 
 3684000    1.0192843   -3.1637514   -1.6466354  0.075371146   -3.1637514     1.517116   442478 
 3685000    1.0177039   -3.1618489   -1.6472187  0.074752797   -3.1618489    1.5146302   442517 
 3686000    1.0195376   -3.1652291   -1.6479281  0.068588256   -3.1652291     1.517301   442534 
 3687000    1.0186252   -3.1644677   -1.6484903   0.06814764   -3.1644677    1.5159774   442524 
 3688000    1.0160534    -3.159879   -1.6478727  0.073941095    -3.159879    1.5120063   442566 
 3689000     1.016288   -3.1590378   -1.6467063  0.070636726   -3.1590378    1.5123315   442573 
 3690000     1.017819    -3.162386   -1.6478754  0.072273649    -3.162386    1.5145105   442602 
 3691000    1.0172123   -3.1616561   -1.6481167  0.069514141   -3.1616561    1.5135394   442622 
 3692000     1.017332   -3.1614606   -1.6476781  0.071070031   -3.1614606    1.5137825   442603 
 3693000    1.0194206   -3.1638401   -1.6469052  0.068557522   -3.1638401    1.5169349   442590 
 3694000    1.0177472   -3.1626584   -1.6482581  0.069572502   -3.1626584    1.5144003   442603 
 3695000    1.0175131   -3.1630829   -1.6492465  0.067142139   -3.1630829    1.5138365   442666 
 3696000    1.0164273   -3.1606536   -1.6483847  0.070589134   -3.1606536    1.5122689   442652 
 3697000    1.0172131   -3.1613688   -1.6478898  0.075928797   -3.1613688     1.513479   442640 
 3698000    1.0174272   -3.1625655   -1.6487645  0.072798459   -3.1625655    1.5138011   442639 
 3699000    1.0179014   -3.1637061   -1.6493193  0.068349514   -3.1637061    1.5143868   442674 
 3700000    1.0188927   -3.1652076   -1.6494212  0.070376798   -3.1652076    1.5157864   442696 
 3701000    1.0185685   -3.1649671   -1.6496459  0.071893484   -3.1649671    1.5153211   442691 
 3702000    1.0175573   -3.1635927   -1.6497794  0.076429143   -3.1635927    1.5138133   442692 
 3703000    1.0176905   -3.1641013   -1.6500932  0.075543105   -3.1641013    1.5140082   442693 
 3704000    1.0189613   -3.1662693    -1.650357  0.073086248   -3.1662693    1.5159123   442689 
 3705000    1.0171289   -3.1651084   -1.6518435  0.075508976   -3.1651084    1.5132649   442666 
 3706000    1.0183625   -3.1651709   -1.6500879  0.075936692   -3.1651709     1.515083   442671 
 3707000    1.0188943   -3.1673993   -1.6516586  0.070757174   -3.1673993    1.5157407   442710 
 3708000     1.017238   -3.1665371   -1.6533082  0.075944165   -3.1665371    1.5132289   442724 
 3709000    1.0176282   -3.1668019   -1.6530711   0.07377248   -3.1668019    1.5137308   442747 
 3710000    1.0183505   -3.1690606   -1.6542075  0.077150346   -3.1690606    1.5148531   442733 
 3711000    1.0181619   -3.1684831   -1.6540543  0.069359777   -3.1684831    1.5144288   442775 
 3712000    1.0192505    -3.170469   -1.6544003  0.072295915    -3.170469    1.5160687   442769 
 3713000    1.0177916   -3.1662821   -1.6523459   0.07657079   -3.1662821    1.5139362   442758 
 3714000    1.0190378   -3.1684172   -1.6526753  0.078177039   -3.1684172     1.515742   442772 
 3715000    1.0188421   -3.1688669    -1.653464  0.070315086   -3.1688669    1.5154029   442786 
 3716000    1.0176878   -3.1654292   -1.6517294  0.073745085   -3.1654292    1.5136998   442782 
 3717000    1.0178455   -3.1659698   -1.6521381  0.074870671   -3.1659698    1.5138317   442812 
 3718000    1.0168452   -3.1649676   -1.6526612  0.077569305   -3.1649676    1.5123064   442823 
 3719000    1.0196309   -3.1675284     -1.65112  0.074472881   -3.1675284    1.5164084   442835 
 3720000    1.0195657    -3.166983     -1.65074  0.075714984    -3.166983     1.516243   442855 
 3721000     1.019088   -3.1662562   -1.6507202  0.069939405   -3.1662562     1.515536   442854 
 3722000    1.0179338   -3.1662719   -1.6524763  0.070025638   -3.1662719    1.5137955   442861 
 3723000    1.0174519   -3.1655538   -1.6524304  0.068750945   -3.1655538    1.5131234   442848 
 3724000    1.0186257    -3.164712   -1.6499662  0.076213414    -3.164712    1.5147459   442884 
 3725000    1.0204063   -3.1663003   -1.6489991  0.068169635   -3.1663003    1.5173012   442911 
 3726000    1.0182367   -3.1630411    -1.648795   0.07377471   -3.1630411    1.5142461   442861 
 3727000    1.0180091   -3.1640305   -1.6501845  0.073116409   -3.1640305     1.513846   442879 
 3728000    1.0191539   -3.1658597   -1.6503216  0.071407475   -3.1658597    1.5155381   442882 
 3729000    1.0168673   -3.1618046   -1.6496804  0.076516471   -3.1618046    1.5121242   442886 
 3730000    1.0174585   -3.1619159   -1.6489091  0.067446392   -3.1619159    1.5130068   442885 
 3731000    1.0175729   -3.1617666   -1.6486956  0.066285951   -3.1617666     1.513071   442916 
 3732000    1.0179319   -3.1613845   -1.6477559  0.073035035   -3.1613845    1.5136286   442909 
 3733000     1.017743   -3.1622657   -1.6489658  0.068402416   -3.1622657       1.5133   442923 
 3734000    1.0183761   -3.1628078   -1.6484776  0.065658691   -3.1628078    1.5143302   442897 
 3735000    1.0180252   -3.1616926   -1.6480791  0.064840375   -3.1616926    1.5136136   442954 
 3736000    1.0182236   -3.1630589   -1.6492151  0.073064375   -3.1630589    1.5138437   442973 
 3737000    1.0166655   -3.1616231   -1.6501197  0.069092688   -3.1616231    1.5115033   442980 
 3738000    1.0180209   -3.1633296   -1.6498249  0.072292291   -3.1633296    1.5135047   442984 
 3739000    1.0176325   -3.1633645   -1.6502938  0.069676162   -3.1633645    1.5130707   442942 
 3740000    1.0174228   -3.1626319   -1.6499071  0.067930907   -3.1626319    1.5127248   442952 
 3741000    1.0182405   -3.1646659   -1.6506296  0.072333293   -3.1646659    1.5140363   442924 
 3742000    1.0179247   -3.1643601   -1.6509402  0.071159332   -3.1643601    1.5134199   442967 
 3743000    1.0176687   -3.1634332   -1.6505614  0.077776339   -3.1634332    1.5128719   443016 
 3744000     1.018397   -3.1646739   -1.6507639  0.074991861   -3.1646739    1.5139101   443029 
 3745000     1.017828   -3.1652284   -1.6520958   0.06513691   -3.1652284    1.5131326   443009 
 3746000     1.017728   -3.1648948   -1.6519929  0.069988413   -3.1648948    1.5129019   443033 
 3747000    1.0186631   -3.1655335   -1.6513269  0.072834852   -3.1655335    1.5142066   443058 
 3748000    1.0202572   -3.1652992   -1.6489455  0.075844941   -3.1652992    1.5163537   443123 
 3749000    1.0188117   -3.1644125   -1.6501935  0.077070317   -3.1644125     1.514219   443119 
 3750000     1.021506   -3.1694058   -1.6512476  0.073470513   -3.1694058    1.5181582   443138 
 3751000    1.0201773   -3.1674443   -1.6512709  0.078145866   -3.1674443    1.5161734   443141 
 3752000    1.0223607   -3.1692362   -1.6499003  0.078380145   -3.1692362    1.5193359   443165 
 3753000    1.0216341   -3.1673974   -1.6491549   0.07525821   -3.1673974    1.5182425   443169 
 3754000    1.0202181   -3.1680176   -1.6517905  0.073081631   -3.1680176    1.5162271   443143 
 3755000    1.0202963   -3.1682366   -1.6519788  0.072450825   -3.1682366    1.5162578   443168 
 3756000    1.0204343   -3.1670374   -1.6505404  0.077210759   -3.1670374    1.5164971   443158 
 3757000    1.0207218   -3.1682343    -1.651392  0.073066792   -3.1682343    1.5168423   443182 
 3758000    1.0191684   -3.1666025   -1.6520516  0.075420034   -3.1666025    1.5145509   443177 
 3759000    1.0183471   -3.1653899   -1.6521484  0.073070198   -3.1653899    1.5132416   443203 
 3760000    1.0196907   -3.1659378   -1.6506894  0.074548752   -3.1659378    1.5152484   443200 
 3761000    1.0198251   -3.1664745   -1.6510298  0.068242341   -3.1664745    1.5154446   443201 
 3762000    1.0203751   -3.1669232   -1.6506954  0.074671426   -3.1669232    1.5162278   443211 
 3763000    1.0197886   -3.1666771   -1.6513209  0.074437885   -3.1666771    1.5153562   443211 
 3764000    1.0189807   -3.1650967   -1.6510332  0.075975166   -3.1650967    1.5140635   443238 
 3765000    1.0202577   -3.1662867   -1.6503941  0.066665714   -3.1662867    1.5158925   443258 
 3766000    1.0201957   -3.1664645   -1.6507291  0.067349237   -3.1664645    1.5157354   443277 
 3767000    1.0197428   -3.1653733   -1.6504133  0.072525152   -3.1653733    1.5149601   443307 
 3768000    1.0180977   -3.1622079   -1.6496713   0.07309945   -3.1622079    1.5125365   443301 
 3769000    1.0200124   -3.1642631   -1.6488306  0.072271911   -3.1642631    1.5154325   443286 
 3770000    1.0191671   -3.1629931   -1.6487345  0.072962069   -3.1629931    1.5142586   443262 
 3771000    1.0194833   -3.1624974   -1.6478408  0.073770011   -3.1624974    1.5146565   443283 
 3772000    1.0190949   -3.1618528   -1.6476709  0.071906896   -3.1618528    1.5141819   443253 
 3773000    1.0192466   -3.1647442   -1.6502753  0.064960738   -3.1647442    1.5144688   443235 
 3774000    1.0191298   -3.1654344   -1.6510161  0.072933977   -3.1654344    1.5144183   443199 
 3775000    1.0205534   -3.1666847   -1.6501714  0.066504758   -3.1666847    1.5165133   443205 
 3776000    1.0214846   -3.1676804   -1.6498622  0.073883199   -3.1676804    1.5178182   443228 
 3777000    1.0205741    -3.166579   -1.6501479  0.076527466    -3.166579    1.5164311   443238 
 3778000    1.0189229   -3.1639606   -1.6500923  0.076291293   -3.1639606    1.5138683   443270 
 3779000    1.0205208   -3.1677023    -1.651453  0.074267227   -3.1677023    1.5162493   443268 
 3780000    1.0189659   -3.1636736   -1.6498472  0.073233765   -3.1636736    1.5138264   443301 
 3781000    1.0203635   -3.1656933   -1.6497051  0.073044838   -3.1656933    1.5159882   443276 
 3782000    1.0207961   -3.1656422   -1.6490146  0.075005078   -3.1656422    1.5166276   443277 
 3783000    1.0215094   -3.1666979   -1.6490415  0.076577067   -3.1666979    1.5176564   443286 
 3784000     1.020974   -3.1658355   -1.6490257  0.076992737   -3.1658355    1.5168098   443301 
 3785000    1.0211026    -3.165718   -1.6488884  0.074762131    -3.165718    1.5168296   443351 
 3786000    1.0213461   -3.1683879   -1.6511827  0.070744149   -3.1683879    1.5172052   443347 
 3787000    1.0194253   -3.1658796   -1.6514699  0.070726369   -3.1658796    1.5144098   443330 
 3788000    1.0192114   -3.1655974   -1.6515839  0.071432761   -3.1655974    1.5140135   443353 
 3789000    1.0208971   -3.1670965   -1.6504318  0.072867293   -3.1670965    1.5166647   443310 
 3790000    1.0210297    -3.169973   -1.6530531  0.070789112    -3.169973    1.5169199   443293 
 3791000    1.0194676    -3.167407   -1.6527806  0.073196856    -3.167407    1.5146264   443285 
 3792000    1.0190411   -3.1664106   -1.6523701  0.070448398   -3.1664106    1.5140405   443271 
 3793000    1.0197522   -3.1675728   -1.6525476  0.070586172   -3.1675728    1.5150253   443292 
 3794000    1.0200663   -3.1693992   -1.6539277  0.072569884   -3.1693992    1.5154715   443298 
 3795000    1.0209067    -3.169591   -1.6529189  0.070200247    -3.169591    1.5166721   443312 
 3796000    1.0203298   -3.1679356   -1.6521446  0.078800243   -3.1679356    1.5157911   443319 
 3797000    1.0190006   -3.1683743   -1.6545203  0.070970745   -3.1683743     1.513854   443308 
 3798000    1.0190655   -3.1697114   -1.6556926  0.069311191   -3.1697114    1.5140188   443288 
 3799000    1.0187096   -3.1694942   -1.6559291  0.070275977   -3.1694942    1.5135652   443266 
 3800000    1.0197511   -3.1708027   -1.6558029   0.07587561   -3.1708027    1.5149998   443299 
 3801000    1.0198075   -3.1708675   -1.6558011  0.075739081   -3.1708675    1.5150664   443304 
 3802000    1.0206773   -3.1715255    -1.655242  0.073037577   -3.1715255    1.5162835   443326 
 3803000    1.0198105   -3.1707465   -1.6557576  0.068307024   -3.1707465    1.5149889   443328 
 3804000    1.0195189   -3.1712958   -1.6567776  0.071127585   -3.1712958    1.5145182   443339 
 3805000    1.0181752   -3.1702553   -1.6577538  0.070883628   -3.1702553    1.5125015   443345 
 3806000    1.0192499   -3.1699197   -1.6558012  0.071426739   -3.1699197    1.5141185   443339 
 3807000    1.0195642   -3.1690773   -1.6545295  0.066732793   -3.1690773    1.5145478   443350 
 3808000    1.0197835   -3.1693954   -1.6546174   0.06884856   -3.1693954    1.5147779   443378 
 3809000    1.0194662   -3.1687689   -1.6544862  0.068291606   -3.1687689    1.5142827   443385 
 3810000    1.0193979   -3.1686573   -1.6545853   0.07112522   -3.1686573     1.514072   443417 
 3811000    1.0200215    -3.169538   -1.6543656  0.074542132    -3.169538    1.5151724   443366 
 3812000    1.0193168   -3.1684544   -1.6544039  0.074672556   -3.1684544    1.5140506   443388 
 3813000    1.0207017   -3.1701113   -1.6539284  0.077273736   -3.1701113    1.5161829   443366 
 3814000    1.0206172   -3.1701649   -1.6540323  0.076635794   -3.1701649    1.5161326   443344 
 3815000    1.0196474   -3.1680974   -1.6535285  0.073866396   -3.1680974     1.514569   443380 
 3816000    1.0206003   -3.1693583   -1.6534526  0.073002119   -3.1693583    1.5159057   443403 
 3817000    1.0205599   -3.1692932   -1.6534953  0.073122683   -3.1692932    1.5157979   443417 
 3818000     1.019348   -3.1686592   -1.6546784  0.065953098   -3.1686592    1.5139808   443422 
 3819000     1.020547   -3.1690063   -1.6532243  0.072872689   -3.1690063    1.5157821   443416 
 3820000    1.0207599   -3.1697406   -1.6536115  0.075237834   -3.1697406    1.5161291   443407 
 3821000    1.0193962   -3.1673308   -1.6532511  0.073428915   -3.1673308    1.5140797   443414 
 3822000    1.0193589   -3.1669222   -1.6530447  0.075301831   -3.1669222    1.5138775   443457 
 3823000    1.0207867   -3.1702032   -1.6540548  0.069365817   -3.1702032    1.5161484   443413 
 3824000    1.0214329   -3.1704736   -1.6534065  0.067968745   -3.1704736    1.5170672   443425 
 3825000      1.01953   -3.1683682   -1.6540795   0.07794823   -3.1683682    1.5142887   443411 
 3826000    1.0202837   -3.1696471   -1.6542936  0.075091661   -3.1696471    1.5153535   443427 
 3827000     1.020144   -3.1683153   -1.6531761  0.075388349   -3.1683153    1.5151392   443429 
 3828000    1.0194085    -3.168705   -1.6545796  0.070569999    -3.168705    1.5141253   443406 
 3829000      1.02026   -3.1691638   -1.6538523  0.068546783   -3.1691638    1.5153115   443429 
 3830000      1.02004   -3.1681872    -1.653141   0.07160892   -3.1681872    1.5150462   443411 
 3831000    1.0201247   -3.1692101   -1.6540141  0.067159419   -3.1692101     1.515196   443404 
 3832000    1.0193003    -3.166788   -1.6527653  0.071475786    -3.166788    1.5140226   443389 
 3833000    1.0201058   -3.1683173   -1.6531597  0.076159752   -3.1683173    1.5151576   443407 
 3834000    1.0198956   -3.1676654   -1.6529737  0.070115129   -3.1676654    1.5146917   443452 
 3835000     1.018797   -3.1660534   -1.6529865  0.074147442   -3.1660534    1.5130669   443450 
 3836000    1.0196488   -3.1685744   -1.6542152  0.069756257   -3.1685744    1.5143592   443442 
 3837000    1.0207533   -3.1707331     -1.65486  0.071348684   -3.1707331    1.5158731   443479 
 3838000    1.0210653   -3.1697916   -1.6534551   0.07592254   -3.1697916    1.5163365   443479 
 3839000    1.0195005   -3.1677374   -1.6537077  0.071625382   -3.1677374    1.5140297   443474 
 3840000    1.0197105   -3.1664041   -1.6520898  0.075535461   -3.1664041    1.5143143   443482 
 3841000    1.0206879   -3.1691705   -1.6534457  0.070690006   -3.1691705    1.5157248   443494 
 3842000    1.0198346   -3.1675235   -1.6531376  0.073801394   -3.1675235    1.5143859   443515 
 3843000    1.0199937   -3.1675956   -1.6529871  0.072335775   -3.1675956    1.5146085   443519 
 3844000    1.0196199   -3.1681328   -1.6540692  0.071953199   -3.1681328    1.5140636   443516 
 3845000    1.0190694   -3.1674537   -1.6541052  0.082759979   -3.1674537    1.5133485   443486 
 3846000    1.0189988   -3.1675998   -1.6544038  0.068133411   -3.1675998     1.513196   443500 
 3847000    1.0186143   -3.1675311   -1.6550902  0.070591752   -3.1675311    1.5124409   443554 
 3848000    1.0188046   -3.1680839   -1.6552513  0.076436579   -3.1680839    1.5128326   443522 
 3849000    1.0210036   -3.1700532   -1.6540578  0.068917803   -3.1700532    1.5159954   443552 
 3850000    1.0209405   -3.1700808   -1.6543262  0.075635112   -3.1700808    1.5157547   443595 
 3851000    1.0194164   -3.1678819   -1.6543798  0.073490599   -3.1678819    1.5135021   443592 
 3852000    1.0203444   -3.1689526   -1.6542126  0.071387343   -3.1689526      1.51474   443633 
 3853000    1.0211791   -3.1700821   -1.6542021  0.072112577   -3.1700821      1.51588   443662 
 3854000     1.021361   -3.1702049    -1.653949  0.072501282   -3.1702049    1.5162559   443631 
 3855000    1.0227151   -3.1715818   -1.6534217  0.075460039   -3.1715818    1.5181601   443662 
 3856000    1.0231833   -3.1708392   -1.6518918  0.076948855   -3.1708392    1.5189475   443635 
 3857000    1.0230626   -3.1723408   -1.6536853  0.074391056   -3.1723408    1.5186554   443668 
 3858000    1.0220887   -3.1713925   -1.6542853  0.074491401   -3.1713925    1.5171072   443698 
 3859000    1.0217356   -3.1716771   -1.6551248   0.07180573   -3.1716771    1.5165523   443707 
 3860000    1.0225569   -3.1718185   -1.6540301  0.071390532   -3.1718185    1.5177884   443702 
 3861000    1.0223621   -3.1723563   -1.6548981  0.077148653   -3.1723563    1.5174582   443714 
 3862000    1.0226823   -3.1717335    -1.653906  0.076296775   -3.1717335    1.5178275   443745 
 3863000    1.0209878   -3.1701377   -1.6548184  0.074338845   -3.1701377    1.5153193   443743 
 3864000    1.0213797   -3.1720956   -1.6562766  0.069592455   -3.1720956     1.515819   443767 
 3865000    1.0210529   -3.1715359   -1.6562223  0.072925067   -3.1715359    1.5153136   443773 
 3866000    1.0215188   -3.1711057   -1.6551212  0.071198142   -3.1711057    1.5159845   443779 
 3867000    1.0201189   -3.1706933   -1.6568376  0.072657732   -3.1706933    1.5138558   443794 
 3868000    1.0209619   -3.1708273   -1.6557751  0.075596417   -3.1708273    1.5150521   443810 
 3869000    1.0218316   -3.1710683   -1.6547461  0.077713487   -3.1710683    1.5163222   443816 
 3870000    1.0216667    -3.171614   -1.6556048  0.069110151    -3.171614    1.5160092   443836 
 3871000    1.0211897   -3.1714688   -1.6560991  0.079106989   -3.1714688    1.5153697   443816 
 3872000    1.0204634   -3.1709952   -1.6567475  0.074182537   -3.1709952    1.5142477   443829 
 3873000    1.0220231   -3.1730475   -1.6564172  0.069670262   -3.1730475    1.5166303   443809 
 3874000    1.0211535   -3.1707109   -1.6553437  0.074743732   -3.1707109    1.5153671   443801 
 3875000    1.0208214   -3.1708319   -1.6560531   0.06817007   -3.1708319    1.5147788   443829 
 3876000    1.0217257    -3.171506   -1.6553716  0.068385635    -3.171506    1.5161344   443825 
 3877000    1.0222211   -3.1714393   -1.6546791  0.074963415   -3.1714393    1.5167602   443857 
 3878000    1.0206244   -3.1691787   -1.6548151  0.074485876   -3.1691787    1.5143637   443865 
 3879000    1.0207882     -3.17001   -1.6553453  0.078647614     -3.17001    1.5146647   443848 
 3880000     1.022159   -3.1714752   -1.6547662  0.070402312   -3.1714752     1.516709   443845 
 3881000    1.0221181   -3.1701558   -1.6535144  0.078078326   -3.1701558    1.5166414   443847 
 3882000    1.0235684   -3.1722468    -1.653426  0.071279549   -3.1722468    1.5188208   443839 
 3883000    1.0220866   -3.1705968    -1.654091  0.073778547   -3.1705968    1.5165058   443873 
 3884000    1.0232981   -3.1736126   -1.6552578  0.072222414   -3.1736126    1.5183548   443858 
 3885000    1.0213797   -3.1697098   -1.6541572  0.074939135   -3.1697098    1.5155526   443845 
 3886000    1.0213689   -3.1696778   -1.6541855  0.070815574   -3.1696778    1.5154922   443858 
 3887000    1.0220747   -3.1723646    -1.655791  0.071418318   -3.1723646    1.5165736   443848 
 3888000     1.023118   -3.1731774    -1.655107  0.075831269   -3.1731774    1.5180704   443863 
 3889000    1.0232404   -3.1734417   -1.6551213  0.074628455   -3.1734417    1.5183204   443843 
 3890000    1.0221958   -3.1711588   -1.6544499  0.078693744   -3.1711588    1.5167089   443861 
 3891000    1.0235011   -3.1739936   -1.6554232  0.071302738   -3.1739936    1.5185704   443883 
 3892000    1.0237726   -3.1746041   -1.6557507  0.077638554   -3.1746041    1.5188534   443918 
 3893000    1.0224843   -3.1712484   -1.6543985  0.075185078   -3.1712484    1.5168499   443945 
 3894000    1.0237711   -3.1735276   -1.6547893  0.077654629   -3.1735276    1.5187383   443951 
 3895000     1.022757   -3.1723535   -1.6550785  0.077455502   -3.1723535     1.517275   443939 
 3896000    1.0234164   -3.1719047   -1.6536139  0.079682118   -3.1719047    1.5182908   443928 
 3897000    1.0219914   -3.1716263   -1.6554734  0.074021431   -3.1716263    1.5161529   443935 
 3898000    1.0220366   -3.1719973   -1.6557262  0.076304702   -3.1719973    1.5162711   443920 
 3899000      1.02027    -3.171083   -1.6573168   0.07521363    -3.171083    1.5137662   443886 
 3900000    1.0223383   -3.1734748   -1.6565477   0.07397459   -3.1734748    1.5169272   443859 
 3901000    1.0211079   -3.1735131   -1.6584526  0.075255612   -3.1735131    1.5150605   443871 
 3902000    1.0220156   -3.1731893   -1.6566863  0.073327649   -3.1731893     1.516503   443843 
 3903000    1.0235381   -3.1745865   -1.6558208  0.079203845   -3.1745865    1.5187657   443842 
 3904000    1.0221348   -3.1743761   -1.6576074  0.072885219   -3.1743761    1.5167687   443817 
 3905000    1.0203687   -3.1713084   -1.6571126  0.076620738   -3.1713084    1.5141958   443803 
 3906000    1.0218999   -3.1739406   -1.6574589   0.07272798   -3.1739406    1.5164816   443799 
 3907000    1.0210444   -3.1727263   -1.6574834  0.073285235   -3.1727263    1.5152429   443790 
 3908000    1.0220584   -3.1743138   -1.6576994     0.069317   -3.1743138    1.5166144   443829 
 3909000    1.0213452    -3.172736   -1.6571185  0.068666158    -3.172736    1.5156175   443811 
 3910000    1.0225818   -3.1744011    -1.656993  0.071896537   -3.1744011    1.5174081   443824 
 3911000     1.020764   -3.1715059   -1.6566724  0.074826366   -3.1715059    1.5148335   443788 
 3912000    1.0219022   -3.1734632   -1.6568926  0.078685723   -3.1734632    1.5165706   443774 
 3913000    1.0218882   -3.1736868   -1.6572429  0.074301228   -3.1736868    1.5164439   443805 
 3914000    1.0217671   -3.1738056   -1.6576474  0.073365194   -3.1738056    1.5161582   443836 
 3915000    1.0222173   -3.1739392   -1.6570582  0.069353649   -3.1739392     1.516881   443820 
 3916000    1.0210325   -3.1723911   -1.6572923  0.075212116   -3.1723911    1.5150988   443827 
 3917000    1.0214318   -3.1736204    -1.657912  0.072273267   -3.1736204    1.5157085   443822 
 3918000    1.0224245   -3.1752242   -1.6581213  0.077763827   -3.1752242    1.5171029   443845 
 3919000    1.0210245   -3.1732181   -1.6582744  0.075235041   -3.1732181    1.5149436   443869 
 3920000    1.0221158   -3.1763142   -1.6598436  0.071637128   -3.1763142    1.5164707   443896 
 3921000     1.021686   -3.1747347   -1.6589324  0.070519483   -3.1747347    1.5158022   443905 
 3922000    1.0211325   -3.1726707   -1.6578091   0.07683516   -3.1726707    1.5148616   443940 
 3923000    1.0221437   -3.1752707   -1.6589637  0.070651349   -3.1752707     1.516307   443956 
 3924000     1.020612   -3.1728986    -1.658816  0.070461522   -3.1728986    1.5140825   443942 
 3925000    1.0218642   -3.1730911   -1.6571508  0.073348006   -3.1730911    1.5159403   443942 
 3926000    1.0221857   -3.1730316   -1.6567374  0.073828386   -3.1730316    1.5162943   443978 
 3927000    1.0229696   -3.1747175    -1.657175  0.072841616   -3.1747175    1.5175425   443953 
 3928000     1.023026   -3.1756611   -1.6581683  0.075336579   -3.1756611    1.5174928   443992 
 3929000     1.022936   -3.1746345   -1.6572751  0.075133704   -3.1746345    1.5173594   443992 
 3930000    1.0237173   -3.1762793   -1.6576858  0.072992801   -3.1762793    1.5185935   443970 
 3931000     1.024377   -3.1765619   -1.6569419  0.070946892   -3.1765619      1.51962   443956 
 3932000    1.0237758   -3.1758574   -1.6571258  0.078029561   -3.1758574    1.5187316   443955 
 3933000     1.022556   -3.1746232   -1.6576806  0.079007593   -3.1746232    1.5169426   443949 
 3934000    1.0234635   -3.1758751   -1.6575999  0.078127332   -3.1758751    1.5182752   443953 
 3935000    1.0227448   -3.1737513   -1.6566413  0.080499244   -3.1737513      1.51711   443982 
 3936000     1.022865   -3.1762025   -1.6588187  0.071455266   -3.1762025    1.5173839   443954 
 3937000    1.0223178   -3.1759447   -1.6592836  0.073786795   -3.1759447     1.516661   443928 
 3938000    1.0229461   -3.1759322   -1.6583185  0.073566517   -3.1759322    1.5176137   443922 
 3939000    1.0218242   -3.1749765   -1.6591092  0.078961265   -3.1749765    1.5158673   443946 
 3940000    1.0207342   -3.1741693   -1.6598407  0.077335137   -3.1741693    1.5143286   443923 
 3941000    1.0213831   -3.1743752   -1.6591726   0.07163401   -3.1743752    1.5152026   443949 
 3942000    1.0231036   -3.1760971   -1.6583525  0.067142019   -3.1760971    1.5177447   443952 
 3943000    1.0223462   -3.1752619   -1.6585452  0.076731596   -3.1752619    1.5167168   443924 
 3944000    1.0199918   -3.1729887   -1.6596965  0.072474275   -3.1729887    1.5132921   443904 
 3945000    1.0222457    -3.176947     -1.66027  0.072403583    -3.176947     1.516677   443892 
 3946000    1.0220674   -3.1751337   -1.6587723  0.076744393   -3.1751337    1.5163613   443907 
 3947000    1.0224908   -3.1756074   -1.6585462  0.076308744   -3.1756074    1.5170612   443886 
 3948000    1.0232236    -3.176938   -1.6588923  0.071601111    -3.176938    1.5180458   443916 
 3949000    1.0205048   -3.1737746   -1.6597896  0.074048587   -3.1737746     1.513985   443924 
 3950000    1.0209964   -3.1742253   -1.6594598  0.071316889   -3.1742253    1.5147655   443909 
 3951000    1.0221829   -3.1749197    -1.658305  0.072992681   -3.1749197    1.5166146   443883 
 3952000     1.021407   -3.1735231   -1.6581519  0.073956264   -3.1735231    1.5153712   443910 
 3953000    1.0209879   -3.1746371   -1.6599081  0.075179495   -3.1746371     1.514729   443916 
 3954000    1.0223136   -3.1765053   -1.6599087  0.071229725   -3.1765053    1.5165967   443945 
 3955000    1.0233754   -3.1770031   -1.6588826  0.070603782   -3.1770031    1.5181205   443960 
 3956000    1.0216087   -3.1729887   -1.6575709  0.074385012   -3.1729887    1.5154178   443984 
 3957000     1.020943   -3.1715905   -1.6571431   0.07553131   -3.1715905    1.5144474   443979 
 3958000     1.021767   -3.1724977   -1.6568177  0.075529501   -3.1724977      1.51568   443976 
 3959000    1.0220462   -3.1740014   -1.6578218  0.070131503   -3.1740014    1.5161796   443951 
 3960000    1.0236534   -3.1772102    -1.658561  0.070751599   -3.1772102    1.5186492   443926 
 3961000    1.0213003   -3.1746484   -1.6594219  0.075398524   -3.1746484    1.5152265   443906 
 3962000    1.0210076   -3.1736319    -1.658976  0.075721584   -3.1736319    1.5146559   443946 
 3963000    1.0218246   -3.1747275   -1.6588733  0.072616374   -3.1747275    1.5158542   443950 
 3964000    1.0216727   -3.1754412   -1.6598465   0.07377391   -3.1754412    1.5155947   443960 
 3965000    1.0226535   -3.1751423   -1.6580858  0.070562741   -3.1751423    1.5170564   443958 
 3966000    1.0210003   -3.1729364   -1.6585132  0.073458768   -3.1729364    1.5144233   444011 
 3967000    1.0221815   -3.1743655    -1.658081  0.073331911   -3.1743655    1.5162845   443979 
 3968000    1.0223421   -3.1732414   -1.6568175  0.074082106   -3.1732414    1.5164238   444008 
 3969000    1.0225419   -3.1745346   -1.6576847  0.070853654   -3.1745346    1.5168499   443970 
 3970000    1.0225175   -3.1751876   -1.6583671  0.074881286   -3.1751876    1.5168205   443968 
 3971000    1.0222747   -3.1747558   -1.6582101  0.074714176   -3.1747558    1.5165458   443943 
 3972000    1.0210088   -3.1743746   -1.6597648  0.074073531   -3.1743746    1.5146099   443960 
 3973000    1.0218418   -3.1743444   -1.6586116  0.075827363   -3.1743444    1.5157328   443993 
 3974000    1.0210151    -3.173225   -1.6587252  0.073760378    -3.173225    1.5144998   443995 
 3975000    1.0202492   -3.1715748    -1.658194  0.071601514   -3.1715748    1.5133808   443990 
 3976000    1.0209641   -3.1728761   -1.6583906  0.070124301   -3.1728761    1.5144855   443977 
 3977000    1.0205142   -3.1729715    -1.659201  0.073032069   -3.1729715    1.5137705   443991 
 3978000    1.0204704   -3.1723857   -1.6587554  0.065872927   -3.1723857    1.5136304   444013 
 3979000     1.019318   -3.1724655   -1.6604149  0.069246122   -3.1724655    1.5120506   443975 
 3980000    1.0192795   -3.1719433   -1.6599567  0.074520908   -3.1719433    1.5119866   443977 
 3981000    1.0211874    -3.173619   -1.6587681  0.071687721    -3.173619    1.5148509   443967 
 3982000    1.0212626   -3.1738134   -1.6588475  0.074688184   -3.1738134    1.5149659   443966 
 3983000    1.0207245   -3.1733511   -1.6591766  0.070427697   -3.1733511    1.5141745   443964 
 3984000    1.0217947   -3.1746469   -1.6588984   0.07099433   -3.1746469    1.5157484   443968 
 3985000    1.0211921   -3.1735083   -1.6587937  0.072227646   -3.1735083    1.5147146   444009 
 3986000     1.022131   -3.1739936   -1.6580331  0.067752188   -3.1739936    1.5159605   444052 
 3987000    1.0212567   -3.1719986   -1.6573452  0.074223788   -3.1719986    1.5146534   444055 
 3988000    1.0220691   -3.1733201    -1.657513  0.071436924   -3.1733201    1.5158071   444070 
 3989000    1.0216826   -3.1740129   -1.6587244  0.068187052   -3.1740129    1.5152885   444054 
 3990000    1.0211709   -3.1739325   -1.6594983  0.071410803   -3.1739325    1.5144342   444082 
 3991000    1.0207745   -3.1736511   -1.6599173  0.072082231   -3.1736511    1.5137338   444115 
 3992000    1.0203522   -3.1750628   -1.6619858  0.074205207   -3.1750628     1.513077   444124 
 3993000    1.0209077   -3.1746502   -1.6607735    0.0763454   -3.1746502    1.5138767   444131 
 3994000    1.0224727   -3.1771043   -1.6610945  0.074553992   -3.1771043    1.5160097   444186 
 3995000    1.0231267   -3.1771973   -1.6601838  0.067486269   -3.1771973    1.5170135   444176 
 3996000    1.0236241   -3.1782956   -1.6606675  0.069202667   -3.1782956    1.5176281   444212 
 3997000    1.0206782    -3.174892   -1.6616656  0.075838646    -3.174892    1.5132264   444222 
 3998000    1.0228512   -3.1774748   -1.6611975  0.076855231   -3.1774748    1.5162773   444272 
 3999000    1.0212497   -3.1757614   -1.6618036  0.071467692   -3.1757614    1.5139578   444256 
 4000000    1.0219064   -3.1772732   -1.6623589  0.074066348   -3.1772732    1.5149143   444261 
 4001000    1.0226193   -3.1782083   -1.6622304  0.077136277   -3.1782083    1.5159779   444259 
 4002000    1.0239307   -3.1788029   -1.6609117  0.075749704   -3.1788029    1.5178912   444268 
 4003000    1.0225455   -3.1780306   -1.6621313  0.079276786   -3.1780306    1.5158993   444250 
 4004000    1.0246083   -3.1801002   -1.6611976  0.078807815   -3.1801002    1.5189026   444266 
 4005000    1.0242218   -3.1800318   -1.6617363  0.072837623   -3.1800318    1.5182955   444276 
 4006000    1.0247901   -3.1795047   -1.6604523  0.074852238   -3.1795047    1.5190524   444301 
 4007000    1.0245317   -3.1792331    -1.660485  0.074270184   -3.1792331     1.518748   444278 
 4008000    1.0241461   -3.1791217   -1.6608701  0.073173943   -3.1791217    1.5182516   444256 
 4009000    1.0221181   -3.1772432   -1.6621515  0.074388825   -3.1772432    1.5150917   444301 
 4010000     1.023671   -3.1788743   -1.6615251  0.075222282   -3.1788743    1.5173492   444314 
 4011000    1.0232796   -3.1780094   -1.6611517  0.072254217   -3.1780094    1.5168577   444288 
 4012000    1.0212637   -3.1754154   -1.6616447   0.06989495   -3.1754154    1.5137708   444317 
 4013000    1.0208391   -3.1739899   -1.6608316  0.077582777   -3.1739899    1.5131584   444312 
 4014000    1.0221221    -3.177462   -1.6624496  0.069979996    -3.177462    1.5150124   444326 
 4015000    1.0200313      -3.1748   -1.6629547  0.069352788      -3.1748    1.5118453   444346 
 4016000    1.0205748   -3.1759753   -1.6633005  0.070000219   -3.1759753    1.5126748   444339 
 4017000    1.0203423   -3.1750545   -1.6628538   0.07061578   -3.1750545    1.5122007   444377 
 4018000    1.0200867    -3.175141   -1.6633599  0.059838141    -3.175141    1.5117812   444389 
 4019000    1.0210385   -3.1746017   -1.6614713    0.0723549   -3.1746017    1.5131304   444407 
 4020000    1.0216007   -3.1748727    -1.661025  0.066997181   -3.1748727    1.5138478   444441 
 4021000    1.0199533   -3.1730334   -1.6616201  0.072168538   -3.1730334    1.5114133   444439 
 4022000    1.0210033   -3.1752079    -1.662208  0.067030821   -3.1752079    1.5129999   444430 
 4023000    1.0202694   -3.1729906   -1.6611054  0.074718243   -3.1729906    1.5118852   444438 
 4024000    1.0218116   -3.1750834   -1.6609163  0.071075759   -3.1750834    1.5141671   444439 
 4025000     1.022514    -3.174747   -1.6596448  0.070624962    -3.174747    1.5151022   444470 
 4026000    1.0224878   -3.1743662    -1.659405  0.074269297   -3.1743662    1.5149612   444500 
 4027000    1.0218244      -3.1718   -1.6577979  0.077332578      -3.1718    1.5140021   444493 
 4028000    1.0233744   -3.1746224   -1.6583681  0.067098018   -3.1746224    1.5162543   444506 
 4029000    1.0217023   -3.1740204   -1.6600664  0.078846474   -3.1740204     1.513954   444454 
 4030000    1.0212568   -3.1738341   -1.6605505   0.07102172   -3.1738341    1.5132836   444457 
 4031000    1.0229381   -3.1756056   -1.6599021  0.071634249   -3.1756056    1.5157034   444478 
 4032000    1.0218887   -3.1745744   -1.6604804  0.071902873   -3.1745744     1.514094   444494 
 4033000    1.0209785   -3.1732855   -1.6605675  0.073169914   -3.1732855    1.5127181   444502 
 4034000    1.0218479   -3.1751736   -1.6611877  0.074537205   -3.1751736    1.5139858   444508 
 4035000    1.0228929   -3.1754862   -1.6600714  0.074325065   -3.1754862    1.5154148   444543 
 4036000    1.0235627   -3.1754154   -1.6591004  0.074308079   -3.1754154     1.516315   444570 
 4037000    1.0234304   -3.1748893   -1.6588555  0.070318243   -3.1748893    1.5160338   444595 
 4038000    1.0246536   -3.1768392   -1.6591267  0.068080304   -3.1768392    1.5177125   444634 
 4039000    1.0227826    -3.173174   -1.6581987  0.075158839    -3.173174    1.5149753   444624 
 4040000    1.0232616    -3.174507   -1.6588051  0.072367187    -3.174507    1.5157019   444619 
 4041000    1.0241112    -3.175211   -1.6583393  0.073949396    -3.175211    1.5168717   444645 
 4042000    1.0239791     -3.17523   -1.6585916  0.071946568     -3.17523    1.5166384   444656 
 4043000    1.0251438   -3.1747815   -1.6564146  0.077006994   -3.1747815    1.5183669   444655 
 4044000    1.0237558   -3.1739877   -1.6577072  0.076386979   -3.1739877    1.5162805   444664 
 4045000    1.0223968   -3.1711736   -1.6570116  0.077938461   -3.1711736     1.514162   444695 
 4046000    1.0229153   -3.1733893    -1.658323  0.071445402   -3.1733893    1.5150663   444655 
 4047000    1.0245666   -3.1758772   -1.6584641  0.073211524   -3.1758772    1.5174131   444684 
 4048000    1.0265717   -3.1780692   -1.6577653  0.070256128   -3.1780692     1.520304   444707 
 4049000    1.0234855   -3.1743704   -1.6585722  0.072920427   -3.1743704    1.5157983   444688 
 4050000    1.0248051   -3.1776221   -1.6598694  0.069903765   -3.1776221    1.5177527   444688 
 4051000    1.0239144   -3.1767891   -1.6604033  0.070853844   -3.1767891    1.5163857   444702 
 4052000    1.0234115   -3.1739476   -1.6584293  0.075692882   -3.1739476    1.5155183   444738 
 4053000    1.0241231   -3.1747031   -1.6581379  0.075054632   -3.1747031    1.5165653   444740 
 4054000    1.0245153   -3.1751017   -1.6580307  0.072033375   -3.1751017     1.517071   444762 
 4055000    1.0237014   -3.1745097   -1.6587053  0.069247022   -3.1745097    1.5158044   444780 
 4056000    1.0219246   -3.1723211   -1.6591102  0.076533008   -3.1723211    1.5132109   444769 
 4057000    1.0229779   -3.1746335   -1.6598493  0.065925345   -3.1746335    1.5147842   444765 
 4058000     1.022011   -3.1721455   -1.6590005  0.072520836   -3.1721455     1.513145   444826 
 4059000    1.0234831   -3.1738044   -1.6584493  0.067945631   -3.1738044    1.5153552   444817 
 4060000    1.0228964    -3.172954   -1.6585356  0.066600997    -3.172954    1.5144184   444837 
 4061000    1.0220157   -3.1728352   -1.6598704  0.066179392   -3.1728352    1.5129648   444881 
 4062000    1.0222521   -3.1708218   -1.6576532  0.073457121   -3.1708218    1.5131686   444924 
 4063000    1.0232628   -3.1715545   -1.6568832  0.075794887   -3.1715545    1.5146714   444922 
 4064000    1.0220798    -3.171453   -1.6583728  0.071333952    -3.171453    1.5130802   444875 
 4065000    1.0227006    -3.172292   -1.6582758  0.070969412    -3.172292    1.5140163   444870 
 4066000    1.0229346   -3.1725654   -1.6581994   0.06918371   -3.1725654     1.514366   444869 
 4067000    1.0223669   -3.1726819   -1.6591052  0.071488326   -3.1726819    1.5135766   444854 
 4068000     1.022211   -3.1715734    -1.658299   0.07043048   -3.1715734    1.5132744   444875 
 4069000    1.0211637   -3.1697302   -1.6580164  0.078104522   -3.1697302    1.5117138   444878 
 4070000    1.0229364   -3.1726705   -1.6583903  0.072092911   -3.1726705    1.5142801   444895 
 4071000    1.0242477   -3.1737303   -1.6574784  0.070938059   -3.1737303     1.516252   444886 
 4072000    1.0250401   -3.1739808   -1.6564535  0.072906843   -3.1739808    1.5175273   444856 
 4073000    1.0237779   -3.1720913    -1.656419   0.07228377   -3.1720913    1.5156723   444852 
 4074000    1.0246266   -3.1743513    -1.657361   0.06765945   -3.1743513    1.5169903   444834 
 4075000    1.0238181   -3.1751846   -1.6593846  0.072927628   -3.1751846       1.5158   444832 
 4076000    1.0238835   -3.1757327   -1.6599381  0.070829369   -3.1757327    1.5157946   444862 
 4077000    1.0230618   -3.1749567   -1.6603275  0.068673571   -3.1749567    1.5146292   444847 
 4078000    1.0219672   -3.1735999   -1.6606117  0.071079331   -3.1735999    1.5129883   444853 
 4079000    1.0232303   -3.1767034    -1.661743  0.067608401   -3.1767034    1.5149604   444823 
 4080000    1.0210167    -3.173594   -1.6619993  0.071445836    -3.173594    1.5115947   444849 
 4081000    1.0214943   -3.1743302    -1.661991  0.066763709   -3.1743302    1.5123392   444838 
 4082000    1.0212724   -3.1739534   -1.6618713  0.066091682   -3.1739534    1.5120821   444817 
 4083000     1.020369   -3.1733606   -1.6625856  0.069910324   -3.1733606     1.510775   444808 
 4084000    1.0214023   -3.1750484   -1.6627299  0.071715505   -3.1750484    1.5123186   444804 
 4085000    1.0241721   -3.1781454   -1.6617668  0.071064411   -3.1781454    1.5163786   444816 
 4086000     1.024617   -3.1774851    -1.660359  0.072861805   -3.1774851    1.5171261   444790 
 4087000     1.024351   -3.1772092    -1.660385  0.072698187   -3.1772092    1.5168242   444763 
 4088000    1.0243909   -3.1773381   -1.6604342  0.073173084   -3.1773381    1.5169039   444757 
 4089000    1.0244514   -3.1778329   -1.6608428  0.071281018   -3.1778329    1.5169901   444758 
 4090000    1.0245129    -3.177808   -1.6607747   0.07333276    -3.177808    1.5170333   444772 
 4091000    1.0236554   -3.1769311   -1.6611197  0.072923134   -3.1769311    1.5158114   444758 
 4092000    1.0223343   -3.1750707   -1.6612837  0.075577081   -3.1750707     1.513787   444778 
 4093000    1.0256568   -3.1786794   -1.6601161  0.071999336   -3.1786794    1.5185633   444820 
 4094000    1.0220998   -3.1742892   -1.6610298  0.076803999   -3.1742892    1.5132594   444831 
 4095000    1.0252893   -3.1786456   -1.6608346  0.072592115   -3.1786456     1.517811   444881 
 4096000    1.0242583   -3.1761975   -1.6600049  0.074390327   -3.1761975    1.5161927   444908 
 4097000    1.0239172   -3.1752991   -1.6595806  0.070820678   -3.1752991    1.5157185   444899 
 4098000    1.0211855   -3.1723153   -1.6607527     0.074368   -3.1723153    1.5115626   444932 
 4099000    1.0250307   -3.1764079    -1.659273  0.075580491   -3.1764079    1.5171349   444967 
 4100000    1.0242347   -3.1755679   -1.6596794  0.072056201   -3.1755679    1.5158886   444987 
 4101000    1.0226963   -3.1739605   -1.6603488   0.07128641   -3.1739605    1.5136117   444987 
 4102000    1.0245022   -3.1768054   -1.6605549  0.071378023   -3.1768054    1.5162505   444997 
 4103000     1.023717    -3.175258   -1.6602003  0.074489439    -3.175258    1.5150577   445006 
 4104000     1.023822   -3.1744417   -1.6593477  0.070888563   -3.1744417     1.515094   445041 
 4105000    1.0219838   -3.1735036   -1.6612828  0.076984698   -3.1735036    1.5122208   445086 
 4106000    1.0207569   -3.1728507   -1.6624623  0.065171148   -3.1728507    1.5103884   445091 
 4107000    1.0223669   -3.1741774   -1.6615495  0.075816906   -3.1741774    1.5126279   445133 
 4108000    1.0236956   -3.1749019   -1.6603693  0.072910669   -3.1749019    1.5145326   445151 
 4109000    1.0232215   -3.1738241   -1.6599861  0.067688765   -3.1738241     1.513838   445149 
 4110000    1.0236128   -3.1747437   -1.6603608  0.070550571   -3.1747437    1.5143829   445159 
 4111000    1.0237291   -3.1749072   -1.6603319  0.069553487   -3.1749072    1.5145753   445153 
 4112000    1.0251416   -3.1761738   -1.6595155  0.070489141   -3.1761738    1.5166583   445155 
 4113000    1.0236567   -3.1746644   -1.6602337  0.071022575   -3.1746644    1.5144307   445164 
 4114000    1.0239498   -3.1747527   -1.6599155  0.076467807   -3.1747527    1.5148372   445172 
 4115000    1.0235744   -3.1751562   -1.6608437  0.072623562   -3.1751562    1.5143125   445163 
 4116000    1.0246768    -3.176491   -1.6605034  0.076018747    -3.176491    1.5159876   445150 
 4117000    1.0260049   -3.1777944   -1.6597703  0.069265277   -3.1777944    1.5180241   445129 
 4118000     1.024755   -3.1769925   -1.6608516  0.073784296   -3.1769925    1.5161408   445139 
 4119000    1.0259449   -3.1766952   -1.6588996  0.077745115   -3.1766952    1.5177956   445170 
 4120000    1.0253655   -3.1756312   -1.6587473  0.074414345   -3.1756312    1.5168838   445186 
 4121000    1.0240678   -3.1755281   -1.6604074  0.075648676   -3.1755281    1.5151207   445140 
 4122000    1.0259865   -3.1785032   -1.6605916  0.069369696   -3.1785032    1.5179116   445154 
 4123000    1.0267447   -3.1782821   -1.6593544   0.07985694   -3.1782821    1.5189277   445185 
 4124000    1.0270012   -3.1780572   -1.6589139  0.080155834   -3.1780572    1.5191433   445233 
 4125000    1.0259708   -3.1757573   -1.6581927  0.077686125   -3.1757573    1.5175646   445249 
 4126000    1.0271799   -3.1787659   -1.6594368  0.070602191   -3.1787659    1.5193292   445256 
 4127000    1.0264061   -3.1767096   -1.6585829  0.081718205   -3.1767096    1.5181267   445273 
 4128000    1.0250939   -3.1738367   -1.6576747  0.078056453   -3.1738367     1.516162   445280 
 4129000    1.0255817   -3.1744461   -1.6577194  0.075844311   -3.1744461    1.5167267   445326 
 4130000    1.0256406   -3.1771355   -1.6602331  0.075915159   -3.1771355    1.5169024   445300 
 4131000    1.0253317   -3.1759948   -1.6595594  0.072101375   -3.1759948    1.5164354   445303 
 4132000    1.0244521    -3.174808   -1.6595783  0.070068306    -3.174808    1.5152297   445275 
 4133000     1.022686   -3.1734624   -1.6608687  0.067066801   -3.1734624    1.5125937   445282 
 4134000    1.0231238   -3.1738104    -1.660508  0.068753104   -3.1738104    1.5133025   445264 
 4135000    1.0241686   -3.1759442   -1.6611031  0.070946997   -3.1759442    1.5148411   445266 
 4136000    1.0252276   -3.1762368   -1.6598873  0.068515202   -3.1762368    1.5163495   445283 
 4137000    1.0236906   -3.1744512    -1.660358   0.06409824   -3.1744512    1.5140931   445278 
 4138000    1.0237169   -3.1734439    -1.659237  0.066324934   -3.1734439    1.5142069   445256 
 4139000    1.0243106   -3.1738619   -1.6587599  0.071086286   -3.1738619     1.515102   445251 
 4140000    1.0245076   -3.1751501   -1.6598316  0.069398825   -3.1751501    1.5153186   445273 
 4141000    1.0252894   -3.1754504   -1.6591083  0.069873688   -3.1754504    1.5163421   445312 
 4142000    1.0249457     -3.17322   -1.6576448   0.07229912     -3.17322    1.5155752   445388 
 4143000    1.0238376   -3.1735183   -1.6594559  0.071464727   -3.1735183    1.5140625   445351 
 4144000    1.0252177   -3.1750184   -1.6589662  0.074378399   -3.1750184    1.5160522   445366 
 4145000    1.0266186   -3.1759807   -1.6579319  0.069050584   -3.1759807    1.5180488   445388 
 4146000    1.0249548   -3.1738587   -1.6583075  0.074332707   -3.1738587    1.5155512   445399 
 4147000    1.0250834   -3.1754665   -1.6599396  0.072329059   -3.1754665     1.515527   445462 
 4148000    1.0257293   -3.1750905   -1.6587856  0.073385463   -3.1750905    1.5163048   445514 
 4149000    1.0245147   -3.1744069   -1.6599316  0.065886317   -3.1744069    1.5144753   445524 
 4150000    1.0251113   -3.1762087   -1.6608547  0.066879752   -3.1762087     1.515354   445525 
 4151000    1.0233621   -3.1721516   -1.6593766  0.072396874   -3.1721516     1.512775   445523 
 4152000    1.0251444   -3.1760784   -1.6605871  0.072628716   -3.1760784    1.5154913   445499 
 4153000    1.0259282   -3.1774529   -1.6608097   0.07314497   -3.1774529    1.5166432   445501 
 4154000    1.0261012   -3.1764879   -1.6596128  0.072395588   -3.1764879    1.5168751   445508 
 4155000    1.0253707   -3.1766784   -1.6610363  0.073240088   -3.1766784    1.5156421   445553 
 4156000    1.0255005   -3.1777216    -1.661823  0.069406449   -3.1777216    1.5158986   445534 
 4157000    1.0259818   -3.1773142   -1.6607314  0.080116031   -3.1773142    1.5165828   445542 
 4158000    1.0255951    -3.176375   -1.6603229  0.082494812    -3.176375    1.5160521   445530 
 4159000    1.0278826    -3.179423   -1.6598769  0.077990521    -3.179423    1.5195461   445497 
 4160000    1.0260003   -3.1769486    -1.660192  0.073993695   -3.1769486    1.5167566   445499 
 4161000    1.0283312   -3.1794223   -1.6593529   0.07661146   -3.1794223    1.5200694   445538 
 4162000    1.0288424   -3.1806499   -1.6597498   0.06920961   -3.1806499       1.5209   445516 
 4163000    1.0251622   -3.1768379   -1.6613713  0.074324942   -3.1768379    1.5154666   445514 
 4164000    1.0254038   -3.1773316   -1.6614296  0.069305448   -3.1773316     1.515902   445491 
 4165000    1.0265408   -3.1804393    -1.662836  0.073233535   -3.1804393    1.5176033   445485 
 4166000    1.0238855   -3.1774707   -1.6637861  0.073042852   -3.1774707    1.5136846   445483 
 4167000    1.0228498   -3.1766941      -1.6645  0.075936248   -3.1766941    1.5121941   445471 
 4168000     1.021769   -3.1773038   -1.6666803   0.07077859   -3.1773038    1.5106234   445463 
 4169000    1.0223305   -3.1783584   -1.6668981  0.071799607   -3.1783584    1.5114603   445461 
 4170000     1.023029   -3.1782655   -1.6657963  0.066219099   -3.1782655    1.5124692   445468 
 4171000    1.0244442   -3.1792614   -1.6646455  0.074572707   -3.1792614    1.5146159   445452 
 4172000    1.0243634   -3.1786561    -1.664146  0.072088866   -3.1786561    1.5145101   445448 
 4173000    1.0245533   -3.1794393   -1.6647097   0.07490532   -3.1794393    1.5147296   445466 
 4174000    1.0243294   -3.1772464   -1.6629599  0.075656384   -3.1772464    1.5142865   445499 
 4175000    1.0258355   -3.1791301   -1.6626341  0.074350121   -3.1791301     1.516496   445504 
 4176000    1.0243377   -3.1769212   -1.6626904  0.076329812   -3.1769212    1.5142308   445519 
 4177000    1.0251588   -3.1775653   -1.6621173  0.069576529   -3.1775653     1.515448   445518 
 4178000    1.0269233   -3.1791472    -1.661101  0.074652252   -3.1791472    1.5180462   445521 
 4179000    1.0259688   -3.1787543   -1.6623132  0.071742315   -3.1787543    1.5164411   445578 
 4180000    1.0251723   -3.1768617   -1.6615265  0.075512318   -3.1768617    1.5153352   445557 
 4181000    1.0251626   -3.1761961   -1.6608037  0.079454097   -3.1761961    1.5153924   445536 
 4182000    1.0249738   -3.1777326   -1.6627282  0.070007136   -3.1777326    1.5150044   445568 
 4183000    1.0248599   -3.1782335   -1.6634314  0.067805254   -3.1782335    1.5148021   445578 
 4184000    1.0240674   -3.1762875   -1.6626805  0.075454097   -3.1762875     1.513607   445585 
 4185000    1.0239251   -3.1771995   -1.6636874  0.071381863   -3.1771995    1.5135121   445551 
 4186000    1.0228867   -3.1759095   -1.6638916  0.069911177   -3.1759095    1.5120179   445539 
 4187000    1.0228922   -3.1760473   -1.6640112  0.071908463   -3.1760473    1.5120362   445536 
 4188000    1.0221064   -3.1751652   -1.6643075  0.069464965   -3.1751652    1.5108577   445541 
 4189000    1.0254608   -3.1793059   -1.6634898  0.071252374   -3.1793059    1.5158161   445541 
 4190000    1.0226021   -3.1754979   -1.6639516   0.07352306   -3.1754979    1.5115463   445554 
 4191000    1.0235013   -3.1761909   -1.6633731  0.070689292   -3.1761909    1.5128177   445571 
 4192000    1.0236636   -3.1759933   -1.6629152  0.072740041   -3.1759933    1.5130781   445565 
 4193000     1.023699   -3.1756381   -1.6625078  0.068829331   -3.1756381    1.5131303   445565 
 4194000    1.0255003   -3.1762507   -1.6604239  0.071805826   -3.1762507    1.5158268   445555 
 4195000    1.0252677   -3.1761595   -1.6606697  0.071002374   -3.1761595    1.5154898   445553 
 4196000    1.0253857   -3.1783647    -1.662663  0.074086482   -3.1783647    1.5157017   445542 
 4197000    1.0242473   -3.1767016   -1.6626554  0.073093226   -3.1767016    1.5140461   445534 
 4198000    1.0260329   -3.1777338   -1.6610958  0.074040385   -3.1777338     1.516638   445548 
 4199000    1.0233911   -3.1752893   -1.6626616  0.069731597   -3.1752893    1.5126277   445579 
 4200000    1.0244915   -3.1761879   -1.6619643  0.073763519   -3.1761879    1.5142236   445588 
 4201000    1.0238133   -3.1769366   -1.6636612  0.071587302   -3.1769366    1.5132755   445572 
 4202000    1.0235988   -3.1750669   -1.6622476   0.06952567   -3.1750669    1.5128193   445613 
 4203000    1.0257324   -3.1779506   -1.6620223  0.078254099   -3.1779506    1.5159283   445626 
 4204000    1.0257489   -3.1797344   -1.6637545  0.073555961   -3.1797344    1.5159799   445618 
 4205000    1.0233468   -3.1755894   -1.6630984  0.067022165   -3.1755894     1.512491   445600 
 4206000    1.0243391   -3.1769307   -1.6628644  0.073391695   -3.1769307    1.5140663   445568 
 4207000    1.0237151   -3.1766942   -1.6636792  0.074580589   -3.1766942     1.513015   445606 
 4208000    1.0256738   -3.1802295   -1.6644491  0.071496798   -3.1802295    1.5157805   445644 
 4209000     1.023767    -3.177616   -1.6647484  0.070359529    -3.177616    1.5128676   445672 
 4210000    1.0240168   -3.1779088   -1.6648079  0.074376945   -3.1779088    1.5131009   445712 
 4211000    1.0240413   -3.1785076   -1.6652925  0.076833837   -3.1785076    1.5132151   445689 
 4212000    1.0258523    -3.181218   -1.6652621  0.068463681    -3.181218    1.5159559   445670 
 4213000    1.0261678   -3.1821272   -1.6657289  0.076469895   -3.1821272    1.5163983   445677 
 4214000     1.024667   -3.1805261    -1.666461  0.073580318   -3.1805261     1.514065   445711 
 4215000    1.0245814   -3.1804409   -1.6663563  0.069380621   -3.1804409    1.5140846   445668 
 4216000    1.0237786   -3.1803429   -1.6674209  0.069689888   -3.1803429    1.5129221   445661 
 4217000    1.0246805    -3.180024   -1.6657114  0.074744783    -3.180024    1.5143126   445644 
 4218000    1.0250313   -3.1807412   -1.6660189  0.076648978   -3.1807412    1.5147223   445676 
 4219000    1.0256464   -3.1820111   -1.6663119   0.07328827   -3.1820111    1.5156992   445656 
 4220000    1.0269842   -3.1830602   -1.6654044  0.073536387   -3.1830602    1.5176558   445662 
 4221000    1.0263908   -3.1813516   -1.6646679  0.083240349   -3.1813516    1.5166837   445690 
 4222000    1.0257708   -3.1799703   -1.6641892  0.075251531   -3.1799703    1.5157811   445686 
 4223000    1.0272804   -3.1819231   -1.6640441  0.078974609   -3.1819231     1.517879   445725 
 4224000    1.0269894   -3.1810564   -1.6635803  0.077029261   -3.1810564    1.5174762   445717 
 4225000    1.0272814   -3.1814568     -1.66343  0.078704285   -3.1814568    1.5180268   445682 
 4226000    1.0265446   -3.1813559   -1.6643837  0.077812703   -3.1813559    1.5169721   445672 
 4227000    1.0267077   -3.1819537   -1.6647065  0.076947562   -3.1819537    1.5172472   445662 
 4228000    1.0268666   -3.1814463   -1.6638349  0.074202242   -3.1814463    1.5176114   445624 
 4229000    1.0268823   -3.1807126    -1.663129  0.074207764   -3.1807126    1.5175836   445639 
 4230000    1.0262363   -3.1806122   -1.6638677  0.069880732   -3.1806122    1.5167445   445605 
 4231000    1.0254482   -3.1789265   -1.6632956  0.077264115   -3.1789265    1.5156308   445590 
 4232000    1.0233591   -3.1769719   -1.6643916  0.070287773   -3.1769719    1.5125804   445579 
 4233000    1.0254328   -3.1802132   -1.6646561  0.069116586   -3.1802132     1.515557   445605 
 4234000    1.0253944    -3.179745   -1.6642788  0.071644441    -3.179745    1.5154662   445615 
 4235000    1.0251164   -3.1788639   -1.6640023   0.07235785   -3.1788639    1.5148616   445672 
 4236000    1.0250657   -3.1790232   -1.6640562  0.074916767   -3.1790232    1.5149669   445619 
 4237000     1.024565   -3.1788886    -1.664638  0.072116321   -3.1788886    1.5142506   445612 
 4238000     1.023537   -3.1775209   -1.6648949   0.07244442   -3.1775209     1.512626   445643 
 4239000    1.0247655   -3.1789303   -1.6646416   0.06891781   -3.1789303    1.5142887   445688 
 4240000    1.0233014     -3.17607   -1.6639652  0.070732093     -3.17607    1.5121048   445694 
 4241000    1.0229134   -3.1753772   -1.6636625  0.068469418   -3.1753772    1.5117147   445640 
 4242000    1.0247585   -3.1784196   -1.6639577  0.071119081   -3.1784196    1.5144619   445634 
 4243000    1.0245245   -3.1764089   -1.6623608  0.068145869   -3.1764089    1.5140481   445654 
 4244000    1.0258572    -3.178576   -1.6625074  0.068530172    -3.178576    1.5160686   445639 
 4245000    1.0244653   -3.1758263   -1.6619981  0.072243669   -3.1758263    1.5138281   445693 
 4246000    1.0255167   -3.1767545   -1.6613353  0.072860909   -3.1767545    1.5154192   445682 
 4247000    1.0263565    -3.178429   -1.6617042  0.071845202    -3.178429    1.5167248   445663 
 4248000    1.0266527   -3.1795991   -1.6624093  0.077975388   -3.1795991    1.5171898   445655 
 4249000    1.0270147    -3.179626   -1.6620136  0.070893887    -3.179626    1.5176124   445688 
 4250000    1.0249316   -3.1770796   -1.6625658  0.077416819   -3.1770796    1.5145137   445694 
 4251000    1.0249606   -3.1764461   -1.6619167  0.072712737   -3.1764461    1.5145294   445702 
 4252000    1.0259159   -3.1797608   -1.6639117  0.070903967   -3.1797608    1.5158491   445729 
 4253000    1.0256473    -3.178655   -1.6631482  0.073570903    -3.178655    1.5155068   445713 
 4254000    1.0235121   -3.1758656   -1.6633985  0.071658583   -3.1758656    1.5124671   445679 
 4255000       1.0248   -3.1784102   -1.6639311  0.074030146   -3.1784102    1.5144791   445647 
 4256000    1.0243216   -3.1784383   -1.6647105  0.068723979   -3.1784383    1.5137278   445660 
 4257000    1.0248579   -3.1818605   -1.6673606  0.071496554   -3.1818605       1.5145   445666 
 4258000    1.0234388    -3.179368    -1.666999  0.074014512    -3.179368    1.5123689   445676 
 4259000    1.0242898   -3.1800291   -1.6665826  0.070618066   -3.1800291    1.5134465   445729 
 4260000     1.024721   -3.1807299   -1.6666769  0.071895332   -3.1807299    1.5140531   445738 
 4261000    1.0243446   -3.1811202   -1.6675926  0.068919194   -3.1811202    1.5135275   445729 
 4262000     1.025881    -3.182483    -1.666733  0.071096416    -3.182483      1.51575   445743 
 4263000    1.0263746   -3.1837272   -1.6673159  0.071904655   -3.1837272    1.5164113   445763 
 4264000    1.0249618   -3.1809674   -1.6667216  0.075000816   -3.1809674    1.5142459   445786 
 4265000    1.0258782   -3.1832895   -1.6676491  0.077514108   -3.1832895    1.5156404   445774 
 4266000    1.0251999   -3.1820392   -1.6675334  0.070890875   -3.1820392    1.5145058   445813 
 4267000     1.025743   -3.1828067   -1.6675664  0.071636845   -3.1828067    1.5152403   445833 
 4268000    1.0254725   -3.1832947    -1.668342  0.073434063   -3.1832947    1.5149527   445800 
 4269000    1.0232305   -3.1798961   -1.6683166  0.071694191   -3.1798961    1.5115795   445818 
 4270000    1.0257131   -3.1837723   -1.6685286  0.072933464   -3.1837723    1.5152437   445819 
 4271000     1.024027   -3.1822099   -1.6694944  0.078340269   -3.1822099    1.5127155   445830 
 4272000    1.0265074   -3.1840372   -1.6678073  0.071133629   -3.1840372      1.51623   445874 
 4273000     1.026648   -3.1845706   -1.6682009  0.077073307   -3.1845706    1.5163697   445894 
 4274000    1.0267378   -3.1843067   -1.6678248  0.074396909   -3.1843067    1.5164819   445900 
 4275000    1.0259471   -3.1846662   -1.6692775  0.066599222   -3.1846662    1.5153887   445878 
 4276000    1.0258346   -3.1826555   -1.6674907  0.075845709   -3.1826555    1.5151647   445895 
 4277000    1.0252214    -3.181776   -1.6676527  0.071483608    -3.181776    1.5141232   445935 
 4278000    1.0266958   -3.1845849   -1.6681652  0.075087596   -3.1845849    1.5164197   445900 
 4279000    1.0269069   -3.1834639   -1.6667969  0.075883607   -3.1834639     1.516667   445919 
 4280000    1.0268182   -3.1820397   -1.6656466  0.072980278   -3.1820397    1.5163932   445961 
 4281000    1.0253284   -3.1807297    -1.666591  0.075855199   -3.1807297    1.5141387   445977 
 4282000    1.0242405   -3.1811243   -1.6686092  0.071338033   -3.1811243    1.5125152   445982 
 4283000    1.0264468   -3.1847009   -1.6688664  0.073034095   -3.1847009    1.5158345   445964 
 4284000    1.0253783   -3.1837763   -1.6695639  0.073308726   -3.1837763    1.5142124   445977 
 4285000    1.0240109   -3.1814097     -1.66922  0.069829667   -3.1814097    1.5121897   445978 
 4286000    1.0239891   -3.1811939   -1.6689381  0.075693772   -3.1811939    1.5122558   445949 
 4287000    1.0236937   -3.1799923   -1.6682338  0.074700963   -3.1799923    1.5117586   445967 
 4288000    1.0227818   -3.1801954   -1.6697123  0.073811123   -3.1801954    1.5104831   445946 
 4289000    1.0239941     -3.18176   -1.6695476  0.068436535     -3.18176    1.5122124   445964 
 4290000    1.0229645   -3.1796256   -1.6688525  0.073304221   -3.1796256    1.5107732   445940 
 4291000    1.0252871   -3.1835101   -1.6693305  0.073198068   -3.1835101    1.5141796   445947 
 4292000    1.0256436   -3.1836528   -1.6691268  0.070396138   -3.1836528     1.514526   446000 
 4293000    1.0234566   -3.1802658   -1.6690641   0.07706214   -3.1802658    1.5112017   446028 
 4294000    1.0253908   -3.1818336   -1.6677929  0.074924121   -3.1818336    1.5140407   446033 
 4295000    1.0260866   -3.1820245   -1.6670584    0.0723731   -3.1820245    1.5149662   446063 
 4296000     1.024674    -3.180742   -1.6679021  0.075695109    -3.180742    1.5128399   446075 
 4297000    1.0265129   -3.1824292   -1.6670341  0.066914388   -3.1824292    1.5153951   446122 
 4298000    1.0266595   -3.1845828   -1.6690221  0.072498691   -3.1845828    1.5155607   446137 
 4299000    1.0248727   -3.1821287   -1.6692499  0.068695363   -3.1821287    1.5128789   446150 
 4300000    1.0259704   -3.1842359   -1.6697807  0.065244613   -3.1842359    1.5144552   446163 
 4301000    1.0242933   -3.1822158   -1.6702601   0.07186772   -3.1822158    1.5119558   446170 
 4302000    1.0240758     -3.18192   -1.6703971  0.070980057     -3.18192    1.5115229   446203 
 4303000    1.0247821   -3.1821786   -1.6695555   0.07248094   -3.1821786     1.512623   446186 
 4304000    1.0243261   -3.1825609   -1.6706583  0.069459661   -3.1825609    1.5119025   446200 
 4305000    1.0251497   -3.1838824   -1.6708218  0.064623602   -3.1838824    1.5130606   446217 
 4306000     1.024467   -3.1820408   -1.6699099    0.0688487   -3.1820408    1.5121309   446194 
 4307000    1.0252616   -3.1829544   -1.6697151  0.074699734   -3.1829544    1.5132393   446213 
 4308000    1.0255175   -3.1833999   -1.6698473  0.067390474   -3.1833999    1.5135526   446232 
 4309000      1.02795   -3.1848567   -1.6677889  0.068622349   -3.1848567    1.5170678   446254 
 4310000    1.0267526    -3.183987   -1.6688018  0.074180175    -3.183987    1.5151852   446288 
 4311000    1.0273068   -3.1842898   -1.6683071  0.069630273   -3.1842898    1.5159827   446294 
 4312000    1.0273542   -3.1835442   -1.6674407  0.073295387   -3.1835442    1.5161036   446279 
 4313000    1.0267071   -3.1828219   -1.6677989  0.076484686   -3.1828219     1.515023   446316 
 4314000    1.0285736   -3.1847413   -1.6669911  0.075780769   -3.1847413    1.5177501   446324 
 4315000    1.0281165   -3.1831627   -1.6661041   0.07246037   -3.1831627    1.5170586   446329 
 4316000    1.0274854   -3.1829775   -1.6667516  0.077305505   -3.1829775    1.5162259   446300 
 4317000    1.0269915   -3.1834397   -1.6679902  0.072905404   -3.1834397    1.5154495   446314 
 4318000    1.0265363   -3.1829978   -1.6683795  0.074885933   -3.1829978    1.5146183   446361 
 4319000    1.0260741   -3.1841406   -1.6701771  0.077145399   -3.1841406    1.5139635   446353 
 4320000    1.0266457   -3.1848142   -1.6699903  0.072830293   -3.1848142    1.5148239   446348 
 4321000    1.0251618   -3.1813591   -1.6688704  0.075907663   -3.1813591    1.5124887   446391 
 4322000    1.0262973   -3.1823431   -1.6682741  0.071332805   -3.1823431     1.514069   446419 
 4323000    1.0259657   -3.1829737   -1.6695465  0.071698005   -3.1829737    1.5134272   446464 
 4324000    1.0241585   -3.1816258   -1.6708611  0.075081617   -3.1816258    1.5107647   446463 
 4325000    1.0261872   -3.1826505   -1.6689136  0.072102142   -3.1826505    1.5137369   446469 
 4326000    1.0259691   -3.1832732   -1.6698072  0.069206923   -3.1832732     1.513466   446454 
 4327000    1.0262708    -3.183875   -1.6700011  0.071590264    -3.183875    1.5138739   446465 
 4328000    1.0263303   -3.1826696   -1.6687079  0.072192698   -3.1826696    1.5139617   446465 
 4329000    1.0276448   -3.1847669   -1.6688594  0.070501163   -3.1847669    1.5159074   446463 
 4330000    1.0267951   -3.1832199   -1.6685862  0.070662606   -3.1832199    1.5146337   446469 
 4331000    1.0267789   -3.1821382   -1.6675555  0.072375388   -3.1821382    1.5145827   446477 
 4332000    1.0273072   -3.1824047   -1.6671106  0.072129381   -3.1824047    1.5152941   446497 
 4333000    1.0272116   -3.1808867   -1.6657608   0.07217174   -3.1808867    1.5151259   446505 
 4334000    1.0270581   -3.1826242   -1.6676535    0.0697041   -3.1826242    1.5149707   446484 
 4335000    1.0259093   -3.1819081   -1.6687845  0.069609379   -3.1819081    1.5131237   446529 
 4336000    1.0264681   -3.1824264    -1.668465  0.069665916   -3.1824264    1.5139614   446525 
 4337000    1.0252592   -3.1825419   -1.6704346  0.068080206   -3.1825419    1.5121073   446546 
 4338000    1.0270665   -3.1846265   -1.6699318  0.067031151   -3.1846265    1.5146947   446569 
 4339000    1.0266965   -3.1836931   -1.6694559  0.075179301   -3.1836931    1.5142373   446543 
 4340000    1.0265193   -3.1845715   -1.6705345  0.076227199   -3.1845715     1.514037   446525 
 4341000    1.0269461   -3.1841036    -1.669505  0.074124018   -3.1841036    1.5145986   446545 
 4342000    1.0253213   -3.1823606   -1.6702328  0.067475302   -3.1823606    1.5121278   446567 
 4343000    1.0264188   -3.1843815   -1.6705538  0.071059198   -3.1843815    1.5138276   446543 
 4344000    1.0268548   -3.1850792   -1.6707645  0.070906092   -3.1850792    1.5143147   446589 
 4345000    1.0278494   -3.1850354   -1.6693693   0.06891977   -3.1850354    1.5156661   446623 
 4346000    1.0292471   -3.1880636   -1.6704859  0.073199812   -3.1880636    1.5175776   446667 
 4347000    1.0275641     -3.18658   -1.6715077  0.076557892     -3.18658    1.5150724   446674 
 4348000    1.0283944   -3.1865507   -1.6702032  0.067541553   -3.1865507    1.5163475   446659 
 4349000    1.0296168   -3.1877164   -1.6696379  0.069878025   -3.1877164    1.5180785   446680 
 4350000     1.028526   -3.1855416    -1.669163  0.074558614   -3.1855416    1.5163786   446707 
 4351000    1.0285602   -3.1859801   -1.6696088  0.077501702   -3.1859801    1.5163713   446724 
 4352000    1.0274924   -3.1850322   -1.6702386  0.073847262   -3.1850322    1.5147936   446725 
 4353000    1.0286929   -3.1870527   -1.6705094  0.069851043   -3.1870527    1.5165432   446731 
 4354000    1.0288372    -3.186067   -1.6693722  0.073076935    -3.186067    1.5166948   446749 
 4355000    1.0282198   -3.1857621   -1.6699672  0.081082558   -3.1857621    1.5157948   446746 
 4356000    1.0263997   -3.1845912   -1.6714727  0.073511361   -3.1845912    1.5131185   446744 
 4357000    1.0274827   -3.1871653   -1.6723214  0.072492262   -3.1871653    1.5148438   446706 
 4358000    1.0280694   -3.1877239   -1.6719812  0.075156365   -3.1877239    1.5157427   446696 
 4359000    1.0279514   -3.1882553   -1.6726152  0.072525975   -3.1882553    1.5156401   446675 
 4360000    1.0258932   -3.1852805   -1.6724482  0.071768039   -3.1852805    1.5128323   446608 
 4361000    1.0274971   -3.1855579   -1.6705437  0.074454083   -3.1855579    1.5150142   446662 
 4362000    1.0277713   -3.1861238   -1.6706034  0.071847572   -3.1861238    1.5155204   446632 
 4363000    1.0272902   -3.1851936   -1.6702537  0.073743934   -3.1851936    1.5149399   446594 
 4364000    1.0263209   -3.1851831   -1.6716963  0.071286412   -3.1851831    1.5134868   446601 
 4365000    1.0267545   -3.1862153   -1.6719738  0.073013277   -3.1862153    1.5142415   446567 
 4366000    1.0262586   -3.1850735   -1.6714888   0.07543938   -3.1850735    1.5135847   446545 
 4367000    1.0268227   -3.1849121   -1.6704413  0.076081076   -3.1849121    1.5144709   446529 
 4368000    1.0286306   -3.1882914   -1.6712186  0.068632539   -3.1882914    1.5170727   446548 
 4369000    1.0272124   -3.1870292   -1.6722379  0.071159946   -3.1870292    1.5147913   446604 
 4370000    1.0271848   -3.1863182   -1.6714999  0.069290378   -3.1863182    1.5148183   446584 
 4371000    1.0256505   -3.1827614   -1.6702294  0.068452556   -3.1827614     1.512532   446591 
 4372000    1.0269859    -3.184668   -1.6702311   0.06951897    -3.184668    1.5144369   446610 
 4373000    1.0278027   -3.1853108   -1.6697746  0.066447273   -3.1853108    1.5155362   446641 
 4374000    1.0257679   -3.1837915   -1.6713505  0.066194129   -3.1837915     1.512441   446669 
 4375000    1.0269543   -3.1845564   -1.6704102   0.06736197   -3.1845564    1.5141462   446682 
 4376000    1.0269506   -3.1830057    -1.668926  0.066574026   -3.1830057    1.5140797   446700 
 4377000    1.0254898   -3.1811824   -1.6691855  0.075322437   -3.1811824     1.511997   446679 
 4378000    1.0251989   -3.1804343    -1.668873  0.075283012   -3.1804343    1.5115614   446681 
 4379000    1.0261738   -3.1823192   -1.6693373  0.067252687   -3.1823192    1.5129819   446686 
 4380000    1.0252274   -3.1820749   -1.6705324  0.070471431   -3.1820749    1.5115425   446699 
 4381000    1.0271697   -3.1847101   -1.6703175  0.069145182   -3.1847101    1.5143925   446703 
 4382000    1.0255099   -3.1832988   -1.6713263  0.072186703   -3.1832988    1.5119725   446695 
 4383000    1.0245035   -3.1834409   -1.6729352  0.070372953   -3.1834409    1.5105056   446690 
 4384000    1.0253078   -3.1838164     -1.67224  0.070053894   -3.1838164    1.5115764   446724 
 4385000    1.0260453   -3.1845013   -1.6718443  0.069667893   -3.1845013     1.512657   446726 
 4386000    1.0267759    -3.186167   -1.6723448  0.070289092    -3.186167    1.5138222   446700 
 4387000    1.0275491   -3.1873015   -1.6722614  0.072200771   -3.1873015    1.5150401   446677 
 4388000    1.0265522   -3.1858152   -1.6723026  0.077133209   -3.1858152    1.5135126   446694 
 4389000     1.027417   -3.1854661   -1.6705734  0.074704323   -3.1854661    1.5148927   446663 
 4390000    1.0293193   -3.1876583   -1.6699233  0.075890382   -3.1876583     1.517735   446652 
 4391000    1.0277763   -3.1859594    -1.670625   0.06928302   -3.1859594    1.5153344   446689 
 4392000    1.0278406   -3.1870756   -1.6715719  0.076882849   -3.1870756    1.5155037   446667 
 4393000    1.0285206   -3.1882651   -1.6718368  0.080884445   -3.1882651    1.5164283   446690 
 4394000    1.0303541   -3.1910225   -1.6718398    0.0736173   -3.1910225    1.5191827   446675 
 4395000    1.0290993   -3.1901499   -1.6728921  0.075290445   -3.1901499    1.5172578   446697 
 4396000     1.028477   -3.1905255   -1.6741513   0.07946272   -3.1905255    1.5163742   446687 
 4397000     1.027115   -3.1888918   -1.6744307  0.074890262   -3.1888918    1.5144611   446659 
 4398000    1.0260874   -3.1874269   -1.6745386  0.076951988   -3.1874269    1.5128882   446676 
 4399000    1.0283986   -3.1905136   -1.6743907  0.072328325   -3.1905136    1.5161228   446727 
 4400000    1.0283403   -3.1894213   -1.6734997  0.074607578   -3.1894213    1.5159216   446761 
 4401000    1.0271326   -3.1873679   -1.6732673  0.073833501   -3.1873679    1.5141006   446773 
 4402000    1.0287669   -3.1902837   -1.6739098  0.071048941   -3.1902837    1.5163739   446813 
 4403000    1.0273778   -3.1892477   -1.6751415  0.070754634   -3.1892477    1.5141062   446878 
 4404000    1.0275285   -3.1894643   -1.6751868  0.075781727   -3.1894643    1.5142775   446893 
 4405000    1.0266391   -3.1890986   -1.6761421  0.068538763   -3.1890986    1.5129565   446896 
 4406000    1.0264612   -3.1884592   -1.6758731  0.069681595   -3.1884592    1.5125861   446928 
 4407000    1.0268593   -3.1884335   -1.6753658  0.069343844   -3.1884335    1.5130677   446959 
 4408000    1.0278741   -3.1884216   -1.6739093  0.069498779   -3.1884216    1.5145123   446974 
 4409000    1.0270489   -3.1876489     -1.67419  0.073798037   -3.1876489    1.5134588   446926 
 4410000    1.0275784   -3.1860274   -1.6719136  0.074999849   -3.1860274    1.5141138   446963 
 4411000    1.0286683   -3.1872232   -1.6715678  0.071423705   -3.1872232    1.5156554   446982 
 4412000    1.0285605   -3.1879135   -1.6724984  0.078508401   -3.1879135    1.5154151   447006 
 4413000    1.0281296   -3.1873087   -1.6724335   0.07747324   -3.1873087    1.5148752   446978 
 4414000    1.0267071   -3.1843976   -1.6717436  0.075557989   -3.1843976     1.512654   447015 
 4415000    1.0283338     -3.18672    -1.671683  0.075475797     -3.18672     1.515037   447019 
 4416000    1.0296475   -3.1884388   -1.6716089  0.071175264   -3.1884388      1.51683   447061 
 4417000    1.0296406   -3.1870969   -1.6703075  0.073947344   -3.1870969    1.5167893   447070 
 4418000    1.0292458   -3.1854615   -1.6692978  0.072637581   -3.1854615    1.5161637   447083 
 4419000    1.0311988   -3.1880881   -1.6690101  0.076674616   -3.1880881     1.519078   447072 
 4420000    1.0293565   -3.1859549   -1.6695842  0.076230156   -3.1859549    1.5163707   447070 
 4421000    1.0294441   -3.1862907   -1.6698484  0.073999263   -3.1862907    1.5164422   447087 
 4422000    1.0311713   -3.1891504   -1.6702352  0.069812873   -3.1891504    1.5189152   447108 
 4423000    1.0276815   -3.1840838   -1.6702989   0.07407597   -3.1840838    1.5137849   447105 
 4424000    1.0279986   -3.1851935   -1.6709348  0.074409064   -3.1851935    1.5142587   447103 
 4425000    1.0260846   -3.1833537   -1.6718333  0.073376222   -3.1833537    1.5115204   447079 
 4426000    1.0252292   -3.1826342   -1.6723401  0.072780525   -3.1826342    1.5102941   447069 
 4427000     1.025399   -3.1822425    -1.671678  0.070423563   -3.1822425    1.5105645   447063 
 4428000    1.0266617   -3.1854485   -1.6730135  0.066010943   -3.1854485    1.5124349   447060 
 4429000    1.0251206    -3.182778   -1.6727789  0.065810168    -3.182778    1.5099991   447109 
 4430000    1.0261227   -3.1856356   -1.6741199  0.071277857   -3.1856356    1.5115157   447097 
 4431000    1.0254528    -3.183621   -1.6730177  0.064516963    -3.183621    1.5106033   447075 
 4432000    1.0260942   -3.1858805   -1.6744135  0.066089198   -3.1858805     1.511467   447099 
 4433000    1.0270267     -3.18625   -1.6735244  0.072029353     -3.18625    1.5127256   447133 
 4434000    1.0274171   -3.1862799    -1.673047  0.070960114   -3.1862799    1.5132329   447153 
 4435000     1.027615   -3.1873088   -1.6737709  0.069054427   -3.1873088    1.5135379   447149 
 4436000    1.0268159   -3.1858279   -1.6735617  0.070193591   -3.1858279    1.5122663   447177 
 4437000    1.0268759    -3.186298   -1.6739332  0.071410791    -3.186298    1.5123648   447174 
 4438000     1.026587   -3.1855373   -1.6736115  0.069908322   -3.1855373    1.5119257   447178 
 4439000    1.0276267   -3.1862393   -1.6728433  0.073331935   -3.1862393     1.513396   447196 
 4440000    1.0275336   -3.1851767   -1.6719752  0.077390896   -3.1851767    1.5132015   447213 
 4441000    1.0282311    -3.186644   -1.6722902  0.078434469    -3.186644    1.5143539   447176 
 4442000    1.0276099   -3.1870504   -1.6735708  0.077042493   -3.1870504    1.5134796   447164 
 4443000    1.0282687   -3.1872408   -1.6727063  0.076202403   -3.1872408    1.5145346   447139 
 4444000    1.0265566   -3.1842093   -1.6721559  0.078161433   -3.1842093    1.5120534   447127 
 4445000    1.0280729   -3.1863145   -1.6720582  0.074801882   -3.1863145    1.5142563   447136 
 4446000    1.0297729   -3.1893067   -1.6725633  0.072635602   -3.1893067    1.5167433   447141 
 4447000    1.0291164   -3.1877484   -1.6719145  0.079463681   -3.1877484     1.515834   447124 
 4448000    1.0279381   -3.1868564   -1.6728188  0.073833228   -3.1868564    1.5140376   447142 
 4449000    1.0295267   -3.1902115   -1.6736815  0.073957114   -3.1902115      1.51653   447097 
 4450000    1.0277281   -3.1886368   -1.6747157  0.064273445   -3.1886368    1.5139211   447085 
 4451000    1.0281644   -3.1900986   -1.6755246  0.065611129   -3.1900986    1.5145741   447082 
 4452000    1.0269482   -3.1878334   -1.6751388  0.069581863   -3.1878334    1.5126945   447108 
 4453000    1.0266607   -3.1877144   -1.6755381  0.070575084   -3.1877144    1.5121763   447136 
 4454000    1.0260162   -3.1864909   -1.6753787  0.069875216   -3.1864909    1.5111121   447170 
 4455000    1.0254556   -3.1866545    -1.676422  0.068905752   -3.1866545    1.5102325   447186 
 4456000    1.0268844   -3.1871174   -1.6748889  0.070479427   -3.1871174    1.5122284   447218 
 4457000    1.0280411   -3.1886152   -1.6747477   0.07256039   -3.1886152    1.5138675   447237 
 4458000    1.0272619   -3.1873837   -1.6746432  0.069565942   -3.1873837    1.5127405   447231 
 4459000    1.0269301   -3.1861109   -1.6738556  0.069606925   -3.1861109    1.5122553   447230 
 4460000    1.0285945   -3.1889839   -1.6742811  0.066906093   -3.1889839    1.5147028   447231 
 4461000    1.0273938   -3.1866372   -1.6737431  0.073517317   -3.1866372    1.5128941   447243 
 4462000    1.0278932   -3.1875613   -1.6738676  0.075202423   -3.1875613    1.5136937   447224 
 4463000    1.0264097   -3.1860195   -1.6746388  0.072655122   -3.1860195    1.5113808   447262 
 4464000    1.0279627   -3.1884159   -1.6748228  0.071085765   -3.1884159    1.5135931   447284 
 4465000    1.0277841   -3.1881927   -1.6749371  0.069018852   -3.1881927    1.5132556   447306 
 4466000    1.0279026   -3.1899303   -1.6765205  0.070124182   -3.1899303    1.5134098   447312 
 4467000     1.026517   -3.1874096     -1.67605  0.069678502   -3.1874096    1.5113596   447315 
 4468000    1.0262903   -3.1872493   -1.6762877  0.075442907   -3.1872493    1.5109616   447334 
 4469000    1.0256824   -3.1873422   -1.6772519  0.070787581   -3.1873422    1.5100903   447327 
 4470000    1.0256227   -3.1885684    -1.678593  0.069487647   -3.1885684    1.5099754   447335 
 4471000    1.0254878   -3.1890145   -1.6791466  0.067680657   -3.1890145    1.5098679   447308 
 4472000    1.0254535   -3.1869406   -1.6770691  0.074139376   -3.1869406    1.5098715   447292 
 4473000     1.025721   -3.1868381   -1.6765357  0.071163639   -3.1868381    1.5103024   447281 
 4474000    1.0271985   -3.1894707   -1.6769251  0.073888842   -3.1894707    1.5125456   447261 
 4475000    1.0281242   -3.1907466   -1.6770172  0.075182883   -3.1907466    1.5137293   447314 
 4476000    1.0268373   -3.1895175   -1.6776356  0.068844622   -3.1895175    1.5118819   447300 
 4477000    1.0276216   -3.1907447   -1.6777385  0.073538635   -3.1907447    1.5130062   447309 
 4478000    1.0262908   -3.1889898   -1.6780578  0.074293206   -3.1889898     1.510932   447343 
 4479000    1.0265041   -3.1895352   -1.6783669  0.075797207   -3.1895352    1.5111683   447366 
 4480000    1.0272138   -3.1903616   -1.6780302  0.075815263   -3.1903616    1.5123314   447331 
 4481000    1.0275155   -3.1911898   -1.6783025  0.067661952   -3.1911898    1.5128872   447298 
 4482000    1.0266867   -3.1890099     -1.67737  0.072876874   -3.1890099    1.5116399   447306 
 4483000    1.0259027   -3.1888565   -1.6784622  0.073647559   -3.1888565    1.5103943   447333 
 4484000    1.0281664   -3.1900566   -1.6763904  0.075279663   -3.1900566    1.5136662   447351 
 4485000    1.0273638   -3.1886472    -1.676051  0.075263118   -3.1886472    1.5125962   447318 
 4486000    1.0286078   -3.1915946   -1.6771735  0.075008331   -3.1915946    1.5144211   447320 
 4487000    1.0282145   -3.1904597   -1.6767632  0.075469266   -3.1904597    1.5136965   447363 
 4488000    1.0282778    -3.190654   -1.6768982   0.07276665    -3.190654    1.5137558   447373 
 4489000    1.0281433   -3.1900252   -1.6766094  0.071718877   -3.1900252    1.5134158   447415 
 4490000    1.0276173   -3.1887469   -1.6760988  0.075847872   -3.1887469    1.5126482   447413 
 4491000     1.027245   -3.1894542    -1.677354  0.068666101   -3.1894542    1.5121001   447413 
 4492000    1.0258711   -3.1875218   -1.6774001  0.069682641   -3.1875218    1.5101217   447400 
 4493000    1.0279031   -3.1902438   -1.6770668  0.070463068   -3.1902438    1.5131771   447381 
 4494000    1.0265811   -3.1876385   -1.6764412  0.072230193   -3.1876385    1.5111973   447391 
 4495000    1.0293233   -3.1902487   -1.6750994  0.076052041   -3.1902487    1.5151492   447416 
 4496000    1.0262544   -3.1875939    -1.676989  0.072458173   -3.1875939    1.5106049   447424 
 4497000    1.0275166   -3.1882708   -1.6760007  0.072476124   -3.1882708    1.5122701   447481 
 4498000     1.026041   -3.1867871    -1.676709  0.074327919   -3.1867871    1.5100781   447487 
 4499000    1.0268819   -3.1885278   -1.6771547   0.07532835   -3.1885278    1.5113732   447470 
 4500000    1.0276875   -3.1890709    -1.676502  0.070311551   -3.1890709    1.5125689   447467 
 4501000    1.0265942   -3.1866157   -1.6757368  0.072238987   -3.1866157    1.5108789   447491 
 4502000    1.0264917   -3.1870373   -1.6763668  0.073094575   -3.1870373    1.5106705   447508 
 4503000    1.0276681   -3.1887343   -1.6763054  0.068044856   -3.1887343    1.5124289   447500 
 4504000     1.026506   -3.1879578   -1.6772629  0.067159793   -3.1879578    1.5106949   447507 
 4505000    1.0261894   -3.1886063    -1.678239   0.06693552   -3.1886063    1.5103674   447466 
 4506000    1.0254921   -3.1867569   -1.6774428  0.070874829   -3.1867569    1.5093142   447474 
 4507000    1.0261132   -3.1875894   -1.6774623  0.072534969   -3.1875894    1.5101271   447504 
 4508000    1.0266422   -3.1884122   -1.6776248  0.063115017   -3.1884122    1.5107874   447539 
 4509000    1.0256531   -3.1883556   -1.6789361  0.066599149   -3.1883556    1.5094195   447513 
 4510000    1.0257618   -3.1887961   -1.6791728  0.070003634   -3.1887961    1.5096233   447500 
 4511000    1.0261873   -3.1894508    -1.679208  0.067575671   -3.1894508    1.5102428   447502 
 4512000    1.0260535   -3.1885015   -1.6785095   0.06673772   -3.1885015     1.509992   447518 
 4513000    1.0262696   -3.1902107   -1.6800087  0.065954591   -3.1902107     1.510202   447550 
 4514000    1.0260987   -3.1887092   -1.6787756  0.068650457   -3.1887092    1.5099336   447555 
 4515000    1.0261792   -3.1897604   -1.6796374  0.069349719   -3.1897604     1.510123   447534 
 4516000    1.0264796   -3.1899662   -1.6795126  0.069700985   -3.1899662    1.5104537   447567 
 4517000     1.027499   -3.1915108   -1.6795537  0.071725967   -3.1915108    1.5119571   447566 
 4518000    1.0271442    -3.189571   -1.6781935  0.070500043    -3.189571    1.5113775   447583 
 4519000    1.0284432   -3.1904612   -1.6772062  0.074333245   -3.1904612    1.5132551   447593 
 4520000    1.0297665   -3.1913853    -1.676156  0.079367003   -3.1913853    1.5152293   447585 
 4521000    1.0304992   -3.1921642   -1.6758331  0.072829772   -3.1921642    1.5163311   447578 
 4522000    1.0300267   -3.1911442   -1.6755422  0.071666219   -3.1911442     1.515602   447588 
 4523000    1.0305159   -3.1927196   -1.6765773  0.072069477   -3.1927196    1.5161424   447641 
 4524000     1.029169    -3.191272   -1.6771417  0.075978781    -3.191272    1.5141302   447650 
 4525000    1.0294033   -3.1915403   -1.6770958  0.073949326   -3.1915403    1.5144445   447659 
 4526000    1.0287891   -3.1906579   -1.6770121  0.076515858   -3.1906579    1.5136457   447628 
 4527000    1.0298685   -3.1946482   -1.6794991  0.075964197   -3.1946482    1.5151492   447653 
 4528000    1.0283909   -3.1919418     -1.67898   0.07796225   -3.1919418    1.5129618   447657 
 4529000    1.0263798     -3.19025   -1.6802907  0.072334816     -3.19025    1.5099593   447670 
 4530000    1.0277644    -3.190774   -1.6789567  0.068839795    -3.190774    1.5118172   447723 
 4531000    1.0273424   -3.1896749    -1.678654  0.071120247   -3.1896749     1.511021   447775 
 4532000    1.0276667   -3.1896392   -1.6780906  0.069419713   -3.1896392    1.5115486   447760 
 4533000    1.0260038   -3.1879987   -1.6788455  0.071207393   -3.1879987    1.5091533   447745 
 4534000    1.0260911   -3.1889226   -1.6796174  0.070249267   -3.1889226    1.5093052   447738 
 4535000    1.0266379    -3.188966   -1.6788699  0.063339264    -3.188966    1.5100961   447742 
 4536000     1.027051   -3.1887535   -1.6781139  0.067627923   -3.1887535    1.5106396   447761 
 4537000    1.0268688   -3.1875663   -1.6773835  0.068980288   -3.1875663    1.5101828   447817 
 4538000    1.0274997   -3.1859418   -1.6749257  0.072575388   -3.1859418    1.5110161   447845 
 4539000    1.0272752   -3.1857411   -1.6750955  0.076142503   -3.1857411    1.5106455   447857 
 4540000     1.027833   -3.1874049   -1.6758716  0.069982678   -3.1874049    1.5115332   447837 
 4541000    1.0276806   -3.1882739   -1.6769175  0.075381467   -3.1882739    1.5113564   447823 
 4542000    1.0281614    -3.188205   -1.6762462   0.07099796    -3.188205    1.5119589   447854 
 4543000    1.0278144   -3.1884631   -1.6769673  0.069448189   -3.1884631    1.5114958   447840 
 4544000     1.027588   -3.1868892   -1.6756959  0.068353526   -3.1868892    1.5111933   447831 
 4545000    1.0273506   -3.1866082   -1.6758249  0.072768005   -3.1866082    1.5107833   447849 
 4546000    1.0285776   -3.1879845   -1.6754338  0.065556511   -3.1879845    1.5125506   447860 
 4547000    1.0271448   -3.1858204   -1.6754543  0.076783832   -3.1858204    1.5103661   447883 
 4548000    1.0273747    -3.187163   -1.6763171  0.067761999    -3.187163    1.5108459   447841 
 4549000    1.0277429   -3.1869696   -1.6756229  0.068622212   -3.1869696    1.5113468   447853 
 4550000    1.0279198   -3.1879283    -1.676355  0.068156618   -3.1879283    1.5115733   447863 
 4551000    1.0273441   -3.1875708   -1.6769318  0.074041321   -3.1875708     1.510639   447889 
 4552000    1.0275595   -3.1861768   -1.6753426  0.073522546   -3.1861768    1.5108343   447925 
 4553000    1.0288061   -3.1868071   -1.6741332  0.075461927   -3.1868071    1.5126739   447923 
 4554000    1.0287605   -3.1874612   -1.6748678  0.072391931   -3.1874612    1.5125934   447927 
 4555000    1.0293371   -3.1886906   -1.6752665  0.073035266   -3.1886906    1.5134242   447932 
 4556000    1.0276962   -3.1851407   -1.6740988  0.073922714   -3.1851407    1.5110419   447923 
 4557000    1.0303649   -3.1884504   -1.6734474  0.075468982   -3.1884504     1.515003   447912 
 4558000    1.0304708   -3.1889146   -1.6736882  0.072147616   -3.1889146    1.5152264   447892 
 4559000    1.0303728    -3.188692   -1.6735996  0.072536271    -3.188692    1.5150924   447889 
 4560000    1.0286336   -3.1871827   -1.6746814  0.075272978   -3.1871827    1.5125013   447899 
 4561000     1.028542   -3.1887375   -1.6764148  0.071991088   -3.1887375    1.5123226   447912 
 4562000    1.0296323   -3.1907013   -1.6768498  0.070144984   -3.1907013    1.5138515   447934 
 4563000    1.0276701   -3.1883198   -1.6773735  0.071411295   -3.1883198    1.5109463   447940 
 4564000    1.0304692   -3.1935935   -1.6786299  0.060823399   -3.1935935    1.5149635   447969 
 4565000    1.0287623   -3.1899146   -1.6775618  0.068702825   -3.1899146    1.5123528   447999 
 4566000    1.0282491   -3.1896352   -1.6778951  0.072126081   -3.1896352    1.5117401   447957 
 4567000    1.0290044   -3.1914141   -1.6785939  0.069331304   -3.1914141    1.5128202   447966 
 4568000    1.0293588   -3.1904616    -1.677063  0.078309386   -3.1904616    1.5133986   447949 
 4569000    1.0311847   -3.1932189   -1.6771358  0.069880572   -3.1932189    1.5160831   447949 
 4570000    1.0278182   -3.1899283    -1.678852  0.078000265   -3.1899283    1.5110763   447966 
 4571000    1.0304678   -3.1922361   -1.6773389  0.071699115   -3.1922361    1.5148972   447988 
 4572000    1.0305459   -3.1910681   -1.6762521  0.072847809   -3.1910681     1.514816   448046 
 4573000    1.0310928   -3.1928106    -1.677282   0.07445408   -3.1928106    1.5155286   448073 
 4574000    1.0295257   -3.1912194   -1.6780145  0.078840086   -3.1912194    1.5132049   448079 
 4575000    1.0299227   -3.1917752   -1.6780847  0.070215103   -3.1917752    1.5136905   448108 
 4576000    1.0293562    -3.191697   -1.6788493  0.066005692    -3.191697    1.5128478   448111 
 4577000    1.0288855   -3.1917464   -1.6796275  0.068093543   -3.1917464    1.5121188   448122 
 4578000    1.0284137   -3.1927872    -1.681328  0.064443041   -3.1927872    1.5114592   448112 
 4579000    1.0285188   -3.1917421   -1.6801353  0.065542531   -3.1917421    1.5116068   448114 
 4580000    1.0280114   -3.1918321   -1.6810688  0.064395654   -3.1918321    1.5107633   448143 
 4581000    1.0275927   -3.1917577     -1.68165  0.066752948   -3.1917577    1.5101077   448155 
 4582000    1.0280037   -3.1917024   -1.6810448  0.069445511   -3.1917024    1.5106577   448171 
 4583000    1.0276691   -3.1891274   -1.6790423  0.075479878   -3.1891274    1.5100851   448195 
 4584000    1.0270455   -3.1891862   -1.6799837  0.070317319   -3.1891862    1.5092024   448185 
 4585000    1.0276615   -3.1899739   -1.6798225  0.071244454   -3.1899739    1.5101514   448172 
 4586000    1.0280583   -3.1906749   -1.6799673  0.068343723   -3.1906749    1.5107076   448180 
 4587000    1.0302554    -3.193492   -1.6795694  0.064366665    -3.193492    1.5139226   448184 
 4588000    1.0292511   -3.1910485   -1.6786759  0.073210243   -3.1910485    1.5123726   448206 
 4589000    1.0292941   -3.1912186   -1.6787726  0.070876198   -3.1912186     1.512446   448203 
 4590000    1.0280476   -3.1895706   -1.6790102  0.067555764   -3.1895706    1.5105604   448219 
 4591000    1.0292046   -3.1906605   -1.6783529  0.076187794   -3.1906605    1.5123077   448205 
 4592000    1.0295787   -3.1908021    -1.677857  0.068548582   -3.1908021    1.5129452   448179 
 4593000    1.0287863   -3.1895864   -1.6778968  0.069106339   -3.1895864    1.5116896   448206 
 4594000    1.0283869   -3.1889263   -1.6780055  0.065633259   -3.1889263    1.5109207   448260 
 4595000     1.028781   -3.1892016   -1.6776918  0.070021825   -3.1892016    1.5115098   448257 
 4596000    1.0285236   -3.1903467   -1.6791071  0.072553631   -3.1903467    1.5112396   448225 
 4597000    1.0287379    -3.189187   -1.6777944  0.069995779    -3.189187    1.5113926   448273 
 4598000    1.0289396   -3.1889804   -1.6773926  0.068614318   -3.1889804    1.5115878   448303 
 4599000    1.0297674   -3.1900145   -1.6773827  0.064081709   -3.1900145    1.5126318   448354 
 4600000    1.0307766   -3.1894357   -1.6753148  0.068992652   -3.1894357    1.5141209   448352 
 4601000    1.0309937   -3.1889638    -1.674615  0.074673573   -3.1889638    1.5143487   448379 
 4602000    1.0310031   -3.1901467   -1.6759058  0.070282046   -3.1901467    1.5142409   448415 
 4603000     1.029777   -3.1877823   -1.6752883    0.0766477   -3.1877823    1.5124941   448399 
 4604000    1.0295637   -3.1880812   -1.6758801  0.074116677   -3.1880812    1.5122011   448393 
 4605000    1.0295649   -3.1883794   -1.6762981  0.068925485   -3.1883794    1.5120813   448429 
 4606000    1.0299567   -3.1888549   -1.6762183   0.07401571   -3.1888549    1.5126365   448435 
 4607000    1.0288874   -3.1871955    -1.676254  0.069390239   -3.1871955    1.5109415   448472 
 4608000    1.0309687   -3.1894073   -1.6754734  0.071968267   -3.1894073    1.5139339   448491 
 4609000    1.0292701   -3.1878159    -1.676491   0.07115905   -3.1878159    1.5113249   448525 
 4610000    1.0297522    -3.188842   -1.6769575  0.073165322    -3.188842    1.5118845   448569 
 4611000    1.0280539   -3.1851135   -1.6758638  0.077601994   -3.1851135    1.5092497   448611 
 4612000     1.030474    -3.189044   -1.6763021  0.070048575    -3.189044    1.5127419   448629 
 4613000    1.0290443   -3.1855395   -1.6748729  0.071556949   -3.1855395    1.5106666   448622 
 4614000    1.0289131   -3.1867984   -1.6763917  0.071659945   -3.1867984    1.5104067   448642 
 4615000    1.0304514   -3.1880369   -1.6754394   0.06537638   -3.1880369    1.5125975   448662 
 4616000    1.0293138   -3.1866387   -1.6756977  0.071176074   -3.1866387     1.510941   448658 
 4617000    1.0309791   -3.1892573   -1.6758988  0.069220216   -3.1892573    1.5133585   448666 
 4618000    1.0291019   -3.1862905    -1.675775  0.068000566   -3.1862905    1.5105154   448692 
 4619000    1.0308035   -3.1883282   -1.6752308  0.066856682   -3.1883282    1.5130974   448667 
 4620000    1.0297533    -3.187225   -1.6756153  0.077246905    -3.187225    1.5116097   448651 
 4621000    1.0294837   -3.1883922   -1.6771546  0.071305656   -3.1883922    1.5112376   448644 
 4622000    1.0292559   -3.1887331   -1.6778199  0.073088335   -3.1887331    1.5109132   448641 
 4623000    1.0309396   -3.1904301    -1.677035  0.074482252   -3.1904301    1.5133951   448638 
 4624000    1.0305997   -3.1883834   -1.6754604  0.074671187   -3.1883834    1.5129231   448630 
 4625000    1.0312673   -3.1900068   -1.6761273  0.069491848   -3.1900068    1.5138795   448637 
 4626000     1.030672   -3.1901128   -1.6771309  0.071112944   -3.1901128    1.5129819   448644 
 4627000    1.0312523   -3.1891573   -1.6753842  0.075970478   -3.1891573    1.5137731   448662 
 4628000    1.0310846   -3.1900696   -1.6765696  0.073248329   -3.1900696       1.5135   448670 
 4629000    1.0320483   -3.1906903    -1.675715  0.074007881   -3.1906903    1.5149753   448652 
 4630000    1.0323071   -3.1914191   -1.6760234  0.078627333   -3.1914191    1.5153957   448640 
 4631000    1.0323885   -3.1917366   -1.6762079  0.074049681   -3.1917366    1.5155287   448636 
 4632000    1.0319219   -3.1915287   -1.6766613  0.072515586   -3.1915287    1.5148674   448629 
 4633000    1.0316232   -3.1907671   -1.6764024  0.074698316   -3.1907671    1.5143647   448648 
 4634000    1.0333058    -3.192861   -1.6760668  0.069841489    -3.192861    1.5167942   448660 
 4635000    1.0323222   -3.1914794   -1.6762608  0.076971364   -3.1914794    1.5152187   448699 
 4636000    1.0293648   -3.1892764   -1.6784019  0.070874521   -3.1892764    1.5108744   448700 
 4637000    1.0311819   -3.1907978   -1.6772833  0.071899847   -3.1907978    1.5135145   448708 
 4638000    1.0322584   -3.1922563   -1.6770368  0.077958551   -3.1922563    1.5152195   448671 
 4639000    1.0302721   -3.1909931   -1.6787365  0.075763909   -3.1909931    1.5122566   448685 
 4640000    1.0309575   -3.1916805   -1.6784009  0.068499549   -3.1916805    1.5132797   448680 
 4641000    1.0322128   -3.1920328   -1.6769376   0.06873551   -3.1920328    1.5150952   448688 
 4642000    1.0313921   -3.1906613    -1.676872  0.071084558   -3.1906613    1.5137893   448718 
 4643000    1.0335033   -3.1921281   -1.6752266  0.075112429   -3.1921281    1.5169015   448714 
 4644000    1.0315414   -3.1901408    -1.676156  0.068431385   -3.1901408    1.5139848   448725 
 4645000    1.0325223   -3.1911241   -1.6756895  0.077292356   -3.1911241    1.5154346   448722 
 4646000      1.03247   -3.1899922   -1.6746985  0.076110255   -3.1899922    1.5152938   448741 
 4647000    1.0325043   -3.1918886   -1.6764467  0.074335126   -3.1918886     1.515442   448712 
 4648000    1.0318712   -3.1917952   -1.6771608   0.07286693   -3.1917952    1.5146344   448676 
 4649000    1.0307067   -3.1898158   -1.6768335    0.0654025   -3.1898158    1.5129823   448659 
 4650000    1.0301129   -3.1888822    -1.676839   0.06983385   -3.1888822    1.5120432   448679 
 4651000    1.0301125   -3.1881242   -1.6761422  0.071532674   -3.1881242     1.511982   448697 
 4652000    1.0307252   -3.1884349    -1.675503  0.067578178   -3.1884349    1.5129319   448682 
 4653000    1.0308022   -3.1889874   -1.6759425  0.071132886   -3.1889874    1.5130449   448682 
 4654000    1.0301999   -3.1885791   -1.6764317  0.072461967   -3.1885791    1.5121474   448686 
 4655000    1.0306838   -3.1873274   -1.6744124  0.071894514   -3.1873274     1.512915   448669 
 4656000    1.0307996   -3.1879826   -1.6749651  0.076638114   -3.1879826    1.5130175   448689 
 4657000     1.030597   -3.1874773   -1.6746999  0.069395093   -3.1874773    1.5127774   448672 
 4658000    1.0309152   -3.1885771   -1.6752753  0.072832244   -3.1885771    1.5133018   448655 
 4659000    1.0316226   -3.1889016    -1.674541  0.068768165   -3.1889016    1.5143606   448649 
 4660000     1.031069   -3.1890943   -1.6755633  0.070191755   -3.1890943    1.5135309   448654 
 4661000    1.0322378   -3.1914483   -1.6762388  0.070748506   -3.1914483    1.5152095   448665 
 4662000    1.0305139   -3.1894293   -1.6767874  0.070611127   -3.1894293    1.5126419   448676 
 4663000    1.0298003    -3.189165   -1.6775065  0.073038238    -3.189165    1.5116585   448657 
 4664000    1.0289975   -3.1889241   -1.6783699  0.072189246   -3.1889241    1.5105542   448635 
 4665000    1.0294356   -3.1892205   -1.6780939  0.070809073   -3.1892205    1.5111266   448656 
 4666000    1.0303068   -3.1896914   -1.6772085  0.070533989   -3.1896914    1.5124829   448633 
 4667000    1.0311579   -3.1911492   -1.6773764  0.074776386   -3.1911492    1.5137728   448621 
 4668000    1.0298241   -3.1891625   -1.6773915  0.071693204   -3.1891625     1.511771   448634 
 4669000    1.0311725   -3.1910843   -1.6774149    0.0733174   -3.1910843    1.5136694   448658 
 4670000    1.0315578   -3.1918191   -1.6776279  0.068381688   -3.1918191    1.5141912   448671 
 4671000    1.0309125   -3.1917164   -1.6785872   0.06787334   -3.1917164    1.5131292   448705 
 4672000    1.0320457     -3.19364    -1.678861  0.071363934     -3.19364     1.514779   448709 
 4673000    1.0315188   -3.1917644   -1.6778194  0.076175631   -3.1917644     1.513945   448727 
 4674000    1.0336909    -3.194354   -1.6772278  0.075581516    -3.194354    1.5171262   448729 
 4675000    1.0326408   -3.1934284   -1.6777827  0.075997585   -3.1934284    1.5156457   448711 
 4676000    1.0319175    -3.192991   -1.6783022  0.075627391    -3.192991    1.5146888   448680 
 4677000    1.0318138   -3.1936034   -1.6790736  0.073969269   -3.1936034    1.5145297   448682 
 4678000    1.0341896   -3.1961742   -1.6782012    0.0688975   -3.1961742     1.517973   448695 
 4679000    1.0306876    -3.192028    -1.679212  0.076989905    -3.192028    1.5128161   448700 
 4680000    1.0313601   -3.1928071   -1.6790681  0.075620337   -3.1928071     1.513739   448719 
 4681000    1.0337215   -3.1953646   -1.6781023  0.070639305   -3.1953646    1.5172623   448702 
 4682000    1.0312703   -3.1935569   -1.6799261  0.073345334   -3.1935569    1.5136308   448712 
 4683000    1.0320053   -3.1934474   -1.6787446  0.072558373   -3.1934474    1.5147028   448714 
 4684000    1.0316048   -3.1937885   -1.6796668  0.071015413   -3.1937885    1.5141217   448712 
 4685000    1.0319921   -3.1949328    -1.680229  0.070684571   -3.1949328    1.5147038   448708 
 4686000      1.03019     -3.19089   -1.6789695  0.074143616     -3.19089    1.5119205   448749 
 4687000    1.0301652   -3.1921726   -1.6802042  0.073658005   -3.1921726    1.5119684   448724 
 4688000    1.0294631   -3.1912164   -1.6803762  0.072651945   -3.1912164    1.5108402   448753 
 4689000    1.0282923   -3.1885285   -1.6794334   0.06966928   -3.1885285    1.5090951   448761 
 4690000    1.0291685   -3.1894559   -1.6790614  0.077094032   -3.1894559    1.5103945   448757 
 4691000    1.0300782   -3.1901022   -1.6784097  0.069188781   -3.1901022    1.5116925   448768 
 4692000    1.0305682   -3.1897631   -1.6772269  0.071658687   -3.1897631    1.5125362   448731 
 4693000    1.0302463   -3.1891102   -1.6771508  0.072133406   -3.1891102    1.5119594   448762 
 4694000    1.0301345   -3.1883063   -1.6766625  0.067886128   -3.1883063    1.5116437   448807 
 4695000    1.0284062   -3.1862933   -1.6771857  0.062498006   -3.1862933    1.5091076   448807 
 4696000    1.0297326    -3.188412   -1.6774691  0.071176155    -3.188412    1.5109429   448840 
 4697000    1.0312743   -3.1890721   -1.6758974   0.06812357   -3.1890721    1.5131747   448849 
 4698000    1.0292892   -3.1868178   -1.6767376  0.069570349   -3.1868178    1.5100803   448903 
 4699000     1.029169    -3.186936   -1.6771296  0.076225266    -3.186936    1.5098064   448932 
 4700000    1.0295239   -3.1868645   -1.6765441  0.069375247   -3.1868645    1.5103204   448934 
 4701000     1.031159   -3.1883539   -1.6757697  0.070063412   -3.1883539    1.5125842   448974 
 4702000    1.0296936   -3.1857067   -1.6752249  0.070874793   -3.1857067    1.5104819   448960 
 4703000    1.0306986   -3.1879876   -1.6760585  0.069146759   -3.1879876    1.5119291   448968 
 4704000    1.0305648   -3.1875347   -1.6759499  0.075186249   -3.1875347    1.5115848   449012 
 4705000    1.0314387    -3.187821   -1.6749814  0.070905787    -3.187821    1.5128396   449020 
 4706000    1.0307107   -3.1875621   -1.6757432  0.067352349   -3.1875621    1.5118189   449006 
 4707000    1.0300556   -3.1874436    -1.676626  0.074983933   -3.1874436    1.5108177   449018 
 4708000     1.030126   -3.1879877   -1.6771005  0.067898841   -3.1879877    1.5108873   449028 
 4709000    1.0308246   -3.1885529   -1.6766443  0.071905841   -3.1885529    1.5119085   449029 
 4710000    1.0309221   -3.1888607   -1.6768024  0.072932764   -3.1888607    1.5120583   449027 
 4711000    1.0301741   -3.1866294   -1.6756783  0.072143955   -3.1866294    1.5109511   449030 
 4712000    1.0291762   -3.1863949   -1.6769847  0.072985094   -3.1863949    1.5094102   449053 
 4713000    1.0314838    -3.190777   -1.6780229    0.0687702    -3.190777    1.5127541   449065 
 4714000    1.0324885   -3.1910768   -1.6769841  0.072506628   -3.1910768    1.5140927   449105 
 4715000    1.0326195    -3.191575   -1.6772531  0.073011072    -3.191575    1.5143218   449094 
 4716000     1.033832    -3.193366   -1.6773706  0.075677602    -3.193366    1.5159954   449125 
 4717000    1.0334333   -3.1921694    -1.676752  0.073776901   -3.1921694    1.5154175   449123 
 4718000    1.0332926   -3.1926436   -1.6775539  0.072350301   -3.1926436    1.5150897   449159 
 4719000    1.0331158    -3.193306    -1.678425  0.072069971    -3.193306     1.514881   449144 
 4720000     1.032084   -3.1930443   -1.6795954  0.070397314   -3.1930443    1.5134489   449120 
 4721000    1.0319177   -3.1937452   -1.6807052  0.072238374   -3.1937452      1.51304   449169 
 4722000    1.0297746    -3.192202   -1.6822908   0.06970822    -3.192202    1.5099111   449165 
 4723000    1.0294888   -3.1925593   -1.6831579  0.071488363   -3.1925593    1.5094015   449192 
 4724000    1.0301735   -3.1929867   -1.6827932  0.072785347   -3.1929867    1.5101935   449255 
 4725000    1.0313198   -3.1939541   -1.6821609  0.072681883   -3.1939541    1.5117931   449279 
 4726000    1.0305999   -3.1936881   -1.6829974   0.07593114   -3.1936881    1.5106908   449293 
 4727000    1.0325525   -3.1958032   -1.6822099  0.068253586   -3.1958032    1.5135933   449281 
 4728000    1.0320091   -3.1947213   -1.6819413  0.070790614   -3.1947213    1.5127801   449286 
 4729000    1.0315034   -3.1938977   -1.6818892  0.075259449   -3.1938977    1.5120084   449295 
 4730000    1.0322269   -3.1956954   -1.6826736  0.070253236   -3.1956954    1.5130218   449309 
 4731000    1.0307442   -3.1929354   -1.6820902  0.068979327   -3.1929354    1.5108452   449310 
 4732000    1.0322546   -3.1937949   -1.6807493  0.067158882   -3.1937949    1.5130456   449314 
 4733000    1.0317816   -3.1934188   -1.6809756  0.075481872   -3.1934188    1.5124432   449287 
 4734000    1.0325658   -3.1933397   -1.6797301   0.07004435   -3.1933397    1.5136095   449282 
 4735000    1.0322271   -3.1927541   -1.6795972  0.066147234   -3.1927541    1.5131569   449269 
 4736000     1.030803   -3.1907649   -1.6796284  0.076440957   -3.1907649    1.5111365   449249 
 4737000    1.0311607   -3.1905999   -1.6788212   0.07161706   -3.1905999    1.5117787   449214 
 4738000    1.0322931    -3.191535    -1.678177  0.075375601    -3.191535     1.513358   449238 
 4739000    1.0319629   -3.1911533   -1.6782928  0.070630424   -3.1911533    1.5128604   449242 
 4740000    1.0324114    -3.192877   -1.6793793  0.071559602    -3.192877    1.5134977   449248 
 4741000    1.0311947    -3.190667   -1.6789798  0.070982958    -3.190667    1.5116872   449256 
 4742000    1.0302753   -3.1903715   -1.6799313  0.074890197   -3.1903715    1.5104401   449226 
 4743000    1.0322751   -3.1920112   -1.6785718  0.071471722   -3.1920112    1.5134394   449206 
 4744000    1.0321324   -3.1916115   -1.6783443   0.07469184   -3.1916115    1.5132672   449195 
 4745000    1.0313293   -3.1910769   -1.6788794  0.067722267   -3.1910769    1.5121974   449163 
 4746000    1.0303233   -3.1895512   -1.6788658  0.070762227   -3.1895512    1.5106854   449174 
 4747000    1.0301542   -3.1900378   -1.6796675  0.068126292   -3.1900378    1.5103702   449194 
 4748000    1.0322226   -3.1907754   -1.6773794  0.074289347   -3.1907754    1.5133961   449196 
 4749000    1.0335888   -3.1935471   -1.6780061  0.071435634   -3.1935471    1.5155409   449154 
 4750000      1.03312   -3.1927928   -1.6780068  0.067179634   -3.1927928     1.514786   449174 
 4751000    1.0311876   -3.1896104   -1.6775971  0.070729873   -3.1896104    1.5120133   449156 
 4752000    1.0309758   -3.1904868   -1.6786966  0.070614859   -3.1904868    1.5117903   449130 
 4753000    1.0313383   -3.1916165   -1.6793452  0.068962733   -3.1916165    1.5122713   449145 
 4754000    1.0305155   -3.1897686   -1.6786601     0.070923   -3.1897686    1.5111085   449132 
 4755000    1.0306854   -3.1892009   -1.6779038  0.071773786   -3.1892009    1.5112971   449150 
 4756000    1.0310342   -3.1905527   -1.6787004  0.071043996   -3.1905527    1.5118524   449137 
 4757000    1.0301351   -3.1902315   -1.6796101  0.065775341   -3.1902315    1.5106213   449111 
 4758000    1.0306893   -3.1914141   -1.6800776  0.073156029   -3.1914141    1.5113365   449140 
 4759000    1.0304177   -3.1906602   -1.6796413  0.072056159   -3.1906602     1.511019   449116 
 4760000    1.0307172   -3.1910407    -1.679633   0.07181133   -3.1910407    1.5114077   449131 
 4761000    1.0305366   -3.1895981   -1.6785191  0.076312917   -3.1895981    1.5110789   449150 
 4762000    1.0312909   -3.1913926   -1.6792851  0.073586239   -3.1913926    1.5121076   449173 
 4763000    1.0312159   -3.1903891   -1.6784185  0.072864863   -3.1903891    1.5119707   449181 
 4764000    1.0322556   -3.1919003   -1.6785232  0.072791579   -3.1919003    1.5133772   449216 
 4765000    1.0324956   -3.1933803   -1.6797288  0.072649306   -3.1933803    1.5136514   449239 
 4766000    1.0321761    -3.194308   -1.6808991   0.07120814    -3.194308    1.5134088   449172 
 4767000    1.0324726   -3.1945592   -1.6807695  0.069260454   -3.1945592    1.5137897   449188 
 4768000    1.0321872   -3.1928495    -1.679566  0.070014179   -3.1928495    1.5132835   449214 
 4769000    1.0320835   -3.1926037   -1.6795161  0.072851082   -3.1926037    1.5130877   449227 
 4770000    1.0319495    -3.192647   -1.6799139  0.069746119    -3.192647    1.5127331   449274 
 4771000    1.0311475   -3.1929491   -1.6813278  0.069849476   -3.1929491    1.5116213   449255 
 4772000    1.0316296   -3.1937897   -1.6814481  0.064328356   -3.1937897    1.5123416   449251 
 4773000    1.0316085   -3.1936908   -1.6813735  0.072854317   -3.1936908    1.5123173   449249 
 4774000    1.0333224    -3.194665   -1.6798789  0.067339352    -3.194665    1.5147861   449262 
 4775000    1.0334239   -3.1942181   -1.6793643  0.071767781   -3.1942181    1.5148538   449286 
 4776000    1.0343277   -3.1973455    -1.680971  0.073364176   -3.1973455    1.5163745   449228 
 4777000    1.0325072   -3.1946363   -1.6809712  0.072732266   -3.1946363    1.5136651   449240 
 4778000     1.034965   -3.1970219   -1.6798921  0.071596094   -3.1970219    1.5171298   449281 
 4779000    1.0349638   -3.1986273   -1.6814655  0.073823061   -3.1986273    1.5171618   449271 
 4780000    1.0342427   -3.1966788   -1.6807091  0.074538763   -3.1966788    1.5159697   449311 
 4781000    1.0332279   -3.1941894   -1.6797813  0.077366101   -3.1941894    1.5144082   449333 
 4782000    1.0334526   -3.1950992   -1.6803852  0.080606519   -3.1950992     1.514714   449340 
 4783000     1.034598   -3.1968649   -1.6804756  0.072609033   -3.1968649    1.5163894   449341 
 4784000     1.031616   -3.1930531   -1.6810748  0.079385485   -3.1930531    1.5119782   449353 
 4785000    1.0337291   -3.1973509   -1.6822453  0.070463141   -3.1973509    1.5151056   449344 
 4786000     1.033979   -3.1961643   -1.6807598  0.070932249   -3.1961643    1.5154045   449364 
 4787000    1.0322742   -3.1934109   -1.6805891  0.076647082   -3.1934109    1.5128218   449389 
 4788000    1.0334815   -3.1959998   -1.6813548  0.070975013   -3.1959998     1.514645   449373 
 4789000    1.0313511   -3.1952529   -1.6836123  0.071615866   -3.1952529    1.5116406   449338 
 4790000    1.0316321   -3.1949884   -1.6832186  0.073236561   -3.1949884    1.5117698   449422 
 4791000    1.0317237   -3.1947627   -1.6829293   0.07326941   -3.1947627    1.5118334   449443 
 4792000    1.0322151   -3.1948965   -1.6823195  0.072718099   -3.1948965    1.5125769   449436 
 4793000    1.0339325   -3.1959376   -1.6808676  0.071866448   -3.1959376      1.51507   449443 
 4794000    1.0335008   -3.1954407   -1.6810067  0.076491941   -3.1954407     1.514434   449444 
 4795000    1.0327107   -3.1945688   -1.6813666  0.074488161   -3.1945688    1.5132023   449466 
 4796000     1.034028   -3.1948449   -1.6798069   0.07566739   -3.1948449     1.515038   449494 
 4797000     1.033674   -3.1934494    -1.678957  0.071675954   -3.1934494    1.5144924   449502 
 4798000    1.0347133   -3.1962756   -1.6802402  0.072944822   -3.1962756    1.5160354   449496 
 4799000    1.0341377   -3.1949627   -1.6797539  0.072955555   -3.1949627    1.5152088   449491 
 4800000    1.0349503   -3.1948233   -1.6784408  0.066169533   -3.1948233    1.5163825   449496 
 4801000    1.0347695   -3.1939127    -1.677886  0.081346512   -3.1939127    1.5160267   449523 
 4802000    1.0348009   -3.1929534   -1.6769887  0.076130213   -3.1929534    1.5159647   449555 
 4803000    1.0345089   -3.1943384   -1.6788216  0.075557821   -3.1943384    1.5155167   449561 
 4804000    1.0351925   -3.1948068   -1.6782954  0.071220706   -3.1948068    1.5165114   449563 
 4805000    1.0339766   -3.1937209   -1.6789873  0.069415041   -3.1937209    1.5147336   449562 
 4806000    1.0332892   -3.1927906    -1.679229  0.069074937   -3.1927906    1.5135616   449611 
 4807000    1.0325986   -3.1929297   -1.6805042  0.067485199   -3.1929297    1.5124255   449648 
 4808000    1.0319124    -3.192489   -1.6809475  0.073848047    -3.192489    1.5115415   449612 
 4809000    1.0335937   -3.1942795   -1.6802449  0.070278481   -3.1942795    1.5140346   449603 
 4810000    1.0320107   -3.1919154    -1.680351  0.068352737   -3.1919154    1.5115644   449648 
 4811000    1.0316585   -3.1917427   -1.6806403  0.067660278   -3.1917427    1.5111023   449632 
 4812000    1.0321144   -3.1915648   -1.6797241  0.067815671   -3.1915648    1.5118408   449611 
 4813000    1.0325409   -3.1920289   -1.6796072  0.069810447   -3.1920289    1.5124217   449624 
 4814000    1.0324041   -3.1916754   -1.6793497  0.073039827   -3.1916754    1.5123257   449593 
 4815000    1.0334011   -3.1939498   -1.6800997  0.068684858   -3.1939498    1.5138501   449574 
 4816000    1.0327379   -3.1931893   -1.6803546  0.066189669   -3.1931893    1.5128348   449587 
 4817000    1.0324293   -3.1933921   -1.6809993  0.073473079   -3.1933921    1.5123928   449584 
 4818000    1.0323548    -3.192161   -1.6799278  0.075819276    -3.192161    1.5122332   449599 
 4819000    1.0340782   -3.1941768   -1.6794663  0.073632386   -3.1941768    1.5147106   449613 
 4820000     1.033979    -3.193137    -1.678602  0.075733836    -3.193137     1.514535   449622 
 4821000    1.0344842   -3.1949228   -1.6796041  0.070958876   -3.1949228    1.5153187   449609 
 4822000    1.0329626   -3.1922776   -1.6791507   0.07339823   -3.1922776    1.5131269   449598 
 4823000    1.0341482   -3.1925624   -1.6777897  0.073736864   -3.1925624    1.5147726   449625 
 4824000    1.0348361   -3.1954228   -1.6796863   0.07489555   -3.1954228    1.5157365   449638 
 4825000    1.0356205   -3.1961959   -1.6792263  0.083047844   -3.1961959    1.5169696   449613 
 4826000     1.035408    -3.195827   -1.6792529  0.071919962    -3.195827    1.5165741   449638 
 4827000    1.0344935   -3.1943445    -1.679066  0.075394851   -3.1943445    1.5152785   449625 
 4828000    1.0351069    -3.196707   -1.6806413  0.072579787    -3.196707    1.5160657   449658 
 4829000    1.0335417   -3.1946694   -1.6807783  0.072049683   -3.1946694    1.5138911   449623 
 4830000    1.0366716   -3.1963828   -1.6779174  0.073175174   -3.1963828    1.5184654   449626 
 4831000    1.0343998   -3.1936372   -1.6785971   0.08155089   -3.1936372    1.5150401   449655 
 4832000    1.0336259   -3.1940027   -1.6800692  0.076389018   -3.1940027    1.5139335   449647 
 4833000    1.0353478   -3.1960972   -1.6794292  0.074840822   -3.1960972    1.5166681   449584 
 4834000    1.0348575   -3.1954121   -1.6795161  0.073478457   -3.1954121    1.5158959   449600 
 4835000    1.0345783   -3.1950673    -1.679631  0.075803858   -3.1950673    1.5154363   449615 
 4836000    1.0358082   -3.1964162   -1.6791919  0.070516286   -3.1964162    1.5172244   449619 
 4837000    1.0355208   -3.1941288   -1.6773896  0.075933359   -3.1941288    1.5167393   449638 
 4838000    1.0322991   -3.1901412   -1.6781745  0.077419103   -3.1901412    1.5119667   449654 
 4839000     1.034362   -3.1922011   -1.6772501  0.069462227   -3.1922011     1.514951   449665 
 4840000    1.0322685   -3.1909738   -1.6788973  0.072207462   -3.1909738    1.5120765   449608 
 4841000    1.0325381    -3.192473   -1.6801327  0.069556364    -3.192473    1.5123403   449647 
 4842000    1.0330978   -3.1926806   -1.6796047  0.065849629   -3.1926806    1.5130759   449672 
 4843000    1.0316708   -3.1913464   -1.6802361  0.075076741   -3.1913464    1.5111103   449635 
 4844000    1.0306263   -3.1906599   -1.6811533  0.071982851   -3.1906599    1.5095066   449657 
 4845000    1.0310797   -3.1901632   -1.6800195  0.068489305   -3.1901632    1.5101437   449665 
 4846000     1.031584   -3.1914689    -1.680563  0.064384235   -3.1914689    1.5109059   449658 
 4847000    1.0317032   -3.1910399     -1.68003  0.066868465   -3.1910399    1.5110099   449679 
 4848000    1.0338784   -3.1921281   -1.6780268  0.066244105   -3.1921281    1.5141013   449707 
 4849000    1.0338149   -3.1920556   -1.6780337  0.069559415   -3.1920556    1.5140219   449703 
 4850000    1.0336897    -3.191187   -1.6775303  0.074478716    -3.191187    1.5136567   449757 
 4851000    1.0344621   -3.1922085   -1.6774579  0.072192329   -3.1922085    1.5147507   449768 
 4852000    1.0316595   -3.1901916   -1.6795044  0.069905588   -3.1901916    1.5106872   449756 
 4853000    1.0333114   -3.1923447   -1.6792588  0.063624484   -3.1923447    1.5130859   449762 
 4854000    1.0349062   -3.1934444   -1.6780569  0.068027543   -3.1934444    1.5153875   449772 
 4855000    1.0337265   -3.1926552   -1.6790018  0.068507002   -3.1926552    1.5136534   449774 
 4856000    1.0321603     -3.19097   -1.6796234  0.073651236     -3.19097    1.5113466   449778 
 4857000    1.0320923   -3.1914045   -1.6801138  0.068976564   -3.1914045    1.5112907   449765 
 4858000    1.0331673   -3.1934886   -1.6806406  0.073580107   -3.1934886     1.512848   449770 
 4859000    1.0332551   -3.1925455   -1.6796396  0.070748671   -3.1925455    1.5129059   449791 
 4860000    1.0335543   -3.1943132   -1.6808985  0.069127576   -3.1943132    1.5134147   449770 
 4861000    1.0333388   -3.1945353   -1.6813958  0.069335121   -3.1945353    1.5131395   449758 
 4862000    1.0325037   -3.1945139    -1.682493  0.071427607   -3.1945139    1.5120209   449727 
 4863000    1.0330573   -3.1956521    -1.682834  0.071759342   -3.1956521    1.5128181   449731 
 4864000    1.0340906    -3.195922   -1.6816076  0.074619962    -3.195922    1.5143144   449736 
 4865000    1.0330259   -3.1951403   -1.6824186  0.069775771   -3.1951403    1.5127217   449746 
 4866000    1.0334662   -3.1954975   -1.6820369  0.073859047   -3.1954975    1.5134606   449718 
 4867000    1.0329699   -3.1956908   -1.6831453  0.074691288   -3.1956908    1.5125455   449774 
 4868000    1.0319603   -3.1943896   -1.6833694  0.076348604   -3.1943896    1.5110202   449788 
 4869000    1.0337306   -3.1969339   -1.6833284  0.069357629   -3.1969339    1.5136056   449790 
 4870000    1.0349117     -3.19692    -1.681666  0.068985833     -3.19692     1.515254   449814 
 4871000    1.0348232   -3.1977758   -1.6828163  0.071506177   -3.1977758    1.5149595   449863 
 4872000    1.0354178   -3.1975533   -1.6819795  0.070983388   -3.1975533    1.5155739   449939 
 4873000    1.0354614   -3.1965813   -1.6811322  0.074933618   -3.1965813    1.5154491   449995 
 4874000    1.0328514   -3.1933254   -1.6817734  0.075149561   -3.1933254     1.511552   450018 
 4875000     1.034023   -3.1950166   -1.6818038  0.074825792   -3.1950166    1.5132129   450034 
 4876000    1.0343904   -3.1950472   -1.6812935  0.073042113   -3.1950472    1.5137538   450033 
 4877000    1.0364512   -3.1968419   -1.6801801  0.072293983   -3.1968419    1.5166618   450065 
 4878000    1.0333653   -3.1929819   -1.6809836  0.072077939   -3.1929819    1.5119983   450109 
 4879000    1.0348302   -3.1949981   -1.6809405  0.074793062   -3.1949981    1.5140576   450134 
 4880000    1.0347802   -3.1947342   -1.6808607  0.069593175   -3.1947342    1.5138735   450167 
 4881000    1.0346945   -3.1943783   -1.6807613  0.067732062   -3.1943783     1.513617   450206 
 4882000    1.0344107   -3.1936289    -1.680548   0.07444015   -3.1936289    1.5130808   450242 
 4883000    1.0347555   -3.1928108   -1.6793433  0.072629906   -3.1928108    1.5134676   450277 
 4884000    1.0355993   -3.1924544    -1.677904  0.068768209   -3.1924544    1.5145503   450322 
 4885000    1.0348358   -3.1913939   -1.6780005  0.068001561   -3.1913939    1.5133934   450334 
 4886000    1.0332872   -3.1918927   -1.6807574  0.072373841   -3.1918927    1.5111353   450332 
 4887000    1.0357183   -3.1946842    -1.680017  0.067128184   -3.1946842    1.5146672   450339 
 4888000    1.0341302   -3.1927576   -1.6803558  0.068830031   -3.1927576    1.5124018   450322 
 4889000    1.0342363   -3.1922534   -1.6796393  0.070947107   -3.1922534    1.5126141   450305 
 4890000    1.0348258   -3.1936713   -1.6801815  0.068435525   -3.1936713    1.5134898   450301 
 4891000    1.0338611   -3.1911518   -1.6791066  0.073239098   -3.1911518    1.5120452   450311 
 4892000    1.0340516   -3.1918711   -1.6797353  0.073022274   -3.1918711    1.5121358   450367 
 4893000    1.0326291   -3.1916439   -1.6816218  0.068525148   -3.1916439    1.5100221   450377 
 4894000    1.0321883   -3.1899347   -1.6806679  0.068969414   -3.1899347    1.5092668   450410 
 4895000    1.0345701   -3.1926812   -1.6800525  0.066880768   -3.1926812    1.5126287   450446 
 4896000    1.0335161   -3.1917741   -1.6807906  0.069730588   -3.1917741    1.5109836   450477 
 4897000    1.0360639   -3.1954676   -1.6807154  0.072322962   -3.1954676    1.5147522   450464 
 4898000    1.0336471    -3.191632   -1.6804468  0.073104229    -3.191632    1.5111853   450474 
 4899000    1.0356905   -3.1945754   -1.6804936  0.068577802   -3.1945754    1.5140818   450501 
 4900000    1.0386612   -3.1975488    -1.679151  0.075482711   -3.1975488    1.5183978   450509 
 4901000    1.0368184   -3.1958811   -1.6802545  0.075621719   -3.1958811    1.5156265   450532 
 4902000    1.0376414    -3.195141   -1.6783923  0.078585915    -3.195141    1.5167488   450556 
 4903000    1.0372996   -3.1967558   -1.6804461  0.078273862   -3.1967558    1.5163097   450538 
 4904000    1.0392977     -3.19901   -1.6798503   0.07164671     -3.19901    1.5191597   450559 
 4905000    1.0384814   -3.1979082   -1.6799383  0.075991031   -3.1979082    1.5179699   450558 
 4906000    1.0374888   -3.1962774   -1.6799132  0.075057772   -3.1962774    1.5163642   450604 
 4907000    1.0384108    -3.196345   -1.6787613  0.075955467    -3.196345    1.5175838   450642 
 4908000    1.0379111   -3.1968587   -1.6799918  0.076781327   -3.1968587    1.5168669   450638 
 4909000     1.038173   -3.1973374    -1.680017  0.071596176   -3.1973374    1.5173204   450617 
 4910000    1.0366517   -3.1951725   -1.6800856  0.074714321   -3.1951725    1.5150869   450620 
 4911000    1.0362837   -3.1957835   -1.6812546  0.074575253   -3.1957835    1.5145289   450626 
 4912000    1.0358449   -3.1944808   -1.6806336  0.069826298   -3.1944808    1.5138472   450638 
 4913000    1.0361203   -3.1953754   -1.6811794  0.073555478   -3.1953754     1.514196   450654 
 4914000    1.0366116   -3.1961356   -1.6811343  0.067629249   -3.1961356    1.5150013   450628 
 4915000    1.0361839   -3.1942151   -1.6800169  0.071927147   -3.1942151    1.5141982   450681 
 4916000    1.0364489   -3.1960297   -1.6813871  0.074543256   -3.1960297    1.5146426   450664 
 4917000     1.037061   -3.1974199   -1.6818727  0.066161676   -3.1974199    1.5155472   450661 
 4918000    1.0365889   -3.1977474   -1.6829641  0.069387645   -3.1977474    1.5147833   450683 
 4919000    1.0352749   -3.1946589   -1.6818394  0.070768785   -3.1946589    1.5128196   450696 
 4920000    1.0374709   -3.1957846   -1.6798268  0.074603193   -3.1957846    1.5159578   450717 
 4921000    1.0379762    -3.195287   -1.6785774   0.07423286    -3.195287    1.5167096   450713 
 4922000    1.0363464   -3.1936659   -1.6793847  0.069041635   -3.1936659    1.5142812   450727 
 4923000    1.0371597   -3.1949281   -1.6795292  0.071888011   -3.1949281    1.5153989   450748 
 4924000    1.0370515   -3.1950045    -1.679804  0.072322945   -3.1950045    1.5152005   450760 
 4925000     1.034963   -3.1921228   -1.6798497   0.07023617   -3.1921228    1.5122731   450723 
 4926000    1.0351033   -3.1919073   -1.6794627  0.071195277   -3.1919073    1.5124446   450733 
 4927000     1.033915   -3.1916823   -1.6810411  0.072907373   -3.1916823    1.5106412   450753 
 4928000    1.0359128   -3.1941715   -1.6806583  0.066470316   -3.1941715    1.5135132   450767 
 4929000    1.0356066   -3.1922064   -1.6791641   0.07310771   -3.1922064    1.5130424   450774 
 4930000     1.037564   -3.1942704   -1.6783043  0.072923558   -3.1942704    1.5159661   450755 
 4931000    1.0358399   -3.1931283   -1.6796846  0.069226841   -3.1931283    1.5134437   450756 
 4932000    1.0357158   -3.1927116    -1.679587  0.070565961   -3.1927116    1.5131246   450797 
 4933000    1.0341489   -3.1920306   -1.6811313  0.074922384   -3.1920306    1.5108992   450778 
 4934000    1.0355105   -3.1940326   -1.6812179  0.066681376   -3.1940326    1.5128147   450800 
 4935000    1.0348812    -3.192434   -1.6805587  0.068632708    -3.192434    1.5118752   450806 
 4936000    1.0360383   -3.1940206    -1.680549  0.069756645   -3.1940206    1.5134716   450834 
 4937000    1.0351489   -3.1930613   -1.6809292  0.070300635   -3.1930613    1.5121322   450846 
 4938000     1.034844   -3.1936248   -1.6818678  0.075883052   -3.1936248    1.5117571   450825 
 4939000    1.0348007   -3.1942935   -1.6826365  0.071882255   -3.1942935     1.511657   450836 
 4940000    1.0351295   -3.1957259   -1.6835617  0.069526342   -3.1957259    1.5121641   450828 
 4941000    1.0350773   -3.1944542   -1.6822992  0.075415119   -3.1944542     1.512155   450808 
 4942000    1.0344908   -3.1939385    -1.682684  0.073750527   -3.1939385    1.5112545   450821 
 4943000    1.0366464   -3.1958229   -1.6816175   0.06970235   -3.1958229    1.5142054   450880 
 4944000    1.0360965   -3.1961343   -1.6826986   0.07081339   -3.1961343    1.5134357   450870 
 4945000    1.0379945   -3.1977571    -1.681643   0.07027753   -3.1977571    1.5161141   450898 
 4946000    1.0375434   -3.1968351   -1.6813497  0.075239051   -3.1968351    1.5154854   450889 
 4947000    1.0369319   -3.1952813   -1.6807025  0.076848546   -3.1952813    1.5145788   450893 
 4948000     1.037708   -3.1965725   -1.6808163  0.073285796   -3.1965725    1.5157561   450880 
 4949000    1.0368573   -3.1964375   -1.6819743  0.077970504   -3.1964375    1.5144631   450895 
 4950000    1.0366035   -3.1952561   -1.6811066  0.071647153   -3.1952561    1.5141495   450878 
 4951000    1.0372809   -3.1977655   -1.6825224  0.073646959   -3.1977655    1.5152432   450847 
 4952000    1.0366638     -3.19864   -1.6842413   0.07360076     -3.19864    1.5143988   450830 
 4953000     1.036152   -3.1979924   -1.6842506  0.072214894   -3.1979924    1.5137418   450803 
 4954000    1.0360279    -3.197584   -1.6840571   0.07656176    -3.197584     1.513527   450813 
 4955000    1.0347645   -3.1952638   -1.6836697  0.080707521   -3.1952638    1.5115941   450839 
 4956000    1.0362571   -3.1975021   -1.6837713  0.075896788   -3.1975021    1.5137307   450852 
 4957000     1.035752    -3.197877   -1.6849444  0.068457483    -3.197877    1.5129326   450870 
 4958000    1.0348934   -3.1972728   -1.6855909  0.077686574   -3.1972728    1.5116818   450869 
 4959000    1.0343093   -3.1971984   -1.6864436  0.071770988   -3.1971984    1.5107548   450891 
 4960000    1.0341643   -3.1969363   -1.6863094  0.067188258   -3.1969363    1.5106269   450866 
 4961000    1.0357573   -3.1982382   -1.6853013  0.069556993   -3.1982382    1.5129369   450871 
 4962000    1.0358977   -3.1979518   -1.6848266  0.074126006   -3.1979518    1.5131252   450876 
 4963000    1.0360365   -3.1973861   -1.6841755  0.069007796   -3.1973861    1.5132106   450911 
 4964000    1.0343872   -3.1950013   -1.6840891  0.075663451   -3.1950013    1.5109121   450878 
 4965000    1.0360372   -3.1970162   -1.6836569  0.073277599   -3.1970162    1.5133592   450867 
 4966000    1.0352691   -3.1953282   -1.6830842  0.073898488   -3.1953282     1.512244   450865 
 4967000    1.0368856   -3.1970974   -1.6825695  0.075061348   -3.1970974    1.5145279   450888 
 4968000    1.0371805   -3.1984412   -1.6834724  0.073714911   -3.1984412    1.5149688   450885 
 4969000    1.0369889   -3.1975249    -1.682856  0.074632947   -3.1975249    1.5146688   450891 
 4970000    1.0369698   -3.1981367   -1.6835865   0.07266156   -3.1981367    1.5145502   450918 
 4971000    1.0375651   -3.1985986   -1.6833133  0.069975731   -3.1985986    1.5152852   450958 
 4972000    1.0361543   -3.1946415   -1.6814737  0.068367779   -3.1946415    1.5131678   450975 
 4973000    1.0365616   -3.1947182   -1.6808414  0.070870783   -3.1947182    1.5138768   450941 
 4974000    1.0338105   -3.1927455   -1.6829302  0.070535672   -3.1927455    1.5098153   450954 
 4975000    1.0360147    -3.195193   -1.6821988  0.074137044    -3.195193    1.5129942   450966 
 4976000     1.036266   -3.1963482   -1.6829903  0.070691155   -3.1963482    1.5133578   450967 
 4977000    1.0362666   -3.1965111   -1.6833034  0.069922584   -3.1965111    1.5132077   451012 
 4978000    1.0370512   -3.1970427    -1.682827  0.069694564   -3.1970427    1.5142157   451053 
 4979000    1.0358126   -3.1967414   -1.6842469  0.070540066   -3.1967414    1.5124944   451027 
 4980000    1.0373094   -3.1969305    -1.682368  0.073143344   -3.1969305    1.5145625   451062 
 4981000    1.0371263   -3.1967169   -1.6823814  0.071809767   -3.1967169    1.5143355   451050 
 4982000    1.0364016   -3.1946288    -1.681422  0.077146409   -3.1946288    1.5132068   451071 
 4983000    1.0351769   -3.1935188    -1.682194     0.069121   -3.1935188    1.5113249   451099 
 4984000    1.0362263   -3.1951319    -1.682248  0.068125466   -3.1951319    1.5128839   451091 
 4985000    1.0367748   -3.1956334   -1.6818918  0.074182326   -3.1956334    1.5137416   451074 
 4986000    1.0379442   -3.1963097   -1.6809514  0.073974483   -3.1963097    1.5153583   451101 
 4987000    1.0365704   -3.1950726   -1.6817871  0.076690642   -3.1950726    1.5132856   451121 
 4988000    1.0370124   -3.1953812   -1.6815142  0.077909641   -3.1953812     1.513867   451140 
 4989000    1.0365294   -3.1955446   -1.6824162   0.07033323   -3.1955446    1.5131284   451150 
 4990000    1.0362988   -3.1945459   -1.6816938  0.068707353   -3.1945459    1.5128522   451132 
 4991000    1.0357726   -3.1931632   -1.6811194  0.075107518   -3.1931632    1.5120438   451144 
 4992000    1.0379181   -3.1962308   -1.6810717  0.076752787   -3.1962308     1.515159   451149 
 4993000    1.0377232   -3.1973213    -1.682477  0.070907419   -3.1973213    1.5148442   451158 
 4994000    1.0365048   -3.1956721   -1.6826534  0.068893999   -3.1956721    1.5130187   451172 
 4995000    1.0367142   -3.1952665   -1.6820125  0.074091526   -3.1952665     1.513254   451193 
 4996000    1.0361701   -3.1955175   -1.6831247  0.070088336   -3.1955175    1.5123928   451213 
 4997000    1.0368889   -3.1968278   -1.6832585   0.07142103   -3.1968278    1.5135693   451175 
 4998000    1.0354653    -3.195855   -1.6843436  0.069222802    -3.195855    1.5115114   451169 
 4999000    1.0363041   -3.1956788   -1.6829497  0.074725457   -3.1956788    1.5127291   451171 
 5000000    1.0372778   -3.1967812   -1.6825938  0.069487164   -3.1967812    1.5141874   451160 
 5001000    1.0362652   -3.1951731   -1.6825008   0.07128287   -3.1951731    1.5126723   451171 
 5002000    1.0372954   -3.1987431   -1.6844126  0.073455066   -3.1987431    1.5143305   451125 
 5003000    1.0378679   -3.1995853   -1.6844794   0.06863397   -3.1995853    1.5151059   451143 
 5004000    1.0373315   -3.1977267   -1.6833971  0.071945864   -3.1977267    1.5143295   451141 
 5005000    1.0373345   -3.1978969   -1.6834857   0.07252487   -3.1978969    1.5144112   451118 
 5006000    1.0373744   -3.1973019   -1.6829298  0.072334875   -3.1973019    1.5143721   451147 
 5007000    1.0373608   -3.1970572   -1.6825975  0.073851771   -3.1970572    1.5144597   451115 
 5008000    1.0386933   -3.1985311   -1.6820824  0.071754648   -3.1985311    1.5164487   451102 
 5009000    1.0363839   -3.1952894   -1.6821521  0.077838819   -3.1952894    1.5131374   451084 
 5010000    1.0386129   -3.1984355   -1.6821211  0.067550024   -3.1984355    1.5163145   451107 
 5011000     1.036879   -3.1949261   -1.6810792  0.077449907   -3.1949261    1.5138469   451088 
 5012000    1.0381062   -3.1979475   -1.6823224  0.073338633   -3.1979475    1.5156251   451092 
 5013000    1.0390875   -3.1989136   -1.6819063  0.069799398   -3.1989136    1.5170074   451107 
 5014000    1.0392626   -3.1983425   -1.6812141  0.074535908   -3.1983425    1.5171284   451147 
 5015000    1.0362331   -3.1933999   -1.6808079  0.073218229   -3.1933999     1.512592   451181 
 5016000    1.0366631   -3.1951199   -1.6819171  0.068406772   -3.1951199    1.5132028   451186 
 5017000    1.0366743   -3.1961512   -1.6828851  0.073559926   -3.1961512    1.5132661   451172 
 5018000    1.0355761   -3.1949537   -1.6832437  0.069564855   -3.1949537      1.51171   451158 
 5019000    1.0378262   -3.1973005   -1.6823629  0.071558426   -3.1973005    1.5149376   451175 
 5020000    1.0368781   -3.1974333   -1.6838729  0.067578501   -3.1974333    1.5135604   451173 
 5021000    1.0353687   -3.1949423   -1.6835016  0.067996103   -3.1949423    1.5114407   451148 
 5022000    1.0358618   -3.1949381   -1.6828278  0.069473402   -3.1949381    1.5121103   451163 
 5023000    1.0358268   -3.1958693   -1.6839474  0.067410422   -3.1958693    1.5119218   451204 
 5024000    1.0346348   -3.1926894   -1.6824304  0.068909137   -3.1926894     1.510259   451181 
 5025000     1.037381   -3.1970882   -1.6828106  0.069437389   -3.1970882    1.5142777   451178 
 5026000    1.0378352    -3.196254   -1.6813871  0.070266689    -3.196254    1.5148668   451200 
 5027000    1.0357035   -3.1934048   -1.6817601  0.070358395   -3.1934048    1.5116448   451233 
 5028000    1.0363103   -3.1952803   -1.6828673  0.070261874   -3.1952803     1.512413   451268 
 5029000    1.0367187   -3.1937359   -1.6808106   0.07037559   -3.1937359    1.5129253   451293 
 5030000    1.0376699   -3.1946228   -1.6803498  0.069944176   -3.1946228     1.514273   451305 
 5031000    1.0365972   -3.1923398   -1.6795884  0.073670823   -3.1923398    1.5127513   451292 
 5032000    1.0388817   -3.1972457   -1.6811405  0.072468705   -3.1972457    1.5161053   451286 
 5033000     1.039693   -3.1971248   -1.6798086  0.072170366   -3.1971248    1.5173161   451278 
 5034000     1.038788   -3.1954689   -1.6795508  0.069514297   -3.1954689    1.5159182   451301 
 5035000    1.0380357   -3.1944343   -1.6797012  0.071726292   -3.1944343    1.5147331   451327 
 5036000    1.0382772   -3.1954543   -1.6804561   0.07390081   -3.1954543    1.5149983   451353 
 5037000    1.0379161    -3.194947   -1.6806267  0.074488279    -3.194947    1.5143203   451398 
 5038000    1.0383075   -3.1947771   -1.6798857  0.072620671   -3.1947771    1.5148914   451398 
 5039000     1.038171   -3.1967109   -1.6820892  0.070303228   -3.1967109    1.5146217   451419 
 5040000     1.036988   -3.1951124   -1.6822367  0.075685667   -3.1951124    1.5128758   451425 
 5041000     1.036455     -3.19477   -1.6827657  0.071189836     -3.19477    1.5120043   451453 
 5042000    1.0371054   -3.1943912   -1.6814816  0.070120197   -3.1943912    1.5129096   451466 
 5043000    1.0385459   -3.1967242   -1.6816159  0.073533578   -3.1967242    1.5151083   451437 
 5044000    1.0369755   -3.1938916    -1.681081  0.076232594   -3.1938916    1.5128106   451439 
 5045000    1.0379461   -3.1948432   -1.6805462  0.073409222   -3.1948432     1.514297   451418 
 5046000     1.038588   -3.1955531   -1.6804069  0.071991993   -3.1955531    1.5151462   451444 
 5047000    1.0381293   -3.1957582   -1.6812341  0.071024707   -3.1957582    1.5145241   451430 
 5048000    1.0373224   -3.1942415   -1.6809517  0.073679031   -3.1942415    1.5132898   451447 
 5049000    1.0375425    -3.194738   -1.6812075  0.076509876    -3.194738    1.5135305   451471 
 5050000    1.0378366   -3.1953764   -1.6814974  0.069487882   -3.1953764     1.513879   451495 
 5051000    1.0373112     -3.19443   -1.6813173  0.070114084     -3.19443    1.5131127   451495 
 5052000    1.0368418   -3.1928252    -1.680558  0.070958394   -3.1928252    1.5122672   451543 
 5053000    1.0370925   -3.1934296   -1.6808237  0.079804179   -3.1934296    1.5126059   451551 
 5054000    1.0373114   -3.1929724    -1.680084  0.068231113   -3.1929724    1.5128884   451562 
 5055000    1.0361354   -3.1916076   -1.6804242  0.071834492   -3.1916076    1.5111833   451559 
 5056000    1.0370127   -3.1925438   -1.6801346  0.070645011   -3.1925438    1.5124093   451575 
 5057000    1.0372318   -3.1914391   -1.6788142  0.070899869   -3.1914391    1.5126249   451606 
 5058000    1.0364773   -3.1929569   -1.6813218  0.070658238   -3.1929569    1.5116351   451573 
 5059000    1.0361511   -3.1926886   -1.6813921  0.067542325   -3.1926886    1.5112965   451532 
 5060000    1.0354319   -3.1914246   -1.6811871  0.071362666   -3.1914246    1.5102375   451535 
 5061000    1.0361067   -3.1922361   -1.6810411  0.072186665   -3.1922361     1.511195   451543 
 5062000     1.036277   -3.1927006   -1.6813778  0.066567105   -3.1927006    1.5113229   451579 
 5063000     1.036224   -3.1919239   -1.6806784  0.071984519   -3.1919239    1.5112455   451579 
 5064000     1.034951   -3.1917031   -1.6823542  0.072501057   -3.1917031    1.5093489   451591 
 5065000    1.0358974   -3.1914775   -1.6806681  0.068121689   -3.1914775    1.5108094   451567 
 5066000    1.0364991   -3.1920998   -1.6804899  0.074933513   -3.1920998    1.5116099   451590 
 5067000    1.0368027   -3.1943491   -1.6822663  0.067636491   -3.1943491    1.5120828   451581 
 5068000    1.0369831   -3.1944697   -1.6821941  0.069067557   -3.1944697    1.5122756   451602 
 5069000    1.0373158   -3.1943378   -1.6814899  0.074459345   -3.1943378    1.5128479   451576 
 5070000    1.0377241    -3.195289   -1.6817417  0.065454172    -3.195289    1.5135473   451545 
 5071000    1.0389946   -3.1967692   -1.6813252  0.070098188   -3.1967692     1.515444   451532 
 5072000    1.0376112   -3.1950128    -1.681543  0.076681745   -3.1950128    1.5134698   451519 
 5073000    1.0397558   -3.1985334   -1.6819153  0.071813105   -3.1985334    1.5166181   451513 
 5074000    1.0395897   -3.1973618   -1.6810498  0.070309807   -3.1973618     1.516312   451532 
 5075000     1.039248   -3.1967909   -1.6810344  0.077342965   -3.1967909    1.5157565   451549 
 5076000     1.039882   -3.1984376    -1.681612  0.076694004   -3.1984376    1.5168257   451506 
 5077000    1.0392823   -3.1966506   -1.6807366  0.076072901   -3.1966506     1.515914   451517 
 5078000    1.0383749   -3.1950503   -1.6805805  0.075167116   -3.1950503    1.5144697   451553 
 5079000    1.0379914    -3.195216   -1.6812889  0.070316208    -3.195216    1.5139271   451548 
 5080000    1.0380335   -3.1956787   -1.6816332  0.072064743   -3.1956787    1.5140455   451531 
 5081000     1.036255    -3.194362   -1.6829641  0.067865818    -3.194362    1.5113979   451547 
 5082000    1.0372742   -3.1959217   -1.6830776  0.070114785   -3.1959217    1.5128442   451559 
 5083000    1.0371818   -3.1955688   -1.6828761  0.076952687   -3.1955688    1.5126927   451564 
 5084000    1.0361743   -3.1938247   -1.6825613  0.070693111   -3.1938247    1.5112634   451552 
 5085000    1.0377791   -3.1959849   -1.6824212  0.072542895   -3.1959849    1.5135638   451564 
 5086000     1.036869   -3.1952378    -1.682941   0.07375549   -3.1952378    1.5122968   451546 
 5087000    1.0363683   -3.1932273   -1.6817077  0.072293721   -3.1932273    1.5115196   451560 
 5088000     1.035982   -3.1914053   -1.6804993  0.070373081   -3.1914053    1.5109061   451575 
 5089000    1.0377719   -3.1933478   -1.6797777  0.072337385   -3.1933478    1.5135701   451559 
 5090000    1.0387779   -3.1948946   -1.6799311  0.071083607   -3.1948946    1.5149635   451581 
 5091000    1.0369557   -3.1924505   -1.6801914  0.073724268   -3.1924505    1.5122591   451595 
 5092000    1.0382554   -3.1940687   -1.6799712  0.069069267   -3.1940687    1.5140976   451612 
 5093000    1.0391929   -3.1954653   -1.6801079  0.072015836   -3.1954653    1.5153574   451644 
 5094000    1.0401427   -3.1980162   -1.6813108  0.067588708   -3.1980162    1.5167054   451655 
 5095000    1.0387201    -3.194857   -1.6802026  0.071086606    -3.194857    1.5146544   451648 
 5096000     1.039144   -3.1949863   -1.6798277  0.070687758   -3.1949863    1.5151586   451682 
 5097000    1.0394481   -3.1959046   -1.6803428  0.072111112   -3.1959046    1.5155618   451694 
 5098000    1.0391319   -3.1960942   -1.6810841  0.074495546   -3.1960942    1.5150101   451721 
 5099000    1.0401855   -3.1969118   -1.6804126  0.073251474   -3.1969118    1.5164992   451735 
 5100000    1.0386825   -3.1954479   -1.6811499  0.075515213   -3.1954479    1.5142979   451738 
 5101000    1.0390223   -3.1959259   -1.6810655  0.070368796   -3.1959259    1.5148604   451718 
 5102000    1.0384966   -3.1949977   -1.6811217  0.067578803   -3.1949977    1.5138761   451783 
 5103000    1.0394085    -3.195819   -1.6807445  0.076803997    -3.195819    1.5150746   451822 
 5104000    1.0394152   -3.1962398   -1.6812057  0.073388025   -3.1962398    1.5150341   451837 
 5105000    1.0395472   -3.1962837    -1.681131  0.071465602   -3.1962837    1.5151527   451859 
 5106000    1.0380921   -3.1938635   -1.6807244  0.078237326   -3.1938635    1.5131391   451827 
 5107000    1.0407077   -3.1987565   -1.6818755  0.073135516   -3.1987565     1.516881   451848 
 5108000    1.0414715   -3.1988669   -1.6809801  0.072741715   -3.1988669    1.5178868   451880 
 5109000    1.0414673   -3.1993149   -1.6814677  0.077620788   -3.1993149    1.5178472   451890 
 5110000     1.040155   -3.1975386   -1.6816577  0.070234743   -3.1975386    1.5158809   451906 
 5111000    1.0411025   -3.1989583   -1.6818342  0.073675727   -3.1989583    1.5171241   451947 
 5112000    1.0408364   -3.1983821   -1.6816425  0.066672799   -3.1983821    1.5167397   451946 
 5113000     1.039971   -3.1976771   -1.6821516    0.0760411   -3.1976771    1.5155256   451932 
 5114000     1.040623    -3.196563   -1.6801275  0.073963453    -3.196563    1.5164354   451944 
 5115000     1.039684   -3.1973449   -1.6821403   0.07493892   -3.1973449    1.5152046   451903 
 5116000    1.0410808   -3.1976637   -1.6805343  0.074354471   -3.1976637    1.5171294   451936 
 5117000    1.0421795   -3.1989972   -1.6802935  0.076724196   -3.1989972    1.5187037   451944 
 5118000    1.0399189   -3.1966193   -1.6812301  0.064254147   -3.1966193    1.5153893   451950 
 5119000    1.0407719   -3.1968537   -1.6804864  0.079032482   -3.1968537    1.5163672   452029 
 5120000    1.0411467   -3.1969496   -1.6801403  0.076688325   -3.1969496    1.5168093   452060 
 5121000    1.0400659   -3.1958328   -1.6805947  0.078396601   -3.1958328    1.5152381   452059 
 5122000    1.0397524   -3.1963899   -1.6816622   0.07458266   -3.1963899    1.5147277   452075 
 5123000    1.0396496   -3.1961228   -1.6816419   0.07528419   -3.1961228    1.5144809   452104 
 5124000    1.0380362   -3.1950663    -1.682976  0.076911061   -3.1950663    1.5120903   452116 
 5125000    1.0402498   -3.1974777   -1.6822298  0.070807446   -3.1974777    1.5152479   452136 
 5126000    1.0407054   -3.1982774    -1.682443  0.067895535   -3.1982774    1.5158344   452159 
 5127000    1.0379451   -3.1938835   -1.6821767  0.071173492   -3.1938835    1.5117069   452191 
 5128000    1.0380381   -3.1945858   -1.6826866  0.069957926   -3.1945858    1.5118992   452174 
 5129000    1.0369604   -3.1940106   -1.6837011  0.067439628   -3.1940106    1.5103096   452180 
 5130000    1.0368316   -3.1945735   -1.6844616  0.068470607   -3.1945735    1.5101119   452183 
 5131000    1.0382251   -3.1969484    -1.684837  0.066362376   -3.1969484    1.5121114   452192 
 5132000    1.0366533   -3.1941004   -1.6842683  0.075580655   -3.1941004    1.5098321   452189 
 5133000    1.0403926   -3.1981013   -1.6828699  0.065288045   -3.1981013    1.5152314   452203 
 5134000     1.038238   -3.1958374   -1.6835901  0.071246838   -3.1958374    1.5122473   452157 
 5135000    1.0380181    -3.196522   -1.6846486  0.071133506    -3.196522    1.5118734   452173 
 5136000    1.0389841   -3.1969227   -1.6836656  0.068496835   -3.1969227     1.513257   452180 
 5137000    1.0411887   -3.1982778   -1.6820179  0.068567783   -3.1982778      1.51626   452242 
 5138000     1.040092   -3.1955794   -1.6809465  0.074173416   -3.1955794    1.5146329   452251 
 5139000    1.0401381   -3.1955286   -1.6809995  0.079398938   -3.1955286    1.5145291   452302 
 5140000    1.0403963   -3.1966886    -1.681904  0.070990087   -3.1966886    1.5147846   452338 
 5141000    1.0399659   -3.1962563   -1.6820616  0.077473419   -3.1962563    1.5141947   452327 
 5142000    1.0388359   -3.1960822   -1.6835762  0.074350055   -3.1960822    1.5125059   452340 
 5143000    1.0390279    -3.195815   -1.6830229  0.074369639    -3.195815    1.5127921   452338 
 5144000    1.0400901   -3.1964204   -1.6821487  0.072356597   -3.1964204    1.5142717   452358 
 5145000    1.0404697   -3.1968373   -1.6819861  0.070864458   -3.1968373    1.5148512   452350 
 5146000    1.0391473   -3.1944113   -1.6814922  0.082464168   -3.1944113    1.5129191   452352 
 5147000    1.0412048   -3.1974713   -1.6814996  0.080294142   -3.1974713    1.5159718   452335 
 5148000    1.0404196   -3.1974367   -1.6826015  0.074564441   -3.1974367    1.5148352   452333 
 5149000    1.0406393   -3.1983584   -1.6833139  0.070846853   -3.1983584    1.5150445   452366 
 5150000       1.0418   -3.2000273   -1.6834103  0.068815645   -3.2000273    1.5166171   452401 
 5151000    1.0413713    -3.199163    -1.683217  0.073927101    -3.199163     1.515946   452415 
 5152000    1.0395629   -3.1966693   -1.6833659  0.073680244   -3.1966693    1.5133034   452418 
 5153000    1.0417914   -3.2003021   -1.6837579  0.077220145   -3.2003021    1.5165442   452419 
 5154000    1.0411891   -3.1983705   -1.6826796  0.076489656   -3.1983705    1.5156908   452412 
 5155000    1.0416165   -3.1976389   -1.6813963  0.081601656   -3.1976389    1.5162426   452433 
 5156000    1.0415278   -3.1965626   -1.6804959  0.072570568   -3.1965626    1.5160667   452447 
 5157000    1.0410089   -3.1961783    -1.680887  0.074636865   -3.1961783    1.5152912   452453 
 5158000    1.0405638    -3.194785    -1.680135  0.078928987    -3.194785      1.51465   452451 
 5159000    1.0405022   -3.1959906   -1.6814738  0.074258215   -3.1959906    1.5145168   452464 
 5160000    1.0388809   -3.1938118   -1.6817283  0.077496569   -3.1938118    1.5120835   452486 
 5161000    1.0403364   -3.1959578   -1.6818195  0.063792375   -3.1959578    1.5141383   452505 
 5162000     1.040062   -3.1955655   -1.6819101  0.072095371   -3.1955655    1.5136553   452530 
 5163000    1.0384414   -3.1928314   -1.6816349  0.067473647   -3.1928314    1.5111966   452560 
 5164000    1.0388648   -3.1938311   -1.6820986  0.069986946   -3.1938311    1.5117325   452584 
 5165000    1.0402875   -3.1947259   -1.6809531  0.069160583   -3.1947259    1.5137728   452593 
 5166000    1.0383765   -3.1932561   -1.6823443  0.070319661   -3.1932561    1.5109118   452617 
 5167000    1.0384073   -3.1923618   -1.6814986  0.072709466   -3.1923618    1.5108632   452645 
 5168000    1.0395699   -3.1928182   -1.6803604  0.067858157   -3.1928182    1.5124578   452674 
 5169000    1.0393874   -3.1923863   -1.6802274   0.06773553   -3.1923863    1.5121589   452684 
 5170000     1.039373   -3.1914671   -1.6792589  0.067792416   -3.1914671    1.5122082   452663 
 5171000    1.0385838   -3.1911642   -1.6799809   0.06973109   -3.1911642    1.5111834   452626 
 5172000    1.0390459   -3.1918344   -1.6799619  0.070750024   -3.1918344    1.5118725   452621 
 5173000    1.0417216    -3.193886   -1.6781839  0.069667706    -3.193886    1.5157022   452640 
 5174000    1.0419712   -3.1944594   -1.6784912   0.06839958   -3.1944594    1.5159682   452669 
 5175000    1.0414224   -3.1936764   -1.6785636  0.071475705   -3.1936764    1.5151128   452686 
 5176000    1.0416998   -3.1935309   -1.6780379  0.071188075   -3.1935309     1.515493   452693 
 5177000    1.0414127   -3.1923071   -1.6772652  0.078783017   -3.1923071    1.5150419   452703 
 5178000    1.0413038   -3.1920661   -1.6772563  0.075397084   -3.1920661    1.5148098   452725 
 5179000    1.0418325    -3.195476   -1.6798938  0.072982239    -3.195476    1.5155822   452724 
 5180000    1.0407022   -3.1948995   -1.6809314  0.072750067   -3.1948995    1.5139681   452715 
 5181000    1.0406728   -3.1941463   -1.6802344  0.069157835   -3.1941463     1.513912   452719 
 5182000    1.0413389   -3.1947099   -1.6798659   0.07397336   -3.1947099    1.5148441   452730 
 5183000    1.0399153   -3.1943703    -1.681567   0.07286805   -3.1943703    1.5128033   452721 
 5184000    1.0418608   -3.1971624    -1.681539   0.06508499   -3.1971624    1.5156234   452724 
 5185000    1.0414625   -3.1963932   -1.6814462  0.072966151   -3.1963932     1.514947   452753 
 5186000    1.0406275   -3.1949084   -1.6812963  0.070060193   -3.1949084     1.513612   452789 
 5187000    1.0401336   -3.1953616   -1.6824112  0.078270896   -3.1953616    1.5129504   452772 
 5188000    1.0400717   -3.1948576   -1.6819471  0.078380356   -3.1948576    1.5129105   452757 
 5189000    1.0416308   -3.1967862   -1.6816011  0.073545647   -3.1967862    1.5151851   452755 
 5190000    1.0396713   -3.1936363   -1.6813917  0.073399053   -3.1936363    1.5122446   452782 
 5191000    1.0434855   -3.1967775   -1.6790051  0.074795769   -3.1967775    1.5177724   452788 
 5192000    1.0430094   -3.1968235   -1.6798776   0.07670925   -3.1968235    1.5169459   452828 
 5193000    1.0414689    -3.195713    -1.681138   0.07552945    -3.195713    1.5145749   452867 
 5194000    1.0423816   -3.1954283   -1.6796298  0.074243271   -3.1954283    1.5157985   452898 
 5195000    1.0433517   -3.1977033   -1.6805645  0.070670431   -3.1977033    1.5171388   452919 
 5196000    1.0420682   -3.1963388   -1.6810128   0.07268206   -3.1963388     1.515326   452903 
 5197000    1.0421366   -3.1974024    -1.682084  0.070552042   -3.1974024    1.5153185   452935 
 5198000    1.0415662   -3.1961114   -1.6816726  0.074717899   -3.1961114    1.5144388   452950 
 5199000    1.0407656   -3.1947899   -1.6814181   0.07655848   -3.1947899    1.5133718   452921 
 5200000    1.0427096   -3.1965399   -1.6803314  0.068630096   -3.1965399    1.5162085   452918 
 5201000    1.0417154   -3.1956477   -1.6809551  0.067173399   -3.1956477    1.5146926   452939 
 5202000    1.0414423   -3.1970044   -1.6827891  0.066213659   -3.1970044    1.5142153   452963 
 5203000     1.039978   -3.1957928   -1.6837032  0.072557697   -3.1957928    1.5120896   452962 
 5204000     1.040561   -3.1957739   -1.6828734  0.068628673   -3.1957739    1.5129005   452973 
 5205000    1.0409268   -3.1954726   -1.6820304  0.076982214   -3.1954726    1.5134423   452970 
 5206000    1.0422771   -3.1970846   -1.6815953  0.074789158   -3.1970846    1.5154892   452945 
 5207000    1.0403397   -3.1935627   -1.6809906  0.079119178   -3.1935627     1.512572   452975 
 5208000    1.0418535   -3.1953804   -1.6805639  0.075520856   -3.1953804    1.5148165   452962 
 5209000    1.0429961   -3.1960673   -1.6795595  0.075395565   -3.1960673    1.5165079   452953 
 5210000    1.0430306    -3.196436   -1.6799081  0.079708573    -3.196436    1.5165279   452962 
 5211000    1.0429416   -3.1962596   -1.6797539  0.074976714   -3.1962596    1.5165056   452930 
 5212000    1.0434513   -3.1965414   -1.6792209  0.076780185   -3.1965414    1.5173205   452908 
 5213000    1.0437007   -3.1960822    -1.678523  0.075218691   -3.1960822    1.5175591   452945 
 5214000    1.0442408   -3.1963638   -1.6781702  0.080107081   -3.1963638    1.5181936   452990 
 5215000    1.0426475   -3.1946259   -1.6788324   0.07795392   -3.1946259    1.5157935   453015 
 5216000    1.0432676   -3.1945092   -1.6777873  0.074380757   -3.1945092    1.5167219   453007 
 5217000    1.0446456   -3.1970938   -1.6783217  0.075310484   -3.1970938    1.5187721   452993 
 5218000     1.042996    -3.195284    -1.678957  0.069246305    -3.195284     1.516327   453007 
 5219000    1.0419808   -3.1937926   -1.6790953  0.075946895   -3.1937926    1.5146973   453053 
 5220000    1.0422341   -3.1937142    -1.678632  0.072428812   -3.1937142    1.5150822   453048 
 5221000    1.0430754   -3.1959675   -1.6797193  0.070973913   -3.1959675    1.5162482   453065 
 5222000    1.0416714   -3.1952706   -1.6810532  0.073746076   -3.1952706    1.5142174   453062 
 5223000    1.0419461   -3.1957035   -1.6811469  0.068138765   -3.1957035    1.5145566   453080 
 5224000    1.0419486     -3.19504   -1.6806001  0.071373378     -3.19504    1.5144398   453116 
 5225000    1.0419488   -3.1947256   -1.6803623  0.072612258   -3.1947256    1.5143633   453139 
 5226000    1.0413217   -3.1938075   -1.6803756  0.068797181   -3.1938075    1.5134319   453145 
 5227000    1.0417531   -3.1953502   -1.6812279  0.069939322   -3.1953502    1.5141223   453126 
 5228000    1.0402814   -3.1926846    -1.680758  0.067781338   -3.1926846    1.5119266   453143 
 5229000     1.039939    -3.193981   -1.6826088  0.071060567    -3.193981    1.5113722   453160 
 5230000    1.0407074   -3.1944133    -1.681891  0.068198164   -3.1944133    1.5125223   453150 
 5231000    1.0406421   -3.1932898    -1.680889  0.073670251   -3.1932898    1.5124008   453158 
 5232000     1.041153   -3.1942726   -1.6812095   0.07598789   -3.1942726     1.513063   453182 
 5233000    1.0421835   -3.1953806     -1.68085  0.072342186   -3.1953806    1.5145306   453191 
 5234000    1.0427984   -3.1944742   -1.6790768  0.075822389   -3.1944742    1.5153974   453199 
 5235000    1.0435648   -3.1981407   -1.6815258  0.072019267   -3.1981407    1.5166149   453168 
 5236000    1.0432847   -3.1974003   -1.6812159  0.076265672   -3.1974003    1.5161844   453175 
 5237000    1.0431444   -3.1984403   -1.6824932  0.073235491   -3.1984403    1.5159471   453185 
 5238000    1.0417663   -3.1964124   -1.6825249  0.072327124   -3.1964124    1.5138875   453202 
 5239000    1.0439578   -3.1997608   -1.6827856  0.071334061   -3.1997608    1.5169752   453231 
 5240000    1.0410697   -3.1964286   -1.6835566  0.074716703   -3.1964286    1.5128719   453203 
 5241000    1.0412272   -3.1961357   -1.6830415  0.070814847   -3.1961357    1.5130942   453205 
 5242000    1.0412136   -3.1969268   -1.6838824  0.074705714   -3.1969268    1.5130444   453214 
 5243000    1.0424494   -3.1981792   -1.6833658  0.073130096   -3.1981792    1.5148134   453222 
 5244000    1.0421587    -3.198613   -1.6842989  0.074401653    -3.198613    1.5143141   453245 
 5245000    1.0435833   -3.1998922   -1.6835682  0.076764647   -3.1998922     1.516324   453263 
 5246000    1.0443845   -3.2010103   -1.6834151  0.073481363   -3.2010103    1.5175951   453231 
 5247000    1.0427673   -3.1985808   -1.6833823  0.076356481   -3.1985808    1.5151984   453245 
 5248000    1.0424445   -3.1989281   -1.6842722  0.078134223   -3.1989281    1.5146559   453267 
 5249000    1.0432291   -3.1999585    -1.684186  0.075181488   -3.1999585    1.5157725   453274 
 5250000    1.0433927   -3.1986415    -1.682638  0.074738067   -3.1986415    1.5160035   453276 
 5251000    1.0444868   -3.1990332   -1.6815303  0.078049547   -3.1990332    1.5175028   453303 
 5252000     1.044906   -3.1995361   -1.6815415   0.07627563   -3.1995361    1.5179946   453338 
 5253000    1.0435155   -3.1978638   -1.6819328  0.073684823   -3.1978638     1.515931   453351 
 5254000    1.0429942   -3.1985321   -1.6833449  0.073517989   -3.1985321    1.5151872   453347 
 5255000    1.0432707   -3.1987006   -1.6831151  0.073887998   -3.1987006    1.5155855   453348 
 5256000    1.0441583   -3.2009076   -1.6840361  0.068626938   -3.2009076    1.5168715   453349 
 5257000    1.0432822   -3.1993705   -1.6837147  0.073567351   -3.1993705    1.5156557   453332 
 5258000    1.0430667   -3.1977728   -1.6823934  0.071634408   -3.1977728    1.5153794   453321 
 5259000    1.0425743   -3.1977331    -1.683049  0.075361666   -3.1977331    1.5146841   453315 
 5260000    1.0418474   -3.1952996   -1.6818251  0.074196373   -3.1952996    1.5134745   453361 
 5261000    1.0438935   -3.1983509   -1.6818773  0.069909675   -3.1983509    1.5164736   453353 
 5262000    1.0436815   -3.1970503    -1.680955  0.072415303   -3.1970503    1.5160953   453374 
 5263000    1.0408906   -3.1936817   -1.6816138  0.076945716   -3.1936817    1.5120678   453366 
 5264000      1.04257   -3.1958888   -1.6815083  0.068700955   -3.1958888    1.5143805   453404 
 5265000    1.0406231   -3.1934518   -1.6820159  0.072177812   -3.1934518    1.5114359   453439 
 5266000    1.0417317    -3.194119   -1.6810329  0.075146902    -3.194119    1.5130861   453427 
 5267000    1.0421435   -3.1933304   -1.6795793   0.07934947   -3.1933304     1.513751   453407 
 5268000    1.0439011   -3.1960611   -1.6797538  0.071938666   -3.1960611    1.5163073   453406 
 5269000    1.0442582   -3.1969429   -1.6802439   0.07064952   -3.1969429     1.516699   453444 
 5270000    1.0442237   -3.1966153   -1.6800434  0.069174117   -3.1966153    1.5165719   453467 
 5271000    1.0445211    -3.195549   -1.6785887  0.076798858    -3.195549    1.5169603   453480 
 5272000    1.0448095    -3.195733   -1.6783238  0.068757316    -3.195733    1.5174092   453471 
 5273000    1.0433928   -3.1930998    -1.677845  0.071739649   -3.1930998    1.5152548   453500 
 5274000    1.0429964   -3.1939887   -1.6793129  0.069722392   -3.1939887    1.5146758   453501 
 5275000    1.0435685   -3.1937616   -1.6783752  0.072365857   -3.1937616    1.5153863   453537 
 5276000      1.04369   -3.1936302   -1.6779672  0.073961898   -3.1936302    1.5156631   453507 
 5277000     1.044347   -3.1957337   -1.6792335  0.068027618   -3.1957337    1.5165002   453542 
 5278000    1.0440906   -3.1943067   -1.6782525  0.075178097   -3.1943067    1.5160542   453564 
 5279000    1.0418722   -3.1930067   -1.6801369  0.071364618   -3.1930067    1.5128698   453553 
 5280000     1.043026   -3.1950211   -1.6802789   0.06646629   -3.1950211    1.5147422   453494 
 5281000    1.0427077   -3.1929943   -1.6786275  0.075850959   -3.1929943    1.5143667   453468 
 5282000    1.0425936    -3.192185   -1.6779806  0.067091653    -3.192185    1.5142044   453467 
 5283000    1.0433886   -3.1931904   -1.6777879  0.075417897   -3.1931904    1.5154025   453454 
 5284000    1.0441683   -3.1945316   -1.6781506  0.073584033   -3.1945316    1.5163811   453500 
 5285000    1.0435534   -3.1940783   -1.6785402  0.077571131   -3.1940783    1.5155381   453485 
 5286000    1.0442301   -3.1956368   -1.6791024  0.072820127   -3.1956368    1.5165344   453481 
 5287000    1.0422868   -3.1936334   -1.6798913  0.070125672   -3.1936334    1.5137421   453472 
 5288000    1.0440501   -3.1965088    -1.680306  0.069299646   -3.1965088    1.5162028   453502 
 5289000    1.0439144    -3.195333   -1.6793207  0.075411035    -3.195333    1.5160123   453500 
 5290000    1.0434844   -3.1957457   -1.6803612  0.078731605   -3.1957457    1.5153845   453501 
 5291000    1.0436255   -3.1963244   -1.6806682  0.071962751   -3.1963244    1.5156562   453481 
 5292000    1.0429151   -3.1952369   -1.6807059  0.075608839   -3.1952369    1.5145311   453509 
 5293000    1.0438212   -3.1971813   -1.6813512  0.071583764   -3.1971813    1.5158302   453514 
 5294000     1.042631   -3.1971107   -1.6830489  0.068236375   -3.1971107    1.5140617   453526 
 5295000    1.0420829   -3.1969568   -1.6836811  0.078104707   -3.1969568    1.5132757   453523 
 5296000     1.042257   -3.1966919   -1.6831833  0.070736251   -3.1966919    1.5135086   453529 
 5297000    1.0414325   -3.1961949   -1.6839437  0.067495349   -3.1961949    1.5122512   453547 
 5298000    1.0412212   -3.1957447   -1.6838402  0.069167227   -3.1957447    1.5119045   453559 
 5299000    1.0410555   -3.1954349   -1.6837944  0.078122488   -3.1954349    1.5116406   453566 
 5300000    1.0424258   -3.1966187   -1.6830419  0.069098858   -3.1966187    1.5135769   453582 
 5301000    1.0422916   -3.1963238   -1.6829585  0.070818616   -3.1963238    1.5133653   453587 
 5302000    1.0444596    -3.198937   -1.6825441  0.075678644    -3.198937    1.5163929   453623 
 5303000     1.043306   -3.1968096   -1.6821284  0.076497844   -3.1968096    1.5146812   453634 
 5304000    1.0434593   -3.1987055   -1.6836982  0.076486456   -3.1987055    1.5150073   453603 
 5305000    1.0429987   -3.1980989   -1.6837703  0.068761068   -3.1980989    1.5143286   453606 
 5306000    1.0446948   -3.1983293   -1.6816886  0.074628246   -3.1983293    1.5166407   453651 
 5307000    1.0447921   -3.1987871   -1.6821055  0.077714824   -3.1987871    1.5166816   453681 
 5308000    1.0453736   -3.2006909   -1.6831284  0.072731626   -3.2006909    1.5175625   453670 
 5309000    1.0444709   -3.1988566   -1.6826112  0.074966816   -3.1988566    1.5162454   453672 
 5310000    1.0439979   -3.1972902   -1.6818249  0.080839157   -3.1972902    1.5154653   453700 
 5311000     1.044912   -3.1982683   -1.6814895  0.078573953   -3.1982683    1.5167788   453704 
 5312000    1.0449358   -3.1987244   -1.6819814  0.074601301   -3.1987244    1.5167431   453725 
 5313000     1.044561   -3.1974793   -1.6811532  0.077266611   -3.1974793    1.5163261   453687 
 5314000    1.0432686   -3.1966846   -1.6822714  0.071919543   -3.1966846    1.5144132   453698 
 5315000    1.0436251   -3.1979395   -1.6830388  0.075841668   -3.1979395    1.5149007   453707 
 5316000    1.0434886   -3.1972391   -1.6825999  0.077557523   -3.1972391    1.5146392   453726 
 5317000    1.0415902   -3.1956378   -1.6836909  0.076448977   -3.1956378    1.5119469   453707 
 5318000    1.0434651   -3.1968459    -1.682261  0.074085298   -3.1968459    1.5145849   453732 
 5319000    1.0439875   -3.1967246   -1.6814114  0.074598154   -3.1967246    1.5153132   453741 
 5320000    1.0430639   -3.1946391   -1.6807131  0.077389083   -3.1946391     1.513926   453755 
 5321000    1.0429525   -3.1952592   -1.6813983  0.065481621   -3.1952592    1.5138609   453726 
 5322000    1.0433205   -3.1964159   -1.6820508  0.076241328   -3.1964159    1.5143651   453735 
 5323000    1.0436527   -3.1963052   -1.6814546  0.075059143   -3.1963052    1.5148507   453734 
 5324000    1.0434016   -3.1956806   -1.6810742  0.078085113   -3.1956806    1.5146064   453698 
 5325000    1.0413453   -3.1931055   -1.6814641  0.071934848   -3.1931055    1.5116414   453692 
 5326000    1.0430204   -3.1940383   -1.6799887  0.071177136   -3.1940383    1.5140496   453699 
 5327000    1.0440299    -3.195135   -1.6795866  0.070181799    -3.195135    1.5155484   453689 
 5328000    1.0419805     -3.19416   -1.6815932  0.075517444     -3.19416    1.5125668   453691 
 5329000    1.0415667    -3.193368   -1.6815353  0.072613127    -3.193368    1.5118328   453731 
 5330000      1.04222   -3.1939739   -1.6812429  0.071294766   -3.1939739     1.512731   453746 
 5331000    1.0424357   -3.1938659   -1.6808351  0.071329194   -3.1938659    1.5130309   453750 
 5332000    1.0427476   -3.1941522   -1.6806854  0.072849117   -3.1941522    1.5134668   453755 
 5333000    1.0450188   -3.1970188    -1.680172  0.066490497   -3.1970188    1.5168469   453730 
 5334000    1.0439171   -3.1957036   -1.6805227  0.067959541   -3.1957036     1.515181   453750 
 5335000    1.0434644   -3.1956393   -1.6811421  0.073784391   -3.1956393    1.5144972   453758 
 5336000    1.0411991   -3.1908998   -1.6797039  0.071907519   -3.1908998    1.5111959   453762 
 5337000     1.043833   -3.1953324   -1.6804237  0.069265708   -3.1953324    1.5149086   453795 
 5338000    1.0442125   -3.1968706   -1.6815046  0.074851022   -3.1968706     1.515366   453823 
 5339000    1.0439484   -3.1959376   -1.6809315  0.074158678   -3.1959376    1.5150061   453816 
 5340000    1.0446755   -3.1967727   -1.6807883  0.076207602   -3.1967727    1.5159844   453839 
 5341000    1.0449017   -3.1963274   -1.6800483  0.072604553   -3.1963274    1.5162792   453849 
 5342000    1.0439929   -3.1948983    -1.679978  0.071193973   -3.1948983    1.5149203   453861 
 5343000    1.0438842    -3.195875    -1.681099  0.073702416    -3.195875    1.5147761   453857 
 5344000    1.0432348   -3.1954945   -1.6817109   0.07601139   -3.1954945    1.5137837   453872 
 5345000    1.0433797   -3.1944653   -1.6805748  0.074920332   -3.1944653    1.5138904   453903 
 5346000    1.0434299   -3.1957876   -1.6817408  0.075864034   -3.1957876    1.5140467   453878 
 5347000    1.0434892   -3.1962965   -1.6822072  0.076965526   -3.1962965    1.5140893   453891 
 5348000    1.0436321   -3.1954481   -1.6812582   0.07670226   -3.1954481    1.5141899   453923 
 5349000    1.0438859   -3.1956266   -1.6811384  0.077408602   -3.1956266    1.5144882   453944 
 5350000    1.0440305   -3.1956652   -1.6809673  0.074320259   -3.1956652    1.5146979   453944 
 5351000    1.0433708   -3.1947359   -1.6809451   0.07554975   -3.1947359    1.5137908   453929 
 5352000    1.0442291    -3.196615   -1.6815288  0.078549967    -3.196615    1.5150863   453914 
 5353000    1.0419829   -3.1947071   -1.6829831  0.070970865   -3.1947071    1.5117239   453945 
 5354000    1.0441744   -3.1972907   -1.6824741  0.074041677   -3.1972907    1.5148167   453971 
 5355000    1.0444097   -3.1967922   -1.6815441  0.072220376   -3.1967922    1.5152481   453944 
 5356000    1.0422367   -3.1944995   -1.6824273  0.076840335   -3.1944995    1.5120722   453951 
 5357000     1.043015   -3.1959852   -1.6827973  0.071946592   -3.1959852    1.5131879   453955 
 5358000    1.0428001   -3.1965193   -1.6835565  0.068012506   -3.1965193    1.5129628   453929 
 5359000    1.0424679   -3.1961522   -1.6837447  0.070109389   -3.1961522    1.5124075   453951 
 5360000    1.0424485   -3.1955171   -1.6832209  0.073383958   -3.1955171    1.5122962   453976 
 5361000    1.0425171   -3.1968694   -1.6844372  0.072062238   -3.1968694    1.5124323   453965 
 5362000    1.0420033   -3.1957075   -1.6839073   0.07794625   -3.1957075    1.5118001   453931 
 5363000    1.0439744   -3.1971415   -1.6825349  0.075246393   -3.1971415    1.5146066   453947 
 5364000    1.0433011   -3.1962145   -1.6827215  0.073043911   -3.1962145     1.513493   453988 
 5365000    1.0443373   -3.1983818   -1.6833756  0.076043778   -3.1983818    1.5150063   453985 
 5366000    1.0436565   -3.1967608   -1.6827489  0.073760788   -3.1967608    1.5140119   453987 
 5367000    1.0440358   -3.1957795    -1.681244  0.075245914   -3.1957795    1.5145354   453995 
 5368000     1.044681   -3.1957468   -1.6803822  0.075088221   -3.1957468    1.5153646   454027 
 5369000     1.042872   -3.1945663    -1.681919  0.075660006   -3.1945663    1.5126473   454055 
 5370000    1.0444511   -3.1955618   -1.6806974  0.071132178   -3.1955618    1.5148644   454077 
 5371000    1.0463608   -3.1993285   -1.6818614  0.072294159   -3.1993285    1.5174671   454127 
 5372000    1.0432553   -3.1960029   -1.6830728  0.071567667   -3.1960029    1.5129301   454137 
 5373000    1.0425163   -3.1953237   -1.6833955  0.072013631   -3.1953237    1.5119282   454116 
 5374000    1.0432615   -3.1953649   -1.6824159  0.070073978   -3.1953649     1.512949   454134 
 5375000    1.0447906   -3.1960927   -1.6809027  0.073567102   -3.1960927    1.5151899   454127 
 5376000    1.0458744   -3.1990651   -1.6822366  0.065898815   -3.1990651    1.5168285   454107 
 5377000    1.0431379   -3.1948078   -1.6820313  0.070327588   -3.1948078    1.5127765   454132 
 5378000    1.0432406   -3.1950465   -1.6821444  0.075718857   -3.1950465    1.5129021   454139 
 5379000    1.0426322   -3.1946688   -1.6827423  0.074459813   -3.1946688    1.5119265   454167 
 5380000    1.0434317   -3.1963217   -1.6832391  0.074161401   -3.1963217    1.5130825   454168 
 5381000    1.0430592   -3.1954394    -1.682947  0.073030995   -3.1954394    1.5124924   454183 
 5382000    1.0436046   -3.1963583   -1.6830949  0.073070913   -3.1963583    1.5132634   454189 
 5383000    1.0430582   -3.1946338   -1.6823127  0.074441478   -3.1946338    1.5123212   454234 
 5384000    1.0433341   -3.1945977   -1.6819431   0.07063168   -3.1945977    1.5126546   454254 
 5385000    1.0423504   -3.1940208   -1.6828124   0.07178054   -3.1940208    1.5112084   454260 
 5386000    1.0434265   -3.1955689   -1.6828203  0.069915383   -3.1955689    1.5127486   454266 
 5387000    1.0441109   -3.1957323   -1.6818747  0.069790311   -3.1957323    1.5138576   454231 
 5388000    1.0438325   -3.1971282   -1.6836643  0.073582399   -3.1971282    1.5134639   454228 
 5389000    1.0444182   -3.1964659   -1.6821562  0.073357123   -3.1964659    1.5143097   454229 
 5390000    1.0421436   -3.1948951   -1.6837336  0.077552498   -3.1948951    1.5111615   454184 
 5391000    1.0432616   -3.1969622   -1.6842062  0.075164042   -3.1969622     1.512756   454192 
 5392000     1.043214   -3.1962675   -1.6836638  0.072660878   -3.1962675    1.5126037   454217 
 5393000    1.0440297   -3.1980427    -1.684363  0.069453948   -3.1980427    1.5136797   454249 
 5394000    1.0429238    -3.197849   -1.6858092  0.065168958    -3.197849    1.5120398   454260 
 5395000    1.0415758   -3.1956821   -1.6854871  0.074902102   -3.1956821    1.5101951   454227 
 5396000    1.0444938   -3.1992468   -1.6847275   0.06596799   -3.1992468    1.5145193   454199 
 5397000    1.0419108   -3.1974873   -1.6866801  0.077023785   -3.1974873    1.5108072   454189 
 5398000    1.0429534   -3.1983987   -1.6860996  0.070135305   -3.1983987    1.5122991   454195 
 5399000    1.0439285   -3.1998118   -1.6861554  0.069435699   -3.1998118    1.5136563   454212 
 5400000    1.0432368   -3.1991372   -1.6864872  0.073462861   -3.1991372      1.51265   454213 
 5401000     1.043644   -3.1991181   -1.6857744  0.077780808   -3.1991181    1.5133437   454182 
 5402000    1.0446858   -3.2003769   -1.6854624  0.068230684   -3.2003769    1.5149145   454164 
 5403000    1.0444592    -3.200142    -1.685456  0.074663302    -3.200142     1.514686   454134 
 5404000    1.0434337   -3.1992217    -1.686073  0.073300755   -3.1992217    1.5131487   454149 
 5405000    1.0447483    -3.200348   -1.6853462  0.072987014    -3.200348    1.5150018   454165 
 5406000    1.0466489   -3.2033983   -1.6856337  0.071352365   -3.2033983    1.5177646   454163 
 5407000    1.0434143   -3.1985051   -1.6855177  0.073560631   -3.1985051    1.5129874   454189 
 5408000    1.0424238   -3.1975374   -1.6860494  0.071447497   -3.1975374    1.5114879   454208 
 5409000    1.0431543   -3.1992845   -1.6867774  0.075325079   -3.1992845    1.5125071   454220 
 5410000    1.0450168   -3.2023196   -1.6870218  0.068594336   -3.2023196    1.5152978   454193 
 5411000    1.0430582    -3.198697    -1.686266  0.071615561    -3.198697     1.512431   454201 
 5412000    1.0432135   -3.1990139   -1.6862978  0.074636525   -3.1990139    1.5127162   454183 
 5413000    1.0427257     -3.19879   -1.6866779   0.07348548     -3.19879    1.5121121   454152 
 5414000    1.0442926     -3.20087   -1.6865289  0.067883992     -3.20087     1.514341   454165 
 5415000    1.0437002   -3.1998884   -1.6864232  0.076485573   -3.1998884    1.5134652   454170 
 5416000    1.0420296   -3.1978263   -1.6866904  0.076585765   -3.1978263    1.5111359   454142 
 5417000    1.0430944   -3.1983561    -1.685746  0.072942827   -3.1983561    1.5126101   454163 
 5418000      1.04325   -3.1967921   -1.6839997  0.076477878   -3.1967921    1.5127924   454176 
 5419000     1.043756   -3.1990894   -1.6855865  0.070171879   -3.1990894    1.5135029   454183 
 5420000    1.0439883   -3.1999908   -1.6861477  0.073545722   -3.1999908    1.5138431   454182 
 5421000    1.0444134   -3.2010252   -1.6865757  0.073977872   -3.2010252    1.5144495   454185 
 5422000    1.0425352   -3.1993465   -1.6877038  0.069116677   -3.1993465    1.5116428   454210 
 5423000    1.0428148   -3.1991596   -1.6871447  0.068162611   -3.1991596    1.5120149   454220 
 5424000    1.0438826   -3.2002475   -1.6867177  0.072233099   -3.2002475    1.5135298   454230 
 5425000    1.0433562   -3.1996112   -1.6869413  0.068723617   -3.1996112      1.51267   454259 
 5426000    1.0434074   -3.1984461   -1.6858085  0.073922625   -3.1984461    1.5126376   454291 
 5427000    1.0427931   -3.1970383   -1.6853111  0.076888325   -3.1970383    1.5117272   454297 
 5428000     1.043076   -3.1969345   -1.6848205  0.076720743   -3.1969345     1.512114   454304 
 5429000    1.0456203   -3.1991758   -1.6834303   0.06277271   -3.1991758    1.5157456   454321 
 5430000    1.0450382   -3.1978099   -1.6830614  0.068479799   -3.1978099    1.5147485   454367 
 5431000     1.044542   -3.1964414   -1.6823822  0.073431573   -3.1964414    1.5140592   454358 
 5432000    1.0446933   -3.1960047   -1.6818128   0.07502353   -3.1960047    1.5141919   454384 
 5433000    1.0448362   -3.1965415   -1.6821325  0.073791637   -3.1965415     1.514409   454381 
 5434000     1.044928   -3.1967954   -1.6822834   0.07668884   -3.1967954     1.514512   454390 
 5435000    1.0452889   -3.1969386   -1.6820268  0.069027181   -3.1969386    1.5149118   454427 
 5436000    1.0462409   -3.1973419   -1.6811971  0.073092161   -3.1973419    1.5161447   454471 
 5437000    1.0458174    -3.197633   -1.6820086  0.071757881    -3.197633    1.5156244   454443 
 5438000    1.0447471   -3.1973946   -1.6833646  0.064506508   -3.1973946      1.51403   454456 
 5439000    1.0460638   -3.1988883   -1.6830169    0.0757704   -3.1988883    1.5158714   454476 
 5440000    1.0443832   -3.1972581   -1.6838555  0.071162951   -3.1972581    1.5134026   454486 
 5441000     1.045951   -3.1992105    -1.683676   0.07247486   -3.1992105    1.5155345   454528 
 5442000    1.0436203   -3.1960306   -1.6839364  0.070613513   -3.1960306    1.5120942   454547 
 5443000    1.0449341   -3.1969796   -1.6831383  0.071750989   -3.1969796    1.5138413   454594 
 5444000    1.0442221   -3.1960872   -1.6833074  0.070362817   -3.1960872    1.5127799   454603 
 5445000    1.0462534   -3.1982279   -1.6824853  0.073940388   -3.1982279    1.5157426   454597 
 5446000    1.0458883   -3.1962504   -1.6811701  0.073490386   -3.1962504    1.5150803   454637 
 5447000    1.0442087   -3.1951351   -1.6825012  0.077140913   -3.1951351    1.5126339   454641 
 5448000    1.0459782   -3.1965802    -1.681363  0.070595512   -3.1965802    1.5152172   454635 
 5449000    1.0463415   -3.1971197   -1.6814595  0.075296061   -3.1971197    1.5156602   454660 
 5450000    1.0455383   -3.1972982   -1.6826816  0.074181435   -3.1972982    1.5146166   454624 
 5451000    1.0463232   -3.1986462   -1.6828625   0.06671101   -3.1986462    1.5157837   454615 
 5452000     1.046624   -3.1985372   -1.6822377  0.072819302   -3.1985372    1.5162995   454591 
 5453000    1.0462667   -3.1988754   -1.6830702  0.078660747   -3.1988754    1.5158052   454584 
 5454000     1.045029   -3.1984116   -1.6844162  0.074615972   -3.1984116    1.5139953   454589 
 5455000    1.0469618   -3.2006292   -1.6838771  0.066990061   -3.2006292    1.5167522   454602 
 5456000    1.0454927   -3.1989953   -1.6843914  0.071361269   -3.1989953    1.5146038   454608 
 5457000    1.0451334   -3.1990084   -1.6849218  0.069999898   -3.1990084    1.5140867   454607 
 5458000    1.0449646   -3.1991687   -1.6851667  0.068574368   -3.1991687     1.514002   454559 
 5459000    1.0450747   -3.1995974   -1.6853159  0.069551409   -3.1995974    1.5142814   454523 
 5460000     1.044358   -3.1993638   -1.6860975  0.068329089   -3.1993638    1.5132663   454516 
 5461000    1.0447011   -3.2014827   -1.6877492  0.069803825   -3.2014827    1.5137335   454525 
 5462000    1.0433725   -3.1982592   -1.6865739  0.072736468   -3.1982592    1.5116853   454562 
 5463000    1.0432756   -3.1983787   -1.6868703  0.072033614   -3.1983787    1.5115084   454573 
 5464000    1.0437066   -3.1995871   -1.6875008  0.063898531   -3.1995871    1.5120863   454587 
 5465000    1.0454648   -3.2010435   -1.6864834  0.068304061   -3.2010435    1.5145601   454609 
 5466000    1.0443077   -3.1992743   -1.6863239  0.077402543   -3.1992743    1.5129504   454589 
 5467000    1.0445136   -3.1998608   -1.6865555  0.070305037   -3.1998608    1.5133053   454572 
 5468000    1.0437725   -3.1995128   -1.6871414  0.072291461   -3.1995128    1.5123714   454530 
 5469000    1.0450165   -3.2009854   -1.6868083  0.073539713   -3.2009854    1.5141771   454529 
 5470000    1.0455217    -3.201129   -1.6861832  0.070552445    -3.201129    1.5149458   454518 
 5471000    1.0448663   -3.2007204   -1.6867675  0.076625327   -3.2007204    1.5139529   454531 
 5472000    1.0444136   -3.2007879   -1.6875843  0.072259279   -3.2007879    1.5132037   454559 
 5473000    1.0455672   -3.2023837   -1.6875987  0.063335381   -3.2023837    1.5147851   454586 
 5474000    1.0433673   -3.1991421    -1.687634  0.074957443   -3.1991421    1.5115081   454613 
 5475000    1.0444442   -3.1986351   -1.6855868  0.075687398   -3.1986351    1.5130483   454619 
 5476000    1.0460783   -3.2001777   -1.6846722  0.080282291   -3.2001777    1.5155055   454592 
 5477000    1.0483645     -3.20299   -1.6842425  0.074297356     -3.20299    1.5187475   454613 
 5478000    1.0457421   -3.1977218   -1.6827567  0.076095471   -3.1977218    1.5149651   454608 
 5479000    1.0467305   -3.2003569   -1.6839732  0.072278826   -3.2003569    1.5163837   454612 
 5480000    1.0461253    -3.199317     -1.68397  0.074089724    -3.199317     1.515347   454660 
 5481000    1.0463393    -3.198903    -1.683226  0.073762877    -3.198903    1.5156769   454654 
 5482000    1.0461661   -3.1979264   -1.6824571  0.072768825   -3.1979264    1.5154694   454641 
 5483000    1.0448272   -3.1969925   -1.6835192  0.073417362   -3.1969925    1.5134733   454658 
 5484000    1.0451437   -3.1973724   -1.6834373  0.067885845   -3.1973724    1.5139351   454657 
 5485000    1.0454204   -3.1980844   -1.6836686  0.070091944   -3.1980844    1.5144158   454633 
 5486000    1.0465344   -3.2000664   -1.6840634  0.073700129   -3.2000664     1.516003   454641 
 5487000    1.0447528   -3.1985008    -1.685052  0.068834955   -3.1985008    1.5134487   454633 
 5488000    1.0444959   -3.1972696   -1.6843394  0.068509597   -3.1972696    1.5129302   454677 
 5489000    1.0449639    -3.197677    -1.684069  0.072964566    -3.197677     1.513608   454677 
 5490000    1.0441576   -3.1945073   -1.6820704  0.071561845   -3.1945073    1.5124369   454678 
 5491000    1.0435579   -3.1947576   -1.6832626   0.06822457   -3.1947576    1.5114951   454700 
 5492000    1.0439404    -3.195905   -1.6838859  0.069404278    -3.195905    1.5120191   454709 
 5493000    1.0445152   -3.1961254   -1.6833137  0.066255533   -3.1961254    1.5128117   454721 
 5494000    1.0432842   -3.1951533   -1.6841578  0.073531099   -3.1951533    1.5109956   454731 
 5495000    1.0451405   -3.1959531   -1.6823156  0.069298682   -3.1959531    1.5136375   454745 
 5496000    1.0463471   -3.1957537   -1.6803021  0.076621303   -3.1957537    1.5154516   454725 
 5497000    1.0452986   -3.1957363   -1.6817134  0.073605214   -3.1957363    1.5140229   454698 
 5498000    1.0465522    -3.196057   -1.6802116  0.079283939    -3.196057    1.5158453   454696 
 5499000     1.047028   -3.1960251   -1.6796172   0.07637612   -3.1960251    1.5164078   454734 
 5500000    1.0466378   -3.1945363    -1.678717  0.072311622   -3.1945363    1.5158193   454741 
 5501000    1.0452659   -3.1944131   -1.6807338  0.069212707   -3.1944131    1.5136793   454787 
 5502000    1.0459043   -3.1957718   -1.6812579  0.067790613   -3.1957718    1.5145139   454814 
 5503000    1.0454855   -3.1958728   -1.6820053  0.065810821   -3.1958728    1.5138676   454826 
 5504000     1.046067   -3.1980512   -1.6833716  0.070395763   -3.1980512    1.5146795   454835 
 5505000    1.0437258   -3.1948861   -1.6837195  0.075306696   -3.1948861    1.5111666   454872 
 5506000    1.0455735   -3.1965999   -1.6828746  0.068209581   -3.1965999    1.5137254   454907 
 5507000    1.0447101   -3.1949698   -1.6825642  0.067807126   -3.1949698    1.5124056   454928 
 5508000    1.0455975   -3.1948836   -1.6813498  0.071893598   -3.1948836    1.5135338   454975 
 5509000    1.0453758   -3.1952642   -1.6819714  0.069996149   -3.1952642    1.5132927   454951 
 5510000    1.0453051   -3.1960291   -1.6827755  0.073549583   -3.1960291    1.5132535   454932 
 5511000    1.0453986   -3.1963314   -1.6829392  0.066559302   -3.1963314    1.5133922   454931 
 5512000    1.0457454   -3.1955592   -1.6817747  0.075146002   -3.1955592    1.5137845   454964 
 5513000    1.0486556   -3.1986737   -1.6807898  0.074238356   -3.1986737    1.5178839   454998 
 5514000    1.0474064   -3.1968388   -1.6808099  0.069489052   -3.1968388    1.5160289   455012 
 5515000    1.0492993   -3.1992828   -1.6805106  0.080502582   -3.1992828    1.5187722   455011 
 5516000    1.0499893    -3.198428    -1.678734  0.076167181    -3.198428     1.519694   455034 
 5517000    1.0498655   -3.1991762   -1.6796814  0.075305252   -3.1991762    1.5194948   455040 
 5518000    1.0491522   -3.1994284   -1.6810361  0.076154762   -3.1994284    1.5183923   455061 
 5519000    1.0496396   -3.1999009   -1.6807564  0.080080391   -3.1999009    1.5191445   455047 
 5520000    1.0494148   -3.1996337   -1.6810048  0.079007635   -3.1996337    1.5186288   455104 
 5521000    1.0496668   -3.2005616   -1.6815747  0.074541368   -3.2005616    1.5189869   455106 
 5522000    1.0482024    -3.198833    -1.681992  0.072023568    -3.198833    1.5168411   455114 
 5523000    1.0505337   -3.2013648   -1.6812203  0.068312822   -3.2013648    1.5201445   455135 
 5524000    1.0498489   -3.2009609   -1.6818373  0.078177384   -3.2009609    1.5191236   455144 
 5525000    1.0497454   -3.2010261   -1.6820022  0.074548768   -3.2010261    1.5190239   455129 
 5526000     1.047466   -3.1983093   -1.6827768  0.074783997   -3.1983093    1.5155324   455187 
 5527000    1.0488865    -3.200433   -1.6827487  0.071368877    -3.200433    1.5176843   455158 
 5528000    1.0475089   -3.1994099    -1.683639  0.078363153   -3.1994099    1.5157709   455134 
 5529000    1.0466674   -3.1974222   -1.6829488  0.076684827   -3.1974222    1.5144735   455158 
 5530000    1.0478648   -3.2008716    -1.684569  0.068188439   -3.2008716    1.5163026   455129 
 5531000    1.0467171   -3.1986944   -1.6841159  0.068297178   -3.1986944    1.5145785   455148 
 5532000    1.0456365   -3.1975466   -1.6845216  0.070616254   -3.1975466     1.513025   455145 
 5533000    1.0459333   -3.1971698   -1.6838085  0.069508513   -3.1971698    1.5133613   455173 
 5534000    1.0458264   -3.1959853   -1.6827853  0.071102542   -3.1959853    1.5132001   455175 
 5535000    1.0456213   -3.1965509   -1.6836743  0.069084423   -3.1965509    1.5128766   455183 
 5536000    1.0454788   -3.1956745   -1.6831004  0.073868124   -3.1956745    1.5125742   455212 
 5537000    1.0475589   -3.1980861   -1.6824193  0.065731704   -3.1980861    1.5156668   455187 
 5538000    1.0458739   -3.1946986   -1.6814132  0.071951209   -3.1946986    1.5132853   455170 
 5539000    1.0464866   -3.1958629   -1.6817044  0.071732937   -3.1958629    1.5141585   455174 
 5540000    1.0454538   -3.1934639   -1.6809126  0.074642731   -3.1934639    1.5125513   455208 
 5541000    1.0479834   -3.1980598   -1.6817654  0.070316545   -3.1980598    1.5162943   455183 
 5542000    1.0484135   -3.1989502   -1.6820004  0.073017672   -3.1989502    1.5169499   455173 
 5543000    1.0490476   -3.1989112   -1.6810904  0.071699981   -3.1989112    1.5178208   455187 
 5544000    1.0485079   -3.1973029    -1.680273   0.07400935   -3.1973029    1.5170299   455190 
 5545000     1.050191   -3.1985118   -1.6790467  0.069217512   -3.1985118    1.5194651   455190 
 5546000    1.0482115   -3.1966947    -1.680127  0.071402066   -3.1966947    1.5165677   455200 
 5547000    1.0460801   -3.1942425   -1.6807718  0.072061128   -3.1942425    1.5134707   455204 
 5548000    1.0470299   -3.1949474   -1.6800093  0.069901909   -3.1949474    1.5149381   455176 
 5549000    1.0473705   -3.1965005    -1.681063  0.068078706   -3.1965005    1.5154374   455174 
 5550000       1.0459    -3.195158   -1.6818282  0.074187474    -3.195158    1.5133298   455168 
 5551000    1.0461349   -3.1952226   -1.6816062    0.0744615   -3.1952226    1.5136164   455184 
 5552000    1.0471907   -3.1973982   -1.6822741  0.068358276   -3.1973982    1.5151241   455190 
 5553000    1.0458786   -3.1958483   -1.6827057  0.069269809   -3.1958483    1.5131426   455215 
 5554000    1.0480375   -3.1984254    -1.682176  0.071719428   -3.1984254    1.5162494   455220 
 5555000    1.0463529   -3.1964131   -1.6826474  0.073705193   -3.1964131    1.5137656   455234 
 5556000     1.047263   -3.1962569    -1.681208  0.071658646   -3.1962569    1.5150489   455244 
 5557000    1.0468917   -3.1969511   -1.6824559  0.069178316   -3.1969511    1.5144952   455249 
 5558000      1.04568   -3.1957114   -1.6829094  0.069865954   -3.1957114     1.512802   455231 
 5559000     1.046155   -3.1962647   -1.6826657  0.071457301   -3.1962647     1.513599   455198 
 5560000    1.0463806   -3.1963365   -1.6824344  0.072076855   -3.1963365    1.5139021   455205 
 5561000    1.0464884   -3.1953198   -1.6812851  0.068949543   -3.1953198    1.5140347   455212 
 5562000    1.0473693   -3.1960144   -1.6807484  0.070265934   -3.1960144     1.515266   455225 
 5563000    1.0451535   -3.1952021   -1.6830688  0.079195151   -3.1952021    1.5121333   455203 
 5564000    1.0461976   -3.1963653   -1.6828444  0.076165749   -3.1963653    1.5135209   455240 
 5565000     1.048354   -3.1985102   -1.6820396  0.073586654   -3.1985102    1.5164706   455291 
 5566000    1.0471194   -3.1962854   -1.6816871  0.071174207   -3.1962854    1.5145984   455317 
 5567000    1.0484492    -3.198228   -1.6816229  0.070391322    -3.198228    1.5166051   455292 
 5568000    1.0473743   -3.1985594   -1.6835657  0.071726649   -3.1985594    1.5149936   455309 
 5569000    1.0468671   -3.1979049   -1.6836881  0.069508248   -3.1979049    1.5142168   455322 
 5570000    1.0479776   -3.1994166   -1.6836834  0.065388822   -3.1994166    1.5157332   455349 
 5571000    1.0460566   -3.1959412   -1.6830795   0.06614105   -3.1959412    1.5128617   455377 
 5572000    1.0468346   -3.1962952   -1.6823915   0.07236786   -3.1962952    1.5139037   455402 
 5573000    1.0468903   -3.1964126    -1.682292  0.072497705   -3.1964126    1.5141207   455361 
 5574000    1.0474259   -3.1969497   -1.6821076   0.07294274   -3.1969497    1.5148421   455377 
 5575000    1.0472261    -3.198692   -1.6841622  0.067236421    -3.198692    1.5145298   455384 
 5576000    1.0463567    -3.195848   -1.6826454  0.075354371    -3.195848    1.5132026   455405 
 5577000     1.046779   -3.1976582   -1.6839444  0.066974004   -3.1976582    1.5137137   455435 
 5578000    1.0457273   -3.1970514   -1.6848885  0.072757462   -3.1970514    1.5121629   455444 
 5579000    1.0469408   -3.1968945   -1.6829635  0.073455903   -3.1968945     1.513931   455440 
 5580000    1.0478101   -3.1989796   -1.6838581  0.071094952   -3.1989796    1.5151215   455460 
 5581000    1.0476112   -3.1978042   -1.6830302  0.071748349   -3.1978042     1.514774   455478 
 5582000    1.0472303   -3.1984373   -1.6842007  0.072952363   -3.1984373    1.5142366   455474 
 5583000    1.0473396   -3.1972095   -1.6829545  0.075201462   -3.1972095     1.514255   455516 
 5584000    1.0486794   -3.1999457   -1.6836804  0.066454712   -3.1999457    1.5162653   455494 
 5585000    1.0467876   -3.1967289   -1.6832753  0.069008792   -3.1967289    1.5134536   455517 
 5586000    1.0481872   -3.1972854   -1.6818215   0.07172145   -3.1972854    1.5154638   455521 
 5587000    1.0474696   -3.1964146   -1.6820946  0.073137251   -3.1964146      1.51432   455553 
 5588000    1.0469874   -3.1962055   -1.6826457  0.074629563   -3.1962055    1.5135597   455572 
 5589000    1.0494174   -3.1983731   -1.6813637  0.075092866   -3.1983731    1.5170094   455591 
 5590000     1.047548   -3.1963651   -1.6820648  0.072371924   -3.1963651    1.5143003   455593 
 5591000    1.0491491   -3.1976874   -1.6810193  0.079389406   -3.1976874     1.516668   455577 
 5592000    1.0485432   -3.1962689   -1.6805133  0.074057429   -3.1962689    1.5157556   455588 
 5593000    1.0486944   -3.1949594   -1.6792514  0.072559835   -3.1949594     1.515708   455668 
 5594000    1.0488442   -3.1962213     -1.68034  0.070448087   -3.1962213    1.5158813   455681 
 5595000    1.0493165   -3.1982224   -1.6816785  0.066116108   -3.1982224     1.516544   455687 
 5596000    1.0493718   -3.1969892   -1.6802556  0.071462115   -3.1969892    1.5167336   455654 
 5597000    1.0499164   -3.1988885   -1.6815141  0.074177553   -3.1988885    1.5173744   455698 
 5598000    1.0489183   -3.1975527   -1.6816508  0.072575825   -3.1975527    1.5159019   455707 
 5599000    1.0461165   -3.1934666   -1.6815709   0.07839173   -3.1934666    1.5118958   455694 
 5600000     1.047168   -3.1943643   -1.6810152  0.069907956   -3.1943643    1.5133491   455714 
 5601000    1.0499296   -3.1976079   -1.6803444  0.070764035   -3.1976079    1.5172635   455737 
 5602000    1.0486919   -3.1952393    -1.679781  0.072711112   -3.1952393    1.5154583   455742 
 5603000    1.0486131   -3.1949145     -1.67958  0.071970011   -3.1949145    1.5153345   455745 
 5604000    1.0487659   -3.1939125    -1.678467  0.069209714   -3.1939125    1.5154456   455778 
 5605000    1.0478448   -3.1939222   -1.6797843  0.073461278   -3.1939222    1.5141379   455771 
 5606000    1.0490975    -3.195378   -1.6794334  0.074557522    -3.195378    1.5159446   455772 
 5607000    1.0489912   -3.1953657   -1.6796711  0.073091313   -3.1953657    1.5156946   455801 
 5608000    1.0484005   -3.1957797   -1.6809119  0.076041561   -3.1957797    1.5148677   455793 
 5609000    1.0482843    -3.195697   -1.6809672  0.070868287    -3.195697    1.5147298   455784 
 5610000    1.0501245   -3.1970907   -1.6796154  0.070202914   -3.1970907    1.5174752   455758 
 5611000    1.0496544   -3.1965482   -1.6798221  0.073581652   -3.1965482    1.5167261   455779 
 5612000    1.0488359   -3.1950751   -1.6796281  0.075241917   -3.1950751     1.515447   455808 
 5613000    1.0491942   -3.1944082   -1.6785466  0.071737526   -3.1944082    1.5158616   455839 
 5614000    1.0499152    -3.195395   -1.6786448  0.070435886    -3.195395    1.5167502   455885 
 5615000    1.0504059   -3.1963699   -1.6790307  0.072940806   -3.1963699    1.5173393   455921 
 5616000    1.0492315   -3.1944998   -1.6788238   0.06511765   -3.1944998     1.515676   455911 
 5617000    1.0487515    -3.194955   -1.6799923  0.072297207    -3.194955    1.5149627   455917 
 5618000    1.0501155   -3.1957345   -1.6788614   0.07271184   -3.1957345    1.5168731   455935 
 5619000    1.0490771   -3.1937912   -1.6784678  0.074774331   -3.1937912    1.5153234   455950 
 5620000    1.0509113   -3.1965818   -1.6786323  0.073874568   -3.1965818    1.5179495   455957 
 5621000    1.0499029   -3.1961601   -1.6796473  0.070922178   -3.1961601    1.5165128   455951 
 5622000    1.0484652    -3.194212   -1.6797493  0.072247272    -3.194212    1.5144627   455943 
 5623000    1.0500616   -3.1967849   -1.6801791  0.072259068   -3.1967849    1.5166058   455992 
 5624000    1.0492523   -3.1947574   -1.6793005  0.077072246   -3.1947574    1.5154568   455986 
 5625000    1.0504595   -3.1966117   -1.6795544  0.072413475   -3.1966117    1.5170573   456029 
 5626000    1.0492901   -3.1944069   -1.6790251  0.071572946   -3.1944069    1.5153817   456025 
 5627000    1.0490985   -3.1939702    -1.678935  0.074730275   -3.1939702    1.5150352   456046 
 5628000    1.0501769   -3.1960858   -1.6796163  0.075318255   -3.1960858    1.5164696   456083 
 5629000    1.0496014   -3.1949066   -1.6793378  0.071104293   -3.1949066    1.5155688   456104 
 5630000    1.0517253   -3.1969288   -1.6783931  0.072354351   -3.1969288    1.5185357   456134 
 5631000    1.0513424   -3.1947269   -1.6767407   0.07060769   -3.1947269    1.5179862   456133 
 5632000    1.0502091    -3.193991   -1.6776478  0.076731447    -3.193991    1.5163432   456135 
 5633000    1.0517848   -3.1970246   -1.6784229  0.067504968   -3.1970246    1.5186016   456140 
 5634000    1.0503012   -3.1942832   -1.6779367   0.07376794   -3.1942832    1.5163465   456174 
 5635000    1.0518416   -3.1959275   -1.6772872  0.072046751   -3.1959275    1.5186404   456153 
 5636000    1.0495568   -3.1934552   -1.6781435  0.075058924   -3.1934552    1.5153117   456162 
 5637000    1.0506507   -3.1953773   -1.6783733  0.076219981   -3.1953773     1.517004   456128 
 5638000    1.0519715   -3.1966636   -1.6778623  0.073343523   -3.1966636    1.5188013   456161 
 5639000    1.0499616   -3.1921884   -1.6763022  0.076285245   -3.1921884    1.5158862   456165 
 5640000    1.0507347   -3.1940833   -1.6771906  0.069092865   -3.1940833    1.5168927   456198 
 5641000    1.0508651   -3.1953757   -1.6782916  0.070160342   -3.1953757    1.5170841   456197 
 5642000    1.0504788   -3.1950801   -1.6785669  0.075318382   -3.1950801    1.5165132   456201 
 5643000    1.0501463   -3.1949812   -1.6790012   0.07619346   -3.1949812      1.51598   456217 
 5644000    1.0498338   -3.1934012   -1.6778291  0.070412544   -3.1934012    1.5155721   456204 
 5645000    1.0497972   -3.1932936   -1.6777578  0.075027666   -3.1932936    1.5155358   456199 
 5646000    1.0508177   -3.1943658   -1.6774365  0.079843271   -3.1943658    1.5169293   456223 
 5647000    1.0501905    -3.193369   -1.6773052  0.072890491    -3.193369    1.5160638   456211 
 5648000    1.0492381   -3.1923948   -1.6776461  0.074948008   -3.1923948    1.5147487   456193 
 5649000    1.0512848   -3.1950759    -1.677519  0.073297732   -3.1950759     1.517557   456237 
 5650000    1.0509782   -3.1954962   -1.6784249   0.07547353   -3.1954962    1.5170712   456250 
 5651000    1.0502402   -3.1942806   -1.6782715  0.076803735   -3.1942806    1.5160092   456249 
 5652000    1.0500758   -3.1941556   -1.6784535   0.07447969   -3.1941556    1.5157021   456270 
 5653000    1.0494935   -3.1955114   -1.6805303   0.07081123   -3.1955114    1.5149811   456234 
 5654000    1.0490013   -3.1958857    -1.681479  0.072620546   -3.1958857    1.5144068   456193 
 5655000    1.0492331    -3.194245   -1.6795367  0.071696304    -3.194245    1.5147082   456203 
 5656000    1.0499695   -3.1951856   -1.6795074  0.068356059   -3.1951856    1.5156782   456231 
 5657000    1.0495081   -3.1945661   -1.6796402  0.067861227   -3.1945661    1.5149259   456257 
 5658000    1.0478734   -3.1924536   -1.6799537   0.07337961   -3.1924536    1.5124999   456277 
 5659000    1.0490735   -3.1931653   -1.6789696   0.06838206   -3.1931653    1.5141957   456288 
 5660000    1.0495497   -3.1939526   -1.6792024  0.073199291   -3.1939526    1.5147502   456328 
 5661000    1.0499226   -3.1948461   -1.6796507  0.071002768   -3.1948461    1.5151954   456356 
 5662000    1.0485785   -3.1937878   -1.6805255  0.068274431   -3.1937878    1.5132623   456354 
 5663000    1.0497299   -3.1935559   -1.6786451  0.075371313   -3.1935559    1.5149107   456358 
 5664000     1.051085   -3.1946091   -1.6778558  0.076428978   -3.1946091    1.5167533   456392 
 5665000    1.0500568   -3.1941254   -1.6787363  0.069001236   -3.1941254    1.5153891   456356 
 5666000    1.0511562   -3.1954345   -1.6784222  0.075864043   -3.1954345    1.5170123   456345 
 5667000    1.0519453   -3.1945138   -1.6764725  0.078827521   -3.1945138    1.5180413   456378 
 5668000    1.0503888   -3.1949329   -1.6791543  0.072440108   -3.1949329    1.5157786   456383 
 5669000    1.0508453   -3.1939067   -1.6775192  0.076132824   -3.1939067    1.5163875   456398 
 5670000    1.0535591   -3.1973883   -1.6770014  0.075434289   -3.1973883    1.5203868   456373 
 5671000    1.0508442   -3.1942248    -1.677726  0.079362458   -3.1942248    1.5164989   456364 
 5672000    1.0517437   -3.1961952   -1.6784914   0.07293475   -3.1961952    1.5177038   456392 
 5673000     1.050747   -3.1959311   -1.6796356  0.073559461   -3.1959311    1.5162954   456383 
 5674000    1.0488272   -3.1950632   -1.6815349  0.067996136   -3.1950632    1.5135284   456382 
 5675000    1.0485374     -3.19472   -1.6816297  0.069293333     -3.19472    1.5130903   456388 
 5676000    1.0498516   -3.1959357   -1.6810352   0.07709592   -3.1959357    1.5149005   456414 
 5677000    1.0501602    -3.196527   -1.6811847  0.075895206    -3.196527    1.5153424   456415 
 5678000    1.0510143   -3.1981266   -1.6815584  0.074301533   -3.1981266    1.5165683   456417 
 5679000    1.0513388     -3.19658   -1.6794872  0.073929611     -3.19658    1.5170929   456400 
 5680000    1.0510283   -3.1962823   -1.6797271  0.069350821   -3.1962823    1.5165552   456427 
 5681000    1.0510136   -3.1957183   -1.6793305  0.077674915   -3.1957183    1.5163878   456471 
 5682000    1.0517107    -3.196482   -1.6790019  0.081600065    -3.196482      1.51748   456445 
 5683000    1.0510985   -3.1958297   -1.6793526  0.069729663   -3.1958297    1.5164771   456481 
 5684000    1.0502261   -3.1963293   -1.6811143  0.078276163   -3.1963293     1.515215   456482 
 5685000    1.0511506   -3.1972249   -1.6806328  0.072953617   -3.1972249    1.5165921   456469 
 5686000    1.0506801    -3.196784   -1.6809406  0.073276241    -3.196784    1.5158435   456490 
 5687000    1.0505529   -3.1963829   -1.6806863  0.068453193   -3.1963829    1.5156965   456479 
 5688000    1.0486813   -3.1945781   -1.6816846  0.072471858   -3.1945781    1.5128935   456510 
 5689000    1.0507808   -3.1974867   -1.6816274  0.065769846   -3.1974867    1.5158593   456529 
 5690000    1.0483378   -3.1946777   -1.6824586  0.076368702   -3.1946777    1.5122191   456564 
 5691000    1.0488738   -3.1944246    -1.681472  0.074106849   -3.1944246    1.5129525   456576 
 5692000    1.0500606   -3.1949112   -1.6802999  0.067918182   -3.1949112    1.5146113   456592 
 5693000    1.0492684   -3.1948059   -1.6813736  0.075965047   -3.1948059    1.5134322   456603 
 5694000    1.0489187   -3.1952031   -1.6822124  0.071996146   -3.1952031    1.5129907   456584 
 5695000    1.0499709   -3.1970331   -1.6825313  0.069979653   -3.1970331    1.5145018   456586 
 5696000    1.0503335   -3.1963633   -1.6814015  0.069506452   -3.1963633    1.5149618   456605 
 5697000    1.0511475   -3.1981772   -1.6818553  0.073098984   -3.1981772    1.5163219   456549 
 5698000    1.0516586   -3.1976494   -1.6805737  0.074986134   -3.1976494    1.5170757   456544 
 5699000     1.050887   -3.1959803    -1.680167  0.077942659   -3.1959803    1.5158133   456589 
 5700000    1.0515999    -3.197985   -1.6811202  0.075561192    -3.197985    1.5168648   456582 
 5701000    1.0508944   -3.1977452   -1.6819411  0.073843148   -3.1977452    1.5158041   456595 
 5702000    1.0510361   -3.1978176   -1.6817129  0.075456707   -3.1978176    1.5161047   456566 
 5703000    1.0514349   -3.1991813   -1.6825278  0.076490163   -3.1991813    1.5166534   456574 
 5704000    1.0505446   -3.1974807   -1.6823007  0.078011191   -3.1974807      1.51518   456631 
 5705000     1.051595    -3.199179   -1.6826368   0.07495821    -3.199179    1.5165422   456677 
 5706000    1.0501258   -3.1980519   -1.6835689  0.073401881   -3.1980519    1.5144831   456659 
 5707000     1.052309   -3.2006769   -1.6831682  0.071801475   -3.2006769    1.5175087   456696 
 5708000    1.0520314   -3.1994659   -1.6824671  0.072564534   -3.1994659    1.5169988   456729 
 5709000    1.0502319    -3.196918   -1.6825538  0.076020363    -3.196918    1.5143642   456741 
 5710000    1.0506111   -3.1987742   -1.6838135  0.066966721   -3.1987742    1.5149608   456726 
 5711000    1.0507265   -3.1987296   -1.6836124  0.073847127   -3.1987296    1.5151172   456729 
 5712000    1.0509114   -3.1989137   -1.6835399  0.072779133   -3.1989137    1.5153738   456732 
 5713000    1.0507997    -3.200007   -1.6848339  0.069945971    -3.200007    1.5151731   456744 
 5714000      1.05106   -3.2001074   -1.6846685  0.079220075   -3.2001074    1.5154388   456777 
 5715000    1.0511297   -3.2005118   -1.6848629  0.079330848   -3.2005118    1.5156489   456744 
 5716000    1.0511129   -3.1996301   -1.6841781  0.076375448   -3.1996301     1.515452   456796 
 5717000     1.051593   -3.1998969    -1.683766  0.072536699   -3.1998969    1.5161309   456800 
 5718000    1.0502635   -3.1985403    -1.684389  0.069689626   -3.1985403    1.5141513   456819 
 5719000    1.0525163   -3.2002232    -1.682874  0.073275367   -3.2002232    1.5173492   456834 
 5720000    1.0517449   -3.1991873   -1.6829004  0.077221349   -3.1991873     1.516287   456819 
 5721000    1.0508743   -3.1982361   -1.6831645  0.070478854   -3.1982361    1.5150716   456807 
 5722000    1.0520475   -3.1992438   -1.6826236  0.071095529   -3.1992438    1.5166202   456850 
 5723000    1.0520101   -3.1987163   -1.6821366  0.075929121   -3.1987163    1.5165797   456846 
 5724000    1.0540768   -3.2005852   -1.6810928  0.074038128   -3.2005852    1.5194924   456866 
 5725000    1.0514173    -3.197882   -1.6823097  0.072544915    -3.197882    1.5155724   456892 
 5726000    1.0509472   -3.1959601   -1.6809658  0.080030691   -3.1959601    1.5149943   456862 
 5727000    1.0521965    -3.199529   -1.6828169  0.073593156    -3.199529    1.5167122   456887 
 5728000    1.0525578   -3.2009947   -1.6837418  0.069466705   -3.2009947    1.5172529   456881 
 5729000    1.0513695   -3.1980188   -1.6824887  0.070426504   -3.1980188      1.51553   456884 
 5730000    1.0506993   -3.1976273   -1.6829207  0.071106697   -3.1976273    1.5147066   456841 
 5731000    1.0526583   -3.2003658   -1.6827819  0.070298738   -3.2003658    1.5175839   456825 
 5732000    1.0494017   -3.1953609   -1.6824951    0.0755272   -3.1953609    1.5128658   456832 
 5733000    1.0502029   -3.1952085   -1.6813071  0.072192067   -3.1952085    1.5139015   456868 
 5734000    1.0526732   -3.1986071    -1.681211   0.07155147   -3.1986071    1.5173961   456888 
 5735000    1.0499935   -3.1945274   -1.6810967   0.07369346   -3.1945274    1.5134307   456919 
 5736000    1.0493257   -3.1939462   -1.6815343  0.073963624   -3.1939462    1.5124119   456936 
 5737000    1.0511977   -3.1957711   -1.6807308  0.066889583   -3.1957711    1.5150404   456957 
 5738000    1.0507816   -3.1951645   -1.6807139  0.078329591   -3.1951645    1.5144506   456954 
 5739000    1.0519145   -3.1971474   -1.6811171  0.068537036   -3.1971474    1.5160303   456970 
 5740000    1.0512975   -3.1972684   -1.6822367  0.071207458   -3.1972684    1.5150317   457003 
 5741000    1.0498609   -3.1943383   -1.6813471  0.071946577   -3.1943383    1.5129912   456994 
 5742000    1.0501014   -3.1944873    -1.681229  0.072684476   -3.1944873    1.5132582   457018 
 5743000    1.0516389    -3.195971   -1.6804308  0.073331647    -3.195971    1.5155402   456998 
 5744000    1.0518396   -3.1962367   -1.6804835  0.069164621   -3.1962367    1.5157532   457021 
 5745000    1.0510921   -3.1943415    -1.679629  0.070953581   -3.1943415    1.5147125   457010 
 5746000    1.0505487   -3.1929644   -1.6791973  0.068992659   -3.1929644    1.5137671   457059 
 5747000    1.0497351   -3.1948947   -1.6822337  0.066722989   -3.1948947     1.512661   457039 
 5748000    1.0491975   -3.1943802   -1.6824741  0.068134701   -3.1943802    1.5119061   457033 
 5749000    1.0496568   -3.1943781   -1.6817903  0.069696776   -3.1943781    1.5125878   457027 
 5750000    1.0507091   -3.1951746   -1.6811366  0.071612047   -3.1951746     1.514038   457047 
 5751000    1.0498796   -3.1937903    -1.680984  0.070762599   -3.1937903    1.5128063   457058 
 5752000    1.0507211   -3.1952025   -1.6812533  0.074972739   -3.1952025    1.5139492   457079 
 5753000    1.0510673   -3.1949963   -1.6806145   0.07097601   -3.1949963    1.5143818   457099 
 5754000    1.0540639   -3.1974165   -1.6788666  0.069098533   -3.1974165    1.5185499   457144 
 5755000    1.0533966   -3.1956644    -1.678202  0.074225547   -3.1956644    1.5174624   457182 
 5756000    1.0533431   -3.1952499   -1.6779277  0.077595943   -3.1952499    1.5173222   457201 
 5757000    1.0549577   -3.1968465   -1.6771751  0.075988613   -3.1968465    1.5196713   457194 
 5758000    1.0537682   -3.1933456    -1.675474  0.080241491   -3.1933456    1.5178715   457220 
 5759000    1.0552331   -3.1964691   -1.6764843   0.07871638   -3.1964691    1.5199849   457219 
 5760000    1.0551969   -3.1967438   -1.6767878  0.078569592   -3.1967438     1.519956   457212 
 5761000    1.0549669   -3.1965934   -1.6771017  0.078213763   -3.1965934    1.5194917   457252 
 5762000    1.0531464   -3.1937525   -1.6769525  0.075623202   -3.1937525    1.5168001   457273 
 5763000     1.053618   -3.1934819   -1.6761387  0.073197698   -3.1934819    1.5173432   457314 
 5764000    1.0531588   -3.1930972   -1.6764684  0.072653092   -3.1930972    1.5166288   457330 
 5765000    1.0525491   -3.1917206   -1.6760626  0.077260896   -3.1917206     1.515658   457358 
 5766000    1.0529835   -3.1931149   -1.6768579  0.075085922   -3.1931149     1.516257   457366 
 5767000    1.0527798   -3.1936546   -1.6777738  0.071096682   -3.1936546    1.5158808   457391 
 5768000    1.0531232    -3.193815   -1.6774862  0.073327429    -3.193815    1.5163289   457405 
 5769000    1.0516778   -3.1919269   -1.6775931  0.076332177   -3.1919269    1.5143338   457379 
 5770000    1.0538466   -3.1937732   -1.6763796  0.075395204   -3.1937732    1.5173936   457398 
 5771000    1.0541195   -3.1949581   -1.6772677  0.069305573   -3.1949581    1.5176904   457427 
 5772000    1.0522267   -3.1918049   -1.6768132  0.076628208   -3.1918049    1.5149916   457419 
 5773000    1.0518622   -3.1929073   -1.6783576  0.073301449   -3.1929073    1.5145497   457394 
 5774000    1.0542098   -3.1946557   -1.6766694  0.073510812   -3.1946557    1.5179863   457377 
 5775000    1.0519278   -3.1923657   -1.6775891  0.066640079   -3.1923657    1.5147765   457354 
 5776000    1.0513986   -3.1915885   -1.6775806  0.076245424   -3.1915885    1.5140079   457356 
 5777000     1.053093   -3.1939405   -1.6774861   0.06725929   -3.1939405    1.5164544   457354 
 5778000    1.0531426   -3.1928923   -1.6762802  0.069833767   -3.1928923     1.516612   457328 
 5779000    1.0533045   -3.1927794   -1.6759506  0.070225143   -3.1927794    1.5168287   457333 
 5780000    1.0527579    -3.191775   -1.6758329  0.072506085    -3.191775    1.5159421   457363 
 5781000    1.0535909   -3.1922983   -1.6752297  0.066928716   -3.1922983    1.5170686   457385 
 5782000    1.0532502    -3.191862   -1.6751811  0.071771218    -3.191862    1.5166809   457354 
 5783000    1.0521267   -3.1905924   -1.6755592  0.078605149   -3.1905924    1.5150332   457363 
 5784000    1.0534093   -3.1921316   -1.6753477  0.073486558   -3.1921316    1.5167839   457392 
 5785000    1.0531682   -3.1917846   -1.6752848   0.07509671   -3.1917846    1.5164998   457373 
 5786000    1.0538632   -3.1928775   -1.6754168  0.074013957   -3.1928775    1.5174607   457385 
 5787000    1.0533956   -3.1925781   -1.6757608  0.075807092   -3.1925781    1.5168173   457376 
 5788000    1.0541577   -3.1950229   -1.6771447  0.073082569   -3.1950229    1.5178782   457387 
 5789000    1.0545021   -3.1940375   -1.6757498  0.072708503   -3.1940375    1.5182877   457413 
 5790000    1.0531206   -3.1920134   -1.6757777  0.072861048   -3.1920134    1.5162357   457432 
 5791000     1.053337   -3.1914282   -1.6750302  0.077094152   -3.1914282    1.5163981   457477 
 5792000    1.0557019   -3.1950975   -1.6754111  0.075269899   -3.1950975    1.5196863   457512 
 5793000    1.0545973    -3.193171   -1.6750548   0.07598246    -3.193171    1.5181162   457506 
 5794000    1.0555264   -3.1938871   -1.6743206  0.068138965   -3.1938871    1.5195666   457472 
 5795000    1.0545991   -3.1916005   -1.6734552  0.077194837   -3.1916005    1.5181453   457498 
 5796000    1.0550354   -3.1916558    -1.672909  0.072977907   -3.1916558    1.5187468   457506 
 5797000    1.0531502   -3.1910726   -1.6750561  0.074323867   -3.1910726    1.5160165   457511 
 5798000    1.0562029   -3.1956054   -1.6750982  0.073536743   -3.1956054    1.5205072   457482 
 5799000    1.0538281    -3.194386   -1.6772877  0.070592805    -3.194386    1.5170983   457479 
 5800000    1.0544487   -3.1938713   -1.6759592   0.07203991   -3.1938713    1.5179121   457503 
 5801000    1.0534873   -3.1930913    -1.676404  0.068806135   -3.1930913    1.5166873   457455 
 5802000    1.0529938   -3.1926439   -1.6765941  0.073748691   -3.1926439    1.5160498   457433 
 5803000    1.0534853   -3.1932534   -1.6766287   0.07353273   -3.1932534    1.5166248   457473 
 5804000    1.0530655   -3.1932663   -1.6771863  0.073334301   -3.1932663      1.51608   457455 
 5805000    1.0556815   -3.1947282   -1.6749317   0.07348647   -3.1947282    1.5197965   457470 
 5806000     1.055086   -3.1929482   -1.6740357  0.069380697   -3.1929482    1.5189125   457478 
 5807000    1.0562727   -3.1939313   -1.6732904  0.077525481   -3.1939313    1.5206409   457472 
 5808000    1.0519101   -3.1901221   -1.6757088  0.073684714   -3.1901221    1.5144133   457456 
 5809000    1.0506899   -3.1898067   -1.6771898  0.074988596   -3.1898067    1.5126169   457468 
 5810000    1.0524956    -3.190827   -1.6756237  0.073419416    -3.190827    1.5152033   457472 
 5811000    1.0550108   -3.1948652   -1.6759048  0.071084934   -3.1948652    1.5189603   457431 
 5812000    1.0527657   -3.1922851   -1.6764776  0.074357026   -3.1922851    1.5158075   457407 
 5813000     1.051803   -3.1922582   -1.6778301  0.071844295   -3.1922582    1.5144281   457405 
 5814000    1.0520512   -3.1929661   -1.6780615  0.072185106   -3.1929661    1.5149047   457369 
 5815000    1.0523873   -3.1924966   -1.6771247  0.072613713   -3.1924966    1.5153719   457374 
 5816000     1.050668   -3.1916804   -1.6786783  0.070391154   -3.1916804    1.5130021   457342 
 5817000    1.0509013    -3.191573   -1.6783308   0.06863057    -3.191573    1.5132422   457371 
 5818000    1.0508635   -3.1912651   -1.6780707  0.070906477   -3.1912651    1.5131944   457369 
 5819000    1.0517886   -3.1926419   -1.6781419  0.073418117   -3.1926419       1.5145   457377 
 5820000    1.0524276   -3.1940313    -1.678598  0.069586221   -3.1940313    1.5154333   457373 
 5821000    1.0531004   -3.1950336   -1.6786348  0.072713741   -3.1950336    1.5163988   457374 
 5822000    1.0542357    -3.194528   -1.6765276  0.074600013    -3.194528    1.5180004   457384 
 5823000     1.055155   -3.1952191   -1.6760178  0.076751633   -3.1952191    1.5192013   457421 
 5824000    1.0541423   -3.1954417   -1.6777019  0.075291594   -3.1954417    1.5177398   457422 
 5825000    1.0565283   -3.1978555   -1.6768001  0.072048272   -3.1978555    1.5210554   457458 
 5826000    1.0551205   -3.1969677   -1.6779124  0.073834916   -3.1969677    1.5190553   457450 
 5827000    1.0542775   -3.1960656   -1.6782738  0.082211587   -3.1960656    1.5177917   457465 
 5828000    1.0533939   -3.1941842   -1.6777739    0.0780822   -3.1941842    1.5164103   457498 
 5829000    1.0567437   -3.1982814   -1.6770323  0.080603926   -3.1982814    1.5212491   457493 
 5830000    1.0554717   -3.1964575   -1.6771225   0.07662009   -3.1964575    1.5193349   457518 
 5831000     1.055245   -3.1966788   -1.6777034  0.078221412   -3.1966788    1.5189754   457528 
 5832000    1.0548109    -3.197335   -1.6791106  0.073877783    -3.197335    1.5182244   457566 
 5833000    1.0541351   -3.1970137   -1.6797885  0.072307211   -3.1970137    1.5172252   457574 
 5834000     1.055105    -3.196674   -1.6780992  0.073587308    -3.196674    1.5185748   457588 
 5835000    1.0549754   -3.1951939   -1.6769018  0.076286721   -3.1951939    1.5182921   457617 
 5836000    1.0543613   -3.1958214   -1.6785026  0.070978004   -3.1958214    1.5173188   457644 
 5837000    1.0546314   -3.1953867   -1.6775964  0.078221758   -3.1953867    1.5177903   457619 
 5838000     1.054748   -3.1967612   -1.6787732  0.070489791   -3.1967612     1.517988   457610 
 5839000    1.0558495   -3.1976518   -1.6780054  0.074079439   -3.1976518    1.5196463   457588 
 5840000    1.0550764    -3.196413    -1.677979  0.074026705    -3.196413    1.5184341   457618 
 5841000    1.0550078   -3.1956366   -1.6773378   0.07372994   -3.1956366    1.5182989   457629 
 5842000    1.0533445   -3.1938314   -1.6778369  0.075921045   -3.1938314    1.5159946   457602 
 5843000    1.0537212   -3.1947576   -1.6783368  0.074373647   -3.1947576    1.5164208   457637 
 5844000    1.0547932   -3.1965056   -1.6785488  0.073218318   -3.1965056    1.5179568   457639 
 5845000    1.0525162   -3.1936798   -1.6789568  0.072878755   -3.1936798     1.514723   457626 
 5846000    1.0553361   -3.1966635   -1.6778689   0.07393153   -3.1966635    1.5187946   457622 
 5847000    1.0529503   -3.1928091   -1.6774382  0.071622527   -3.1928091    1.5153709   457619 
 5848000     1.053971   -3.1953436   -1.6785235  0.073413916   -3.1953436    1.5168201   457625 
 5849000    1.0537388   -3.1947874   -1.6783777  0.072508761   -3.1947874    1.5164097   457648 
 5850000    1.0529029    -3.194578   -1.6793977  0.073104836    -3.194578    1.5151803   457656 
 5851000    1.0538274   -3.1942328   -1.6777056  0.071046719   -3.1942328    1.5165272   457651 
 5852000    1.0548611   -3.1952371   -1.6773086  0.071817385   -3.1952371    1.5179285   457677 
 5853000    1.0542455   -3.1944046    -1.677448  0.068589776   -3.1944046    1.5169565   457703 
 5854000    1.0520173   -3.1924546   -1.6786911  0.072900094   -3.1924546    1.5137635   457699 
 5855000    1.0531522   -3.1942157   -1.6788886  0.073968458   -3.1942157    1.5153271   457720 
 5856000    1.0524917   -3.1942082   -1.6798448  0.071914815   -3.1942082    1.5143635   457724 
 5857000    1.0531284   -3.1930649   -1.6777953  0.073926097   -3.1930649    1.5152696   457727 
 5858000    1.0556166   -3.1954936   -1.6766803  0.070181789   -3.1954936    1.5188133   457738 
 5859000     1.054794   -3.1955637   -1.6780102  0.072985772   -3.1955637    1.5175535   457761 
 5860000    1.0540833   -3.1944714   -1.6780134  0.074796042   -3.1944714     1.516458   457783 
 5861000    1.0548261   -3.1952183   -1.6777777  0.076687825   -3.1952183    1.5174406   457809 
 5862000    1.0544269   -3.1949185   -1.6780589  0.075204891   -3.1949185    1.5168596   457811 
 5863000    1.0533754   -3.1939515   -1.6787667  0.072673636   -3.1939515    1.5151848   457860 
 5864000    1.0539526   -3.1953528   -1.6794205   0.07251688   -3.1953528    1.5159322   457885 
 5865000    1.0537768   -3.1944123   -1.6786502  0.074703084   -3.1944123    1.5157621   457860 
 5866000    1.0559962   -3.1978336   -1.6789487   0.07098519   -3.1978336    1.5188849   457881 
 5867000    1.0549063   -3.1971968   -1.6798034    0.0702032   -3.1971968    1.5173934   457858 
 5868000    1.0540877   -3.1974409   -1.6811952  0.074710668   -3.1974409    1.5162457   457849 
 5869000     1.053239   -3.1960223   -1.6809808  0.068628927   -3.1960223    1.5150415   457844 
 5870000    1.0528738   -3.1961877   -1.6816319  0.073957357   -3.1961877    1.5145558   457832 
 5871000      1.05363   -3.1965446   -1.6807222  0.080793202   -3.1965446    1.5158225   457778 
 5872000    1.0530732   -3.1977056   -1.6826644  0.073425119   -3.1977056    1.5150413   457772 
 5873000    1.0533727   -3.1986677   -1.6831161   0.07497951   -3.1986677    1.5155517   457748 
 5874000    1.0528934   -3.1984223   -1.6836265  0.066610353   -3.1984223    1.5147958   457768 
 5875000    1.0550807   -3.2007583   -1.6828288    0.0731499   -3.2007583    1.5179295   457772 
 5876000    1.0547114   -3.1998926   -1.6826701  0.079937829   -3.1998926    1.5172225   457825 
 5877000    1.0562375   -3.2010001   -1.6815758  0.077546548   -3.2010001    1.5194244   457823 
 5878000    1.0543662   -3.1982777   -1.6814756  0.079652496   -3.1982777    1.5168021   457802 
 5879000    1.0557241   -3.2011673   -1.6824482  0.073791033   -3.2011673    1.5187191   457813 
 5880000    1.0557046   -3.2013961   -1.6827017  0.080539205   -3.2013961    1.5186944   457812 
 5881000    1.0565459   -3.2017614     -1.68188  0.074413561   -3.2017614    1.5198814   457819 
 5882000      1.05461   -3.2001957   -1.6829732  0.081027867   -3.2001957    1.5172224   457781 
 5883000    1.0561262   -3.2028156   -1.6834185  0.073215237   -3.2028156    1.5193971   457783 
 5884000    1.0540009    -3.201455   -1.6851619  0.075087336    -3.201455    1.5162931   457797 
 5885000    1.0546253   -3.2016554   -1.6845136  0.077560133   -3.2016554    1.5171418   457812 
 5886000    1.0533773    -3.199495   -1.6842214  0.077556223    -3.199495    1.5152736   457834 
 5887000     1.054669   -3.2019688   -1.6849332  0.072373078   -3.2019688    1.5170356   457863 
 5888000    1.0540824   -3.2018387   -1.6857793   0.07464313   -3.2018387    1.5160594   457903 
 5889000    1.0544337   -3.2011748   -1.6844943  0.080519543   -3.2011748    1.5166805   457868 
 5890000    1.0551693    -3.201384   -1.6837348  0.072648771    -3.201384    1.5176492   457895 
 5891000     1.053113   -3.1992537   -1.6845986  0.067484308   -3.1992537    1.5146551   457906 
 5892000    1.0530982   -3.2004913   -1.6859037  0.072319228   -3.2004913    1.5145876   457920 
 5893000    1.0536444   -3.2008686   -1.6855517  0.071706772   -3.2008686    1.5153169   457937 
 5894000    1.0544347   -3.2013983   -1.6848057  0.073393967   -3.2013983    1.5165926   457895 
 5895000    1.0533667   -3.2001551   -1.6850258  0.071454973   -3.2001551    1.5151293   457873 
 5896000    1.0522345   -3.1991545   -1.6856273  0.075396442   -3.1991545    1.5135272   457865 
 5897000    1.0534815   -3.1990955   -1.6839005  0.075887133   -3.1990955    1.5151951   457903 
 5898000    1.0541171   -3.2002486   -1.6841956  0.071850291   -3.2002486     1.516053   457920 
 5899000    1.0522044   -3.1964591   -1.6832297  0.076065926   -3.1964591    1.5132295   457942 
 5900000     1.054907   -3.1994814   -1.6823388  0.070658818   -3.1994814    1.5171426   457934 
 5901000    1.0533437   -3.1980272    -1.683123  0.069333979   -3.1980272    1.5149042   457931 
 5902000    1.0547254   -3.1992281   -1.6823831  0.078165385   -3.1992281    1.5168451   457945 
 5903000    1.0539848   -3.1991592   -1.6832733  0.069753736   -3.1991592    1.5158859   457913 
 5904000    1.0509668    -3.195329   -1.6837837  0.074823171    -3.195329    1.5115453   457913 
 5905000     1.051608   -3.1964255   -1.6840505  0.070886961   -3.1964255     1.512375   457941 
 5906000    1.0534879   -3.1983712   -1.6832463  0.070312917   -3.1983712    1.5151249   457927 
 5907000    1.0529508   -3.1969686   -1.6826096  0.070858794   -3.1969686     1.514359   457925 
 5908000    1.0544934   -3.1997119   -1.6829752  0.071429957   -3.1997119    1.5167366   457877 
 5909000    1.0546366   -3.1989272   -1.6819647  0.070474148   -3.1989272    1.5169625   457871 
 5910000    1.0545736   -3.1997661   -1.6829339  0.074701932   -3.1997661    1.5168321   457883 
 5911000    1.0545271   -3.1986576   -1.6820745  0.073968825   -3.1986576    1.5165831   457938 
 5912000    1.0522695   -3.1972258   -1.6837541  0.069833456   -3.1972258    1.5134717   457897 
 5913000    1.0530892   -3.1969947   -1.6823738  0.073749959   -3.1969947    1.5146209   457906 
 5914000     1.055006   -3.2002487   -1.6829769  0.071063891   -3.2002487    1.5172717   457938 
 5915000    1.0538611   -3.1985108   -1.6827135  0.074720447   -3.1985108    1.5157973   457886 
 5916000    1.0531829   -3.1973077   -1.6825222   0.07431632   -3.1973077    1.5147855   457897 
 5917000    1.0547651   -3.1987121   -1.6818001  0.078813343   -3.1987121     1.516912   457942 
 5918000    1.0542111   -3.1997617   -1.6835139  0.072234292   -3.1997617    1.5162478   457902 
 5919000    1.0541762   -3.1989793   -1.6827851  0.068603683   -3.1989793    1.5161942   457903 
 5920000     1.053576   -3.1986085   -1.6832576  0.073242364   -3.1986085    1.5153509   457897 
 5921000    1.0531366   -3.1986013   -1.6839188  0.076887451   -3.1986013    1.5146825   457908 
 5922000    1.0532369   -3.1984434   -1.6835637  0.070576115   -3.1984434    1.5148797   457892 
 5923000    1.0543019   -3.1996595   -1.6832811  0.075139299   -3.1996595    1.5163784   457902 
 5924000    1.0531456    -3.197648   -1.6830287  0.076334182    -3.197648    1.5146193   457931 
 5925000     1.053485   -3.1986305    -1.683533  0.075504091   -3.1986305    1.5150976   457934 
 5926000    1.0523082   -3.1963962   -1.6829813  0.073759774   -3.1963962     1.513415   457931 
 5927000    1.0528482   -3.1973951   -1.6833356  0.073075711   -3.1973951    1.5140594   457971 
 5928000    1.0538037   -3.1994192   -1.6840321  0.073738873   -3.1994192    1.5153871   457985 
 5929000    1.0543096   -3.1985364   -1.6824648  0.072638975   -3.1985364    1.5160716   457998 
 5930000    1.0538896   -3.1983196   -1.6828817  0.072320073   -3.1983196    1.5154379   458007 
 5931000    1.0550586   -3.2015897   -1.6843086   0.07578759   -3.2015897    1.5172811   457958 
 5932000     1.053058   -3.1990633   -1.6846526  0.073067889   -3.1990633    1.5144107   457956 
 5933000    1.0530106   -3.1989898   -1.6847794  0.071109073   -3.1989898    1.5142103   457996 
 5934000     1.053454   -3.1995587   -1.6846876  0.065870963   -3.1995587    1.5148711   457989 
 5935000    1.0533091   -3.1985715   -1.6840081  0.068357828   -3.1985715    1.5145634   458019 
 5936000    1.0505784   -3.1951545   -1.6846824  0.073014144   -3.1951545    1.5104721   458069 
 5937000    1.0508162   -3.1970303   -1.6861899  0.070171928   -3.1970303    1.5108404   458061 
 5938000    1.0512187    -3.197065   -1.6857779  0.072644831    -3.197065    1.5112872   458101 
 5939000    1.0518583   -3.1976202   -1.6854037  0.075369762   -3.1976202    1.5122165   458098 
 5940000    1.0517894   -3.1978693   -1.6857651  0.073420555   -3.1978693    1.5121042   458102 
 5941000     1.052667   -3.2007872   -1.6873684  0.069435754   -3.2007872    1.5134188   458086 
 5942000    1.0514875   -3.1988811   -1.6872835  0.068803528   -3.1988811    1.5115976   458124 
 5943000    1.0524156   -3.2000234   -1.6871576   0.07129185   -3.2000234    1.5128658   458144 
 5944000    1.0525219   -3.1996864   -1.6865521  0.066162018   -3.1996864    1.5131343   458109 
 5945000    1.0520099   -3.1983293   -1.6858784  0.071023765   -3.1983293    1.5124509   458093 
 5946000    1.0538773   -3.2003886   -1.6853257  0.075975718   -3.2003886    1.5150629   458115 
 5947000    1.0542204   -3.2007908   -1.6853902  0.073926257   -3.2007908    1.5154006   458162 
 5948000      1.05483   -3.2005564   -1.6842794  0.073681466   -3.2005564    1.5162769   458162 
 5949000     1.055352   -3.2009103   -1.6840585  0.079990014   -3.2009103    1.5168518   458215 
 5950000    1.0564068   -3.2035081   -1.6852428   0.07559694   -3.2035081    1.5182652   458246 
 5951000    1.0560769   -3.2021149   -1.6842675  0.077297788   -3.2021149    1.5178473   458229 
 5952000    1.0552038   -3.2014195    -1.684827  0.077475089   -3.2014195    1.5165925   458229 
 5953000    1.0547691    -3.201318   -1.6853469  0.072289566    -3.201318    1.5159711   458228 
 5954000    1.0543103   -3.2003697   -1.6850316  0.073797007   -3.2003697     1.515338   458220 
 5955000    1.0540744   -3.2003722   -1.6853929  0.076112626   -3.2003722    1.5149793   458226 
 5956000    1.0536422   -3.1998146   -1.6854533  0.069755993   -3.1998146    1.5143613   458225 
 5957000    1.0546274   -3.2007182   -1.6848979  0.071027046   -3.2007182    1.5158203   458212 
 5958000     1.053799   -3.1988494   -1.6843686  0.072688777   -3.1988494    1.5144809   458257 
 5959000    1.0528683   -3.1979632   -1.6847836  0.071683623   -3.1979632    1.5131796   458246 
 5960000    1.0537482   -3.1996347   -1.6854317  0.074642626   -3.1996347    1.5142031   458319 
 5961000    1.0537849   -3.1996765   -1.6856024  0.071825758   -3.1996765    1.5140741   458374 
 5962000     1.053911   -3.2012529   -1.6871298  0.070354557   -3.2012529    1.5141231   458414 
 5963000    1.0523655   -3.1985787   -1.6866858  0.073210312   -3.1985787    1.5118929   458417 
 5964000    1.0532171   -3.1994923   -1.6864123  0.076922488   -3.1994923      1.51308   458428 
 5965000    1.0528245   -3.1999953   -1.6874496  0.072134591   -3.1999953    1.5125457   458419 
 5966000    1.0528598   -3.1987328   -1.6863179  0.068532975   -3.1987328    1.5124149   458474 
 5967000    1.0532847   -3.1985792     -1.68561  0.067561341   -3.1985792    1.5129692   458491 
 5968000    1.0552238   -3.2012377   -1.6855987   0.06996556   -3.2012377     1.515639   458526 
 5969000    1.0553025   -3.2005026    -1.684711  0.075630785   -3.2005026    1.5157916   458514 
 5970000    1.0547817   -3.2008763   -1.6857435  0.074382547   -3.2008763    1.5151328   458487 
 5971000    1.0552988   -3.2023271   -1.6863623  0.073973222   -3.2023271    1.5159648   458460 
 5972000    1.0553597   -3.2015775    -1.685621  0.072592245   -3.2015775    1.5159565   458489 
 5973000    1.0552394   -3.2028314   -1.6871106   0.07362149   -3.2028314    1.5157208   458508 
 5974000    1.0549642   -3.2013435   -1.6859817  0.076166935   -3.2013435    1.5153618   458497 
 5975000    1.0556335   -3.2006781   -1.6845135  0.075989509   -3.2006781    1.5161646   458545 
 5976000    1.0560859   -3.2022384   -1.6854108  0.068573012   -3.2022384    1.5168276   458541 
 5977000    1.0553903    -3.203044   -1.6873114  0.071701509    -3.203044    1.5157326   458570 
 5978000    1.0553874   -3.2019647   -1.6862991  0.072395124   -3.2019647    1.5156656   458589 
 5979000    1.0556085   -3.2030909   -1.6871904  0.077378042   -3.2030909    1.5159005   458614 
 5980000    1.0562576   -3.2040476   -1.6872282   0.07168502   -3.2040476    1.5168194   458618 
 5981000    1.0564085   -3.2041794   -1.6870705  0.080583286   -3.2041794    1.5171089   458596 
 5982000    1.0538232   -3.2003801    -1.687073  0.074444011   -3.2003801    1.5133071   458623 
 5983000    1.0549336   -3.2024517   -1.6875236  0.072840156   -3.2024517    1.5149281   458615 
 5984000    1.0542399   -3.2026535   -1.6887382  0.069725042   -3.2026535    1.5139154   458620 
 5985000    1.0565085    -3.206317   -1.6890811  0.075688473    -3.206317    1.5172359   458601 
 5986000    1.0537629    -3.202267   -1.6888981  0.072737931    -3.202267     1.513369   458578 
 5987000    1.0546938    -3.204492   -1.6897828  0.076879167    -3.204492    1.5147092   458577 
 5988000    1.0529702    -3.202164   -1.6899697  0.067723436    -3.202164    1.5121943   458589 
 5989000    1.0524108   -3.2018287   -1.6903587  0.068430166   -3.2018287      1.51147   458565 
 5990000    1.0536488   -3.2036132   -1.6904016  0.068140218   -3.2036132    1.5132116   458576 
 5991000    1.0527658   -3.2021661   -1.6902885   0.07275767   -3.2021661    1.5118776   458596 
 5992000    1.0536979   -3.2032257   -1.6901183  0.070759113   -3.2032257    1.5131073   458629 
 5993000    1.0536237   -3.2034059   -1.6904413  0.077915768   -3.2034059    1.5129646   458640 
 5994000    1.0554646   -3.2056417    -1.690133  0.072965432   -3.2056417    1.5155088   458670 
 5995000    1.0537534   -3.2034001   -1.6903483  0.071862256   -3.2034001    1.5130518   458670 
 5996000    1.0513749   -3.1995092   -1.6899879  0.072384652   -3.1995092    1.5095213   458705 
 5997000    1.0545195   -3.2017917    -1.687838  0.073290641   -3.2017917    1.5139537   458730 
 5998000    1.0553797   -3.2034863   -1.6883603  0.073699785   -3.2034863     1.515126   458749 
 5999000    1.0544818   -3.2016413   -1.6878836  0.077333621   -3.2016413    1.5137577   458773 
 6000000    1.0547243   -3.2032681   -1.6891458  0.074267032   -3.2032681    1.5141223   458768 
 6001000    1.0548149    -3.202492   -1.6883253  0.069768257    -3.202492    1.5141666   458794 
 6002000    1.0538731   -3.2019321   -1.6890515  0.074411189   -3.2019321    1.5128806   458774 
 6003000    1.0540811   -3.2031474   -1.6899155  0.073099405   -3.2031474    1.5132319   458758 
 6004000    1.0545647   -3.2039212   -1.6900246  0.072796264   -3.2039212    1.5138966   458767 
 6005000    1.0536498   -3.2023611   -1.6897945  0.075429934   -3.2023611    1.5125666   458772 
 6006000    1.0553074   -3.2043591   -1.6894162  0.071864624   -3.2043591    1.5149429   458773 
 6007000    1.0557092   -3.2054891   -1.6899033  0.070419281   -3.2054891    1.5155858   458753 
 6008000     1.054009   -3.2041832   -1.6910152  0.066116148   -3.2041832     1.513168   458746 
 6009000    1.0537191   -3.2042892   -1.6916033   0.07027165   -3.2042892    1.5126859   458766 
 6010000    1.0531861   -3.2036047    -1.691651  0.073704702   -3.2036047    1.5119537   458756 
 6011000    1.0534304   -3.2046841   -1.6923368  0.071130443   -3.2046841    1.5123473   458743 
 6012000    1.0529619   -3.2037982   -1.6922256  0.071956806   -3.2037982    1.5115726   458774 
 6013000    1.0548263   -3.2041058   -1.6899459  0.067274444   -3.2041058    1.5141599   458801 
 6014000    1.0535015    -3.203771   -1.6914502  0.069115824    -3.203771    1.5123207   458782 
 6015000    1.0543124   -3.2038472   -1.6904911  0.069719018   -3.2038472    1.5133561   458821 
 6016000     1.055747   -3.2061417   -1.6908517  0.068918034   -3.2061417      1.51529   458859 
 6017000     1.054002   -3.2032692   -1.6904312   0.07388893   -3.2032692    1.5128381   458843 
 6018000    1.0549008   -3.2052709   -1.6910833  0.071675064   -3.2052709    1.5141876   458825 
 6019000    1.0545391     -3.20569   -1.6920216  0.073670565     -3.20569    1.5136684   458825 
 6020000    1.0536129   -3.2036212   -1.6913085  0.073678232   -3.2036212    1.5123126   458833 
 6021000    1.0557911   -3.2083172   -1.6928716  0.074222916   -3.2083172    1.5154457   458831 
 6022000    1.0549318   -3.2079156    -1.693667  0.066517107   -3.2079156    1.5142486   458820 
 6023000    1.0557096   -3.2085001   -1.6932309  0.067748758   -3.2085001    1.5152692   458849 
 6024000    1.0563782   -3.2081476   -1.6920706   0.07037957   -3.2081476     1.516077   458895 
 6025000    1.0557272   -3.2084056   -1.6933322  0.073963273   -3.2084056    1.5150734   458916 
 6026000     1.055449    -3.207471   -1.6929355  0.074824353    -3.207471    1.5145355   458958 
 6027000    1.0550397    -3.207229   -1.6933634  0.070546653    -3.207229    1.5138657   458983 
 6028000    1.0543992   -3.2060649    -1.693049  0.076311802   -3.2060649    1.5130159   458962 
 6029000    1.0549454   -3.2054651   -1.6917941  0.072756492   -3.2054651     1.513671   459001 
 6030000    1.0545956   -3.2063765   -1.6932437  0.072510875   -3.2063765    1.5131328   459012 
 6031000    1.0563306   -3.2087278   -1.6931089  0.075595643   -3.2087278    1.5156189   459013 
 6032000    1.0558942   -3.2057386   -1.6907162  0.073393479   -3.2057386    1.5150224   459004 
 6033000    1.0555694   -3.2054484   -1.6909612  0.076812217   -3.2054484    1.5144872   459025 
 6034000    1.0576658   -3.2074025   -1.6898315  0.074145299   -3.2074025     1.517571   459002 
 6035000    1.0546907     -3.20465   -1.6912423  0.071459997     -3.20465    1.5134077   458970 
 6036000    1.0549004   -3.2047738    -1.691108  0.073282786   -3.2047738    1.5136658   458983 
 6037000     1.055615   -3.2059942   -1.6912898  0.071099852   -3.2059942    1.5147044   458979 
 6038000      1.05558   -3.2050135   -1.6902769  0.071460882   -3.2050135    1.5147367   458954 
 6039000     1.055809   -3.2048241   -1.6898149  0.074356243   -3.2048241    1.5150091   458971 
 6040000    1.0561262   -3.2043314   -1.6890223  0.074843487   -3.2043314     1.515309   459018 
 6041000    1.0573745    -3.203871   -1.6867741  0.071734219    -3.203871    1.5170969   459019 
 6042000    1.0556847   -3.2029174   -1.6882516  0.072151884   -3.2029174    1.5146658   459021 
 6043000     1.055275   -3.2019034   -1.6879608  0.069461999   -3.2019034    1.5139427   459062 
 6044000    1.0570389   -3.2047705    -1.688393  0.072809669   -3.2047705    1.5163775   459091 
 6045000    1.0551177   -3.2015175   -1.6877675  0.071180743   -3.2015175      1.51375   459052 
 6046000    1.0547038   -3.2016448   -1.6883732  0.073123166   -3.2016448    1.5132716   459017 
 6047000    1.0556497   -3.2028345   -1.6882586  0.073522261   -3.2028345    1.5145759   459033 
 6048000    1.0543786   -3.2024723   -1.6896443  0.070153349   -3.2024723     1.512828   459010 
 6049000    1.0549552   -3.2032839    -1.689767  0.067826236   -3.2032839    1.5135169   459052 
 6050000    1.0534309   -3.2034608   -1.6920386  0.068307032   -3.2034608    1.5114222   459024 
 6051000    1.0532617   -3.2018402   -1.6906871  0.071855831   -3.2018402    1.5111531   459032 
 6052000    1.0542061   -3.2019424   -1.6894607  0.063130081   -3.2019424    1.5124817   459040 
 6053000    1.0553202   -3.2016859   -1.6877575  0.069540195   -3.2016859    1.5139284   459086 
 6054000    1.0554044   -3.2019927   -1.6879368  0.071963589   -3.2019927    1.5140558   459084 
 6055000    1.0546928   -3.2008789   -1.6880219  0.079539729   -3.2008789     1.512857   459138 
 6056000    1.0536422    -3.200769   -1.6893894  0.070366801    -3.200769    1.5113796   459129 
 6057000    1.0549366   -3.2027733   -1.6895567  0.070323144   -3.2027733    1.5132165   459135 
 6058000    1.0573945   -3.2056315   -1.6890215  0.070196596   -3.2056315    1.5166101   459175 
 6059000    1.0552742   -3.2017474    -1.688307  0.071544086   -3.2017474    1.5134404   459214 
 6060000    1.0563226   -3.2023719   -1.6874938  0.072005777   -3.2023719     1.514878   459234 
 6061000     1.056917   -3.2034375   -1.6877102  0.070056373   -3.2034375    1.5157272   459235 
 6062000    1.0570777   -3.2041805   -1.6883483  0.071472143   -3.2041805    1.5158322   459273 
 6063000    1.0573794   -3.2034142   -1.6870173  0.076763905   -3.2034142    1.5163969   459233 
 6064000    1.0581336   -3.2059351   -1.6884565   0.07467204   -3.2059351    1.5174786   459233 
 6065000    1.0573872   -3.2037255   -1.6872085  0.078586024   -3.2037255     1.516517   459200 
 6066000     1.056288   -3.2049934   -1.6901288  0.071797529   -3.2049934    1.5148647   459223 
 6067000    1.0557757   -3.2049447   -1.6909531  0.076759624   -3.2049447    1.5139916   459265 
 6068000    1.0560705   -3.2044151   -1.6900206  0.074628195   -3.2044151    1.5143945   459271 
 6069000    1.0556833    -3.204912   -1.6910662  0.067107122    -3.204912    1.5138458   459269 
 6070000    1.0552329    -3.204425   -1.6912283   0.06763732    -3.204425    1.5131967   459270 
 6071000     1.054337   -3.2037069   -1.6918147  0.070943057   -3.2037069    1.5118921   459276 
 6072000    1.0551167   -3.2055764   -1.6925398  0.074650911   -3.2055764    1.5130366   459268 
 6073000    1.0560541   -3.2063201   -1.6919293  0.070562664   -3.2063201    1.5143908   459265 
 6074000    1.0546555   -3.2057332   -1.6933348  0.073738328   -3.2057332    1.5123984   459261 
 6075000    1.0553215   -3.2076558   -1.6943156  0.069589158   -3.2076558    1.5133402   459265 
 6076000    1.0533563   -3.2043078   -1.6937363  0.073378741   -3.2043078    1.5105715   459250 
 6077000    1.0539375   -3.2048512   -1.6934891  0.062232686   -3.2048512    1.5113621   459263 
 6078000    1.0538446   -3.2038106   -1.6926738  0.072492405   -3.2038106    1.5111368   459291 
 6079000    1.0563226   -3.2056311   -1.6910071  0.069654079   -3.2056311     1.514624   459311 
 6080000    1.0547007   -3.2042745   -1.6919793  0.071487445   -3.2042745    1.5122952   459312 
 6081000    1.0546028    -3.204334   -1.6921628  0.075319954    -3.204334    1.5121712   459307 
 6082000    1.0556092   -3.2039265   -1.6903517  0.065990839   -3.2039265    1.5135748   459319 
 6083000    1.0556237   -3.2044562   -1.6908969  0.073498882   -3.2044562    1.5135594   459330 
 6084000    1.0567433   -3.2066999   -1.6916869  0.066342991   -3.2066999     1.515013   459376 
 6085000    1.0551349   -3.2037105   -1.6911418  0.073955365   -3.2037105    1.5125687   459418 
 6086000    1.0563614   -3.2055039   -1.6911242  0.072975033   -3.2055039    1.5143797   459402 
 6087000    1.0561165   -3.2053609   -1.6912499  0.070055022   -3.2053609     1.514111   459377 
 6088000    1.0554857   -3.2038479   -1.6906643  0.077952592   -3.2038479    1.5131836   459384 
 6089000    1.0573518   -3.2069113   -1.6911183  0.073736018   -3.2069113    1.5157929   459404 
 6090000    1.0569144   -3.2052379   -1.6901017  0.070024855   -3.2052379    1.5151361   459413 
 6091000    1.0551964   -3.2034597   -1.6907106  0.074145421   -3.2034597    1.5127491   459390 
 6092000    1.0549791   -3.2040789   -1.6916974   0.07291646   -3.2040789    1.5123815   459407 
 6093000     1.056201   -3.2045724   -1.6905612  0.074682709   -3.2045724    1.5140113   459444 
 6094000    1.0571989   -3.2069224   -1.6915665  0.068648711   -3.2069224     1.515356   459470 
 6095000    1.0568278   -3.2066396   -1.6918946  0.068815227   -3.2066396     1.514745   459494 
 6096000    1.0556239   -3.2037738   -1.6908432   0.06864648   -3.2037738    1.5129306   459521 
 6097000    1.0546418   -3.2030591   -1.6914802  0.072989421   -3.2030591    1.5115789   459504 
 6098000    1.0565715    -3.205753   -1.6914676  0.069613236    -3.205753    1.5142854   459522 
 6099000     1.056029   -3.2065354   -1.6929551  0.069052937   -3.2065354    1.5135803   459500 
 6100000    1.0547853   -3.2051352   -1.6933605  0.070580272   -3.2051352    1.5117747   459507 
 6101000    1.0536021   -3.2024565   -1.6923743  0.068477807   -3.2024565    1.5100822   459506 
 6102000    1.0553692   -3.2039698   -1.6914108   0.06618311   -3.2039698    1.5125589   459523 
 6103000    1.0520294   -3.1999943   -1.6921072   0.07424664   -3.1999943    1.5078871   459488 
 6104000    1.0543727   -3.2032648   -1.6920717  0.068885707   -3.2032648    1.5111931   459504 
 6105000    1.0529182   -3.2015168   -1.6922704  0.071192217   -3.2015168    1.5092464   459462 
 6106000    1.0535609   -3.2022433   -1.6921479  0.064441246   -3.2022433    1.5100954   459484 
 6107000    1.0540627   -3.2028732   -1.6919927  0.069097821   -3.2028732    1.5108805   459464 
 6108000    1.0555814    -3.205014   -1.6919632  0.072147315    -3.205014    1.5130508   459466 
 6109000    1.0551654   -3.2041871   -1.6917886  0.075068577   -3.2041871    1.5123985   459483 
 6110000     1.055289   -3.2034947   -1.6909619  0.072558504   -3.2034947    1.5125328   459496 
 6111000    1.0537813   -3.2022099   -1.6918741  0.074983839   -3.2022099    1.5103358   459507 
 6112000    1.0539305   -3.2032004   -1.6928349  0.074487697   -3.2032004    1.5103655   459563 
 6113000    1.0550842   -3.2031187   -1.6911459  0.075265483   -3.2031187    1.5119728   459577 
 6114000    1.0557294   -3.2046328   -1.6917947  0.068401982   -3.2046328    1.5128381   459595 
 6115000    1.0548286   -3.2029138   -1.6913994  0.072105572   -3.2029138    1.5115144   459605 
 6116000    1.0556275   -3.2045579   -1.6920336  0.068824585   -3.2045579    1.5125243   459646 
 6117000    1.0556503   -3.2053157   -1.6927423  0.069628537   -3.2053157    1.5125733   459641 
 6118000    1.0542602   -3.2030904    -1.692407  0.071228572   -3.2030904    1.5106834   459610 
 6119000    1.0544102   -3.2039097   -1.6930705  0.065671161   -3.2039097    1.5108392   459628 
 6120000    1.0549807     -3.20542   -1.6938061  0.073426796     -3.20542    1.5116139   459641 
 6121000    1.0556481   -3.2062678   -1.6935528  0.071147943   -3.2062678     1.512715   459597 
 6122000    1.0553992   -3.2065949   -1.6942332  0.073619693   -3.2065949    1.5123617   459596 
 6123000    1.0571604   -3.2067755    -1.691933  0.069765905   -3.2067755    1.5148425   459609 
 6124000    1.0574008   -3.2073923   -1.6921558  0.067346043   -3.2073923    1.5152365   459594 
 6125000    1.0564598   -3.2059242   -1.6920989  0.073178682   -3.2059242    1.5138254   459613 
 6126000    1.0576679   -3.2076535   -1.6920838  0.075074224   -3.2076535    1.5155697   459609 
 6127000    1.0555564   -3.2058864   -1.6933456  0.072974478   -3.2058864    1.5125408   459610 
 6128000    1.0565915    -3.207316   -1.6935093  0.072062452    -3.207316    1.5138067   459676 
 6129000    1.0568603   -3.2081076   -1.6938334  0.073598077   -3.2081076    1.5142742   459651 
 6130000    1.0554235   -3.2072059   -1.6950102  0.071613834   -3.2072059    1.5121957   459657 
 6131000    1.0557392   -3.2072896    -1.694681  0.074134287   -3.2072896    1.5126086   459669 
 6132000    1.0559131   -3.2083546   -1.6955496   0.07435901   -3.2083546     1.512805   459685 
 6133000    1.0565237   -3.2082351   -1.6946112  0.070855728   -3.2082351    1.5136239   459702 
 6134000    1.0555586   -3.2071277   -1.6948107  0.072222339   -3.2071277     1.512317   459679 
 6135000    1.0568406   -3.2078553   -1.6936456  0.070674074   -3.2078553    1.5142097   459662 
 6136000    1.0571392   -3.2089827   -1.6942464  0.066660889   -3.2089827    1.5147363   459632 
 6137000    1.0549261   -3.2053779   -1.6938948  0.073330226   -3.2053779    1.5114831   459657 
 6138000    1.0569664   -3.2089871   -1.6945841  0.069784821   -3.2089871    1.5144031   459658 
 6139000    1.0580424   -3.2098732   -1.6939647  0.073494944   -3.2098732    1.5159085   459669 
 6140000    1.0571534   -3.2078064   -1.6932574   0.07052866   -3.2078064    1.5145491   459695 
 6141000    1.0562797   -3.2078776   -1.6945111  0.075157728   -3.2078776    1.5133665   459674 
 6142000    1.0565212   -3.2084659    -1.694727  0.074887656   -3.2084659    1.5137389   459666 
 6143000    1.0562853   -3.2085285   -1.6950123  0.071355481   -3.2085285    1.5135162   459631 
 6144000    1.0583149   -3.2100808    -1.693607  0.074106073   -3.2100808    1.5164738   459616 
 6145000    1.0561249   -3.2070966   -1.6938268  0.070959089   -3.2070966    1.5132698   459636 
 6146000    1.0568885   -3.2084212   -1.6941495  0.070175084   -3.2084212    1.5142717   459664 
 6147000    1.0573634   -3.2089666   -1.6941495  0.070899652   -3.2089666    1.5148171   459705 
 6148000    1.0576712   -3.2070362   -1.6918771  0.069169892   -3.2070362    1.5151591   459735 
 6149000    1.0559157    -3.205496   -1.6929076  0.069676996    -3.205496    1.5125884   459752 
 6150000    1.0558986   -3.2065558   -1.6940545  0.068753637   -3.2065558    1.5125014   459771 
 6151000    1.0570066   -3.2083232   -1.6941194  0.068876525   -3.2083232    1.5142038   459736 
 6152000    1.0550882   -3.2062204   -1.6948635  0.070963919   -3.2062204    1.5113569   459766 
 6153000    1.0560473   -3.2066114   -1.6939267  0.067638607   -3.2066114    1.5126848   459780 
 6154000    1.0545033   -3.2045879   -1.6942528  0.069976726   -3.2045879    1.5103351   459822 
 6155000    1.0549681   -3.2053891   -1.6943685  0.066992037   -3.2053891    1.5110205   459816 
 6156000    1.0545476   -3.2048139   -1.6943036  0.072964015   -3.2048139    1.5105103   459788 
 6157000    1.0551205   -3.2051116   -1.6938629  0.076573424   -3.2051116    1.5112488   459813 
 6158000    1.0554203    -3.205985   -1.6943562  0.068271018    -3.205985    1.5116288   459828 
 6159000    1.0548277   -3.2033221   -1.6925914  0.070416003   -3.2033221    1.5107307   459843 
 6160000    1.0549576   -3.2050318   -1.6941478  0.070454328   -3.2050318     1.510884   459853 
 6161000    1.0538643   -3.2038601   -1.6946569  0.073750186   -3.2038601    1.5092032   459888 
 6162000     1.054356     -3.20433   -1.6944356   0.07225197     -3.20433    1.5098943   459892 
 6163000    1.0551375   -3.2050952     -1.69397  0.067866396   -3.2050952    1.5111252   459858 
 6164000    1.0559013   -3.2056489   -1.6934035  0.071629875   -3.2056489    1.5122454   459850 
 6165000    1.0550115   -3.2045781   -1.6935512  0.075184939   -3.2045781    1.5110269   459833 
 6166000    1.0581026   -3.2086425   -1.6933598  0.066804577   -3.2086425    1.5152827   459885 
 6167000    1.0564468   -3.2062933    -1.693441   0.07535433   -3.2062933    1.5128523   459903 
 6168000    1.0574081   -3.2078506   -1.6936744   0.07088404   -3.2078506    1.5141762   459919 
 6169000     1.057784   -3.2080816    -1.693512  0.071386589   -3.2080816    1.5145696   459963 
 6170000    1.0584412   -3.2066431   -1.6912116  0.070515751   -3.2066431    1.5154315   459987 
 6171000    1.0568946   -3.2070364   -1.6938884  0.074265886   -3.2070364     1.513148   460008 
 6172000    1.0565037   -3.2056894   -1.6931536  0.071945899   -3.2056894    1.5125358   460024 
 6173000    1.0576293   -3.2068698   -1.6927883  0.067996466   -3.2068698    1.5140814   460044 
 6174000    1.0570121   -3.2076118   -1.6943119  0.070977579   -3.2076118    1.5132999   460013 
 6175000    1.0572776   -3.2077386   -1.6941541  0.074546992   -3.2077386    1.5135845   460042 
 6176000    1.0577901   -3.2079024   -1.6936467  0.069502498   -3.2079024    1.5142556   460061 
 6177000    1.0582294   -3.2073767   -1.6925086  0.068274231   -3.2073767    1.5148681   460066 
 6178000    1.0574123    -3.206209   -1.6925303  0.073457879    -3.206209    1.5136786   460072 
 6179000    1.0581319   -3.2055408    -1.690911  0.078169841   -3.2055408    1.5146297   460096 
 6180000    1.0575037   -3.2046661   -1.6909816  0.073510296   -3.2046661    1.5136845   460110 
 6181000      1.05752   -3.2040063   -1.6903084  0.073851067   -3.2040063    1.5136979   460113 
 6182000    1.0583031   -3.2038159    -1.689007  0.073552171   -3.2038159    1.5148089   460116 
 6183000    1.0593733   -3.2058177   -1.6895494  0.070093235   -3.2058177    1.5162683   460138 
 6184000    1.0576649   -3.2028902   -1.6889816  0.072185013   -3.2028902    1.5139086   460112 
 6185000    1.0579527   -3.2053783   -1.6911301  0.065991181   -3.2053783    1.5142481   460134 
 6186000    1.0577279   -3.2057695   -1.6918101  0.073686983   -3.2057695    1.5139593   460124 
 6187000      1.05681   -3.2043774   -1.6917286  0.069917233   -3.2043774    1.5126488   460123 
 6188000     1.056887   -3.2054002    -1.692661   0.07058894   -3.2054002    1.5127393   460129 
 6189000     1.056236   -3.2044045   -1.6926233  0.066279141   -3.2044045    1.5117812   460137 
 6190000    1.0569787    -3.204154   -1.6912375  0.069173993    -3.204154    1.5129165   460115 
 6191000    1.0575224   -3.2046924   -1.6911325   0.06656414   -3.2046924    1.5135599   460156 
 6192000    1.0572924   -3.2045632   -1.6913424  0.068971317   -3.2045632    1.5132208   460159 
 6193000    1.0568794   -3.2041601   -1.6915993  0.068149959   -3.2041601    1.5125607   460180 
 6194000    1.0561333   -3.2035044    -1.691982  0.073116888   -3.2035044    1.5115225   460171 
 6195000    1.0570952   -3.2042428   -1.6913173  0.071666033   -3.2042428    1.5129255   460163 
 6196000    1.0576442   -3.2040818   -1.6905285  0.077555554   -3.2040818    1.5135533   460211 
 6197000    1.0586652   -3.2051661   -1.6902932  0.073943186   -3.2051661    1.5148729   460254 
 6198000    1.0586634   -3.2062002   -1.6912278  0.073410762   -3.2062002    1.5149724   460223 
 6199000    1.0584397   -3.2066622   -1.6920132  0.069291563   -3.2066622     1.514649   460224 
 6200000    1.0573029    -3.204339   -1.6913531   0.07345352    -3.204339     1.512986   460235 
 6201000    1.0580739   -3.2051849   -1.6911581  0.070723273   -3.2051849    1.5140268   460254 
 6202000    1.0611139    -3.209261   -1.6909566  0.068522621    -3.209261    1.5183043   460276 
 6203000    1.0581035   -3.2064025   -1.6923957  0.070584424   -3.2064025    1.5140067   460273 
 6204000    1.0577256   -3.2053241   -1.6919765  0.071147165   -3.2053241    1.5133476   460309 
 6205000    1.0583544   -3.2061812   -1.6921412  0.067523333   -3.2061812      1.51404   460372 
 6206000    1.0591858   -3.2076419   -1.6924948  0.067520619   -3.2076419    1.5151471   460397 
 6207000    1.0584543   -3.2057504   -1.6917548  0.074977607   -3.2057504    1.5139955   460429 
 6208000    1.0588226   -3.2064624   -1.6919598  0.064121632   -3.2064624    1.5145026   460435 
 6209000      1.05766   -3.2045821   -1.6916669  0.068145168   -3.2045821    1.5129152   460412 
 6210000    1.0557177   -3.2041567   -1.6939805  0.071864572   -3.2041567    1.5101761   460400 
 6211000    1.0576531   -3.2057509   -1.6929901  0.069352275   -3.2057509    1.5127608   460456 
 6212000    1.0600311   -3.2081932   -1.6921235  0.072933643   -3.2081932    1.5160697   460484 
 6213000     1.057749   -3.2055481   -1.6927718  0.072496746   -3.2055481    1.5127763   460493 
 6214000     1.059702   -3.2072658   -1.6918378  0.067740653   -3.2072658     1.515428   460536 
 6215000    1.0597541    -3.206648   -1.6911685  0.076002964    -3.206648    1.5154794   460543 
 6216000    1.0600626   -3.2063176   -1.6904233  0.074386476   -3.2063176    1.5158943   460551 
 6217000    1.0593195   -3.2053591   -1.6905242  0.070449821   -3.2053591     1.514835   460550 
 6218000    1.0587807   -3.2038157   -1.6898401   0.07869651   -3.2038157    1.5139756   460577 
 6219000     1.059951   -3.2038284   -1.6883208  0.073193134   -3.2038284    1.5155076   460620 
 6220000    1.0602443   -3.2040472   -1.6880708  0.070812465   -3.2040472    1.5159764   460605 
 6221000    1.0604566   -3.2045635   -1.6882705  0.072355827   -3.2045635     1.516293   460601 
 6222000    1.0593514   -3.2035332   -1.6888533  0.071545112   -3.2035332    1.5146799   460611 
 6223000    1.0585654   -3.2015951   -1.6880389  0.071399638   -3.2015951    1.5135561   460611 
 6224000    1.0572462   -3.2002705   -1.6884694  0.075697421   -3.2002705    1.5118011   460571 
 6225000    1.0575824   -3.2015689   -1.6894018   0.06856632   -3.2015689     1.512167   460606 
 6226000    1.0565675   -3.2008849   -1.6901527  0.069722904   -3.2008849    1.5107322   460601 
 6227000     1.057858    -3.200948   -1.6884624  0.070852534    -3.200948    1.5124856   460629 
 6228000    1.0579545   -3.2013752   -1.6887156  0.071902988   -3.2013752    1.5126597   460618 
 6229000    1.0575237    -3.200428   -1.6882924  0.069999907    -3.200428    1.5121356   460590 
 6230000     1.058372   -3.2017504    -1.688415  0.071883009   -3.2017504    1.5133354   460594 
 6231000    1.0571149   -3.1988742   -1.6872871    0.0672059   -3.1988742    1.5115871   460579 
 6232000    1.0575316   -3.2001155   -1.6879884   0.06676281   -3.2001155    1.5121272   460596 
 6233000    1.0579987   -3.2006151   -1.6877346  0.071007351   -3.2006151    1.5128805   460570 
 6234000     1.059012   -3.2010526    -1.686802  0.067596263   -3.2010526    1.5142505   460594 
 6235000    1.0577271   -3.2004567   -1.6880861  0.068594265   -3.2004567    1.5123707   460607 
 6236000    1.0602161   -3.2025779   -1.6866188  0.071792942   -3.2025779    1.5159591   460598 
 6237000     1.058972   -3.2009369   -1.6868751  0.072070572   -3.2009369    1.5140619   460634 
 6238000    1.0592319   -3.2013613   -1.6869278  0.072201257   -3.2013613    1.5144334   460634 
 6239000    1.0601906   -3.2031677    -1.687357  0.068890175   -3.2031677    1.5158107   460632 
 6240000    1.0603744   -3.2024017   -1.6863447  0.072425477   -3.2024017     1.516057   460637 
 6241000    1.0579555    -3.200168   -1.6876252  0.072071425    -3.200168    1.5125428   460654 
 6242000    1.0612794    -3.204697   -1.6874777  0.077237207    -3.204697    1.5172193   460677 
 6243000    1.0605696   -3.2035485   -1.6873177  0.081215468   -3.2035485    1.5162308   460669 
 6244000    1.0601466   -3.2024033     -1.68682  0.069213244   -3.2024033    1.5155833   460682 
 6245000     1.059915   -3.2032932   -1.6879785   0.07453701   -3.2032932    1.5153147   460663 
 6246000    1.0584846   -3.2021824   -1.6889651  0.075117069   -3.2021824    1.5132172   460679 
 6247000    1.0603139   -3.2054576   -1.6896944  0.067922609   -3.2054576    1.5157632   460700 
 6248000    1.0611435   -3.2069292   -1.6900129  0.067450794   -3.2069292    1.5169163   460710 
 6249000    1.0598857   -3.2050522   -1.6900326  0.072735144   -3.2050522    1.5150196   460740 
 6250000     1.059412   -3.2042664   -1.6898944  0.073870642   -3.2042664     1.514372   460731 
 6251000    1.0582116   -3.2037772   -1.6912327  0.068688028   -3.2037772    1.5125445   460765 
 6252000    1.0595414   -3.2048482    -1.690403  0.073393743   -3.2048482    1.5144453   460765 
 6253000    1.0596081   -3.2041074   -1.6896063  0.071186573   -3.2041074    1.5145012   460777 
 6254000    1.0602069   -3.2040286   -1.6885827  0.077979104   -3.2040286    1.5154459   460750 
 6255000    1.0612909    -3.205477   -1.6885673  0.071660454    -3.205477    1.5169097   460776 
 6256000     1.060523   -3.2064307   -1.6905923  0.076623568   -3.2064307    1.5158384   460768 
 6257000    1.0611804   -3.2074219   -1.6906537  0.074946207   -3.2074219    1.5167682   460771 
 6258000    1.0611768   -3.2080271   -1.6911258  0.077103473   -3.2080271    1.5169013   460729 
 6259000    1.0585512   -3.2037955   -1.6907328  0.068237795   -3.2037955    1.5130627   460755 
 6260000    1.0601866   -3.2065848   -1.6911286  0.069963788   -3.2065848    1.5154562   460738 
 6261000    1.0600858    -3.206319   -1.6909542   0.07708664    -3.206319    1.5153648   460722 
 6262000    1.0606306   -3.2056914    -1.689617  0.072680654   -3.2056914    1.5160744   460743 
 6263000    1.0604883   -3.2064419    -1.690686  0.075480064   -3.2064419    1.5157559   460778 
 6264000    1.0608926   -3.2065355   -1.6903333  0.068784814   -3.2065355    1.5162022   460818 
 6265000    1.0623457   -3.2071832   -1.6889866  0.072070585   -3.2071832    1.5181966   460843 
 6266000    1.0612288   -3.2060724   -1.6894753  0.074701695   -3.2060724    1.5165971   460844 
 6267000    1.0597718   -3.2051899   -1.6906519  0.072575156   -3.2051899     1.514538   460837 
 6268000    1.0603943   -3.2068326   -1.6914248  0.070558456   -3.2068326    1.5154078   460843 
 6269000    1.0601411   -3.2062399   -1.6911446  0.068702852   -3.2062399    1.5150953   460828 
 6270000    1.0597808   -3.2055003   -1.6908738  0.072052923   -3.2055003    1.5146264   460814 
 6271000    1.0607032   -3.2062122   -1.6903334  0.072118456   -3.2062122    1.5158788   460834 
 6272000     1.059328   -3.2045416   -1.6905886  0.073977793   -3.2045416     1.513953   460822 
 6273000    1.0614362   -3.2062684   -1.6893651  0.070576674   -3.2062684    1.5169033   460841 
 6274000    1.0594618    -3.203697   -1.6897861  0.075443155    -3.203697    1.5139109   460893 
 6275000    1.0599715   -3.2041969   -1.6894788  0.074092766   -3.2041969    1.5147181   460869 
 6276000    1.0599313   -3.2055321   -1.6909043  0.076163379   -3.2055321    1.5146278   460879 
 6277000     1.060009   -3.2054083   -1.6907845  0.069768437   -3.2054083    1.5146238   460914 
 6278000    1.0597693   -3.2058311   -1.6915629  0.069021494   -3.2058311    1.5142682   460918 
 6279000    1.0608957   -3.2057604   -1.6899124  0.069227861   -3.2057604     1.515848   460927 
 6280000    1.0597932   -3.2036633   -1.6893642  0.074023077   -3.2036633    1.5142991   460919 
 6281000    1.0598135   -3.2029684   -1.6886963  0.069903334   -3.2029684    1.5142722   460936 
 6282000      1.05923   -3.2025663   -1.6890391  0.075581909   -3.2025663    1.5135272   460909 
 6283000    1.0597125   -3.2029263   -1.6886275  0.074139803   -3.2029263    1.5142988   460884 
 6284000    1.0595535   -3.2035901   -1.6894167  0.072636617   -3.2035901    1.5141734   460853 
 6285000    1.0610506   -3.2044917   -1.6882216  0.069912967   -3.2044917      1.51627   460866 
 6286000    1.0609081   -3.2040893   -1.6880425  0.074585953   -3.2040893    1.5160467   460872 
 6287000    1.0590031   -3.2013729   -1.6883177  0.076755288   -3.2013729    1.5130552   460954 
 6288000    1.0602346   -3.2024672   -1.6877872  0.073978748   -3.2024672      1.51468   460995 
 6289000     1.059158   -3.2008242    -1.687656  0.074095859   -3.2008242    1.5131681   460987 
 6290000    1.0600726   -3.2021669   -1.6877249  0.076000411   -3.2021669     1.514442   460997 
 6291000    1.0579208   -3.1997318   -1.6883672  0.071935236   -3.1997318    1.5113646   460998 
 6292000    1.0575246     -3.20001    -1.689195  0.070367754     -3.20001     1.510815   460993 
 6293000    1.0571037   -3.2005858   -1.6903656  0.071568847   -3.2005858    1.5102202   460991 
 6294000    1.0582277   -3.2023788   -1.6906446  0.069845739   -3.2023788    1.5117342   461019 
 6295000     1.057027    -3.200319   -1.6903033  0.066134949    -3.200319    1.5100157   461020 
 6296000    1.0596766   -3.2016957   -1.6879409  0.069508707   -3.2016957    1.5137548   461034 
 6297000    1.0599508   -3.2021484   -1.6880216  0.074729676   -3.2021484    1.5141268   461040 
 6298000    1.0586085   -3.2013778   -1.6892243   0.06972694   -3.2013778    1.5121535   461057 
 6299000    1.0603639   -3.2022852   -1.6876439  0.070542804   -3.2022852    1.5146413   461063 
 6300000     1.058977   -3.2016201   -1.6890386  0.071550697   -3.2016201    1.5125815   461087 
 6301000    1.0578275   -3.2002822   -1.6894638  0.073524103   -3.2002822    1.5108183   461124 
 6302000    1.0590844   -3.2018906    -1.689218  0.073241471   -3.2018906    1.5126726   461106 
 6303000    1.0606274   -3.2038514   -1.6890046   0.07465509   -3.2038514    1.5148468   461115 
 6304000    1.0598775   -3.2033413   -1.6896673  0.074228083   -3.2033413    1.5136741   461146 
 6305000    1.0603763   -3.2028799   -1.6885986  0.071326663   -3.2028799    1.5142813   461178 
 6306000    1.0603202   -3.2036521   -1.6893163  0.075909249   -3.2036521    1.5143358   461137 
 6307000    1.0614138   -3.2051596   -1.6893475  0.070847622   -3.2051596    1.5158122   461163 
 6308000    1.0605581   -3.2036404   -1.6890963  0.075948763   -3.2036404    1.5145442   461177 
 6309000    1.0607305   -3.2054737   -1.6907785  0.066374863   -3.2054737    1.5146952   461206 
 6310000    1.0605615   -3.2058497   -1.6914024  0.068526217   -3.2058497    1.5144472   461208 
 6311000    1.0631509   -3.2097656   -1.6917623   0.06898474   -3.2097656    1.5180033   461251 
 6312000    1.0616346   -3.2089948    -1.693127   0.07028034   -3.2089948    1.5158678   461242 
 6313000    1.0607766   -3.2071834   -1.6926095  0.076971465   -3.2071834    1.5145739   461263 
 6314000    1.0624207   -3.2082292   -1.6913639   0.07473005   -3.2082292    1.5168653   461280 
 6315000    1.0617436   -3.2072868   -1.6913717  0.073682622   -3.2072868     1.515915   461275 
 6316000    1.0613223   -3.2055301   -1.6902264  0.069643134   -3.2055301    1.5153036   461278 
 6317000    1.0617927   -3.2069244   -1.6908669  0.069720019   -3.2069244    1.5160575   461253 
 6318000    1.0610308   -3.2063802   -1.6914369   0.07413237   -3.2063802    1.5149433   461261 
 6319000    1.0626586   -3.2085925   -1.6913415  0.072910562   -3.2085925     1.517251   461266 
 6320000     1.061833   -3.2080018   -1.6918047  0.078296071   -3.2080018    1.5161972   461228 
 6321000    1.0607733   -3.2052601   -1.6906976  0.073645466   -3.2052601    1.5145625   461265 
 6322000    1.0613643   -3.2058975   -1.6905174  0.073829361   -3.2058975      1.51538   461273 
 6323000    1.0621586   -3.2076928   -1.6911359   0.07405045   -3.2076928    1.5165569   461260 
 6324000     1.062853    -3.207547   -1.6899987   0.07301223    -3.207547    1.5175483   461260 
 6325000      1.06112   -3.2054354   -1.6903581  0.078366913   -3.2054354    1.5150773   461259 
 6326000    1.0615702   -3.2052697   -1.6896251  0.071184092   -3.2052697    1.5156445   461282 
 6327000    1.0620221   -3.2059605   -1.6896774  0.079558027   -3.2059605    1.5162831   461284 
 6328000    1.0611812   -3.2049688   -1.6897614  0.075725207   -3.2049688    1.5152074   461246 
 6329000    1.0603694   -3.2032445   -1.6891471   0.07383244   -3.2032445    1.5140974   461231 
 6330000    1.0606349   -3.2041558   -1.6895938  0.070893831   -3.2041558     1.514562   461205 
 6331000    1.0609179   -3.2039305   -1.6889513  0.067467391   -3.2039305    1.5149792   461201 
 6332000    1.0617132   -3.2043848   -1.6882798  0.072149457   -3.2043848     1.516105   461204 
 6333000    1.0610542   -3.2034334   -1.6883581   0.07058536   -3.2034334    1.5150753   461231 
 6334000    1.0605121   -3.2037886   -1.6895137  0.071334287   -3.2037886    1.5142749   461239 
 6335000    1.0610471   -3.2039757   -1.6888152   0.07041971   -3.2039757    1.5151605   461202 
 6336000    1.0610749   -3.2030252   -1.6879861  0.073048071   -3.2030252    1.5150391   461251 
 6337000    1.0616722   -3.2017169   -1.6857624  0.070607605   -3.2017169    1.5159544   461232 
 6338000    1.0610596   -3.2019781   -1.6868754  0.069796158   -3.2019781    1.5151027   461225 
 6339000    1.0596139   -3.1998176   -1.6868645  0.068383478   -3.1998176    1.5129531   461251 
 6340000    1.0609694   -3.2030273   -1.6880106  0.073530863   -3.2030273    1.5150166   461212 
 6341000      1.06081   -3.2030343   -1.6881993  0.067519685   -3.2030343     1.514835   461198 
 6342000    1.0591852   -3.2013371   -1.6887797  0.072401851   -3.2013371    1.5125574   461185 
 6343000    1.0617918   -3.2033263   -1.6869744  0.072545305   -3.2033263     1.516352   461163 
 6344000    1.0610363   -3.2029311    -1.687566  0.072269078   -3.2029311    1.5153651   461135 
 6345000    1.0600044   -3.2027897     -1.68879  0.073065463   -3.2027897    1.5139997   461102 
 6346000     1.058403   -3.2023151   -1.6905928  0.067921085   -3.2023151    1.5117223   461099 
 6347000    1.0579676    -3.201478   -1.6904203  0.070838571    -3.201478    1.5110578   461112 
 6348000    1.0596935   -3.2037124   -1.6902322  0.062251076   -3.2037124    1.5134802   461125 
 6349000    1.0584065   -3.2013904   -1.6897614   0.07130785   -3.2013904     1.511629   461129 
 6350000    1.0609174   -3.2045889   -1.6894625  0.074616661   -3.2045889    1.5151264   461156 
 6351000    1.0602884   -3.2050791   -1.6909168   0.06984275   -3.2050791    1.5141623   461176 
 6352000    1.0605272   -3.2054594   -1.6908837  0.068166778   -3.2054594    1.5145756   461154 
 6353000    1.0588573   -3.2037086   -1.6914751  0.075955673   -3.2037086    1.5122335   461141 
 6354000    1.0605208   -3.2055351   -1.6908964  0.073277737   -3.2055351    1.5146388   461132 
 6355000    1.0613211   -3.2057269    -1.689932  0.073857559   -3.2057269    1.5157948   461128 
 6356000    1.0604226   -3.2055241   -1.6910421  0.074915452   -3.2055241     1.514482   461137 
 6357000    1.0622078   -3.2077954   -1.6908032  0.067085303   -3.2077954    1.5169922   461149 
 6358000    1.0593157    -3.203148    -1.690378  0.076970927    -3.203148    1.5127699   461177 
 6359000    1.0619645   -3.2057166   -1.6892494  0.072801622   -3.2057166    1.5164672   461203 
 6360000    1.0611618   -3.2043885    -1.689107  0.077605245   -3.2043885    1.5152815   461215 
 6361000    1.0614091   -3.2045482   -1.6888775  0.073320613   -3.2045482    1.5156707   461204 
 6362000    1.0608163   -3.2047882   -1.6899574  0.077226429   -3.2047882    1.5148308   461202 
 6363000    1.0606173   -3.2047099    -1.690091  0.075975192   -3.2047099     1.514619   461180 
 6364000    1.0600607   -3.2043919   -1.6906039  0.071333041   -3.2043919     1.513788   461191 
 6365000    1.0612092   -3.2058448   -1.6905712  0.070136583   -3.2058448    1.5152736   461238 
 6366000    1.0593963   -3.2050952   -1.6924496  0.063722334   -3.2050952    1.5126456   461250 
 6367000    1.0603557   -3.2054537   -1.6915071  0.072847919   -3.2054537    1.5139465   461271 
 6368000    1.0603771    -3.204749   -1.6908211  0.066707562    -3.204749    1.5139279   461286 
 6369000    1.0608307   -3.2056988   -1.6912711  0.070225055   -3.2056988    1.5144278   461331 
 6370000    1.0597353   -3.2047043   -1.6919451  0.065457226   -3.2047043    1.5127591   461363 
 6371000    1.0603693   -3.2042043   -1.6905926  0.067790008   -3.2042043    1.5136117   461379 
 6372000    1.0603885   -3.2047602   -1.6910654  0.069060542   -3.2047602    1.5136948   461362 
 6373000    1.0605118   -3.2055212   -1.6916538  0.067455126   -3.2055212    1.5138675   461363 
 6374000    1.0607171   -3.2050943   -1.6909633  0.070228012   -3.2050943     1.514131   461372 
 6375000     1.060527   -3.2054664   -1.6916953  0.071363298   -3.2054664    1.5137711   461399 
 6376000    1.0612643   -3.2046426   -1.6898455  0.070706162   -3.2046426    1.5147972   461407 
 6377000    1.0587973   -3.2013452   -1.6901641  0.071775719   -3.2013452    1.5111811   461436 
 6378000    1.0600538    -3.202492   -1.6895668  0.072773295    -3.202492    1.5129252   461451 
 6379000    1.0589211   -3.2012378   -1.6898604  0.072646189   -3.2012378    1.5113774   461430 
 6380000    1.0597413   -3.2030798   -1.6905613  0.067690502   -3.2030798    1.5125185   461439 
 6381000    1.0614832   -3.2044662   -1.6894879   0.06895493   -3.2044662    1.5149784   461447 
 6382000    1.0615439   -3.2038002   -1.6888402  0.071409862   -3.2038002    1.5149599   461479 
 6383000    1.0601467   -3.2020046   -1.6891304  0.075228141   -3.2020046    1.5128742   461507 
 6384000    1.0616295   -3.2031463   -1.6881201  0.068262297   -3.2031463    1.5150262   461496 
 6385000    1.0604062   -3.2009633   -1.6877385  0.072483951   -3.2009633    1.5132249   461513 
 6386000    1.0617476   -3.2030243   -1.6879541  0.072387261   -3.2030243    1.5150701   461534 
 6387000    1.0596011   -3.2008427    -1.688757  0.072743085   -3.2008427    1.5120857   461510 
 6388000    1.0620982   -3.2038819   -1.6882853  0.070944238   -3.2038819    1.5155966   461526 
 6389000    1.0608899   -3.2017541   -1.6878653   0.06816897   -3.2017541    1.5138888   461521 
 6390000    1.0617354   -3.2013085   -1.6862788  0.073285499   -3.2013085    1.5150297   461541 
 6391000    1.0602255   -3.2014187     -1.68856  0.069016182   -3.2014187    1.5128587   461546 
 6392000    1.0607459     -3.20222   -1.6886351   0.06761646     -3.20222    1.5135849   461551 
 6393000    1.0611197   -3.2021806   -1.6880229  0.065627846   -3.2021806    1.5141576   461539 
 6394000    1.0594403   -3.2004046   -1.6887056  0.076037958   -3.2004046     1.511699   461558 
 6395000    1.0616534   -3.2029889   -1.6881188  0.070946485   -3.2029889    1.5148701   461554 
 6396000    1.0632006   -3.2043693   -1.6873278  0.070162904   -3.2043693    1.5170416   461565 
 6397000    1.0613821   -3.2012421   -1.6869396  0.072452717   -3.2012421    1.5143025   461609 
 6398000    1.0604632   -3.2013647   -1.6884486  0.068491145   -3.2013647    1.5129161   461632 
 6399000    1.0603652   -3.1998893   -1.6870409  0.074055678   -3.1998893    1.5128484   461610 
 6400000    1.0615245   -3.2011147    -1.686678  0.067367809   -3.2011147    1.5144367   461630 
 6401000    1.0600099   -3.2004494   -1.6881015  0.069907684   -3.2004494    1.5123479   461608 
 6402000    1.0589498   -3.2009262    -1.690071   0.06926177   -3.2009262    1.5108552   461602 
 6403000     1.058646    -3.199856   -1.6894048  0.067086547    -3.199856    1.5104512   461593 
 6404000    1.0610753    -3.203227   -1.6893918  0.069776203    -3.203227    1.5138352   461618 
 6405000    1.0598138   -3.2009243    -1.689141  0.071223283   -3.2009243    1.5117833   461695 
 6406000     1.060243   -3.2017108    -1.689371  0.067729868   -3.2017108    1.5123398   461712 
 6407000    1.0605639   -3.2020903   -1.6890994  0.072551387   -3.2020903    1.5129909   461653 
 6408000     1.060192   -3.2018204    -1.689432  0.069169445   -3.2018204    1.5123883   461675 
 6409000    1.0608354   -3.2039975   -1.6906357  0.069167226   -3.2039975    1.5133618   461658 
 6410000    1.0592488   -3.2003876   -1.6893055  0.067818044   -3.2003876     1.511082   461663 
 6411000    1.0602006    -3.199888   -1.6875366  0.075428237    -3.199888    1.5123514   461690 
 6412000    1.0618594   -3.2027235   -1.6879074  0.075203431   -3.2027235    1.5148161   461660 
 6413000    1.0619685    -3.203098   -1.6880509  0.073701541    -3.203098    1.5150471   461637 
 6414000    1.0627896   -3.2061159   -1.6899433  0.066733537   -3.2061159    1.5161726   461651 
 6415000    1.0606709   -3.2030595   -1.6898668  0.077513853   -3.2030595    1.5131927   461638 
 6416000    1.0637542   -3.2081034   -1.6905383   0.07095595   -3.2081034    1.5175651   461646 
 6417000    1.0615436   -3.2056726   -1.6913301  0.072210788   -3.2056726    1.5143425   461667 
 6418000    1.0629885   -3.2066571   -1.6903945  0.075272294   -3.2066571    1.5162626   461710 
 6419000     1.061569   -3.2049422   -1.6907241  0.074403031   -3.2049422    1.5142181   461716 
 6420000    1.0599155   -3.2025476   -1.6907634  0.070434853   -3.2025476    1.5117842   461739 
 6421000    1.0623349   -3.2056003   -1.6902962   0.07232259   -3.2056003    1.5153041   461718 
 6422000    1.0602081   -3.2021732   -1.6901255  0.070321659   -3.2021732    1.5120477   461786 
 6423000    1.0600081   -3.2039184   -1.6921757    0.0690307   -3.2039184    1.5117427   461792 
 6424000    1.0611287    -3.205936   -1.6926147  0.068618136    -3.205936    1.5133213   461798 
 6425000    1.0607439   -3.2055516   -1.6929102  0.066018985   -3.2055516    1.5126415   461838 
 6426000     1.060626   -3.2054258   -1.6929655  0.066754896   -3.2054258    1.5124603   461842 
 6427000    1.0594154   -3.2040162   -1.6933804  0.067102065   -3.2040162    1.5106358   461872 
 6428000    1.0603957   -3.2042762   -1.6922033  0.070475928   -3.2042762    1.5120729   461860 
 6429000      1.06041   -3.2034183    -1.691528  0.068275441   -3.2034183    1.5118903   461922 
 6430000    1.0623336   -3.2051177    -1.690616  0.066131173   -3.2051177    1.5145018   461962 
 6431000    1.0636448   -3.2065305   -1.6902578  0.074044958   -3.2065305    1.5162726   461992 
 6432000    1.0628089    -3.205141   -1.6900336  0.073279898    -3.205141    1.5151073   461984 
 6433000     1.062993   -3.2045196   -1.6890941  0.074117943   -3.2045196    1.5154255   461967 
 6434000    1.0624354   -3.2041964   -1.6895856  0.071483418   -3.2041964    1.5146108   461973 
 6435000    1.0631623   -3.2053885   -1.6895839  0.072433267   -3.2053885    1.5158047   461925 
 6436000    1.0621544   -3.2044703   -1.6901879  0.077080835   -3.2044703    1.5142824   461951 
 6437000    1.0627902   -3.2037255   -1.6887334  0.072787797   -3.2037255    1.5149921   462011 
 6438000    1.0637023   -3.2068387   -1.6905398  0.069699982   -3.2068387    1.5162988   462009 
 6439000    1.0631623   -3.2069282   -1.6914614  0.070469159   -3.2069282    1.5154667   462028 
 6440000    1.0624991   -3.2052103    -1.690738   0.07359348   -3.2052103    1.5144723   462043 
 6441000     1.064942   -3.2070469   -1.6893062  0.072848827   -3.2070469    1.5177407   462108 
 6442000    1.0642403     -3.20623   -1.6896632  0.074008919     -3.20623    1.5165667   462161 
 6443000     1.064167   -3.2055966   -1.6891999   0.07192811   -3.2055966    1.5163967   462181 
 6444000    1.0646119   -3.2057005   -1.6886929  0.072760216   -3.2057005    1.5170076   462188 
 6445000    1.0641411   -3.2068382   -1.6905473  0.070919199   -3.2068382    1.5162908   462202 
 6446000    1.0630207   -3.2049664   -1.6903736  0.072210503   -3.2049664    1.5145928   462233 
 6447000    1.0639866   -3.2070833   -1.6910683  0.071817247   -3.2070833     1.516015   462219 
 6448000    1.0628727   -3.2052473   -1.6908915  0.072470443   -3.2052473    1.5143558   462241 
 6449000    1.0629333   -3.2045516   -1.6901849  0.074590848   -3.2045516    1.5143667   462264 
 6450000    1.0631063   -3.2046386   -1.6900057  0.075155257   -3.2046386    1.5146329   462258 
 6451000    1.0635172   -3.2054899    -1.690265  0.071287549   -3.2054899    1.5152249   462256 
 6452000       1.0637   -3.2067602   -1.6913011  0.071477779   -3.2067602    1.5154591   462264 
 6453000    1.0621932   -3.2049589   -1.6916793   0.06865195   -3.2049589    1.5132796   462274 
 6454000    1.0632923   -3.2068518   -1.6920161  0.068797028   -3.2068518    1.5148357   462277 
 6455000    1.0624597   -3.2059671   -1.6923406  0.075071012   -3.2059671    1.5136265   462284 
 6456000    1.0640771   -3.2068048   -1.6908215  0.071086278   -3.2068048    1.5159832   462268 
 6457000     1.063032   -3.2074779    -1.692918   0.07295959   -3.2074779    1.5145598   462248 
 6458000    1.0631497    -3.207082   -1.6923511  0.069063304    -3.207082    1.5147308   462247 
 6459000    1.0628593   -3.2079017   -1.6936765   0.06824996   -3.2079017    1.5142253   462275 
 6460000    1.0627653   -3.2073979   -1.6933819  0.071975661   -3.2073979    1.5140161   462298 
 6461000    1.0620938   -3.2065965   -1.6936352  0.076692916   -3.2065965    1.5129613   462328 
 6462000    1.0629418   -3.2074565   -1.6933167  0.072608153   -3.2074565    1.5141398   462337 
 6463000    1.0638664   -3.2066334   -1.6912945  0.077364318   -3.2066334    1.5153389   462373 
 6464000    1.0635007   -3.2064118   -1.6915808  0.070219414   -3.2064118    1.5148311   462369 
 6465000    1.0642257   -3.2072655   -1.6915001  0.073341981   -3.2072655    1.5157654   462399 
 6466000    1.0640212   -3.2067079   -1.6913222  0.074670374   -3.2067079    1.5153857   462426 
 6467000    1.0642917   -3.2069328   -1.6911751  0.069725643   -3.2069328    1.5157577   462430 
 6468000    1.0650158   -3.2071694   -1.6904885  0.077521061   -3.2071694    1.5166809   462463 
 6469000    1.0652155   -3.2076391   -1.6906017   0.07096047   -3.2076391    1.5170374   462441 
 6470000    1.0647189   -3.2063998   -1.6901024   0.07250303   -3.2063998    1.5162974   462451 
 6471000    1.0642727   -3.2058882   -1.6903606  0.068037466   -3.2058882    1.5155276   462492 
 6472000    1.0645615   -3.2064934   -1.6906267  0.069510619   -3.2064934    1.5158667   462514 
 6473000    1.0633769   -3.2052969   -1.6911529  0.077131777   -3.2052969    1.5141439   462525 
 6474000    1.0634399   -3.2050224   -1.6908445  0.073978607   -3.2050224     1.514178   462542 
 6475000    1.0653138   -3.2068961   -1.6900139  0.071463913   -3.2068961    1.5168822   462531 
 6476000    1.0650416    -3.205683   -1.6890212  0.070463726    -3.205683    1.5166617   462480 
 6477000    1.0648248   -3.2064601   -1.6901038  0.071367932   -3.2064601    1.5163563   462479 
 6478000    1.0652101   -3.2070882    -1.690252  0.072672787   -3.2070882    1.5168362   462500 
 6479000    1.0645015   -3.2055539   -1.6897629  0.070438859   -3.2055539    1.5157911   462511 
 6480000    1.0633307   -3.2041298    -1.689983  0.069193532   -3.2041298    1.5141468   462504 
 6481000    1.0637874   -3.2041728   -1.6895165  0.072295304   -3.2041728    1.5146563   462547 
 6482000    1.0633469   -3.2031682   -1.6890376  0.073407786   -3.2031682    1.5141306   462516 
 6483000    1.0641634   -3.2060894   -1.6907471  0.069339554   -3.2060894    1.5153423   462501 
 6484000    1.0643994   -3.2060861   -1.6904207  0.072924057   -3.2060861    1.5156654   462505 
 6485000    1.0629757   -3.2039156   -1.6902187  0.069569028   -3.2039156    1.5136969   462487 
 6486000    1.0637217    -3.203992   -1.6893671  0.069890534    -3.203992    1.5146249   462528 
 6487000    1.0622812   -3.2023017   -1.6896886  0.073591804   -3.2023017    1.5126131   462516 
 6488000    1.0640125   -3.2034784   -1.6884917  0.072921109   -3.2034784    1.5149867   462544 
 6489000    1.0647373   -3.2040379   -1.6880325  0.071748359   -3.2040379    1.5160055   462548 
 6490000    1.0655418   -3.2040924   -1.6870398  0.067222282   -3.2040924    1.5170527   462578 
 6491000    1.0645676   -3.2024972   -1.6868775  0.074521089   -3.2024972    1.5156197   462592 
 6492000    1.0649617   -3.2028787   -1.6866913  0.072614564   -3.2028787    1.5161874   462590 
 6493000    1.0631619    -3.202626   -1.6890141  0.072651534    -3.202626    1.5136119   462594 
 6494000    1.0638932   -3.2032038   -1.6886131  0.073475863   -3.2032038    1.5145908   462613 
 6495000    1.0636265   -3.2011651   -1.6868754  0.073934667   -3.2011651    1.5142897   462589 
 6496000     1.065872   -3.2048773   -1.6874923  0.072300774   -3.2048773    1.5173849   462620 
 6497000    1.0634429   -3.2006475   -1.6868711  0.073391112   -3.2006475    1.5137764   462666 
 6498000    1.0636911   -3.2027338   -1.6885027  0.066830465   -3.2027338    1.5142311   462635 
 6499000    1.0653114   -3.2030268   -1.6865383  0.071604674   -3.2030268    1.5164885   462650 
 6500000    1.0646338   -3.2016566    -1.686113  0.072211692   -3.2016566    1.5155436   462644 
 6501000    1.0642382    -3.201336   -1.6864832  0.073788097    -3.201336    1.5148529   462683 
 6502000    1.0639153   -3.2008849   -1.6865082  0.071685695   -3.2008849    1.5143768   462688 
 6503000     1.064681   -3.2018831    -1.686603  0.079971456   -3.2018831    1.5152801   462745 
 6504000     1.064949   -3.2016949   -1.6860923  0.072697424   -3.2016949    1.5156026   462763 
 6505000    1.0653383   -3.2027886   -1.6866124  0.077415297   -3.2027886    1.5161762   462757 
 6506000    1.0645091    -3.200668   -1.6857014   0.07454086    -3.200668    1.5149666   462766 
 6507000    1.0658436   -3.2032105   -1.6864102  0.075616037   -3.2032105    1.5168003   462786 
 6508000    1.0655449    -3.203005   -1.6866331   0.06927863    -3.203005    1.5163719   462787 
 6509000    1.0657565    -3.202438    -1.685824  0.070988045    -3.202438     1.516614   462805 
 6510000    1.0647997   -3.2014722   -1.6862165  0.065659895   -3.2014722    1.5152557   462804 
 6511000    1.0645132   -3.2013422   -1.6865759  0.070198982   -3.2013422    1.5147663   462829 
 6512000    1.0652817   -3.2026007   -1.6867409  0.068103069   -3.2026007    1.5158598   462829 
 6513000    1.0661289   -3.2039957   -1.6870417  0.070945576   -3.2039957    1.5169539   462863 
 6514000    1.0669135    -3.203705   -1.6856938  0.072293253    -3.203705    1.5180112   462881 
 6515000    1.0648594   -3.2017532   -1.6865204  0.070480566   -3.2017532    1.5152327   462837 
 6516000    1.0658479   -3.2035215   -1.6867118  0.074983687   -3.2035215    1.5168096   462785 
 6517000     1.065118   -3.2033782   -1.6876072  0.077117038   -3.2033782     1.515771   462785 
 6518000      1.06658    -3.205731   -1.6878302  0.073470112    -3.205731    1.5179007   462770 
 6519000    1.0651239   -3.2033485   -1.6875954  0.075725728   -3.2033485    1.5157532   462793 
 6520000    1.0640586   -3.2021092   -1.6878295  0.074442047   -3.2021092    1.5142797   462780 
 6521000    1.0646397    -3.202885   -1.6877358  0.066742109    -3.202885    1.5151492   462767 
 6522000    1.0640895   -3.2020765   -1.6876743  0.075388772   -3.2020765    1.5144022   462756 
 6523000     1.063566     -3.20116   -1.6876238  0.068356614     -3.20116    1.5135362   462793 
 6524000    1.0641646   -3.2024866   -1.6880626  0.069862811   -3.2024866     1.514424   462782 
 6525000    1.0645511   -3.2039457   -1.6890895  0.069377875   -3.2039457    1.5148562   462818 
 6526000    1.0615688   -3.1999178   -1.6892598  0.069300364   -3.1999178    1.5106581   462804 
 6527000    1.0638049    -3.203089   -1.6891834  0.077440043    -3.203089    1.5139056   462784 
 6528000     1.065095   -3.2067079   -1.6909237  0.070023649   -3.2067079    1.5157841   462771 
 6529000    1.0643241   -3.2052901   -1.6905147  0.069224584   -3.2052901    1.5147753   462744 
 6530000    1.0641949   -3.2046819   -1.6902638  0.070861122   -3.2046819     1.514418   462797 
 6531000    1.0645516    -3.204267   -1.6894167  0.071505381    -3.204267    1.5148503   462820 
 6532000    1.0641608   -3.2045907   -1.6902442  0.077763863   -3.2045907    1.5143465   462804 
 6533000    1.0658306    -3.205202   -1.6884202  0.075159597    -3.205202    1.5167818   462786 
 6534000    1.0649494    -3.203898   -1.6883867  0.071098629    -3.203898    1.5155113   462791 
 6535000    1.0637847   -3.2043153   -1.6903763  0.078676473   -3.2043153     1.513939   462765 
 6536000    1.0645971   -3.2053387   -1.6902664  0.074340544   -3.2053387    1.5150723   462772 
 6537000    1.0667437   -3.2079364    -1.689793  0.070225941   -3.2079364    1.5181435   462767 
 6538000    1.0658635   -3.2068119   -1.6899275   0.07064163   -3.2068119    1.5168844   462769 
 6539000    1.0654655   -3.2079713   -1.6916469  0.068380601   -3.2079713    1.5163244   462767 
 6540000    1.0669814   -3.2088278   -1.6903098   0.07620969   -3.2088278     1.518518   462756 
 6541000    1.0663378   -3.2075743   -1.6899296  0.078786567   -3.2075743    1.5176446   462743 
 6542000    1.0660163   -3.2065717   -1.6893946  0.072114759   -3.2065717    1.5171772   462746 
 6543000    1.0664196   -3.2064895   -1.6887417   0.07685222   -3.2064895    1.5177478   462747 
 6544000    1.0662222   -3.2067451   -1.6891405  0.073249063   -3.2067451    1.5176047   462705 
 6545000    1.0679444   -3.2100964   -1.6899977  0.069865322   -3.2100964    1.5200987   462692 
 6546000    1.0682954   -3.2093794   -1.6887482  0.075873241   -3.2093794    1.5206312   462682 
 6547000    1.0669113   -3.2079138   -1.6893906  0.072871006   -3.2079138    1.5185232   462724 
 6548000     1.066338   -3.2071787   -1.6895305  0.067716206   -3.2071787    1.5176482   462742 
 6549000    1.0662379   -3.2077994   -1.6902576   0.07233549   -3.2077994    1.5175418   462731 
 6550000    1.0662967   -3.2091381   -1.6915356  0.072327338   -3.2091381    1.5176025   462738 
 6551000    1.0647058   -3.2072981   -1.6918158  0.072553634   -3.2072981    1.5154823   462694 
 6552000    1.0643789   -3.2070702   -1.6919877   0.07387835   -3.2070702    1.5150826   462674 
 6553000    1.0650014   -3.2079219   -1.6920024  0.071444614   -3.2079219    1.5159195   462689 
 6554000    1.0647469   -3.2079012   -1.6923113  0.073341488   -3.2079012    1.5155899   462679 
 6555000     1.063123     -3.20602   -1.6928494  0.072939419     -3.20602    1.5131706   462712 
 6556000    1.0644297   -3.2076039   -1.6925898   0.07503925   -3.2076039    1.5150141   462717 
 6557000    1.0644769   -3.2078266     -1.69286  0.074292427   -3.2078266    1.5149667   462752 
 6558000    1.0621748   -3.2052633   -1.6935109  0.073729198   -3.2052633    1.5117524   462733 
 6559000    1.0630016   -3.2068874   -1.6938798  0.072268565   -3.2068874    1.5130075   462709 
 6560000    1.0633086   -3.2076773   -1.6943996  0.071254432   -3.2076773    1.5132777   462760 
 6561000    1.0648852   -3.2085247   -1.6931506  0.065525199   -3.2085247    1.5153742   462805 
 6562000    1.0656138   -3.2094671   -1.6930626  0.070481191   -3.2094671    1.5164044   462807 
 6563000    1.0650883    -3.209033   -1.6934516  0.070487414    -3.209033    1.5155813   462830 
 6564000    1.0660714   -3.2103061   -1.6932341  0.070668889   -3.2103061     1.517072   462802 
 6565000    1.0654858   -3.2098107   -1.6936506  0.076311912   -3.2098107      1.51616   462826 
 6566000    1.0655304   -3.2092375   -1.6930205  0.076513082   -3.2092375    1.5162169   462828 
 6567000    1.0663481   -3.2097141   -1.6922778   0.07592609   -3.2097141    1.5174363   462811 
 6568000    1.0681071   -3.2131278   -1.6931294  0.075147731   -3.2131278    1.5199985   462793 
 6569000    1.0650533   -3.2095709   -1.6939312  0.074425142   -3.2095709    1.5156396   462797 
 6570000    1.0648484   -3.2101643   -1.6948883  0.075251102   -3.2101643     1.515276   462819 
 6571000    1.0660389   -3.2115007   -1.6946486  0.074955452   -3.2115007    1.5168521   462855 
 6572000    1.0650752   -3.2114553   -1.6960106  0.078590632   -3.2114553    1.5154448   462866 
 6573000    1.0650693   -3.2125731    -1.697045  0.074601818   -3.2125731     1.515528   462838 
 6574000     1.066256   -3.2136577   -1.6965491   0.06752881   -3.2136577    1.5171085   462871 
 6575000    1.0651062    -3.212397   -1.6970686  0.074634777    -3.212397    1.5153285   462915 
 6576000    1.0652154   -3.2119776   -1.6965364  0.074329988   -3.2119776    1.5154412   462928 
 6577000    1.0644469   -3.2107522   -1.6964566  0.071304001   -3.2107522    1.5142957   462944 
 6578000     1.065079   -3.2122256   -1.6969227  0.075333898   -3.2122256    1.5153029   462911 
 6579000    1.0656163   -3.2122821   -1.6962901  0.069689112   -3.2122821     1.515992   462934 
 6580000    1.0657161   -3.2127392    -1.696615  0.077090851   -3.2127392    1.5161241   462937 
 6581000    1.0666331   -3.2138576   -1.6964355  0.081764126   -3.2138576    1.5174221   462939 
 6582000    1.0667378   -3.2146712    -1.697051  0.073193324   -3.2146712    1.5176202   462924 
 6583000    1.0663697   -3.2137309   -1.6966474  0.077925578   -3.2137309    1.5170835   462928 
 6584000    1.0683824    -3.215187   -1.6952631  0.075170923    -3.215187    1.5199239   462935 
 6585000      1.06445   -3.2106005   -1.6964804  0.075927714   -3.2106005    1.5141202   462999 
 6586000    1.0660596   -3.2115824   -1.6951203  0.074417201   -3.2115824    1.5164621   462983 
 6587000    1.0668866   -3.2130188    -1.695449  0.065493599   -3.2130188    1.5175698   463004 
 6588000    1.0655717   -3.2112692   -1.6955502   0.07301117   -3.2112692     1.515719   462998 
 6589000      1.06649   -3.2114446   -1.6945537  0.075892807   -3.2114446    1.5168909   463039 
 6590000    1.0649019   -3.2082937   -1.6937433    0.0805046   -3.2082937    1.5145503   463064 
 6591000    1.0669964   -3.2117346   -1.6942217  0.075322486   -3.2117346    1.5175129   463069 
 6592000    1.0655364   -3.2106844   -1.6952742  0.073385625   -3.2106844    1.5154102   463077 
 6593000    1.0651978   -3.2099134   -1.6951516  0.069765061   -3.2099134    1.5147618   463128 
 6594000    1.0655444   -3.2090078    -1.693789  0.071195692   -3.2090078    1.5152187   463139 
 6595000    1.0653601   -3.2095609   -1.6945879  0.070021154   -3.2095609     1.514973   463134 
 6596000    1.0644633    -3.209176    -1.695511  0.076400598    -3.209176    1.5136651   463144 
 6597000     1.062992   -3.2062779   -1.6947083  0.070023114   -3.2062779    1.5115696   463145 
 6598000    1.0638486   -3.2085511   -1.6958745    0.0689893   -3.2085511    1.5126766   463179 
 6599000    1.0628494   -3.2063034   -1.6949921  0.067761376   -3.2063034    1.5113113   463162 
 6600000    1.0614623   -3.2039432   -1.6945717   0.06906075   -3.2039432    1.5093715   463152 
 6601000    1.0619347   -3.2054299   -1.6953312  0.068597808   -3.2054299    1.5100987   463135 
 6602000    1.0623205   -3.2064583   -1.6958436  0.070380361   -3.2064583    1.5106147   463145 
 6603000    1.0642854   -3.2074694   -1.6940247  0.071187588   -3.2074694    1.5134447   463134 
 6604000    1.0638859   -3.2074365   -1.6946382  0.069289869   -3.2074365    1.5127983   463158 
 6605000    1.0664784   -3.2091833   -1.6927641  0.071488388   -3.2091833    1.5164192   463178 
 6606000    1.0651946   -3.2088388   -1.6943268  0.071870672   -3.2088388     1.514512   463203 
 6607000    1.0657052   -3.2093838   -1.6941752  0.071009059   -3.2093838    1.5152086   463212 
 6608000    1.0662673   -3.2096908   -1.6936339   0.07410612   -3.2096908    1.5160569   463197 
 6609000    1.0667795   -3.2097054    -1.692989  0.071533525   -3.2097054    1.5167163   463218 
 6610000    1.0655582   -3.2081548   -1.6933024  0.069006052   -3.2081548    1.5148524   463257 
 6611000    1.0662911   -3.2098954   -1.6940403  0.072574295   -3.2098954    1.5158551   463269 
 6612000    1.0674656   -3.2103136   -1.6930083  0.069996087   -3.2103136    1.5173053   463336 
 6613000    1.0670485    -3.210203   -1.6933923   0.06848749    -3.210203    1.5168107   463306 
 6614000    1.0670784   -3.2103884   -1.6936204  0.073704144   -3.2103884    1.5167681   463332 
 6615000    1.0663035   -3.2102784   -1.6945856  0.073839132   -3.2102784    1.5156928   463324 
 6616000    1.0665833   -3.2102604   -1.6941275  0.071709876   -3.2102604    1.5161329   463311 
 6617000    1.0648079    -3.208875   -1.6952788  0.071219569    -3.208875    1.5135962   463315 
 6618000    1.0671724   -3.2117836   -1.6948033  0.067064076   -3.2117836    1.5169803   463308 
 6619000    1.0659024   -3.2098957   -1.6945605  0.072965368   -3.2098957    1.5153352   463259 
 6620000    1.0662486   -3.2103815   -1.6947602  0.075007659   -3.2103815    1.5156213   463322 
 6621000    1.0652967   -3.2097928    -1.695492  0.074562174   -3.2097928    1.5143008   463312 
 6622000    1.0667185   -3.2111681   -1.6949968  0.074031244   -3.2111681    1.5161713   463358 
 6623000    1.0675131   -3.2132155   -1.6958624   0.06833856   -3.2132155    1.5173531   463342 
 6624000    1.0657272   -3.2107958   -1.6960792  0.074676261   -3.2107958    1.5147166   463372 
 6625000    1.0662172   -3.2118724   -1.6965051  0.074170961   -3.2118724    1.5153673   463386 
 6626000    1.0682875   -3.2127947   -1.6945211  0.073918321   -3.2127947    1.5182736   463397 
 6627000    1.0675304   -3.2112272   -1.6940885  0.073223822   -3.2112272    1.5171387   463415 
 6628000    1.0646244   -3.2082941   -1.6953049  0.073211394   -3.2082941    1.5129892   463421 
 6629000    1.0644353   -3.2095407   -1.6967876  0.074040282   -3.2095407    1.5127531   463411 
 6630000    1.0677541   -3.2131812   -1.6957474  0.067518649   -3.2131812    1.5174338   463422 
 6631000    1.0663163    -3.211379   -1.6959919  0.070322297    -3.211379    1.5153871   463423 
 6632000    1.0661885   -3.2117211   -1.6965352  0.069822732   -3.2117211    1.5151859   463429 
 6633000    1.0673483   -3.2124859   -1.6956748  0.069030957   -3.2124859    1.5168112   463436 
 6634000    1.0656612   -3.2102226   -1.6957273  0.073125369   -3.2102226    1.5144953   463411 
 6635000    1.0658212   -3.2099375   -1.6952736  0.070571505   -3.2099375     1.514664   463429 
 6636000    1.0660396   -3.2088372   -1.6938564  0.076015923   -3.2088372    1.5149808   463427 
 6637000    1.0679223   -3.2110851   -1.6934583  0.074606205   -3.2110851    1.5176269   463436 
 6638000    1.0666531   -3.2091524   -1.6934273  0.076828265   -3.2091524    1.5157251   463466 
 6639000    1.0676178   -3.2103782   -1.6932888  0.075991814   -3.2103782    1.5170894   463468 
 6640000    1.0685806   -3.2119515    -1.693602  0.076593018   -3.2119515    1.5183495   463501 
 6641000    1.0681763   -3.2111993   -1.6936044  0.077530312   -3.2111993    1.5175949   463556 
 6642000    1.0669271   -3.2098901   -1.6941158  0.076488806   -3.2098901    1.5157743   463570 
 6643000     1.068073    -3.210946   -1.6936582  0.072589466    -3.210946    1.5172878   463605 
 6644000    1.0678198   -3.2110399     -1.69403  0.074726127   -3.2110399    1.5170099   463580 
 6645000    1.0670771   -3.2098903   -1.6939584  0.078424998   -3.2098903    1.5159319   463587 
 6646000     1.067588   -3.2098532   -1.6932969  0.070336888   -3.2098532    1.5165563   463618 
 6647000    1.0682544   -3.2101183   -1.6925958  0.078621673   -3.2101183    1.5175225   463612 
 6648000    1.0669455   -3.2093155   -1.6935804  0.074719792   -3.2093155    1.5157351   463590 
 6649000    1.0672058   -3.2080596   -1.6920071   0.07501508   -3.2080596    1.5160525   463606 
 6650000    1.0685203   -3.2105348   -1.6926442   0.07003413   -3.2105348    1.5178905   463615 
 6651000    1.0670508   -3.2097514   -1.6938308   0.07269278   -3.2097514    1.5159206   463579 
 6652000    1.0673674   -3.2095033   -1.6931099  0.076497284   -3.2095033    1.5163933   463572 
 6653000    1.0691441   -3.2111975   -1.6923488  0.076018357   -3.2111975    1.5188487   463593 
 6654000    1.0674992   -3.2088412   -1.6924896  0.070937458   -3.2088412    1.5163516   463642 
 6655000    1.0675812   -3.2087673   -1.6922664  0.077085053   -3.2087673    1.5165008   463632 
 6656000    1.0691765    -3.210464   -1.6917037  0.075685063    -3.210464    1.5187604   463634 
 6657000    1.0669076   -3.2078839   -1.6924412  0.078537475   -3.2078839    1.5154427   463663 
 6658000    1.0674664   -3.2091868   -1.6929145  0.070837724   -3.2091868    1.5162724   463652 
 6659000     1.067292   -3.2089923   -1.6929187  0.074741692   -3.2089923    1.5160736   463637 
 6660000    1.0676436   -3.2093272   -1.6927835  0.072923706   -3.2093272    1.5165437   463646 
 6661000    1.0673794   -3.2104046   -1.6942951  0.071281283   -3.2104046    1.5161095   463664 
 6662000    1.0666624   -3.2088407   -1.6937791   0.07536681   -3.2088407    1.5150616   463673 
 6663000     1.067348   -3.2116519   -1.6956851  0.070863132   -3.2116519    1.5159668   463694 
 6664000    1.0664288   -3.2102984   -1.6957351  0.072122802   -3.2102984    1.5145633   463724 
 6665000    1.0671744     -3.21053   -1.6947835  0.074294488     -3.21053    1.5157464   463686 
 6666000    1.0688227   -3.2122799   -1.6942219  0.074729565   -3.2122799     1.518058   463695 
 6667000    1.0674613   -3.2103534   -1.6943695  0.077438736   -3.2103534    1.5159839   463738 
 6668000    1.0684838   -3.2129912   -1.6954046  0.078149371   -3.2129912    1.5175865   463692 
 6669000    1.0673017   -3.2117099   -1.6960344  0.072174633   -3.2117099    1.5156755   463763 
 6670000    1.0674883   -3.2111462   -1.6952482  0.072316572   -3.2111462     1.515898   463776 
 6671000    1.0667347   -3.2103668   -1.6956729  0.074724826   -3.2103668     1.514694   463817 
 6672000    1.0675331   -3.2125176   -1.6966409  0.071834385   -3.2125176    1.5158767   463802 
 6673000    1.0682088   -3.2122259   -1.6954879  0.073484364   -3.2122259     1.516738   463832 
 6674000    1.0686508   -3.2135645    -1.696176  0.073078453   -3.2135645    1.5173885   463825 
 6675000    1.0670942   -3.2122315   -1.6970238  0.074668647   -3.2122315    1.5152077   463816 
 6676000    1.0675657   -3.2122142   -1.6964057  0.074171973   -3.2122142    1.5158085   463837 
 6677000    1.0687064   -3.2130441   -1.6956323  0.076458693   -3.2130441    1.5174118   463842 
 6678000    1.0667316   -3.2112933   -1.6966854  0.072497889   -3.2112933    1.5146079   463842 
 6679000     1.068054   -3.2124637   -1.6959651  0.076717594   -3.2124637    1.5164986   463838 
 6680000    1.0690634   -3.2141857   -1.6964142  0.077539237   -3.2141857    1.5177715   463887 
 6681000    1.0701289   -3.2161912   -1.6968481  0.069991123   -3.2161912    1.5193431   463869 
 6682000    1.0689154   -3.2151117   -1.6975308  0.074078544   -3.2151117    1.5175809   463881 
 6683000    1.0690825   -3.2151367   -1.6973806  0.075088181   -3.2151367    1.5177561   463900 
 6684000    1.0680237   -3.2138759   -1.6976949  0.076022196   -3.2138759     1.516181   463922 
 6685000    1.0669603   -3.2129546   -1.6983844  0.073137111   -3.2129546    1.5145702   463953 
 6686000    1.0660633    -3.211236   -1.6978772  0.068828913    -3.211236    1.5133588   463934 
 6687000    1.0678542   -3.2147267   -1.6987798  0.071381901   -3.2147267     1.515947   463920 
 6688000    1.0674123   -3.2138302   -1.6985466  0.066916093   -3.2138302    1.5152836   463931 
 6689000    1.0666394   -3.2128474   -1.6986087  0.070422116   -3.2128474    1.5142387   463915 
 6690000    1.0674393   -3.2134331    -1.698049  0.075755237   -3.2134331    1.5153841   463912 
 6691000     1.066401   -3.2118648   -1.6979287  0.081579772   -3.2118648    1.5139361   463904 
 6692000    1.0671634   -3.2135878    -1.698517   0.06958514   -3.2135878    1.5150708   463888 
 6693000     1.067624   -3.2139866   -1.6982979   0.07373323   -3.2139866    1.5156887   463899 
 6694000     1.068173    -3.212559   -1.6960713  0.074861399    -3.212559    1.5164877   463893 
 6695000    1.0683568   -3.2118631   -1.6951144  0.071685818   -3.2118631    1.5167487   463893 
 6696000    1.0684715   -3.2111256   -1.6942403   0.07730938   -3.2111256    1.5168853   463901 
 6697000    1.0680348    -3.211925   -1.6956334  0.073314425    -3.211925    1.5162916   463893 
 6698000    1.0676554   -3.2112771   -1.6953968   0.07564759   -3.2112771    1.5158803   463854 
 6699000    1.0660003    -3.209742   -1.6962215  0.071184887    -3.209742    1.5135206   463857 
 6700000    1.0665034   -3.2100119   -1.6958651  0.073202984   -3.2100119    1.5141468   463884 
 6701000    1.0668504   -3.2105238   -1.6958941  0.067733529   -3.2105238    1.5146297   463887 
 6702000    1.0649135    -3.209342   -1.6974491  0.070286859    -3.209342    1.5118928   463883 
 6703000    1.0655386   -3.2109745    -1.698142  0.067919746   -3.2109745    1.5128325   463867 
 6704000    1.0653856   -3.2105892   -1.6979445  0.061202821   -3.2105892    1.5126446   463858 
 6705000    1.0635135   -3.2086591   -1.6985683  0.069968566   -3.2086591    1.5100908   463826 
 6706000    1.0644219   -3.2095845   -1.6981779  0.068670401   -3.2095845    1.5114066   463818 
 6707000    1.0648758   -3.2094658   -1.6974832  0.068309606   -3.2094658    1.5119827   463839 
 6708000    1.0655825   -3.2092258   -1.6962429  0.065812291   -3.2092258    1.5129829   463840 
 6709000    1.0662572   -3.2096849   -1.6957669  0.075854662   -3.2096849     1.513918   463847 
 6710000    1.0656077   -3.2084106   -1.6953984  0.071711013   -3.2084106    1.5130122   463842 
 6711000     1.066007   -3.2079316   -1.6943427  0.071377349   -3.2079316    1.5135889   463839 
 6712000    1.0645641   -3.2080625   -1.6964343  0.074373527   -3.2080625    1.5116281   463812 
 6713000    1.0652947   -3.2083024   -1.6958031  0.069701511   -3.2083024    1.5124993   463863 
 6714000     1.066461   -3.2098543   -1.6958428  0.062612695   -3.2098543    1.5140116   463907 
 6715000    1.0670657   -3.2098126   -1.6949165  0.066480986   -3.2098126    1.5148961   463899 
 6716000    1.0671725   -3.2093746   -1.6943921  0.068820484   -3.2093746    1.5149825   463919 
 6717000    1.0677053   -3.2110073   -1.6952097  0.069693175   -3.2110073    1.5157976   463901 
 6718000    1.0666641   -3.2076747   -1.6933454  0.072410821   -3.2076747    1.5143293   463898 
 6719000    1.0674459   -3.2088089   -1.6934448   0.07338927   -3.2088089     1.515364   463921 
 6720000    1.0673793   -3.2085496   -1.6933062  0.076404244   -3.2085496    1.5152434   463929 
 6721000    1.0681375   -3.2102129   -1.6938736  0.071410416   -3.2102129    1.5163393   463923 
 6722000    1.0678979   -3.2107596   -1.6946886  0.071685873   -3.2107596     1.516071   463901 
 6723000    1.0690372   -3.2112571   -1.6937583   0.07037768   -3.2112571    1.5174987   463959 
 6724000    1.0678761    -3.210823    -1.694894  0.073539249    -3.210823     1.515929   463935 
 6725000    1.0686579    -3.210888   -1.6939506  0.067794195    -3.210888    1.5169374   463966 
 6726000    1.0677824   -3.2096425   -1.6940032  0.076106494   -3.2096425    1.5156392   463983 
 6727000    1.0676949   -3.2092107   -1.6937284   0.07637891   -3.2092107    1.5154823   463993 
 6728000    1.0689035   -3.2093114   -1.6922215  0.073102474   -3.2093114    1.5170899   464026 
 6729000    1.0656797   -3.2059092   -1.6934731  0.070842646   -3.2059092    1.5124362   464050 
 6730000    1.0661665   -3.2070332   -1.6937888  0.073304593   -3.2070332    1.5132444   464014 
 6731000    1.0676382    -3.209199   -1.6938135  0.074833338    -3.209199    1.5153855   463998 
 6732000    1.0667088   -3.2091805   -1.6951827  0.070033654   -3.2091805    1.5139979   464019 
 6733000     1.066696   -3.2085095   -1.6946604  0.073034002   -3.2085095    1.5138491   464059 
 6734000     1.066904   -3.2086549   -1.6944943  0.070691617   -3.2086549    1.5141606   464054 
 6735000    1.0672999   -3.2097383   -1.6950615  0.070348504   -3.2097383    1.5146768   464068 
 6736000    1.0656717   -3.2064539   -1.6941953  0.076302898   -3.2064539    1.5122586   464101 
 6737000    1.0681303   -3.2093431   -1.6937034   0.07270982   -3.2093431    1.5156397   464134 
 6738000    1.0672562    -3.208351   -1.6938667  0.072433427    -3.208351    1.5144843   464108 
 6739000    1.0659375   -3.2086415   -1.6960351  0.072003102   -3.2086415    1.5126064   464110 
 6740000    1.0669573    -3.207786   -1.6938596  0.073725887    -3.207786    1.5139264   464149 
 6741000     1.068115   -3.2104544   -1.6947907  0.068353177   -3.2104544    1.5156638   464120 
 6742000     1.068406    -3.209977   -1.6938807  0.071156948    -3.209977    1.5160963   464114 
 6743000    1.0689148   -3.2114134   -1.6946148   0.07162427   -3.2114134    1.5167986   464120 
 6744000    1.0685995   -3.2101007   -1.6939095  0.071517495   -3.2101007    1.5161912   464169 
 6745000    1.0687602   -3.2106053   -1.6943365  0.077593226   -3.2106053    1.5162689   464215 
 6746000    1.0685759   -3.2098133   -1.6937699  0.066814584   -3.2098133    1.5160434   464204 
 6747000    1.0684849   -3.2081226   -1.6922475  0.068818017   -3.2081226    1.5158751   464216 
 6748000    1.0696585   -3.2098548   -1.6924389  0.071057444   -3.2098548    1.5174159   464254 
 6749000    1.0694378   -3.2101474   -1.6929138  0.068801181   -3.2101474    1.5172336   464214 
 6750000    1.0672409   -3.2072457   -1.6931811  0.074548451   -3.2072457    1.5140646   464230 
 6751000    1.0684092   -3.2088459   -1.6932055   0.07087273   -3.2088459    1.5156404   464255 
 6752000    1.0697451   -3.2107987   -1.6931946  0.074705263   -3.2107987    1.5176041   464234 
 6753000    1.0684631   -3.2089687   -1.6931147  0.071916075   -3.2089687     1.515854   464213 
 6754000    1.0688623   -3.2103135   -1.6938834  0.074452881   -3.2103135    1.5164301   464210 
 6755000    1.0670545   -3.2093281   -1.6955835  0.068596863   -3.2093281    1.5137446   464247 
 6756000    1.0677055   -3.2100233   -1.6953225  0.068146725   -3.2100233    1.5147008   464237 
 6757000     1.067147   -3.2096132   -1.6957015  0.073561261   -3.2096132    1.5139117   464236 
 6758000    1.0665898    -3.208952   -1.6957493  0.071906568    -3.208952    1.5132027   464211 
 6759000     1.065301   -3.2082167    -1.696774  0.069796587   -3.2082167    1.5114427   464190 
 6760000    1.0661144   -3.2092885   -1.6967666   0.06973668   -3.2092885    1.5125219   464213 
 6761000    1.0658311   -3.2089083   -1.6968178  0.073863524   -3.2089083    1.5120905   464222 
 6762000    1.0675815     -3.21022   -1.6956168  0.071865361     -3.21022    1.5146033   464213 
 6763000    1.0672354   -3.2098136    -1.695708   0.07321729   -3.2098136    1.5141056   464215 
 6764000    1.0673414   -3.2099477   -1.6956492  0.071404599   -3.2099477    1.5142985   464202 
 6765000    1.0680933   -3.2101904   -1.6948351  0.069359261   -3.2101904    1.5153554   464205 
 6766000    1.0685692   -3.2096277   -1.6936984  0.073834928   -3.2096277    1.5159294   464236 
 6767000    1.0688906   -3.2092046   -1.6929205  0.072969048   -3.2092046     1.516284   464267 
 6768000    1.0688974   -3.2093889   -1.6931637  0.075736367   -3.2093889    1.5162252   464288 
 6769000     1.069214   -3.2095537   -1.6928892  0.071503278   -3.2095537    1.5166645   464291 
 6770000    1.0685069   -3.2092165   -1.6936464  0.070143099   -3.2092165    1.5155701   464319 
 6771000    1.0687502   -3.2108376   -1.6949747  0.070585739   -3.2108376    1.5158629   464335 
 6772000    1.0692831   -3.2109672   -1.6945248  0.072641277   -3.2109672    1.5164424   464389 
 6773000    1.0688541    -3.209616   -1.6937689  0.074708785    -3.209616    1.5158471   464385 
 6774000     1.068915   -3.2104153   -1.6945179  0.074433778   -3.2104153    1.5158975   464396 
 6775000    1.0686782   -3.2101697   -1.6946081  0.073085701   -3.2101697    1.5155616   464396 
 6776000    1.0677271   -3.2090366   -1.6948041  0.071071631   -3.2090366    1.5142325   464390 
 6777000    1.0680772      -3.2091   -1.6944134  0.071276857      -3.2091    1.5146866   464403 
 6778000    1.0675656    -3.209657   -1.6958263  0.074881891    -3.209657    1.5138307   464443 
 6779000    1.0666873   -3.2083895   -1.6958174  0.068973537   -3.2083895    1.5125721   464447 
 6780000    1.0658182   -3.2087905   -1.6973369  0.071146093   -3.2087905    1.5114536   464412 
 6781000    1.0672924   -3.2111324   -1.6975653  0.070847127   -3.2111324    1.5135671   464405 
 6782000    1.0668099   -3.2103051   -1.6974777  0.070679893   -3.2103051    1.5128274   464422 
 6783000    1.0683546   -3.2117217   -1.6967919  0.073201711   -3.2117217    1.5149298   464449 
 6784000    1.0668323   -3.2106996   -1.6980651  0.071064866   -3.2106996    1.5126345   464491 
 6785000    1.0688895   -3.2125502   -1.6970151  0.067662186   -3.2125502     1.515535   464496 
 6786000     1.068005   -3.2120325   -1.6978266  0.069706487   -3.2120325    1.5142059   464519 
 6787000    1.0679762   -3.2121603    -1.697992  0.074997856   -3.2121603    1.5141683   464518 
 6788000    1.0679633   -3.2125404   -1.6983968  0.075769249   -3.2125404    1.5141436   464520 
 6789000    1.0702666   -3.2145224    -1.697159  0.071003922   -3.2145224    1.5173633   464534 
 6790000      1.06973   -3.2137298   -1.6970618  0.070176805   -3.2137298     1.516668   464514 
 6791000    1.0689061   -3.2131233   -1.6978551  0.074010749   -3.2131233    1.5152682   464585 
 6792000    1.0679685   -3.2116834   -1.6976075  0.072151043   -3.2116834    1.5140759   464543 
 6793000    1.0692895   -3.2122941   -1.6963683  0.070921099   -3.2122941    1.5159258   464550 
 6794000    1.0685574    -3.212212   -1.6973991   0.07180926    -3.212212    1.5148129   464573 
 6795000    1.0685978   -3.2144237   -1.6995632  0.068998848   -3.2144237    1.5148604   464576 
 6796000    1.0689363    -3.213975   -1.6985433  0.074858349    -3.213975    1.5154317   464548 
 6797000    1.0679208   -3.2116863   -1.6978377  0.079120235   -3.2116863    1.5138486   464592 
 6798000    1.0682693    -3.213146   -1.6988131  0.072572144    -3.213146    1.5143329   464595 
 6799000    1.0679695   -3.2122505    -1.698284  0.073504497   -3.2122505    1.5139665   464577 
 6800000    1.0696424    -3.215824   -1.6994436   0.06901264    -3.215824    1.5163805   464564 
 6801000    1.0693789   -3.2149331   -1.6989294  0.071325677   -3.2149331    1.5160036   464565 
 6802000    1.0685341   -3.2130116   -1.6982577  0.067963432   -3.2130116    1.5147539   464581 
 6803000    1.0689152   -3.2141957   -1.6989113  0.074870936   -3.2141957    1.5152844   464584 
 6804000    1.0685239   -3.2139135   -1.6991154  0.072047782   -3.2139135    1.5147981   464563 
 6805000    1.0688062   -3.2144266   -1.6992119  0.071685425   -3.2144266    1.5152147   464558 
 6806000    1.0691174   -3.2141634   -1.6985957   0.07303745   -3.2141634    1.5155677   464585 
 6807000    1.0668237   -3.2108437   -1.6985503  0.080828472   -3.2108437    1.5122934   464592 
 6808000    1.0679374   -3.2119755   -1.6981001  0.077179054   -3.2119755    1.5138754   464591 
 6809000    1.0685414    -3.212037   -1.6973868  0.075929846    -3.212037    1.5146501   464616 
 6810000    1.0695194   -3.2133943   -1.6974428  0.076097713   -3.2133943    1.5159515   464642 
 6811000    1.0683307   -3.2126078    -1.698315  0.071214415   -3.2126078    1.5142928   464634 
 6812000    1.0690619   -3.2136022   -1.6983544  0.076545399   -3.2136022    1.5152477   464659 
 6813000     1.069708    -3.213505   -1.6974851  0.072427622    -3.213505    1.5160199   464703 
 6814000    1.0688029   -3.2118668   -1.6971167  0.068937262   -3.2118668    1.5147502   464699 
 6815000    1.0684145   -3.2111119   -1.6969773  0.072849547   -3.2111119    1.5141346   464719 
 6816000    1.0694166   -3.2116569   -1.6961707  0.073112061   -3.2116569    1.5154862   464740 
 6817000    1.0686154   -3.2119335   -1.6975761  0.072790218   -3.2119335    1.5143573   464738 
 6818000    1.0685048   -3.2120254   -1.6978085  0.075961409   -3.2120254     1.514217   464733 
 6819000    1.0694552   -3.2124683   -1.6968915  0.073048876   -3.2124683    1.5155768   464729 
 6820000    1.0706331   -3.2141358   -1.6968995  0.069168093   -3.2141358    1.5172363   464732 
 6821000    1.0691667   -3.2129812   -1.6977252  0.076404191   -3.2129812     1.515256   464702 
 6822000     1.069282   -3.2122909   -1.6969433  0.071235817   -3.2122909    1.5153476   464724 
 6823000    1.0684594   -3.2107352    -1.696752  0.076468338   -3.2107352    1.5139832   464785 
 6824000    1.0683458   -3.2109571   -1.6971446   0.07519528   -3.2109571    1.5138125   464788 
 6825000    1.0704509   -3.2127418   -1.6959889  0.071640104   -3.2127418    1.5167528   464801 
 6826000    1.0687171   -3.2110656   -1.6966488  0.072684127   -3.2110656    1.5144168   464764 
 6827000    1.0691399   -3.2120332   -1.6970858  0.070091498   -3.2120332    1.5149474   464785 
 6828000    1.0690317   -3.2113011   -1.6965167  0.072284202   -3.2113011    1.5147844   464788 
 6829000    1.0689362   -3.2108405   -1.6962534  0.069354918   -3.2108405    1.5145871   464807 
 6830000    1.0678883   -3.2095698   -1.6964805   0.07032983   -3.2095698    1.5130893   464811 
 6831000    1.0689458   -3.2110827   -1.6965602  0.068426244   -3.2110827    1.5145225   464831 
 6832000    1.0696351    -3.212283   -1.6968426  0.072910139    -3.212283    1.5154404   464849 
 6833000    1.0676563   -3.2108645   -1.6982146  0.067768947   -3.2108645      1.51265   464845 
 6834000    1.0690898   -3.2115438   -1.6969216  0.069885355   -3.2115438    1.5146223   464863 
 6835000    1.0704218   -3.2130787   -1.6966346  0.070377542   -3.2130787    1.5164441   464883 
 6836000    1.0695465   -3.2115782   -1.6963025  0.073177557   -3.2115782    1.5152758   464861 
 6837000    1.0694591   -3.2114107   -1.6963141  0.069715705   -3.2114107    1.5150966   464878 
 6838000    1.0687492   -3.2087067   -1.6946223  0.075189954   -3.2087067    1.5140844   464880 
 6839000    1.0690663   -3.2094734   -1.6949528  0.069072875   -3.2094734    1.5145206   464884 
 6840000    1.0712869   -3.2114907   -1.6939189  0.072689544   -3.2114907    1.5175718   464913 
 6841000    1.0696264   -3.2094399   -1.6942562  0.066701388   -3.2094399    1.5151837   464924 
 6842000    1.0692201   -3.2092221   -1.6946433   0.07177526   -3.2092221    1.5145788   464933 
 6843000    1.0708417   -3.2102088   -1.6933329  0.070083506   -3.2102088    1.5168759   464933 
 6844000    1.0709296   -3.2108269   -1.6940125  0.071427998   -3.2108269    1.5168145   464990 
 6845000    1.0694771   -3.2080981   -1.6933214  0.070422749   -3.2080981    1.5147767   464984 
 6846000    1.0687255   -3.2075313   -1.6938518  0.072340249   -3.2075313    1.5136796   464994 
 6847000    1.0695217   -3.2082391   -1.6935133  0.070994732   -3.2082391    1.5147258   465019 
 6848000    1.0709348   -3.2097375    -1.692994  0.069632358   -3.2097375    1.5167435   465014 
 6849000     1.068634   -3.2070364   -1.6935256  0.071472065   -3.2070364    1.5135109   465006 
 6850000    1.0705955   -3.2103492   -1.6940373  0.070731097   -3.2103492    1.5163119   464999 
 6851000    1.0698652   -3.2084322   -1.6930732  0.073078887   -3.2084322     1.515359   464974 
 6852000     1.069712   -3.2080857   -1.6929308  0.069746075   -3.2080857     1.515155   464970 
 6853000     1.069693   -3.2086004   -1.6935897  0.069716311   -3.2086004    1.5150107   465006 
 6854000    1.0704039   -3.2096373   -1.6935773  0.071068796   -3.2096373    1.5160601   464993 
 6855000    1.0703445   -3.2095645   -1.6936212  0.068469299   -3.2095645    1.5159433   465003 
 6856000    1.0693281    -3.207161   -1.6926735  0.069760867    -3.207161    1.5144875   465008 
 6857000    1.0696297    -3.207791   -1.6928894   0.06969382    -3.207791    1.5149016   465012 
 6858000    1.0714498   -3.2094422   -1.6919629  0.068131403   -3.2094422    1.5174794   465012 
 6859000    1.0705628    -3.208364    -1.692281  0.075447915    -3.208364     1.516083   465055 
 6860000     1.069975   -3.2075571   -1.6924499  0.074810369   -3.2075571    1.5151071   465099 
 6861000    1.0715426   -3.2101842   -1.6929454  0.073786418   -3.2101842    1.5172388   465126 
 6862000    1.0703477   -3.2080985   -1.6926233  0.071013413   -3.2080985    1.5154752   465148 
 6863000    1.0721366   -3.2097695   -1.6918592  0.074628006   -3.2097695    1.5179103   465178 
 6864000    1.0719267   -3.2103776   -1.6927319  0.074592108   -3.2103776    1.5176457   465168 
 6865000    1.0727206   -3.2116459   -1.6928892  0.073770129   -3.2116459    1.5187567   465172 
 6866000    1.0725704   -3.2109478   -1.6923907  0.074278838   -3.2109478    1.5185571   465168 
 6867000    1.0705917   -3.2096358   -1.6939062  0.072229614   -3.2096358    1.5157296   465176 
 6868000    1.0705296   -3.2104279   -1.6947766  0.069278063   -3.2104279    1.5156513   465173 
 6869000    1.0702538   -3.2115244   -1.6962733  0.074059733   -3.2115244    1.5152511   465176 
 6870000    1.0689069   -3.2083444   -1.6950978   0.07415719   -3.2083444    1.5132466   465206 
 6871000    1.0686693   -3.2075288   -1.6945437  0.071294549   -3.2075288    1.5129851   465183 
 6872000    1.0691586   -3.2098924   -1.6962374  0.068371746   -3.2098924    1.5136549   465190 
 6873000    1.0686592    -3.208594   -1.6956135  0.067967707    -3.208594    1.5129805   465180 
 6874000    1.0704638   -3.2105704   -1.6950317  0.068308857   -3.2105704    1.5155387   465179 
 6875000    1.0709749   -3.2107707   -1.6945802  0.071483985   -3.2107707    1.5161905   465201 
 6876000    1.0715792   -3.2109032   -1.6938637  0.076280359   -3.2109032    1.5170395   465203 
 6877000    1.0713181   -3.2108698   -1.6943498  0.072767383   -3.2108698      1.51652   465249 
 6878000     1.071725   -3.2124876   -1.6953592  0.070456481   -3.2124876    1.5171285   465239 
 6879000     1.068631    -3.207997   -1.6954076  0.070924535    -3.207997    1.5125894   465288 
 6880000    1.0698698   -3.2097944   -1.6954744  0.073436187   -3.2097944      1.51432   465295 
 6881000    1.0711538   -3.2111326    -1.695057  0.073612299   -3.2111326    1.5160756   465314 
 6882000    1.0713213   -3.2117662   -1.6955709  0.066331792   -3.2117662    1.5161953   465350 
 6883000    1.0719364   -3.2118772   -1.6947723  0.077018311   -3.2118772    1.5171049   465338 
 6884000    1.0704801   -3.2102026   -1.6951848  0.069258355   -3.2102026    1.5150178   465346 
 6885000    1.0705295    -3.211825   -1.6966396  0.063848913    -3.211825    1.5151854   465316 
 6886000     1.069524   -3.2108583   -1.6971415  0.073361677   -3.2108583    1.5137167   465330 
 6887000    1.0697449   -3.2092469   -1.6953086  0.069230397   -3.2092469    1.5139383   465358 
 6888000    1.0701027   -3.2080327   -1.6937214  0.074676422   -3.2080327    1.5143113   465399 
 6889000    1.0706859   -3.2083289   -1.6933063   0.07052428   -3.2083289    1.5150226   465434 
 6890000    1.0702669    -3.207593   -1.6932316  0.075005812    -3.207593    1.5143614   465455 
 6891000    1.0704319   -3.2083505   -1.6937654  0.073842829   -3.2083505    1.5145851   465458 
 6892000    1.0697183    -3.208245   -1.6945883  0.075319981    -3.208245    1.5136567   465433 
 6893000    1.0697966   -3.2082437   -1.6945088  0.072966032   -3.2082437    1.5137349   465443 
 6894000    1.0696847   -3.2076264   -1.6940952  0.076350808   -3.2076264    1.5135312   465457 
 6895000    1.0719591   -3.2113386   -1.6946187  0.073059016   -3.2113386    1.5167199   465466 
 6896000    1.0700359   -3.2067669   -1.6927031  0.075104663   -3.2067669    1.5140638   465446 
 6897000    1.0699588    -3.207015   -1.6931351  0.068647688    -3.207015    1.5138799   465469 
 6898000    1.0714857   -3.2086542   -1.6925455  0.074430668   -3.2086542    1.5161087   465448 
 6899000    1.0713677   -3.2084878   -1.6925982  0.073191706   -3.2084878    1.5158897   465464 
 6900000     1.069933   -3.2063824   -1.6924968  0.072090255   -3.2063824    1.5138856   465456 
 6901000    1.0702167   -3.2069959   -1.6927316  0.070208187   -3.2069959    1.5142643   465463 
 6902000    1.0707191   -3.2072562   -1.6922321  0.076603701   -3.2072562    1.5150241   465448 
 6903000    1.0699556   -3.2079034   -1.6941159  0.072315267   -3.2079034    1.5137875   465496 
 6904000    1.0693416   -3.2072725   -1.6943309  0.071037067   -3.2072725    1.5129417   465489 
 6905000    1.0706393   -3.2083919   -1.6936956  0.072902262   -3.2083919    1.5146962   465514 
 6906000    1.0696931   -3.2073866   -1.6939705   0.07175731   -3.2073866    1.5134162   465496 
 6907000    1.0699191   -3.2081093   -1.6944156  0.070451905   -3.2081093    1.5136937   465509 
 6908000    1.0693531   -3.2067397   -1.6938012  0.071140758   -3.2067397    1.5129384   465495 
 6909000    1.0678831   -3.2054144   -1.6944942  0.076188438   -3.2054144    1.5109203   465476 
 6910000    1.0701775   -3.2099261   -1.6955871  0.066328206   -3.2099261     1.514339   465423 
 6911000    1.0685577   -3.2075044   -1.6954575  0.072432256   -3.2075044    1.5120469   465423 
 6912000    1.0686235   -3.2070642   -1.6950281  0.074224432   -3.2070642    1.5120361   465455 
 6913000    1.0706715   -3.2100871   -1.6951174  0.066673911   -3.2100871    1.5149697   465444 
 6914000    1.0713498   -3.2099606   -1.6940898  0.069716694   -3.2099606    1.5158708   465462 
 6915000    1.0721611   -3.2103467   -1.6934323  0.067004472   -3.2103467    1.5169144   465494 
 6916000    1.0728812   -3.2111288   -1.6932705  0.075277754   -3.2111288    1.5178583   465517 
 6917000    1.0714097    -3.210194   -1.6944175  0.072196192    -3.210194    1.5157765   465517 
 6918000    1.0706391   -3.2093476   -1.6947817  0.074730451   -3.2093476    1.5145658   465554 
 6919000    1.0723164   -3.2111957   -1.6942603  0.071131884   -3.2111957    1.5169354   465555 
 6920000    1.0715106   -3.2097236   -1.6939998  0.074372929   -3.2097236    1.5157238   465577 
 6921000    1.0725349   -3.2107153   -1.6935784  0.075031994   -3.2107153    1.5171369   465588 
 6922000    1.0718384   -3.2099601   -1.6939191  0.071410826   -3.2099601     1.516041   465622 
 6923000     1.072663   -3.2101419   -1.6929541  0.078414964   -3.2101419    1.5171878   465628 
 6924000    1.0715824   -3.2100863    -1.694352  0.069976426   -3.2100863    1.5157343   465605 
 6925000    1.0718269   -3.2098945   -1.6938925  0.074008559   -3.2098945     1.516002   465629 
 6926000    1.0701279    -3.208825   -1.6951773  0.078829088    -3.208825    1.5136477   465614 
 6927000    1.0731367   -3.2118596   -1.6939398  0.070672832   -3.2118596    1.5179198   465609 
 6928000    1.0708289   -3.2096601   -1.6949852  0.073156004   -3.2096601    1.5146749   465603 
 6929000    1.0726497    -3.213195   -1.6959837  0.072570602    -3.213195    1.5172113   465615 
 6930000    1.0729252   -3.2118111   -1.6942981  0.074070207   -3.2118111     1.517513   465642 
 6931000    1.0714084    -3.210081   -1.6947524  0.073170727    -3.210081    1.5153286   465654 
 6932000    1.0725721   -3.2108977   -1.6938874  0.073866663   -3.2108977    1.5170103   465643 
 6933000    1.0718178   -3.2101327   -1.6941924  0.077357708   -3.2101327    1.5159403   465644 
 6934000    1.0718038   -3.2106049   -1.6947431  0.071758536   -3.2106049    1.5158618   465662 
 6935000    1.0722182   -3.2104739   -1.6939934  0.074006585   -3.2104739    1.5164806   465652 
 6936000    1.0698643   -3.2089378    -1.695741  0.071726271   -3.2089378    1.5131968   465638 
 6937000    1.0711985   -3.2104778   -1.6953223  0.067789331   -3.2104778    1.5151555   465616 
 6938000    1.0725628   -3.2113669   -1.6942427  0.072853039   -3.2113669    1.5171242   465604 
 6939000    1.0709099   -3.2086616   -1.6939598  0.074750449   -3.2086616    1.5147017   465630 
 6940000    1.0710585   -3.2102692   -1.6953443  0.072607639   -3.2102692    1.5149248   465626 
 6941000    1.0709329   -3.2113919   -1.6966415  0.076686697   -3.2113919    1.5147505   465625 
 6942000    1.0709676   -3.2105727    -1.695809  0.072095391   -3.2105727    1.5147637   465636 
 6943000     1.071778   -3.2104661   -1.6946342   0.07400865   -3.2104661    1.5158319   465660 
 6944000    1.0720499   -3.2101662    -1.693966  0.074720892   -3.2101662    1.5162002   465665 
 6945000    1.0718306   -3.2107222   -1.6947116  0.071000594   -3.2107222    1.5160105   465628 
 6946000     1.070959   -3.2098112   -1.6950272  0.072655541   -3.2098112    1.5147841   465626 
 6947000    1.0710896   -3.2107221   -1.6956915   0.07487966   -3.2107221    1.5150307   465607 
 6948000    1.0715602   -3.2127344   -1.6970869  0.071496964   -3.2127344    1.5156475   465622 
 6949000    1.0706466   -3.2117545   -1.6974707  0.067376526   -3.2117545    1.5142837   465644 
 6950000    1.0741127   -3.2150365   -1.6958928   0.07009822   -3.2150365    1.5191437   465657 
 6951000    1.0724149   -3.2121742   -1.6955621  0.073101527   -3.2121742    1.5166121   465697 
 6952000    1.0722728   -3.2126657   -1.6961861  0.076663673   -3.2126657    1.5164796   465676 
 6953000    1.0716415   -3.2122317   -1.6967654  0.069862934   -3.2122317    1.5154663   465713 
 6954000    1.0715686   -3.2126212   -1.6972287  0.075726046   -3.2126212    1.5153925   465704 
 6955000    1.0706794   -3.2121022   -1.6978794  0.071907407   -3.2121022    1.5142228   465677 
 6956000     1.070927   -3.2139992   -1.6993645  0.070865859   -3.2139992    1.5146348   465658 
 6957000    1.0698118   -3.2117734   -1.6987158  0.077131288   -3.2117734    1.5130576   465658 
 6958000    1.0708528   -3.2140186    -1.699518   0.07324087   -3.2140186    1.5145006   465667 
 6959000    1.0725532   -3.2154549   -1.6985234  0.076469441   -3.2154549    1.5169315   465659 
 6960000    1.0714586   -3.2148141   -1.6994404  0.072021063   -3.2148141    1.5153737   465662 
 6961000    1.0708208   -3.2150037   -1.7004963  0.072355287   -3.2150037    1.5145074   465651 
 6962000    1.0705223   -3.2156882   -1.7016062  0.072241687   -3.2156882     1.514082   465652 
 6963000    1.0726521    -3.218102   -1.7009003  0.074026743    -3.218102    1.5172018   465619 
 6964000    1.0720643   -3.2172494   -1.7008856  0.065820557   -3.2172494    1.5163638   465621 
 6965000     1.072431   -3.2166288   -1.6996975  0.071746365   -3.2166288    1.5169313   465606 
 6966000    1.0724198   -3.2182659     -1.70137   0.07477791   -3.2182659    1.5168959   465612 
 6967000    1.0719894   -3.2159459   -1.6996294  0.081073513   -3.2159459    1.5163165   465603 
 6968000    1.0735512   -3.2178578   -1.6993583  0.074504352   -3.2178578    1.5184995   465611 
 6969000    1.0728679   -3.2171458   -1.6997366  0.075570058   -3.2171458    1.5174092   465649 
 6970000     1.072502   -3.2169277   -1.7000197   0.07355429   -3.2169277     1.516908   465644 
 6971000     1.073184   -3.2187336    -1.700998  0.074414519   -3.2187336    1.5177357   465686 
 6972000    1.0734187   -3.2194492   -1.7014501  0.076736497   -3.2194492    1.5179991   465707 
 6973000    1.0724027   -3.2179709   -1.7015095  0.074881129   -3.2179709    1.5164614   465738 
 6974000    1.0727013   -3.2194159   -1.7024802  0.071333537   -3.2194159    1.5169357   465722 
 6975000    1.0709666   -3.2165203   -1.7019206   0.06723278   -3.2165203    1.5145997   465686 
 6976000    1.0720222   -3.2159983   -1.6998926  0.074131603   -3.2159983    1.5161057   465682 
 6977000    1.0712657   -3.2155966   -1.7006357  0.075997798   -3.2155966    1.5149609   465705 
 6978000    1.0710729   -3.2153843   -1.7007742  0.072559044   -3.2153843    1.5146102   465729 
 6979000    1.0683417   -3.2130248   -1.7022248  0.070838537   -3.2130248       1.5108   465713 
 6980000    1.0712748   -3.2161593   -1.7013937  0.072048111   -3.2161593    1.5147656   465769 
 6981000    1.0717712   -3.2172776    -1.701732  0.070657216   -3.2172776    1.5155456   465745 
 6982000    1.0708744   -3.2160381   -1.7016858  0.068703412   -3.2160381    1.5143523   465722 
 6983000    1.0704782   -3.2149572   -1.7010806  0.069023598   -3.2149572    1.5138766   465696 
 6984000      1.07085   -3.2136402   -1.6993192  0.074316682   -3.2136402     1.514321   465721 
 6985000    1.0703421   -3.2132781   -1.6994609  0.069852367   -3.2132781    1.5138173   465655 
 6986000    1.0718242   -3.2137283   -1.6977725  0.068661548   -3.2137283    1.5159558   465642 
 6987000     1.072782   -3.2145549   -1.6972216  0.076550249   -3.2145549    1.5173333   465635 
 6988000    1.0714105   -3.2135186      -1.6982  0.074956776   -3.2135186    1.5153186   465658 
 6989000    1.0712449   -3.2140422    -1.698987  0.071270921   -3.2140422    1.5150552   465667 
 6990000    1.0710759   -3.2150463   -1.7002725  0.071903275   -3.2150463    1.5147738   465680 
 6991000    1.0718759   -3.2148001   -1.6989828  0.070866105   -3.2148001    1.5158173   465707 
 6992000    1.0717794   -3.2144335   -1.6988046  0.072984257   -3.2144335    1.5156288   465723 
 6993000    1.0719973   -3.2148497   -1.6989127  0.072979888   -3.2148497     1.515937   465723 
 6994000    1.0717817   -3.2152884   -1.6996303  0.071953505   -3.2152884    1.5156581   465715 
 6995000    1.0715472   -3.2141016   -1.6988434  0.071069671   -3.2141016    1.5152581   465736 
 6996000    1.0704627   -3.2122367   -1.6986063  0.072541468   -3.2122367    1.5136303   465765 
 6997000    1.0711199    -3.212065   -1.6976776  0.076274331    -3.212065    1.5143873   465818 
 6998000    1.0720079   -3.2140342   -1.6985216   0.06949323   -3.2140342    1.5155126   465858 
 6999000    1.0717802   -3.2125677   -1.6975298  0.077567671   -3.2125677    1.5150379   465905 
 7000000    1.0720256   -3.2118059   -1.6964471  0.076326652   -3.2118059    1.5153587   465913 
 7001000    1.0725508   -3.2126375   -1.6966242  0.068079054   -3.2126375    1.5160133   465940 
 7002000    1.0716311   -3.2104687   -1.6959244   0.07365885   -3.2104687    1.5145443   465992 
 7003000    1.0726621   -3.2132911   -1.6972929  0.067400638   -3.2132911    1.5159982   465993 
 7004000    1.0722745   -3.2130654   -1.6976476  0.071856495   -3.2130654    1.5154178   466003 
 7005000    1.0724361   -3.2137656   -1.6982266  0.072888168   -3.2137656    1.5155389   466036 
 7006000    1.0721716   -3.2133906   -1.6981702  0.075223213   -3.2133906    1.5152204   466019 
 7007000    1.0719728    -3.213394   -1.6985781  0.067114267    -3.213394     1.514816   466057 
 7008000    1.0707801   -3.2115028   -1.6983008  0.072656307   -3.2115028    1.5132019   466035 
 7009000    1.0710517   -3.2117022   -1.6981489  0.071105818   -3.2117022    1.5135532   466045 
 7010000      1.07162   -3.2136877   -1.6992728  0.074084795   -3.2136877    1.5144149   466027 
 7011000    1.0702874   -3.2121224   -1.6995973  0.078324955   -3.2121224    1.5125251   466029 
 7012000    1.0707021   -3.2106432   -1.6975936   0.07446901   -3.2106432    1.5130495   466048 
 7013000    1.0723477   -3.2142273   -1.6988361  0.075057319   -3.2142273    1.5153912   466043 
 7014000    1.0722264   -3.2140567   -1.6990059  0.066217052   -3.2140567    1.5150508   466095 
 7015000    1.0718494   -3.2130645   -1.6985822  0.070493773   -3.2130645    1.5144823   466106 
 7016000    1.0727547   -3.2128197   -1.6972599  0.070889742   -3.2128197    1.5155598   466168 
 7017000    1.0730481   -3.2118653   -1.6959592  0.069746709   -3.2118653    1.5159061   466189 
 7018000    1.0729719   -3.2135743   -1.6977174  0.071884805   -3.2135743     1.515857   466171 
 7019000    1.0722641   -3.2127338   -1.6979776  0.072873918   -3.2127338    1.5147563   466202 
 7020000    1.0725451   -3.2141827   -1.6989904  0.069989215   -3.2141827    1.5151923   466190 
 7021000    1.0730146   -3.2158378    -1.699888   0.07115223   -3.2158378    1.5159498   466161 
 7022000    1.0717142   -3.2142654   -1.6999936  0.073419774   -3.2142654    1.5142718   466112 
 7023000    1.0730131   -3.2164956   -1.7003756   0.07097244   -3.2164956      1.51612   466108 
 7024000     1.073362   -3.2159177   -1.6992297  0.074191645   -3.2159177    1.5166879   466085 
 7025000    1.0723506   -3.2152807   -1.7001291  0.079149186   -3.2152807    1.5151516   466118 
 7026000    1.0718037   -3.2139491   -1.6996125  0.072182848   -3.2139491    1.5143366   466131 
 7027000    1.0722826   -3.2142198   -1.6992131  0.080478957   -3.2142198    1.5150067   466133 
 7028000    1.0728445     -3.21557   -1.6996687  0.069949724     -3.21557    1.5159013   466102 
 7029000    1.0727219   -3.2154542   -1.6996935  0.077777414   -3.2154542    1.5157607   466092 
 7030000    1.0726087   -3.2158009   -1.7001872   0.07295381   -3.2158009    1.5156138   466088 
 7031000    1.0728219   -3.2146798    -1.698664  0.070614199   -3.2146798    1.5160158   466057 
 7032000    1.0720793   -3.2128958   -1.6979912  0.074951711   -3.2128958    1.5149046   466076 
 7033000    1.0713694   -3.2136201   -1.6997737  0.070979259   -3.2136201    1.5138464   466093 
 7034000    1.0717489   -3.2148179    -1.700393   0.07340218   -3.2148179    1.5144248   466080 
 7035000    1.0726286   -3.2157052   -1.7000211  0.075252132   -3.2157052    1.5156841   466075 
 7036000    1.0735429   -3.2160187   -1.6990914  0.075645626   -3.2160187    1.5169273   466090 
 7037000    1.0727161   -3.2154233   -1.6995635  0.069856797   -3.2154233    1.5158598   466059 
 7038000    1.0738181   -3.2158197   -1.6984287  0.069291436   -3.2158197     1.517391   466067 
 7039000    1.0728255    -3.215234   -1.6992685  0.072447343    -3.215234    1.5159656   466074 
 7040000    1.0709549   -3.2117696     -1.69847  0.072944927   -3.2117696    1.5132996   466081 
 7041000    1.0718226   -3.2136141   -1.6991209  0.072050571   -3.2136141    1.5144932   466091 
 7042000    1.0703887   -3.2109856   -1.6984537  0.069021296   -3.2109856    1.5125319   466071 
 7043000    1.0701769   -3.2116578   -1.6994187  0.068314161   -3.2116578    1.5122391   466069 
 7044000    1.0709835   -3.2120741   -1.6987763  0.068720894   -3.2120741    1.5132978   466094 
 7045000     1.072338    -3.213646   -1.6983498   0.07383744    -3.213646    1.5152962   466068 
 7046000    1.0705499   -3.2120256   -1.6993307  0.068883692   -3.2120256    1.5126948   466091 
 7047000    1.0697788   -3.2115613   -1.6999852  0.069602581   -3.2115613    1.5115761   466100 
 7048000     1.070787   -3.2133235    -1.700339  0.066015338   -3.2133235    1.5129845   466105 
 7049000    1.0696972   -3.2113676   -1.6999684  0.068909167   -3.2113676    1.5113992   466119 
 7050000    1.0696455   -3.2115505   -1.7002438  0.073421755   -3.2115505    1.5113067   466125 
 7051000    1.0720362   -3.2135459   -1.6987151  0.069556629   -3.2135459    1.5148308   466080 
 7052000     1.071467   -3.2126323   -1.6986805  0.067687402   -3.2126323    1.5139518   466103 
 7053000    1.0720594   -3.2129294   -1.6980595  0.068078904   -3.2129294      1.51487   466078 
 7054000    1.0701552   -3.2111219   -1.6989523  0.077376946   -3.2111219    1.5121696   466081 
 7055000    1.0714452   -3.2124557   -1.6985088  0.071850447   -3.2124557     1.513947   466095 
 7056000    1.0719527   -3.2142458    -1.699624  0.071983587   -3.2142458    1.5146218   466108 
 7057000    1.0718134   -3.2144245   -1.7000223   0.07355641   -3.2144245    1.5144022   466115 
 7058000    1.0717556   -3.2139136   -1.6996191  0.074286049   -3.2139136    1.5142945   466123 
 7059000    1.0717329   -3.2147139   -1.7004708  0.073537324   -3.2147139     1.514243   466129 
 7060000    1.0716383   -3.2153964   -1.7012579    0.0699522   -3.2153964    1.5141385   466120 
 7061000    1.0712219   -3.2147828    -1.701304  0.071659928   -3.2147828    1.5134788   466142 
 7062000    1.0708158   -3.2144719   -1.7015538  0.073741553   -3.2144719     1.512918   466138 
 7063000    1.0706902   -3.2130204   -1.7002442  0.071659687   -3.2130204    1.5127762   466127 
 7064000    1.0726213   -3.2153954   -1.6999622   0.07602661   -3.2153954    1.5154332   466149 
 7065000    1.0713443   -3.2149157   -1.7012054  0.070887382   -3.2149157    1.5137102   466124 
 7066000    1.0709783    -3.214474   -1.7013135  0.068249006    -3.214474    1.5131606   466134 
 7067000    1.0724358   -3.2163375   -1.7011566  0.073700347   -3.2163375    1.5151809   466146 
 7068000    1.0723282   -3.2161988   -1.7012544  0.070164508   -3.2161988    1.5149444   466172 
 7069000    1.0723078   -3.2173052   -1.7024384  0.069922457   -3.2173052    1.5148667   466187 
 7070000    1.0717828    -3.216164   -1.7020877  0.068423345    -3.216164    1.5140764   466202 
 7071000    1.0721367    -3.215922   -1.7013944  0.069412449    -3.215922    1.5145276   466217 
 7072000    1.0721852   -3.2163712   -1.7018271  0.073538895   -3.2163712    1.5145441   466233 
 7073000    1.0724701    -3.216239   -1.7012567  0.076391631    -3.216239    1.5149823   466222 
 7074000    1.0740903   -3.2177778   -1.7005166  0.066736612   -3.2177778    1.5172612   466225 
 7075000    1.0737196   -3.2176714   -1.7009013  0.069723588   -3.2176714    1.5167701   466215 
 7076000    1.0707605    -3.215477   -1.7029031   0.06874097    -3.215477    1.5125739   466220 
 7077000    1.0728488   -3.2157339   -1.7003435  0.070999954   -3.2157339    1.5153905   466261 
 7078000    1.0726284   -3.2151691   -1.7000769  0.078884051   -3.2151691    1.5150923   466257 
 7079000    1.0736662    -3.217064   -1.7005254  0.070339981    -3.217064    1.5165385   466263 
 7080000    1.0716127   -3.2143831   -1.7006606  0.073694176   -3.2143831    1.5137224   466237 
 7081000    1.0725054   -3.2161268   -1.7011791   0.07289193   -3.2161268    1.5149476   466248 
 7082000    1.0730639   -3.2179651   -1.7021764  0.069734885   -3.2179651    1.5157887   466232 
 7083000     1.072447   -3.2186221   -1.7037569  0.070284612   -3.2186221    1.5148652   466248 
 7084000    1.0719994   -3.2177471   -1.7034881  0.073496626   -3.2177471     1.514259   466240 
 7085000    1.0723354   -3.2188558   -1.7040865  0.065563023   -3.2188558    1.5147693   466229 
 7086000    1.0712215   -3.2163146   -1.7031902  0.070429724   -3.2163146    1.5131244   466251 
 7087000    1.0720196   -3.2171239    -1.702908  0.072474925   -3.2171239     1.514216   466262 
 7088000    1.0728141   -3.2179986   -1.7026766  0.070809065   -3.2179986    1.5153221   466267 
 7089000     1.071756    -3.216737    -1.702916  0.074652549    -3.216737     1.513821   466269 
 7090000    1.0710045   -3.2158647   -1.7031247  0.075304406   -3.2158647      1.51274   466275 
 7091000    1.0706572   -3.2156431   -1.7034909  0.068828563   -3.2156431    1.5121522   466305 
 7092000    1.0712166    -3.214262   -1.7014366  0.066256235    -3.214262    1.5128254   466341 
 7093000    1.0728563   -3.2175838   -1.7025109  0.071262547   -3.2175838    1.5150729   466362 
 7094000    1.0733425   -3.2168375   -1.7010812  0.075012701   -3.2168375    1.5157563   466363 
 7095000    1.0737846   -3.2168387   -1.7003832  0.076270828   -3.2168387    1.5164554   466340 
 7096000    1.0745636   -3.2184635   -1.7010609  0.073951448   -3.2184635    1.5174026   466387 
 7097000    1.0732747   -3.2164296   -1.7008439  0.075101539   -3.2164296    1.5155857   466386 
 7098000    1.0729006   -3.2156046   -1.7005699  0.079761961   -3.2156046    1.5150347   466393 
 7099000    1.0730064   -3.2149948   -1.6998853   0.07384638   -3.2149948    1.5151095   466416 
 7100000    1.0726719   -3.2147709    -1.700176  0.071930764   -3.2147709    1.5145949   466429 
 7101000    1.0718583   -3.2138963   -1.7004761  0.073054993   -3.2138963    1.5134202   466437 
 7102000    1.0739477   -3.2176157   -1.7010958  0.068921539   -3.2176157    1.5165199   466391 
 7103000    1.0728466   -3.2149729    -1.700141   0.07058665   -3.2149729    1.5148319   466432 
 7104000    1.0706965    -3.213527   -1.7017181  0.068225046    -3.213527    1.5118089   466428 
 7105000    1.0693384   -3.2122998   -1.7024117  0.067796175   -3.2122998    1.5098881   466429 
 7106000    1.0707133   -3.2143261   -1.7024968   0.06953673   -3.2143261    1.5118294   466429 
 7107000    1.0706896   -3.2138158   -1.7020134  0.066351674   -3.2138158    1.5118024   466427 
 7108000    1.0705864    -3.213993   -1.7024725  0.070782862    -3.213993    1.5115206   466469 
 7109000    1.0693077   -3.2141136   -1.7042981  0.067465247   -3.2141136    1.5098155   466438 
 7110000    1.0695621   -3.2140069   -1.7039034  0.063755474   -3.2140069    1.5101035   466460 
 7111000    1.0724352   -3.2171271   -1.7030416  0.065394646   -3.2171271    1.5140854   466483 
 7112000    1.0721144   -3.2174209    -1.703704  0.071627033   -3.2174209    1.5137169   466457 
 7113000    1.0719068   -3.2159191   -1.7025829  0.069864696   -3.2159191    1.5133362   466484 
 7114000    1.0715944    -3.214631   -1.7018721   0.06802492    -3.214631    1.5127589   466526 
 7115000     1.073248   -3.2157927   -1.7007709  0.072574148   -3.2157927    1.5150218   466548 
 7116000    1.0730489   -3.2146779   -1.6999663  0.075777629   -3.2146779    1.5147116   466557 
 7117000    1.0732361   -3.2155616   -1.7007384  0.073761067   -3.2155616    1.5148233   466604 
 7118000    1.0730933   -3.2151945   -1.7006476   0.07282308   -3.2151945    1.5145469   466627 
 7119000    1.0739291   -3.2161123     -1.70048  0.077151163   -3.2161123    1.5156324   466656 
 7120000     1.073322   -3.2164927   -1.7017983  0.076022871   -3.2164927    1.5146945   466681 
 7121000    1.0730261   -3.2161283    -1.701965  0.076085177   -3.2161283    1.5141633   466716 
 7122000    1.0739922   -3.2176144   -1.7020261  0.071004891   -3.2176144    1.5155883   466697 
 7123000    1.0740823   -3.2167642   -1.7010845  0.069362549   -3.2167642    1.5156797   466708 
 7124000    1.0726821   -3.2160592   -1.7024332  0.072275015   -3.2160592     1.513626   466732 
 7125000    1.0725803   -3.2164236   -1.7029542  0.072411725   -3.2164236    1.5134694   466736 
 7126000    1.0734257   -3.2177578   -1.7031766  0.076846672   -3.2177578    1.5145812   466761 
 7127000    1.0737257   -3.2183458   -1.7033867  0.068146352   -3.2183458    1.5149591   466775 
 7128000    1.0751931   -3.2194402   -1.7025147  0.074916738   -3.2194402    1.5169254   466807 
 7129000    1.0764688   -3.2208154   -1.7021812  0.071550994   -3.2208154    1.5186342   466835 
 7130000    1.0743658   -3.2173819   -1.7017471  0.068852908   -3.2173819    1.5156349   466845 
 7131000     1.073904   -3.2172487    -1.702262  0.075014694   -3.2172487    1.5149867   466844 
 7132000    1.0737418   -3.2163078    -1.701485  0.076014621   -3.2163078    1.5148228   466824 
 7133000    1.0744035   -3.2173556   -1.7015832  0.072135982   -3.2173556    1.5157725   466819 
 7134000    1.0748265   -3.2178615   -1.7014922  0.074162181   -3.2178615    1.5163693   466819 
 7135000    1.0745168   -3.2158451   -1.6999159  0.071695513   -3.2158451    1.5159291   466820 
 7136000    1.0742197   -3.2171136   -1.7016068  0.075172919   -3.2171136    1.5155068   466821 
 7137000    1.0741491   -3.2166007   -1.7014046  0.075532705   -3.2166007    1.5151961   466886 
 7138000     1.074582   -3.2180658   -1.7022753  0.068851698   -3.2180658    1.5157906   466891 
 7139000    1.0739599   -3.2169468   -1.7019947  0.073643999   -3.2169468     1.514952   466879 
 7140000    1.0748611   -3.2176754   -1.7014976   0.07440559   -3.2176754    1.5161778   466893 
 7141000    1.0744214   -3.2164945   -1.7010247  0.073304642   -3.2164945    1.5154698   466920 
 7142000    1.0755006    -3.217502   -1.7005229  0.069223866    -3.217502    1.5169791   466924 
 7143000    1.0750825   -3.2178966   -1.7016436  0.071299383   -3.2178966    1.5162529   466966 
 7144000    1.0737028   -3.2163268   -1.7019905  0.069004671   -3.2163268    1.5143363   466957 
 7145000    1.0734743   -3.2165364   -1.7024769  0.069760877   -3.2165364    1.5140595   466943 
 7146000    1.0747522   -3.2162454    -1.700481  0.070491315   -3.2162454    1.5157645   466973 
 7147000    1.0722449    -3.213003    -1.700765  0.076885861    -3.213003     1.512238   466970 
 7148000    1.0737523   -3.2152857   -1.7009931  0.066821765   -3.2152857    1.5142926   466992 
 7149000    1.0732275   -3.2142591   -1.7007843  0.073197504   -3.2142591    1.5134748   467016 
 7150000    1.0744681   -3.2153425   -1.7001248   0.07329411   -3.2153425    1.5152177   467018 
 7151000    1.0728544   -3.2121861   -1.6992927  0.074121737   -3.2121861    1.5128935   467033 
 7152000    1.0723012   -3.2101626   -1.6980104   0.07269517   -3.2101626    1.5121522   467021 
 7153000    1.0736113    -3.211952   -1.6979749  0.070569641    -3.211952    1.5139771   467028 
 7154000    1.0742097   -3.2131275   -1.6981963  0.072134364   -3.2131275    1.5149311   466994 
 7155000    1.0727207    -3.212177   -1.6993295   0.07151883    -3.212177    1.5128475   466989 
 7156000    1.0729906   -3.2122446    -1.699091  0.070150285   -3.2122446    1.5131535   467012 
 7157000     1.074183   -3.2142272   -1.6994959  0.072308605   -3.2142272    1.5147313   467044 
 7158000    1.0731543    -3.213003   -1.6997839  0.074078811    -3.213003    1.5132192   467063 
 7159000    1.0719404   -3.2113074   -1.6997966   0.06702382   -3.2113074    1.5115108   467062 
 7160000    1.0727567   -3.2133018   -1.7006854  0.068785989   -3.2133018    1.5126164   467076 
 7161000     1.071855   -3.2119871   -1.7006777  0.070425802   -3.2119871    1.5113094   467087 
 7162000    1.0710897   -3.2120752       -1.702  0.066552871   -3.2120752    1.5100752   467135 
 7163000    1.0727187   -3.2138029    -1.701444  0.069179598   -3.2138029    1.5123589   467139 
 7164000    1.0728011   -3.2135671   -1.7011957   0.06567208   -3.2135671    1.5123714   467171 
 7165000    1.0729802   -3.2132947    -1.700729  0.071153466   -3.2132947    1.5125657   467189 
 7166000    1.0727383   -3.2126833   -1.7005849  0.070044495   -3.2126833    1.5120985   467228 
 7167000    1.0737115   -3.2138722   -1.7004732  0.068582857   -3.2138722     1.513399   467250 
 7168000    1.0756815   -3.2170431   -1.7009258  0.073202403   -3.2170431    1.5161173   467268 
 7169000    1.0757952   -3.2157964   -1.6996455  0.073653698   -3.2157964    1.5161509   467307 
 7170000    1.0737752   -3.2160734   -1.7027886  0.074710881   -3.2160734    1.5132847   467313 
 7171000    1.0726645   -3.2158443   -1.7040408  0.062775552   -3.2158443    1.5118035   467287 
 7172000    1.0743186   -3.2192086   -1.7050641  0.067583076   -3.2192086    1.5141445   467284 
 7173000    1.0747188   -3.2214658   -1.7066957  0.065098308   -3.2214658      1.51477   467265 
 7174000    1.0724528    -3.219476   -1.7078932  0.069732255    -3.219476    1.5115828   467263 
 7175000    1.0724532   -3.2178606    -1.706342  0.072922465   -3.2178606    1.5115186   467283 
 7176000    1.0717677   -3.2162821   -1.7057166  0.076897384   -3.2162821    1.5105654   467279 
 7177000    1.0744917   -3.2180549   -1.7037378  0.074006524   -3.2180549    1.5143172   467306 
 7178000     1.075425   -3.2207702   -1.7050242  0.073406443   -3.2207702     1.515746   467271 
 7179000    1.0774065   -3.2225835   -1.7042754  0.073960903   -3.2225835    1.5183081   467342 
 7180000    1.0782303   -3.2230686   -1.7037458  0.073722161   -3.2230686    1.5193228   467387 
 7181000    1.0769719   -3.2223486   -1.7047601  0.075674175   -3.2223486    1.5175884   467375 
 7182000    1.0782767   -3.2242511   -1.7049053  0.075360356   -3.2242511    1.5193459   467400 
 7183000    1.0780734   -3.2237278   -1.7046944  0.080280407   -3.2237278    1.5190333   467408 
 7184000    1.0781381   -3.2229109   -1.7038254  0.076935685   -3.2229109    1.5190855   467420 
 7185000    1.0780446   -3.2222044   -1.7031629  0.079101483   -3.2222044    1.5190415   467393 
 7186000    1.0761798   -3.2195389   -1.7031316  0.078319009   -3.2195389    1.5164074   467395 
 7187000    1.0771637   -3.2202065   -1.7024484  0.075526416   -3.2202065    1.5177581   467406 
 7188000    1.0755711   -3.2191062    -1.703592  0.072714008   -3.2191062    1.5155141   467406 
 7189000    1.0753355   -3.2190898   -1.7040405  0.066696327   -3.2190898    1.5150493   467447 
 7190000    1.0745352    -3.218978   -1.7050597  0.072315098    -3.218978    1.5139184   467448 
 7191000    1.0744605   -3.2195297   -1.7057943  0.075179542   -3.2195297    1.5137354   467472 
 7192000    1.0753799   -3.2198029    -1.704824  0.071468529   -3.2198029    1.5149789   467488 
 7193000    1.0756909   -3.2199647   -1.7045672  0.074324985   -3.2199647    1.5153975   467494 
 7194000    1.0757193   -3.2199433   -1.7045413  0.073776453   -3.2199433     1.515402   467505 
 7195000    1.0745557   -3.2175687   -1.7038546  0.070557028   -3.2175687    1.5137142   467520 
 7196000    1.0740517   -3.2167672   -1.7039023  0.077669612   -3.2167672     1.512865   467563 
 7197000    1.0731587   -3.2161486   -1.7044897  0.067838535   -3.2161486    1.5116589   467547 
 7198000    1.0743535   -3.2165795    -1.703244  0.071076707   -3.2165795    1.5133355   467549 
 7199000    1.0737306   -3.2135161   -1.7011195  0.072457832   -3.2135161    1.5123966   467568 
 7200000    1.0751676   -3.2155495   -1.7011969  0.072233542   -3.2155495    1.5143526   467589 
 7201000    1.0727612   -3.2127481   -1.7018979   0.07201944   -3.2127481    1.5108502   467624 
 7202000    1.0730614   -3.2138329   -1.7025955  0.074483654   -3.2138329    1.5112374   467635 
 7203000    1.0748083    -3.216625   -1.7029112  0.070769228    -3.216625    1.5137138   467630 
 7204000     1.075415   -3.2153046   -1.7007979  0.071943464   -3.2153046    1.5145067   467649 
 7205000    1.0761177   -3.2148837   -1.6996012  0.072772163   -3.2148837    1.5152824   467715 
 7206000    1.0775238   -3.2160641   -1.6989315  0.074050296   -3.2160641    1.5171327   467755 
 7207000    1.0766028   -3.2152366   -1.6993974  0.073750539   -3.2152366    1.5158392   467754 
 7208000    1.0756274   -3.2127831   -1.6983044  0.071743468   -3.2127831    1.5144788   467750 
 7209000      1.07533   -3.2123184   -1.6982454  0.077840712   -3.2123184     1.514073   467746 
 7210000    1.0788717   -3.2152944   -1.6963061  0.072864316   -3.2152944    1.5189883   467768 
 7211000    1.0773274    -3.214165   -1.6972537  0.074663238    -3.214165    1.5169113   467738 
 7212000    1.0782279   -3.2161912   -1.6980444  0.072843465   -3.2161912    1.5181468   467748 
 7213000    1.0775415   -3.2150178   -1.6979867  0.077451475   -3.2150178    1.5170311   467794 
 7214000    1.0769996    -3.214415   -1.6981209  0.072117005    -3.214415    1.5162941   467786 
 7215000    1.0774898   -3.2159663   -1.6989884   0.07177139   -3.2159663    1.5169779   467788 
 7216000    1.0773533   -3.2142584   -1.6974793   0.07471144   -3.2142584    1.5167792   467790 
 7217000    1.0765917   -3.2138603   -1.6981308    0.0727062   -3.2138603    1.5157295   467783 
 7218000     1.075358   -3.2124233   -1.6984597  0.077005494   -3.2124233    1.5139636   467792 
 7219000    1.0741817   -3.2109788   -1.6987587  0.073761952   -3.2109788    1.5122201   467819 
 7220000     1.075394    -3.212654    -1.698821  0.070690068    -3.212654     1.513833   467848 
 7221000    1.0761523   -3.2147371   -1.6999047  0.072161949   -3.2147371    1.5148325   467869 
 7222000    1.0757023   -3.2130733   -1.6989099  0.071178471   -3.2130733    1.5141634   467880 
 7223000    1.0768286   -3.2144876    -1.698755   0.07176262   -3.2144876    1.5157326   467885 
 7224000    1.0753596   -3.2143761   -1.7006434  0.072648261   -3.2143761    1.5137327   467864 
 7225000    1.0768675   -3.2161682   -1.7004133  0.073614225   -3.2161682    1.5157549   467895 
 7226000    1.0766929   -3.2158467   -1.7002079  0.072256962   -3.2158467    1.5156388   467855 
 7227000    1.0765326    -3.216782   -1.7011939  0.073367422    -3.216782    1.5155881   467801 
 7228000    1.0752148   -3.2148723   -1.7011491   0.07113898   -3.2148723    1.5137231   467804 
 7229000    1.0761034   -3.2167098    -1.701632  0.072586925   -3.2167098    1.5150778   467772 
 7230000    1.0745261   -3.2139569   -1.7011614  0.071623125   -3.2139569    1.5127955   467791 
 7231000    1.0762235   -3.2159774   -1.7008861  0.070876086   -3.2159774    1.5150913   467820 
 7232000    1.0755849   -3.2144967   -1.7003593  0.073927502   -3.2144967    1.5141374   467837 
 7233000    1.0762638   -3.2155944   -1.7006276  0.074513148   -3.2155944    1.5149668   467876 
 7234000    1.0755662   -3.2156715   -1.7017224  0.074857884   -3.2156715    1.5139491   467887 
 7235000    1.0772288   -3.2168764   -1.7005384  0.069982214   -3.2168764     1.516338   467872 
 7236000    1.0764765   -3.2161235   -1.7010096  0.072528325   -3.2161235    1.5151139   467923 
 7237000     1.076753   -3.2168952   -1.7014245  0.078377733   -3.2168952    1.5154707   467933 
 7238000    1.0776622   -3.2187942    -1.702154  0.069200689   -3.2187942    1.5166402   467967 
 7239000    1.0772258   -3.2167791   -1.7008892  0.073493495   -3.2167791    1.5158899   468009 
 7240000    1.0770519   -3.2170168   -1.7012614  0.067401455   -3.2170168    1.5157554   467975 
 7241000    1.0776282   -3.2165954    -1.700016  0.075525933   -3.2165954    1.5165794   467971 
 7242000    1.0774498   -3.2164923   -1.7002321  0.073927018   -3.2164923    1.5162602   467992 
 7243000    1.0785232   -3.2171577   -1.6993707  0.077064226   -3.2171577     1.517787   467987 
 7244000    1.0776056   -3.2163537   -1.6999097  0.072207536   -3.2163537    1.5164439   468003 
 7245000    1.0757141   -3.2148785   -1.7011384   0.07383058   -3.2148785    1.5137401   468016 
 7246000     1.079697   -3.2176689   -1.6983858  0.069744227   -3.2176689    1.5192831   468035 
 7247000    1.0774335   -3.2139088   -1.6977752  0.075065166   -3.2139088    1.5161336   468024 
 7248000    1.0776787   -3.2155521   -1.6991026  0.078702662   -3.2155521    1.5164495   468033 
 7249000    1.0785408   -3.2157493   -1.6981516  0.074428199   -3.2157493    1.5175977   468053 
 7250000    1.0766949   -3.2144218   -1.6993113  0.073462233   -3.2144218    1.5151105   468019 
 7251000     1.076964   -3.2166392   -1.7010918  0.070041252   -3.2166392    1.5155474   468001 
 7252000    1.0786238   -3.2171648   -1.6991681  0.075860342   -3.2171648    1.5179967   467966 
 7253000    1.0780651   -3.2159314   -1.6986399  0.068414308   -3.2159314    1.5172915   467941 
 7254000    1.0764676   -3.2133112    -1.698349  0.075012227   -3.2133112    1.5149623   467966 
 7255000    1.0780828   -3.2156864   -1.6984737  0.073157852   -3.2156864    1.5172126   467973 
 7256000     1.079216   -3.2158577   -1.6970406  0.074964436   -3.2158577    1.5188172   467970 
 7257000    1.0766555   -3.2119394   -1.6968098  0.079987241   -3.2119394    1.5151296   467996 
 7258000     1.079002   -3.2155226   -1.6972402  0.068972167   -3.2155226    1.5182824   468042 
 7259000    1.0789282   -3.2155558   -1.6974519  0.077641741   -3.2155558     1.518104   468065 
 7260000     1.077831   -3.2133473   -1.6968293  0.077220045   -3.2133473     1.516518   468078 
 7261000    1.0785609   -3.2145094   -1.6970844  0.073501241   -3.2145094     1.517425   468115 
 7262000     1.077038   -3.2131278   -1.6979036  0.073407241   -3.2131278    1.5152242   468133 
 7263000    1.0755405    -3.211629   -1.6986602  0.072513829    -3.211629    1.5129688   468179 
 7264000    1.0751088   -3.2119646    -1.699658  0.071012317   -3.2119646    1.5123066   468196 
 7265000    1.0743981   -3.2109663   -1.6995141  0.068747084   -3.2109663    1.5114522   468151 
 7266000    1.0756038   -3.2117784    -1.698575  0.073528221   -3.2117784    1.5132033   468134 
 7267000    1.0765094   -3.2136304   -1.6991013  0.065023749   -3.2136304    1.5145291   468118 
 7268000    1.0762913   -3.2118233   -1.6976399  0.072026355   -3.2118233    1.5141835   468130 
 7269000    1.0766346   -3.2141386    -1.699511  0.068801376   -3.2141386    1.5146276   468142 
 7270000    1.0761489   -3.2142705   -1.7004232  0.074402325   -3.2142705    1.5138472   468172 
 7271000    1.0756362   -3.2124645    -1.699403  0.075879074   -3.2124645    1.5130615   468192 
 7272000    1.0779828   -3.2146751   -1.6984294  0.072889392   -3.2146751    1.5162457   468228 
 7273000    1.0783718   -3.2146242   -1.6978184  0.073151212   -3.2146242    1.5168058   468224 
 7274000    1.0778401   -3.2137562   -1.6976044  0.065879385   -3.2137562    1.5161518   468195 
 7275000    1.0772504   -3.2132421   -1.6979327  0.073989087   -3.2132421    1.5153094   468199 
 7276000    1.0773859   -3.2142201   -1.6986294  0.076466756   -3.2142201    1.5155907   468171 
 7277000    1.0752738   -3.2126388    -1.699987  0.077019621   -3.2126388    1.5126518   468161 
 7278000     1.077049   -3.2142828   -1.6991403  0.065020526   -3.2142828    1.5151425   468163 
 7279000    1.0766364   -3.2160779   -1.7014996  0.068405131   -3.2160779    1.5145783   468158 
 7280000    1.0770566     -3.21513   -1.7001418   0.06744921     -3.21513    1.5149882   468214 
 7281000    1.0771618   -3.2157969   -1.7006995  0.070544855   -3.2157969    1.5150974   468226 
 7282000    1.0759677   -3.2160347   -1.7026007  0.071821397   -3.2160347     1.513434   468221 
 7283000    1.0752507   -3.2141259   -1.7015195  0.074263257   -3.2141259    1.5126063   468165 
 7284000    1.0764666   -3.2159692   -1.7015941  0.073179802   -3.2159692    1.5143751   468147 
 7285000    1.0770641   -3.2166142   -1.7013662  0.069604293   -3.2166142     1.515248   468137 
 7286000    1.0759403   -3.2160036   -1.7023656  0.077601514   -3.2160036    1.5136379   468146 
 7287000    1.0767285   -3.2175783   -1.7029028  0.071392791   -3.2175783    1.5146756   468168 
 7288000    1.0778987   -3.2185153   -1.7021288  0.079444021   -3.2185153    1.5163865   468148 
 7289000    1.0774097   -3.2195799   -1.7037841  0.074137854   -3.2195799    1.5157958   468118 
 7290000     1.076281   -3.2186377   -1.7043069   0.07655558   -3.2186377    1.5143307   468080 
 7291000    1.0760042   -3.2182621   -1.7043889  0.072216486   -3.2182621    1.5138732   468101 
 7292000    1.0779237   -3.2202382   -1.7037355  0.069664772   -3.2202382    1.5165027   468123 
 7293000    1.0777732   -3.2194777   -1.7033422  0.075868143   -3.2194777    1.5161355   468171 
 7294000    1.0773594   -3.2186588   -1.7029436  0.077279833   -3.2186588    1.5157152   468121 
 7295000    1.0770446   -3.2191381   -1.7037006  0.070350152   -3.2191381    1.5154374   468070 
 7296000    1.0772159   -3.2203398   -1.7047099  0.071005131   -3.2203398    1.5156298   468085 
 7297000    1.0772141   -3.2209264   -1.7051664  0.075370028   -3.2209264    1.5157601   468044 
 7298000    1.0773779   -3.2211577   -1.7050441  0.071881618   -3.2211577    1.5161137   468006 
 7299000     1.077206   -3.2206338   -1.7048948  0.067695099   -3.2206338     1.515739   468047 
 7300000    1.0774796   -3.2215252   -1.7055599  0.072263492   -3.2215252    1.5159652   468096 
 7301000    1.0765897      -3.2196   -1.7049224  0.078730265      -3.2196    1.5146777   468107 
 7302000    1.0772855   -3.2202648    -1.704686  0.074464268   -3.2202648    1.5155788   468131 
 7303000    1.0769841   -3.2208595   -1.7057791  0.076822392   -3.2208595    1.5150804   468154 
 7304000    1.0755539   -3.2195332   -1.7064938  0.072452187   -3.2195332    1.5130394   468163 
 7305000     1.075683   -3.2198447   -1.7067304  0.074522284   -3.2198447    1.5131143   468196 
 7306000    1.0760769   -3.2194059   -1.7057569  0.068811045   -3.2194059     1.513649   468202 
 7307000    1.0769266   -3.2215753    -1.706647   0.07176699   -3.2215753    1.5149284   468176 
 7308000    1.0757026   -3.2192929   -1.7060088  0.066927304   -3.2192929    1.5132841   468152 
 7309000    1.0761045   -3.2211406   -1.7073881  0.067961996   -3.2211406    1.5137525   468182 
 7310000    1.0755921   -3.2189566   -1.7058311  0.065155931   -3.2189566    1.5131254   468153 
 7311000    1.0761366   -3.2196037   -1.7056832  0.064392228   -3.2196037    1.5139205   468144 
 7312000    1.0757971   -3.2201618   -1.7066962   0.07179637   -3.2201618    1.5134655   468137 
 7313000    1.0746719   -3.2194214   -1.7075518   0.07661015   -3.2194214    1.5118697   468141 
 7314000    1.0775743   -3.2219877   -1.7061192  0.069249297   -3.2219877    1.5158686   468167 
 7315000    1.0751853    -3.219735   -1.7071721  0.072878101    -3.219735    1.5125629   468150 
 7316000    1.0757883   -3.2195168   -1.7061768  0.074956915   -3.2195168      1.51334   468172 
 7317000    1.0775553   -3.2214957   -1.7056214  0.071327892   -3.2214957    1.5158743   468157 
 7318000    1.0768627   -3.2203384   -1.7053252  0.073777626   -3.2203384    1.5150132   468122 
 7319000    1.0783742   -3.2230028   -1.7057627  0.072946615   -3.2230028    1.5172402   468091 
 7320000    1.0774939   -3.2215302   -1.7054865  0.071410099   -3.2215302    1.5160437   468078 
 7321000    1.0760505   -3.2203614   -1.7061997  0.071882419   -3.2203614    1.5141617   468032 
 7322000    1.0764668   -3.2210165   -1.7063629  0.071133216   -3.2210165    1.5146536   468061 
 7323000    1.0751145    -3.220164   -1.7074779  0.077714004    -3.220164    1.5126861   468081 
 7324000    1.0758296   -3.2216959   -1.7079907  0.072568228   -3.2216959    1.5137052   468077 
 7325000    1.0753282   -3.2204603   -1.7075575  0.074061961   -3.2204603    1.5129028   468107 
 7326000    1.0758827   -3.2223615   -1.7087205  0.074551509   -3.2223615    1.5136409   468120 
 7327000    1.0764633   -3.2241214   -1.7095569  0.070999971   -3.2241214    1.5145645   468087 
 7328000     1.076541   -3.2236223   -1.7089614  0.075870674   -3.2236223    1.5146609   468091 
 7329000    1.0756119   -3.2230666   -1.7097128  0.069615092   -3.2230666    1.5133537   468091 
 7330000    1.0757518   -3.2223732   -1.7088809  0.070608466   -3.2223732    1.5134923   468109 
 7331000    1.0766507   -3.2225627   -1.7077863  0.073080338   -3.2225627    1.5147765   468103 
 7332000    1.0767793   -3.2230189   -1.7081489  0.068465674   -3.2230189      1.51487   468130 
 7333000    1.0755768    -3.222727   -1.7095391  0.074464491    -3.222727    1.5131879   468127 
 7334000    1.0749249   -3.2219856   -1.7097147  0.075509749   -3.2219856    1.5122708   468127 
 7335000    1.0760328   -3.2245141    -1.710717  0.071671103   -3.2245141    1.5137971   468137 
 7336000    1.0754947   -3.2233232   -1.7103348  0.070948976   -3.2233232    1.5129884   468153 
 7337000    1.0767242   -3.2251166   -1.7104666  0.074487649   -3.2251166      1.51465   468174 
 7338000    1.0754064   -3.2234355   -1.7108428  0.073241735   -3.2234355    1.5125927   468237 
 7339000    1.0775477   -3.2246411   -1.7090689  0.074160076   -3.2246411    1.5155722   468247 
 7340000    1.0775326   -3.2249992   -1.7093802  0.078731376   -3.2249992     1.515619   468226 
 7341000    1.0791518   -3.2276195   -1.7096582  0.074522314   -3.2276195    1.5179613   468206 
 7342000    1.0767331   -3.2253219   -1.7107724   0.07297712   -3.2253219    1.5145495   468209 
 7343000     1.077965   -3.2254341   -1.7091681  0.070830114   -3.2254341     1.516266   468214 
 7344000    1.0760681   -3.2234546   -1.7099279  0.074432596   -3.2234546    1.5135268   468236 
 7345000    1.0761548   -3.2242878   -1.7107037  0.072503525   -3.2242878    1.5135841   468256 
 7346000    1.0751184   -3.2234272     -1.71143  0.071090404   -3.2234272    1.5119972   468296 
 7347000    1.0753085     -3.22383    -1.711572  0.073307446     -3.22383     1.512258   468298 
 7348000     1.076345   -3.2258239   -1.7120468  0.068924975   -3.2258239    1.5137771   468279 
 7349000    1.0747764   -3.2229812   -1.7113972  0.073146529   -3.2229812     1.511584   468275 
 7350000    1.0769468    -3.225343   -1.7107195  0.070169861    -3.225343    1.5146235   468279 
 7351000    1.0780062   -3.2270963   -1.7110185  0.072694317   -3.2270963    1.5160778   468290 
 7352000     1.076111   -3.2235911   -1.7101656  0.075197076   -3.2235911    1.5134254   468286 
 7353000    1.0764886   -3.2235722   -1.7096513  0.068320375   -3.2235722    1.5139209   468297 
 7354000     1.076128   -3.2234297   -1.7099802  0.073852726   -3.2234297    1.5134494   468286 
 7355000     1.078971   -3.2259256   -1.7083774  0.072871817   -3.2259256    1.5175482   468255 
 7356000    1.0786573   -3.2257991   -1.7087991  0.074390588   -3.2257991        1.517   468288 
 7357000    1.0775388   -3.2241498   -1.7087163  0.075024323   -3.2241498    1.5154335   468286 
 7358000    1.0763473   -3.2222955   -1.7085603  0.072091887   -3.2222955    1.5137352   468293 
 7359000    1.0766614   -3.2231741   -1.7090361  0.074970085   -3.2231741     1.514138   468305 
 7360000    1.0771195   -3.2226015   -1.7077933  0.076624617   -3.2226015    1.5148083   468297 
 7361000    1.0751836   -3.2215019   -1.7093582  0.071644961   -3.2215019    1.5121437   468279 
 7362000    1.0747321   -3.2201507   -1.7086678  0.071247355   -3.2201507    1.5114829   468287 
 7363000    1.0762767   -3.2227855   -1.7091627  0.071779165   -3.2227855    1.5136229   468297 
 7364000    1.0764813   -3.2230755   -1.7091907  0.068575055   -3.2230755    1.5138848   468305 
 7365000    1.0751995    -3.220939   -1.7088277  0.069449289    -3.220939    1.5121112   468296 
 7366000    1.0757143   -3.2217985   -1.7088696  0.071613344   -3.2217985    1.5129289   468267 
 7367000    1.0759068   -3.2222722   -1.7089562  0.069614932   -3.2222722     1.513316   468231 
 7368000    1.0763165   -3.2220832   -1.7081197  0.065865122   -3.2220832    1.5139634   468209 
 7369000    1.0773891    -3.223274   -1.7078731  0.075406603    -3.223274    1.5154009   468231 
 7370000    1.0765014   -3.2216142    -1.707394  0.069172852   -3.2216142    1.5142202   468210 
 7371000    1.0755103   -3.2201147   -1.7073015  0.073884502   -3.2201147    1.5128132   468214 
 7372000     1.075955    -3.220899   -1.7074538  0.070235765    -3.220899    1.5134452   468212 
 7373000    1.0755592   -3.2206181   -1.7077166  0.070528098   -3.2206181    1.5129015   468208 
 7374000    1.0767616   -3.2229012   -1.7084218  0.071976533   -3.2229012    1.5144794   468243 
 7375000    1.0760891   -3.2206937   -1.7071375   0.07365209   -3.2206937    1.5135562   468236 
 7376000    1.0760671   -3.2207657   -1.7072339  0.072388856   -3.2207657    1.5135318   468234 
 7377000    1.0773918   -3.2215155   -1.7060654  0.077304428   -3.2215155      1.51545   468217 
 7378000    1.0772303   -3.2216622   -1.7064393  0.072678754   -3.2216622    1.5152229   468217 
 7379000    1.0756628   -3.2197954    -1.706955  0.067834161   -3.2197954    1.5128404   468272 
 7380000     1.074195   -3.2176227    -1.706979  0.074107367   -3.2176227    1.5106436   468313 
 7381000    1.0756144   -3.2199169   -1.7071641  0.070299917   -3.2199169    1.5127528   468278 
 7382000    1.0757779    -3.219459    -1.706486   0.06885211    -3.219459    1.5129731   468281 
 7383000     1.076048   -3.2201845   -1.7068508  0.072879547   -3.2201845    1.5133337   468287 
 7384000    1.0762142   -3.2199418    -1.706284   0.07344941   -3.2199418    1.5136578   468259 
 7385000     1.077061   -3.2211245   -1.7062724     0.074425   -3.2211245    1.5148521   468258 
 7386000    1.0768417   -3.2207469   -1.7061127  0.069338983   -3.2207469    1.5146342   468230 
 7387000    1.0775787   -3.2222321    -1.706529  0.070472457   -3.2222321    1.5157032   468220 
 7388000    1.0756933   -3.2193377   -1.7061863  0.075323648   -3.2193377    1.5131515   468189 
 7389000    1.0776849   -3.2212566   -1.7052972   0.07194028   -3.2212566    1.5159594   468187 
 7390000    1.0787726   -3.2219842   -1.7045239  0.071585757   -3.2219842    1.5174603   468196 
 7391000    1.0771642   -3.2205392   -1.7053252  0.072601453   -3.2205392    1.5152141   468191 
 7392000    1.0768478   -3.2215706   -1.7067888  0.070066267   -3.2215706    1.5147819   468187 
 7393000      1.07682   -3.2220637   -1.7073338  0.072781922   -3.2220637    1.5147299   468191 
 7394000    1.0765441   -3.2223877   -1.7079424   0.06571548   -3.2223877    1.5144453   468159 
 7395000    1.0766632   -3.2223197   -1.7076972  0.072090447   -3.2223197    1.5146226   468156 
 7396000    1.0761446   -3.2213986   -1.7075542  0.070374083   -3.2213986    1.5138444   468171 
 7397000    1.0753534   -3.2197355   -1.7069265  0.072162187   -3.2197355     1.512809   468147 
 7398000    1.0752801   -3.2184521   -1.7058723  0.070606661   -3.2184521    1.5125798   468186 
 7399000    1.0764177   -3.2199874   -1.7058234  0.070763774   -3.2199874     1.514164   468191 
 7400000    1.0774969   -3.2229644   -1.7071949  0.069748299   -3.2229644    1.5157695   468164 
 7401000    1.0743336   -3.2198137   -1.7085136  0.069161935   -3.2198137    1.5113001   468170 
 7402000    1.0755344   -3.2225131   -1.7094785  0.072606872   -3.2225131    1.5130346   468156 
 7403000    1.0760536   -3.2225499   -1.7089175  0.067007156   -3.2225499    1.5136324   468197 
 7404000    1.0754925    -3.221687   -1.7088924   0.07051641    -3.221687    1.5127946   468212 
 7405000    1.0750425   -3.2215187   -1.7094023  0.069679704   -3.2215187    1.5121164   468226 
 7406000    1.0753107   -3.2222773   -1.7097449  0.071507477   -3.2222773    1.5125325   468214 
 7407000    1.0751706   -3.2220959   -1.7098703  0.070917215   -3.2220959    1.5122256   468248 
 7408000    1.0765733   -3.2242443   -1.7101008  0.073342486   -3.2242443    1.5141435   468265 
 7409000    1.0759218   -3.2224897    -1.709172  0.070359185   -3.2224897    1.5133177   468237 
 7410000    1.0749676   -3.2206544   -1.7088015  0.071152695   -3.2206544    1.5118529   468275 
 7411000    1.0737912   -3.2217331   -1.7115089   0.07177807   -3.2217331    1.5102242   468267 
 7412000    1.0750678   -3.2233332   -1.7112748  0.071771142   -3.2233332    1.5120585   468255 
 7413000    1.0757494   -3.2233825   -1.7104236   0.06970889   -3.2233825    1.5129589   468273 
 7414000    1.0762864    -3.224578   -1.7108897  0.071099326    -3.224578    1.5136883   468281 
 7415000    1.0755506    -3.222307   -1.7096664  0.078991543    -3.222307    1.5126405   468285 
 7416000    1.0778368   -3.2252454   -1.7094544  0.073274601   -3.2252454    1.5157911   468305 
 7417000    1.0775875   -3.2258265   -1.7104248  0.078839587   -3.2258265    1.5154017   468317 
 7418000    1.0774385   -3.2250147   -1.7098679  0.075042072   -3.2250147    1.5151468   468331 
 7419000    1.0779398   -3.2259096   -1.7101323  0.075058688   -3.2259096    1.5157773   468354 
 7420000    1.0787901    -3.226664    -1.709733  0.075874731    -3.226664     1.516931   468367 
 7421000    1.0780236   -3.2258096    -1.709976  0.075798888   -3.2258096    1.5158336   468373 
 7422000    1.0785913   -3.2259425   -1.7093915  0.081103667   -3.2259425     1.516551   468398 
 7423000    1.0782502   -3.2246397   -1.7086265  0.073300031   -3.2246397    1.5160132   468416 
 7424000    1.0779851     -3.22435   -1.7086093  0.073273125     -3.22435    1.5157407   468385 
 7425000    1.0798752   -3.2275102    -1.709235  0.070771903   -3.2275102    1.5182752   468423 
 7426000    1.0785104   -3.2261936   -1.7098179  0.076699465   -3.2261936    1.5163757   468417 
 7427000    1.0783157   -3.2258377   -1.7097423  0.074693644   -3.2258377    1.5160955   468419 
 7428000    1.0783692   -3.2256731   -1.7095412  0.076357739   -3.2256731    1.5161319   468431 
 7429000    1.0785633   -3.2262743   -1.7098728  0.071152016   -3.2262743    1.5164015   468432 
 7430000    1.0778471   -3.2245248   -1.7091108   0.07520384   -3.2245248     1.515414   468426 
 7431000    1.0796231   -3.2273755   -1.7095034  0.074026747   -3.2273755    1.5178721   468438 
 7432000    1.0769229   -3.2244349   -1.7102685  0.074385734   -3.2244349    1.5141664   468410 
 7433000    1.0775483   -3.2243834   -1.7093637  0.075470769   -3.2243834    1.5150197   468418 
 7434000    1.0766355   -3.2226274   -1.7089783  0.073380646   -3.2226274    1.5136491   468445 
 7435000    1.0785758   -3.2254592    -1.709121   0.07293764   -3.2254592    1.5163382   468457 
 7436000    1.0794606   -3.2256808   -1.7081344  0.066586805   -3.2256808    1.5175464   468468 
 7437000    1.0779313   -3.2239688   -1.7085724  0.076222455   -3.2239688    1.5153965   468468 
 7438000    1.0783605    -3.224679   -1.7086564  0.071571805    -3.224679    1.5160226   468461 
 7439000    1.0792636   -3.2251071   -1.7078732  0.076043911   -3.2251071    1.5172339   468479 
 7440000    1.0780388   -3.2233215   -1.7079064  0.072313177   -3.2233215     1.515415   468509 
 7441000    1.0764977   -3.2211637   -1.7078247  0.076049703   -3.2211637    1.5133391   468481 
 7442000    1.0782325   -3.2230787   -1.7072522  0.069640189   -3.2230787    1.5158265   468466 
 7443000    1.0771003   -3.2227673   -1.7085454  0.072252688   -3.2227673    1.5142219   468470 
 7444000    1.0773594   -3.2216428   -1.7071052  0.075651851   -3.2216428    1.5145376   468485 
 7445000    1.0799402   -3.2256464   -1.7074743  0.066113309   -3.2256464     1.518172   468483 
 7446000    1.0776097   -3.2215061    -1.706704   0.06990069   -3.2215061    1.5148022   468512 
 7447000    1.0767247   -3.2204305   -1.7069081  0.070665812   -3.2204305    1.5135225   468523 
 7448000    1.0773152   -3.2218373   -1.7074977   0.07435375   -3.2218373    1.5143396   468527 
 7449000    1.0767279   -3.2209596   -1.7073776  0.069329099   -3.2209596     1.513582   468506 
 7450000    1.0777989   -3.2222624   -1.7072072  0.078672866   -3.2222624    1.5150552   468516 
 7451000     1.079094    -3.224647   -1.7076644  0.074143137    -3.224647    1.5169826   468483 
 7452000    1.0776893   -3.2230845   -1.7081284  0.067414778   -3.2230845    1.5149561   468499 
 7453000    1.0755897    -3.221027   -1.7090547  0.069311203    -3.221027    1.5119723   468509 
 7454000    1.0754907   -3.2207983   -1.7089555  0.073408223   -3.2207983    1.5118428   468506 
 7455000    1.0766519   -3.2229426   -1.7094674  0.067279864   -3.2229426    1.5134752   468506 
 7456000    1.0759474   -3.2222876   -1.7098286  0.068530624   -3.2222876     1.512459   468514 
 7457000    1.0763912   -3.2231533   -1.7100253  0.070130829   -3.2231533     1.513128   468500 
 7458000    1.0750105   -3.2217879   -1.7104556  0.070966192   -3.2217879    1.5113322   468455 
 7459000    1.0751367   -3.2214517    -1.710013  0.071688568   -3.2214517    1.5114387   468477 
 7460000    1.0764511   -3.2225635   -1.7092867  0.072004494   -3.2225635    1.5132768   468480 
 7461000     1.076261   -3.2214919     -1.70845  0.069716663   -3.2214919    1.5130419   468470 
 7462000    1.0771455   -3.2234647   -1.7091988  0.068908208   -3.2234647    1.5142659   468476 
 7463000    1.0790348   -3.2240299   -1.7071663  0.070058532   -3.2240299    1.5168636   468494 
 7464000    1.0781476   -3.2232429   -1.7076879  0.073302117   -3.2232429     1.515555   468513 
 7465000    1.0778568    -3.223681   -1.7084571  0.070539592    -3.223681    1.5152239   468489 
 7466000    1.0784163   -3.2233545   -1.7074218  0.076115126   -3.2233545    1.5159327   468513 
 7467000    1.0768504   -3.2216496   -1.7079406  0.072482961   -3.2216496     1.513709   468520 
 7468000    1.0786175   -3.2235683   -1.7073851  0.074481668   -3.2235683    1.5161832   468523 
 7469000    1.0794895   -3.2249493   -1.7076375  0.078063903   -3.2249493    1.5173118   468553 
 7470000    1.0774623   -3.2227922   -1.7084203  0.072281029   -3.2227922     1.514372   468581 
 7471000    1.0781318    -3.222749   -1.7075202  0.070828111    -3.222749    1.5152288   468607 
 7472000    1.0760683   -3.2225308   -1.7101247  0.066567022   -3.2225308    1.5124061   468583 
 7473000    1.0773303   -3.2246267   -1.7104274  0.076728831   -3.2246267    1.5141994   468577 
 7474000    1.0784124   -3.2256268   -1.7098387  0.074717468   -3.2256268    1.5157881   468556 
 7475000    1.0767092   -3.2234798   -1.7100759  0.069997222   -3.2234798    1.5134039   468553 
 7476000    1.0753299   -3.2215187   -1.7100826  0.072366853   -3.2215187    1.5114361   468562 
 7477000    1.0767207    -3.222395   -1.7090817  0.072483639    -3.222395    1.5133134   468586 
 7478000    1.0757807   -3.2212746   -1.7094114  0.070941501   -3.2212746    1.5118632   468626 
 7479000    1.0748235   -3.2220652   -1.7114569  0.074202621   -3.2220652    1.5106083   468598 
 7480000    1.0756383   -3.2220272   -1.7103738  0.073084242   -3.2220272    1.5116534   468629 
 7481000    1.0749726   -3.2213653   -1.7106893  0.072855398   -3.2213653     1.510676   468642 
 7482000    1.0770089   -3.2237357   -1.7101851  0.076830089   -3.2237357    1.5135505   468638 
 7483000     1.076494   -3.2235813    -1.710919  0.073027584   -3.2235813    1.5126623   468689 
 7484000    1.0768726   -3.2225167    -1.709345   0.07009115   -3.2225167    1.5131717   468696 
 7485000    1.0773659   -3.2252464   -1.7112266  0.068529965   -3.2252464    1.5140199   468648 
 7486000    1.0756026   -3.2235014   -1.7119852   0.06503305   -3.2235014    1.5115162   468656 
 7487000    1.0753477   -3.2219808   -1.7108132  0.074221424   -3.2219808    1.5111676   468653 
 7488000    1.0760675   -3.2234773   -1.7112949   0.06660585   -3.2234773    1.5121824   468652 
 7489000    1.0759465   -3.2229465   -1.7110535  0.071861603   -3.2229465    1.5118929   468689 
 7490000    1.0767058   -3.2234317   -1.7106881  0.068974279   -3.2234317    1.5127436   468756 
 7491000    1.0762531   -3.2234812   -1.7113704  0.067538215   -3.2234812    1.5121108   468755 
 7492000    1.0769092   -3.2234253   -1.7104089   0.07454587   -3.2234253    1.5130165   468760 
 7493000    1.0766443    -3.223687   -1.7110459  0.073313192    -3.223687    1.5126411   468761 
 7494000     1.076288   -3.2227614   -1.7107144  0.074292701   -3.2227614     1.512047   468790 
 7495000    1.0788379   -3.2254741   -1.7099514  0.067485383   -3.2254741    1.5155226   468823 
 7496000    1.0786497   -3.2251625   -1.7099754  0.070422561   -3.2251625    1.5151871   468845 
 7497000    1.0788496   -3.2251493   -1.7097687  0.074052363   -3.2251493    1.5153806   468872 
 7498000    1.0784921   -3.2244157   -1.7095404  0.074508793   -3.2244157    1.5148752   468873 
 7499000    1.0784579   -3.2250459   -1.7102315  0.074401528   -3.2250459    1.5148143   468877 
 7500000    1.0779041   -3.2251914   -1.7111807  0.070455861   -3.2251914    1.5140106   468885 
 7501000     1.078361   -3.2241212   -1.7094268  0.071592498   -3.2241212    1.5146944   468872 
 7502000    1.0798618   -3.2249021   -1.7081451  0.073213448   -3.2249021    1.5167571   468886 
 7503000    1.0797211   -3.2260461   -1.7095189  0.074178025   -3.2260461    1.5165271   468896 
 7504000    1.0774564   -3.2257613   -1.7124732  0.077154706   -3.2257613    1.5132881   468914 
 7505000    1.0784484   -3.2263544   -1.7116826  0.072017624   -3.2263544    1.5146718   468917 
 7506000    1.0782192   -3.2258302   -1.7114836  0.078965014   -3.2258302    1.5143466   468918 
 7507000     1.076968   -3.2249732   -1.7123806  0.076612032   -3.2249732    1.5125926   468917 
 7508000    1.0757691   -3.2234748   -1.7126659  0.075505304   -3.2234748    1.5108089   468948 
 7509000    1.0777152   -3.2258194   -1.7122743  0.072191372   -3.2258194    1.5135451   468947 
 7510000    1.0783735   -3.2272494   -1.7128089  0.068088142   -3.2272494    1.5144406   468956 
 7511000    1.0794611   -3.2291157    -1.713277  0.076525612   -3.2291157    1.5158387   468996 
 7512000    1.0776916   -3.2269673   -1.7135747  0.074542353   -3.2269673    1.5133926   468984 
 7513000     1.080698   -3.2305185   -1.7128781  0.072235429   -3.2305185    1.5176404   468976 
 7514000    1.0782706   -3.2274513   -1.7133231  0.073768074   -3.2274513    1.5141282   469008 
 7515000    1.0773796   -3.2254258   -1.7125553   0.07233678   -3.2254258    1.5128705   469010 
 7516000    1.0783287   -3.2267082   -1.7124888  0.078493961   -3.2267082    1.5142194   469005 
 7517000    1.0782928   -3.2267475   -1.7125655  0.076680676   -3.2267475     1.514182   469001 
 7518000    1.0784328     -3.22749   -1.7131663  0.072883287     -3.22749    1.5143237   469018 
 7519000     1.077283    -3.225621   -1.7130054  0.081661476    -3.225621    1.5126156   469047 
 7520000    1.0788351   -3.2289463    -1.714103  0.072988068   -3.2289463    1.5148433   469032 
 7521000    1.0791033   -3.2289997   -1.7136925  0.076171643   -3.2289997    1.5153072   469005 
 7522000    1.0796938   -3.2298893   -1.7138531  0.071142657   -3.2298893    1.5160362   469036 
 7523000    1.0798638   -3.2291014   -1.7128136  0.069802945   -3.2291014    1.5162878   469032 
 7524000    1.0794698   -3.2277716    -1.712147  0.071232783   -3.2277716    1.5156247   469066 
 7525000    1.0780219   -3.2263869     -1.71285  0.070456874   -3.2263869    1.5135369   469083 
 7526000    1.0774139   -3.2245229   -1.7118395  0.069400734   -3.2245229    1.5126833   469083 
 7527000    1.0783918   -3.2249031   -1.7108986  0.071869114   -3.2249031    1.5140046   469099 
 7528000    1.0783513   -3.2250472   -1.7111381  0.072438762   -3.2250472     1.513909   469111 
 7529000    1.0795159    -3.226295   -1.7107478  0.073241816    -3.226295    1.5155472   469110 
 7530000    1.0787046   -3.2259455   -1.7114469  0.075658973   -3.2259455    1.5144987   469082 
 7531000    1.0792644    -3.226908   -1.7116558  0.071569792    -3.226908    1.5152523   469092 
 7532000    1.0793342   -3.2259388   -1.7107727  0.071482994   -3.2259388    1.5151661   469149 
 7533000     1.076493    -3.222734   -1.7115563  0.071245054    -3.222734    1.5111778   469149 
 7534000    1.0798551     -3.22624   -1.7103619  0.071334659     -3.22624    1.5158781   469155 
 7535000    1.0784764    -3.224068   -1.7100866  0.071012274    -3.224068    1.5139814   469143 
 7536000    1.0779635   -3.2229977   -1.7097363  0.072303863   -3.2229977    1.5132614   469143 
 7537000    1.0781592   -3.2226486   -1.7092384  0.074723759   -3.2226486    1.5134102   469182 
 7538000    1.0770425   -3.2215792   -1.7097073  0.072459372   -3.2215792    1.5118719   469173 
 7539000    1.0785368   -3.2224828   -1.7085135   0.07933878   -3.2224828    1.5139693   469173 
 7540000    1.0786369   -3.2218037   -1.7076421  0.068939333   -3.2218037    1.5141615   469157 
 7541000    1.0787114   -3.2225186   -1.7083042  0.068247097   -3.2225186    1.5142144   469173 
 7542000    1.0779364   -3.2213576   -1.7081729  0.073658432   -3.2213576    1.5131847   469155 
 7543000    1.0784508   -3.2224593   -1.7085364  0.070891974   -3.2224593    1.5139229   469150 
 7544000    1.0766627   -3.2199943   -1.7086427  0.068493258   -3.2199943    1.5113515   469169 
 7545000    1.0767153   -3.2207245   -1.7093829  0.071014149   -3.2207245    1.5113416   469195 
 7546000    1.0772552   -3.2219648   -1.7098524  0.068815287   -3.2219648    1.5121124   469191 
 7547000    1.0790113   -3.2237885   -1.7091692  0.072981161   -3.2237885    1.5146193   469178 
 7548000    1.0786194    -3.223272   -1.7092544  0.067301052    -3.223272    1.5140176   469194 
 7549000    1.0787418   -3.2217101   -1.7075369  0.073257008   -3.2217101    1.5141732   469199 
 7550000    1.0793576   -3.2223183   -1.7072937  0.075376859   -3.2223183    1.5150247   469203 
 7551000     1.079643   -3.2230436   -1.7076861  0.075985333   -3.2230436    1.5153575   469224 
 7552000    1.0790009    -3.222009   -1.7075851  0.077838375    -3.222009    1.5144239   469234 
 7553000     1.079448   -3.2231373   -1.7080988  0.074644906   -3.2231373    1.5150385   469238 
 7554000    1.0783361   -3.2228207   -1.7093395   0.06896247   -3.2228207    1.5134811   469237 
 7555000    1.0778858   -3.2216581   -1.7088218  0.069838041   -3.2216581    1.5128363   469241 
 7556000    1.0792039   -3.2238164   -1.7092464  0.071429986   -3.2238164      1.51457   469277 
 7557000    1.0783146   -3.2235408   -1.7101155  0.074264591   -3.2235408    1.5134252   469245 
 7558000    1.0766814   -3.2211253    -1.709915  0.074019474   -3.2211253    1.5112103   469221 
 7559000    1.0781255   -3.2240519   -1.7108534  0.070364105   -3.2240519    1.5131985   469233 
 7560000    1.0789621   -3.2242888   -1.7098902  0.069890465   -3.2242888    1.5143986   469225 
 7561000    1.0784999   -3.2259031   -1.7121953  0.074254321   -3.2259031    1.5137079   469238 
 7562000    1.0783201   -3.2244694   -1.7109139  0.074937241   -3.2244694    1.5135555   469207 
 7563000    1.0780445    -3.222328   -1.7092722  0.074114199    -3.222328    1.5130558   469242 
 7564000     1.078776   -3.2235166   -1.7094309  0.071862705   -3.2235166    1.5140856   469241 
 7565000    1.0791953   -3.2253126   -1.7107545  0.079175522   -3.2253126    1.5145581   469277 
 7566000    1.0789916   -3.2250398   -1.7108613  0.069616167   -3.2250398    1.5141785   469306 
 7567000    1.0788381   -3.2243764   -1.7103197  0.072609867   -3.2243764    1.5140566   469277 
 7568000    1.0798556   -3.2252637   -1.7098887   0.07144403   -3.2252637    1.5153749   469311 
 7569000    1.0799241   -3.2254513    -1.710048   0.06819454   -3.2254513    1.5154033   469332 
 7570000    1.0798261   -3.2266655   -1.7113643  0.067953039   -3.2266655    1.5153012   469321 
 7571000    1.0788438   -3.2248448   -1.7108672  0.069413562   -3.2248448    1.5139776   469304 
 7572000    1.0782624   -3.2248054   -1.7116953  0.070854264   -3.2248054    1.5131101   469320 
 7573000    1.0791137   -3.2244498   -1.7102935  0.071334573   -3.2244498    1.5141563   469366 
 7574000    1.0797172   -3.2267178   -1.7116339  0.069066347   -3.2267178    1.5150839   469341 
 7575000    1.0782056   -3.2232867   -1.7104561  0.076817467   -3.2232867    1.5128306   469382 
 7576000     1.078433   -3.2234303   -1.7102807  0.073291895   -3.2234303    1.5131496   469382 
 7577000    1.0782752   -3.2244103   -1.7114628  0.071934976   -3.2244103    1.5129475   469376 
 7578000    1.0803551   -3.2271146   -1.7112585  0.071434479   -3.2271146    1.5158561   469379 
 7579000    1.0777345   -3.2221268   -1.7100313  0.079214092   -3.2221268    1.5120955   469405 
 7580000    1.0782379   -3.2242292   -1.7114307  0.077252116   -3.2242292    1.5127986   469406 
 7581000    1.0789677   -3.2253496    -1.711524  0.065076873   -3.2253496    1.5138256   469405 
 7582000    1.0788365   -3.2250721   -1.7114499  0.068074129   -3.2250721    1.5136222   469411 
 7583000    1.0773842   -3.2238114   -1.7122686  0.070528019   -3.2238114    1.5115427   469424 
 7584000    1.0788299   -3.2270671   -1.7135767  0.064539658   -3.2270671    1.5134905   469449 
 7585000    1.0776392   -3.2251237   -1.7133069  0.069685979   -3.2251237    1.5118168   469450 
 7586000    1.0790314   -3.2251268   -1.7114278   0.07497135   -3.2251268     1.513699   469472 
 7587000    1.0799856    -3.226158   -1.7112205  0.069673134    -3.226158    1.5149376   469503 
 7588000    1.0798918   -3.2254157    -1.710529  0.073562607   -3.2254157    1.5148866   469478 
 7589000    1.0792652   -3.2251484   -1.7111376   0.07774824   -3.2251484    1.5140108   469477 
 7590000    1.0776277   -3.2236284   -1.7119115  0.071940938   -3.2236284     1.511717   469476 
 7591000    1.0766118   -3.2236485   -1.7133116  0.069151785   -3.2236485    1.5103369   469462 
 7592000    1.0795735   -3.2266179   -1.7121842  0.071439884   -3.2266179    1.5144337   469480 
 7593000    1.0783837   -3.2242401   -1.7114723    0.0758483   -3.2242401    1.5127678   469479 
 7594000    1.0794642   -3.2261242    -1.711918  0.072571485   -3.2261242    1.5142062   469503 
 7595000    1.0788486   -3.2247447   -1.7114374  0.078229074   -3.2247447    1.5133072   469514 
 7596000     1.077974   -3.2236816   -1.7116431  0.073297628   -3.2236816    1.5120385   469527 
 7597000    1.0790661   -3.2261924   -1.7125447  0.068216545   -3.2261924    1.5136477   469503 
 7598000    1.0794818   -3.2267626   -1.7126639  0.071800888   -3.2267626    1.5140986   469544 
 7599000    1.0777188    -3.225223   -1.7134974  0.071383902    -3.225223    1.5117256   469513 
 7600000    1.0776203   -3.2249883   -1.7134587   0.06538957   -3.2249883    1.5115295   469531 
 7601000    1.0771056   -3.2237026   -1.7128436  0.070922867   -3.2237026     1.510859   469515 
 7602000    1.0791833   -3.2269114   -1.7131702  0.064103895   -3.2269114    1.5137412   469525 
 7603000    1.0787176   -3.2263602    -1.713327  0.077688391   -3.2263602    1.5130332   469542 
 7604000    1.0788528   -3.2260094   -1.7127833  0.071679827   -3.2260094    1.5132261   469541 
 7605000    1.0764867   -3.2227864   -1.7129016   0.07155588   -3.2227864    1.5098848   469548 
 7606000    1.0796514   -3.2276471   -1.7133364  0.068514872   -3.2276471    1.5143107   469552 
 7607000    1.0791132   -3.2271723   -1.7134682  0.066933456   -3.2271723    1.5137041   469506 
 7608000     1.080147   -3.2274866   -1.7124388  0.070635056   -3.2274866    1.5150478   469539 
 7609000    1.0790284   -3.2271584   -1.7136442  0.069670636   -3.2271584    1.5135142   469528 
 7610000     1.080466   -3.2282842   -1.7127535  0.070751683   -3.2282842    1.5155307   469528 
 7611000    1.0791086   -3.2271188   -1.7134051  0.071022661   -3.2271188    1.5137138   469501 
 7612000     1.079138   -3.2266194   -1.7128224  0.071120195   -3.2266194     1.513797   469488 
 7613000    1.0794267   -3.2270274   -1.7128029  0.070582225   -3.2270274    1.5142245   469481 
 7614000    1.0803095    -3.228606    -1.713085  0.068409141    -3.228606     1.515521   469463 
 7615000    1.0807863   -3.2288277    -1.712654  0.071719893   -3.2288277    1.5161737   469468 
 7616000    1.0790143   -3.2258418   -1.7122152  0.071388544   -3.2258418    1.5136266   469487 
 7617000    1.0805244   -3.2274292    -1.711823  0.069767849   -3.2274292    1.5156062   469530 
 7618000    1.0820051   -3.2286013   -1.7108633  0.074584669   -3.2286013     1.517738   469513 
 7619000    1.0805214   -3.2256656   -1.7100475  0.071935356   -3.2256656    1.5156181   469525 
 7620000    1.0812522    -3.226139   -1.7094119  0.070843936    -3.226139    1.5167271   469499 
 7621000    1.0805643   -3.2258487   -1.7101058  0.065677477   -3.2258487    1.5157429   469505 
 7622000    1.0804368   -3.2262161   -1.7106651  0.071602205   -3.2262161     1.515551   469509 
 7623000    1.0797116   -3.2266657   -1.7121577  0.070048981   -3.2266657     1.514508   469517 
 7624000    1.0808587   -3.2263377   -1.7102851     0.072598   -3.2263377    1.5160525   469537 
 7625000    1.0793308   -3.2240035   -1.7101812  0.076219336   -3.2240035    1.5138223   469564 
 7626000    1.0794865   -3.2237114    -1.709819  0.071818128   -3.2237114    1.5138924   469610 
 7627000    1.0802107   -3.2248107   -1.7099542  0.072782737   -3.2248107    1.5148564   469626 
 7628000    1.0798014   -3.2247987   -1.7104743  0.067006642   -3.2247987    1.5143244   469613 
 7629000    1.0793095   -3.2239051   -1.7102513  0.070164525   -3.2239051    1.5136539   469607 
 7630000    1.0770481   -3.2225379   -1.7120168  0.071014163   -3.2225379     1.510521   469595 
 7631000    1.0772263   -3.2232868   -1.7125642  0.068728979   -3.2232868    1.5107227   469610 
 7632000    1.0797275   -3.2245783   -1.7103253  0.069476652   -3.2245783     1.514253   469603 
 7633000    1.0768396   -3.2215466   -1.7113855  0.069502916   -3.2215466    1.5101611   469616 
 7634000    1.0773364   -3.2225255   -1.7117354  0.068613471   -3.2225255    1.5107901   469637 
 7635000     1.079358   -3.2251332     -1.71145  0.064821662   -3.2251332    1.5136833   469619 
 7636000    1.0785172   -3.2236811   -1.7112157  0.067677658   -3.2236811    1.5124654   469631 
 7637000    1.0789546   -3.2234747   -1.7103476  0.072070657   -3.2234747    1.5131271   469616 
 7638000     1.079678   -3.2242679   -1.7101778  0.069009612   -3.2242679    1.5140901   469632 
 7639000    1.0796227   -3.2242644    -1.710368  0.068051257   -3.2242644    1.5138964   469668 
 7640000    1.0793317   -3.2232494   -1.7098448  0.073288645   -3.2232494    1.5134047   469694 
 7641000    1.0795268   -3.2229385   -1.7092507  0.070414178   -3.2229385    1.5136878   469691 
 7642000    1.0785105   -3.2223249   -1.7098883  0.077064083   -3.2223249    1.5124366   469637 
 7643000    1.0788862   -3.2241949   -1.7112926   0.06804126   -3.2241949    1.5129023   469656 
 7644000    1.0802251   -3.2241217   -1.7093966  0.070462109   -3.2241217    1.5147251   469673 
 7645000    1.0799136   -3.2246094   -1.7104534  0.069623518   -3.2246094     1.514156   469714 
 7646000    1.0782083   -3.2216664    -1.709866  0.069840445   -3.2216664    1.5118005   469703 
 7647000    1.0796431    -3.223252   -1.7095332  0.067609225    -3.223252    1.5137188   469732 
 7648000    1.0791043    -3.223415   -1.7104162  0.072977521    -3.223415    1.5129988   469721 
 7649000    1.0809297   -3.2251456   -1.7095359   0.06575564   -3.2251456    1.5156097   469705 
 7650000    1.0802307   -3.2248166   -1.7102869  0.069693019   -3.2248166    1.5145297   469736 
 7651000    1.0815541   -3.2274551   -1.7110602  0.072995362   -3.2274551    1.5163949   469733 
 7652000    1.0811975   -3.2259726   -1.7100583  0.073534762   -3.2259726    1.5159143   469727 
 7653000     1.080577    -3.225627   -1.7106473  0.073928317    -3.225627    1.5149797   469747 
 7654000    1.0802757   -3.2257287   -1.7111584  0.071434315   -3.2257287    1.5145702   469743 
 7655000    1.0782581    -3.223062    -1.711417  0.072829429    -3.223062     1.511645   469773 
 7656000    1.0794451   -3.2247869   -1.7115712  0.069840946   -3.2247869    1.5132157   469802 
 7657000    1.0814001   -3.2271675   -1.7111597   0.07499592   -3.2271675    1.5160078   469786 
 7658000    1.0807672   -3.2276855   -1.7124778   0.07299641   -3.2276855    1.5152077   469759 
 7659000    1.0799684   -3.2266354   -1.7126474  0.068255745   -3.2266354     1.513988   469790 
 7660000    1.0799007    -3.227032    -1.713226  0.064977535    -3.227032    1.5138061   469817 
 7661000    1.0794118   -3.2255743     -1.71246   0.06727004   -3.2255743    1.5131143   469819 
 7662000    1.0804209   -3.2280337   -1.7134404  0.068892549   -3.2280337    1.5145933   469799 
 7663000     1.079557   -3.2275659   -1.7142256  0.074431401   -3.2275659    1.5133403   469812 
 7664000    1.0800549   -3.2278299    -1.713885  0.070378829   -3.2278299    1.5139449   469841 
 7665000    1.0808267   -3.2281977   -1.7132645  0.071761776   -3.2281977    1.5149332   469870 
 7666000    1.0827919   -3.2288582   -1.7112836   0.06669395   -3.2288582    1.5175746   469905 
 7667000    1.0829987   -3.2296874   -1.7118327  0.070552291   -3.2296874    1.5178548   469908 
 7668000    1.0824167   -3.2281258   -1.7111061  0.077060818   -3.2281258    1.5170197   469914 
 7669000    1.0812628   -3.2280569   -1.7125609  0.077501492   -3.2280569    1.5154961   469885 
 7670000    1.0814958   -3.2296635   -1.7138087  0.068842771   -3.2296635    1.5158548   469875 
 7671000    1.0813445   -3.2299624   -1.7142035  0.070534416   -3.2299624    1.5157589   469839 
 7672000    1.0777063   -3.2261153   -1.7154273  0.073207471   -3.2261153    1.5106881   469830 
 7673000    1.0798473   -3.2286491    -1.714905  0.067705283   -3.2286491    1.5137441   469813 
 7674000    1.0812424    -3.230633   -1.7149527  0.067703902    -3.230633    1.5156803   469819 
 7675000    1.0810384   -3.2300109   -1.7146875   0.07448417   -3.2300109    1.5153234   469841 
 7676000    1.0810578   -3.2299471   -1.7145641  0.071624807   -3.2299471    1.5153829   469831 
 7677000    1.0798272   -3.2283635   -1.7147315  0.075682631   -3.2283635     1.513632   469839 
 7678000    1.0810921   -3.2282785    -1.712896  0.074844428   -3.2282785    1.5153825   469846 
 7679000    1.0800502   -3.2265909    -1.712659  0.073747687   -3.2265909    1.5139319   469843 
 7680000    1.0812443   -3.2281975   -1.7125984  0.078148513   -3.2281975    1.5155991   469845 
 7681000    1.0822623   -3.2303214   -1.7131532  0.070141861   -3.2303214    1.5171682   469801 
 7682000    1.0810597   -3.2290353   -1.7134787  0.075705064   -3.2290353    1.5155566   469778 
 7683000    1.0825059   -3.2301762   -1.7126892   0.07848867   -3.2301762     1.517487   469808 
 7684000    1.0819128   -3.2298227   -1.7131348  0.069994677   -3.2298227    1.5166879   469798 
 7685000    1.0819787   -3.2302547   -1.7133323  0.074161336   -3.2302547    1.5169223   469754 
 7686000     1.079513   -3.2268514   -1.7133569  0.077591706   -3.2268514    1.5134945   469745 
 7687000    1.0797798   -3.2271479   -1.7133277  0.075927844   -3.2271479    1.5138202   469760 
 7688000    1.0796504   -3.2276824   -1.7141371  0.066428421   -3.2276824    1.5135453   469789 
 7689000    1.0817418   -3.2288093   -1.7123094  0.075932605   -3.2288093    1.5164999   469782 
 7690000    1.0788072    -3.224852   -1.7124984  0.075404275    -3.224852    1.5123536   469792 
 7691000    1.0807666   -3.2284437   -1.7133852  0.068373212   -3.2284437    1.5150585   469805 
 7692000     1.079249   -3.2272782   -1.7143728  0.076675174   -3.2272782    1.5129054   469813 
 7693000    1.0805955   -3.2290797   -1.7143835  0.072637156   -3.2290797    1.5146961   469843 
 7694000    1.0792594   -3.2268793   -1.7140141  0.067594823   -3.2268793    1.5128652   469830 
 7695000    1.0807506   -3.2277711   -1.7128833  0.065836747   -3.2277711    1.5148878   469851 
 7696000    1.0812223   -3.2285601   -1.7131079  0.071105633   -3.2285601    1.5154522   469881 
 7697000    1.0813012   -3.2281061   -1.7125949  0.067892317   -3.2281061    1.5155112   469897 
 7698000    1.0805737   -3.2279869    -1.713505  0.073377078   -3.2279869    1.5144819   469900 
 7699000    1.0808965   -3.2271044   -1.7122506  0.074180615   -3.2271044    1.5148538   469925 
 7700000    1.0805648   -3.2255677    -1.711182  0.073077546   -3.2255677    1.5143856   469926 
 7701000    1.0820017   -3.2278696   -1.7115508  0.071939867   -3.2278696    1.5163188   469951 
 7702000    1.0802427   -3.2250155   -1.7111168  0.075725265   -3.2250155    1.5138987   469937 
 7703000    1.0806451   -3.2263743   -1.7120244  0.077633347   -3.2263743      1.51435   469972 
 7704000    1.0819982   -3.2279729   -1.7117817  0.070604103   -3.2279729    1.5161912   469989 
 7705000    1.0832367   -3.2299088   -1.7121532  0.069110045   -3.2299088    1.5177556   470042 
 7706000     1.082715   -3.2288286   -1.7118267  0.075639632   -3.2288286    1.5170019   470049 
 7707000     1.080937     -3.22745   -1.7128812  0.071515255     -3.22745    1.5145689   470031 
 7708000    1.0825483   -3.2303517   -1.7134478  0.074031865   -3.2303517    1.5169039   470007 
 7709000    1.0810354   -3.2279512   -1.7131446   0.07566527   -3.2279512    1.5148067   470000 
 7710000    1.0815004   -3.2299875   -1.7145229  0.072592049   -3.2299875    1.5154646   469998 
 7711000    1.0808547    -3.229043   -1.7144155  0.072271178    -3.229043    1.5146275   469977 
 7712000     1.080002   -3.2280324   -1.7145354  0.075529171   -3.2280324    1.5134971   469957 
 7713000    1.0817721   -3.2313123   -1.7154411  0.067262137   -3.2313123    1.5158711   469990 
 7714000    1.0819761   -3.2299213   -1.7138321  0.070432121   -3.2299213    1.5160892   470011 
 7715000    1.0836635   -3.2308835   -1.7124039  0.078064299   -3.2308835    1.5184796   470003 
 7716000    1.0822254   -3.2303222   -1.7138255  0.071134741   -3.2303222    1.5164966   469993 
 7717000    1.0829261   -3.2301955   -1.7128396  0.070042481   -3.2301955    1.5173559   470031 
 7718000    1.0831466   -3.2294063   -1.7117286  0.078783209   -3.2294063    1.5176777   470027 
 7719000    1.0824085   -3.2288931   -1.7121947  0.076557254   -3.2288931    1.5166983   470010 
 7720000    1.0833196   -3.2290467   -1.7111492  0.077983599   -3.2290467    1.5178975   470034 
 7721000    1.0832517   -3.2320399    -1.714215  0.073641673   -3.2320399     1.517825   470027 
 7722000    1.0820166   -3.2288713   -1.7127576  0.074243992   -3.2288713    1.5161137   470021 
 7723000    1.0817117   -3.2299842   -1.7142622  0.070413559   -3.2299842    1.5157221   470010 
 7724000     1.082179   -3.2310519   -1.7146139  0.074161831   -3.2310519    1.5164381   469991 
 7725000    1.0808999   -3.2299482   -1.7154217  0.075699823   -3.2299482    1.5145265   470028 
 7726000     1.079362    -3.227636   -1.7152065  0.069313844    -3.227636    1.5124295   470010 
 7727000    1.0800566   -3.2278466    -1.714434  0.070554262   -3.2278466    1.5134125   470007 
 7728000    1.0800404   -3.2286787   -1.7153404   0.07039261   -3.2286787    1.5133382   470023 
 7729000    1.0786131   -3.2270283   -1.7157542  0.075112251   -3.2270283    1.5112741   470043 
 7730000    1.0792292   -3.2261168   -1.7139312  0.074463814   -3.2261168    1.5121855   470028 
 7731000    1.0803007   -3.2274363   -1.7138492  0.071077955   -3.2274363    1.5135871   470059 
 7732000    1.0816279   -3.2283021   -1.7129264  0.074545635   -3.2283021    1.5153757   470081 
 7733000    1.0810695   -3.2270034   -1.7123939  0.070871229   -3.2270034    1.5146094   470076 
 7734000     1.080484   -3.2272517   -1.7134593  0.072836827   -3.2272517    1.5137924   470075 
 7735000    1.0804719   -3.2274605   -1.7136335  0.074915388   -3.2274605     1.513827   470059 
 7736000    1.0795754   -3.2257379   -1.7131026  0.076881367   -3.2257379    1.5126353   470039 
 7737000    1.0816702   -3.2285283   -1.7129999  0.068256918   -3.2285283    1.5155285   470052 
 7738000    1.0797454   -3.2256087   -1.7128898  0.068251561   -3.2256087    1.5127189   470087 
 7739000     1.078983   -3.2246075   -1.7130562  0.072273187   -3.2246075    1.5115512   470118 
 7740000    1.0793212   -3.2260644   -1.7141392  0.069830349   -3.2260644    1.5119253   470149 
 7741000    1.0805918   -3.2281362   -1.7143893  0.066922065   -3.2281362    1.5137469   470136 
 7742000    1.0814598   -3.2283674   -1.7135044   0.06680366   -3.2283674     1.514863   470167 
 7743000    1.0806641   -3.2263273   -1.7126431  0.070460269   -3.2263273    1.5136841   470187 
 7744000    1.0814859   -3.2284575   -1.7136061  0.069483693   -3.2284575    1.5148513   470182 
 7745000    1.0808772   -3.2287594   -1.7146898  0.069587901   -3.2287594    1.5140695   470160 
 7746000    1.0797786   -3.2271158   -1.7145465  0.073012956   -3.2271158    1.5125693   470148 
 7747000    1.0801296   -3.2271795   -1.7141378  0.073786958   -3.2271795    1.5130416   470154 
 7748000    1.0807328   -3.2284165   -1.7145235  0.074658938   -3.2284165     1.513893   470152 
 7749000    1.0812892   -3.2289027   -1.7141691  0.070230066   -3.2289027    1.5147336   470133 
 7750000    1.0813877   -3.2293609   -1.7144441  0.068635496   -3.2293609    1.5149167   470119 
 7751000    1.0798025   -3.2279052   -1.7151545  0.071968742   -3.2279052    1.5127508   470102 
 7752000    1.0793369   -3.2275736   -1.7153981  0.067611306   -3.2275736    1.5121756   470078 
 7753000     1.080081   -3.2271213   -1.7139579  0.074149277   -3.2271213    1.5131634   470095 
 7754000    1.0800772   -3.2280535   -1.7149985  0.072686627   -3.2280535    1.5130551   470127 
 7755000    1.0806362   -3.2293749   -1.7155496  0.065640318   -3.2293749    1.5138253   470131 
 7756000    1.0795874   -3.2292848    -1.716977   0.06572312   -3.2292848    1.5123078   470146 
 7757000    1.0783344   -3.2274617   -1.7168931  0.076181859   -3.2274617    1.5105686   470141 
 7758000    1.0786269   -3.2271915   -1.7162067  0.070237642   -3.2271915    1.5109849   470139 
 7759000    1.0811587   -3.2290607   -1.7146323  0.076117376   -3.2290607    1.5144284   470171 
 7760000    1.0809769   -3.2283179   -1.7141441   0.07192787   -3.2283179    1.5141738   470171 
 7761000    1.0811287   -3.2293758   -1.7148928  0.069857997   -3.2293758    1.5144829   470141 
 7762000    1.0787751   -3.2252177   -1.7140767  0.073314105   -3.2252177     1.511141   470155 
 7763000    1.0801023   -3.2266698   -1.7138113  0.069630057   -3.2266698    1.5128585   470199 
 7764000    1.0808704   -3.2281672   -1.7143166  0.067024701   -3.2281672    1.5138506   470225 
 7765000    1.0793884   -3.2264417   -1.7147085  0.070073684   -3.2264417    1.5117333   470238 
 7766000     1.078887   -3.2262622   -1.7153084  0.064894744   -3.2262622    1.5109539   470262 
 7767000    1.0804571   -3.2279508   -1.7148624   0.06956524   -3.2279508    1.5130884   470282 
 7768000    1.0790394   -3.2248555   -1.7137492  0.076180571   -3.2248555    1.5111063   470281 
 7769000    1.0810318   -3.2285245   -1.7146989   0.07563843   -3.2285245    1.5138256   470303 
 7770000    1.0812548   -3.2269261    -1.712859  0.071680957   -3.2269261    1.5140671   470325 
 7771000    1.0815985    -3.227295   -1.7127532  0.067391576    -3.227295    1.5145419   470327 
 7772000    1.0809772    -3.226056   -1.7124227  0.069393724    -3.226056    1.5136333   470339 
 7773000    1.0809896   -3.2260403   -1.7124089  0.072272798   -3.2260403    1.5136313   470345 
 7774000    1.0802252   -3.2259957   -1.7133929  0.078426106   -3.2259957    1.5126028   470332 
 7775000    1.0806851   -3.2272095   -1.7140368  0.065014595   -3.2272095    1.5131728   470355 
 7776000    1.0809145   -3.2265848    -1.713123  0.071910683   -3.2265848    1.5134618   470365 
 7777000    1.0821542   -3.2295444   -1.7144724   0.07081403   -3.2295444    1.5150721   470404 
 7778000    1.0813253   -3.2276915   -1.7137769  0.072474244   -3.2276915    1.5139147   470403 
 7779000    1.0817489   -3.2272506   -1.7128297  0.072182075   -3.2272506    1.5144209   470430 
 7780000    1.0817016   -3.2269814   -1.7127748  0.071058831   -3.2269814    1.5142066   470476 
 7781000    1.0799116   -3.2259525   -1.7141681  0.070203171   -3.2259525    1.5117844   470450 
 7782000    1.0799805   -3.2244597   -1.7125821  0.072307996   -3.2244597    1.5118776   470451 
 7783000    1.0796403   -3.2256852   -1.7142357  0.076344409   -3.2256852    1.5114496   470436 
 7784000    1.0815826   -3.2283324   -1.7141379  0.069999101   -3.2283324    1.5141944   470428 
 7785000    1.0808823   -3.2279995   -1.7148755  0.069958332   -3.2279995     1.513124   470456 
 7786000    1.0810545   -3.2288616   -1.7156381  0.072926755   -3.2288616    1.5132235   470500 
 7787000    1.0795075   -3.2256104   -1.7146551  0.072309839   -3.2256104    1.5109553   470532 
 7788000     1.081554   -3.2282415   -1.7145343  0.071145164   -3.2282415    1.5137072   470567 
 7789000    1.0818154   -3.2284758   -1.7144607  0.067782832   -3.2284758    1.5140152   470585 
 7790000    1.0809787   -3.2290193   -1.7161013  0.067862641   -3.2290193     1.512918   470562 
 7791000    1.0807483    -3.227791   -1.7151406  0.072963963    -3.227791    1.5126503   470545 
 7792000    1.0824456   -3.2284743   -1.7137575  0.072182399   -3.2284743    1.5147168   470641 
 7793000    1.0836653    -3.229803   -1.7135178  0.074995283    -3.229803    1.5162851   470684 
 7794000    1.0824464   -3.2280413   -1.7135196  0.069938611   -3.2280413    1.5145217   470702 
 7795000    1.0828902   -3.2272153   -1.7120952   0.07533945   -3.2272153    1.5151201   470709 
 7796000    1.0826543   -3.2283369   -1.7135372    0.0720681   -3.2283369    1.5147997   470706 
 7797000    1.0833102   -3.2290482    -1.713247   0.06626031   -3.2290482    1.5158012   470680 
 7798000    1.0816757   -3.2273696   -1.7139584  0.072675972   -3.2273696    1.5134111   470712 
 7799000    1.0846036   -3.2297434   -1.7122938  0.069166704   -3.2297434    1.5174497   470730 
 7800000    1.0847785   -3.2288811   -1.7112673  0.070839349   -3.2288811    1.5176138   470755 
 7801000    1.0831624   -3.2269009   -1.7116157  0.075518491   -3.2269009    1.5152852   470776 
 7802000    1.0828546   -3.2264128   -1.7117158  0.072409484   -3.2264128     1.514697   470825 
 7803000    1.0818354   -3.2241017   -1.7107499  0.078164811   -3.2241017    1.5133517   470800 
 7804000    1.0834746   -3.2254645   -1.7098326  0.071476722   -3.2254645    1.5156319   470804 
 7805000    1.0852737   -3.2271285   -1.7089025  0.075468865   -3.2271285    1.5182259   470780 
 7806000    1.0832866   -3.2256839   -1.7102926  0.071710987   -3.2256839    1.5153914   470797 
 7807000    1.0809935   -3.2226648   -1.7105036  0.075778787   -3.2226648    1.5121612   470804 
 7808000    1.0819822    -3.225877   -1.7123843  0.071668627    -3.225877    1.5134927   470820 
 7809000    1.0830045   -3.2272845   -1.7124518  0.066684082   -3.2272845    1.5148327   470848 
 7810000    1.0819237   -3.2253617   -1.7120569  0.068426128   -3.2253617    1.5133049   470853 
 7811000    1.0828114   -3.2265983   -1.7121837  0.073997645   -3.2265983    1.5144147   470894 
 7812000    1.0824718   -3.2267786   -1.7127908  0.066307154   -3.2267786    1.5139879   470879 
 7813000    1.0815337   -3.2246224   -1.7121137  0.070376222   -3.2246224    1.5125087   470931 
 7814000    1.0808689   -3.2238441   -1.7121366  0.070348079   -3.2238441    1.5117074   470891 
 7815000    1.0821175   -3.2242999   -1.7109811  0.069541372   -3.2242999    1.5133188   470933 
 7816000    1.0818686   -3.2235196   -1.7106646  0.071182028   -3.2235196     1.512855   470969 
 7817000    1.0812053   -3.2217027   -1.7098683  0.076173596   -3.2217027    1.5118344   470998 
 7818000    1.0827099   -3.2242135   -1.7102816   0.07316431   -3.2242135    1.5139319   471000 
 7819000    1.0824266   -3.2238065   -1.7103415  0.074551908   -3.2238065     1.513465   471022 
 7820000    1.0834558   -3.2248163   -1.7099733  0.072307703   -3.2248163     1.514843   471041 
 7821000    1.0828672   -3.2241708   -1.7101218  0.071361856   -3.2241708     1.514049   471032 
 7822000     1.085015   -3.2248512   -1.7078378   0.07571296   -3.2248512    1.5170134   471044 
 7823000    1.0825639   -3.2222913   -1.7086728  0.074612176   -3.2222913    1.5136184   471034 
 7824000    1.0832452   -3.2244724   -1.7099914  0.071175259   -3.2244724     1.514481   471062 
 7825000    1.0836116   -3.2263859   -1.7113573  0.069187274   -3.2263859    1.5150287   471051 
 7826000    1.0834812   -3.2256282   -1.7108236  0.070584777   -3.2256282    1.5148046   471064 
 7827000    1.0830108   -3.2257901   -1.7116754  0.074378184   -3.2257901    1.5141147   471074 
 7828000    1.0838115   -3.2259864   -1.7107619  0.068537941   -3.2259864    1.5152245   471077 
 7829000    1.0849498   -3.2278614    -1.710994  0.073200793   -3.2278614    1.5168674   471061 
 7830000     1.084697   -3.2277538   -1.7113299  0.070530825   -3.2277538    1.5164239   471089 
 7831000    1.0828873   -3.2251754   -1.7113715  0.073273849   -3.2251754    1.5138039   471117 
 7832000    1.0838142   -3.2260868   -1.7110547  0.071677467   -3.2260868    1.5150321   471138 
 7833000    1.0813969    -3.222589   -1.7110001  0.067877724    -3.222589    1.5115889   471158 
 7834000    1.0823896   -3.2250153    -1.711965  0.069563017   -3.2250153    1.5130503   471135 
 7835000     1.082013   -3.2264885   -1.7140128  0.068528594   -3.2264885    1.5124758   471150 
 7836000    1.0831553   -3.2292544   -1.7151787  0.064693269   -3.2292544    1.5140757   471149 
 7837000    1.0822654   -3.2271252   -1.7143641  0.065091646   -3.2271252    1.5127611   471171 
 7838000      1.08425   -3.2292565     -1.71367   0.07093265   -3.2292565    1.5155865   471155 
 7839000    1.0826365   -3.2270017   -1.7137443  0.077198777   -3.2270017    1.5132574   471178 
 7840000      1.08217    -3.225461   -1.7128685  0.073446577    -3.225461    1.5125925   471182 
 7841000    1.0832272   -3.2268746   -1.7128109  0.071079465   -3.2268746    1.5140637   471184 
 7842000    1.0838188   -3.2266011   -1.7116752  0.078301591   -3.2266011    1.5149259   471173 
 7843000    1.0846232   -3.2287022   -1.7127549  0.074189138   -3.2287022    1.5159473   471205 
 7844000    1.0844228   -3.2287114   -1.7131341  0.077819288   -3.2287114    1.5155772   471233 
 7845000    1.0854547   -3.2291416   -1.7122575  0.077267593   -3.2291416    1.5168842   471275 
 7846000    1.0847303   -3.2281958   -1.7123592  0.075924592   -3.2281958    1.5158365   471286 
 7847000    1.0862611   -3.2292198   -1.7112377  0.074979016   -3.2292198    1.5179821   471284 
 7848000    1.0847835   -3.2291179   -1.7131395  0.075139215   -3.2291179    1.5159784   471265 
 7849000    1.0862971   -3.2310077   -1.7130203  0.070614212   -3.2310077    1.5179874   471298 
 7850000    1.0841666   -3.2268641   -1.7119376  0.074527432   -3.2268641    1.5149266   471324 
 7851000    1.0851033   -3.2286275   -1.7123856  0.072717264   -3.2286275    1.5162419   471322 
 7852000    1.0865005   -3.2284423   -1.7103769  0.076088541   -3.2284423    1.5180654   471362 
 7853000    1.0840231   -3.2271366   -1.7126129  0.074761629   -3.2271366    1.5145237   471387 
 7854000    1.0828088   -3.2256239   -1.7127037  0.070811326   -3.2256239    1.5129202   471358 
 7855000    1.0833508   -3.2260194   -1.7123547  0.078900809   -3.2260194    1.5136647   471362 
 7856000    1.0831418   -3.2256065   -1.7122788  0.075298477   -3.2256065    1.5133277   471376 
 7857000     1.083818   -3.2259529   -1.7116516  0.074349507   -3.2259529    1.5143013   471367 
 7858000    1.0861233   -3.2295738   -1.7120514  0.070277188   -3.2295738    1.5175224   471367 
 7859000    1.0835765   -3.2270743   -1.7131681   0.07325229   -3.2270743    1.5139062   471385 
 7860000    1.0826345   -3.2244754   -1.7119143  0.074317897   -3.2244754    1.5125611   471394 
 7861000    1.0838856   -3.2246559   -1.7103147   0.07479271   -3.2246559    1.5143413   471384 
 7862000    1.0841839   -3.2263135   -1.7115748  0.069168937   -3.2263135    1.5147388   471390 
 7863000    1.0830797    -3.223998   -1.7108598   0.07033286    -3.223998    1.5131382   471408 
 7864000    1.0824382   -3.2241089   -1.7119921  0.068112304   -3.2241089    1.5121169   471447 
 7865000     1.083264   -3.2251103   -1.7119168  0.068025736   -3.2251103    1.5131935   471471 
 7866000    1.0843979   -3.2262613   -1.7113521  0.068995172   -3.2262613    1.5149092   471430 
 7867000    1.0852405   -3.2280545   -1.7120486  0.066579694   -3.2280545    1.5160058   471455 
 7868000    1.0851328   -3.2269544    -1.711189  0.070942944   -3.2269544    1.5157653   471483 
 7869000    1.0827978   -3.2244322   -1.7118355  0.069222737   -3.2244322    1.5125968   471454 
 7870000    1.0837243   -3.2248835   -1.7108608  0.069492927   -3.2248835    1.5140227   471413 
 7871000      1.08452   -3.2264802   -1.7112076  0.071305681   -3.2264802    1.5152726   471370 
 7872000    1.0837436   -3.2251495   -1.7111383   0.07413706   -3.2251495    1.5140111   471425 
 7873000    1.0836336   -3.2247143   -1.7109565  0.069062555   -3.2247143    1.5137579   471456 
 7874000     1.082888   -3.2243742   -1.7117348  0.070188482   -3.2243742    1.5126394   471480 
 7875000    1.0825062   -3.2247008   -1.7124761  0.070970159   -3.2247008    1.5122247   471443 
 7876000    1.0832689   -3.2248071   -1.7115748   0.07181333   -3.2248071    1.5132324   471461 
 7877000    1.0850138   -3.2278759   -1.7120582  0.072999327   -3.2278759    1.5158177   471415 
 7878000    1.0839431   -3.2276736   -1.7133805  0.069898541   -3.2276736    1.5142931   471424 
 7879000    1.0841662   -3.2272764   -1.7127328   0.07469252   -3.2272764    1.5145436   471443 
 7880000    1.0840939   -3.2259582   -1.7115284  0.072397125   -3.2259582    1.5144298   471447 
 7881000     1.082858   -3.2260717   -1.7133009  0.067905067   -3.2260717    1.5127707   471426 
 7882000    1.0822645   -3.2248855   -1.7128925  0.074335274   -3.2248855    1.5119929   471410 
 7883000    1.0840164   -3.2267551   -1.7123565  0.071522773   -3.2267551    1.5143986   471423 
 7884000    1.0847396   -3.2278044   -1.7125562  0.069115104   -3.2278044    1.5152482   471473 
 7885000    1.0837877   -3.2272206   -1.7132057  0.073074867   -3.2272206    1.5140149   471443 
 7886000    1.0845813   -3.2278821   -1.7127649  0.070280578   -3.2278821    1.5151172   471445 
 7887000    1.0835838   -3.2262899    -1.712624  0.070729355   -3.2262899    1.5136659   471463 
 7888000    1.0844389    -3.228171   -1.7134617  0.073467132    -3.228171    1.5147094   471510 
 7889000    1.0845435   -3.2279647   -1.7130547  0.071619642   -3.2279647      1.51491   471493 
 7890000    1.0844612   -3.2274184   -1.7126457  0.075690693   -3.2274184    1.5147726   471500 
 7891000    1.0864625   -3.2285192   -1.7109833  0.067989376   -3.2285192    1.5175359   471510 
 7892000    1.0871072   -3.2308399   -1.7125002  0.070695531   -3.2308399    1.5183397   471540 
 7893000     1.087243   -3.2307595   -1.7121753  0.074478704   -3.2307595    1.5185842   471523 
 7894000     1.087065   -3.2307176   -1.7124722  0.079298313   -3.2307176    1.5182454   471551 
 7895000     1.084798   -3.2278918   -1.7127741  0.077186057   -3.2278918    1.5151178   471539 
 7896000    1.0853635   -3.2287224   -1.7128212  0.070233319   -3.2287224    1.5159012   471541 
 7897000    1.0828093   -3.2264468   -1.7142316  0.074479587   -3.2264468    1.5122152   471578 
 7898000    1.0845285   -3.2281107    -1.713501  0.074702635   -3.2281107    1.5146096   471580 
 7899000    1.0843339   -3.2300606   -1.7155846  0.074800704   -3.2300606     1.514476   471537 
 7900000    1.0842669   -3.2304855   -1.7161737  0.073053104   -3.2304855    1.5143117   471559 
 7901000    1.0825541   -3.2281987   -1.7162085   0.07195519   -3.2281987    1.5119902   471537 
 7902000    1.0816333   -3.2284571   -1.7177242  0.072835642   -3.2284571    1.5107329   471528 
 7903000    1.0833243   -3.2299442   -1.7168783  0.068413024   -3.2299442    1.5130659   471537 
 7904000    1.0823838   -3.2274547   -1.7156864  0.076470167   -3.2274547    1.5117683   471532 
 7905000    1.0833243   -3.2294361   -1.7164312  0.072904294   -3.2294361    1.5130049   471556 
 7906000    1.0851642   -3.2315609   -1.7160956  0.074286089   -3.2315609    1.5154653   471590 
 7907000    1.0840212   -3.2290214   -1.7152358   0.06980886   -3.2290214    1.5137856   471616 
 7908000    1.0853108   -3.2308192   -1.7152295  0.067672859   -3.2308192    1.5155897   471615 
 7909000    1.0849383   -3.2312105   -1.7160638  0.070639947   -3.2312105    1.5151466   471591 
 7910000    1.0853902   -3.2318412   -1.7159992  0.075156965   -3.2318412     1.515842   471571 
 7911000    1.0856293   -3.2334633   -1.7173613  0.071598314   -3.2334633    1.5161019   471594 
 7912000    1.0850059      -3.2323   -1.7171007  0.064253051      -3.2323    1.5151992   471604 
 7913000    1.0830984   -3.2301399   -1.7177423  0.072624766   -3.2301399    1.5123976   471647 
 7914000    1.0838311   -3.2310598   -1.7176487  0.066945804   -3.2310598    1.5134111   471650 
 7915000    1.0820082   -3.2303796   -1.7195972   0.06802939   -3.2303796    1.5107824   471676 
 7916000    1.0830918   -3.2307507   -1.7185707  0.072582992   -3.2307507      1.51218   471712 
 7917000    1.0821215   -3.2303297   -1.7195174  0.070475517   -3.2303297    1.5108124   471716 
 7918000    1.0854303   -3.2333097   -1.7178905  0.064394217   -3.2333097    1.5154192   471720 
 7919000    1.0837573    -3.232102   -1.7192559  0.071308188    -3.232102    1.5128461   471794 
 7920000    1.0828973   -3.2312106   -1.7195266  0.069205444   -3.2312106     1.511684   471782 
 7921000    1.0840355   -3.2320311   -1.7188607  0.067523043   -3.2320311    1.5131704   471814 
 7922000    1.0830497   -3.2302934   -1.7185505  0.076686791   -3.2302934    1.5117429   471830 
 7923000    1.0832064   -3.2296076   -1.7176683  0.078059549   -3.2296076    1.5119393   471837 
 7924000    1.0860388    -3.233918   -1.7179545   0.06969582    -3.233918    1.5159635   471815 
 7925000    1.0851056    -3.232529    -1.717913  0.073792352    -3.232529    1.5146159   471829 
 7926000    1.0862123   -3.2340531   -1.7179213  0.069626781   -3.2340531    1.5161317   471838 
 7927000    1.0842078   -3.2318543   -1.7185717  0.073006714   -3.2318543    1.5132826   471854 
 7928000    1.0844974   -3.2317518   -1.7180331  0.073679423   -3.2317518    1.5137188   471844 
 7929000    1.0837505   -3.2311085   -1.7183969  0.070045608   -3.2311085    1.5127116   471833 
 7930000    1.0847287   -3.2325553   -1.7185554  0.073420379   -3.2325553    1.5139999   471857 
 7931000    1.0857061   -3.2342264   -1.7187595  0.069005744   -3.2342264     1.515467   471825 
 7932000    1.0844335   -3.2325249   -1.7188664  0.073122838   -3.2325249    1.5136586   471835 
 7933000    1.0859449   -3.2350917   -1.7193396  0.071874665   -3.2350917    1.5157521   471840 
 7934000    1.0856058   -3.2335171   -1.7183507  0.073842676   -3.2335171    1.5151664   471875 
 7935000    1.0853472   -3.2351154   -1.7202715   0.07146219   -3.2351154    1.5148439   471863 
 7936000    1.0828139   -3.2320368   -1.7206869  0.074964172   -3.2320368    1.5113499   471850 
 7937000    1.0836612   -3.2320842     -1.71968  0.074058036   -3.2320842    1.5124042   471890 
 7938000    1.0842708   -3.2323422   -1.7191385  0.074430583   -3.2323422    1.5132037   471906 
 7939000    1.0847814   -3.2321751   -1.7181657  0.074824001   -3.2321751    1.5140093   471877 
 7940000    1.0844353   -3.2320946   -1.7186869  0.071157918   -3.2320946    1.5134076   471914 
 7941000    1.0842106   -3.2317738   -1.7186125  0.075491776   -3.2317738    1.5131613   471893 
 7942000    1.0843986   -3.2334098   -1.7199925  0.067765052   -3.2334098    1.5134174   471895 
 7943000    1.0833063   -3.2315984   -1.7197888  0.073730019   -3.2315984    1.5118096   471921 
 7944000    1.0839965    -3.231565   -1.7188755  0.069239544    -3.231565    1.5126895   471947 
 7945000    1.0847167   -3.2312047   -1.7175456    0.0716049   -3.2312047    1.5136592   471958 
 7946000    1.0847092   -3.2298362   -1.7161971  0.073202092   -3.2298362    1.5136391   471961 
 7947000    1.0855598   -3.2326839   -1.7177839  0.072361293   -3.2326839       1.5149   471938 
 7948000    1.0844612   -3.2287837   -1.7154746  0.075303803   -3.2287837     1.513309   471956 
 7949000    1.0849343   -3.2316865   -1.7177204  0.070963976   -3.2316865    1.5139661   471957 
 7950000    1.0865723   -3.2325194   -1.7162611  0.073842105   -3.2325194    1.5162583   471955 
 7951000    1.0837649   -3.2290633   -1.7167964  0.069645574   -3.2290633    1.5122669   471978 
 7952000    1.0848785   -3.2300863   -1.7163681  0.074529294   -3.2300863    1.5137183   472010 
 7953000    1.0834228   -3.2281266    -1.716462  0.073216214   -3.2281266    1.5116646   472017 
 7954000    1.0840698   -3.2292766   -1.7168149  0.072806571   -3.2292766    1.5124617   472050 
 7955000    1.0850055   -3.2278686   -1.7142073  0.068139932   -3.2278686    1.5136613   472083 
 7956000    1.0844603    -3.227997   -1.7152245  0.070525378    -3.227997    1.5127725   472123 
 7957000    1.0850414   -3.2290523   -1.7154306  0.071461172   -3.2290523    1.5136217   472111 
 7958000    1.0861972   -3.2299592    -1.714783  0.069817296   -3.2299592    1.5151761   472129 
 7959000    1.0843812   -3.2270474   -1.7144877  0.067620396   -3.2270474    1.5125597   472155 
 7960000    1.0855062   -3.2293833   -1.7152287  0.068645702   -3.2293833    1.5141546   472147 
 7961000    1.0863538   -3.2288067   -1.7134667  0.071592393   -3.2288067      1.51534   472146 
 7962000    1.0864865   -3.2282907   -1.7127784  0.072862858   -3.2282907    1.5155123   472150 
 7963000    1.0851776   -3.2257682   -1.7120687  0.075769653   -3.2257682    1.5136994   472146 
 7964000    1.0866338   -3.2277126   -1.7119788   0.07661883   -3.2277126    1.5157339   472145 
 7965000    1.0867544    -3.228427   -1.7125281  0.075299514    -3.228427    1.5158989   472146 
 7966000    1.0854929    -3.227575   -1.7134486  0.073835514    -3.227575    1.5141264   472150 
 7967000    1.0850312   -3.2271098   -1.7136595  0.071432967   -3.2271098    1.5134504   472160 
 7968000    1.0862737   -3.2289432   -1.7137919  0.073370799   -3.2289432    1.5151513   472170 
 7969000    1.0843601   -3.2260504   -1.7136322  0.073119391   -3.2260504    1.5124182   472190 
 7970000    1.0845245   -3.2263726   -1.7136579  0.073090053   -3.2263726    1.5127147   472169 
 7971000    1.0854343   -3.2277103    -1.713701  0.066378241   -3.2277103    1.5140093   472161 
 7972000    1.0838114   -3.2263191    -1.714583  0.066533136   -3.2263191    1.5117361   472164 
 7973000    1.0841452   -3.2263903   -1.7142047   0.06960174   -3.2263903    1.5121856   472169 
 7974000    1.0859889   -3.2304347   -1.7156518  0.066602521   -3.2304347    1.5147829   472161 
 7975000    1.0831099   -3.2277389   -1.7169174  0.073695685   -3.2277389    1.5108216   472144 
 7976000    1.0831842   -3.2271427   -1.7162271  0.072125034   -3.2271427    1.5109156   472147 
 7977000    1.0835485   -3.2268659   -1.7154902  0.073647691   -3.2268659    1.5113757   472162 
 7978000    1.0845986   -3.2279664    -1.715113  0.065241198   -3.2279664    1.5128534   472158 
 7979000    1.0849512   -3.2271364   -1.7139162  0.070754459   -3.2271364    1.5132202   472197 
 7980000    1.0837235   -3.2261188   -1.7146782  0.072695602   -3.2261188    1.5114405   472218 
 7981000    1.0852897   -3.2286863   -1.7151094  0.071565193   -3.2286863    1.5135769   472233 
 7982000    1.0861672   -3.2293055   -1.7146044  0.064173883   -3.2293055    1.5147012   472264 
 7983000    1.0850463   -3.2276306   -1.7146302  0.071316528   -3.2276306    1.5130004   472307 
 7984000      1.08687   -3.2310451   -1.7154505  0.068809168   -3.2310451    1.5155946   472291 
 7985000    1.0851321   -3.2281383   -1.7149606  0.075277767   -3.2281383    1.5131777   472289 
 7986000    1.0860345   -3.2298548   -1.7153804  0.066597018   -3.2298548    1.5144745   472277 
 7987000    1.0866337   -3.2309234    -1.715623  0.075652955   -3.2309234    1.5153004   472280 
 7988000     1.085987   -3.2296382   -1.7152074  0.069211169   -3.2296382    1.5144307   472270 
 7989000    1.0847174   -3.2282652   -1.7156628   0.07710412   -3.2282652    1.5126025   472288 
 7990000    1.0863246   -3.2301798   -1.7153489  0.070665291   -3.2301798    1.5148309   472292 
 7991000    1.0863405   -3.2302616   -1.7154503  0.070749453   -3.2302616    1.5148113   472305 
 7992000    1.0863248   -3.2297329   -1.7150684  0.072951451   -3.2297329    1.5146645   472344 
 7993000    1.0864442   -3.2298081   -1.7150286  0.074231927   -3.2298081    1.5147795   472360 
 7994000    1.0873382   -3.2312043   -1.7152039  0.075580925   -3.2312043    1.5160004   472368 
 7995000    1.0869709   -3.2320142   -1.7164715  0.070889492   -3.2320142    1.5155428   472351 
 7996000    1.0877466   -3.2321708   -1.7156011  0.075275248   -3.2321708    1.5165697   472368 
 7997000    1.0872249   -3.2310654   -1.7150657  0.076352855   -3.2310654    1.5159997   472319 
 7998000    1.0879957    -3.232135   -1.7150541   0.07832994    -3.232135    1.5170809   472317 
 7999000    1.0861496   -3.2300541   -1.7155025   0.07470521   -3.2300541    1.5145517   472303 
 8000000    1.0878883   -3.2335602   -1.7166226  0.070577728   -3.2335602    1.5169376   472315 
Loop time of 10224.2 on 192 procs for 5000000 steps with 472315 atoms

Performance: 211263.557 tau/day, 489.036 timesteps/s
99.1% CPU use with 192 MPI tasks x 1 OpenMP threads

MPI task timing breakdown:
Section |  min time  |  avg time  |  max time  |%varavg|  %CPU | %total
-----------------------------------------------------------------------
Pair    | 1673.7     | 3236.3     | 3581       |1002.4 |  99.1 | 31.65
Bond    | 3.2076     | 3.4072     | 3.5733     |   3.1 | 100.0 |  0.03
Neigh   | 1077.7     | 1603.5     | 1747       | 467.2 |  99.5 | 15.68
Comm    | 1185.3     | 1970.7     | 4045       |1734.9 |  98.9 | 19.27
Output  | 284.55     | 285.72     | 285.74     |   0.5 |  98.6 |  2.79
Modify  | 2892       | 2978.9     | 3391.6     | 292.3 |  99.2 | 29.14
Other   |            | 145.7      |            |       |       |  1.42

Nlocal:        2459.97 ave        2858 max        2185 min
Histogram: 2 2 9 69 99 8 0 1 1 1
Nghost:        3509.71 ave        3828 max        2622 min
Histogram: 3 8 31 5 1 0 0 0 68 76
Neighs:        66650.3 ave       75460 max       30837 min
Histogram: 6 5 9 2 1 1 0 8 85 75

Total # of neighbors = 12796861
Ave neighs/atom = 27.093912
Ave special neighs/atom = 0.0000000
Neighbor list builds = 505000
Dangerous builds = 450000

write_restart   restart_write.dat
System init for write_restart ...
write_data	data.write
System init for write_data ...
WARNING: Not all mixed pair coeffs generated from mixing. Use write_data with 'pair ij' option to store all pair coeffs. (src/write_data.cpp:312)

Total wall time: 2:50:28
