LAMMPS (29 Oct 2020)
  using 1 OpenMP thread(s) per MPI task
units           lj
atom_style      full
atom_modify     map array first cubes
dimension       3
boundary        p p f

variable        sigma           equal 1.0
variable        epsilon         equal 1.0

region 		box block 0 43 0 43 0 65

read_data       data.rigid
Reading data file ...
  orthogonal box = (0.0000000 0.0000000 0.0000000) to (14.285700 14.285700 13.000000)
  2 by 2 by 2 MPI processor grid
  reading atoms ...
  1143 atoms
Finding 1-2 1-3 1-4 neighbors ...
  special bond factors lj:    0.0      0.0      0.0     
  special bond factors coul:  0.0      0.0      0.0     
     0 = max # of 1-2 neighbors
     0 = max # of 1-3 neighbors
     0 = max # of 1-4 neighbors
     1 = max # of special neighbors
  special bonds CPU = 0.028 seconds
  read_data CPU = 0.058 seconds

replicate       3 3 6			# 490 cubes
Replicating atoms ...
WARNING: Replicating in a non-periodic dimension (src/replicate.cpp:75)
  orthogonal box = (0.0000000 0.0000000 0.0000000) to (42.857100 42.857100 78.000000)
  2 by 2 by 2 MPI processor grid
  61722 atoms
Finding 1-2 1-3 1-4 neighbors ...
  special bond factors lj:    0.0      0.0      0.0     
  special bond factors coul:  0.0      0.0      0.0     
     0 = max # of 1-2 neighbors
     0 = max # of 1-3 neighbors
     0 = max # of 1-4 neighbors
     1 = max # of special neighbors
  special bonds CPU = 0.002 seconds
  replicate CPU = 0.010 seconds

group           cubes type 2 3
61722 atoms in group cubes


## relax the structure

pair_style      soft 1.12
pair_coeff      1 1 0.0 0.0
pair_coeff      2 2 0.0
pair_coeff      3 3 0.0
pair_coeff      1 3 0.0 0.0
pair_coeff      2 3 0.0
pair_coeff      1 2 0.0 0.0

variable        prefactor equal ramp(0,60)
fix             soft all adapt 1 pair soft a * * v_prefactor

neighbor        0.3 bin
neigh_modify    delay 0 every 1 check yes

#fix             1     cubes rigid molecule

dump 		1 all movie 100 movie.avi type type

compute         tbig all temp
thermo_modify   temp tbig

thermo          100
run             1000
Neighbor list info ...
  update every 1 steps, delay 0 steps, check yes
  max neighbors/atom: 2000, page size: 100000
  master list distance cutoff = 1.42
  ghost atom cutoff = 1.42
  binsize = 0.71, bins = 61 61 110
  1 neighbor lists, perpetual/occasional/extra = 1 0 0
  (1) pair soft, perpetual
      attributes: half, newton on
      pair build: half/bin/newton
      stencil: half/bin/3d/newton
      bin: standard
Setting up Verlet run ...
  Unit style    : lj
  Current step  : 0
  Time step     : 0.005
Per MPI rank memory allocation (min/avg/max) = 7.037 | 7.079 | 7.111 Mbytes
Step Temp E_pair E_mol TotEng Press 
       0            0            0            0            0            0 
     100            0   0.90670399            0   0.90670399    2.1496369 
     200            0     1.813408            0     1.813408    4.2992737 
     300            0     2.720112            0     2.720112    6.4489106 
     400            0    3.6268159            0    3.6268159    8.5985474 
     500            0    4.5335199            0    4.5335199    10.748184 
     600            0    5.4402239            0    5.4402239    12.897821 
     700            0    6.3469279            0    6.3469279    15.047458 
     800            0    7.2536319            0    7.2536319    17.197095 
     900            0    8.1603359            0    8.1603359    19.346732 
    1000            0    9.0670399            0    9.0670399    21.496369 
Loop time of 1.90774 on 8 procs for 1000 steps with 61722 atoms

Performance: 226446.482 tau/day, 524.182 timesteps/s
99.1% CPU use with 8 MPI tasks x 1 OpenMP threads

MPI task timing breakdown:
Section |  min time  |  avg time  |  max time  |%varavg| %total
---------------------------------------------------------------
Pair    | 0.71866    | 1.0787     | 1.5015     |  28.1 | 56.54
Bond    | 9.6496e-05 | 0.00012678 | 0.00017299 |   0.0 |  0.01
Neigh   | 0          | 0          | 0          |   0.0 |  0.00
Comm    | 0.10969    | 0.26152    | 0.90087    |  48.2 | 13.71
Output  | 0.21867    | 0.22292    | 0.22711    |   0.9 | 11.69
Modify  | 0.0021789  | 0.0028964  | 0.0039985  |   1.3 |  0.15
Other   |            | 0.3416     |            |       | 17.90

Nlocal:        7715.25 ave        8250 max        7197 min
Histogram: 2 0 0 0 4 0 0 0 0 2
Nghost:        1653.75 ave        2172 max        1119 min
Histogram: 2 0 0 0 0 4 0 0 0 2
Neighs:        59413.5 ave       62718 max       56184 min
Histogram: 2 0 0 0 2 2 0 0 0 2

Total # of neighbors = 475308
Ave neighs/atom = 7.7007874
Ave special neighs/atom = 0.0000000
Neighbor list builds = 0
Dangerous builds = 0
unfix 		soft

reset_timestep 	0

# Jetzt die eigentliche verteilung

pair_style	lj/cut/opt 4.4
pair_modify	shift yes

pair_coeff	1 1 0.0 0.0

pair_coeff	2 2 1.0 1.0

pair_coeff	1 2 0.0 0.0

pair_coeff	1 3 0.0 0.0

pair_coeff	2 3 0.0 0.0

pair_coeff	3 3 0.0 0.0

comm_modify	cutoff 6.93

fix 		1 cubes rigid/small molecule
  create bodies CPU = 0.004 seconds
  54 rigid bodies with 61722 atoms
  6.9282032 = max distance from body owner to body atom


####################### WALLS ###########################

variable       epsilonWall equal 2*${epsilon}
variable       epsilonWall equal 2*1

variable       cutoffTop   equal   0.7147*${sigma}
variable       cutoffTop   equal   0.7147*1

variable       cutoffLow   equal   3*${sigma}
variable       cutoffLow   equal   3*1


fix            topWall all wall/lj93 zhi EDGE                ${epsilonWall} ${sigma} ${cutoffTop} units box
fix            topWall all wall/lj93 zhi EDGE                2 ${sigma} ${cutoffTop} units box
fix            topWall all wall/lj93 zhi EDGE                2 1 ${cutoffTop} units box
fix            topWall all wall/lj93 zhi EDGE                2 1 0.7147 units box

fix            lowWall all wall/lj93 zlo EDGE                ${epsilonWall} ${sigma} ${cutoffTop} units box
fix            lowWall all wall/lj93 zlo EDGE                2 ${sigma} ${cutoffTop} units box
fix            lowWall all wall/lj93 zlo EDGE                2 1 ${cutoffTop} units box
fix            lowWall all wall/lj93 zlo EDGE                2 1 0.7147 units box


velocity	all create ${temp} ${seed} loop geom
velocity	all create 0.5 ${seed} loop geom
velocity	all create 0.5 29045 loop geom
WARNING: Changing velocities of atoms in rigid bodies. This has no effect unless rigid bodies are rebuild (src/velocity.cpp:71)
WARNING: Cannot count rigid body degrees-of-freedom before bodies are fully initialized (src/RIGID/fix_rigid_small.cpp:1166)


############### Diagnostics and computes ###################
compute        com cubes          rigid/local   1 mol x y z
compute        quat cubes         rigid/local   1 mol quatw quati quatj quatk

thermo          1000
thermo_style    custom step temp epair evdwl etotal press pe ke vol
WARNING: New thermo_style command, previous thermo_modify settings will be lost (src/output.cpp:693)

#dump            1 all custom 100000 dump.lammpstrj id mol type x y z
dump            2 all image 10000 image.*.png type type

dump_modify     2 pad 8


dump            image cubes image 10000 image_cubes.*.png type type

dump_modify     image pad 8

dump            3 all movie 5000 movie.avi type type
dump           com cubes local 1000 dump.*.xyz c_com[*]
dump           quat cubes      local 1000 dump.*.quat c_quat[*]


restart         250000 restart.dat
timestep        0.005
timer           full
New timer settings: style=full  mode=nosync  timeout=off

run 		1000000
Neighbor list info ...
  update every 1 steps, delay 0 steps, check yes
  max neighbors/atom: 2000, page size: 100000
  master list distance cutoff = 4.7
  ghost atom cutoff = 6.93
  binsize = 2.35, bins = 19 19 34
  1 neighbor lists, perpetual/occasional/extra = 1 0 0
  (1) pair lj/cut/opt, perpetual
      attributes: half, newton on
      pair build: half/bin/newton
      stencil: half/bin/3d/newton
      bin: standard
Setting up Verlet run ...
  Unit style    : lj
  Current step  : 0
  Time step     : 0.005
Per MPI rank memory allocation (min/avg/max) = 30.59 | 30.82 | 31.04 Mbytes
Step Temp E_pair E_vdwl TotEng Press PotEng KinEng Volume 
       0   0.47432944  -0.44328253  -0.44328253   -0.4420491  -0.30933015  -0.44328253 0.0012334317    143265.02 
    1000   0.58399402   -0.4435677   -0.4435677   -0.4420491 -0.0086438073   -0.4435677 0.0015186002    143265.02 
    2000    2.0309427   -0.4473303   -0.4473303   -0.4420491 -0.022448701   -0.4473303 0.0052812012    143265.02 
    3000    8.9455126  -0.46531086  -0.46531086  -0.44204923 -0.036890003  -0.46531086  0.023261637    143265.02 
    4000    9.6252459  -0.46707819  -0.46707819  -0.44204899 -0.0047006387  -0.46707819  0.025029195    143265.02 
    5000    13.207632  -0.47661866  -0.47661866  -0.44227394  0.046684984  -0.47661866  0.034344722    143265.02 
    6000    15.306644  -0.48185192  -0.48185192  -0.44204899 -0.028976773  -0.48185192  0.039802929    143265.02 
    7000    20.504777  -0.49545388  -0.49545388  -0.44213388   0.04982162  -0.49545388  0.053319996    143265.02 
    8000     20.28804  -0.49480563  -0.49480563  -0.44204923  0.034351247  -0.49480563  0.052756398    143265.02 
    9000    21.936366  -0.49909437  -0.49909437  -0.44205172 -0.007582484  -0.49909437  0.057042655    143265.02 
   10000    23.010552  -0.50199939  -0.50199939  -0.44216345  0.087484709  -0.50199939  0.059835936    143265.02 
   11000     23.77774   -0.5039338   -0.5039338  -0.44210289 -0.072404555   -0.5039338  0.061830907    143265.02 
   12000    25.276084  -0.50789525  -0.50789525   -0.4421681  0.097454331  -0.50789525  0.065727156    143265.02 
   13000    26.241105  -0.51029047  -0.51029047   -0.4420539  0.063354586  -0.51029047  0.068236565    143265.02 
   14000    24.325592  -0.50530382  -0.50530382   -0.4420483 -0.014403528  -0.50530382  0.063255525    143265.02 
   15000    22.780888  -0.50130387  -0.50130387  -0.44206514  0.055442392  -0.50130387  0.059238724    143265.02 
   16000    25.086731  -0.50752423  -0.50752423  -0.44228946   0.10399342  -0.50752423  0.065234768    143265.02 
   17000    23.644563  -0.50353478  -0.50353478  -0.44205018  0.051527958  -0.50353478  0.061484599    143265.02 
   18000    28.787549  -0.51690834  -0.51690834  -0.44205008 -0.037030458  -0.51690834  0.074858263    143265.02 
   19000    28.231245  -0.51549199  -0.51549199  -0.44208032   0.11778963  -0.51549199  0.073411666    143265.02 
   20000    26.485815  -0.51092587  -0.51092587  -0.44205297  0.054186797  -0.51092587  0.068872904    143265.02 
   21000    25.873345  -0.50933324  -0.50933324  -0.44205298 -0.037417529  -0.50933324  0.067280254    143265.02 
   22000    26.999921  -0.51244372  -0.51244372  -0.44223395   0.13308242  -0.51244372  0.070209769    143265.02 
   23000     28.77251  -0.51687337  -0.51687337  -0.44205422  0.070151363  -0.51687337  0.074819155    143265.02 
   24000     27.37704  -0.51336896  -0.51336896  -0.44217855 0.00017069985  -0.51336896  0.071190418    143265.02 
   25000    25.583092   -0.5085911   -0.5085911  -0.44206561 -0.00076582842   -0.5085911  0.066525489    143265.02 
   26000    26.880505  -0.51195296  -0.51195296  -0.44205371   0.18693209  -0.51195296  0.069899243    143265.02 
   27000    25.359259   -0.5081097   -0.5081097  -0.44216626 -0.012000453   -0.5081097  0.065943442    143265.02 
   28000    24.740151  -0.50638642  -0.50638642  -0.44205289  0.030699681  -0.50638642  0.064333533    143265.02 
   29000    27.870873  -0.51452958  -0.51452958  -0.44205502  0.017686462  -0.51452958  0.072474564    143265.02 
   30000     27.20691  -0.51280319  -0.51280319  -0.44205517   0.14630583  -0.51280319  0.070748017    143265.02 
   31000    27.216127  -0.51309139  -0.51309139   -0.4423194  0.014750421  -0.51309139  0.070771985    143265.02 
   32000    27.722709   -0.5141441   -0.5141441  -0.44205482   0.17664301   -0.5141441  0.072089285    143265.02 
   33000    25.866522  -0.50945425  -0.50945425  -0.44219174  0.065074986  -0.50945425  0.067262512    143265.02 
   34000    27.188847  -0.51284416  -0.51284416  -0.44214311 -0.0090708044  -0.51284416  0.070701047    143265.02 
   35000    27.435001  -0.51339638  -0.51339638  -0.44205524 -0.032806677  -0.51339638  0.071341138    143265.02 
   36000    26.091987  -0.50990283  -0.50990283  -0.44205402  0.085220019  -0.50990283  0.067848804    143265.02 
   37000      25.1644   -0.5074911   -0.5074911  -0.44205436  0.097236846   -0.5074911  0.065436737    143265.02 
   38000    26.670228  -0.51150015  -0.51150015  -0.44214771   0.11340899  -0.51150015  0.069352445    143265.02 
   39000    24.404473  -0.50551499  -0.50551499  -0.44205435  0.059228336  -0.50551499  0.063460645    143265.02 
   40000    28.332124  -0.51572978  -0.51572978  -0.44205579  0.024928629  -0.51572978  0.073673989    143265.02 
   41000    28.383273  -0.51595432  -0.51595432  -0.44214732   0.16426188  -0.51595432  0.073806993    143265.02 
   42000    32.471735  -0.52657241  -0.52657241   -0.4421339  0.026969296  -0.52657241  0.084438506    143265.02 
   43000    31.484146  -0.52434752  -0.52434752  -0.44247711  0.012678695  -0.52434752   0.08187041    143265.02 
   44000    28.703889  -0.51669603  -0.51669603  -0.44205532  0.060695132  -0.51669603  0.074640714    143265.02 
   45000    29.567229  -0.51962499  -0.51962499  -0.44273927  0.066562685  -0.51962499  0.076885719    143265.02 
   46000     29.80429  -0.52014451  -0.52014451  -0.44264234 -0.058500244  -0.52014451  0.077502164    143265.02 
   47000    31.388545  -0.52372782  -0.52372782  -0.44210601  0.078406252  -0.52372782  0.081621811    143265.02 
   48000    28.867806  -0.51712912  -0.51712912  -0.44206216  0.082982229  -0.51712912   0.07506696    143265.02 
   49000    28.431873  -0.51599495  -0.51599495  -0.44206158  0.051141148  -0.51599495  0.073933372    143265.02 
   50000    28.929036  -0.51730781  -0.51730781  -0.44208163  0.083035369  -0.51730781  0.075226181    143265.02 
   51000    28.702291  -0.51687398  -0.51687398  -0.44223742  0.031529527  -0.51687398  0.074636559    143265.02 
   52000    27.823239  -0.51440883  -0.51440883  -0.44205813   0.16595968  -0.51440883  0.072350699    143265.02 
   53000    27.218575  -0.51283652  -0.51283652  -0.44205817  0.031162105  -0.51283652  0.070778349    143265.02 
   54000     27.33017  -0.51365003  -0.51365003  -0.44258149    0.0752618  -0.51365003  0.071068538    143265.02 
   55000    29.079761  -0.51796482  -0.51796482   -0.4423467 -0.025270075  -0.51796482  0.075618122    143265.02 
   56000     30.84136  -0.52227858  -0.52227858  -0.44207965  0.091253421  -0.52227858   0.08019893    143265.02 
   57000    29.536869  -0.51895071  -0.51895071  -0.44214394   0.06193466  -0.51895071   0.07680677    143265.02 
   58000    29.457439  -0.51865683  -0.51865683  -0.44205661 0.0065805995  -0.51865683  0.076600223    143265.02 
   59000    26.951449  -0.51214041  -0.51214041  -0.44205669   0.16560213  -0.51214041  0.070083723    143265.02 
   60000     27.03446  -0.51242281  -0.51242281  -0.44212322 0.0056222727  -0.51242281  0.070299581    143265.02 
   61000    26.556936   -0.5111139   -0.5111139  -0.44205605  0.017227032   -0.5111139  0.069057844    143265.02 
   62000    26.712973  -0.51151971  -0.51151971  -0.44205611  0.057312979  -0.51151971  0.069463596    143265.02 
   63000    28.013164  -0.51524729  -0.51524729  -0.44240271  0.051071781  -0.51524729  0.072844575    143265.02 
   64000    28.235517  -0.51548895  -0.51548895  -0.44206618  0.045128533  -0.51548895  0.073422775    143265.02 
   65000    26.723549  -0.51155001  -0.51155001  -0.44205891 -0.035363532  -0.51155001    0.0694911    143265.02 
   66000    28.056704  -0.51501714  -0.51501714  -0.44205934 -0.0062658114  -0.51501714  0.072957794    143265.02 
   67000    30.150674  -0.52046213  -0.52046213  -0.44205924  0.012688429  -0.52046213   0.07840289    143265.02 
   68000    30.965071  -0.52257944  -0.52257944  -0.44205881  0.024516141  -0.52257944  0.080520623    143265.02 
   69000    32.797761  -0.52734535  -0.52734535  -0.44205906  0.067681922  -0.52734535  0.085286294    143265.02 
   70000     28.57565  -0.51643773  -0.51643773  -0.44213048  0.091579815  -0.51643773  0.074307247    143265.02 
   71000    31.168565  -0.52315526  -0.52315526  -0.44210548   0.13821017  -0.52315526  0.081049781    143265.02 
   72000    27.121806  -0.51278157  -0.51278157  -0.44225485 0.0075024645  -0.51278157  0.070526713    143265.02 
   73000    26.138405  -0.51003302  -0.51003302  -0.44206352  0.063533903  -0.51003302  0.067969508    143265.02 
   74000     26.90244  -0.51207243  -0.51207243  -0.44211615   0.15964082  -0.51207243  0.069956282    143265.02 
   75000    30.047562  -0.52058202  -0.52058202  -0.44244725 -0.011389737  -0.52058202  0.078134761    143265.02 
   76000    29.162471  -0.51789798  -0.51789798  -0.44206478  0.039599029  -0.51789798  0.075833197    143265.02 
   77000    29.409027  -0.51853888  -0.51853888  -0.44206455   0.11843112  -0.51853888  0.076474334    143265.02 
   78000    29.094244  -0.51779438  -0.51779438   -0.4421386 -0.0038738553  -0.51779438  0.075655781    143265.02 
   79000    29.009327  -0.51749815  -0.51749815  -0.44206319   0.19141989  -0.51749815  0.075434965    143265.02 
   80000    31.756257  -0.52464162  -0.52464162  -0.44206363 -0.016809357  -0.52464162  0.082577998    143265.02 
   81000     31.35783  -0.52384955  -0.52384955  -0.44230761 -0.084756682  -0.52384955  0.081541941    143265.02 
   82000     29.49101  -0.51874937  -0.51874937  -0.44206185 0.0051756354  -0.51874937   0.07668752    143265.02 
   83000    28.988714  -0.51744219  -0.51744219  -0.44206082  0.083906816  -0.51744219  0.075381366    143265.02 
   84000    27.934189  -0.51470018  -0.51470018  -0.44206097  0.042599609  -0.51470018  0.072639211    143265.02 
   85000    30.177019   -0.5206477   -0.5206477   -0.4421763  0.057079877   -0.5206477  0.078471396    143265.02 
   86000    28.669887  -0.51661553  -0.51661553  -0.44206323 -0.039954569  -0.51661553  0.074552298    143265.02 
   87000    29.147574  -0.51869027  -0.51869027  -0.44289581  0.046079776  -0.51869027  0.075794459    143265.02 
   88000    24.277645  -0.50518942  -0.50518942  -0.44205857  0.045964253  -0.50518942  0.063130846    143265.02 
   89000    28.546767  -0.51629068  -0.51629068  -0.44205854   0.05679243  -0.51629068   0.07423214    143265.02 
   90000    26.278292  -0.51054069  -0.51054069  -0.44220742  0.050104479  -0.51054069  0.068333267    143265.02 
   91000    26.150341  -0.51005831  -0.51005831  -0.44205777  0.046513862  -0.51005831  0.068000547    143265.02 
   92000    28.247281   -0.5155472   -0.5155472  -0.44209384  0.073461369   -0.5155472  0.073453364    143265.02 
   93000    29.746571  -0.51960231  -0.51960231  -0.44225024 -0.057364098  -0.51960231  0.077352073    143265.02 
   94000    30.201548  -0.52059296  -0.52059296  -0.44205777  0.033935399  -0.52059296  0.078535181    143265.02 
   95000    29.429178  -0.51860068  -0.51860068  -0.44207394 -0.020765738  -0.51860068  0.076526733    143265.02 
   96000    27.424645  -0.51404165  -0.51404165  -0.44272744  0.052507364  -0.51404165  0.071314207    143265.02 
   97000    27.647018  -0.51436213  -0.51436213  -0.44246967  0.022104168  -0.51436213   0.07189246    143265.02 
   98000    27.549006  -0.51369581  -0.51369581  -0.44205821   0.15366558  -0.51369581  0.071637591    143265.02 
   99000    27.723559  -0.51470266  -0.51470266  -0.44261117  0.063410318  -0.51470266  0.072091495    143265.02 
  100000    28.444269  -0.51610387  -0.51610387  -0.44213826   0.10624451  -0.51610387  0.073965606    143265.02 
  101000    28.828712   -0.5170222   -0.5170222   -0.4420569  0.044646609   -0.5170222    0.0749653    143265.02 
  102000    27.964874  -0.51478009  -0.51478009  -0.44206109   0.16888017  -0.51478009  0.072719002    143265.02 
  103000    28.015925  -0.51572441  -0.51572441  -0.44287266  0.054958815  -0.51572441  0.072851755    143265.02 
  104000    26.957057   -0.5121607   -0.5121607   -0.4420624  0.037565439   -0.5121607  0.070098306    143265.02 
  105000     25.59017  -0.50860618  -0.50860618  -0.44206228  0.078271635  -0.50860618  0.066543896    143265.02 
  106000    28.392548  -0.51592886  -0.51592886  -0.44209775  0.032429089  -0.51592886  0.073831114    143265.02 
  107000    27.601827  -0.51383707  -0.51383707  -0.44206212  0.052085027  -0.51383707  0.071774947    143265.02 
  108000    29.641398  -0.51930347  -0.51930347  -0.44222488  0.064919478  -0.51930347  0.077078584    143265.02 
  109000    29.741395  -0.51940012  -0.51940012  -0.44206151  0.028815669  -0.51940012  0.077338613    143265.02 
  110000    27.967166  -0.51482524  -0.51482524  -0.44210028  0.066965077  -0.51482524  0.072724962    143265.02 
  111000    27.882669   -0.5145679   -0.5145679  -0.44206266  0.067841625   -0.5145679  0.072505239    143265.02 
  112000    28.343798   -0.5157671   -0.5157671  -0.44206275  0.067660181   -0.5157671  0.073704346    143265.02 
  113000    26.250366  -0.51032309  -0.51032309  -0.44206245  0.032801075  -0.51032309  0.068260648    143265.02 
  114000    27.123199  -0.51326097  -0.51326097  -0.44273063 -0.043815735  -0.51326097  0.070530337    143265.02 
  115000    26.877418  -0.51195273  -0.51195273  -0.44206152 -0.047131339  -0.51195273  0.069891214    143265.02 
  116000    26.798939  -0.51183151  -0.51183151  -0.44214437 -0.0039758894  -0.51183151   0.06968714    143265.02 
  117000    26.532795  -0.51110672  -0.51110672  -0.44211165   0.10432077  -0.51110672  0.068995069    143265.02 
  118000    27.772765  -0.51429708  -0.51429708  -0.44207763  0.067404799  -0.51429708  0.072219449    143265.02 
  119000    27.302604  -0.51305883  -0.51305883  -0.44206197   0.01757189  -0.51305883  0.070996855    143265.02 
  120000    25.098348  -0.50732882  -0.50732882  -0.44206385  0.045215664  -0.50732882  0.065264975    143265.02 
  121000    25.891389  -0.50940679  -0.50940679  -0.44207961  0.051609319  -0.50940679  0.067327176    143265.02 
  122000    27.047843  -0.51239325  -0.51239325  -0.44205887  0.080200303  -0.51239325  0.070334383    143265.02 
  123000    27.868756   -0.5146603   -0.5146603  -0.44219123 -0.037369998   -0.5146603  0.072469062    143265.02 
  124000    28.291854  -0.51566019  -0.51566019  -0.44209092 -0.023668758  -0.51566019  0.073569271    143265.02 
  125000    27.419708  -0.51419431  -0.51419431  -0.44289294 -0.014111087  -0.51419431  0.071301369    143265.02 
  126000     25.34972  -0.50835503  -0.50835503  -0.44243639  0.041878136  -0.50835503  0.065918636    143265.02 
  127000    25.242022   -0.5088765   -0.5088765  -0.44323792   0.13182284   -0.5088765  0.065638581    143265.02 
  128000    27.857849  -0.51479618  -0.51479618  -0.44235548   0.22973102  -0.51479618  0.072440698    143265.02 
  129000    27.302343  -0.51319917  -0.51319917  -0.44220299  0.051581863  -0.51319917  0.070996178    143265.02 
  130000    24.315773  -0.50695093  -0.50695093  -0.44372094   0.11968382  -0.50695093  0.063229992    143265.02 
  131000    28.017088  -0.51502399  -0.51502399  -0.44216922  0.029217291  -0.51502399  0.072854778    143265.02 
  132000     27.43659  -0.51354079  -0.51354079  -0.44219552  0.068207433  -0.51354079  0.071345269    143265.02 
  133000    27.682768   -0.5140458   -0.5140458  -0.44206038  -0.03754688   -0.5140458  0.071985423    143265.02 
  134000    28.798553  -0.51717573  -0.51717573  -0.44228885   0.12552692  -0.51717573  0.074886876    143265.02 
  135000    29.191522  -0.51796558  -0.51796558  -0.44205684   0.15929557  -0.51796558  0.075908741    143265.02 
  136000     35.03727  -0.53350417  -0.53350417  -0.44239433   0.03140634  -0.53350417  0.091109845    143265.02 
  137000    30.874788  -0.52234899  -0.52234899  -0.44206313  0.091511222  -0.52234899  0.080285854    143265.02 
  138000    30.505311  -0.52138466  -0.52138466  -0.44205958    0.1377251  -0.52138466  0.079325076    143265.02 
  139000    28.915366  -0.51727786  -0.51727786  -0.44208723  0.024045421  -0.51727786  0.075190634    143265.02 
  140000    26.747049  -0.51161027  -0.51161027  -0.44205806  0.038825389  -0.51161027  0.069552208    143265.02 
  141000    28.199866  -0.51538805  -0.51538805  -0.44205798 -0.025236951  -0.51538805  0.073330068    143265.02 
  142000    27.489358  -0.51354458  -0.51354458  -0.44206209  0.020384009  -0.51354458  0.071482486    143265.02 
  143000    27.000724  -0.51227154  -0.51227154  -0.44205969   0.19438044  -0.51227154  0.070211856    143265.02 
  144000     30.27694  -0.52140031  -0.52140031  -0.44266909   0.14980463  -0.52140031  0.078731227    143265.02 
  145000     29.79968  -0.51954648  -0.51954648  -0.44205631   0.08933503  -0.51954648  0.077490176    143265.02 
  146000    28.974723  -0.51740157  -0.51740157  -0.44205659  0.078123384  -0.51740157  0.075344983    143265.02 
  147000    26.530142     -0.51242     -0.51242  -0.44343183   0.13690962     -0.51242   0.06898817    143265.02 
  148000     28.69491  -0.51667673  -0.51667673  -0.44205936 -0.006589595  -0.51667673  0.074617367    143265.02 
  149000    26.996373  -0.51226044  -0.51226044   -0.4420599  0.066281469  -0.51226044  0.070200541    143265.02 
  150000    27.684144  -0.51404882  -0.51404882  -0.44205982 -0.068329276  -0.51404882  0.071989002    143265.02 
  151000    25.862266  -0.51105961  -0.51105961  -0.44380817   0.10385776  -0.51105961  0.067251444    143265.02 
  152000     24.83169  -0.50662869  -0.50662869  -0.44205713  0.017623902  -0.50662869  0.064571566    143265.02 
  153000    24.698816  -0.50628332  -0.50628332  -0.44205727  0.078752214  -0.50628332  0.064226045    143265.02 
  154000    24.979233  -0.50701141  -0.50701141  -0.44205618  0.038944987  -0.50701141  0.064955234    143265.02 
  155000    25.435242  -0.50819774  -0.50819774  -0.44205671  0.058367192  -0.50819774  0.066141024    143265.02 
  156000    24.501658  -0.50577066  -0.50577066   -0.4420573  0.059628268  -0.50577066  0.063713362    143265.02 
  157000    23.976681  -0.50466898  -0.50466898  -0.44232076 -0.033580706  -0.50466898  0.062348228    143265.02 
  158000    24.170746  -0.50490618  -0.50490618  -0.44205331 0.0035555554  -0.50490618  0.062852869    143265.02 
  159000    24.556952  -0.50591057  -0.50591057  -0.44205342  0.025486264  -0.50591057  0.063857146    143265.02 
  160000    26.603694  -0.51169923  -0.51169923   -0.4425198    0.1370618  -0.51169923  0.069179433    143265.02 
  161000    26.266559   -0.5104377   -0.5104377  -0.44213494  0.020686188   -0.5104377  0.068302757    143265.02 
  162000    23.383565  -0.50329584  -0.50329584  -0.44248993    0.1326218  -0.50329584  0.060805908    143265.02 
  163000    24.614294  -0.50606829  -0.50606829  -0.44206203  0.072382063  -0.50606829  0.064006258    143265.02 
  164000    27.290128  -0.51328917  -0.51328917  -0.44232475 0.0066037265  -0.51328917  0.070964415    143265.02 
  165000    25.470326  -0.50828256  -0.50828256  -0.44205031 0.0054140398  -0.50828256  0.066232255    143265.02 
  166000    24.996441  -0.50705045  -0.50705045  -0.44205048  0.079401469  -0.50705045  0.064999979    143265.02 
  167000    25.837335  -0.50967218  -0.50967218  -0.44248557  0.078707834  -0.50967218  0.067186615    143265.02 
  168000    27.205035  -0.51279201  -0.51279201  -0.44204887  0.050381661  -0.51279201  0.070743141    143265.02 
  169000    27.532353  -0.51364373  -0.51364373  -0.44204944   0.05798749  -0.51364373  0.071594289    143265.02 
  170000    24.889704  -0.50788379  -0.50788379  -0.44316137   0.08927431  -0.50788379  0.064722425    143265.02 
  171000     28.48013   -0.5161818   -0.5161818  -0.44212294  0.073664994   -0.5161818   0.07405886    143265.02 
  172000    26.694565  -0.51146608  -0.51146608  -0.44205035  0.084435886  -0.51146608   0.06941573    143265.02 
  173000    29.174017  -0.51791313  -0.51791313   -0.4420499 -0.030376809  -0.51791313  0.075863222    143265.02 
  174000    27.457705  -0.51364508  -0.51364508   -0.4422449  0.074201853  -0.51364508  0.071400176    143265.02 
  175000    28.312507  -0.51586198  -0.51586198    -0.442239  0.077415221  -0.51586198  0.073622977    143265.02 
  176000    26.314945  -0.51048447  -0.51048447  -0.44205589   0.11850881  -0.51048447  0.068428579    143265.02 
  177000    27.612269  -0.51412825  -0.51412825  -0.44232615   0.14059047  -0.51412825  0.071802099    143265.02 
  178000    29.288147  -0.51883435  -0.51883435  -0.44267434   0.15171499  -0.51883435  0.076160002    143265.02 
  179000    27.649203  -0.51443701  -0.51443701  -0.44253887  0.059122916  -0.51443701   0.07189814    143265.02 
  180000    25.729469  -0.50902223  -0.50902223  -0.44211611   0.09958082  -0.50902223  0.066906123    143265.02 
  181000    29.539967  -0.51912065  -0.51912065  -0.44230582  0.014530237  -0.51912065  0.076814827    143265.02 
  182000    26.609363   -0.5114547   -0.5114547  -0.44226053 0.0067235573   -0.5114547  0.069194175    143265.02 
  183000    28.280458  -0.51585182  -0.51585182  -0.44231218  0.087337998  -0.51585182  0.073539638    143265.02 
  184000    28.002732  -0.51487457  -0.51487457  -0.44205712 0.00080706867  -0.51487457  0.072817448    143265.02 
  185000     29.12284  -0.51781958  -0.51781958  -0.44208944  0.016085285  -0.51781958  0.075730141    143265.02 
  186000    25.604451   -0.5092693   -0.5092693  -0.44268827   0.11377222   -0.5092693  0.066581031    143265.02 
  187000    26.081343   -0.5098796   -0.5098796  -0.44205847 -0.019463384   -0.5098796  0.067821126    143265.02 
  188000    28.048387  -0.51501353  -0.51501353  -0.44207737   0.10756421  -0.51501353  0.072936167    143265.02 
  189000    28.101975  -0.51532853  -0.51532853  -0.44225302  0.091673219  -0.51532853  0.073075515    143265.02 
  190000    28.767123   -0.5169929   -0.5169929  -0.44218775  0.013525976   -0.5169929  0.074805147    143265.02 
  191000    29.030822  -0.51778186  -0.51778186    -0.442291  0.039850569  -0.51778186   0.07549086    143265.02 
  192000      28.7253  -0.51675293  -0.51675293  -0.44205653   0.15549855  -0.51675293  0.074696392    143265.02 
  193000    26.389958  -0.51067978  -0.51067978  -0.44205614  0.055767054  -0.51067978  0.068623639    143265.02 
  194000    28.190393  -0.51540813  -0.51540813  -0.44210269  0.028004533  -0.51540813  0.073305434    143265.02 
  195000    28.152286  -0.51526243  -0.51526243  -0.44205609   0.07443155  -0.51526243  0.073206343    143265.02 
  196000     27.72308  -0.51420962  -0.51420962  -0.44211937  0.041393967  -0.51420962  0.072090248    143265.02 
  197000    27.282196  -0.51300414  -0.51300414  -0.44206035  0.036709499  -0.51300414  0.070943787    143265.02 
  198000    28.914249  -0.51724765  -0.51724765  -0.44205992 -0.0079143973  -0.51724765  0.075187729    143265.02 
  199000    25.071216  -0.50730044  -0.50730044  -0.44210601   0.14688751  -0.50730044  0.065194423    143265.02 
  200000    27.153063  -0.51266731  -0.51266731  -0.44205932  0.010593257  -0.51266731  0.070607995    143265.02 
  201000    25.328334   -0.5079227   -0.5079227  -0.44205967   0.11590266   -0.5079227  0.065863026    143265.02 
  202000    24.981397  -0.50702068  -0.50702068  -0.44205982  0.081494715  -0.50702068  0.064960861    143265.02 
  203000    24.335969  -0.50542023  -0.50542023  -0.44213772   0.12265419  -0.50542023   0.06328251    143265.02 
  204000    24.050457  -0.50460798  -0.50460798   -0.4420679   0.23486027  -0.50460798  0.062540073    143265.02 
  205000    24.536194   -0.5059114   -0.5059114  -0.44210823  0.062156638   -0.5059114  0.063803169    143265.02 
  206000    27.732482   -0.5143668   -0.5143668   -0.4422521 -0.038722776   -0.5143668  0.072114697    143265.02 
  207000    24.779047  -0.50657636  -0.50657636  -0.44214168 -0.0076912852  -0.50657636  0.064434675    143265.02 
  208000     24.75603  -0.50646728  -0.50646728  -0.44209245  0.099034157  -0.50646728  0.064374823    143265.02 
  209000    25.136144  -0.50806905  -0.50806905  -0.44270579   0.11912596  -0.50806905   0.06536326    143265.02 
  210000    25.700729  -0.50889163  -0.50889163  -0.44206025 -0.044593797  -0.50889163  0.066831388    143265.02 
  211000    23.353279  -0.50301912  -0.50301912  -0.44229197  0.047757348  -0.50301912  0.060727153    143265.02 
  212000    25.930612  -0.50949026  -0.50949026  -0.44206109  0.077754979  -0.50949026  0.067429171    143265.02 
  213000    24.714748  -0.50632776  -0.50632776  -0.44206029   0.19419791  -0.50632776  0.064267473    143265.02 
  214000    24.543026  -0.50588161  -0.50588161  -0.44206067  0.019139049  -0.50588161  0.063820933    143265.02 
  215000     26.30086  -0.51047123  -0.51047123  -0.44207928 -0.049070025  -0.51047123  0.068391952    143265.02 
  216000    25.845653  -0.50927065  -0.50927065   -0.4420624  0.062284533  -0.50927065  0.067208245    143265.02 
  217000    25.509441  -0.50841572  -0.50841572  -0.44208175  0.059970341  -0.50841572  0.066333969    143265.02 
  218000    24.687209  -0.50625904  -0.50625904  -0.44206318  0.047314236  -0.50625904  0.064195862    143265.02 
  219000    24.148454  -0.50523815  -0.50523815  -0.44244324   0.12829305  -0.50523815  0.062794901    143265.02 
  220000    25.738918  -0.50900083  -0.50900083  -0.44207014 -0.021978166  -0.50900083  0.066930694    143265.02 
  221000    25.532454   -0.5084573   -0.5084573  -0.44206349   0.17097145   -0.5084573  0.066393813    143265.02 
  222000    26.008686  -0.50980361  -0.50980361  -0.44217141 -0.074415899  -0.50980361  0.067632191    143265.02 
  223000    25.728884  -0.50900447  -0.50900447  -0.44209987  0.032567369  -0.50900447  0.066904603    143265.02 
  224000    24.946814  -0.50704459  -0.50704459  -0.44217365 0.0051112222  -0.50704459  0.064870931    143265.02 
  225000     25.17204  -0.50752245  -0.50752245  -0.44206585 -0.00086011462  -0.50752245  0.065456603    143265.02 
  226000    29.245865   -0.5181162   -0.5181162  -0.44206614   0.16306692   -0.5181162  0.076050052    143265.02 
  227000    27.302613  -0.51306309  -0.51306309  -0.44206621  0.032202552  -0.51306309  0.070996879    143265.02 
  228000    26.517861  -0.51131615  -0.51131615  -0.44235991  0.066361441  -0.51131615  0.068956235    143265.02 
  229000    26.291017  -0.51044746  -0.51044746   -0.4420811   0.31071081  -0.51044746  0.068366355    143265.02 
  230000    25.855826  -0.50959769  -0.50959769  -0.44236299  0.074465584  -0.50959769    0.0672347    143265.02 
  231000    25.651973   -0.5087697   -0.5087697  -0.44206509  0.056376389   -0.5087697  0.066704605    143265.02 
  232000    24.654322  -0.50618681  -0.50618681  -0.44207646 -0.027712809  -0.50618681  0.064110346    143265.02 
  233000    25.540006  -0.50868003  -0.50868003  -0.44226658 -0.014712195  -0.50868003  0.066413449    143265.02 
  234000    24.203513   -0.5050018   -0.5050018  -0.44206372 -0.030858359   -0.5050018  0.062938075    143265.02 
  235000    25.180677  -0.50756043  -0.50756043  -0.44208137   0.10788582  -0.50756043  0.065479062    143265.02 
  236000    27.033208  -0.51236304  -0.51236304  -0.44206671   0.14625825  -0.51236304  0.070296327    143265.02 
  237000    25.776308  -0.50909212  -0.50909212  -0.44206419  0.057210992  -0.50909212  0.067027924    143265.02 
  238000    29.476262   -0.5187137   -0.5187137  -0.44206453 -0.027332268   -0.5187137   0.07664917    143265.02 
  239000    27.646532  -0.51395303  -0.51395303  -0.44206183  0.034871488  -0.51395303  0.071891195    143265.02 
  240000    25.569536  -0.50855188  -0.50855188  -0.44206164    0.1289969  -0.50855188  0.066490238    143265.02 
  241000    25.464579  -0.50827921  -0.50827921   -0.4420619  0.073803265  -0.50827921  0.066217312    143265.02 
  242000    23.481846  -0.50322207  -0.50322207   -0.4421606  0.094405647  -0.50322207  0.061061473    143265.02 
  243000    25.212173  -0.50762528  -0.50762528  -0.44206432 -0.0019907816  -0.50762528  0.065560964    143265.02 
  244000    26.720824  -0.51236578  -0.51236578  -0.44288177   0.10985783  -0.51236578  0.069484014    143265.02 
  245000     24.96519  -0.50698186  -0.50698186  -0.44206314   0.07970514  -0.50698186  0.064918715    143265.02 
  246000    25.778531  -0.50919151  -0.50919151  -0.44215781  0.001561123  -0.50919151  0.067033703    143265.02 
  247000    24.916149  -0.50696252  -0.50696252  -0.44217133   0.10499497  -0.50696252  0.064791191    143265.02 
  248000    23.672334  -0.50361995  -0.50361995  -0.44206314   0.10041863  -0.50361995  0.061556813    143265.02 
  249000    26.482391  -0.51095837  -0.51095837  -0.44209437 -0.076636642  -0.51095837  0.068863999    143265.02 
  250000    25.348774  -0.50797863  -0.50797863  -0.44206245  0.064315461  -0.50797863  0.065916177    143265.02 
  251000    28.281755  -0.51560784  -0.51560784  -0.44206483   0.12334982  -0.51560784   0.07354301    143265.02 
  252000    26.358545  -0.51061745  -0.51061745   -0.4420755 0.0060095583  -0.51061745  0.068541953    143265.02 
  253000    23.598805   -0.5041842   -0.5041842  -0.44281859 -0.0068940637   -0.5041842   0.06136561    143265.02 
  254000    25.056472  -0.50743223  -0.50743223  -0.44227615 -0.086982039  -0.50743223  0.065156083    143265.02 
  255000    26.216755  -0.51024343  -0.51024343  -0.44207018  0.035128288  -0.51024343  0.068173247    143265.02 
  256000    23.697266  -0.50369195  -0.50369195  -0.44207031 0.0022660193  -0.50369195  0.061621645    143265.02 
  257000    23.676813  -0.50363956  -0.50363956   -0.4420711   0.11541192  -0.50363956  0.061568459    143265.02 
  258000    23.185488  -0.50239103  -0.50239103  -0.44210019  0.044235679  -0.50239103  0.060290833    143265.02 
  259000    25.768981  -0.50908218  -0.50908218  -0.44207331 0.0078490032  -0.50908218  0.067008868    143265.02 
  260000    26.194945  -0.51019362  -0.51019362  -0.44207709  0.051094961  -0.51019362  0.068116532    143265.02 
  261000    25.899465  -0.50942473  -0.50942473  -0.44207656   0.04869879  -0.50942473  0.067348176    143265.02 
  262000    24.896026  -0.50681429  -0.50681429  -0.44207543 0.0070524468  -0.50681429  0.064738865    143265.02 
  263000    25.317447  -0.50790915  -0.50790915  -0.44207444  0.014682207  -0.50790915  0.065834715    143265.02 
  264000    25.506414  -0.50840008  -0.50840008  -0.44207399  0.035769929  -0.50840008  0.066326099    143265.02 
  265000    27.888297  -0.51459386  -0.51459386  -0.44207398  0.084578589  -0.51459386  0.072519875    143265.02 
  266000    27.608401  -0.51462915  -0.51462915  -0.44283711  0.067707381  -0.51462915   0.07179204    143265.02 
  267000    25.663945  -0.50881952  -0.50881952  -0.44208378  0.099364362  -0.50881952  0.066735736    143265.02 
  268000     24.54946  -0.50591444  -0.50591444  -0.44207678    0.1172058  -0.50591444  0.063837665    143265.02 
  269000    27.108739  -0.51263995  -0.51263995  -0.44214722  0.060354573  -0.51263995  0.070492736    143265.02 
  270000    26.823772  -0.51192252  -0.51192252   -0.4421708  0.097127666  -0.51192252  0.069751717    143265.02 
  271000    25.926692  -0.50949477  -0.50949477  -0.44207579   0.13237075  -0.50949477  0.067418976    143265.02 
  272000    26.297803  -0.51071521  -0.51071521   -0.4423312  0.060550876  -0.51071521  0.068384002    143265.02 
  273000    25.988838  -0.50965727  -0.50965727  -0.44207669   0.14025808  -0.50965727   0.06758058    143265.02 
  274000    25.094925  -0.50766614  -0.50766614  -0.44241007  0.066071302  -0.50766614  0.065256075    143265.02 
  275000    26.104232  -0.51087659  -0.51087659  -0.44299594  0.066241797  -0.51087659  0.067880646    143265.02 
  276000    24.399759  -0.50552937  -0.50552937  -0.44208098  0.066014108  -0.50552937  0.063448386    143265.02 
  277000    23.932304   -0.5053538   -0.5053538  -0.44312097 -0.012477446   -0.5053538   0.06223283    143265.02 
  278000    24.933531  -0.50793148  -0.50793148  -0.44309509  0.084220914  -0.50793148   0.06483639    143265.02 
  279000    24.324922   -0.5053345   -0.5053345  -0.44208072 0.0055602622   -0.5053345  0.063253782    143265.02 
  280000    26.962031  -0.51219253  -0.51219253  -0.44208129    -0.027505  -0.51219253   0.07011124    143265.02 
  281000    26.927817  -0.51210389  -0.51210389  -0.44208162 -0.073219307  -0.51210389  0.070022271    143265.02 
  282000    25.999828  -0.50969158  -0.50969158  -0.44208242 -0.0053409292  -0.50969158  0.067609158    143265.02 
  283000    27.045623  -0.51241083  -0.51241083  -0.44208222 -0.062403082  -0.51241083   0.07032861    143265.02 
  284000    28.084414  -0.51523219  -0.51523219  -0.44220234   0.11817956  -0.51523219  0.073029851    143265.02 
  285000    27.385418  -0.51329417  -0.51329417  -0.44208197 -0.031353134  -0.51329417  0.071212204    143265.02 
  286000    26.663405  -0.51143761  -0.51143761  -0.44210291   0.24283626  -0.51143761  0.069334701    143265.02 
  287000    25.921962  -0.50957799  -0.50957799  -0.44217132 -0.0095802866  -0.50957799  0.067406676    143265.02 
  288000    27.836344  -0.51456214  -0.51456214  -0.44217736 -0.062423832  -0.51456214  0.072384778    143265.02 
  289000    27.371532  -0.51325263  -0.51325263  -0.44207654  0.018827616  -0.51325263  0.071176094    143265.02 
  290000    29.181494  -0.51795791  -0.51795791  -0.44207524   0.12889903  -0.51795791  0.075882665    143265.02 
  291000    27.683145  -0.51406159  -0.51406159  -0.44207519 -0.00090642085  -0.51406159  0.071986402    143265.02 
  292000    26.571867  -0.51117574  -0.51117574  -0.44207907 -0.011365277  -0.51117574  0.069096669    143265.02 
  293000    26.774326  -0.51169885  -0.51169885  -0.44207572 0.0047984284  -0.51169885  0.069623138    143265.02 
  294000    26.106421  -0.51016531  -0.51016531  -0.44227897  0.055099391  -0.51016531  0.067886338    143265.02 
  295000    27.527879  -0.51366377  -0.51366377  -0.44208111  0.013136177  -0.51366377  0.071582655    143265.02 
  296000    28.037646   -0.5150843   -0.5150843  -0.44217606  0.028644019   -0.5150843  0.072908238    143265.02 
  297000    27.472374  -0.51351422  -0.51351422   -0.4420759  0.056422975  -0.51351422  0.071438322    143265.02 
  298000    26.527868  -0.51110385  -0.51110385  -0.44212159  0.054654543  -0.51110385  0.068982256    143265.02 
  299000    29.504925  -0.51915458  -0.51915458  -0.44243087   0.04439736  -0.51915458  0.076723703    143265.02 
  300000     30.31789  -0.52091415  -0.52091415  -0.44207644  0.084525306  -0.52091415  0.078837713    143265.02 
  301000    26.663192  -0.51141042  -0.51141042  -0.44207627 0.0032099147  -0.51141042   0.06933415    143265.02 
  302000    25.616633  -0.50890674  -0.50890674  -0.44229404  0.059894348  -0.50890674  0.066612708    143265.02 
  303000    26.669508  -0.51216606  -0.51216606  -0.44281549  0.044150916  -0.51216606  0.069350572    143265.02 
  304000    26.609106  -0.51127095  -0.51127095  -0.44207745  0.095116403  -0.51127095  0.069193505    143265.02 
  305000    26.592875  -0.51164304  -0.51164304  -0.44249175  0.032621709  -0.51164304  0.069151298    143265.02 
  306000    28.344123  -0.51583544  -0.51583544  -0.44213025  0.060676042  -0.51583544  0.073705189    143265.02 
  307000     26.15859  -0.51069476  -0.51069476  -0.44267277   0.08255599  -0.51069476  0.068021997    143265.02 
  308000    26.943727  -0.51218243  -0.51218243  -0.44211879  0.034554532  -0.51218243  0.070063642    143265.02 
  309000    27.169861  -0.51274958  -0.51274958  -0.44209791  0.038984466  -0.51274958  0.070651674    143265.02 
  310000    26.809034  -0.51179325  -0.51179325  -0.44207986 0.0059446495  -0.51179325  0.069713392    143265.02 
  311000    25.922391  -0.50948806  -0.50948806  -0.44208026  0.030520486  -0.50948806  0.067407793    143265.02 
  312000    27.232029   -0.5132503   -0.5132503  -0.44243696 -0.013373626   -0.5132503  0.070813336    143265.02 
  313000    23.562607  -0.50334813  -0.50334813  -0.44207665  0.034388752  -0.50334813  0.061271482    143265.02 
  314000    24.981276  -0.50704913  -0.50704913  -0.44208859  0.013387921  -0.50704913  0.064960546    143265.02 
  315000    27.904924  -0.51463656  -0.51463656  -0.44207345   0.10081931  -0.51463656   0.07256311    143265.02 
  316000    25.735141  -0.50901935  -0.50901935  -0.44209847   0.03133587  -0.50901935  0.066920872    143265.02 
  317000    22.190259   -0.4997751   -0.4997751  -0.44207223   0.09607877   -0.4997751  0.057702871    143265.02 
  318000    24.449916  -0.50565116  -0.50565116  -0.44207235  0.046515419  -0.50565116  0.063578813    143265.02 
  319000    26.559973  -0.51113739  -0.51113739  -0.44207165  0.057571789  -0.51113739   0.06906574    143265.02 
  320000    24.939095  -0.50692317  -0.50692317  -0.44207231 -0.019123549  -0.50692317   0.06485086    143265.02 
  321000    28.362035   -0.5158813   -0.5158813  -0.44212953 -0.069552618   -0.5158813  0.073751768    143265.02 
  322000    27.757014  -0.51425145  -0.51425145  -0.44207296  0.034201523  -0.51425145   0.07217849    143265.02 
  323000    26.945175  -0.51225906  -0.51225906  -0.44219165 -0.027200203  -0.51225906  0.070067408    143265.02 
  324000    27.121117  -0.51265546  -0.51265546  -0.44213054   0.12303495  -0.51265546  0.070524922    143265.02 
  325000    24.589072  -0.50601916  -0.50601916  -0.44207849  -0.03127689  -0.50601916   0.06394067    143265.02 
  326000    28.610056  -0.51646799  -0.51646799  -0.44207127 -0.031695424  -0.51646799  0.074396715    143265.02 
  327000    25.916211  -0.50957388  -0.50957388  -0.44218215  0.075217696  -0.50957388  0.067391721    143265.02 
  328000    28.358365  -0.51598327  -0.51598327  -0.44224105   0.14378245  -0.51598327  0.073742225    143265.02 
  329000    29.253962  -0.51814101  -0.51814101   -0.4420699  0.069356214  -0.51814101  0.076071108    143265.02 
  330000     32.47508   -0.5272974   -0.5272974  -0.44285019  0.013777609   -0.5272974  0.084447204    143265.02 
  331000    28.732808  -0.51678647  -0.51678647  -0.44207056  0.042192496  -0.51678647  0.074715915    143265.02 
  332000    28.500613  -0.51641924  -0.51641924  -0.44230712  0.018222681  -0.51641924  0.074112121    143265.02 
  333000    29.056918  -0.51762965  -0.51762965  -0.44207093   0.15159951  -0.51762965   0.07555872    143265.02 
  334000    29.198035  -0.51799616  -0.51799616  -0.44207049 0.0004160477  -0.51799616  0.075925676    143265.02 
  335000    28.892441  -0.51720139  -0.51720139  -0.44207037  0.080469901  -0.51720139  0.075131021    143265.02 
  336000    30.821281  -0.52221758  -0.52221758  -0.44207086   0.10282934  -0.52221758  0.080146715    143265.02 
  337000    30.576976  -0.52158198  -0.52158198  -0.44207055 -0.025086708  -0.52158198  0.079511433    143265.02 
  338000    28.727825  -0.51678476  -0.51678476   -0.4420818  0.082189152  -0.51678476  0.074702957    143265.02 
  339000    25.489878  -0.50840532  -0.50840532  -0.44212222  0.081396886  -0.50840532  0.066283098    143265.02 
  340000    28.382771  -0.51587372  -0.51587372  -0.44206803  0.021458894  -0.51587372   0.07380569    143265.02 
  341000    23.533964  -0.50337351  -0.50337351  -0.44217651  0.050045913  -0.50337351     0.061197    143265.02 
  342000    26.031655  -0.50976053  -0.50976053  -0.44206861   0.13308354  -0.50976053  0.067691918    143265.02 
  343000    28.120702   -0.5157527   -0.5157527  -0.44262848   0.11736148   -0.5157527  0.073124212    143265.02 
  344000    27.578427  -0.51385972  -0.51385972  -0.44214562 -0.00024278963  -0.51385972  0.071714098    143265.02 
  345000    28.360014   -0.5162415   -0.5162415  -0.44249499 -0.00056046891   -0.5162415  0.073746512    143265.02 
  346000    25.332379  -0.50796037  -0.50796037  -0.44208683  0.088574257  -0.50796037  0.065873544    143265.02 
  347000    27.035426  -0.51291678  -0.51291678  -0.44261468   0.11829039  -0.51291678  0.070302095    143265.02 
  348000    26.882685   -0.5120127   -0.5120127  -0.44210779 -0.017400426   -0.5120127  0.069904911    143265.02 
  349000    26.528628  -0.51108287  -0.51108287  -0.44209864  0.080445844  -0.51108287  0.068984232    143265.02 
  350000    26.629187  -0.51131739  -0.51131739  -0.44207166   0.24140115  -0.51131739  0.069245723    143265.02 
  351000    25.996571  -0.50994778  -0.50994778  -0.44234709  0.099182698  -0.50994778  0.067600687    143265.02 
  352000    28.045543  -0.51546201  -0.51546201  -0.44253323  0.074004992  -0.51546201  0.072928773    143265.02 
  353000    28.347697  -0.51578485  -0.51578485  -0.44207036   0.12903785  -0.51578485  0.073714485    143265.02 
  354000    25.308755  -0.50803009  -0.50803009  -0.44221798  0.016363623  -0.50803009  0.065812112    143265.02 
  355000    26.080692   -0.5098913   -0.5098913  -0.44207187 -0.011980318   -0.5098913  0.067819434    143265.02 
  356000    25.605626  -0.50867884  -0.50867884  -0.44209476  0.022512617  -0.50867884  0.066584086    143265.02 
  357000    25.334159  -0.50828521  -0.50828521  -0.44240704  0.084121886  -0.50828521  0.065878171    143265.02 
  358000    24.992473  -0.50706191  -0.50706191  -0.44207225   0.16677017  -0.50706191  0.064989662    143265.02 
  359000    26.724894  -0.51156579  -0.51156579   -0.4420712   0.11835252  -0.51156579  0.069494597    143265.02 
  360000    27.004523  -0.51229325  -0.51229325  -0.44207151   0.03454748  -0.51229325  0.070221734    143265.02 
  361000    26.920316  -0.51227188  -0.51227188  -0.44226911  0.081849133  -0.51227188  0.070002767    143265.02 
  362000    25.573734  -0.50857267  -0.50857267  -0.44207152 -0.040989798  -0.50857267  0.066501156    143265.02 
  363000       25.199  -0.50819094  -0.50819094  -0.44266423  0.057059817  -0.50819094  0.065526709    143265.02 
  364000    26.688685  -0.51147032  -0.51147032  -0.44206988   0.13298429  -0.51147032  0.069400441    143265.02 
  365000    27.309007  -0.51308403  -0.51308403  -0.44207052  0.063109427  -0.51308403  0.071013506    143265.02 
  366000    27.268635  -0.51297807  -0.51297807  -0.44206954   0.11216157  -0.51297807  0.070908525    143265.02 
  367000    25.673936  -0.50883121  -0.50883121  -0.44206949 0.0099945729  -0.50883121  0.066761718    143265.02 
  368000    26.380839  -0.51066741  -0.51066741  -0.44206748  0.022547181  -0.51066741  0.068599926    143265.02 
  369000    27.110539  -0.51256559  -0.51256559  -0.44206817   -0.0774052  -0.51256559  0.070497416    143265.02 
  370000    24.005219  -0.50452972  -0.50452972  -0.44210729  0.071432716  -0.50452972  0.062422438    143265.02 
  371000    25.564357  -0.50854417  -0.50854417   -0.4420674 0.0064970353  -0.50854417  0.066476772    143265.02 
  372000    28.517927  -0.51625402  -0.51625402  -0.44209687 -0.070958625  -0.51625402  0.074157145    143265.02 
  373000    27.374428  -0.51363931  -0.51363931  -0.44245569 0.0092069509  -0.51363931  0.071183624    143265.02 
  374000    23.110901   -0.5022754   -0.5022754  -0.44217852 0.0064766228   -0.5022754  0.060096879    143265.02 
  375000    26.035962  -0.50979635  -0.50979635  -0.44209323   0.10062366  -0.50979635  0.067703119    143265.02 
  376000    25.707666  -0.50891687  -0.50891687  -0.44206744  0.027242965  -0.50891687  0.066849428    143265.02 
  377000    28.880765   -0.5171672   -0.5171672  -0.44206654  0.069598006   -0.5171672  0.075100657    143265.02 
  378000     27.63095  -0.51391715  -0.51391715  -0.44206647   0.16956673  -0.51391715  0.071850678    143265.02 
  379000    27.210291  -0.51283713  -0.51283713  -0.44208032  0.048848983  -0.51283713  0.070756808    143265.02 
  380000    26.869859  -0.51193689  -0.51193689  -0.44206533   0.06011725  -0.51193689  0.069871559    143265.02 
  381000    28.114025  -0.51529454  -0.51529454  -0.44218769 0.0011562906  -0.51529454  0.073106851    143265.02 
  382000    27.650749  -0.51396659  -0.51396659  -0.44206443  0.091000747  -0.51396659  0.071902161    143265.02 
  383000    27.968262  -0.51509532  -0.51509532  -0.44236751   0.10254937  -0.51509532  0.072727814    143265.02 
  384000    26.864852  -0.51215541  -0.51215541  -0.44229687  0.023883292  -0.51215541  0.069858538    143265.02 
  385000    25.806906  -0.50918584  -0.50918584  -0.44207835  0.031697723  -0.50918584  0.067107489    143265.02 
  386000    26.366174  -0.51062662  -0.51062662  -0.44206483  0.084365544  -0.51062662  0.068561791    143265.02 
  387000    27.985345  -0.51487701  -0.51487701  -0.44210477 -0.011178161  -0.51487701  0.072772235    143265.02 
  388000    31.031344   -0.5227976   -0.5227976  -0.44210464 -0.053332958   -0.5227976  0.080692957    143265.02 
  389000    26.833236  -0.51184231  -0.51184231  -0.44206598  0.051214958  -0.51184231  0.069776326    143265.02 
  390000    26.729229  -0.51209353  -0.51209353  -0.44258766  0.034652119  -0.51209353   0.06950587    143265.02 
  391000    26.948398  -0.51214435  -0.51214435  -0.44206856  0.090721611  -0.51214435  0.070075788    143265.02 
  392000    28.139378  -0.51524166  -0.51524166  -0.44206888  0.020604614  -0.51524166  0.073172779    143265.02 
  393000    26.568598  -0.51120646  -0.51120646  -0.44211829   0.01104475  -0.51120646  0.069088168    143265.02 
  394000    24.497946  -0.50585906  -0.50585906  -0.44215535  0.028088895  -0.50585906  0.063703709    143265.02 
  395000    26.782776  -0.51232139  -0.51232139  -0.44267628  0.039099624  -0.51232139  0.069645112    143265.02 
  396000    29.087895  -0.51823049  -0.51823049  -0.44259122  0.013612794  -0.51823049  0.075639273    143265.02 
  397000     30.63282  -0.52172601  -0.52172601  -0.44206937   0.11624633  -0.52172601  0.079656648    143265.02 
  398000    28.196497  -0.51538995  -0.51538995  -0.44206864  0.031593595  -0.51538995  0.073321307    143265.02 
  399000     27.28635  -0.51354501  -0.51354501  -0.44259042 -0.023385335  -0.51354501   0.07095459    143265.02 
  400000    28.702318  -0.51699037  -0.51699037  -0.44235374  0.087420399  -0.51699037   0.07463663    143265.02 
  401000    28.146462  -0.51535374  -0.51535374  -0.44216254  0.033046479  -0.51535374  0.073191198    143265.02 
  402000    27.006554  -0.51229464  -0.51229464  -0.44206762   0.11797275  -0.51229464  0.070227016    143265.02 
  403000     28.84259  -0.51783544  -0.51783544  -0.44283406 -0.019898862  -0.51783544  0.075001389    143265.02 
  404000    27.154099  -0.51290997  -0.51290997  -0.44229928  0.023118386  -0.51290997  0.070610689    143265.02 
  405000     26.98835  -0.51224482  -0.51224482  -0.44206515 -0.045886965  -0.51224482   0.07017968    143265.02 
  406000    27.577017   -0.5137753   -0.5137753  -0.44206487  0.062659942   -0.5137753  0.071710432    143265.02 
  407000    28.657464  -0.51660489  -0.51660489   -0.4420849  0.068156903  -0.51660489  0.074519993    143265.02 
  408000    27.155198   -0.5127005   -0.5127005  -0.44208696  0.020595186   -0.5127005  0.070613545    143265.02 
  409000    27.958353  -0.51476674  -0.51476674   -0.4420647 -0.034237744  -0.51476674  0.072702046    143265.02 
  410000    29.396517  -0.51855125  -0.51855125  -0.44210945 0.0021256434  -0.51855125  0.076441803    143265.02 
  411000    27.477536  -0.51351522  -0.51351522  -0.44206348   0.03206546  -0.51351522  0.071451744    143265.02 
  412000     28.10825  -0.51535784  -0.51535784  -0.44226601   0.13225607  -0.51535784  0.073091834    143265.02 
  413000    29.162848  -0.51827782  -0.51827782  -0.44244365  0.087177158  -0.51827782  0.075834176    143265.02 
  414000     29.48824  -0.51874211  -0.51874211  -0.44206179  0.043345622  -0.51874211  0.076680316    143265.02 
  415000    29.536995  -0.51886905  -0.51886905  -0.44206195   0.08120085  -0.51886905  0.076807097    143265.02 
  416000    29.989949  -0.52008207  -0.52008207  -0.44209712  0.015739146  -0.52008207  0.077984947    143265.02 
  417000     29.98583    -0.520084    -0.520084  -0.44210976 -0.026480371    -0.520084  0.077974234    143265.02 
  418000    28.801259   -0.5170747   -0.5170747  -0.44218079  0.031975497   -0.5170747  0.074893911    143265.02 
  419000    28.781492   -0.5169457   -0.5169457  -0.44210319  0.028806725   -0.5169457   0.07484251    143265.02 
  420000    28.638293  -0.51653028  -0.51653028  -0.44206014  0.057325266  -0.51653028   0.07447014    143265.02 
  421000    27.756921   -0.5142429   -0.5142429  -0.44206466  0.081535591   -0.5142429  0.072178249    143265.02 
  422000    29.796449  -0.51973133  -0.51973133  -0.44224955 0.0040077622  -0.51973133  0.077481773    143265.02 
  423000    27.985963  -0.51494183  -0.51494183  -0.44216799   0.12184757  -0.51494183  0.072773843    143265.02 
  424000    28.821676  -0.51723423  -0.51723423  -0.44228723 0.0053098979  -0.51723423  0.074947003    143265.02 
  425000    28.485176  -0.51620366  -0.51620366  -0.44213168  0.035812775  -0.51620366   0.07407198    143265.02 
  426000    27.327452  -0.51311902  -0.51311902  -0.44205755 -0.059809998  -0.51311902   0.07106147    143265.02 
  427000    24.741654  -0.50639101  -0.50639101  -0.44205357   0.10070094  -0.50639101  0.064337439    143265.02 
  428000    25.856047  -0.50928837  -0.50928837  -0.44205309   0.21385384  -0.50928837  0.067235273    143265.02 
  429000     25.22929  -0.50770684  -0.50770684  -0.44210136 9.563395e-05  -0.50770684  0.065605474    143265.02 
  430000    27.651893  -0.51457241  -0.51457241  -0.44266727  0.084340126  -0.51457241  0.071905135    143265.02 
  431000    27.735609  -0.51417759  -0.51417759  -0.44205477   0.12778783  -0.51417759   0.07212283    143265.02 
  432000    29.222232  -0.51804337  -0.51804337  -0.44205477   0.12173683  -0.51804337  0.075988598    143265.02 
  433000    30.164194  -0.52052935  -0.52052935   -0.4420913  0.046144362  -0.52052935  0.078438048    143265.02 
  434000    28.674988  -0.51777328  -0.51777328  -0.44320772   0.20448811  -0.51777328   0.07456556    143265.02 
  435000     30.47977  -0.52153676  -0.52153676  -0.44227809  0.058024019  -0.52153676  0.079258662    143265.02 
  436000    29.788608  -0.51953336  -0.51953336  -0.44207198 -0.024334839  -0.51953336  0.077461384    143265.02 
  437000    29.236974  -0.51808173  -0.51808173   -0.4420548  0.040130411  -0.51808173  0.076026933    143265.02 
  438000     28.80007  -0.51769112  -0.51769112   -0.4428003   0.16435253  -0.51769112  0.074890821    143265.02 
  439000    32.193918  -0.52609821  -0.52609821  -0.44238213  0.056276164  -0.52609821  0.083716079    143265.02 
  440000    29.549432  -0.51899014  -0.51899014   -0.4421507    0.1159306  -0.51899014  0.076839438    143265.02 
  441000    28.641454  -0.51677251  -0.51677251  -0.44229415  0.032229687  -0.51677251  0.074478362    143265.02 
  442000    29.334963  -0.51833561  -0.51833561  -0.44205387  0.024992911  -0.51833561  0.076281739    143265.02 
  443000     28.86041   -0.5171854   -0.5171854  -0.44213767 -0.071316958   -0.5171854  0.075047727    143265.02 
  444000    26.314488  -0.51068099  -0.51068099   -0.4422536   0.11115929  -0.51068099  0.068427389    143265.02 
  445000     25.98374  -0.50964799  -0.50964799  -0.44208067  0.035340299  -0.50964799  0.067567323    143265.02 
  446000    26.181242  -0.51013724  -0.51013724  -0.44205634 -0.026981813  -0.51013724  0.068080899    143265.02 
  447000    27.307796  -0.51319613  -0.51319613  -0.44218577  0.067177963  -0.51319613  0.071010358    143265.02 
  448000    27.060245  -0.51282624  -0.51282624  -0.44245961  0.076476894  -0.51282624  0.070366632    143265.02 
  449000    24.050515  -0.50459518  -0.50459518  -0.44205496   0.12529802  -0.50459518  0.062540223    143265.02 
  450000    27.225265  -0.51293449  -0.51293449  -0.44213875  0.087826395  -0.51293449  0.070795745    143265.02 
  451000    27.396004   -0.5133978   -0.5133978  -0.44215807  0.010081548   -0.5133978   0.07123973    143265.02 
  452000    26.703104  -0.51283591  -0.51283591  -0.44339797   0.16037652  -0.51283591  0.069437936    143265.02 
  453000    28.050967  -0.51588818  -0.51588818  -0.44294531 -0.029180408  -0.51588818  0.072942876    143265.02 
  454000    28.322955  -0.51570069  -0.51570069  -0.44205055  0.030191138  -0.51570069  0.073650146    143265.02 
  455000    26.716749   -0.5130067   -0.5130067  -0.44353329  0.095446604   -0.5130067  0.069473416    143265.02 
  456000    26.156995   -0.5100661   -0.5100661  -0.44204825  0.056954025   -0.5100661   0.06801785    143265.02 
  457000    26.779544  -0.51180947  -0.51180947  -0.44217276  0.032712216  -0.51180947  0.069636708    143265.02 
  458000    27.722844  -0.51413658  -0.51413658  -0.44204694   -0.0956293  -0.51413658  0.072089635    143265.02 
  459000     27.37188  -0.51327285  -0.51327285  -0.44209586   0.19304687  -0.51327285  0.071176998    143265.02 
  460000    27.174532  -0.51271002  -0.51271002   -0.4420462  0.049609271  -0.51271002  0.070663822    143265.02 
  461000    28.655332  -0.51655899  -0.51655899  -0.44204454 0.0076031554  -0.51655899  0.074514449    143265.02 
  462000    27.972161  -0.51546766  -0.51546766   -0.4427297  0.069880249  -0.51546766  0.072737951    143265.02 
  463000    29.696247   -0.5193033   -0.5193033  -0.44208208  0.069121565   -0.5193033  0.077221213    143265.02 
  464000    31.916321  -0.52503815  -0.52503815  -0.44204392 -0.032887812  -0.52503815  0.082994225    143265.02 
  465000    32.059687  -0.52541029  -0.52541029  -0.44204326  0.023058708  -0.52541029  0.083367029    143265.02 
  466000    27.725599  -0.51413999  -0.51413999  -0.44204319  0.045836351  -0.51413999  0.072096798    143265.02 
  467000    32.176617  -0.52592628  -0.52592628  -0.44225519  0.011718125  -0.52592628  0.083671091    143265.02 
  468000    28.843044  -0.51704872  -0.51704872  -0.44204615  0.047508689  -0.51704872  0.075002568    143265.02 
  469000     27.31262   -0.5131809   -0.5131809    -0.442158  0.084850049   -0.5131809  0.071022901    143265.02 
  470000     28.06082  -0.51501378  -0.51501378  -0.44204528   0.15698908  -0.51501378  0.072968498    143265.02 
  471000    26.029977  -0.50973281  -0.50973281  -0.44204525  0.073549981  -0.50973281  0.067687557    143265.02 
  472000    26.482207  -0.51092054  -0.51092054  -0.44205702 0.00045601809  -0.51092054   0.06886352    143265.02 
  473000    26.176055  -0.51049185  -0.51049185  -0.44242444  0.075831466  -0.51049185  0.068067411    143265.02 
  474000    28.721858  -0.51697439  -0.51697439  -0.44228695  0.030901045  -0.51697439  0.074687439    143265.02 
  475000    28.518959   -0.5162058   -0.5162058  -0.44204597  0.035986192   -0.5162058  0.074159829    143265.02 
  476000    30.266442  -0.52108343  -0.52108343   -0.4423795 0.0075008215  -0.52108343  0.078703931    143265.02 
  477000    29.198154  -0.51797447  -0.51797447  -0.44204848  0.021138126  -0.51797447  0.075925985    143265.02 
  478000    28.893779  -0.51718272  -0.51718272  -0.44204822  0.099665726  -0.51718272  0.075134499    143265.02 
  479000    29.751028  -0.51943515  -0.51943515  -0.44207148 0.0069459942  -0.51943515  0.077363662    143265.02 
  480000     28.36423  -0.51580729  -0.51580729  -0.44204982  0.059453515  -0.51580729  0.073757477    143265.02 
  481000    28.186113  -0.51534301  -0.51534301  -0.44204871  0.055707005  -0.51534301  0.073294305    143265.02 
  482000    29.010534   -0.5175008   -0.5175008  -0.44206269   0.15620911   -0.5175008  0.075438105    143265.02 
  483000    31.337929  -0.52408318  -0.52408318  -0.44259299    0.1379254  -0.52408318   0.08149019    143265.02 
  484000    30.803162  -0.52214795  -0.52214795  -0.44204835  0.020076972  -0.52214795  0.080099599    143265.02 
  485000    28.623402  -0.51648056  -0.51648056  -0.44204914  0.078283612  -0.51648056  0.074431419    143265.02 
  486000    28.363401  -0.51580483  -0.51580483  -0.44204951  0.011028223  -0.51580483   0.07375532    143265.02 
  487000    26.052485  -0.50979566  -0.50979566  -0.44204957   0.11087574  -0.50979566  0.067746084    143265.02 
  488000    27.136965  -0.51303465  -0.51303465  -0.44246852  0.012331568  -0.51303465  0.070566133    143265.02 
  489000    28.342312  -0.51574754  -0.51574754  -0.44204705   0.11285714  -0.51574754  0.073700482    143265.02 
  490000    29.590264  -0.51899312  -0.51899312   -0.4420475 -0.051521116  -0.51899312  0.076945618    143265.02 
  491000    27.797291  -0.51433583  -0.51433583   -0.4420526  0.051754289  -0.51433583  0.072283225    143265.02 
  492000    29.438826  -0.51859953  -0.51859953   -0.4420477 -0.018934086  -0.51859953  0.076551823    143265.02 
  493000    32.284218  -0.52599978  -0.52599978  -0.44204889   0.11020856  -0.52599978  0.083950893    143265.02 
  494000    28.133983  -0.51563919  -0.51563919  -0.44248044  0.094421515  -0.51563919  0.073158749    143265.02 
  495000     29.85017  -0.51967019  -0.51967019  -0.44204872  0.020685954  -0.51967019  0.077621468    143265.02 
  496000    28.791672  -0.51693293  -0.51693293  -0.44206394 -0.0047631879  -0.51693293  0.074868984    143265.02 
  497000    26.856852  -0.51187972  -0.51187972  -0.44204199  0.041188797  -0.51187972  0.069837735    143265.02 
  498000    28.701461     -0.51674     -0.51674   -0.4421056  -0.01249168     -0.51674  0.074634402    143265.02 
  499000      27.2805  -0.51310125  -0.51310125  -0.44216187   0.11956087  -0.51310125  0.070939378    143265.02 
  500000    28.896585  -0.51745451  -0.51745451  -0.44231272 -0.044764545  -0.51745451  0.075141796    143265.02 
  501000    28.536232  -0.51624917  -0.51624917  -0.44204443 -0.073087661  -0.51624917  0.074204745    143265.02 
  502000    29.670633   -0.5191988   -0.5191988  -0.44204419   0.13185671   -0.5191988  0.077154605    143265.02 
  503000     27.68239   -0.5140288   -0.5140288  -0.44204436  0.090754436   -0.5140288  0.071984439    143265.02 
  504000    28.113243  -0.51514911  -0.51514911   -0.4420443  0.044346358  -0.51514911  0.073104816    143265.02 
  505000    29.126386  -0.51778425  -0.51778425  -0.44204489   0.03630833  -0.51778425  0.075739363    143265.02 
  506000    28.081894  -0.51512058  -0.51512058  -0.44209728   0.11514663  -0.51512058  0.073023298    143265.02 
  507000    31.204563  -0.52322724  -0.52322724  -0.44208385  0.012809425  -0.52322724  0.081143391    143265.02 
  508000    31.194289  -0.52324503  -0.52324503  -0.44212836 0.0024246909  -0.52324503  0.081116674    143265.02 
  509000     28.67831  -0.51661768  -0.51661768  -0.44204348 -0.0043331177  -0.51661768  0.074574199    143265.02 
  510000    27.598552  -0.51385841  -0.51385841  -0.44209198  0.017889099  -0.51385841  0.071766429    143265.02 
  511000    28.052538   -0.5150204   -0.5150204  -0.44207344  0.054369016   -0.5150204  0.072946962    143265.02 
  512000    28.150671  -0.51530358  -0.51530358  -0.44210144  0.025968274  -0.51530358  0.073202143    143265.02 
  513000    29.123154  -0.51783651  -0.51783651  -0.44210555 -0.016036539  -0.51783651  0.075730958    143265.02 
  514000    29.702923  -0.51928372  -0.51928372  -0.44204514  0.059614696  -0.51928372  0.077238572    143265.02 
  515000    29.327813  -0.51830828  -0.51830828  -0.44204513 -0.0029538537  -0.51830828  0.076263146    143265.02 
  516000    29.484986  -0.51871699  -0.51871699  -0.44204514 -0.0077181669  -0.51871699  0.076671854    143265.02 
  517000    27.350682  -0.51365355  -0.51365355  -0.44253168   0.11099945  -0.51365355  0.071121876    143265.02 
  518000    27.805794  -0.51445351  -0.51445351  -0.44214818   0.12683416  -0.51445351  0.072305335    143265.02 
  519000    28.327867  -0.51576473  -0.51576473  -0.44210181  0.096181048  -0.51576473  0.073662919    143265.02 
  520000     27.74549  -0.51422379  -0.51422379  -0.44207527  0.037206162  -0.51422379  0.072148524    143265.02 
  521000    28.050074  -0.51554864  -0.51554864  -0.44260808   0.12242326  -0.51554864  0.072940554    143265.02 
  522000    28.291097  -0.51563059  -0.51563059  -0.44206329     0.131863  -0.51563059  0.073567302    143265.02 
  523000    26.792028  -0.51171552  -0.51171552  -0.44204635  0.020998773  -0.51171552  0.069669171    143265.02 
  524000    28.271561  -0.51570935  -0.51570935  -0.44219285  0.016425339  -0.51570935  0.073516501    143265.02 
  525000    27.638117  -0.51391505  -0.51391505  -0.44204573   0.03006641  -0.51391505  0.071869314    143265.02 
  526000    28.775891  -0.51728135  -0.51728135  -0.44245341  -0.02465711  -0.51728135  0.074827945    143265.02 
  527000      28.0183  -0.51490304  -0.51490304  -0.44204511   0.10297162  -0.51490304  0.072857931    143265.02 
  528000     28.37042  -0.51582151  -0.51582151  -0.44204794  0.076451889  -0.51582151  0.073773573    143265.02 
  529000    29.479889  -0.51870533  -0.51870533  -0.44204673  0.088017342  -0.51870533  0.076658601    143265.02 
  530000    27.351583  -0.51317016  -0.51317016  -0.44204594   0.10776646  -0.51317016  0.071124218    143265.02 
  531000     26.84145  -0.51187999  -0.51187999  -0.44208231  0.035101451  -0.51187999  0.069797686    143265.02 
  532000    29.253181  -0.51811496  -0.51811496  -0.44204588  0.037585751  -0.51811496  0.076069077    143265.02 
  533000    29.076467  -0.51765504  -0.51765504  -0.44204548  0.018849634  -0.51765504  0.075609554    143265.02 
  534000    28.493054  -0.51613892  -0.51613892  -0.44204646  0.051474203  -0.51613892  0.074092465    143265.02 
  535000    28.227598  -0.51573412  -0.51573412  -0.44233194 0.0022128057  -0.51573412  0.073402182    143265.02 
  536000    25.996267  -0.50973857  -0.50973857  -0.44213867  0.075082181  -0.50973857  0.067599897    143265.02 
  537000    26.712946  -0.51167789  -0.51167789  -0.44221436  0.013711756  -0.51167789  0.069463526    143265.02 
  538000    26.060339  -0.50994175  -0.50994175  -0.44217524  0.074864429  -0.50994175  0.067766507    143265.02 
  539000    25.275234  -0.50777528  -0.50777528  -0.44205033   0.19789586  -0.50777528  0.065724945    143265.02 
  540000    27.665407  -0.51398944  -0.51398944  -0.44204916  0.069798914  -0.51398944  0.071940278    143265.02 
  541000    26.977455  -0.51231394  -0.51231394  -0.44216259  -0.03338092  -0.51231394  0.070151347    143265.02 
  542000    27.865417  -0.51450924  -0.51450924  -0.44204886  0.097315211  -0.51450924  0.072460379    143265.02 
  543000    28.639727  -0.51653697  -0.51653697   -0.4420631  0.044326836  -0.51653697  0.074473869    143265.02 
  544000     29.67054  -0.51920541  -0.51920541  -0.44205105 -0.0077799347  -0.51920541  0.077154363    143265.02 
  545000    25.246889  -0.50770407  -0.50770407  -0.44205283 0.0036053074  -0.50770407  0.065651237    143265.02 
  546000    25.818235   -0.5096592   -0.5096592  -0.44252225   0.13314535   -0.5096592  0.067136948    143265.02 
  547000    26.611326  -0.51201198  -0.51201198   -0.4428127   0.17133426  -0.51201198  0.069199277    143265.02 
  548000    28.933507  -0.51729069  -0.51729069  -0.44205288 -0.010352323  -0.51729069  0.075237805    143265.02 
  549000    29.373461  -0.51918037  -0.51918037  -0.44279852  0.096608827  -0.51918037   0.07638185    143265.02 
  550000    29.215841   -0.5180251   -0.5180251  -0.44205312  0.077649452   -0.5180251   0.07597198    143265.02 
  551000    27.054715  -0.51243899  -0.51243899  -0.44208674   0.13269436  -0.51243899  0.070352253    143265.02 
  552000     28.85779   -0.5175138   -0.5175138  -0.44247289  0.044189103   -0.5175138  0.075040914    143265.02 
  553000    27.812897  -0.51437671  -0.51437671   -0.4420529 -0.048011223  -0.51437671  0.072323807    143265.02 
  554000    25.901018  -0.50940767  -0.50940767  -0.44205545   0.17487274  -0.50940767  0.067352215    143265.02 
  555000    29.316008  -0.51829978  -0.51829978  -0.44206733 -0.034240946  -0.51829978   0.07623245    143265.02 
  556000     27.86988  -0.51452664  -0.51452664  -0.44205465   0.10887402  -0.51452664  0.072471984    143265.02 
  557000    28.816921   -0.5169864   -0.5169864  -0.44205176  0.051962874   -0.5169864  0.074934639    143265.02 
  558000    27.888961  -0.51478849  -0.51478849  -0.44226688 -0.051866821  -0.51478849  0.072521601    143265.02 
  559000    29.508723  -0.51898335  -0.51898335  -0.44224977   0.14918242  -0.51898335  0.076733581    143265.02 
  560000    27.500182  -0.51404461  -0.51404461  -0.44253398 0.0087320282  -0.51404461  0.071510632    143265.02 
  561000    25.199112  -0.50757576  -0.50757576  -0.44204876   0.10828554  -0.50757576     0.065527    143265.02 
  562000    27.077548  -0.51246069  -0.51246069  -0.44204906 -0.080515642  -0.51246069  0.070411626    143265.02 
  563000    27.239251  -0.51288102  -0.51288102   -0.4420489 -0.015466945  -0.51288102  0.070832114    143265.02 
  564000    24.894202  -0.50756749  -0.50756749  -0.44283336  0.062617094  -0.50756749  0.064734122    143265.02 
  565000    27.753007  -0.51517833  -0.51517833  -0.44301026  0.088807733  -0.51517833   0.07216807    143265.02 
  566000    27.573621  -0.51375436  -0.51375436  -0.44205276   0.12794302  -0.51375436  0.071701601    143265.02 
  567000     26.74238  -0.51159337  -0.51159337   -0.4420533  0.032001516  -0.51159337  0.069540066    143265.02 
  568000    29.380235  -0.51885255  -0.51885255  -0.44245309  0.013212578  -0.51885255  0.076399465    143265.02 
  569000    27.407959  -0.51332331  -0.51332331  -0.44205249  0.086908186  -0.51332331  0.071270818    143265.02 
  570000    33.075872  -0.52806071  -0.52806071  -0.44205123 -0.014444482  -0.52806071  0.086009484    143265.02 
  571000    30.198643  -0.52061775  -0.52061775  -0.44209013  0.021438218  -0.52061775  0.078527627    143265.02 
  572000    29.279201  -0.51907923  -0.51907923  -0.44294249 -0.010612401  -0.51907923  0.076136739    143265.02 
  573000    29.222521  -0.51804059  -0.51804059  -0.44205124  0.031476186  -0.51804059   0.07598935    143265.02 
  574000    27.904078  -0.51461189  -0.51461189  -0.44205098   0.07777283  -0.51461189   0.07256091    143265.02 
  575000    28.449524    -0.516144    -0.516144  -0.44216473 -0.0024766772    -0.516144   0.07397927    143265.02 
  576000    29.983755  -0.52011876  -0.52011876  -0.44214992  0.092044876  -0.52011876  0.077968839    143265.02 
  577000    30.386153  -0.52106906  -0.52106906  -0.44205384  0.090240284  -0.52106906  0.079015222    143265.02 
  578000    28.760611  -0.51690506  -0.51690506  -0.44211685 -0.0032201663  -0.51690506  0.074788213    143265.02 
  579000    29.488725    -0.518732    -0.518732  -0.44205042  0.023263614    -0.518732  0.076681579    143265.02 
  580000    27.696263   -0.5143438   -0.5143438  -0.44232328   0.13588591   -0.5143438  0.072020515    143265.02 
  581000    27.613262  -0.51385503  -0.51385503  -0.44205035  0.033588017  -0.51385503  0.071804681    143265.02 
  582000    31.080939  -0.52299612  -0.52299612   -0.4421742 -0.0092850808  -0.52299612  0.080821922    143265.02 
  583000    29.855633  -0.51968624  -0.51968624  -0.44205056 0.0018156008  -0.51968624  0.077635675    143265.02 
  584000    29.053161  -0.51764098  -0.51764098  -0.44209203 -0.095040542  -0.51764098  0.075548951    143265.02 
  585000    26.330711  -0.51051857  -0.51051857    -0.442049 0.0018533967  -0.51051857  0.068469574    143265.02 
  586000    26.983292  -0.51221546  -0.51221546  -0.44204894   0.18671567  -0.51221546  0.070166526    143265.02 
  587000     28.71224  -0.51671182  -0.51671182  -0.44204939  0.014414373  -0.51671182  0.074662429    143265.02 
  588000      31.8808  -0.52495781  -0.52495781  -0.44205595  0.030938891  -0.52495781  0.082901856    143265.02 
  589000    31.954321  -0.52536824  -0.52536824  -0.44227521  0.038861526  -0.52536824  0.083093038    143265.02 
  590000    28.236277  -0.51547534  -0.51547534  -0.44205059   0.21066085  -0.51547534   0.07342475    143265.02 
  591000     29.60676  -0.51960278  -0.51960278  -0.44261426  0.056824206  -0.51960278  0.076988513    143265.02 
  592000    31.095648  -0.52381142  -0.52381142  -0.44295125  0.016980221  -0.52381142  0.080860171    143265.02 
  593000    30.350725  -0.52097142  -0.52097142  -0.44204833 0.0065920641  -0.52097142  0.078923095    143265.02 
  594000    29.970236  -0.51998306  -0.51998306  -0.44204937   0.18734898  -0.51998306  0.077933684    143265.02 
  595000    30.575031  -0.52155635  -0.52155635  -0.44204998  0.057802821  -0.52155635  0.079506375    143265.02 
  596000    27.750823  -0.51421168  -0.51421168  -0.44204929 -0.017781445  -0.51421168   0.07216239    143265.02 
  597000    28.123171  -0.51532731  -0.51532731  -0.44219667 -0.0030750642  -0.51532731  0.073130633    143265.02 
  598000     27.17639   -0.5127197   -0.5127197  -0.44205105   0.10023552   -0.5127197  0.070668653    143265.02 
  599000     27.58609  -0.51378521  -0.51378521  -0.44205118  0.026643785  -0.51378521  0.071734025    143265.02 
  600000    27.163002   -0.5127721   -0.5127721  -0.44213826  0.010206774   -0.5127721  0.070633838    143265.02 
  601000    27.418325  -0.51334725  -0.51334725  -0.44204948  0.026075126  -0.51334725  0.071297773    143265.02 
  602000    30.286309  -0.52080505  -0.52080505  -0.44204946  0.047864021  -0.52080505  0.078755592    143265.02 
  603000     29.32216  -0.51879936  -0.51879936  -0.44255092  0.098885599  -0.51879936  0.076248447    143265.02 
  604000     27.57451   -0.5137527   -0.5137527  -0.44204878   0.05227097   -0.5137527  0.071703911    143265.02 
  605000    28.453877  -0.51603983  -0.51603983  -0.44204923  0.043518446  -0.51603983  0.073990592    143265.02 
  606000    26.186184  -0.51071035  -0.51071035   -0.4426166  0.011387735  -0.51071035  0.068093751    143265.02 
  607000    27.991794  -0.51494346  -0.51494346  -0.44215446   0.15784711  -0.51494346  0.072789006    143265.02 
  608000    27.376105  -0.51337331  -0.51337331  -0.44218532  0.055455391  -0.51337331  0.071187985    143265.02 
  609000     26.20089  -0.51018436  -0.51018436  -0.44205237 0.0092646585  -0.51018436  0.068131992    143265.02 
  610000    27.354552  -0.51318478  -0.51318478  -0.44205284 -0.047820087  -0.51318478  0.071131941    143265.02 
  611000    28.108801  -0.51554119  -0.51554119  -0.44244792   0.12248952  -0.51554119  0.073093266    143265.02 
  612000    28.633332  -0.51653259  -0.51653259  -0.44207535  0.095071438  -0.51653259  0.074457241    143265.02 
  613000    26.232737  -0.51026695  -0.51026695  -0.44205214  0.058462647  -0.51026695  0.068214807    143265.02 
  614000    25.858563  -0.50929464  -0.50929464  -0.44205283 -0.014819518  -0.50929464  0.067241816    143265.02 
  615000    25.723066  -0.50898979  -0.50898979  -0.44210031   0.20319115  -0.50898979  0.066889474    143265.02 
  616000    25.027032  -0.50713437  -0.50713437  -0.44205484 -0.015806341  -0.50713437  0.065079527    143265.02 
  617000    26.195496  -0.51017217  -0.51017217  -0.44205421   0.10607024  -0.51017217  0.068117966    143265.02 
  618000    27.171954  -0.51272157  -0.51272157  -0.44206446 -0.0035150217  -0.51272157  0.070657116    143265.02 
  619000    29.781294  -0.51950337  -0.51950337  -0.44206101   0.14952049  -0.51950337  0.077442365    143265.02 
  620000    28.498244  -0.51615981  -0.51615981  -0.44205385 0.0042883001  -0.51615981  0.074105962    143265.02 
  621000    29.390772   -0.5184808   -0.5184808  -0.44205394 0.0093454522   -0.5184808  0.076426865    143265.02 
  622000    29.454253  -0.51867558  -0.51867558  -0.44208365 0.0057499744  -0.51867558  0.076591938    143265.02 
  623000    32.866975   -0.5275263   -0.5275263  -0.44206002 -0.033158524   -0.5275263  0.085466275    143265.02 
  624000     29.17066  -0.51791358  -0.51791358  -0.44205909  0.028838375  -0.51791358  0.075854492    143265.02 
  625000    28.444733  -0.51602666  -0.51602666  -0.44205985  0.074241369  -0.51602666  0.073966812    143265.02 
  626000    29.592395  -0.51901155  -0.51901155  -0.44206039   0.12866368  -0.51901155  0.076951157    143265.02 
  627000    30.262595  -0.52087841  -0.52087841  -0.44218449 -0.034441344  -0.52087841  0.078693927    143265.02 
  628000    28.116835  -0.51521026  -0.51521026  -0.44209611 -0.0066470157  -0.51521026  0.073114158    143265.02 
  629000    30.756439  -0.52208508  -0.52208508  -0.44210698 0.0045946169  -0.52208508  0.079978103    143265.02 
  630000    31.758362  -0.52468526  -0.52468526  -0.44210179 -0.0084603675  -0.52468526  0.082583473    143265.02 
  631000    28.736244  -0.51679701  -0.51679701  -0.44207216   0.33544915  -0.51679701  0.074724848    143265.02 
  632000    29.481888  -0.51872046  -0.51872046  -0.44205666  0.041633595  -0.51872046    0.0766638    143265.02 
  633000    32.239341   -0.5261512   -0.5261512  -0.44231701    0.2033773   -0.5261512  0.083834195    143265.02 
  634000    33.865593  -0.53012254  -0.53012254  -0.44205948   0.03778215  -0.53012254  0.088063053    143265.02 
  635000    31.307465  -0.52373559  -0.52373559  -0.44232461 -0.013390794  -0.52373559  0.081410974    143265.02 
  636000    31.335894  -0.52357186  -0.52357186  -0.44208696   0.11709001  -0.52357186    0.0814849    143265.02 
  637000    29.556411  -0.51901574  -0.51901574  -0.44215815  0.063336957  -0.51901574  0.076857586    143265.02 
  638000    31.297667  -0.52383184  -0.52383184  -0.44244634 -0.0021814328  -0.52383184  0.081385496    143265.02 
  639000    30.094383   -0.5203325   -0.5203325  -0.44207599 -0.034040597   -0.5203325  0.078256512    143265.02 
  640000    30.513667  -0.52145604  -0.52145604  -0.44210924 0.0062377503  -0.52145604  0.079346805    143265.02 
  641000    27.917508  -0.51469304  -0.51469304  -0.44209721 0.0098322543  -0.51469304  0.072595835    143265.02 
  642000    27.236985   -0.5128846   -0.5128846  -0.44205838   0.12197529   -0.5128846  0.070826221    143265.02 
  643000    29.165323  -0.51792288  -0.51792288  -0.44208227  0.045275583  -0.51792288  0.075840614    143265.02 
  644000    27.447013    -0.514402    -0.514402  -0.44302963   0.11889154    -0.514402  0.071372374    143265.02 
  645000    28.419189  -0.51672264  -0.51672264  -0.44282225 0.0020154258  -0.51672264  0.073900389    143265.02 
  646000    26.967896   -0.5121813   -0.5121813  -0.44205481  0.016856164   -0.5121813  0.070126492    143265.02 
  647000    27.856561  -0.51449239  -0.51449239  -0.44205504  0.092600413  -0.51449239  0.072437349    143265.02 
  648000    30.229739  -0.52069535  -0.52069535  -0.44208686  0.030036335  -0.52069535  0.078608489    143265.02 
  649000    29.376278  -0.51844572  -0.51844572  -0.44205654 -0.0076240816  -0.51844572  0.076389175    143265.02 
  650000     29.04383  -0.51758166  -0.51758166  -0.44205697 -0.015547727  -0.51758166  0.075524688    143265.02 
  651000    29.306285  -0.51835672  -0.51835672  -0.44214955   0.08770452  -0.51835672  0.076207166    143265.02 
  652000    28.342018  -0.51621382  -0.51621382  -0.44251411   0.05758306  -0.51621382  0.073699716    143265.02 
  653000     29.75105  -0.51941933  -0.51941933  -0.44205561  0.059830379  -0.51941933  0.077363721    143265.02 
  654000    28.337619   -0.5157874   -0.5157874  -0.44209913  0.035226726   -0.5157874  0.073688278    143265.02 
  655000    28.888353   -0.5171737   -0.5171737  -0.44205331  0.056676629   -0.5171737   0.07512039    143265.02 
  656000     28.54116  -0.51640004  -0.51640004  -0.44218248  0.057345244  -0.51640004  0.074217558    143265.02 
  657000    30.593696   -0.5216083   -0.5216083  -0.44205338 -0.056663687   -0.5216083   0.07955491    143265.02 
  658000    30.307511  -0.52086473  -0.52086473  -0.44205401 0.0027824356  -0.52086473  0.078810725    143265.02 
  659000    29.232305  -0.51823952  -0.51823952  -0.44222473  0.052090191  -0.51823952  0.076014791    143265.02 
  660000    29.251449  -0.51811264  -0.51811264  -0.44204806 -0.053195673  -0.51811264  0.076064572    143265.02 
  661000    28.727907  -0.51675846  -0.51675846  -0.44205529   0.12659385  -0.51675846  0.074703169    143265.02 
  662000    32.479077  -0.52650714  -0.52650714  -0.44204954  0.051858771  -0.52650714  0.084457599    143265.02 
  663000    30.502732  -0.52142072  -0.52142072  -0.44210235   0.12186532  -0.52142072  0.079318371    143265.02 
  664000    29.481793  -0.51875121  -0.51875121  -0.44208766 -0.079817954  -0.51875121  0.076663552    143265.02 
  665000    33.202377  -0.52841855  -0.52841855   -0.4420801   0.11632783  -0.52841855  0.086338445    143265.02 
  666000    30.528535   -0.5214334   -0.5214334  -0.44204793  0.046839678   -0.5214334  0.079385468    143265.02 
  667000    33.554605  -0.52992441  -0.52992441  -0.44267005 -0.016414876  -0.52992441  0.087254368    143265.02 
  668000    30.432394  -0.52118222  -0.52118222  -0.44204675  0.019865641  -0.52118222  0.079135466    143265.02 
  669000    33.669057   -0.5295986   -0.5295986  -0.44204662  0.035727997   -0.5295986  0.087551985    143265.02 
  670000    30.050308  -0.52054329  -0.52054329  -0.44240139    0.1415091  -0.52054329  0.078141901    143265.02 
  671000    33.662128  -0.53046226  -0.53046226  -0.44292829 0.00077903786  -0.53046226  0.087533968    143265.02 
  672000    30.247222  -0.52156536  -0.52156536  -0.44291141   0.12834135  -0.52156536  0.078653951    143265.02 
  673000    30.633635  -0.52175136  -0.52175136  -0.44209259  -0.01693948  -0.52175136  0.079658768    143265.02 
  674000    31.408763  -0.52382234  -0.52382234  -0.44214796   0.15800803  -0.52382234  0.081674386    143265.02 
  675000    30.411177  -0.52112691  -0.52112691  -0.44204662 -0.036941352  -0.52112691  0.079080294    143265.02 
  676000    28.390269  -0.51601907  -0.51601907  -0.44219388  0.089161393  -0.51601907  0.073825185    143265.02 
  677000    27.916384  -0.51464045  -0.51464045  -0.44204753  0.046302475  -0.51464045  0.072592911    143265.02 
  678000    29.383695  -0.51856719  -0.51856719  -0.44215873  0.068796675  -0.51856719  0.076408461    143265.02 
  679000    28.139882  -0.51530103  -0.51530103  -0.44212694 -0.0052724731  -0.51530103  0.073174089    143265.02 
  680000    28.151565  -0.51560461  -0.51560461  -0.44240014  0.036862161  -0.51560461  0.073204468    143265.02 
  681000    28.595073   -0.5164625   -0.5164625  -0.44210475  0.081820436   -0.5164625  0.074357752    143265.02 
  682000    32.715502    -0.527117    -0.527117  -0.44204461   0.13568783    -0.527117   0.08507239    143265.02 
  683000    31.756188  -0.52462259  -0.52462259  -0.44204477 -0.040640231  -0.52462259   0.08257782    143265.02 
  684000    29.655423  -0.51920138  -0.51920138  -0.44208632  0.020787495  -0.51920138  0.077115054    143265.02 
  685000    32.732488  -0.52727323  -0.52727323  -0.44215667  0.021284341  -0.52727323  0.085116559    143265.02 
  686000    28.858636  -0.51710513  -0.51710513  -0.44206202  0.059493697  -0.51710513  0.075043114    143265.02 
  687000     27.88143  -0.51466139  -0.51466139  -0.44215937  0.084028557  -0.51466139  0.072502016    143265.02 
  688000     27.91235  -0.51462443  -0.51462443  -0.44204201   0.14783299  -0.51462443  0.072582422    143265.02 
  689000    27.577377  -0.51375194  -0.51375194  -0.44204057  0.067992615  -0.51375194  0.071711368    143265.02 
  690000    30.696594  -0.52186365  -0.52186365  -0.44204116   0.10186854  -0.52186365  0.079822483    143265.02 
  691000    29.225664  -0.51810557  -0.51810557  -0.44210805 0.0061436963  -0.51810557  0.075997523    143265.02 
  692000     30.76372  -0.52203941  -0.52203941  -0.44204237 -0.050211806  -0.52203941  0.079997036    143265.02 
  693000    30.455041  -0.52123678  -0.52123678  -0.44204242 -0.064419934  -0.52123678  0.079194355    143265.02 
  694000    29.422672  -0.51861606  -0.51861606  -0.44210624  0.061867065  -0.51861606  0.076509816    143265.02 
  695000    26.663655  -0.51157465  -0.51157465   -0.4422393   0.14094552  -0.51157465  0.069335352    143265.02 
  696000    27.696915  -0.51436892  -0.51436892  -0.44234671  0.023816018  -0.51436892  0.072022209    143265.02 
  697000    26.572764  -0.51157976  -0.51157976  -0.44248075 -0.033342272  -0.51157976  0.069099001    143265.02 
  698000    26.600771  -0.51124327  -0.51124327  -0.44207144  0.057329103  -0.51124327  0.069171831    143265.02 
  699000    28.073788  -0.51504418  -0.51504418  -0.44204196  0.066848418  -0.51504418  0.073002219    143265.02 
  700000    31.955769  -0.52513945  -0.52513945  -0.44204265  0.098906945  -0.52513945  0.083096805    143265.02 
  701000    27.320515  -0.51308671  -0.51308671  -0.44204328   0.19280133  -0.51308671  0.071043431    143265.02 
  702000    29.867385  -0.51971017  -0.51971017  -0.44204394 -0.013318836  -0.51971017  0.077666234    143265.02 
  703000    31.992067  -0.52524545  -0.52524545  -0.44205426   0.13658187  -0.52524545  0.083191192    143265.02 
  704000    30.961753  -0.52255746  -0.52255746  -0.44204547  0.053518927  -0.52255746  0.080511994    143265.02 
  705000    30.218164  -0.52062371  -0.52062371  -0.44204532  0.018339191  -0.52062371  0.078578389    143265.02 
  706000     34.22915  -0.53105398  -0.53105398  -0.44204555   0.11666801  -0.53105398  0.089008434    143265.02 
  707000    30.981917  -0.52284733  -0.52284733   -0.4422829 -0.070083732  -0.52284733  0.080564428    143265.02 
  708000    30.043742  -0.52023923  -0.52023923   -0.4421144  -0.01531269  -0.52023923  0.078124827    143265.02 
  709000    32.526728  -0.52662777  -0.52662777  -0.44204627 0.0041965573  -0.52662777  0.084581508    143265.02 
  710000     29.36878  -0.51841754  -0.51841754  -0.44204786 0.0046934864  -0.51841754  0.076369678    143265.02 
  711000    31.188225  -0.52314488  -0.52314488  -0.44204397  0.015501343  -0.52314488  0.081100906    143265.02 
  712000    31.772941  -0.52485122  -0.52485122  -0.44222984  0.033724976  -0.52485122  0.082621384    143265.02 
  713000    31.121045  -0.52389186  -0.52389186  -0.44296565 0.0034350149  -0.52389186  0.080926212    143265.02 
  714000    32.084185  -0.52547533  -0.52547533   -0.4420446   0.16863547  -0.52547533  0.083430732    143265.02 
  715000    33.296466  -0.52896135  -0.52896135  -0.44237824 -0.015782201  -0.52896135  0.086583112    143265.02 
  716000    33.862056  -0.53014459  -0.53014459  -0.44209074 -0.021620555  -0.53014459  0.088053855    143265.02 
  717000    31.927206  -0.52518135  -0.52518135  -0.44215882  0.064341263  -0.52518135  0.083022529    143265.02 
  718000    30.558918  -0.52150313  -0.52150313  -0.44203866   0.06105926  -0.52150313  0.079464474    143265.02 
  719000    31.379834  -0.52363656  -0.52363656   -0.4420374  0.094507874  -0.52363656   0.08159916    143265.02 
  720000    29.157423  -0.51785783  -0.51785783  -0.44203776   0.04809484  -0.51785783   0.07582007    143265.02 
  721000    28.500085  -0.51627398  -0.51627398  -0.44216323  0.016667795  -0.51627398   0.07411075    143265.02 
  722000    29.528804  -0.51882426  -0.51882426  -0.44203847  0.032074842  -0.51882426  0.076785799    143265.02 
  723000    28.175509  -0.51530801  -0.51530801  -0.44204127    0.1019926  -0.51530801  0.073266731    143265.02 
  724000    29.821307  -0.51969216  -0.51969216  -0.44214574 0.0094186672  -0.51969216  0.077546415    143265.02 
  725000    31.678106  -0.52441509  -0.52441509  -0.44204031  0.015082017  -0.52441509  0.082374777    143265.02 
  726000    29.148891  -0.51783775  -0.51783775  -0.44203987  0.057071837  -0.51783775  0.075797884    143265.02 
  727000    27.214011  -0.51325426  -0.51325426  -0.44248778 0.0001642607  -0.51325426   0.07076648    143265.02 
  728000    29.715629  -0.52009597  -0.52009597  -0.44282436 -0.036965638  -0.52009597  0.077271611    143265.02 
  729000    30.732665  -0.52195629  -0.52195629     -0.44204 -0.0013808659  -0.52195629  0.079916282    143265.02 
  730000    29.007496  -0.51764506  -0.51764506  -0.44221486  0.038884459  -0.51764506  0.075430204    143265.02 
  731000    30.384281   -0.5211294   -0.5211294  -0.44211904  0.042472431   -0.5211294  0.079010355    143265.02 
  732000    29.255571   -0.5181157   -0.5181157  -0.44204041  0.099125306   -0.5181157  0.076075293    143265.02 
  733000     29.69271  -0.51925463  -0.51925463  -0.44204262   0.17417716  -0.51925463  0.077212015    143265.02 
  734000    29.188972  -0.51797108  -0.51797108  -0.44206897   0.07618368  -0.51797108   0.07590211    143265.02 
  735000    28.907828  -0.51723839  -0.51723839  -0.44206736  0.082393838  -0.51723839   0.07517103    143265.02 
  736000    30.718557  -0.52234225  -0.52234225  -0.44246266  0.092219591  -0.52234225  0.079879595    143265.02 
  737000    29.219834  -0.51802844  -0.51802844  -0.44204608  0.089796095  -0.51802844  0.075982361    143265.02 
  738000    27.478797  -0.51349933  -0.51349933  -0.44204431 -0.0013022816  -0.51349933  0.071455023    143265.02 
  739000    25.543721  -0.50981118  -0.50981118  -0.44338807  0.067856434  -0.50981118   0.06642311    143265.02 
  740000     28.40598  -0.51686505  -0.51686505  -0.44299901  0.063201023  -0.51686505  0.073866042    143265.02 
  741000    29.423528  -0.51855731  -0.51855731  -0.44204527 0.0055301038  -0.51855731  0.076512043    143265.02 
  742000    29.366344  -0.51850064  -0.51850064   -0.4421373  0.037720497  -0.51850064  0.076363343    143265.02 
  743000    30.921934  -0.52256704  -0.52256704  -0.44215859  0.094063084  -0.52256704  0.080408451    143265.02 
  744000    27.767463  -0.51481826  -0.51481826   -0.4426126  0.028316007  -0.51481826   0.07220566    143265.02 
  745000    28.470973  -0.51618127  -0.51618127  -0.44214622 -0.053100914  -0.51618127  0.074035048    143265.02 
  746000    28.073102   -0.5153852   -0.5153852  -0.44238476   0.22296108   -0.5153852  0.073000436    143265.02 
  747000    29.165408  -0.51788728  -0.51788728  -0.44204644 -0.030656118  -0.51788728  0.075840835    143265.02 
  748000    29.608072  -0.51920151  -0.51920151  -0.44220958  0.070492089  -0.51920151  0.076991924    143265.02 
  749000    30.178684  -0.52052158  -0.52052158  -0.44204585 -0.087577995  -0.52052158  0.078475726    143265.02 
  750000    31.531378  -0.52404052  -0.52404052  -0.44204729  0.041401202  -0.52404052   0.08199323    143265.02 
  751000    28.784887  -0.51689793  -0.51689793   -0.4420466 0.0031508747  -0.51689793  0.074851339    143265.02 
  752000    28.194748  -0.51536283  -0.51536283  -0.44204607 0.0044469339  -0.51536283   0.07331676    143265.02 
  753000    30.616619  -0.52172914  -0.52172914  -0.44211462 -0.0022209202  -0.52172914  0.079614518    143265.02 
  754000    29.123815  -0.51777927  -0.51777927   -0.4420466 -0.037059365  -0.51777927  0.075732678    143265.02 
  755000    27.478056  -0.51354846  -0.51354846  -0.44209536   0.13729089  -0.51354846  0.071453096    143265.02 
  756000    27.901797  -0.51464117  -0.51464117  -0.44208619  0.034054443  -0.51464117   0.07255498    143265.02 
  757000    25.039607  -0.50715667  -0.50715667  -0.44204444  0.071412393  -0.50715667  0.065112228    143265.02 
  758000    27.675595  -0.51503078  -0.51503078  -0.44306401  0.092962573  -0.51503078   0.07196677    143265.02 
  759000    31.238243  -0.52328106  -0.52328106  -0.44205009  0.081225344  -0.52328106   0.08123097    143265.02 
  760000    31.812274  -0.52527339  -0.52527339  -0.44254973  0.060044588  -0.52527339  0.082723664    143265.02 
  761000      31.1572  -0.52306543  -0.52306543   -0.4420452  0.010679622  -0.52306543  0.081020229    143265.02 
  762000    30.694869  -0.52185954  -0.52185954  -0.44204154  0.079141557  -0.52185954  0.079817999    143265.02 
  763000    31.220945  -0.52364092  -0.52364092  -0.44245493  0.047511616  -0.52364092  0.081185991    143265.02 
  764000    33.351165  -0.52880388  -0.52880388  -0.44207853  0.081116127  -0.52880388  0.086725348    143265.02 
  765000    32.245319  -0.52589418  -0.52589418  -0.44204444  0.042936245  -0.52589418   0.08384974    143265.02 
  766000    31.906458  -0.52573196  -0.52573196  -0.44276338  0.028736942  -0.52573196  0.082968578    143265.02 
  767000    28.848735  -0.51708293  -0.51708293  -0.44206556  0.065374869  -0.51708293  0.075017367    143265.02 
  768000    28.180804  -0.51532825  -0.51532825  -0.44204775     0.166005  -0.51532825    0.0732805    143265.02 
  769000    29.590573  -0.51899683  -0.51899683  -0.44205041    0.0531027  -0.51899683  0.076946421    143265.02 
  770000    27.547125  -0.51368347  -0.51368347  -0.44205077  0.021441001  -0.51368347  0.071632701    143265.02 
  771000    27.608889  -0.51430638  -0.51430638  -0.44251307  0.089128662  -0.51430638   0.07179331    143265.02 
  772000    28.063916  -0.51600397  -0.51600397  -0.44302742  0.085727144  -0.51600397  0.072976549    143265.02 
  773000    28.225799  -0.51559459  -0.51559459  -0.44219708   0.22118913  -0.51559459  0.073397505    143265.02 
  774000    29.869972  -0.51972104  -0.51972104  -0.44204808  -0.03475111  -0.51972104  0.077672962    143265.02 
  775000    29.179292  -0.51861098  -0.51861098  -0.44273404  0.080038159  -0.51861098  0.075876938    143265.02 
  776000    29.031778  -0.51754397  -0.51754397  -0.44205062  0.025113844  -0.51754397  0.075493348    143265.02 
  777000    29.344574  -0.51835811  -0.51835811  -0.44205138  0.066335004  -0.51835811  0.076306733    143265.02 
  778000    28.319545  -0.51569235  -0.51569235  -0.44205108   0.13540938  -0.51569235  0.073641277    143265.02 
  779000     31.39334  -0.52368593  -0.52368593  -0.44205165  0.092386212  -0.52368593  0.081634281    143265.02 
  780000    31.241445  -0.52328913  -0.52328913  -0.44204983  0.016025125  -0.52328913  0.081239298    143265.02 
  781000    31.771476  -0.52466908  -0.52466908   -0.4420515 -0.051911169  -0.52466908  0.082617573    143265.02 
  782000    30.131554  -0.52052912  -0.52052912  -0.44217595  0.060802588  -0.52052912  0.078353172    143265.02 
  783000    30.350712  -0.52098329  -0.52098329  -0.44206022  0.019357419  -0.52098329  0.078923063    143265.02 
  784000    30.908088   -0.5227131   -0.5227131  -0.44234066   0.03345617   -0.5227131  0.080372447    143265.02 
  785000    27.873099  -0.51507217  -0.51507217  -0.44259182  0.082512405  -0.51507217  0.072480353    143265.02 
  786000    27.406122  -0.51420202  -0.51420202  -0.44293598   0.26181177  -0.51420202  0.071266042    143265.02 
  787000    28.554362  -0.51644746  -0.51644746  -0.44219557  0.061258667  -0.51644746   0.07425189    143265.02 
  788000    30.188707  -0.52062197  -0.52062197  -0.44212018   0.10090602  -0.52062197   0.07850179    143265.02 
  789000    30.677008  -0.52191702  -0.52191702  -0.44214547    0.1711087  -0.52191702  0.079771554    143265.02 
  790000    32.676837  -0.52702049  -0.52702049  -0.44204864 -0.045890715  -0.52702049  0.084971847    143265.02 
  791000    30.069183  -0.52037976  -0.52037976  -0.44218878  0.046648916  -0.52037976  0.078190983    143265.02 
  792000    27.582225  -0.51377034  -0.51377034  -0.44204636  0.016874733  -0.51377034  0.071723973    143265.02 
  793000    30.463307  -0.52126371  -0.52126371  -0.44204786  0.082013067  -0.52126371  0.079215852    143265.02 
  794000    30.201043  -0.52058175  -0.52058175  -0.44204789  0.098470913  -0.52058175  0.078533867    143265.02 
  795000    28.380164  -0.51584667  -0.51584667  -0.44204776  0.050899821  -0.51584667  0.073798909    143265.02 
  796000    28.807732  -0.51704451  -0.51704451  -0.44213377 -0.028822131  -0.51704451  0.074910745    143265.02 
  797000    29.877524  -0.51982016  -0.51982016  -0.44212756 -0.066711093  -0.51982016  0.077692598    143265.02 
  798000    32.532213  -0.52664449  -0.52664449  -0.44204872 0.0017361778  -0.52664449  0.084595772    143265.02 
  799000    29.990092  -0.52003448  -0.52003448  -0.44204916   0.22044859  -0.52003448  0.077985318    143265.02 
  800000    31.384479  -0.52409981  -0.52409981  -0.44248857   0.11011937  -0.52409981  0.081611239    143265.02 
  801000    29.617863  -0.51953558  -0.51953558   -0.4425182  0.053114284  -0.51953558  0.077017384    143265.02 
  802000    30.126003  -0.52158544  -0.52158544   -0.4432467  0.072282703  -0.52158544  0.078338737    143265.02 
  803000    30.090632  -0.52028961  -0.52028961  -0.44204285   0.02835673  -0.52028961   0.07824676    143265.02 
  804000    28.261063  -0.51561317  -0.51561317  -0.44212397   0.17275338  -0.51561317  0.073489203    143265.02 
  805000    29.965734    -0.519963    -0.519963  -0.44204102 -0.035350061    -0.519963  0.077921977    143265.02 
  806000    29.849596  -0.51966104  -0.51966104  -0.44204107 -0.019528274  -0.51966104  0.077619976    143265.02 
  807000    29.517521   -0.5187977   -0.5187977  -0.44204124  0.032925545   -0.5187977  0.076756459    143265.02 
  808000    29.024054  -0.51751611  -0.51751611  -0.44204285  0.033381177  -0.51751611  0.075473262    143265.02 
  809000    28.438407  -0.51599065  -0.51599065  -0.44204029  0.025133325  -0.51599065  0.073950363    143265.02 
  810000    30.272305  -0.52075889  -0.52075889  -0.44203971   0.13334684  -0.52075889  0.078719177    143265.02 
  811000    30.803856  -0.52225621  -0.52225621   -0.4421548 -0.0075471932  -0.52225621  0.080101403    143265.02 
  812000    30.533616   -0.5215786   -0.5215786  -0.44217992   0.12827404   -0.5215786  0.079398681    143265.02 
  813000    30.166705  -0.52060504  -0.52060504  -0.44216047  0.053396548  -0.52060504  0.078444577    143265.02 
  814000    27.371129  -0.51327809  -0.51327809  -0.44210304 -0.029035023  -0.51327809  0.071175046    143265.02 
  815000    28.910344  -0.51759026  -0.51759026  -0.44241268  0.070301446  -0.51759026  0.075177573    143265.02 
  816000    32.627598  -0.52702685  -0.52702685  -0.44218304 0.0075374249  -0.52702685  0.084843808    143265.02 
  817000    29.285761    -0.518195    -0.518195   -0.4420412 -0.021103754    -0.518195  0.076153796    143265.02 
  818000    29.760173   -0.5194793   -0.5194793  -0.44209186  0.091566649   -0.5194793  0.077387443    143265.02 
  819000    32.129852   -0.5255894   -0.5255894  -0.44203992   0.14995408   -0.5255894  0.083549484    143265.02 
  820000    34.978747  -0.53323318  -0.53323318  -0.44227551    0.1422839  -0.53323318  0.090957665    143265.02 
  821000    32.051628  -0.52538458  -0.52538458  -0.44203851  0.077661858  -0.52538458  0.083346074    143265.02 
  822000    32.381651  -0.52669871  -0.52669871  -0.44249446  0.074145717  -0.52669871  0.084204253    143265.02 
  823000     29.63535   -0.5191137   -0.5191137  -0.44205084  0.018961419   -0.5191137  0.077062856    143265.02 
  824000    31.059767  -0.52316112  -0.52316112  -0.44239425 -0.0033311659  -0.52316112  0.080766866    143265.02 
  825000    30.664372  -0.52181747  -0.52181747  -0.44207878  0.029375734  -0.52181747  0.079738696    143265.02 
  826000    29.761712  -0.52115932  -0.52115932  -0.44376788   0.10845354  -0.52115932  0.077391446    143265.02 
  827000    31.826902  -0.52481325  -0.52481325  -0.44205155  0.060625963  -0.52481325  0.082761701    143265.02 
  828000    29.596557  -0.51901334  -0.51901334  -0.44205136   0.13646575  -0.51901334  0.076961982    143265.02 
  829000     28.86393  -0.51711144  -0.51711144  -0.44205455  0.085973693  -0.51711144  0.075056881    143265.02 
  830000    31.494462  -0.52396871  -0.52396871  -0.44207147 -0.017466188  -0.52396871  0.081897234    143265.02 
  831000    29.041384   -0.5179314   -0.5179314  -0.44241307    0.1035677   -0.5179314  0.075518325    143265.02 
  832000    26.657589  -0.51137206  -0.51137206  -0.44205248   0.16827737  -0.51137206   0.06931958    143265.02 
  833000    25.945649  -0.50990425  -0.50990425  -0.44243597  0.097643688  -0.50990425  0.067468271    143265.02 
  834000     27.03464  -0.51251412  -0.51251412  -0.44221407   0.16823838  -0.51251412  0.070300051    143265.02 
  835000    28.163601   -0.5152873   -0.5152873  -0.44205153   0.14472707   -0.5152873  0.073235767    143265.02 
  836000    28.984191  -0.51741711  -0.51741711   -0.4420475 -0.00032062957  -0.51741711  0.075369602    143265.02 
  837000    29.189531  -0.51795133  -0.51795133  -0.44204777  0.027939981  -0.51795133  0.075903563    143265.02 
  838000    25.941457  -0.50950544  -0.50950544  -0.44204807  0.027330455  -0.50950544  0.067457371    143265.02 
  839000    26.500916  -0.51105202  -0.51105202  -0.44213985 -0.0073569487  -0.51105202  0.068912171    143265.02 
  840000    27.159951  -0.51268333  -0.51268333  -0.44205742  0.029009194  -0.51268333  0.070625905    143265.02 
  841000    26.366389  -0.51067405  -0.51067405   -0.4421117  0.044532682  -0.51067405  0.068562351    143265.02 
  842000    26.269374  -0.51035754  -0.51035754  -0.44204746   0.07473495  -0.51035754  0.068310076    143265.02 
  843000    26.864825  -0.51190559  -0.51190559  -0.44204712   0.12884819  -0.51190559  0.069858469    143265.02 
  844000    25.029257  -0.50740965  -0.50740965  -0.44232433  0.014008999  -0.50740965  0.065085315    143265.02 
  845000     25.27981  -0.50896684  -0.50896684     -0.44323  0.097070936  -0.50896684  0.065736844    143265.02 
  846000    27.531848  -0.51364273  -0.51364273  -0.44204976  0.095726703  -0.51364273  0.071592974    143265.02 
  847000    28.669499  -0.51695249  -0.51695249   -0.4424012 -0.048343715  -0.51695249  0.074551287    143265.02 
  848000    29.268352  -0.51826705  -0.51826705  -0.44215853    0.0852789  -0.51826705  0.076108526    143265.02 
  849000    28.292909   -0.5156245   -0.5156245  -0.44205248  -0.04152747   -0.5156245  0.073572014    143265.02 
  850000    30.868242  -0.52233522  -0.52233522  -0.44206639  0.077402774  -0.52233522  0.080268832    143265.02 
  851000    27.640764  -0.51442888  -0.51442888  -0.44255268  0.043636739  -0.51442888  0.071876198    143265.02 
  852000    30.695284  -0.52187221  -0.52187221  -0.44205313  0.055757409  -0.52187221  0.079819076    143265.02 
  853000    31.808409  -0.52477745  -0.52477745  -0.44206384  0.063214806  -0.52477745  0.082713612    143265.02 
  854000    30.590392  -0.52159874  -0.52159874  -0.44205242  0.084636174  -0.52159874   0.07954632    143265.02 
  855000    30.781258  -0.52209448  -0.52209448  -0.44205184 -0.073952412  -0.52209448  0.080042641    143265.02 
  856000    30.187603  -0.52069806  -0.52069806  -0.44219914    0.1263373  -0.52069806   0.07849892    143265.02 
  857000     29.88922  -0.52006529  -0.52006529  -0.44234228   0.14571678  -0.52006529  0.077723012    143265.02 
  858000     29.67954  -0.51922392  -0.51922392  -0.44204615  0.089318295  -0.51922392  0.077177767    143265.02 
  859000    30.123747  -0.52038051  -0.52038051  -0.44204764  0.042436988  -0.52038051   0.07833287    143265.02 
  860000    29.789616   -0.5195147   -0.5195147  -0.44205069  0.020506882   -0.5195147  0.077464006    143265.02 
  861000    29.551229  -0.51889251  -0.51889251  -0.44204839  0.025132497  -0.51889251  0.076844111    143265.02 
  862000    25.581703  -0.50857047  -0.50857047  -0.44204859  0.075838068  -0.50857047  0.066521877    143265.02 
  863000    27.042318   -0.5123699   -0.5123699  -0.44204989   0.12409931   -0.5123699  0.070320015    143265.02 
  864000    28.875205  -0.51713538  -0.51713538  -0.44204918 0.00065517123  -0.51713538  0.075086199    143265.02 
  865000    27.638541  -0.51406049  -0.51406049  -0.44219008  0.062553753  -0.51406049  0.071870417    143265.02 
  866000    28.779309  -0.51729547  -0.51729547  -0.44245864  0.040584576  -0.51729547  0.074836835    143265.02 
  867000    28.967115  -0.51739139  -0.51739139  -0.44206619 -0.063732739  -0.51739139  0.075325199    143265.02 
  868000    30.307372   -0.5209955   -0.5209955  -0.44218514  0.085588825   -0.5209955  0.078810364    143265.02 
  869000    31.383655  -0.52366148  -0.52366148  -0.44205239  0.021162408  -0.52366148  0.081609095    143265.02 
  870000    29.888629  -0.51977301  -0.51977301  -0.44205153 -0.0091883823  -0.51977301  0.077721475    143265.02 
  871000    32.134566  -0.52614523  -0.52614523  -0.44258349  0.021477107  -0.52614523  0.083561741    143265.02 
  872000    29.077683  -0.51766514  -0.51766514  -0.44205243   0.12045838  -0.51766514  0.075612717    143265.02 
  873000    26.783418  -0.51169937  -0.51169937  -0.44205259   0.02150716  -0.51169937  0.069646781    143265.02 
  874000    28.157807  -0.51527354  -0.51527354  -0.44205284  0.061528801  -0.51527354    0.0732207    143265.02 
  875000    29.635248  -0.51911398  -0.51911398  -0.44205139  0.014941177  -0.51911398  0.077062592    143265.02 
  876000    26.528625  -0.51124269  -0.51124269  -0.44225846  0.050145457  -0.51124269  0.068984226    143265.02 
  877000    25.136035  -0.50749084  -0.50749084  -0.44212787 -0.016556116  -0.50749084  0.065362977    143265.02 
  878000    27.848348  -0.51446909  -0.51446909  -0.44205309  0.029015626  -0.51446909  0.072415993    143265.02 
  879000    30.317832  -0.52089058  -0.52089058  -0.44205302 0.0012199409  -0.52089058  0.078837562    143265.02 
  880000    30.721348  -0.52229803  -0.52229803  -0.44241118  0.098285572  -0.52229803  0.079886854    143265.02 
  881000    27.957965  -0.51487039  -0.51487039  -0.44216935  0.076732179  -0.51487039  0.072701036    143265.02 
  882000    28.119506  -0.51562664  -0.51562664  -0.44250554  0.026126086  -0.51562664  0.073121104    143265.02 
  883000    27.333891  -0.51313647  -0.51313647  -0.44205826 0.0057589525  -0.51313647  0.071078215    143265.02 
  884000    27.523398  -0.51362979  -0.51362979  -0.44205878 -0.028821358  -0.51362979  0.071571003    143265.02 
  885000    28.894892   -0.5177201   -0.5177201  -0.44258271 -0.041577357   -0.5177201  0.075137392    143265.02 
  886000    27.681491  -0.51404059  -0.51404059  -0.44205849 -0.042238091  -0.51404059  0.071982102    143265.02 
  887000    26.561144   -0.5111276   -0.5111276  -0.44205882  0.035984312   -0.5111276  0.069068787    143265.02 
  888000    28.608695  -0.51662524  -0.51662524  -0.44223206  0.027304567  -0.51662524  0.074393174    143265.02 
  889000    27.650314  -0.51395804  -0.51395804  -0.44205701  0.012416234  -0.51395804   0.07190103    143265.02 
  890000    25.076697  -0.50769642  -0.50769642  -0.44248774  0.034692856  -0.50769642  0.065208677    143265.02 
  891000    28.337274  -0.51576712  -0.51576712  -0.44207973  0.077037542  -0.51576712  0.073687381    143265.02 
  892000    27.501116  -0.51371984  -0.51371984  -0.44220678 -0.025931746  -0.51371984  0.071513061    143265.02 
  893000    31.224094  -0.52328474  -0.52328474  -0.44209056  0.084829956  -0.52328474   0.08119418    143265.02 
  894000    31.440241  -0.52382425  -0.52382425  -0.44206801  0.051412611  -0.52382425   0.08175624    143265.02 
  895000    27.198715    -0.512881    -0.512881  -0.44215429  0.040762887    -0.512881  0.070726706    143265.02 
  896000     27.95941  -0.51475866  -0.51475866  -0.44205386   0.10233308  -0.51475866  0.072704794    143265.02 
  897000    28.851718  -0.51745969  -0.51745969  -0.44243457  0.039416714  -0.51745969  0.075025124    143265.02 
  898000    28.376687  -0.51584292  -0.51584292  -0.44205305  0.032452522  -0.51584292  0.073789868    143265.02 
  899000    28.120727   -0.5151772   -0.5151772  -0.44205292 -0.072381167   -0.5151772  0.073124277    143265.02 
  900000    27.748808  -0.51420983  -0.51420983  -0.44205268  0.074875549  -0.51420983  0.072157152    143265.02 
  901000    28.383564  -0.51623501  -0.51623501  -0.44242726  0.051666307  -0.51623501   0.07380775    143265.02 
  902000    27.790143  -0.51503218  -0.51503218  -0.44276755  0.019559776  -0.51503218  0.072264637    143265.02 
  903000    30.829754  -0.52222508  -0.52222508  -0.44205633  0.099194655  -0.52222508  0.080168748    143265.02 
  904000     30.90233  -0.52245421  -0.52245421  -0.44209674  0.080688785  -0.52245421  0.080357474    143265.02 
  905000    32.617201  -0.52687368  -0.52687368  -0.44205691 0.00053907116  -0.52687368   0.08481677    143265.02 
  906000    31.532825  -0.52405334  -0.52405334  -0.44205634  0.055243642  -0.52405334  0.081996994    143265.02 
  907000    27.496489  -0.51423802  -0.51423802  -0.44273699 -0.037057949  -0.51423802  0.071501028    143265.02 
  908000    29.185586  -0.51804587  -0.51804587  -0.44215256   0.10459721  -0.51804587  0.075893306    143265.02 
  909000    28.238091  -0.51548871  -0.51548871  -0.44205924   0.11031196  -0.51548871  0.073429468    143265.02 
  910000    28.811115  -0.51697872  -0.51697872  -0.44205918  0.074091847  -0.51697872  0.074919541    143265.02 
  911000    28.877822  -0.51715261  -0.51715261  -0.44205961  0.091839392  -0.51715261  0.075093005    143265.02 
  912000    28.143057  -0.51572868  -0.51572868  -0.44254634  0.095743011  -0.51572868  0.073182344    143265.02 
  913000    28.925332  -0.51759225  -0.51759225  -0.44237571  0.092150456  -0.51759225  0.075216547    143265.02 
  914000    25.972836  -0.50963628  -0.50963628  -0.44209731  0.082479727  -0.50963628  0.067538967    143265.02 
  915000    28.756265  -0.51683575  -0.51683575  -0.44205884 -0.012854213  -0.51683575  0.074776912    143265.02 
  916000    26.715725  -0.51153079  -0.51153079  -0.44206003  0.050202429  -0.51153079  0.069470753    143265.02 
  917000    28.445733  -0.51604886  -0.51604886  -0.44207944  0.055510378  -0.51604886  0.073969414    143265.02 
  918000     28.24153  -0.51549787  -0.51549787  -0.44205946  0.061932697  -0.51549787  0.073438411    143265.02 
  919000    29.121009  -0.51779543  -0.51779543  -0.44207005 0.0055071474  -0.51779543   0.07572538    143265.02 
  920000    30.143752  -0.52090846  -0.52090846  -0.44252357   -0.1255519  -0.52090846  0.078384889    143265.02 
  921000    31.934691   -0.5251924   -0.5251924  -0.44215041  0.038360689   -0.5251924  0.083041992    143265.02 
  922000    32.090305   -0.5256086   -0.5256086  -0.44216195  0.046432889   -0.5256086  0.083446648    143265.02 
  923000    32.871228  -0.52753651  -0.52753651  -0.44205917 0.0029722784  -0.52753651  0.085477337    143265.02 
  924000    32.818481  -0.52740213  -0.52740213  -0.44206196 -0.013575063  -0.52740213  0.085340175    143265.02 
  925000    28.054328  -0.51775011  -0.51775011  -0.44479849   0.10844125  -0.51775011  0.072951617    143265.02 
  926000      30.8004  -0.52278477  -0.52278477  -0.44269235  0.011704107  -0.52278477  0.080092419    143265.02 
  927000    29.922396  -0.51986785  -0.51986785  -0.44205856  0.030111158  -0.51986785  0.077809284    143265.02 
  928000    29.582057  -0.51898317  -0.51898317   -0.4420589   0.14175983  -0.51898317  0.076924276    143265.02 
  929000     28.75421  -0.51682992  -0.51682992  -0.44205835  0.012595991  -0.51682992  0.074771567    143265.02 
  930000     28.43977  -0.51601175  -0.51601175  -0.44205784 -0.037580833  -0.51601175  0.073953908    143265.02 
  931000    28.276638  -0.51558657  -0.51558657  -0.44205687   0.11276789  -0.51558657  0.073529705    143265.02 
  932000    32.702946  -0.52709713  -0.52709713  -0.44205739   0.16378945  -0.52709713  0.085039739    143265.02 
  933000    32.709427  -0.52711342  -0.52711342  -0.44205682   0.13119733  -0.52711342  0.085056593    143265.02 
  934000    31.632543  -0.52437945  -0.52437945  -0.44212315  0.031501577  -0.52437945  0.082256296    143265.02 
  935000    32.919034   -0.5276919   -0.5276919  -0.44209025 -0.032159406   -0.5276919  0.085601649    143265.02 
  936000    33.233464  -0.52847875  -0.52847875  -0.44205946  0.030505335  -0.52847875  0.086419283    143265.02 
  937000    32.329014  -0.52612775  -0.52612775  -0.44206037   0.14736875  -0.52612775  0.084067379    143265.02 
  938000    33.156082  -0.52827601  -0.52827601  -0.44205795 0.00023007223  -0.52827601  0.086218061    143265.02 
  939000    30.377806  -0.52111264  -0.52111264  -0.44211912   0.12154731  -0.52111264  0.078993518    143265.02 
  940000     33.33382  -0.52903913  -0.52903913  -0.44235888  -0.02172876  -0.52903913  0.086680245    143265.02 
  941000    32.026244  -0.52534139  -0.52534139  -0.44206132  0.095722364  -0.52534139  0.083280066    143265.02 
  942000    30.520216   -0.5214253   -0.5214253  -0.44206147  0.032080191   -0.5214253  0.079363837    143265.02 
  943000    32.087218   -0.5258581   -0.5258581  -0.44241948  0.042423968   -0.5258581  0.083438621    143265.02 
  944000    30.861701  -0.52246474  -0.52246474  -0.44221292  0.012817127  -0.52246474  0.080251822    143265.02 
  945000    31.860303  -0.52491152  -0.52491152  -0.44206296  0.032295543  -0.52491152  0.082848558    143265.02 
  946000    28.693922  -0.51670464  -0.51670464  -0.44208984  0.015629173  -0.51670464  0.074614798    143265.02 
  947000    30.873117  -0.52234437  -0.52234437  -0.44206286  0.065307086  -0.52234437   0.08028151    143265.02 
  948000    29.075741  -0.51773489  -0.51773489  -0.44212723  0.012948966  -0.51773489  0.075607666    143265.02 
  949000    31.430417  -0.52379493  -0.52379493  -0.44206424 -0.031585122  -0.52379493  0.081730695    143265.02 
  950000    31.161426   -0.5230941   -0.5230941  -0.44206289  0.019454841   -0.5230941  0.081031219    143265.02 
  951000    29.821166  -0.51960827  -0.51960827  -0.44206222 -0.072386397  -0.51960827  0.077546048    143265.02 
  952000    27.684967  -0.51414702  -0.51414702  -0.44215588   0.16037557  -0.51414702   0.07199114    143265.02 
  953000    32.600719  -0.52683772  -0.52683772  -0.44206381   0.04412917  -0.52683772  0.084773913    143265.02 
  954000    32.433265  -0.52640407  -0.52640407   -0.4420656  0.026160175  -0.52640407   0.08433847    143265.02 
  955000    31.383723  -0.52387948  -0.52387948  -0.44227021  0.038780536  -0.52387948  0.081609274    143265.02 
  956000    29.620539  -0.51923803  -0.51923803  -0.44221369 -0.021951221  -0.51923803  0.077024344    143265.02 
  957000    34.247254  -0.53118574  -0.53118574  -0.44213023   0.10469633  -0.53118574  0.089055511    143265.02 
  958000    30.611331  -0.52177144  -0.52177144  -0.44217067   0.15008567  -0.52177144  0.079600768    143265.02 
  959000    29.367916  -0.51843245  -0.51843245  -0.44206502  0.057743584  -0.51843245   0.07636743    143265.02 
  960000    30.227043  -0.52066647  -0.52066647  -0.44206499  0.013848957  -0.52066647  0.078601479    143265.02 
  961000    32.854184  -0.52749693  -0.52749693  -0.44206392  0.046953639  -0.52749693  0.085433016    143265.02 
  962000     30.65054  -0.52188686  -0.52188686  -0.44218413  0.063131689  -0.52188686  0.079702727    143265.02 
  963000    31.081956  -0.52288944  -0.52288944  -0.44206487  0.070771381  -0.52288944  0.080824568    143265.02 
  964000    31.373455  -0.52378034  -0.52378034  -0.44219777 -0.0091255704  -0.52378034  0.081582571    143265.02 
  965000    29.877566  -0.51975618  -0.51975618  -0.44206347 -0.015715613  -0.51975618  0.077692708    143265.02 
  966000    31.659962  -0.52438953  -0.52438953  -0.44206193 -0.027681792  -0.52438953  0.082327596    143265.02 
  967000     32.76242  -0.52725575  -0.52725575  -0.44206136   0.03160793  -0.52725575  0.085194395    143265.02 
  968000    30.079386  -0.52056567  -0.52056567  -0.44234815  0.033772515  -0.52056567  0.078217514    143265.02 
  969000    29.572194  -0.51895963  -0.51895963    -0.442061  0.047707621  -0.51895963  0.076898628    143265.02 
  970000     30.44131  -0.52121848  -0.52121848  -0.44205983  0.021275438  -0.52121848  0.079158652    143265.02 
  971000    31.112442  -0.52296391  -0.52296391  -0.44206007   0.11617813  -0.52296391  0.080903843    143265.02 
  972000    29.880291  -0.51975991  -0.51975991  -0.44206012   0.12206695  -0.51975991  0.077699794    143265.02 
  973000    27.182059  -0.51285335  -0.51285335  -0.44216995   0.12268672  -0.51285335  0.070683395    143265.02 
  974000    31.778431   -0.5246958   -0.5246958  -0.44206014 -0.085068266   -0.5246958  0.082635658    143265.02 
  975000    32.288361   -0.5267651   -0.5267651  -0.44280343 -0.065193994   -0.5267651  0.083961667    143265.02 
  976000    32.095381   -0.5255205   -0.5255205  -0.44206065   0.20265393   -0.5255205  0.083459846    143265.02 
  977000    34.694088  -0.53228043  -0.53228043  -0.44206298   0.08837672  -0.53228043  0.090217444    143265.02 
  978000    35.124103  -0.53347459  -0.53347459  -0.44213895   0.12589608  -0.53347459  0.091335642    143265.02 
  979000    32.841065  -0.52806757  -0.52806757  -0.44266867   0.10015187  -0.52806757    0.0853989    143265.02 
  980000     31.85238  -0.52516901  -0.52516901  -0.44234106 -0.012700543  -0.52516901  0.082827955    143265.02 
  981000    33.884935  -0.53018121  -0.53018121  -0.44206786   0.07344924  -0.53018121  0.088113349    143265.02 
  982000    32.405073  -0.52632567  -0.52632567  -0.44206051  0.090516106  -0.52632567   0.08426516    143265.02 
  983000    36.292513  -0.53645139  -0.53645139  -0.44207745  0.026061717  -0.53645139   0.09437394    143265.02 
  984000     31.33433  -0.52371701  -0.52371701  -0.44223618   0.17788368  -0.52371701  0.081480833    143265.02 
  985000    33.930809  -0.53095882  -0.53095882  -0.44272618  0.044872476  -0.53095882  0.088232638    143265.02 
  986000    31.800398  -0.52475408  -0.52475408   -0.4420613   0.21000507  -0.52475408  0.082692783    143265.02 
  987000    30.968984  -0.52259165  -0.52259165  -0.44206085  0.004004398  -0.52259165  0.080530799    143265.02 
  988000    31.742483  -0.52460229  -0.52460229   -0.4420601  0.055893755  -0.52460229  0.082542182    143265.02 
  989000     30.57331  -0.52156144  -0.52156144  -0.44205954  0.069435913  -0.52156144  0.079501901    143265.02 
  990000    30.343085  -0.52157385  -0.52157385  -0.44267061  0.017338813  -0.52157385  0.078903231    143265.02 
  991000    31.653512  -0.52519225  -0.52519225  -0.44288142  0.020843591  -0.52519225  0.082310824    143265.02 
  992000    28.477521  -0.51612961  -0.51612961  -0.44207753  0.020471961  -0.51612961  0.074052075    143265.02 
  993000    32.243847  -0.52614219  -0.52614219  -0.44229627  0.037395097  -0.52614219  0.083845913    143265.02 
  994000    30.732522  -0.52243479  -0.52243479  -0.44251888   0.36664903  -0.52243479  0.079915911    143265.02 
  995000    30.796163   -0.5222387   -0.5222387   -0.4421573  0.041470466   -0.5222387    0.0800814    143265.02 
  996000    31.511179  -0.52400403  -0.52400403  -0.44206332 -0.029000293  -0.52400403  0.081940707    143265.02 
  997000    31.320412  -0.52350974  -0.52350974   -0.4420651  0.031524707  -0.52350974  0.081444642    143265.02 
  998000    31.392989  -0.52404707  -0.52404707   -0.4424137  0.099121816  -0.52404707  0.081633367    143265.02 
  999000    30.669385  -0.52244933  -0.52244933  -0.44269759 -0.030188587  -0.52244933  0.079751731    143265.02 
 1000000    29.972557  -0.52067959  -0.52067959  -0.44273987   0.13805438  -0.52067959  0.077939721    143265.02 
Loop time of 26227.7 on 8 procs for 1000000 steps with 61722 atoms

Performance: 16471.129 tau/day, 38.128 timesteps/s
99.5% CPU use with 8 MPI tasks x 1 OpenMP threads

MPI task timing breakdown:
Section |  min time  |  avg time  |  max time  |%varavg|  %CPU | %total
-----------------------------------------------------------------------
Pair    | 11351      | 15729      | 21010      |2028.2 |  99.7 | 59.97
Bond    | 0.57155    | 0.68132    | 0.73737    |   5.8 | 100.0 |  0.00
Neigh   | 1081.7     | 1503       | 2028.8     | 643.7 |  99.8 |  5.73
Comm    | 2123.7     | 7778.4     | 12693      |3153.2 |  99.2 | 29.66
Output  | 97.567     | 128.14     | 204.67     | 300.1 |  95.6 |  0.49
Modify  | 686.19     | 911.13     | 1065.7     | 466.5 |  99.7 |  3.47
Other   |            | 177.8      |            |       |       |  0.68

Nlocal:        7715.25 ave        9005 max        5849 min
Histogram: 1 0 0 0 1 2 1 1 1 1
Nghost:        16731.0 ave       19150 max       14132 min
Histogram: 2 0 1 0 0 2 0 0 1 2
Neighs:    1.16351e+06 ave 1.34628e+06 max      852840 min
Histogram: 1 0 0 1 0 1 2 1 0 2

Total # of neighbors = 9308051
Ave neighs/atom = 150.80605
Ave special neighs/atom = 0.0000000
Neighbor list builds = 36227
Dangerous builds = 0

write_data      data.cubes
System init for write_data ...
WARNING: Not all mixed pair coeffs generated from mixing. Use write_data with 'pair ij' option to store all pair coeffs. (src/write_data.cpp:312)
Total wall time: 7:17:10
