LAMMPS (29 Oct 2020)
  using 1 OpenMP thread(s) per MPI task
units           lj
atom_style      full
atom_modify     map array first cubes
dimension       3
boundary        p p f

variable        sigma           equal 1.0
variable        epsilon         equal 1.0

read_data       data.rigid
Reading data file ...
  orthogonal box = (0.0000000 0.0000000 0.0000000) to (20.000000 20.000000 20.000000)
  4 by 4 by 4 MPI processor grid
  reading atoms ...
  1143 atoms
Finding 1-2 1-3 1-4 neighbors ...
  special bond factors lj:    0.0      0.0      0.0     
  special bond factors coul:  0.0      0.0      0.0     
     0 = max # of 1-2 neighbors
     0 = max # of 1-3 neighbors
     0 = max # of 1-4 neighbors
     1 = max # of special neighbors
  special bonds CPU = 0.717 seconds
  read_data CPU = 0.832 seconds
replicate       8 8 8
Replicating atoms ...
WARNING: Replicating in a non-periodic dimension (src/replicate.cpp:75)
  orthogonal box = (0.0000000 0.0000000 0.0000000) to (160.00000 160.00000 160.00000)
  4 by 4 by 4 MPI processor grid
  585216 atoms
Finding 1-2 1-3 1-4 neighbors ...
  special bond factors lj:    0.0      0.0      0.0     
  special bond factors coul:  0.0      0.0      0.0     
     0 = max # of 1-2 neighbors
     0 = max # of 1-3 neighbors
     0 = max # of 1-4 neighbors
     1 = max # of special neighbors
  special bonds CPU = 0.017 seconds
  replicate CPU = 0.037 seconds
group           cubes type 2 3
585216 atoms in group cubes

velocity        cubes create 10.0 45345 loop geom

pair_style      soft 1.12
pair_coeff      1 1 0.0 0.0
pair_coeff      2 2 0.0
pair_coeff      3 3 0.0
pair_coeff      1 3 0.0 0.0
pair_coeff      2 3 0.0
pair_coeff      1 2 0.0 0.0

variable        prefactor equal ramp(0,60)
fix             soft all adapt 1 pair soft a * * v_prefactor

neighbor        0.3 bin
neigh_modify    delay 0 every 1 check yes


#fix             1     cubes rigid molecule

dump 		1 all movie 100 movie.avi type type

compute         tbig all temp
thermo_modify   temp tbig

thermo          100
run             1000
Neighbor list info ...
  update every 1 steps, delay 0 steps, check yes
  max neighbors/atom: 2000, page size: 100000
  master list distance cutoff = 1.42
  ghost atom cutoff = 1.42
  binsize = 0.71, bins = 226 226 226
  1 neighbor lists, perpetual/occasional/extra = 1 0 0
  (1) pair soft, perpetual
      attributes: half, newton on
      pair build: half/bin/newton
      stencil: half/bin/3d/newton
      bin: standard
Setting up Verlet run ...
  Unit style    : lj
  Current step  : 0
  Time step     : 0.005
Per MPI rank memory allocation (min/avg/max) = 9.893 | 9.893 | 9.893 Mbytes
Step Temp E_pair E_mol TotEng Press 
       0           10            0            0    14.999974    1.4287476 
     100           10   0.90670399            0    15.906678    2.1416359 
     200           10     1.813408            0    16.813382    2.8545243 
     300           10     2.720112            0    17.720086    3.5674126 
     400           10    3.6268159            0     18.62679     4.280301 
     500           10    4.5335199            0    19.533494    4.9931893 
     600           10    5.4402239            0    20.440198    5.7060776 
     700           10    6.3469279            0    21.346902     6.418966 
     800           10    7.2536319            0    22.253606    7.1318543 
     900           10    8.1603359            0     23.16031    7.8447427 
    1000           10    9.0670399            0    24.067014     8.557631 
Loop time of 2.21841 on 64 procs for 1000 steps with 585216 atoms

Performance: 194733.940 tau/day, 450.773 timesteps/s
99.9% CPU use with 64 MPI tasks x 1 OpenMP threads

MPI task timing breakdown:
Section |  min time  |  avg time  |  max time  |%varavg| %total
---------------------------------------------------------------
Pair    | 1.0572     | 1.1577     | 1.7614     |  20.2 | 52.19
Bond    | 9.1218e-05 | 0.00011845 | 0.00018347 |   0.0 |  0.01
Neigh   | 0          | 0          | 0          |   0.0 |  0.00
Comm    | 0.00038138 | 0.00054335 | 0.001059   |   0.0 |  0.02
Output  | 0.30996    | 0.31934    | 0.32093    |   0.6 | 14.39
Modify  | 0.001689   | 0.0023153  | 0.0060368  |   1.9 |  0.10
Other   |            | 0.7384     |            |       | 33.29

Nlocal:        9144.00 ave        9144 max        9144 min
Histogram: 64 0 0 0 0 0 0 0 0 0
Nghost:        0.00000 ave           0 max           0 min
Histogram: 64 0 0 0 0 0 0 0 0 0
Neighs:        70416.0 ave       70416 max       70416 min
Histogram: 64 0 0 0 0 0 0 0 0 0

Total # of neighbors = 4506624
Ave neighs/atom = 7.7007874
Ave special neighs/atom = 0.0000000
Neighbor list builds = 0
Dangerous builds = 0


unfix 		soft

reset_timestep 	0

pair_style	lj/cut/opt 2.5
pair_modify	shift yes

pair_coeff	1 1 0.0 0.0

pair_coeff	2 2 1.0 1.0

pair_coeff	1 2 0.0 0.0

pair_coeff	1 3 0.0 0.0

pair_coeff	2 3 0.0 0.0

pair_coeff	3 3 0.0 0.0

comm_modify	cutoff 6.93

fix 		1 cubes rigid/small molecule
  create bodies CPU = 0.018 seconds
  512 rigid bodies with 585216 atoms
  6.9282032 = max distance from body owner to body atom


####################### WALLS ###########################

variable       epsilonWall equal 2*${epsilon}
variable       epsilonWall equal 2*1

variable       cutoffTop   equal   0.7147*${sigma}
variable       cutoffTop   equal   0.7147*1

variable       cutoffLow   equal   3*${sigma}
variable       cutoffLow   equal   3*1

region         lowWall block EDGE EDGE EDGE EDGE EDGE 2

delete_atoms   region lowWall
WARNING: Ignoring 'compress yes' for molecular system (src/delete_atoms.cpp:125)
Deleted 0 atoms, new total = 585216



fix            topWall all wall/lj93 zhi EDGE                ${epsilonWall} ${sigma} ${cutoffTop} units box
fix            topWall all wall/lj93 zhi EDGE                2 ${sigma} ${cutoffTop} units box
fix            topWall all wall/lj93 zhi EDGE                2 1 ${cutoffTop} units box
fix            topWall all wall/lj93 zhi EDGE                2 1 0.7147 units box

fix            lowWall all wall/lj93 zlo EDGE                ${epsilonWall} ${sigma} ${cutoffLow} units box
fix            lowWall all wall/lj93 zlo EDGE                2 ${sigma} ${cutoffLow} units box
fix            lowWall all wall/lj93 zlo EDGE                2 1 ${cutoffLow} units box
fix            lowWall all wall/lj93 zlo EDGE                2 1 3 units box





velocity	all create ${temp} ${seed} loop geom
velocity	all create 10.0 ${seed} loop geom
velocity	all create 10.0 25860 loop geom
WARNING: Changing velocities of atoms in rigid bodies. This has no effect unless rigid bodies are rebuild (src/velocity.cpp:71)
WARNING: Cannot count rigid body degrees-of-freedom before bodies are fully initialized (src/RIGID/fix_rigid_small.cpp:1166)

dump 		2 all movie 100 movie_cubes.avi type type



run 		500000
Neighbor list info ...
  update every 1 steps, delay 0 steps, check yes
  max neighbors/atom: 2000, page size: 100000
  master list distance cutoff = 2.8
  ghost atom cutoff = 6.93
  binsize = 1.4, bins = 115 115 115
  1 neighbor lists, perpetual/occasional/extra = 1 0 0
  (1) pair lj/cut/opt, perpetual
      attributes: half, newton on
      pair build: half/bin/newton
      stencil: half/bin/3d/newton
      bin: standard
Setting up Verlet run ...
  Unit style    : lj
  Current step  : 0
  Time step     : 0.005
Per MPI rank memory allocation (min/avg/max) = 15.72 | 15.73 | 15.73 Mbytes
Step Temp E_pair E_mol TotEng Press 
       0    9.9461461  -0.36619638            0  -0.34011651  0.032633254 
     100    9.9461461  -0.36619638            0  -0.34011651 0.0012602091 
     200    9.9461461  -0.36619638            0  -0.34011651 0.0012602091 
     300    9.9461461  -0.36619638            0  -0.34011651 0.0012602091 
     400    9.9461461  -0.36619638            0  -0.34011651 0.0012602091 
     500    9.9461461  -0.36619638            0  -0.34011651 0.0012602091 
     600    9.9461461  -0.36619638            0  -0.34011651 0.0012602091 
     700    9.9461461  -0.36619638            0  -0.34011651 0.0012602091 
     800    9.9461461  -0.36619638            0  -0.34011651 0.0012602091 
     900    9.9461461  -0.36619638            0  -0.34011651 0.0012602091 
    1000    9.9461517  -0.36619638            0  -0.34011649 0.0012600835 
    1100    9.9462102  -0.36619638            0  -0.34011634 0.0012598433 
    1200     9.946391  -0.36619638            0  -0.34011586 0.0012591347 
    1300    9.9467581  -0.36619638            0   -0.3401149 0.0012580454 
    1400    9.9473446  -0.36619638            0  -0.34011336 0.0012568208 
    1500    9.9482831  -0.36619638            0   -0.3401109  0.001254954 
    1600    9.9496596  -0.36619638            0  -0.34010729 0.0012525788 
    1700     9.951665  -0.36619638            0  -0.34010204 0.0012490729 
    1800    9.9545113  -0.36619638            0  -0.34009457 0.0012444894 
    1900    9.9585924  -0.36619638            0  -0.34008387 0.0012378375 
    2000    9.9645093  -0.36619638            0  -0.34006836 0.0012287259 
    2100    9.9729179  -0.36619638            0  -0.34004631 0.0012189455 
    2200    9.9786058  -0.36619638            0  -0.34003139 0.0012908411 
    2300    9.9373904  -0.36619638            0  -0.34013947 0.0020638008 
    2400    9.9956425  -0.36619638            0  -0.33998672 0.0012466037 
    2500    9.9833725  -0.36619638            0   -0.3400189 0.0015814953 
    2600    9.9687478  -0.36619638            0  -0.34005724 0.0019629541 
    2700    9.9877706  -0.36619639            0  -0.34000737 0.0017395956 
    2800    10.019594   -0.3661964            0  -0.33992394 0.0013858231 
    2900    9.9873835  -0.36619655            0  -0.34000854  0.001988443 
    3000      9.98534  -0.36619713            0  -0.34001448 0.0021097751 
    3100    10.027063  -0.36619845            0   -0.3399064 0.0014256796 
    3200    10.041918  -0.36620111            0  -0.33987011 0.0011691821 
    3300    10.040063  -0.36620624            0  -0.33988011 0.0012397089 
    3400    10.045796  -0.36621552            0  -0.33987435  0.001337569 
    3500    10.061098  -0.36623211            0  -0.33985082 0.0014272895 
    3600     10.03816  -0.36626244            0  -0.33994129 0.0021867348 
    3700    10.070554  -0.36629543            0  -0.33988934 0.0021093357 
    3800    10.052931  -0.36616573            0  -0.33980585  0.003177547 
    3900    10.115111  -0.36631588            0  -0.33979296 0.0017884045 
    4000     10.09485   -0.3662819            0   -0.3398121 0.0020186964 
    4100    10.146858  -0.36636416            0  -0.33975799 0.00089333598 
    4200    10.139457  -0.36633947            0  -0.33975271 0.0014155487 
    4300    10.132311  -0.36637778            0  -0.33980976 0.0019151488 
    4400    10.138928  -0.36641634            0  -0.33983097 0.0021238219 
    4500    10.159271  -0.36645326            0  -0.33981455 0.0018722477 
    4600    10.166458   -0.3664432            0  -0.33978564 0.0021343604 
    4700    10.183355  -0.36648388            0  -0.33978201 0.0020573482 
    4800      10.2198  -0.36658686            0  -0.33978944 0.0019585831 
    4900    10.236277  -0.36663079            0  -0.33979016 0.0023839895 
    5000    10.280544  -0.36674042            0  -0.33978372 0.0027892523 
    5100    10.315597  -0.36672477            0  -0.33967616   0.00235229 
    5200    10.279305  -0.36671478            0  -0.33976132 0.0033309731 
    5300     10.30848   -0.3667761            0  -0.33974614 0.0029843848 
    5400    10.321121  -0.36672115            0  -0.33965805 0.0036753775 
    5500    10.289343  -0.36684833            0  -0.33986855 0.0024557559 
    5600     10.34413  -0.36677422            0  -0.33965078 0.0011600291 
    5700    10.319954  -0.36684006            0  -0.33978002 0.0011503144 
    5800    10.291627  -0.36675672            0  -0.33977095  0.002417848 
    5900    10.318393  -0.36683743            0  -0.33978148 0.0019539752 
    6000    10.318855  -0.36687346            0   -0.3398163 0.0018665218 
    6100    10.290259  -0.36682512            0  -0.33984294 0.0023823371 
    6200    10.299125  -0.36687089            0  -0.33986547 0.0021878318 
    6300    10.219797  -0.36668399            0  -0.33988657 0.0046808633 
    6400    10.327195  -0.36692057            0  -0.33984154  0.002292442 
    6500    10.317145  -0.36692019            0  -0.33986751 0.0023754825 
    6600    10.356051  -0.36701517            0  -0.33986047 0.0017275825 
    6700    10.362207  -0.36702263            0   -0.3398518 0.0022726512 
    6800    10.420332  -0.36712627            0  -0.33980303 0.0011089247 
    6900    10.390382  -0.36715425            0  -0.33990954 0.0022302158 
    7000     10.41796  -0.36711136            0  -0.33979433 0.0025249514 
    7100    10.454131  -0.36723988            0  -0.33982801 0.0011765244 
    7200    10.430896  -0.36725064            0   -0.3398997 0.0015328566 
    7300    10.468256  -0.36730436            0  -0.33985546 0.0012254508 
    7400    10.508491   -0.3674084            0  -0.33985399 0.0013372497 
    7500    10.500975  -0.36738645            0  -0.33985175 0.0031898754 
    7600    10.547368  -0.36750451            0  -0.33984816  0.002919694 
    7700    10.519914   -0.3674702            0  -0.33988584 0.0030621036 
    7800    10.534406  -0.36753653            0  -0.33991417 0.0023781945 
    7900    10.514931   -0.3674251            0   -0.3398538 0.0026710019 
    8000    10.589204  -0.36759516            0  -0.33982911 0.0004765437 
    8100    10.610085  -0.36764378            0  -0.33982298 0.00096742456 
    8200    10.653327  -0.36780321            0  -0.33986902 0.0014058833 
    8300    10.626546  -0.36771502            0  -0.33985107  0.004336668 
    8400    10.589265  -0.36767659            0  -0.33991039  0.005202323 
    8500    10.605918  -0.36765015            0  -0.33984028 0.0035604374 
    8600    10.577566  -0.36769621            0  -0.33996068 0.0022516649 
    8700    10.614133  -0.36773111            0   -0.3398997  0.001005707 
    8800    10.605523  -0.36764639            0  -0.33983755 0.0016659833 
    8900    10.567111  -0.36755822            0   -0.3398501 0.0033304867 
    9000    10.598135   -0.3677281            0  -0.33993864 0.0023886258 
    9100    10.650133  -0.36780891            0   -0.3398831 0.0020186419 
    9200    10.678807  -0.36788087            0  -0.33987987   0.00187586 
    9300    10.621475  -0.36773547            0  -0.33988481 0.0037629835 
    9400    10.710925  -0.36796659            0  -0.33988138 0.0014765078 
    9500    10.781834  -0.36813984            0   -0.3398687 0.00035725991 
    9600    10.757671  -0.36806446            0  -0.33985668 0.0022686696 
    9700    10.771454  -0.36811938            0  -0.33987546 0.0039337717 
    9800    10.838099  -0.36826991            0  -0.33985123  0.003633447 
    9900    10.809449  -0.36816092            0  -0.33981737 0.0038197662 
   10000    10.865728  -0.36830598            0  -0.33981486 0.0017147455 
   10100    10.874382  -0.36833989            0  -0.33982607 0.0019066673 
   10200    10.862203  -0.36829287            0  -0.33981099 0.0029747697 
   10300    10.840448  -0.36818352            0  -0.33975869 0.0040457056 
   10400     10.90336  -0.36835172            0  -0.33976192  0.002491748 
   10500    10.960404  -0.36848261            0  -0.33974324 0.0017849038 
   10600    10.925476  -0.36836486            0  -0.33971707 0.0034969468 
   10700    10.954518  -0.36845683            0  -0.33973289 0.0028903025 
   10800     10.97629  -0.36844048            0  -0.33965945 0.0023287337 
   10900    11.010509  -0.36846697            0  -0.33959622 0.00079408485 
   11000    10.924523  -0.36834197            0  -0.33969668 0.0017314362 
   11100    10.946306  -0.36841427            0  -0.33971186 0.0018418978 
   11200    10.930261  -0.36849149            0  -0.33983115 0.0036879484 
   11300    10.969188  -0.36858461            0  -0.33982221 0.0041508202 
   11400    11.041926  -0.36882202            0  -0.33986889 0.0028670404 
   11500    11.114827  -0.36902355            0  -0.33987926 0.0016423438 
   11600    11.076465  -0.36893608            0  -0.33989238  0.002845558 
   11700    11.020742  -0.36880086            0  -0.33990328 0.0044569606 
   11800    11.127191   -0.3690793            0  -0.33990259 0.0010755502 
   11900    11.042513  -0.36884775            0  -0.33989308 0.0025211023 
   12000    11.073503  -0.36890968            0  -0.33987375 0.0016031454 
   12100    11.042298  -0.36881137            0  -0.33985727 0.0018282229 
   12200    11.100789  -0.36897569            0  -0.33986821 0.0015546672 
   12300    11.074624  -0.36886863            0  -0.33982976 0.0026411493 
   12400    11.102921  -0.36898254            0  -0.33986948 0.00064225961 
   12500     10.99735   -0.3687094            0  -0.33987315 0.0033561758 
   12600    11.035887  -0.36873515            0  -0.33979785 0.0037769801 
   12700    11.006238  -0.36866835            0   -0.3398088 0.0050625258 
   12800    11.077749  -0.36888372            0  -0.33983666 0.0021430985 
   12900    11.036756  -0.36881019            0  -0.33987061 0.0026669509 
   13000    11.068084  -0.36885772            0  -0.33983601 0.0024634323 
   13100    11.021379  -0.36881451            0  -0.33991525 0.0018638476 
   13200    11.008618  -0.36869091            0  -0.33982512 0.0013657304 
   13300    10.873965   -0.3683887            0  -0.33987598 0.0029630387 
   13400    10.916953  -0.36847007            0  -0.33984463 0.0018654812 
   13500     10.95868   -0.3685495            0  -0.33981465 0.00040335826 
   13600    10.935594  -0.36849402            0   -0.3398197 0.0016301893 
   13700    10.926776  -0.36847519            0  -0.33982399 0.0033816462 
   13800    10.859837  -0.36833472            0  -0.33985905 0.0049065544 
   13900     10.99675  -0.36862996            0  -0.33979528 0.00015617072 
   14000    10.993235  -0.36860797            0  -0.33978251 0.00023761341 
   14100     10.91863  -0.36838415            0  -0.33975431 0.0037487178 
   14200    11.055555  -0.36871847            0   -0.3397296  0.001010775 
   14300    10.950528  -0.36861556            0  -0.33990209 0.0035464462 
   14400    11.093252  -0.36881117            0  -0.33972346   0.00271357 
   14500    11.084772  -0.36886899            0  -0.33980351 0.0018718077 
   14600    10.977477  -0.36855634            0   -0.3397722 0.0037235242 
   14700    11.031724  -0.36867813            0  -0.33975175 0.0030048838 
   14800    11.041661  -0.36877493            0   -0.3398225 0.0019610067 
   14900    11.096855  -0.36895061            0  -0.33985345 6.5669281e-05 
   15000    11.062636  -0.36880773            0   -0.3398003 0.0019574128 
   15100    11.030095  -0.36878821            0   -0.3398661 0.0029847338 
   15200    11.057877  -0.36889614            0  -0.33990119 0.0027624751 
   15300    11.174401  -0.36919974            0  -0.33989925 0.0014220194 
   15400    11.163077  -0.36917951            0  -0.33990871 0.0037850359 
   15500    11.168814  -0.36920298            0  -0.33991714 0.0036237081 
   15600    11.182332  -0.36924062            0  -0.33991933 0.0012948624 
   15700    11.089408  -0.36899086            0  -0.33991323  0.002103726 
   15800    11.118464  -0.36905391            0  -0.33990009 0.0010289109 
   15900    11.176738  -0.36921598            0  -0.33990936 -0.00072130693 
   16000    11.049728   -0.3689658            0  -0.33999221 0.0035877344 
   16100    11.137045  -0.36911278            0  -0.33991023 0.0027613957 
   16200    11.252804  -0.36940372            0  -0.33989764 0.0010127961 
   16300    11.345413  -0.36969001            0   -0.3399411 0.00033849581 
   16400    11.394246  -0.36978859            0  -0.33991164 0.0013805653 
   16500    11.370175  -0.36970747            0  -0.33989363 0.0037966111 
   16600    11.338741  -0.36967363            0  -0.33994221 0.0057036612 
   16700    11.488632  -0.37006627            0  -0.33994183 0.0029654923 
   16800    11.500698  -0.37013372            0  -0.33997764 0.0021134004 
   16900    11.376346  -0.36979532            0   -0.3399653 0.0037973169 
   17000     11.34504  -0.36970872            0  -0.33996079 0.0027471714 
   17100    11.427795     -0.36993            0  -0.33996508 0.00022718838 
   17200    11.425821  -0.36992294            0   -0.3399632   0.00237413 
   17300    11.477893  -0.37005168            0   -0.3399554 0.0019103089 
   17400    11.432491  -0.36992106            0  -0.33994383 0.0023038558 
   17500    11.395067  -0.36982349            0  -0.33994439 0.0025809862 
   17600    11.332854  -0.36968791            0  -0.33997193  0.003048003 
   17700    11.406014  -0.36985712            0  -0.33994931 0.00041498416 
   17800    11.403347  -0.36979972            0   -0.3398989 0.0011209403 
   17900    11.342402  -0.36962105            0  -0.33988004 0.0051330343 
   18000    11.362257  -0.36975702            0  -0.33996395  0.003733613 
   18100    11.463869  -0.36985936            0  -0.33979985 0.0015307253 
   18200    11.473329  -0.36990021            0  -0.33981589 0.0027012604 
   18300    11.401372  -0.36971917            0  -0.33982353 0.0058799592 
   18400    11.501343  -0.37010072            0  -0.33994295 0.00052272127 
   18500      11.3936   -0.3697805            0  -0.33990524 0.0027947913 
   18600    11.418752  -0.36987226            0  -0.33993105 0.0017973475 
   18700    11.428717  -0.36991393            0  -0.33994659 0.0011857764 
   18800    11.389398  -0.36983902            0  -0.33997478 0.0026346164 
   18900    11.439063  -0.36997859            0  -0.33998412 0.0015005359 
   19000    11.391627  -0.36984942            0  -0.33997934 0.0043000665 
   19100    11.370055  -0.36979386            0  -0.33998034 0.0043629816 
   19200    11.462045  -0.37005181            0  -0.33999708 0.00010964682 
   19300    11.366306  -0.36982587            0  -0.34002218 0.0029026461 
   19400    11.375253  -0.36982444            0  -0.33999729 0.0040750561 
   19500    11.513969  -0.37018628            0   -0.3399954 -0.00078256581 
   19600    11.538602  -0.37026119            0  -0.34000572 -0.00074637532 
   19700    11.387771  -0.36988182            0  -0.34002184 0.0054803641 
   19800    11.505299  -0.37019144            0  -0.34002329  0.003068037 
   19900    11.566168  -0.37033592            0  -0.34000817   0.00155869 
   20000     11.44228  -0.37001307            0  -0.34001017 0.0038770452 
   20100     11.41687  -0.36998715            0  -0.34005088 0.0033392859 
   20200    11.490496  -0.37014825            0  -0.34001892 0.0011731919 
   20300    11.376082  -0.36982895            0  -0.33999962 0.0043172263 
   20400    11.478003  -0.37007214            0  -0.33997557 0.00075773578 
   20500    11.474221  -0.37007958            0  -0.33999292  0.001743875 
   20600    11.431333  -0.36998937            0  -0.34001517 0.0035220048 
   20700       11.447  -0.36999738            0  -0.33998211 0.0025632259 
   20800    11.544242  -0.37026354            0  -0.33999328 0.0021393546 
   20900    11.629297  -0.37048488            0   -0.3399916 0.0017441955 
   21000    11.674766  -0.37059925            0  -0.33998674 -0.000396997 
   21100    11.715771  -0.37070512            0  -0.33998509 0.00066050729 
   21200    11.687479  -0.37062588            0  -0.33998004 0.0057393781 
   21300    11.784406  -0.37087653            0  -0.33997653 0.0029967709 
   21400    11.616102  -0.37050962            0  -0.34005094 0.0063419492 
   21500    11.615449  -0.37045252            0  -0.33999555 0.0043788511 
   21600     11.68932  -0.37063801            0  -0.33998734 0.00091562586 
   21700    11.643308  -0.37051721            0  -0.33998719 0.0022004564 
   21800    11.563054  -0.37030308            0   -0.3399835  0.005757644 
   21900    11.652322  -0.37054027            0  -0.33998662  0.002606865 
   22000    11.572496  -0.37039219            0  -0.34004785  0.001551689 
   22100    11.599226  -0.37042083            0   -0.3400064 0.00078855575 
   22200    11.635825  -0.37050057            0  -0.33999018  0.002296572 
   22300     11.65125  -0.37053822            0  -0.33998737 0.0012483821 
   22400    11.576275  -0.37034448            0  -0.33999023 0.0018327728 
   22500    11.623638  -0.37048426            0  -0.34000581 0.00090712292 
   22600    11.609799  -0.37045712            0  -0.34001496 0.0022589516 
   22700    11.629513  -0.37049452            0  -0.34000067 0.0030605607 
   22800    11.671343  -0.37059025            0  -0.33998672 0.0015854527 
   22900    11.703803  -0.37067751            0  -0.33998887 0.0016590351 
   23000    11.684527  -0.37064709            0  -0.34000899 0.0039392986 
   23100    11.713093  -0.37071049            0  -0.33999749 0.0049024478 
   23200    11.867597  -0.37111991            0  -0.34000179 0.0025964116 
   23300    11.791952  -0.37089171            0  -0.33997193 0.0047562359 
   23400    11.832239  -0.37099392            0   -0.3399685 0.00097811781 
   23500    11.858426  -0.37107499            0  -0.33998091 0.00096088459 
   23600    11.781767  -0.37088877            0   -0.3399957 0.0042554352 
   23700     11.80273  -0.37091991            0  -0.33997187 0.0044981904 
   23800    11.781555  -0.37084067            0  -0.33994815 0.0028720307 
   23900    11.671661  -0.37060261            0  -0.33999825 0.0014483051 
   24000    11.545409  -0.37023862            0   -0.3399653 0.0023385303 
   24100    11.568597  -0.37027737            0  -0.33994326 0.00070731617 
   24200    11.615428  -0.37042284            0  -0.33996593 0.00083663361 
   24300    11.648886  -0.37049061            0  -0.33994596 0.0011209628 
   24400     11.63615  -0.37041527            0  -0.33990402 0.0032164006 
   24500     11.73268  -0.37061328            0  -0.33984892 0.0020012231 
   24600    11.630527  -0.37049201            0   -0.3399955 0.0039299175 
   24700    11.689196   -0.3704706            0  -0.33982025 0.0030537802 
   24800    11.677237  -0.37046238            0  -0.33984339 0.0015770626 
   24900    11.701678  -0.37059763            0  -0.33991456 0.0020849802 
   25000    11.827696  -0.37091796            0  -0.33990446 0.0036553927 
   25100    11.872423  -0.37106266            0  -0.33993188  0.006578914 
   25200    11.936621  -0.37126711            0  -0.33996799 0.0032994815 
   25300    11.876583  -0.37113981            0  -0.33999812 0.0012209059 
   25400    11.797209  -0.37097548            0  -0.34004192  0.001561742 
   25500    11.785073  -0.37093574            0  -0.34003399 0.0036646151 
   25600    11.918602    -0.371269            0  -0.34001713 0.0031051015 
   25700    11.946183  -0.37134403            0  -0.34001983 0.0048206996 
   25800    11.912167   -0.3712552            0   -0.3400202 0.0031485953 
   25900    11.898924  -0.37121949            0  -0.34001922 0.0019405841 
   26000    11.831831  -0.37103894            0  -0.34001459  0.003220707 
   26100    11.846557  -0.37107224            0  -0.34000928 0.0042613812 
   26200    11.876542  -0.37119144            0  -0.34004986 0.00070681971 
   26300    11.773883  -0.37089039            0  -0.34001799  0.000961338 
   26400    11.742442  -0.37079056            0  -0.34000059 0.0024980275 
   26500    11.821933  -0.37098978            0  -0.33999138 0.00033672778 
   26600    11.734758  -0.37078598            0  -0.34001617 0.0028855521 
   26700    11.763736  -0.37090623            0  -0.34006044 0.0037386288 
   26800    11.846866   -0.3710621            0  -0.33999833 0.0022676463 
   26900    11.886701  -0.37118666            0  -0.34001843 0.0020160401 
   27000    11.910627  -0.37126959            0  -0.34003863 0.0022819576 
   27100    12.074343  -0.37168407            0  -0.34002383 0.00024896729 
   27200    11.947646  -0.37135443            0   -0.3400264 0.0064967712 
   27300    12.148425  -0.37188286            0  -0.34002837 0.00034170774 
   27400    12.021422  -0.37154973            0  -0.34002826  0.002869773 
   27500    12.050942  -0.37162515            0  -0.34002627 0.00048709427 
   27600    11.898891  -0.37122292            0  -0.34002274 0.0047782471 
   27700    11.963213  -0.37138942            0  -0.34002057 0.0021949732 
   27800    11.896301  -0.37121137            0  -0.34001798 0.0026922433 
   27900    11.969689  -0.37140132            0  -0.34001549 0.0019450959 
   28000     11.94691  -0.37135487            0  -0.34002878 0.0045917443 
   28100    12.046376  -0.37162509            0  -0.34003818 0.0024217676 
   28200    12.042057   -0.3715819            0  -0.34000632 0.0018316226 
   28300    12.039807  -0.37156761            0  -0.33999792  0.002220875 
   28400      12.0081  -0.37148628            0  -0.33999974 0.0022442456 
   28500    12.039188   -0.3715741            0  -0.34000604 0.0013528453 
   28600    12.048244  -0.37161236            0  -0.34002055 0.0019294038 
   28700    12.077244   -0.3716932            0  -0.34002536 0.0026771773 
   28800    12.139297  -0.37184583            0  -0.34001527 0.0013950008 
   28900    12.057767  -0.37163918            0  -0.34002241 0.0031084151 
   29000    12.063143  -0.37168308            0  -0.34005221 0.0024632473 
   29100    12.012891  -0.37151971            0  -0.34002061 0.0034995145 
   29200    12.068341   -0.3716685            0    -0.340024 0.0024725025 
   29300    12.158383  -0.37190643            0  -0.34002583 0.0015283641 
   29400    12.248991  -0.37214284            0  -0.34002466 0.0006126288 
   29500    12.266567  -0.37218675            0  -0.34002247 0.0013840327 
   29600    12.236889  -0.37210818            0  -0.34002173 0.0022851156 
   29700    12.337714  -0.37236878            0  -0.34001795   0.00255516 
   29800    12.431205   -0.3726079            0  -0.34001192   0.00378176 
   29900    12.293291  -0.37223927            0  -0.34000492 0.0065689583 
   30000    12.266305  -0.37215992            0  -0.33999634 -0.0011399062 
   30100    12.093346  -0.37169541            0  -0.33998534 0.0013012786 
   30200    12.048553  -0.37156361            0  -0.33997099 0.0040252392 
   30300    12.142292   -0.3717952            0  -0.33995679 0.0017332694 
   30400    12.100567  -0.37168379            0  -0.33995479 0.00064370415 
   30500     12.05257   -0.3715976            0  -0.33999445  0.001468047 
   30600    12.043772  -0.37156187            0  -0.33998179 0.0011432925 
   30700    12.078332  -0.37162955            0  -0.33995885 0.0038901478 
   30800    12.254392  -0.37207535            0    -0.339943 0.0021428638 
   30900    12.221353   -0.3719825            0  -0.33993679 0.0038903631 
   31000    12.340938  -0.37230586            0  -0.33994658 0.00018655243 
   31100    12.188023  -0.37191099            0  -0.33995266 0.0053644573 
   31200    12.342543  -0.37231673            0  -0.33995324 0.0013275608 
   31300    12.205668  -0.37195529            0   -0.3399507 0.0039378432 
   31400    12.172054  -0.37185955            0   -0.3399431 0.0019048685 
   31500    12.093959  -0.37164094            0  -0.33992926 0.0035115086 
   31600    12.141988  -0.37174371            0  -0.33990609 0.0018221784 
   31700    12.256208  -0.37200669            0  -0.33986958 0.00039546336 
   31800     12.20138  -0.37181651            0  -0.33982317 0.0030553235 
   31900    12.124803  -0.37155529            0  -0.33976273 0.0048025284 
   32000    12.126277  -0.37162032            0   -0.3398239 0.0012950014 
   32100    12.131677  -0.37156693            0  -0.33975636 0.0011790024 
   32200     12.20942  -0.37183356            0  -0.33981914 0.0016877012 
   32300    12.212227  -0.37188771            0  -0.33986592 0.0051927027 
   32400    12.255191  -0.37203575            0  -0.33990131 0.0025001501 
   32500    12.172988  -0.37180678            0  -0.33988788  0.001156114 
   32600     12.15597  -0.37173725            0  -0.33986298 -0.00016910356 
   32700     12.21152   -0.3719075            0  -0.33988757 0.00093198487 
   32800    12.274618  -0.37202535            0  -0.33983996 0.0037894987 
   32900    12.368099  -0.37227323            0  -0.33984273 0.0038003171 
   33000    12.300637  -0.37214517            0  -0.33989156 0.0041438205 
   33100    12.289432  -0.37201391            0  -0.33978969 0.0043267232 
   33200    12.283538   -0.3721924            0  -0.33998362 0.0019809556 
   33300    12.322944  -0.37208902            0  -0.33977692 0.0031035332 
   33400    12.327024  -0.37215769            0  -0.33983489 0.0014970347 
   33500    12.290155  -0.37208156            0  -0.33985544 -2.3404358e-05 
   33600    12.137488  -0.37172454            0  -0.33989873 0.0041438309 
   33700    12.289918  -0.37213496            0  -0.33990946 0.00085572766 
   33800    12.244396  -0.37200568            0  -0.33989954 0.0031890572 
   33900    12.374201   -0.3723672            0   -0.3399207 -0.0011419021 
   34000    12.312592  -0.37215678            0  -0.33987182 0.0023903061 
   34100    12.341587  -0.37228662            0  -0.33992564 0.0054068744 
   34200    12.330665  -0.37224884            0   -0.3399165 0.0050291795 
   34300    12.354543  -0.37232287            0  -0.33992791 0.0011765557 
   34400    12.352266  -0.37234364            0  -0.33995466 0.0040289518 
   34500    12.431846  -0.37257316            0  -0.33997551 0.0037167468 
   34600    12.422979   -0.3725641            0   -0.3399897 0.00051594006 
   34700    12.334416  -0.37234072            0  -0.33999854 0.0019780031 
   34800    12.463812  -0.37268426            0  -0.34000279  0.001114679 
   34900    12.361507  -0.37242001            0   -0.3400068 0.0038324763 
   35000     12.38607  -0.37248306            0  -0.34000543 -0.00029527386 
   35100    12.345515  -0.37236556            0  -0.33999427 0.0011843036 
   35200    12.247955  -0.37211669            0  -0.34000122 0.0037521431 
   35300    12.385429  -0.37253102            0  -0.34005508 0.0032721715 
   35400    12.441728  -0.37261004            0  -0.33998648 0.0030729111 
   35500    12.397509   -0.3724792            0  -0.33997158 0.0002304507 
   35600    12.553941  -0.37288343            0  -0.33996563 -0.0019243689 
   35700    12.586863  -0.37295824            0  -0.33995412 0.0026280737 
   35800    12.506112  -0.37275391            0  -0.33996152 0.0072591837 
   35900    12.725278  -0.37334581            0  -0.33997874 0.00048312002 
   36000    12.738903  -0.37333896            0  -0.33993617 0.0023087768 
   36100    12.788356  -0.37347647            0    -0.339944 0.0027394409 
   36200    12.667754  -0.37317942            0  -0.33996319 0.0041477342 
   36300    12.675701  -0.37320145            0  -0.33996439 0.0019375756 
   36400    12.536642  -0.37280513            0  -0.33993269 0.0040306962 
   36500    12.529605    -0.372771            0  -0.33991702 0.0013534645 
   36600    12.492066  -0.37265894            0  -0.33990338 0.0022636975 
   36700      12.4842  -0.37262712            0  -0.33989219 0.0021591181 
   36800    12.434093  -0.37245878            0  -0.33985524 0.0039747868 
   36900    12.437726  -0.37252003            0  -0.33990696 0.0018450405 
   37000    12.571074  -0.37273007            0  -0.33976735 -0.00096563198 
   37100     12.58001  -0.37282222            0  -0.33983606 0.0013651096 
   37200     12.54859  -0.37268719            0  -0.33978342 0.0030737428 
   37300    12.543882  -0.37265288            0  -0.33976146 0.0013838616 
   37400    12.509339  -0.37267678            0  -0.33987593 0.00030097916 
   37500    12.525317  -0.37265274            0     -0.33981 0.0044785396 
   37600    12.568196   -0.3728136            0  -0.33985842 0.0041788845 
   37700    12.651179  -0.37304434            0  -0.33987158 -0.0009754475 
   37800    12.645624  -0.37302756            0  -0.33986935 0.00088525096 
   37900    12.650433  -0.37305387            0  -0.33988306 0.0043481623 
   38000    12.647642  -0.37308044            0  -0.33991695 0.0038875148 
   38100    12.627216  -0.37298727            0  -0.33987734 0.0024957206 
   38200    12.737256  -0.37325695            0  -0.33985848 0.0027754878 
   38300    12.792789  -0.37339665            0  -0.33985257  0.006099632 
   38400    12.928133  -0.37375192            0  -0.33985294 0.0013267384 
   38500    12.805026  -0.37343357            0   -0.3398574 0.0032899706 
   38600     12.87193  -0.37362667            0  -0.33987507 0.0011698434 
   38700    12.749128  -0.37322749            0  -0.33979789 0.0048095675 
   38800     12.79266  -0.37337869            0  -0.33983495 0.0012699282 
   38900    12.698113   -0.3731155            0  -0.33981966 0.0029852339 
   39000    12.679217  -0.37306571            0  -0.33981942 0.0019578947 
   39100     12.66854   -0.3731602            0  -0.33994191 0.00034653987 
   39200    12.710843  -0.37320242            0   -0.3398732 -0.00010373758 
   39300    12.818742  -0.37346596            0  -0.33985382 0.0018681404 
   39400    12.863131  -0.37363131            0  -0.33990279 0.0033171718 
   39500    12.927835  -0.37382077            0  -0.33992258 0.0028463401 
   39600    12.901515  -0.37373956            0  -0.33991039 0.0036373064 
   39700    12.828327  -0.37355459            0  -0.33991732 0.0035093735 
   39800    12.964118  -0.37394145            0  -0.33994812 -0.00060227081 
   39900    13.021126  -0.37409629            0  -0.33995348 0.0021622919 
   40000    12.834052  -0.37358089            0  -0.33992861 0.0070027347 
   40100    12.910306  -0.37377937            0  -0.33992714 -0.00055999843 
   40200    12.687402  -0.37318832            0  -0.33992057 0.0037533713 
   40300    12.799727  -0.37346879            0  -0.33990651 0.0040362842 
   40400    12.909024  -0.37375459            0  -0.33990573 0.0027330925 
   40500    12.830882  -0.37365105            0  -0.34000708  0.002577906 
   40600     12.76455  -0.37337553            0  -0.33990549 0.0046335531 
   40700    12.727079  -0.37324417            0  -0.33987239 0.0036852733 
   40800    12.759523  -0.37333594            0  -0.33987909 -0.0008329047 
   40900    12.691015  -0.37318568            0  -0.33990846 0.00070290564 
   41000    12.782787  -0.37345055            0  -0.33993269 0.0008108861 
   41100    12.883535  -0.37364607            0  -0.33986404 0.0042936988 
   41200    12.912896  -0.37368283            0  -0.33982381  0.004965815 
   41300    12.916213  -0.37371459            0  -0.33984687 0.0031866359 
   41400    12.985634  -0.37386154            0   -0.3398118 0.0006126486 
   41500     12.91417  -0.37365801            0  -0.33979565 0.0037222789 
   41600    12.957023   -0.3737764            0  -0.33980168 0.0039221569 
   41700    12.936923  -0.37371383            0  -0.33979181 0.0020402983 
   41800    12.929819  -0.37378462            0  -0.33988123 0.00060849454 
   41900    12.893586  -0.37362823            0  -0.33981985  0.005002657 
   42000    12.954413  -0.37389401            0  -0.33992613 0.0022489531 
   42100    12.932971  -0.37383644            0  -0.33992478 0.0020929113 
   42200    12.882485  -0.37369161            0  -0.33991233 0.0020246458 
   42300    12.842965  -0.37357895            0   -0.3399033 0.0023548016 
   42400    12.780911  -0.37341851            0  -0.33990557 0.0050401583 
   42500    12.823286  -0.37352117            0  -0.33989711 0.0026969408 
   42600    12.791777  -0.37343947            0  -0.33989804 0.0026772173 
   42700    12.805058  -0.37351132            0  -0.33993507 0.0020446837 
   42800    12.885882  -0.37371361            0  -0.33992542 0.00085381202 
   42900    12.861796  -0.37364019            0  -0.33991516  0.001428607 
   43000    12.820987  -0.37358217            0  -0.33996415 0.0036714342 
   43100    12.729595   -0.3734179            0  -0.34003951 0.0062770344 
   43200    12.880785  -0.37369939            0  -0.33992457 0.0010764804 
   43300    12.862428  -0.37364494            0  -0.33991825  0.001682228 
   43400    12.911654  -0.37377246            0   -0.3399167 0.0007348797 
   43500    13.008244  -0.37413369            0  -0.34002466 0.0012132706 
   43600    13.023312  -0.37407814            0   -0.3399296 0.0056126625 
   43700    12.977953  -0.37396841            0  -0.33993881 0.0068909531 
   43800    13.128035  -0.37434634            0   -0.3399232 -0.00072851302 
   43900    13.075888  -0.37423348            0  -0.33994708 0.00029247301 
   44000    13.090302  -0.37428216            0  -0.33995797  0.002488533 
   44100     13.17481  -0.37449841            0  -0.33995263 0.0039354534 
   44200    13.251945  -0.37469038            0  -0.33994234 0.0030583688 
   44300    13.241211  -0.37464172            0  -0.33992182 0.0032141946 
   44400     13.38056  -0.37502138            0   -0.3399361 -0.0016690663 
   44500    13.250367  -0.37471298            0  -0.33996908 0.0045254358 
   44600    13.276456  -0.37476944            0  -0.33995712 0.0048390879 
   44700    13.152711   -0.3743781            0  -0.33989026 0.0047276472 
   44800    13.113184  -0.37428944            0  -0.33990525 0.0033607928 
   44900    13.146648  -0.37439497            0  -0.33992303 0.0029807241 
   45000     13.19518  -0.37453861            0  -0.33993941 0.0021358718 
   45100    13.228697  -0.37460683            0  -0.33991975 0.0022820868 
   45200    13.327083  -0.37484631            0  -0.33990125 0.0032298115 
   45300    13.301112  -0.37477503            0  -0.33989807 0.0047329209 
   45400    13.307135  -0.37486432            0  -0.33997157 0.0024706833 
   45500    13.316926  -0.37480025            0  -0.33988182 0.00034601385 
   45600    13.259829  -0.37464414            0  -0.33987543  0.003434626 
   45700    13.283063  -0.37471104            0   -0.3398814 0.0014806143 
   45800    13.088745  -0.37420393            0  -0.33988381 0.0060964635 
   45900    13.300642  -0.37480108            0  -0.33992535 -0.0018155536 
   46000    13.034803  -0.37405223            0  -0.33987356 0.0035310279 
   46100    13.158786  -0.37434661            0  -0.33984284 4.5834893e-05 
   46200    13.087811  -0.37416557            0  -0.33984791 0.0024193798 
   46300     13.21048  -0.37451844            0  -0.33987912 -0.00094513801 
   46400    13.213081  -0.37448325            0  -0.33983711 0.0043156168 
   46500    13.303519  -0.37474474            0  -0.33986146 0.0027427542 
   46600    13.133713  -0.37429474            0  -0.33985671 0.0062164756 
   46700    13.247152  -0.37463391            0  -0.33989843  0.002447508 
   46800    13.128266   -0.3743234            0  -0.33989965 0.0045628702 
   46900    13.135593  -0.37427207            0  -0.33982911 0.0025906269 
   47000    13.220131   -0.3744517            0  -0.33978708 7.2709759e-05 
   47100    13.251445   -0.3745148            0  -0.33976807 0.0026787763 
   47200    13.179952  -0.37445701            0  -0.33989774 0.0042506863 
   47300    13.239392  -0.37449341            0  -0.33977829  0.002671937 
   47400    13.127607  -0.37422633            0  -0.33980432 0.0038709808 
   47500     13.08184  -0.37413866            0  -0.33983665 0.00085653233 
   47600     12.97529  -0.37387331            0  -0.33985069 0.0004478226 
   47700    12.964081  -0.37386488            0  -0.33987165 0.0011357221 
   47800    12.882505  -0.37365294            0  -0.33987361 0.0039769245 
   47900     12.90384  -0.37362902            0  -0.33979375 0.0025243751 
   48000    12.980865  -0.37384943            0  -0.33981219 0.0016946333 
   48100    12.996413  -0.37382839            0  -0.33975039 0.0016449421 
   48200    13.035656  -0.37400614            0  -0.33982523 0.00021755468 
   48300    13.096594  -0.37412749            0   -0.3397868 0.0013420297 
   48400    13.144515   -0.3743701            0  -0.33990375 0.0031974198 
   48500    13.221495  -0.37449644            0  -0.33982824  0.003687961 
   48600    13.244655   -0.3745501            0  -0.33982117 0.0014042099 
   48700    13.137832  -0.37427354            0  -0.33982472 0.0029058467 
   48800    13.098533  -0.37416727            0  -0.33982149 0.0047251376 
   48900     13.09066  -0.37421869            0  -0.33989356 0.0021363326 
   49000    13.185495  -0.37439228            0  -0.33981847 -0.00027117739 
   49100    13.258162  -0.37456619            0  -0.33980185 0.0021735622 
   49200    13.302441  -0.37479846            0  -0.33991801 0.0048549717 
   49300     13.24918  -0.37455557            0  -0.33981478 0.0041148585 
   49400    13.249996  -0.37457639            0  -0.33983346 0.0030527234 
   49500    13.317483  -0.37475743            0  -0.33983754 0.0014544815 
   49600    13.259557  -0.37463426            0  -0.33986625 0.0017010985 
   49700    13.220491  -0.37447395            0  -0.33980838 0.0021896979 
   49800    13.163002  -0.37435051            0  -0.33983569 0.0021109354 
   49900    13.302783  -0.37469147            0  -0.33981013 -0.00062266958 
   50000    13.238605  -0.37445371            0  -0.33974065 0.0040971727 
   50100    13.318435   -0.3747474            0  -0.33982501  0.003130759 
   50200    13.272553  -0.37459443            0  -0.33979235 0.0036744742 
   50300    13.171803  -0.37434122            0  -0.33980332 0.0020437325 
   50400     13.11819  -0.37424152            0   -0.3398442 0.0007565253 
   50500    13.063518   -0.3741243            0  -0.33987034 0.0023999051 
   50600    13.052982  -0.37407614            0  -0.33984981 0.0047475976 
   50700    13.288143  -0.37469029            0  -0.33984733 -0.00071925239 
   50800    13.253881  -0.37458902            0  -0.33983591  0.002328306 
   50900    13.261543  -0.37458551            0   -0.3398123 0.0048787869 
   51000    13.240383  -0.37452661            0  -0.33980889 0.0051580345 
   51100    13.393755  -0.37487871            0  -0.33975882 0.00034798635 
   51200    13.330643   -0.3746551            0   -0.3397007 0.0031182908 
   51300    13.307958  -0.37473792            0    -0.339843 0.00027920149 
   51400    13.402888  -0.37484204            0  -0.33969821 0.0018314038 
   51500    13.351847  -0.37476267            0  -0.33975268 0.0070032937 
   51600    13.363338  -0.37484384            0  -0.33980371  0.003041905 
   51700    13.306999  -0.37466187            0  -0.33976947 0.0024901849 
   51800    13.233497  -0.37448053            0  -0.33978086 0.0031893463 
   51900    13.374716  -0.37486189            0  -0.33979193 0.00070342957 
   52000    13.461338  -0.37506955            0  -0.33977246 0.0021853221 
   52100    13.469978  -0.37503017            0  -0.33971042 0.0021531916 
   52200    13.388298  -0.37490016            0  -0.33979459 0.0043561014 
   52300    13.629566  -0.37540054            0  -0.33966233 0.0037351671 
   52400    13.574818  -0.37534316            0  -0.33974851 0.0071265517 
   52500    13.618226  -0.37535485            0  -0.33964638 0.0030150098 
   52600     13.61166  -0.37531777            0  -0.33962652  0.002289411 
   52700    13.535544   -0.3752321            0  -0.33974043  0.002098537 
   52800    13.428397  -0.37482121            0   -0.3396105  0.003825221 
   52900     13.53748  -0.37510981            0  -0.33961307 0.00050309235 
   53000    13.431944  -0.37488712            0   -0.3396671  0.003085766 
   53100    13.545103  -0.37517952            0  -0.33966279 -1.7803882e-05 
   53200    13.445694  -0.37497269            0  -0.33971661 0.0041978898 
   53300    13.495957  -0.37509694            0  -0.33970907 0.0046218483 
   53400    13.603106  -0.37539649            0  -0.33972767 0.0032738849 
   53500    13.578587  -0.37535337            0  -0.33974883 0.0031928231 
   53600    13.436433  -0.37496349            0   -0.3397317 0.0053153101 
   53700    13.521369  -0.37523685            0  -0.33978235 -0.00021992294 
   53800    13.503961  -0.37506411            0  -0.33965526 0.0021792025 
   53900     13.55629  -0.37526312            0  -0.33971706 0.0040816396 
   54000    13.596827  -0.37543389            0  -0.33978153 0.00064050712 
   54100    13.546585  -0.37532814            0  -0.33980752 0.0035783146 
   54200    13.555037  -0.37526943            0  -0.33972665 0.0041699554 
   54300    13.651483  -0.37550695            0  -0.33971128 -0.0021483297 
   54400     13.57823  -0.37530819            0   -0.3397046  0.003004624 
   54500     13.60553  -0.37537671            0  -0.33970153 0.0053306588 
   54600    13.831784  -0.37595305            0  -0.33968461 0.00038143457 
   54700    13.842831  -0.37597181            0   -0.3396744 0.00078595167 
   54800    13.637854   -0.3754145            0  -0.33965456 0.0054588085 
   54900    13.634487  -0.37532655            0  -0.33957545 0.0022867797 
   55000    13.466903  -0.37488232            0  -0.33957063 0.0054721208 
   55100    13.556095  -0.37531009            0  -0.33976454 0.0040639002 
   55200    13.610496   -0.3752599            0   -0.3395717 0.0021867601 
   55300    13.720789  -0.37559306            0  -0.33961566 -0.0026013934 
   55400    13.557309  -0.37523178            0  -0.33968304 0.0048230053 
   55500    13.656278  -0.37558948            0  -0.33978123 0.00092230258 
   55600    13.669717  -0.37562182            0  -0.33977834 0.0035510306 
   55700    13.665095  -0.37560656            0   -0.3397752 0.0037304975 
   55800    13.656899  -0.37559106            0  -0.33978118 0.0011870958 
   55900    13.541015  -0.37529094            0  -0.33978493 0.0042708372 
   56000    13.614838  -0.37551745            0  -0.33981786 0.0015116295 
   56100    13.371963  -0.37490795            0  -0.33984521 0.0050138107 
   56200    13.466314  -0.37516971            0  -0.33985957 0.0016540942 
   56300    13.561164  -0.37542105            0   -0.3398622 -0.00037575469 
   56400    13.529969  -0.37533682            0  -0.33985977 0.0018360695 
   56500    13.512842  -0.37530851            0  -0.33987637 0.0023520067 
   56600    13.488709  -0.37523341            0  -0.33986455 0.0022707347 
   56700    13.553206  -0.37537668            0   -0.3398387 0.00062738463 
   56800    13.392972  -0.37495473            0   -0.3398369 0.0045434999 
   56900    13.289263  -0.37473026            0  -0.33988437 0.0030647546 
   57000    13.249121  -0.37461505            0  -0.33987441  0.003728298 
   57100    13.289725  -0.37472883            0  -0.33988173 0.0076818625 
   57200    13.660052  -0.37568927            0  -0.33987113 0.0011006315 
   57300    13.605239  -0.37551929            0  -0.33984487 0.0064083144 
   57400    13.624128  -0.37562499            0  -0.33990104 0.0058467688 
   57500    13.656927  -0.37568778            0  -0.33987783 0.00091781762 
   57600     13.52986  -0.37536976            0    -0.339893 0.0017607477 
   57700    13.432644  -0.37514531            0  -0.33992346 0.0043504297 
   57800    13.445076  -0.37519735            0   -0.3399429 0.0030681266 
   57900    13.514969  -0.37538818            0  -0.33995047 -0.00038934886 
   58000    13.462994  -0.37525741            0  -0.33995597 0.0015163572 
   58100    13.434725   -0.3751858            0  -0.33995849 0.0019707519 
   58200    13.513926  -0.37538953            0  -0.33995455 0.0017440044 
   58300    13.491092  -0.37532184            0  -0.33994673 0.0028080695 
   58400    13.582376  -0.37556867            0   -0.3399542 -0.00070844372 
   58500    13.561561  -0.37553151            0  -0.33997162 0.0036731691 
   58600    13.637993   -0.3757178            0   -0.3399575 0.0062427633 
   58700    13.725372  -0.37597583            0  -0.33998641 0.0048394353 
   58800    13.800912  -0.37615447            0  -0.33996698 0.00023398071 
   58900    13.681279  -0.37583049            0  -0.33995669 0.0044587427 
   59000    13.585124  -0.37558402            0  -0.33996235 0.0054367077 
   59100    13.575369  -0.37554678            0  -0.33995068 -0.00049588175 
   59200    13.516588  -0.37538114            0  -0.33993918 -0.00035011789 
   59300    13.530674  -0.37540239            0  -0.33992349 0.0026342924 
   59400    13.520753   -0.3753744            0  -0.33992151 0.0052241106 
   59500     13.58801  -0.37562358            0  -0.33999434 0.00099944866 
   59600    13.532355  -0.37540539            0  -0.33992208 0.0035572307 
   59700    13.688632  -0.37580125            0  -0.33990816 0.0013605221 
   59800    13.498734  -0.37531076            0  -0.33991561 0.0059857064 
   59900    13.681625  -0.37579241            0  -0.33991771 0.0025909994 
   60000    13.657802  -0.37572712            0  -0.33991488 0.0031700123 
   60100    13.688836  -0.37583108            0  -0.33993746 0.0016515264 
   60200    13.674139   -0.3758244            0  -0.33996932 0.0041291444 
   60300    13.694724  -0.37581442            0  -0.33990536 0.0057298634 
   60400    13.722621  -0.37587593            0  -0.33989373 0.0025417466 
   60500    13.784904   -0.3760376            0  -0.33989209 -0.00041543296 
   60600    13.818744  -0.37615385            0   -0.3399196 6.929112e-05 
   60700    13.723417  -0.37591601            0  -0.33993172 0.0038010158 
   60800    13.720809  -0.37589518            0  -0.33991773 0.0012524335 
   60900    13.586235   -0.3755042            0  -0.33987962 0.0023359504 
   61000     13.62229  -0.37558747            0  -0.33986834 0.0037054497 
   61100    13.756433  -0.37594639            0  -0.33987553 0.0041721922 
   61200    13.983479  -0.37656133            0  -0.33989512 0.0025010058 
   61300    14.011899  -0.37663372            0    -0.339893 0.0067651424 
   61400    14.145822   -0.3769921            0  -0.33990021 0.0033078766 
   61500    14.121615  -0.37689464            0  -0.33986623 0.0026155713 
   61600    14.021844  -0.37662116            0  -0.33985436 0.0014918403 
   61700    13.912648  -0.37639884            0  -0.33991836 0.0026654847 
   61800    13.929589  -0.37636875            0  -0.33984385 0.0015629975 
   61900    13.810675  -0.37606644            0  -0.33985334  0.003245308 
   62000    13.928892  -0.37643529            0  -0.33991222 0.0012538306 
   62100    13.818864  -0.37611935            0  -0.33988479 0.0066691193 
   62200    13.971837  -0.37650536            0  -0.33986968 -0.0013902355 
   62300    13.848164  -0.37618825            0  -0.33987685 0.0007462656 
   62400    13.920452  -0.37637816            0  -0.33987722 0.0025658213 
   62500    14.039014  -0.37667593            0  -0.33986411 0.0026151737 
   62600    13.863874  -0.37621104            0  -0.33985845 0.0062138098 
   62700    13.831961  -0.37613369            0  -0.33986479 0.0018610677 
   62800     13.80782  -0.37606628            0  -0.33986067 -0.00012779169 
   62900    13.849715  -0.37618185            0  -0.33986639 0.0014849582 
   63000    13.837725  -0.37611835            0  -0.33983433 0.0040958139 
   63100    13.835571  -0.37609857            0   -0.3398202 0.0057284976 
   63200    13.939645  -0.37636927            0    -0.339818 0.0011149597 
   63300    13.845668  -0.37612954            0   -0.3398247 0.0015725054 
   63400    13.892842  -0.37622246            0  -0.33979391 0.0019700126 
   63500    14.011988   -0.3764499            0  -0.33970894 0.0026730381 
   63600    13.916451  -0.37633657            0  -0.33984612  0.005649088 
   63700    14.093259  -0.37673384            0  -0.33977979 0.0012124404 
   63800    14.191908  -0.37702643            0   -0.3398137 0.0047438294 
   63900    14.176948  -0.37696125            0  -0.33978775 0.0055476392 
   64000    14.147631  -0.37692305            0  -0.33982642 0.0035621164 
   64100    14.078848  -0.37673176            0   -0.3398155 0.0048752579 
   64200    13.976337  -0.37646404            0  -0.33981656 0.0018906662 
   64300    13.847994  -0.37613149            0  -0.33982055 0.00091335855 
   64400    13.854537  -0.37619358            0  -0.33986548 0.0044894573 
   64500    13.946865  -0.37647403            0  -0.33990384 0.0048402278 
   64600    13.943045  -0.37644523            0  -0.33988505 0.0037293143 
   64700    14.109098  -0.37683468            0  -0.33983909 -0.0021320038 
   64800     13.95499  -0.37645686            0  -0.33986536 0.0029187695 
   64900    14.008135  -0.37661837            0  -0.33988751 0.0023304537 
   65000    13.862758  -0.37624011            0  -0.33989045 0.0063519244 
   65100    13.971351  -0.37649928            0  -0.33986488 0.00063793957 
   65200    13.885002  -0.37623938            0   -0.3398314 0.0036254932 
   65300    13.903078  -0.37622922            0  -0.33977384 0.0049220693 
   65400    14.151161  -0.37685788            0    -0.339752  0.001014072 
   65500    14.019352  -0.37660731            0  -0.33984704 0.0050785417 
   65600    14.143031  -0.37673541            0  -0.33965085 -0.00025884791 
   65700    14.101615  -0.37666197            0    -0.339686 0.0011649832 
   65800    13.973961  -0.37635618            0  -0.33971494 0.0069555349 
   65900    14.123415  -0.37690743            0   -0.3398743 0.00049080121 
   66000    14.068994  -0.37667385            0  -0.33978341  0.004386025 
   66100    14.057047  -0.37663082            0  -0.33977171 0.0050588367 
   66200    14.190564  -0.37699734            0  -0.33978814 0.0010825906 
   66300    14.041783  -0.37660334            0  -0.33978426 0.0056712291 
   66400    14.101361  -0.37682297            0  -0.33984767 0.00051659155 
   66500    14.064686  -0.37668309            0  -0.33980396 -0.00064638621 
   66600    14.050434  -0.37666074            0  -0.33981898  0.001301491 
   66700      14.1577  -0.37696927            0  -0.33984624  0.002736744 
   66800    14.188866  -0.37705973            0  -0.33985498 0.0023897603 
   66900    14.191887  -0.37706096            0  -0.33984829 0.0024575981 
   67000    14.155687  -0.37694288            0  -0.33982513 0.0038981036 
   67100    14.308991  -0.37729991            0  -0.33978018 0.0017655298 
   67200    14.331949  -0.37729054            0  -0.33971061 0.0045275998 
   67300    14.454545  -0.37768559            0   -0.3397842 0.0029901714 
   67400    14.517559  -0.37773098            0  -0.33966436 0.0082638261 
   67500    14.686642  -0.37811907            0   -0.3396091 0.0020438967 
   67600    14.563991  -0.37776639            0  -0.33957802 -0.00048653893 
   67700    14.532045  -0.37763302            0  -0.33952842 0.0030951062 
   67800    14.500399  -0.37748701            0  -0.33946539 0.0066228648 
   67900    14.406002  -0.37746891            0  -0.33969481 0.0032448239 
   68000    14.354485  -0.37717105            0  -0.33953203 0.0033501353 
   68100    14.335416  -0.37725202            0    -0.339663 0.0039460634 
   68200    14.335625  -0.37726078            0  -0.33967122 0.0011670204 
   68300    14.352262  -0.37735321            0  -0.33972002 0.00094974004 
   68400    14.409821  -0.37755154            0  -0.33976742 0.0042258274 
   68500    14.509607  -0.37782166            0   -0.3397759 0.0040617256 
   68600    14.308408  -0.37730324            0  -0.33978504 0.0059627149 
   68700    14.234952    -0.377148            0  -0.33982241 -0.00044103942 
   68800    14.132418  -0.37685285            0  -0.33979611 0.00021896847 
   68900    14.080668  -0.37668512            0  -0.33976408 0.0033372717 
   69000    14.151023  -0.37690579            0  -0.33980027 0.00039770137 
   69100    14.110131   -0.3767844            0   -0.3397861 0.0025987939 
   69200    14.132035  -0.37682206            0  -0.33976633 0.0013592773 
   69300    14.139409  -0.37684896            0  -0.33977389 -0.00095071044 
   69400     13.96292  -0.37638948            0  -0.33977718 0.0027781232 
   69500    14.193808   -0.3770183            0  -0.33980059 -0.0016024338 
   69600    14.247676  -0.37723788            0  -0.33987892 0.0040235888 
   69700    14.359382  -0.37747506            0   -0.3398232 0.0052207298 
   69800    14.343494  -0.37742151            0  -0.33981131 0.0055008308 
   69900    14.460301  -0.37769932            0  -0.33978284  0.001008677 
   70000    14.577014  -0.37799683            0  -0.33977431 -0.001011397 
   70100    14.387811  -0.37753117            0  -0.33980477  0.008173594 
   70200    14.467399  -0.37772207            0  -0.33978698 0.0033070204 
   70300    14.498079  -0.37782405            0  -0.33980851 -0.00067613564 
   70400    14.515258  -0.37787418            0  -0.33981359 0.0025754841 
   70500    14.527265  -0.37791533            0  -0.33982326 0.0031552595 
   70600    14.324979  -0.37736511            0  -0.33980346 0.0027375925 
   70700    14.268816  -0.37719606            0  -0.33978168 0.0017273014 
   70800    14.296408  -0.37728497            0  -0.33979824 0.0023448085 
   70900    14.415905  -0.37755551            0  -0.33975544 0.0018664607 
   71000    14.570001  -0.37802571            0  -0.33982158 0.0017734814 
   71100    14.667918  -0.37824366            0  -0.33978279 0.0066144996 
   71200     14.70856   -0.3783265            0  -0.33975905 0.0047162562 
   71300    14.558904  -0.37800629            0  -0.33983126 0.0044830771 
   71400    14.604415  -0.37814019            0  -0.33984583 0.00037702742 
   71500    14.712784  -0.37836248            0  -0.33978396 0.00016797784 
   71600    14.582313  -0.37803158            0  -0.33979517 0.0066517353 
   71700    14.487804    -0.377819            0   -0.3398304 0.0064007874 
   71800    14.623618  -0.37813877            0  -0.33979405 0.00024352899 
   71900    14.703631  -0.37833545            0  -0.33978093 -2.5015563e-05 
   72000    14.664204  -0.37820749            0  -0.33975635 0.0048789473 
   72100    14.554127  -0.37795322            0  -0.33979072  0.004266176 
   72200    14.700424   -0.3782307            0  -0.33968459 -0.00052386252 
   72300    14.637058  -0.37803771            0  -0.33965775 0.0028524473 
   72400    14.732414  -0.37828846            0  -0.33965847 0.0041344375 
   72500    14.635926  -0.37814749            0   -0.3397705 0.0080570829 
   72600    14.720473  -0.37838351            0  -0.33978483 0.00062339992 
   72700    14.710752  -0.37827242            0  -0.33969923 0.0033264909 
   72800    14.610687  -0.37812594            0  -0.33981513 0.0065208641 
   72900    14.660855  -0.37823487            0  -0.33979252 5.2710864e-05 
   73000    14.556484  -0.37798554            0  -0.33981685 0.0035251186 
   73100    14.726513  -0.37846339            0  -0.33984887 0.0033584247 
   73200    14.584082  -0.37809725            0   -0.3398562 0.0067242422 
   73300    14.646824   -0.3782584            0  -0.33985284 0.0029768329 
   73400    14.655611  -0.37827966            0  -0.33985105 0.0012064135 
   73500    14.606339  -0.37814548            0  -0.33984607  0.001546832 
   73600    14.772977  -0.37857225            0   -0.3398359 -0.00050022015 
   73700    14.702048  -0.37836851            0  -0.33981815 0.0062170674 
   73800    14.888714  -0.37883439            0  -0.33979456 0.0028986074 
   73900    14.987287   -0.3790854            0  -0.33978711 0.00062532556 
   74000    14.964114  -0.37904585            0  -0.33980831 0.0036249113 
   74100    14.946584  -0.37896522            0  -0.33977366 0.0062608775 
   74200    15.061303  -0.37924189            0  -0.33974952 0.0012445253 
   74300     14.88642  -0.37879487            0  -0.33976106  0.006968105 
   74400    14.973761  -0.37908591            0  -0.33982308 0.0051314414 
   74500     15.08013  -0.37929009            0  -0.33974835 0.0029470522 
   74600    14.960962  -0.37895255            0  -0.33972328 0.0061189358 
   74700    15.074917  -0.37927524            0  -0.33974717 -0.0015714575 
   74800    14.975258  -0.37902454            0  -0.33975778 -0.00019189598 
   74900    14.993925  -0.37898946            0  -0.33967375 0.0042403252 
   75000    14.843672  -0.37856394            0  -0.33964221 0.0066566328 
   75100    14.790777  -0.37843987            0  -0.33965685 -0.00056693279 
   75200    14.705349  -0.37823929            0  -0.33968027 0.00061357058 
   75300    14.778625  -0.37847877            0  -0.33972761 0.0024257573 
   75400    14.800534  -0.37859683            0  -0.33978822 0.0035428024 
   75500    14.741475  -0.37846828            0  -0.33981453 0.0037003957 
   75600    14.820084  -0.37869002            0  -0.33983015  0.002031669 
   75700    14.867317  -0.37883382            0   -0.3398501  0.003117277 
   75800    14.964276  -0.37908869            0  -0.33985073 0.00086333781 
   75900    14.918355  -0.37896843            0  -0.33985088 0.0046028499 
   76000    14.873458  -0.37886131            0  -0.33986149  0.005013448 
   76100    14.853786  -0.37878268            0  -0.33983444 0.00047017537 
   76200    14.826802  -0.37869775            0  -0.33982026 7.986305e-05 
   76300    14.712157  -0.37841025            0  -0.33983337 0.0081241158 
   76400    15.027603  -0.37922759            0  -0.33982358 0.0038642599 
   76500    14.992145  -0.37909575            0  -0.33978472    0.0063922 
   76600    14.930272  -0.37890359            0  -0.33975479 0.0033474485 
   76700     14.90635  -0.37882779            0  -0.33974172 -0.00045658934 
   76800     14.80856  -0.37864674            0  -0.33981709 0.0051005002 
   76900    15.059083  -0.37917779            0  -0.33969124 0.0034421047 
   77000    14.947559  -0.37886828            0  -0.33967415 0.0082896374 
   77100    15.006668   -0.3790826            0  -0.33973348 0.0018641685 
   77200    15.067773  -0.37917763            0   -0.3396683 -0.0010293937 
   77300    14.948445  -0.37888258            0  -0.33968613 0.0049796808 
   77400    15.019991   -0.3791056            0  -0.33972155 0.0028871602 
   77500    15.003668  -0.37912508            0  -0.33978383 -0.00023483023 
   77600    14.935061   -0.3790127            0  -0.33985135 0.0036984556 
   77700    15.000082  -0.37923416            0  -0.33990231 0.0028795061 
   77800    15.095349  -0.37938737            0  -0.33980572 0.0022642513 
   77900    14.832641  -0.37869405            0  -0.33980125 0.0071483953 
   78000    15.032613  -0.37921445            0  -0.33979731 -0.00037695512 
   78100    14.980967  -0.37900069            0  -0.33971897 0.0035023298 
   78200    14.924452   -0.3788677            0  -0.33973416 0.0052555938 
   78300    14.963816  -0.37891616            0  -0.33967941   0.00301286 
   78400    14.920349  -0.37877714            0  -0.33965437 0.0022997187 
   78500    14.951958  -0.37885937            0  -0.33965371 -0.00052434513 
   78600    15.018003  -0.37902748            0  -0.33964864 0.0026747801 
   78700    15.353995  -0.37987117            0  -0.33961133 0.0032722749 
   78800    15.313816  -0.37983363            0  -0.33967914 0.0048451693 
   78900    15.315252  -0.37987292            0  -0.33971467 0.0026580303 
   79000    15.216447   -0.3796333            0  -0.33973412 0.0045177838 
   79100    15.197941  -0.37959454            0  -0.33974389 0.00077969738 
   79200    15.011663  -0.37913359            0  -0.33977138 0.0041148246 
   79300    15.034714  -0.37919667            0  -0.33977402 0.0027254609 
   79400    15.021755  -0.37915392            0  -0.33976524 0.0034946671 
   79500    15.233182  -0.37970521            0  -0.33976215  0.001571406 
   79600    15.224006  -0.37967654            0  -0.33975754 0.0057861673 
   79700    15.315794  -0.37992416            0  -0.33976448 0.0025769888 
   79800    15.072296  -0.37931138            0  -0.33979018 0.0056192772 
   79900    14.900474  -0.37885422            0  -0.33978356 0.0026152301 
   80000    14.945228  -0.37897524            0  -0.33978723 -0.0003415076 
   80100    15.048232  -0.37920888            0  -0.33975078 0.0018117801 
   80200    15.109797  -0.37937053            0    -0.339751 0.0007365138 
   80300    15.063883  -0.37925014            0    -0.339751 0.00035290169 
   80400    15.012753    -0.379161            0  -0.33979593 0.0017509865 
   80500    14.952231  -0.37898327            0   -0.3397769 0.0021528926 
   80600     14.93369  -0.37892591            0  -0.33976815 0.0024476989 
   80700    14.956647   -0.3789652            0  -0.33974725 0.0028402241 
   80800    14.926143  -0.37886733            0  -0.33972936 0.0056398109 
   80900    14.957541  -0.37898314            0  -0.33976284 0.0011779176 
   81000     14.89725  -0.37875108            0  -0.33968887 0.00074320511 
   81100    14.959027  -0.37890767            0  -0.33968347 0.0026992584 
   81200    14.985841  -0.37900385            0  -0.33970935 0.0035266082 
   81300    14.975272  -0.37893637            0  -0.33966958 0.00083016845 
   81400    14.921573  -0.37877571            0  -0.33964972 0.0028502221 
   81500    14.986405  -0.37896833            0  -0.33967235 0.0028432525 
   81600    15.087204  -0.37927442            0  -0.33971413 0.00037706352 
   81700    15.177021  -0.37947872            0  -0.33968292 0.0027160059 
   81800    15.156234   -0.3793838            0   -0.3396425 0.0076302824 
   81900    15.214102  -0.37948753            0   -0.3395945 0.0025169298 
   82000    15.195733  -0.37940888            0  -0.33956402 -0.00035166564 
   82100    15.211491  -0.37949826            0  -0.33961208 0.0041847679 
   82200    15.477438   -0.3801054            0  -0.33952187 0.00049223709 
   82300     15.26994  -0.37957526            0  -0.33953582 0.0047348379 
   82400    15.192424  -0.37939229            0   -0.3395561 0.0024108786 
   82500    15.212482  -0.37958327            0  -0.33969448 0.0054446614 
   82600    15.374086  -0.37993201            0  -0.33961949 0.0048510076 
   82700    15.286997   -0.3797061            0  -0.33962193 0.0034096254 
   82800    15.230872  -0.37960929            0  -0.33967229 -0.00037091715 
   82900     15.00142  -0.37902111            0  -0.33968576 0.0053796066 
   83000    15.050628   -0.3791534            0  -0.33968901 0.0020867723 
   83100     15.05331  -0.37918267            0  -0.33971125 0.0017631775 
   83200    15.014962  -0.37905923            0  -0.33968837 0.0070877268 
   83300    15.052806  -0.37912404            0  -0.33965395 0.0012160351 
   83400    14.996147  -0.37897195            0  -0.33965042 -0.0028934777 
   83500    15.020099  -0.37908818            0  -0.33970385 0.0030861283 
   83600    15.148541  -0.37928719            0  -0.33956607 0.0068754215 
   83700    15.233336   -0.3794958            0  -0.33955233 0.0028686341 
   83800     15.07958   -0.3790455            0   -0.3395052 0.0044016289 
   83900    15.185196  -0.37933681            0  -0.33951957 -0.00014666674 
   84000    15.249739  -0.37946909            0  -0.33948261 0.0024180602 
   84100    15.375783  -0.37980321            0  -0.33948624 0.0011649269 
   84200    15.315024  -0.37975044            0  -0.33959278 0.0039904134 
   84300    15.473524  -0.38016235            0  -0.33958909 0.0012691501 
   84400    15.453006  -0.38014782            0  -0.33962836 0.0018279173 
   84500    15.400047   -0.3800738            0   -0.3396932 0.0051638511 
   84600    15.574571    -0.380577            0  -0.33973878 0.0030367981 
   84700    15.532797  -0.38045242            0  -0.33972373 0.0039244768 
   84800    15.367113  -0.38002838            0  -0.33973414 0.0040387082 
   84900    15.208601  -0.37962305            0  -0.33974444 0.0017466173 
   85000     15.19249  -0.37958576            0   -0.3397494 9.6426415e-05 
   85100    15.215056  -0.37965426            0  -0.33975873 0.0048464112 
   85200    15.255621  -0.37979595            0  -0.33979405 0.0060946364 
   85300    15.186939  -0.37963307            0  -0.33981126 0.0024391689 
   85400    15.201818  -0.37960368            0  -0.33974286 -0.0010717948 
   85500    15.298668  -0.37986997            0   -0.3397552 0.0025651751 
   85600    15.485511  -0.38038294            0  -0.33977825 0.0028280922 
   85700    15.228272  -0.37968022            0  -0.33975004 0.0073034288 
   85800    15.236046  -0.37971067            0   -0.3397601 -0.0003397662 
   85900    15.174118  -0.37955994            0  -0.33977176 0.0021431718 
   86000    15.236047  -0.37973574            0  -0.33978517 0.0061998048 
   86100    15.531598  -0.38051513            0  -0.33978959 -0.00053726042 
   86200    15.232868  -0.37972917            0  -0.33978694 0.0078306982 
   86300    15.381182  -0.38011495            0  -0.33978382 -0.0009777513 
   86400    15.274331  -0.37985861            0  -0.33980765 0.00036211206 
   86500    15.312215  -0.37998509            0  -0.33983479  0.001050703 
   86600    15.210858  -0.37965542            0   -0.3397709 0.0071261214 
   86700    15.230522  -0.37967682            0  -0.33974073 0.0040046816 
   86800    15.211552  -0.37964333            0  -0.33975698 0.0019592887 
   86900    15.175997  -0.37951277            0  -0.33971966 0.0047535881 
   87000    14.964239    -0.379057            0  -0.33981914 0.0048925466 
   87100    14.856334  -0.37862871            0  -0.33967379 0.0025356904 
   87200     14.95204  -0.37890423            0  -0.33969836 -0.00058121609 
   87300    14.879267  -0.37873526            0  -0.33972021 0.0058833681 
   87400    15.028166  -0.37914352            0  -0.33973803 0.00057752689 
   87500    14.862326  -0.37872349            0  -0.33975286 0.0064701087 
   87600    14.940654  -0.37891323            0  -0.33973722 0.0051856317 
   87700     15.09114  -0.37928812            0  -0.33971751 0.0002438979 
   87800    14.991103  -0.37899517            0  -0.33968686 0.0023537407 
   87900    15.029145  -0.37906901            0  -0.33966096  0.001700766 
   88000     14.91451  -0.37881436            0  -0.33970689 0.0030374987 
   88100    15.019984  -0.37906774            0  -0.33968371 0.00087476945 
   88200    15.162597  -0.37946767            0  -0.33970969 0.0027959199 
   88300      15.1772  -0.37947645            0  -0.33968019 0.0042806546 
   88400    15.057147  -0.37916064            0  -0.33967917 0.0038263727 
   88500    14.893633  -0.37871691            0  -0.33966419 0.0033186209 
   88600    14.979981   -0.3789115            0  -0.33963236 -0.0008130118 
   88700    14.977378  -0.37886781            0  -0.33959549 0.0042617739 
   88800    15.116041  -0.37921528            0  -0.33957937  0.003851621 
   88900    15.187212  -0.37933001            0  -0.33950749  0.001255002 
   89000    15.063609  -0.37911322            0   -0.3396148 0.0041485392 
   89100    15.143358  -0.37928354            0  -0.33957601  0.002754474 
   89200    15.100367  -0.37924039            0  -0.33964559 0.0021069486 
   89300    14.894988  -0.37875794            0  -0.33970166 0.0045324291 
   89400    14.966283   -0.3789448            0  -0.33970158 0.0032284288 
   89500    14.926613  -0.37881382            0  -0.33967462 0.0065061751 
   89600    15.081328   -0.3792096            0  -0.33966472 0.0038778578 
   89700     15.02024  -0.37908948            0  -0.33970478 0.0058220433 
   89800    14.996281  -0.37896747            0  -0.33964559  0.005443989 
   89900     14.90012   -0.3787064            0  -0.33963666 0.0029195478 
   90000    14.737772   -0.3783248            0  -0.33968076 0.00091788221 
   90100    14.720662  -0.37831885            0  -0.33971967 0.0016143961 
   90200    14.868936  -0.37868322            0  -0.33969526 0.0022741245 
   90300    14.928887  -0.37880747            0  -0.33966231 0.0022380648 
   90400    14.878046  -0.37870697            0  -0.33969511 0.0020843339 
   90500    14.805874  -0.37855701            0   -0.3397344 0.0047912346 
   90600    14.934811  -0.37881708            0  -0.33965638 0.0041377516 
   90700      14.9832  -0.37893305            0  -0.33964547 0.0032342655 
   90800    15.026856  -0.37903641            0  -0.33963436   0.00187797 
   90900    15.049623  -0.37908593            0  -0.33962419 0.0024221153 
   91000    14.922422  -0.37883835            0  -0.33971013 0.0064527776 
   91100    15.034729  -0.37905961            0  -0.33963692 0.0040295314 
   91200    15.001984  -0.37897245            0  -0.33963562 0.0037912571 
   91300    14.986123  -0.37892668            0  -0.33963144 0.00082449363 
   91400    14.936555  -0.37877938            0  -0.33961411 0.0045700129 
   91500     15.07172  -0.37909688            0  -0.33957719 0.0013073355 
   91600    14.852961  -0.37858356            0  -0.33963748 0.0045823252 
   91700     14.85108  -0.37847465            0   -0.3395335 0.0022175913 
   91800    14.881779  -0.37855754            0  -0.33953589   0.00409479 
   91900    14.921221  -0.37863109            0  -0.33950603 0.0030811039 
   92000    15.005647  -0.37886728            0  -0.33952084 -0.0026642832 
   92100    14.914072  -0.37858828            0  -0.33948196 0.0046968026 
   92200    14.894133  -0.37848597            0  -0.33943193 0.0062459785 
   92300    14.759599  -0.37836677            0   -0.3396655 0.0085744454 
   92400    14.938191  -0.37869379            0  -0.33952423 0.0053131062 
   92500     15.03009  -0.37893585            0  -0.33952532 0.0035511697 
   92600    14.993081  -0.37889459            0   -0.3395811  0.001762559 
   92700    14.929009  -0.37878963            0  -0.33964415 0.0010444414 
   92800    14.852547  -0.37863339            0   -0.3396884  0.001469744 
   92900     14.86395  -0.37867183            0  -0.33969693 0.00047933477 
   93000    14.877527  -0.37868955            0  -0.33967905 0.0038532295 
   93100    14.950028  -0.37886758            0  -0.33966699  0.002737121 
   93200    15.015665  -0.37904025            0  -0.33966755 0.0021372475 
   93300    14.962775  -0.37890927            0  -0.33967525 0.0045315491 
   93400    14.989553  -0.37898991            0  -0.33968567 0.00050633939 
   93500     14.89124  -0.37877836            0   -0.3397319 0.0028218356 
   93600    14.947042  -0.37888717            0   -0.3396944 0.0045972551 
   93700    14.920754  -0.37887826            0  -0.33975442 0.0043679678 
   93800    14.831867  -0.37855682            0  -0.33966606 0.0046110613 
   93900    14.958742  -0.37888429            0  -0.33966084 0.0012466029 
   94000    15.004873  -0.37902878            0  -0.33968437 0.0011716211 
   94100    14.948762  -0.37890749            0  -0.33971021 0.0047880608 
   94200    14.844853  -0.37865328            0  -0.33972846  0.006087556 
   94300    14.816473  -0.37860767            0  -0.33975727 0.00061991143 
   94400    14.744132  -0.37841626            0  -0.33975554 0.0019052829 
   94500    14.940749  -0.37887343            0  -0.33969716 -0.00077263695 
   94600    14.962024  -0.37896036            0   -0.3397283 0.0021921671 
   94700    14.977537  -0.37910098            0  -0.33982825 0.0052522774 
   94800    15.286235  -0.37980769            0  -0.33972553 -0.00098256807 
   94900    15.081404  -0.37923892            0  -0.33969384 0.0084235727 
   95000    15.101513  -0.37932483            0  -0.33972702  0.002231254 
   95100    15.060732   -0.3791575            0  -0.33966662  0.002154463 
   95200     14.97339   -0.3789101            0  -0.33964824 0.0043159576 
   95300    15.021092  -0.37902403            0  -0.33963709 0.0018157834 
   95400     15.06275  -0.37919336            0  -0.33969719 0.0015184903 
   95500    14.892437  -0.37872593            0  -0.33967634  0.007281951 
   95600    15.016094  -0.37901388            0  -0.33964005 0.0012946959 
   95700    14.923445  -0.37880138            0  -0.33967049 0.0038617077 
   95800    14.872104   -0.3787159            0  -0.33971963 0.0059856526 
   95900    14.949632  -0.37889761            0  -0.33969805 0.0037719409 
   96000    15.016325  -0.37906022            0  -0.33968578 -0.00067222683 
   96100    14.961702  -0.37891412            0  -0.33968291 0.0035497033 
   96200    15.023488  -0.37912289            0  -0.33972967 0.0033940566 
   96300    14.966029  -0.37893575            0   -0.3396932 0.0041843504 
   96400    14.839937  -0.37864179            0  -0.33972987 0.0023166398 
   96500    14.898323  -0.37877251            0  -0.33970749 -0.001724737 
   96600    14.902875  -0.37878736            0   -0.3397104 0.0032921553 
   96700    14.902248  -0.37887197            0  -0.33979665 0.0048323918 
   96800    14.913524  -0.37880339            0  -0.33969851 0.0036610782 
   96900    14.748697  -0.37835989            0   -0.3396872 0.0056362729 
   97000    14.808487  -0.37865655            0  -0.33982709 0.0021943373 
   97100    14.875385  -0.37870754            0  -0.33970267 0.0027702569 
   97200     14.82516  -0.37855696            0  -0.33968378 0.0042137074 
   97300    14.897426  -0.37875171            0  -0.33968904 0.00026908472 
   97400    14.825878  -0.37856887            0  -0.33969381 0.0045296349 
   97500    14.952079  -0.37891548            0   -0.3397095 -0.00020751985 
   97600     14.89295  -0.37876345            0  -0.33971251 0.0025688077 
   97700    14.922876  -0.37882773            0  -0.33969833 0.0047953671 
   97800     14.87347  -0.37876038            0  -0.33976052 0.0055781571 
   97900    14.893133  -0.37868911            0   -0.3396377  0.003374259 
   98000    14.883413  -0.37863557            0  -0.33960965 0.0072115205 
   98100    14.971892  -0.37887048            0  -0.33961255 0.0007872741 
   98200    14.831169  -0.37852361            0  -0.33963468 0.00056126526 
   98300    14.966795  -0.37878292            0  -0.33953836 0.0024204881 
   98400    14.986609  -0.37882831            0  -0.33953179 0.0038226699 
   98500    14.976193  -0.37877704            0  -0.33950784 0.0031448759 
   98600    15.071921  -0.37894278            0  -0.33942256 0.0026709154 
   98700    15.220026  -0.37921137            0   -0.3393028 -0.00011981718 
   98800    15.066359  -0.37901354            0  -0.33950791 0.0037930583 
   98900    15.232347  -0.37922276            0  -0.33928189 0.0010708553 
   99000    15.280303  -0.37949455            0  -0.33942794 0.00079156677 
   99100    15.295999  -0.37973921            0  -0.33963144 0.0067682824 
   99200    15.253922  -0.37959378            0  -0.33959634 0.0097861021 
   99300    15.302491   -0.3796706            0   -0.3395458 0.0037807681 
   99400    15.153675  -0.37930048            0   -0.3395659 0.0034657289 
   99500    15.340227  -0.37985347            0  -0.33962973 0.00010052348 
   99600    15.390232  -0.37993819            0  -0.33958332 0.0037159323 
   99700    15.453267  -0.38009714            0  -0.33957699 0.0030283268 
   99800    15.472351  -0.38020609            0   -0.3396359 0.0024385613 
   99900    15.353399  -0.37986288            0  -0.33960459 0.0038890977 
  100000    15.106752  -0.37918852            0  -0.33957697 0.0054969373 
  100100    15.147176  -0.37937136            0  -0.33965381 -0.0010314507 
  100200    15.253465  -0.37956867            0  -0.33957243 -7.7722248e-05 
  100300     15.33291  -0.37980561            0  -0.33960105 0.0059016995 
  100400    15.566462  -0.38044135            0  -0.33962439 0.0040961227 
  100500    15.422652  -0.38001977            0   -0.3395799 0.0059595538 
  100600    15.404276  -0.38004014            0  -0.33964845  0.001984023 
  100700     15.48144  -0.38016692            0   -0.3395729 0.0039488031 
  100800    15.338907  -0.37985044            0  -0.33963016 0.0088216356 
  100900     15.45151  -0.38018484            0   -0.3396693 0.0013583698 
  101000    15.402031  -0.38004293            0  -0.33965713 0.0034141815 
  101100    15.360868  -0.37991385            0  -0.33963598 0.0020909865 
  101200    15.371433  -0.37999177            0   -0.3396862 0.0018228201 
  101300    15.326082  -0.37987323            0  -0.33968658 0.0053238526 
  101400    15.422119  -0.38009307            0  -0.33965459 0.0062131009 
  101500    15.687446  -0.38084435            0  -0.33971016 0.00038039265 
  101600    15.565641   -0.3805076            0   -0.3396928 0.0030027689 
  101700    15.603133  -0.38058412            0  -0.33967101 0.00094069098 
  101800     15.50093  -0.38032718            0  -0.33968205 0.0018056876 
  101900    15.425632  -0.38019051            0  -0.33974283 0.0034057416 
  102000    15.437008  -0.38014981            0   -0.3396723 0.0025982498 
  102100    15.553524  -0.38041684            0  -0.33963381  0.003488423 
  102200    15.527863  -0.38033787            0  -0.33962213 0.0075044773 
  102300    15.568491  -0.38038256            0  -0.33956028 0.0030338548 
  102400    15.427509  -0.38013339            0  -0.33968078 0.0046478383 
  102500    15.284555  -0.37960232            0  -0.33952455 0.0028893336 
  102600    15.194208  -0.37941453            0  -0.33957367 -0.0022226396 
  102700    15.137116  -0.37932526            0   -0.3396341 0.0024917117 
  102800    15.234832  -0.37961009            0  -0.33966271 0.0058560244 
  102900    15.377589  -0.38000254            0  -0.33968083 0.0029426691 
  103000    15.373004  -0.37999147            0  -0.33968178 0.0032000318 
  103100    15.412288  -0.38007715            0  -0.33966445 0.0042189271 
  103200    15.472476  -0.38019859            0  -0.33962807 0.00078506221 
  103300    15.378735   -0.3799155            0  -0.33959078 0.0021269764 
  103400    15.329041  -0.37995363            0  -0.33975922 0.0018494618 
  103500    15.390637  -0.38001765            0  -0.33966172 0.0047249857 
  103600    15.554923  -0.38032961            0  -0.33954291 0.0043199888 
  103700    15.484025  -0.38016452            0  -0.33956372 0.0058404275 
  103800    15.493013  -0.38013648            0  -0.33951211 0.0033243246 
  103900    15.664903  -0.38059316            0  -0.33951808 0.0032911691 
  104000    15.847453  -0.38108505            0  -0.33953131   0.00403079 
  104100    15.821795  -0.38118636            0  -0.33969989 0.0038978182 
  104200    15.642319  -0.38062971            0  -0.33961385 0.0076216943 
  104300    15.699068  -0.38081996            0  -0.33965529 -0.0013625953 
  104400    15.542011   -0.3804347            0  -0.33968186 -0.0019202054 
  104500    15.493423  -0.38033491            0  -0.33970947 0.0045913583 
  104600    15.620132  -0.38068342            0  -0.33972573  0.003615759 
  104700    15.617827  -0.38065847            0  -0.33970682 0.0042217062 
  104800      15.6766  -0.38079561            0  -0.33968986 0.00059064305 
  104900    15.576244   -0.3805397            0  -0.33969709 0.0028267402 
  105000     15.65448  -0.38074003            0  -0.33969228 0.0036472826 
  105100    15.746167  -0.38094129            0  -0.33965313 6.790387e-05 
  105200    15.551691  -0.38043096            0  -0.33965274 0.0039277142 
  105300    15.586478  -0.38052922            0  -0.33965978 0.0019177104 
  105400    15.571327  -0.38043002            0   -0.3396003 -0.00075385714 
  105500    15.629786  -0.38051152            0  -0.33952852 0.0033837649 
  105600    15.889977  -0.38113114            0   -0.3394659 0.0048636088 
  105700    15.710669  -0.38076533            0  -0.33957025 0.0098788894 
  105800    15.757105   -0.3808491            0  -0.33953225 0.0019908617 
  105900    15.681646   -0.3806593            0  -0.33954032 -0.0025819977 
  106000    15.522016   -0.3802724            0  -0.33957199 0.0013104194 
  106100    15.545093  -0.38035426            0  -0.33959333 0.00032799837 
  106200    15.532224  -0.38035323            0  -0.33962605 0.0048851273 
  106300      15.6729  -0.38075866            0  -0.33966261 0.0036248576 
  106400    15.666239  -0.38066891            0  -0.33959033 0.0074002995 
  106500    15.928503  -0.38133434            0  -0.33956807 0.0034427206 
  106600    15.951185  -0.38142315            0  -0.33959741 0.00089447385 
  106700    15.617321  -0.38053235            0  -0.33958204 0.0018497951 
  106800    15.497304  -0.38019774            0  -0.33956213 -0.00024210419 
  106900    15.408255  -0.37997759            0  -0.33957547 0.0057351093 
  107000    15.641004  -0.38062882            0   -0.3396164 0.0021502066 
  107100    15.694504  -0.38067354            0  -0.33952085 0.0039230316 
  107200    15.895141   -0.3811108            0  -0.33943202 0.0015770935 
  107300    15.909051  -0.38111602            0  -0.33940076 0.0036619131 
  107400    15.771927  -0.38083779            0  -0.33948208 0.0064624113 
  107500    15.970417  -0.38124167            0   -0.3393655 -0.00049743901 
  107600    15.952129  -0.38118792            0   -0.3393597 -0.00048905985 
  107700    15.843042  -0.38093319            0  -0.33939101 0.0053904275 
  107800    15.921835  -0.38118454            0  -0.33943576 0.0058809706 
  107900    15.987882  -0.38136184            0  -0.33943988 0.0030843497 
  108000    15.898304  -0.38114205            0  -0.33945497 0.0036365126 
  108100    15.676081  -0.38063037            0  -0.33952598 0.0039778842 
  108200     15.49599  -0.38014477            0   -0.3395126  0.003798012 
  108300    15.508959  -0.38025688            0   -0.3395907 0.00068457222 
  108400    15.708199  -0.38074239            0  -0.33955379 0.00048051596 
  108500     15.77814  -0.38093721            0   -0.3395652 0.0076264629 
  108600    16.006392  -0.38158242            0  -0.33961192 0.0017487583 
  108700    15.724343  -0.38079841            0  -0.33956747 0.0070913209 
  108800    15.636536  -0.38055973            0  -0.33955903 0.0021510904 
  108900    15.399782  -0.37992177            0  -0.33954187 0.0027043064 
  109000    15.372615  -0.37984062            0  -0.33953195 0.0025680084 
  109100    15.465918  -0.38011104            0  -0.33955772 0.0016032143 
  109200    15.447507  -0.38005162            0  -0.33954657 0.0036529641 
  109300    15.557328  -0.38031084            0  -0.33951783 0.0040853937 
  109400    15.550156  -0.38032791            0  -0.33955371 0.0057965374 
  109500    15.502041  -0.38023319            0  -0.33958515 0.0046001938 
  109600    15.577027  -0.38039912            0  -0.33955446 0.00017361786 
  109700    15.674966  -0.38063843            0  -0.33953696 0.0023135781 
  109800    15.739483  -0.38080953            0   -0.3395389  0.003881827 
  109900    15.647951      -0.3806            0  -0.33956937 0.0031997806 
  110000    15.623546  -0.38047355            0  -0.33950691 0.0026749473 
  110100    15.698933  -0.38067821            0   -0.3395139 0.0020138135 
  110200    15.775627  -0.38088458            0  -0.33951917 0.0028124672 
  110300    15.922436  -0.38124872            0  -0.33949836 0.0066711851 
  110400    15.985578  -0.38142284            0  -0.33950691 0.0037697799 
  110500     15.88828  -0.38110675            0  -0.33944596 -0.00062739031 
  110600    15.715962  -0.38059961            0  -0.33939065 0.0029118441 
  110700    15.666253   -0.3805046            0  -0.33942598 0.0043112959 
  110800    15.641508  -0.38042008            0  -0.33940635 0.0020361489 
  110900    15.748662  -0.38055768            0  -0.33926298 0.00054696806 
  111000    15.576438  -0.38010703            0  -0.33926392 0.0088980643 
  111100    15.847031  -0.38085863            0  -0.33930599 0.00050109937 
  111200    15.767163  -0.38059559            0  -0.33925237  0.003230727 
  111300    15.749465  -0.38060541            0   -0.3393086 0.0041596143 
  111400    15.719736  -0.38064867            0  -0.33942981  0.004045663 
  111500     15.60698  -0.38030661            0  -0.33938341 0.0031923838 
  111600    15.558305  -0.38021088            0  -0.33941531 0.0027606359 
  111700    15.707404   -0.3805843            0  -0.33939778 -0.00023962545 
  111800    15.618848  -0.38037401            0   -0.3394197 0.0056956157 
  111900    15.654685  -0.38042349            0  -0.33937521 0.0037694401 
  112000     15.64324  -0.38038776            0  -0.33936948 0.0005443524 
  112100    15.638959  -0.38033002            0  -0.33932297 0.0038957704 
  112200    15.816348   -0.3808326            0  -0.33936042 0.0038655106 
  112300    15.848577  -0.38085789            0   -0.3393012 0.0036647731 
  112400    15.781114  -0.38060798            0  -0.33922818 0.0038223323 
  112500    15.664259  -0.38035676            0  -0.33928337 0.0050075259 
  112600    15.658918  -0.38032412            0  -0.33926474  0.004847933 
  112700    15.979174  -0.38110457            0  -0.33920543 0.00074243344 
  112800    16.039286  -0.38127245            0   -0.3392157 0.0036980706 
  112900    16.012478  -0.38118408            0  -0.33919762 0.0072556249 
  113000    15.707636  -0.38056742            0  -0.33938029 0.0055065802 
  113100    15.770643  -0.38054862            0  -0.33919628 -0.0018846427 
  113200    15.724963  -0.38048296            0   -0.3392504 0.0037135548 
  113300    15.814523  -0.38075128            0  -0.33928388 0.0066014512 
  113400    16.001463  -0.38115893            0  -0.33920136 -0.0021730074 
  113500    15.919143  -0.38091316            0  -0.33917143 0.0023733741 
  113600    15.850898   -0.3807275            0  -0.33916472 0.0079232549 
  113700    15.910478  -0.38096912            0  -0.33925012 0.0023061481 
  113800    15.934144  -0.38084126            0   -0.3390602  0.002347144 
  113900    15.821214  -0.38074649            0  -0.33926155 0.0048440468 
  114000    15.964745  -0.38088267            0  -0.33902137 0.0033020922 
  114100    15.895301  -0.38087582            0  -0.33919662 0.0031129007 
  114200    15.952709   -0.3810604            0  -0.33923067 -0.0016365005 
  114300    15.960779   -0.3811353            0   -0.3392844  0.001277343 
  114400    16.081859  -0.38153258            0   -0.3393642  0.005307363 
  114500    16.112108  -0.38155803            0  -0.33931033 0.0039455962 
  114600    15.894758  -0.38098645            0  -0.33930867  0.006402943 
  114700    15.913821  -0.38105393            0  -0.33932616 -0.001189515 
  114800    15.837704  -0.38092797            0  -0.33939978 -0.00018103855 
  114900    15.898998  -0.38104856            0  -0.33935966 0.0019601878 
  115000     15.74717  -0.38063626            0  -0.33934546  0.008893158 
  115100    16.041611   -0.3814069            0  -0.33934405 -0.0010928007 
  115200    15.820015  -0.38085946            0  -0.33937766 0.0069529805 
  115300    15.993147  -0.38125783            0  -0.33932205 0.0034851277 
  115400    15.909728  -0.38102359            0  -0.33930656  0.005042936 
  115500    15.994646  -0.38126874            0  -0.33932903 0.00041786632 
  115600    15.950928   -0.3811576            0  -0.33933253  0.003843384 
  115700    15.932256    -0.381148            0  -0.33937189 0.0046233564 
  115800    16.243934  -0.38194866            0   -0.3393553 -0.00054041788 
  115900     16.00878  -0.38137671            0  -0.33939995  0.012831999 
  116000    16.272339  -0.38205198            0  -0.33938414 -0.00040671504 
  116100    16.138826  -0.38171006            0  -0.33939231  0.001816936 
  116200    16.141624  -0.38174753            0  -0.33942244 0.0053392146 
  116300    16.084611  -0.38164263            0  -0.33946703 0.0038278762 
  116400    16.044656  -0.38152516            0  -0.33945433 -0.00021999382 
  116500    15.996311  -0.38137438            0  -0.33943032 0.0012774067 
  116600    15.952895  -0.38122984            0  -0.33939962 0.0029986013 
  116700    16.062523  -0.38154469            0    -0.339427 0.0015554246 
  116800    16.026023  -0.38146816            0  -0.33944619 0.0065832986 
  116900    16.257278  -0.38208874            0  -0.33946038 0.0011736695 
  117000    16.059306  -0.38153412            0  -0.33942487 0.0081240367 
  117100    16.166671  -0.38173317            0   -0.3393424 0.00058302481 
  117200    16.069078  -0.38160623            0  -0.33947136 0.0025510171 
  117300    16.083482   -0.3815055            0  -0.33933286 0.0046066878 
  117400    15.974458  -0.38123858            0  -0.33935182 0.0084970078 
  117500    16.120262  -0.38157302            0  -0.33930394 0.0021761842 
  117600    16.028092  -0.38132688            0  -0.33929948 0.0029179056 
  117700    15.962619  -0.38110251            0  -0.33924679 0.0050584769 
  117800    15.942493  -0.38107631            0  -0.33927336 0.0021892584 
  117900    15.742434  -0.38063133            0  -0.33935295 0.0053963575 
  118000    15.892112  -0.38086058            0  -0.33918973 0.00096801627 
  118100    15.933933  -0.38109688            0  -0.33931638 0.0023498454 
  118200    16.067454  -0.38151061            0  -0.33937999 0.0038850017 
  118300    15.997513  -0.38139825            0  -0.33945103 0.0045657336 
  118400    15.763159   -0.3808284            0  -0.33949569 0.0040667058 
  118500    15.907225  -0.38119468            0  -0.33948421 -0.0030872343 
  118600    16.009325  -0.38153065            0  -0.33955246 -0.00054933266 
  118700     15.88076  -0.38115975            0  -0.33951867 0.0079723704 
  118800    16.150887  -0.38187796            0  -0.33952858 -0.0023441289 
  118900    16.068952  -0.38162529            0  -0.33949075 0.0060116662 
  119000    16.161488  -0.38185961            0  -0.33948243 0.0083596912 
  119100    16.427823  -0.38261049            0  -0.33953495 -0.00048543741 
  119200    16.401108  -0.38247451            0  -0.33946903  0.001927713 
  119300    16.299522  -0.38217626            0  -0.33943715 0.0055362224 
  119400    16.421926  -0.38247012            0  -0.33941004 -0.0014095595 
  119500    16.287393  -0.38214129            0  -0.33943397 0.0038059801 
  119600     16.27347  -0.38200131            0   -0.3393305 0.0065449824 
  119700    16.226684  -0.38189026            0  -0.33934213 0.0024791515 
  119800    16.080146  -0.38147851            0  -0.33931462 0.0028577886 
  119900    16.133658  -0.38168852            0  -0.33938432 0.0037053228 
  120000     16.21945  -0.38189817            0    -0.339369 0.0039738461 
  120100    16.154279  -0.38171898            0   -0.3393607 0.0046093442 
  120200    16.177066  -0.38181129            0  -0.33939326 0.00043645416 
  120300    16.350454  -0.38224135            0  -0.33936868 0.0019111055 
  120400    16.219792  -0.38192025            0  -0.33939019   0.01001418 
  120500    16.209152  -0.38191922            0  -0.33941706 0.00055279151 
  120600    16.042102  -0.38147553            0   -0.3394114 0.0019094258 
  120700    16.003579  -0.38134563            0  -0.33938251 0.0048322109 
  120800    16.272442  -0.38201909            0  -0.33935097 -0.0015566017 
  120900     16.31018  -0.38224688            0  -0.33947981 0.0027526243 
  121000    16.420596   -0.3823904            0  -0.33933381 0.0051614967 
  121100    16.263521  -0.38184658            0  -0.33920186 0.0082616544 
  121200    16.567391  -0.38270221            0  -0.33926071 -0.0022315106 
  121300     16.46161  -0.38229423            0   -0.3391301  0.011415344 
  121400    16.703185   -0.3828734            0  -0.33907583 0.0044550681 
  121500     16.63459  -0.38269305            0  -0.33907535 -0.0020699711 
  121600    16.495275  -0.38240903            0  -0.33915662 0.0008221272 
  121700    16.344635  -0.38214131            0   -0.3392839 0.0074722691 
  121800    16.438763  -0.38222468            0  -0.33912046 0.0023306617 
  121900     16.30351  -0.38187703            0  -0.33912745 0.0092991072 
  122000    16.587634  -0.38259959            0  -0.33910501 0.0031536198 
  122100    16.633526  -0.38274515            0  -0.33913024 0.00025372881 
  122200    16.493016  -0.38243323            0  -0.33918675 0.0053905903 
  122300    16.527832   -0.3824994            0  -0.33916163 0.0034509928 
  122400    16.484034  -0.38242536            0  -0.33920243 0.0007340704 
  122500    16.256045  -0.38178842            0   -0.3391633 0.0065360067 
  122600    16.186341  -0.38179417            0  -0.33935182 0.0040409005 
  122700    16.383913  -0.38214847            0  -0.33918807 -0.00084756662 
  122800     16.33355  -0.38199636            0  -0.33916801 0.0023714333 
  122900    16.353503  -0.38208227            0   -0.3392016  0.001408152 
  123000    16.500256  -0.38241989            0  -0.33915443 0.0065604139 
  123100    16.378481  -0.38210097            0  -0.33915481  0.010668218 
  123200    16.544505  -0.38241702            0  -0.33903553 -0.00089814394 
  123300    16.377356  -0.38212181            0   -0.3391786 0.0047704331 
  123400    16.518251  -0.38245885            0   -0.3391462 0.0042231938 
  123500    16.253118  -0.38187785            0  -0.33926041 0.0068705026 
  123600    16.342736  -0.38227341            0  -0.33942098 0.00057429644 
  123700    16.300797  -0.38208533            0  -0.33934286 0.0045011089 
  123800    16.237355  -0.38203938            0  -0.33946327  0.002874745 
  123900    16.266022  -0.38198325            0  -0.33933197 -0.0011410511 
  124000    16.361622  -0.38225377            0  -0.33935181 -0.00015890177 
  124100    16.262924  -0.38206494            0  -0.33942178 0.0073376009 
  124200    16.319843  -0.38216172            0  -0.33936931 0.0035802395 
  124300    16.365235  -0.38227254            0  -0.33936112  0.002203688 
  124400    16.491286  -0.38268845            0  -0.33944651 0.0020128546 
  124500    16.355594  -0.38233814            0    -0.339452 0.0064467543 
  124600    16.467758  -0.38262044            0  -0.33944019 0.0010836093 
  124700    16.412778  -0.38246607            0  -0.33942998 0.0043983547 
  124800    16.457624  -0.38251786            0  -0.33936418 0.0018954235 
  124900    16.390203   -0.3823676            0  -0.33939071 0.0028097413 
  125000    16.376991  -0.38226457            0  -0.33932232 0.0076151371 
  125100    16.544312  -0.38262605            0  -0.33924507 -0.0011317546 
  125200    16.198986  -0.38184576            0  -0.33937025 0.0058994083 
  125300    16.421692  -0.38226285            0  -0.33920339 0.0040989575 
  125400    16.344553  -0.38216766            0  -0.33931047 0.0079058956 
  125500    16.446476  -0.38242585            0   -0.3393014 0.0011045149 
  125600    16.330056  -0.38219051            0  -0.33937132 0.0036416771 
  125700    16.272202  -0.38205909            0   -0.3393916 0.0028508089 
  125800    16.184531  -0.38181059            0  -0.33937299 0.0015992367 
  125900    16.240324  -0.38195922            0  -0.33937533 0.0015274354 
  126000    16.147332  -0.38175291            0  -0.33941285 0.0069284452 
  126100    16.365037  -0.38225557            0  -0.33934467 0.00045148403 
  126200    16.321958  -0.38215338            0  -0.33935543 0.0014608232 
  126300    16.279867  -0.38195112            0  -0.33926354 0.0059121585 
  126400     16.55756  -0.38256651            0  -0.33915078 -0.0001480136 
  126500    16.472847  -0.38240988            0  -0.33921629  0.004644264 
  126600    16.514345  -0.38234143            0  -0.33903902 0.0065600791 
  126700    16.409486  -0.38213818            0  -0.33911072 0.0023818465 
  126800     16.40907  -0.38211653            0  -0.33909016 0.0042513643 
  126900    16.346404  -0.38201641            0  -0.33915436 0.0092276546 
  127000     16.40326  -0.38217434            0  -0.33916321 0.0028314688 
  127100    16.099729   -0.3813888            0  -0.33917356 0.0039420804 
  127200    16.166476  -0.38151896            0   -0.3391287 -0.0003351821 
  127300    16.151986  -0.38143075            0  -0.33907848 0.0039243585 
  127400    16.185809  -0.38160625            0   -0.3391653 0.0042730274 
  127500    16.150836  -0.38139215            0   -0.3390429  0.002384116 
  127600    16.079983  -0.38139065            0  -0.33922718 0.0015484792 
  127700    16.051998  -0.38123136            0  -0.33914128 0.0017436951 
  127800    16.169967  -0.38144735            0  -0.33904794 0.0013486033 
  127900    16.301027  -0.38178413            0  -0.33904107  0.007563719 
  128000    16.236056  -0.38180547            0  -0.33923277 0.0098544251 
  128100    16.399927  -0.38212792            0  -0.33912552 0.0016037715 
  128200    16.335436  -0.38201722            0  -0.33918393 0.0063533404 
  128300    16.418145  -0.38229498            0  -0.33924481 0.0043466213 
  128400    16.442008  -0.38231237            0  -0.33919964 -0.0013160384 
  128500    16.190692  -0.38161562            0  -0.33916186 0.0056833782 
  128600      16.3161  -0.38197018            0   -0.3391876 -9.2680022e-05 
  128700    16.288083  -0.38188795            0  -0.33917883 0.0007554993 
  128800    16.367741  -0.38198289            0   -0.3390649  0.003576611 
  128900    16.409287  -0.38221824            0   -0.3391913 0.0013851333 
  129000     16.42168  -0.38234973            0   -0.3392903 0.0027130368 
  129100    16.561855  -0.38246804            0  -0.33904105 0.0053890259 
  129200    16.610155   -0.3827082            0  -0.33915456 0.0042562384 
  129300    16.762931  -0.38298714            0  -0.33903291 0.0018605829 
  129400    16.654844  -0.38279906            0  -0.33912825 0.0040398621 
  129500    16.752385  -0.38300933            0  -0.33908276 0.0020709308 
  129600    16.716463  -0.38287425            0  -0.33904187 0.0063003484 
  129700    16.680115  -0.38278592            0  -0.33904884 0.0039405388 
  129800     16.76612  -0.38302716            0  -0.33906457 -0.0034105506 
  129900    16.426372  -0.38218323            0   -0.3391115 0.0081242331 
  130000    16.479234  -0.38234363            0  -0.33913328 0.0041918147 
  130100    16.455912  -0.38221627            0  -0.33906708 0.0010615019 
  130200    16.399625  -0.38200034            0  -0.33899874 -0.00060688401 
  130300    16.368035  -0.38190859            0  -0.33898983 0.0048936764 
  130400    16.597585  -0.38242959            0  -0.33890891  0.002641129 
  130500    16.441391  -0.38209631            0   -0.3389852 0.0062148262 
  130600     16.53756  -0.38225329            0  -0.33889001 0.00098613265 
  130700    16.473117  -0.38206261            0  -0.33886831 0.0041815836 
  130800    16.538347  -0.38219633            0  -0.33883099 0.0043788278 
  130900    16.421457  -0.38205234            0  -0.33899349 0.0049201247 
  131000    16.595222  -0.38242386            0  -0.33890938 -0.00069661704 
  131100    16.439561   -0.3820262            0  -0.33891989 0.0061979254 
  131200    16.665957  -0.38233582            0  -0.33863587 0.0026755552 
  131300    16.602939  -0.38222689            0  -0.33869218 0.0040304809 
  131400    16.707689  -0.38260462            0  -0.33879524 0.0024391649 
  131500    16.714217  -0.38264968            0  -0.33882318 0.0035020547 
  131600    16.805103  -0.38278041            0   -0.3387156 0.00024973298 
  131700    16.689735  -0.38258462            0  -0.33882231    0.0055238 
  131800    16.480964  -0.38219174            0  -0.33897686  0.009627716 
  131900    16.562305  -0.38245456            0   -0.3390264 0.0033364084 
  132000    16.574625  -0.38243687            0  -0.33897641 0.0031830462 
  132100    16.656259  -0.38279413            0  -0.33911961 0.0019926177 
  132200    16.709764  -0.38287926            0  -0.33906445  0.002230528 
  132300     16.78052  -0.38308054            0  -0.33908019 0.0040302661 
  132400    16.788603  -0.38300725            0  -0.33898571 0.0049749839 
  132500    16.681165  -0.38270388            0  -0.33896405 0.0014909931 
  132600      16.4688  -0.38214054            0  -0.33895756 0.0047890465 
  132700    16.626454  -0.38252704            0  -0.33893067 0.00067373791 
  132800    16.517406  -0.38217349            0  -0.33886305 0.0061795194 
  132900    16.409483  -0.38207802            0  -0.33905058 0.0064379105 
  133000    16.632424  -0.38262088            0  -0.33900886 0.00093107558 
  133100    16.477777  -0.38217418            0  -0.33896765 0.0052050176 
  133200    16.504646   -0.3822361            0  -0.33895912  -0.00102364 
  133300    16.411543  -0.38204489            0  -0.33901204 -0.0019684736 
  133400    16.498344  -0.38213403            0  -0.33887358 0.0011439463 
  133500    16.447585  -0.38201097            0  -0.33888361 0.0085594173 
  133600    16.469173  -0.38213147            0   -0.3389475 0.0057805814 
  133700    16.412071  -0.38185854            0  -0.33882431 0.0027271178 
  133800    16.258648  -0.38143018            0  -0.33879823 0.0024780425 
  133900    16.271859  -0.38146446            0  -0.33879787  0.003295637 
  134000    16.311605   -0.3817119            0   -0.3389411 0.0012531652 
  134100    16.169047  -0.38134447            0  -0.33894747  0.001699402 
  134200    16.047402  -0.38107395            0  -0.33899592 0.0023551507 
  134300    16.108464  -0.38130017            0  -0.33906203 0.0028544897 
  134400    16.336692  -0.38187076            0  -0.33903418 0.0010220839 
  134500    16.241464  -0.38156977            0  -0.33898288 0.0065081189 
  134600    16.395345  -0.38209421            0  -0.33910384 0.0022336198 
  134700    16.342187  -0.38180175            0  -0.33895076 0.0064808351 
  134800    16.365802  -0.38200463            0  -0.33909172 0.0023922783 
  134900    16.287226  -0.38168669            0  -0.33897981 0.00058251186 
  135000     16.21373  -0.38142095            0  -0.33890679 0.0032451698 
  135100    16.262301   -0.3816065            0  -0.33896498 0.0045157363 
  135200    16.376916  -0.38182897            0  -0.33888691 0.0024844534 
  135300    16.331978  -0.38173219            0  -0.33890797 0.0029390071 
  135400    16.332634  -0.38165882            0  -0.33883288 0.0042316464 
  135500    16.436358  -0.38195605            0  -0.33885813 -0.00041747983 
  135600    16.386143  -0.38185581            0  -0.33888956 0.0040492271 
  135700    16.490986  -0.38216372            0  -0.33892256 0.0060600378 
  135800    16.587558   -0.3823741            0  -0.33887971 -0.00014455488 
  135900    16.380605  -0.38180464            0  -0.33885291  0.003079734 
  136000    16.469588    -0.381966            0  -0.33878095 0.0012223043 
  136100    16.315084  -0.38170991            0  -0.33892999 0.0043109972 
  136200    16.541788  -0.38213826            0   -0.3387639  0.001984581 
  136300    16.469586  -0.38200556            0  -0.33882051 0.0056575202 
  136400    16.357305  -0.38178363            0    -0.338893 0.0031136502 
  136500    16.417424  -0.38196374            0  -0.33891547 0.0011245793 
  136600    16.411841  -0.38193992            0  -0.33890629  0.004319316 
  136700    16.528537  -0.38221504            0  -0.33887542 0.0042595428 
  136800     16.52356    -0.382284            0  -0.33895743 0.0013182607 
  136900    16.361229  -0.38178818            0  -0.33888726  0.005002411 
  137000    16.557977  -0.38221387            0  -0.33879706 0.0013069444 
  137100    16.500007  -0.38204878            0  -0.33878397 0.0089276685 
  137200    16.649252  -0.38243541            0  -0.33877926 0.0027769662 
  137300    16.511126  -0.38210137            0  -0.33880741 0.0032957836 
  137400    16.620711  -0.38229087            0  -0.33870956 0.0027937937 
  137500    16.489978  -0.38203615            0  -0.33879764 0.0058607533 
  137600    16.453029  -0.38192054            0  -0.33877891 0.0022064109 
  137700    16.416771  -0.38171667            0  -0.33867011 0.0026263922 
  137800    16.408488  -0.38166399            0  -0.33863914 0.0015589534 
  137900    16.351885  -0.38145437            0  -0.33857795 0.0040643557 
  138000    16.233452  -0.38123667            0  -0.33867079 0.0057003951 
  138100    16.390488   -0.3816169            0  -0.33863926 -3.4262027e-06 
  138200    16.357716  -0.38143171            0     -0.33854   0.00393337 
  138300    16.383856   -0.3812873            0  -0.33832704 0.0048591288 
  138400    16.347749  -0.38127387            0  -0.33840829 0.0058917357 
  138500    16.427419   -0.3813585            0  -0.33828402  0.008153429 
  138600    16.519687  -0.38147363            0  -0.33815721 0.0021879042 
  138700    16.537304  -0.38166087            0  -0.33829826 -0.0017095069 
  138800    16.408235  -0.38152544            0  -0.33850127 0.0047263321 
  138900    16.449213  -0.38157369            0  -0.33844206 0.0033456938 
  139000    16.226541  -0.38097949            0  -0.33843173 0.0034449854 
  139100    16.285305  -0.38122137            0  -0.33851953 0.00012959603 
  139200    16.110941  -0.38078244            0   -0.3385378 0.0053620004 
  139300    16.302971  -0.38126015            0  -0.33851198 -0.00020847914 
  139400      16.3416  -0.38131738            0  -0.33846793 0.0039340788 
  139500    16.325821  -0.38125128            0   -0.3384432 0.0065488645 
  139600    16.513257   -0.3815794            0  -0.33827984 0.00047733066 
  139700    16.355757  -0.38115617            0   -0.3382696 0.0039989887 
  139800    16.299553  -0.38111386            0  -0.33837466 0.0017665744 
  139900    16.126549  -0.38055988            0  -0.33827431 0.0048367022 
  140000    16.250759  -0.38100141            0  -0.33839015 -0.0017301643 
  140100    16.121574  -0.38078848            0  -0.33851596 0.0052150636 
  140200     16.17162  -0.38095012            0  -0.33854637 0.0058430875 
  140300    16.256812  -0.38107665            0  -0.33844952 0.0012546394 
  140400    16.293912  -0.38122672            0  -0.33850231 -0.0010513172 
  140500    16.320073  -0.38122241            0   -0.3384294 0.0033177113 
  140600    16.357545  -0.38142877            0  -0.33853751 0.0060115996 
  140700    16.535213  -0.38178729            0  -0.33843017 -0.00093045083 
  140800    16.431565   -0.3815762            0  -0.33849085  0.002673545 
  140900    16.444836  -0.38164625            0  -0.33852611 0.0066892578 
  141000    16.542713  -0.38178409            0   -0.3384073 0.0036965377 
  141100    16.467259  -0.38156732            0  -0.33838838 0.0078032081 
  141200    16.723801  -0.38211887            0  -0.33826725 -0.00078823626 
  141300    16.685751  -0.38221559            0  -0.33846374 0.0027658354 
  141400    16.876343   -0.3824708            0  -0.33821919 0.0048581927 
  141500    16.814645  -0.38222753            0   -0.3381377 0.0081197796 
  141600    16.922699   -0.3825292            0  -0.33815605 0.00040358252 
  141700    16.694485  -0.38185368            0  -0.33807892 0.0044713647 
  141800    16.955238  -0.38242564            0  -0.33796716 0.00018240866 
  141900    16.755054  -0.38215676            0  -0.33822319 0.0082800972 
  142000    16.996866     -0.38279            0  -0.33822237 0.0038561735 
  142100    17.109728  -0.38317547            0  -0.33831191 0.0017959916 
  142200    16.739969  -0.38229767            0  -0.33840365 0.0092717148 
  142300    16.894095  -0.38279398            0  -0.33849583 0.00027631647 
  142400    16.861173  -0.38272133            0   -0.3385095 0.0025308946 
  142500     16.73909  -0.38239689            0  -0.33850517 0.0052998978 
  142600    16.561224   -0.3818681            0  -0.33844277 0.0043430625 
  142700    16.777222   -0.3822466            0   -0.3382549 -0.0015424703 
  142800    16.731254  -0.38209381            0  -0.33822264 0.0068732949 
  142900    16.978436  -0.38281671            0   -0.3382974 0.0022520011 
  143000    17.118015  -0.38289479            0   -0.3380095 0.0016635961 
  143100    16.941151  -0.38254026            0  -0.33811872 0.0084221842 
  143200    17.134486  -0.38315952            0  -0.33823103 0.0016157444 
  143300    17.113949   -0.3833232            0  -0.33844856  0.004962866 
  143400    17.153517  -0.38352991            0  -0.33855153   0.00318164 
  143500     16.87239  -0.38296507            0  -0.33872383 0.0038457842 
  143600    16.825233  -0.38278828            0  -0.33867069 0.0040182776 
  143700       16.831  -0.38280316            0  -0.33867045  0.006697295 
  143800    16.818492  -0.38273746            0  -0.33863755 0.0052936854 
  143900    16.646908  -0.38216834            0  -0.33851834 0.0036708856 
  144000    16.585924  -0.38205079            0  -0.33856069 0.0051075779 
  144100    16.858822   -0.3826397            0  -0.33843404 0.0019473693 
  144200    17.063241  -0.38300216            0  -0.33826049 -0.00028469769 
  144300    17.018395  -0.38277065            0  -0.33814657 0.0035281209 
  144400    17.036161  -0.38288399            0  -0.33821332 0.0035650054 
  144500    16.957165  -0.38288045            0  -0.33841692 0.0029487336 
  144600    17.004801  -0.38284762            0  -0.33825918 0.0034459368 
  144700    17.131643  -0.38334333            0   -0.3384223  0.002413298 
  144800    17.068683  -0.38321116            0  -0.33845522 0.0060170796 
  144900    17.055441  -0.38316882            0  -0.33844759  -0.00014417 
  145000     16.78706  -0.38242008            0  -0.33840258 0.0054462202 
  145100    16.911255  -0.38282306            0  -0.33847991 0.0038712934 
  145200    16.919003  -0.38275051            0  -0.33838704 0.0030589635 
  145300    16.825097  -0.38232706            0  -0.33820983 0.0084034043 
  145400    17.098553  -0.38305757            0  -0.33822331 0.00065110746 
  145500    16.995943  -0.38272683            0  -0.33816162 0.0015244325 
  145600    16.851951  -0.38257413            0  -0.33838648 0.0049847747 
  145700    16.866856  -0.38244959            0  -0.33822286 0.0060106598 
  145800    17.114578  -0.38296344            0  -0.33808715 0.0014858699 
  145900    17.024107  -0.38284588            0  -0.33820682 0.0032379773 
  146000    16.866283  -0.38255615            0  -0.33833092 0.0010680828 
  146100     16.91823  -0.38272408            0  -0.33836263 -0.00015190519 
  146200    16.834679  -0.38247023            0  -0.33832787 0.0063951042 
  146300    16.970886  -0.38298653            0  -0.33848702  0.002608491 
  146400     16.98322  -0.38294893            0  -0.33841708 0.0019909603 
  146500    16.837585  -0.38254754            0  -0.33839756 0.0049430674 
  146600    16.914362  -0.38271035            0  -0.33835906 0.0010630684 
  146700    16.823898  -0.38247098            0  -0.33835689 0.0048012714 
  146800    16.789543  -0.38227151            0   -0.3382475 0.0013724044 
  146900     16.65262   -0.3819763            0  -0.33831132 0.0035588232 
  147000     16.70976  -0.38203744            0  -0.33822263 0.0042304991 
  147100    16.826649  -0.38237547            0  -0.33825417 0.00071985333 
  147200    16.809085  -0.38217329            0  -0.33809805  0.002442386 
  147300    16.691827   -0.3819573            0  -0.33818952 0.0038291647 
  147400    16.656667  -0.38193047            0  -0.33825488 0.0013221866 
  147500    16.649843  -0.38184093            0  -0.33818323  0.006682148 
  147600    16.865716  -0.38236732            0  -0.33814358 0.0041372823 
  147700     16.75133  -0.38214017            0  -0.33821636 0.0016618153 
  147800    16.720387  -0.38216854            0  -0.33832586 -0.00048164459 
  147900    16.677682   -0.3820303            0   -0.3382996 0.0072418371 
  148000    16.895752   -0.3825599            0   -0.3382574 0.0048269346 
  148100    16.928089  -0.38284977            0  -0.33846248 0.0012600693 
  148200    16.720886  -0.38207182            0  -0.33822784 0.0036563872 
  148300    16.823243   -0.3824095            0  -0.33829712 0.00089243812 
  148400    16.767041  -0.38231983            0  -0.33835483 0.0097488525 
  148500    16.919301  -0.38257533            0  -0.33821108 0.0063669801 
  148600    17.023084  -0.38273998            0   -0.3381036 0.00051974844 
  148700    16.931343  -0.38233876            0  -0.33794294 0.0063123648 
  148800    16.981611  -0.38262104            0  -0.33809341 0.0053649707 
  148900    16.966191   -0.3826671            0   -0.3381799 0.0031979891 
  149000    16.943896  -0.38261184            0  -0.33818311 0.0024385608 
  149100    16.805275  -0.38239311            0  -0.33832785 0.0062022703 
  149200    16.794742  -0.38244677            0  -0.33840913 0.0031270106 
  149300     16.69614  -0.38220069            0   -0.3384216 0.0039331327 
  149400    16.801461  -0.38245651            0  -0.33840125 0.00014950824 
  149500    16.744223  -0.38235371            0  -0.33844854 0.00027576928 
  149600    16.832874  -0.38263288            0  -0.33849525 -0.001288292 
  149700    16.915703  -0.38283338            0  -0.33847857 0.0042177908 
  149800    17.007723  -0.38304926            0  -0.33845316 0.0036314446 
  149900    16.912595  -0.38282666            0     -0.33848  0.001347385 
  150000     16.79163  -0.38238854            0  -0.33835906  0.003010605 
  150100    16.737005  -0.38229854            0  -0.33841229 0.0049811947 
  150200    16.903222  -0.38253156            0  -0.33820947  0.004203658 
  150300    17.200718  -0.38324848            0  -0.33814633 0.00080072105 
  150400    17.004052  -0.38286598            0  -0.33827951  0.010368152 
  150500    17.140065   -0.3832049            0  -0.33826178 0.0010173445 
  150600    17.108343  -0.38311096            0  -0.33825102 -0.0018611894 
  150700    16.927197  -0.38277023            0  -0.33838528 0.0022024519 
  150800    16.773972  -0.38241518            0    -0.338432 0.0026617884 
  150900    16.783529  -0.38258474            0   -0.3385765 -0.0024759943 
  151000    16.828758  -0.38265399            0  -0.33852716 0.0032344344 
  151100    17.033099  -0.38318957            0  -0.33852693 0.0020845618 
  151200    17.005364  -0.38321282            0  -0.33862291 0.0037047023 
  151300    17.092223  -0.38331571            0  -0.33849804 0.0038722465 
  151400    17.102468   -0.3833624            0  -0.33851787 0.0027483206 
  151500    16.876835  -0.38279887            0  -0.33854598 0.0076604955 
  151600    16.977081  -0.38300878            0  -0.33849303 0.0013278426 
  151700    16.917867  -0.38281558            0   -0.3384551 0.0030699707 
  151800    16.921389  -0.38274694            0  -0.33837722 0.0072404255 
  151900    17.021412  -0.38293053            0  -0.33829854 0.0059455075 
  152000    17.151133  -0.38326037            0  -0.33828823 0.0031206407 
  152100    17.217972  -0.38349649            0   -0.3383491 0.0051570237 
  152200    16.995476  -0.38301178            0   -0.3384478  0.006965898 
  152300    16.903424  -0.38273866            0  -0.33841604  0.002248601 
  152400      16.8911   -0.3826049            0  -0.33831459 0.0026174668 
  152500    16.891978  -0.38271222            0  -0.33841961 0.0033607624 
  152600     16.87733  -0.38261616            0  -0.33836197  0.003745006 
  152700    16.711211  -0.38229324            0  -0.33847463  0.005202582 
  152800     16.94462   -0.3827666            0  -0.33833596 -0.0019643221 
  152900    16.693419  -0.38233624            0  -0.33856428 0.0056358486 
  153000    16.827633  -0.38261971            0  -0.33849582 0.00058022136 
  153100    16.857554  -0.38275066            0  -0.33854832 0.0036065882 
  153200    16.807884  -0.38256375            0  -0.33849165  0.010557598 
  153300    17.069834  -0.38331474            0  -0.33855578 0.0019290935 
  153400    16.874132  -0.38268389            0  -0.33843808 0.0093853757 
  153500    17.062272   -0.3831798            0  -0.33844066 0.0011044633 
  153600    16.978051  -0.38294996            0  -0.33843167 0.00083418873 
  153700    16.836479   -0.3825106            0  -0.33836352 0.0013440963 
  153800    16.805023  -0.38239878            0  -0.33833418 0.0025459028 
  153900    16.892286  -0.38271912            0  -0.33842571 0.0028599207 
  154000    17.117106  -0.38305028            0  -0.33816736 0.0022412342 
  154100    17.113753  -0.38321079            0  -0.33833666 0.0062878727 
  154200    17.043821  -0.38297953            0  -0.33828877 0.0073563566 
  154300    16.867296  -0.38255413            0  -0.33832624 0.0016657277 
  154400    16.704768  -0.38211736            0  -0.33831564 -0.0017711676 
  154500    16.575248   -0.3817963            0   -0.3383342 0.0026726873 
  154600    16.661816  -0.38212443            0  -0.33843534 0.0037719737 
  154700    16.811882  -0.38227755            0  -0.33819497 0.0047971818 
  154800    16.855527  -0.38247064            0  -0.33827362  0.006648349 
  154900    16.970391   -0.3827079            0  -0.33820969 0.0046424582 
  155000     17.01016  -0.38268638            0  -0.33808389 0.0063590945 
  155100    17.074348  -0.38282755            0  -0.33805675 0.0027968201 
  155200    16.994158  -0.38251479            0  -0.33795426 0.0056240711 
  155300    17.136157  -0.38314082            0  -0.33820795 -0.0012651504 
  155400    17.172802  -0.38310662            0  -0.33807766 0.0066317164 
  155500    17.175874  -0.38317979            0  -0.33814278  0.011533257 
  155600     17.14117   -0.3831747            0  -0.33822868 0.0020725724 
  155700    17.101536  -0.38310202            0  -0.33825993 -0.0032613812 
  155800    16.945815  -0.38275299            0  -0.33831922 0.0053478754 
  155900    17.105549  -0.38313803            0  -0.33828542 0.0021597378 
  156000     16.97808  -0.38276714            0  -0.33824876 0.0035470217 
  156100     16.85096  -0.38256211            0  -0.33837706 0.0052926059 
  156200    16.926078  -0.38252057            0  -0.33813855 0.0011605399 
  156300    16.818893  -0.38222761            0  -0.33812664 0.0012506109 
  156400    16.810995  -0.38222928            0  -0.33814903 0.0011598408 
  156500    16.815562  -0.38229525            0  -0.33820301 0.00023342493 
  156600    16.800084  -0.38238557            0  -0.33833393 0.0030251338 
  156700    16.858516  -0.38247742            0  -0.33827256 0.0031516804 
  156800    16.865348  -0.38259542            0  -0.33837264 0.00075640933 
  156900    16.881554  -0.38275283            0  -0.33848756  0.002236927 
  157000    16.762958  -0.38239437            0  -0.33844007 0.0069620895 
  157100    16.920253  -0.38274944            0   -0.3383827 0.0029366484 
  157200    16.980121  -0.38296855            0  -0.33844482 0.0026668263 
  157300    17.111987  -0.38314015            0  -0.33827066 0.0075322419 
  157400    17.234318  -0.38325864            0  -0.33806839 0.0067805573 
  157500    17.050722  -0.38307178            0  -0.33836293 0.0078471098 
  157600    17.085541  -0.38292392            0  -0.33812377 0.0042967186 
  157700    16.992583   -0.3828627            0   -0.3383063 -0.0011608598 
  157800     17.00455  -0.38298885            0  -0.33840107 -0.00032590607 
  157900    16.922248  -0.38282141            0  -0.33844943 0.0092049886 
  158000    16.970413  -0.38306303            0  -0.33856476 0.0035492364 
  158100    16.814873  -0.38258822            0  -0.33849779  0.002809659 
  158200    16.831155  -0.38264948            0  -0.33851636 0.0033269813 
  158300    16.872665   -0.3827594            0  -0.33851743 0.0038957834 
  158400    16.908247  -0.38279694            0  -0.33846168 0.0027866488 
  158500     16.95688  -0.38296155            0  -0.33849877 0.0028493582 
  158600     16.80699  -0.38265425            0  -0.33858449 0.0045992461 
  158700     16.76397  -0.38240575            0  -0.33844879 0.0030911812 
  158800    16.788664  -0.38237471            0  -0.33835301  0.003567766 
  158900    16.770443  -0.38234865            0  -0.33837472 0.0039937307 
  159000    16.738433  -0.38228809            0   -0.3383981 0.0068051943 
  159100    16.875296   -0.3825164            0  -0.33826753  0.003094902 
  159200    16.730376  -0.38234332            0  -0.33847446 0.0029109047 
  159300    16.754722   -0.3825075            0   -0.3385748 0.00076445826 
  159400     16.80093  -0.38253985            0  -0.33848599 -0.00023604739 
  159500    16.879034  -0.38283329            0  -0.33857463 0.00022673114 
  159600    16.879542  -0.38288182            0  -0.33862183 0.0068157869 
  159700    17.074861  -0.38347018            0  -0.33869804  0.004442733 
  159800    16.949464  -0.38317539            0  -0.33873205 0.0080898207 
  159900    16.695281  -0.38248101            0  -0.33870417 0.0086576286 
  160000    16.792609  -0.38263323            0  -0.33860118 -0.0017950374 
  160100    16.857169  -0.38271593            0   -0.3385146 0.0016261316 
  160200    16.843503  -0.38256895            0  -0.33840346 0.0057484852 
  160300    16.844311  -0.38251883            0  -0.33835122 -0.00056302558 
  160400    16.886249  -0.38259167            0  -0.33831409 -0.0010401083 
  160500    16.866491  -0.38248869            0  -0.33826291 0.0069645213 
  160600    16.886899  -0.38282868            0  -0.33854939 0.0064983859 
  160700     17.00981  -0.38297562            0  -0.33837405   0.00167961 
  160800     16.93584  -0.38287062            0  -0.33846301 0.0012299221 
  160900    16.733331  -0.38232006            0  -0.33844345 0.0048455503 
  161000    16.891917  -0.38276421            0  -0.33847177 -0.00020326902 
  161100    17.086364  -0.38326097            0  -0.33845866 0.00075902658 
  161200     17.04745   -0.3832069            0  -0.33850663 0.0066049754 
  161300    17.107285  -0.38330643            0  -0.33844927 0.0034724745 
  161400     17.05818  -0.38312507            0  -0.33839666  0.005495515 
  161500    17.243089  -0.38368045            0   -0.3384672 0.0020543824 
  161600    17.290187  -0.38362202            0  -0.33828526 0.0018224881 
  161700    17.193764   -0.3833974            0  -0.33831348 0.0075787682 
  161800    17.313673  -0.38368691            0  -0.33828857 0.0086932436 
  161900     17.28854  -0.38370734            0  -0.33837491 0.0050317796 
  162000    17.380834  -0.38386117            0  -0.33828673 -0.00075333013 
  162100     17.22819  -0.38344319            0    -0.338269 0.0045942973 
  162200    17.299083  -0.38369889            0  -0.33833881 0.0052558327 
  162300    17.178626   -0.3833253            0  -0.33828108 0.0072664072 
  162400    17.152229  -0.38316946            0  -0.33819445  0.001555775 
  162500    17.157734   -0.3833829            0  -0.33839345 0.0020145837 
  162600    17.112717  -0.38338925            0  -0.33851784 0.0091772052 
  162700    17.213954  -0.38363225            0  -0.33849539 0.0062152359 
  162800    17.097695  -0.38322276            0  -0.33839075 0.00088356912 
  162900    17.067488  -0.38318868            0  -0.33843587 0.0023719731 
  163000    17.034252  -0.38317493            0  -0.33850927 0.0055416818 
  163100    17.073825   -0.3832404            0  -0.33847097 -0.00083203315 
  163200    17.072726  -0.38319685            0  -0.33843031 0.00091020218 
  163300      17.1681  -0.38347442            0   -0.3384578 0.0085932289 
  163400    17.274211  -0.38364534            0  -0.33835048 0.0051122088 
  163500    17.202644  -0.38350918            0  -0.33840197 -0.00021396054 
  163600    17.078282    -0.383233            0  -0.33845188 0.0024976962 
  163700    17.044673  -0.38309479            0  -0.33840181 0.0049723915 
  163800    17.215355  -0.38359176            0  -0.33845123 -0.0012889339 
  163900      17.1736  -0.38344195            0  -0.33841091 0.0039018601 
  164000    17.125881   -0.3833397            0  -0.33843378 0.0085122452 
  164100    17.274713  -0.38381569            0  -0.33851952 0.0017051181 
  164200    17.022645   -0.3831551            0  -0.33851987 0.0070866335 
  164300    16.972977  -0.38306156            0  -0.33855657 0.0048689452 
  164400    16.922388  -0.38292636            0  -0.33855402   0.00177657 
  164500     17.10198  -0.38347958            0  -0.33863633 -0.00084370538 
  164600    17.031732  -0.38317652            0  -0.33851746 0.0088069867 
  164700    17.143211  -0.38343621            0  -0.33848485 0.0046528321 
  164800    17.116213  -0.38339696            0  -0.33851638 0.0043879043 
  164900    17.270187   -0.3836844            0  -0.33840009 0.0033828603 
  165000    17.328327  -0.38383946            0   -0.3384027 0.0084076178 
  165100    17.384866  -0.38396506            0  -0.33838005 0.00073518373 
  165200    17.180399  -0.38344339            0  -0.33839452 0.0012800015 
  165300    17.044259  -0.38321151            0  -0.33851961 0.0055314545 
  165400    17.008399  -0.38318562            0  -0.33858775 0.0044524075 
  165500    17.044385  -0.38324696            0  -0.33855473 0.0026278302 
  165600    17.043955  -0.38330098            0  -0.33860988 0.0012345106 
  165700    17.063131  -0.38328839            0    -0.338547 0.0025667597 
  165800    17.145452  -0.38341862            0  -0.33846138 0.0060602549 
  165900    17.309685  -0.38394136            0  -0.33855349  0.001045085 
  166000    17.398266  -0.38409682            0  -0.33847668 0.0024328044 
  166100    17.525705  -0.38432386            0  -0.33836955 0.0055782785 
  166200     17.54095  -0.38455025            0  -0.33855598 0.0023672121 
  166300    17.465481  -0.38420313            0  -0.33840674 0.0018257718 
  166400    17.483465  -0.38423829            0  -0.33839474 0.0032266348 
  166500    17.395868  -0.38411397            0  -0.33850011  0.006025442 
  166600    17.642144  -0.38465569            0  -0.33839607 0.0012528677 
  166700    17.545491  -0.38441074            0  -0.33840456 0.0085267329 
  166800    17.513953   -0.3844328            0  -0.33850931  0.009039531 
  166900    17.479103  -0.38436542            0  -0.33853331 0.0030761304 
  167000    17.488396  -0.38441209            0  -0.33855562  0.002250297 
  167100    17.541806  -0.38442338            0  -0.33842686 0.0024993484 
  167200    17.501011  -0.38435857            0  -0.33846902 -0.00036158129 
  167300    17.303004  -0.38383468            0  -0.33846432 0.0049070103 
  167400    17.297635  -0.38376323            0  -0.33840695 0.0035744353 
  167500    17.360476  -0.38397913            0  -0.33845808 -5.769685e-05 
  167600    17.327062  -0.38388412            0  -0.33845067 0.0056953779 
  167700    17.229893   -0.3836406            0  -0.33846194 0.0077775125 
  167800    17.292093  -0.38380781            0  -0.33846606 -0.0035370624 
  167900    17.222769  -0.38352966            0  -0.33836968 0.0014743952 
  168000    17.182312  -0.38347572            0  -0.33842183 0.0060760203 
  168100    17.241758  -0.38352622            0  -0.33831646 0.0035772099 
  168200    17.259441   -0.3836737            0  -0.33841757 0.0034918847 
  168300    17.131971   -0.3834184            0  -0.33849651 0.0080565191 
  168400    17.199574  -0.38353006            0  -0.33843091 0.00080553458 
  168500    17.232913  -0.38361331            0  -0.33842674 -0.00015043356 
  168600    17.293938   -0.3837469            0  -0.33840031 0.0038081467 
  168700     17.19775  -0.38356184            0  -0.33846746 0.0043391224 
  168800    17.174269  -0.38349707            0  -0.33846426 0.00023169756 
  168900    16.982429  -0.38286942            0  -0.33833964 0.0031484205 
  169000    16.994443  -0.38299689            0  -0.33843561 -0.0015075815 
  169100    17.132565  -0.38332788            0  -0.33840443  0.003746737 
  169200    17.385559  -0.38399697            0  -0.33841014 0.0055676667 
  169300    17.423062  -0.38417914            0  -0.33849398 0.0047939851 
  169400    17.280131  -0.38383311            0  -0.33852272 0.0054432154 
  169500    17.264923  -0.38377436            0  -0.33850385 0.00052992656 
  169600    17.229237  -0.38365994            0  -0.33848301 0.0023289072 
  169700    17.336983  -0.38390856            0   -0.3384491 0.0050791786 
  169800    17.452879  -0.38409129            0  -0.33832794 0.0050637607 
  169900    17.644312   -0.3844274            0  -0.33816209 0.0045225433 
  170000    17.563673  -0.38439994            0  -0.33834608 0.0082466493 
  170100    17.647705  -0.38441875            0  -0.33814455 0.0010925086 
  170200    17.504027  -0.38418272            0  -0.33828526 0.0017594668 
  170300    17.422327  -0.38413675            0  -0.33845351  0.006522118 
  170400    17.552744  -0.38450285            0  -0.33847764 -0.0007378004 
  170500    17.521308  -0.38436647            0  -0.33842369  0.002309089 
  170600    17.751814  -0.38502093            0  -0.33847374 0.0034015156 
  170700    17.824618  -0.38516612            0  -0.33842803 0.0047001554 
  170800    17.644131  -0.38486223            0   -0.3385974 0.0083848684 
  170900    17.885166  -0.38528878            0  -0.33839193 -5.5008537e-05 
  171000    17.845812  -0.38513374            0  -0.33834009 0.0046995563 
  171100    17.850401  -0.38530835            0  -0.33850265 0.0072237484 
  171200     17.88796  -0.38515871            0  -0.33825453  0.003691487 
  171300    17.822524  -0.38505667            0  -0.33832408 0.0022452038 
  171400    17.784366   -0.3850388            0  -0.33840626 0.0058435517 
  171500    17.729331  -0.38489176            0  -0.33840352 0.0041444694 
  171600    17.872742  -0.38527966            0  -0.33841539 -0.002472258 
  171700    17.796236  -0.38505891            0  -0.33839525 0.0038949021 
  171800    17.830814  -0.38508195            0  -0.33832762 0.0024725257 
  171900    17.965019  -0.38542887            0  -0.33832264 0.0018824773 
  172000    17.844107  -0.38509421            0  -0.33830502 0.0050793232 
  172100    17.823716  -0.38502706            0  -0.33829134 0.00070280219 
  172200    17.691902  -0.38467736            0  -0.33828727 0.0039229339 
  172300    17.644139  -0.38464038            0  -0.33837553 0.0095685912 
  172400    17.648808  -0.38464749            0   -0.3383704 0.0046703407 
  172500    17.744456  -0.38493057            0  -0.33840268 -0.0029247528 
  172600    17.456338  -0.38425175            0  -0.33847934 0.0089798314 
  172700    17.968737  -0.38555656            0  -0.33844058 -0.0005215322 
  172800    17.771601  -0.38507123            0  -0.33847216 0.0064158039 
  172900    17.745559  -0.38508738            0   -0.3385566 0.0046246215 
  173000    17.690414  -0.38494308            0  -0.33855689 -0.00033699647 
  173100    17.665293  -0.38481344            0  -0.33849312 -0.00057886471 
  173200     17.41807  -0.38419242            0  -0.33852034 0.0078234371 
  173300    17.615197    -0.384657            0  -0.33846804 -0.0033367192 
  173400    17.552294  -0.38443544            0  -0.33841142 -0.000572754 
  173500    17.630969  -0.38455701            0  -0.33832669 0.0044631101 
  173600    17.653506  -0.38452574            0  -0.33823633 0.0069961763 
  173700    17.696599  -0.38460967            0  -0.33820726 0.0044590225 
  173800    17.678663  -0.38464516            0  -0.33828978 0.0046539893 
  173900    17.714176  -0.38468397            0  -0.33823548 0.0079019062 
  174000    17.759983  -0.38485081            0  -0.33828221 0.0074191923 
  174100    17.913174  -0.38513538            0  -0.33816509 0.0027164856 
  174200     17.78941  -0.38487972            0  -0.33823395 0.0018032254 
  174300    17.672246  -0.38447361            0  -0.33813506 0.0022993354 
  174400    17.825834  -0.38501893            0  -0.33827766 0.0029355951 
  174500     17.76226  -0.38480072            0  -0.33822614 0.0070118824 
  174600    17.800143  -0.38485795            0  -0.33818403 0.0028887964 
  174700     17.95272  -0.38526804            0  -0.33819405 -0.0019502341 
  174800    18.035674  -0.38546117            0  -0.33816967 0.0036337546 
  174900    18.054626  -0.38530059            0  -0.33795939  0.011079899 
  175000    18.106644  -0.38554513            0  -0.33806754  0.005776368 
  175100     18.04964  -0.38527345            0  -0.33794533 0.0019401379 
  175200    18.039378  -0.38524225            0  -0.33794104 0.0034306269 
  175300    18.003123  -0.38518081            0  -0.33797466 0.0068530115 
  175400    17.998529   -0.3852639            0   -0.3380698 0.0052982169 
  175500    18.039776  -0.38533777            0  -0.33803551 -5.7468391e-05 
  175600    17.899855  -0.38490836            0  -0.33797299 0.0068246394 
  175700    18.253044  -0.38577643            0  -0.33791496 0.0018144262 
  175800    18.307673   -0.3859627            0  -0.33795799 0.0026590003 
  175900    18.077843   -0.3852345            0  -0.33783243  0.008065479 
  176000    18.022307  -0.38513098            0  -0.33787454 0.0028203962 
  176100       17.887   -0.3849176            0  -0.33801594 -0.0009093156 
  176200     17.88232  -0.38479089            0   -0.3379015 0.0036039854 
  176300    17.824479  -0.38474897            0  -0.33801125 0.0062982493 
  176400    17.812466  -0.38469645            0  -0.33799023 0.0028660149 
  176500    17.878067  -0.38491314            0   -0.3380349 -0.0028180589 
  176600    17.762981  -0.38479974            0  -0.33822327 0.0047991583 
  176700    17.799047  -0.38496602            0  -0.33829498  0.006558549 
  176800    17.947206  -0.38529712            0   -0.3382376 0.0042240723 
  176900    17.907413  -0.38528428            0  -0.33832909  0.007521505 
  177000    17.977622  -0.38541489            0  -0.33827561  0.002518477 
  177100    17.893642  -0.38521263            0  -0.33829356 0.00058889575 
  177200    17.812833  -0.38490174            0  -0.33819455 0.00055762016 
  177300    17.789435  -0.38488786            0  -0.33824202 -0.0015066443 
  177400    17.794102   -0.3847638            0  -0.33810573 0.0012368409 
  177500    17.572904  -0.38415976            0  -0.33808169 0.0086683559 
  177600     17.71026  -0.38487955            0  -0.33844132 0.0027777128 
  177700    17.882159  -0.38516217            0  -0.33827321 0.0023988624 
  177800    17.881027  -0.38517392            0  -0.33828793 0.0029488628 
  177900     17.79338  -0.38499165            0  -0.33833547 0.0034116947 
  178000    17.815576  -0.38509917            0  -0.33838479 0.0040789594 
  178100    17.696563  -0.38479929            0  -0.33839698 0.0067372598 
  178200    17.705705  -0.38469108            0   -0.3382648 0.0012844684 
  178300    17.651184  -0.38454933            0    -0.338266 0.0029111473 
  178400    17.627998  -0.38454075            0  -0.33831822 0.0043355985 
  178500    17.688175  -0.38460076            0  -0.33822045 0.0028263052 
  178600     17.60489   -0.3844009            0  -0.33823896 0.0065619885 
  178700    17.760493  -0.38486604            0   -0.3382961 0.0025541846 
  178800    17.701733  -0.38468045            0  -0.33826458 0.0021015995 
  178900    17.765009  -0.38477282            0  -0.33819104 -0.001086678 
  179000    17.731174  -0.38456777            0  -0.33807471 0.0053241803 
  179100    17.758718  -0.38486223            0  -0.33829694 0.0090574208 
  179200      17.7943  -0.38488159            0    -0.338223 0.0054276511 
  179300    17.510949  -0.38410014            0  -0.33818453  0.006449675 
  179400    17.674126  -0.38462397            0  -0.33828049 -0.0019933671 
  179500     17.51056  -0.38424671            0  -0.33833212 0.0036556614 
  179600    17.571475  -0.38436825            0  -0.33829393 0.0036014712 
  179700    17.656879  -0.38448993            0  -0.33819167 0.0021143121 
  179800    17.664523  -0.38451941            0  -0.33820111  0.004076073 
  179900    17.868977  -0.38485574            0  -0.33800134 0.0033965975 
  180000    17.756962  -0.38469706            0  -0.33813638 0.0071309181 
  180100    17.856372  -0.38477801            0  -0.33795665 0.0032335785 
  180200    17.699499  -0.38462309            0  -0.33821308 0.0025606479 
  180300    17.793532  -0.38473286            0  -0.33807629 0.0010691198 
  180400    17.556834  -0.38434097            0  -0.33830504 0.0093963469 
  180500    17.616473   -0.3844034            0  -0.33821109 0.0065201279 
  180600    17.685738  -0.38464806            0  -0.33827413 0.00061446452 
  180700    17.636454  -0.38458636            0  -0.33834166 0.0030906474 
  180800    17.589389  -0.38452187            0  -0.33840058 0.0060775185 
  180900    17.602147  -0.38443648            0  -0.33828174 0.0021136491 
  181000    17.554225  -0.38432893            0  -0.33829984 0.0004223739 
  181100    17.536384  -0.38425379            0  -0.33827148 0.0039064191 
  181200    17.694016  -0.38463115            0  -0.33823551 0.0039563819 
  181300    17.795236  -0.38481142            0  -0.33815037 0.0037832324 
  181400     17.79998  -0.38489623            0  -0.33822274 0.00073094733 
  181500    17.598729  -0.38446786            0  -0.33832208 0.0061842644 
  181600    17.855332  -0.38510709            0  -0.33828847 0.0038521507 
  181700    17.823628  -0.38509229            0   -0.3383568 0.0055746418 
  181800    17.842359  -0.38514215            0  -0.33835754 0.0051299083 
  181900    17.675955  -0.38472139            0  -0.33837311 0.0063413347 
  182000     17.58697  -0.38457584            0   -0.3384609 0.0034583147 
  182100    17.544774  -0.38440929            0  -0.33840498 0.0043768297 
  182200    17.709188  -0.38481336            0  -0.33837794 0.00040669954 
  182300    17.667938   -0.3846252            0  -0.33829794 0.0017394976 
  182400    17.554739  -0.38433756            0  -0.33830713 0.0053771638 
  182500    17.622713   -0.3844948            0  -0.33828613 0.0034858353 
  182600    17.565277  -0.38438378            0  -0.33832571 0.0047930688 
  182700    17.658478  -0.38445484            0  -0.33815239 0.0011197223 
  182800    17.633547  -0.38446703            0  -0.33822995 0.00078492505 
  182900    17.424136  -0.38385625            0  -0.33816827 0.0094256674 
  183000    17.335218  -0.38371697            0  -0.33826214 0.0058232209 
  183100    17.408369  -0.38377151            0  -0.33812488 -0.00032200849 
  183200    17.489405  -0.38398768            0  -0.33812856 0.0018684744 
  183300    17.542484  -0.38419333            0  -0.33819503 0.0045238927 
  183400    17.633098   -0.3843332            0   -0.3380973  0.004017339 
  183500    17.635176  -0.38456248            0  -0.33832113 0.0035862449 
  183600    17.493362  -0.38411703            0  -0.33824753 0.0038056081 
  183700    17.440232  -0.38406324            0  -0.33833306 -1.1058644e-05 
  183800    17.436659  -0.38408749            0  -0.33836668 0.0071933867 
  183900    17.622285  -0.38474694            0   -0.3385394 0.0025725619 
  184000    17.707178  -0.38486596            0  -0.33843581 0.00045293692 
  184100    17.703235  -0.38475553            0  -0.33833573 0.0052195144 
  184200    17.669535  -0.38470815            0   -0.3383767 0.0066450801 
  184300    17.714032  -0.38482755            0  -0.33837943 0.0022874598 
  184400    17.734617  -0.38487948            0  -0.33837739 0.0032334607 
  184500     17.68754  -0.38469627            0  -0.33831762 0.0068663688 
  184600    17.706609   -0.3848142            0  -0.33838555  0.003822759 
  184700    17.611049    -0.384605            0  -0.33842692  0.005974546 
  184800     17.81669  -0.38504635            0  -0.33832905 0.0019836794 
  184900     17.86347  -0.38526822            0  -0.33842825   0.00180617 
  185000    17.852309  -0.38515294            0  -0.33834225 0.0032260447 
  185100    17.981731   -0.3855262            0  -0.33837615 0.0010695335 
  185200    17.784444  -0.38513166            0  -0.33849891 0.0071952758 
  185300    17.946282  -0.38547182            0  -0.33841472 0.00074661265 
  185400    17.954558  -0.38538958            0  -0.33831078 0.0058473908 
  185500    18.015098  -0.38549553            0  -0.33825798 0.0062781617 
  185600    17.754324  -0.38501179            0  -0.33845802 0.0092313158 
  185700    17.847035  -0.38520891            0  -0.33841205 0.0028577985 
  185800    17.762803  -0.38494462            0  -0.33836862 0.00070726226 
  185900    17.770623  -0.38505142            0  -0.33845492 0.0020706781 
  186000    17.738369  -0.38497396            0  -0.33846203 0.0062480965 
  186100    17.768566  -0.38496326            0  -0.33837214 0.0026732867 
  186200    17.675816  -0.38474502            0   -0.3383971 0.00076802743 
  186300    17.491331  -0.38417396            0  -0.33830979 0.0028772693 
  186400    17.521571  -0.38420131            0  -0.33825785 0.0014458567 
  186500     17.47722  -0.38413146            0  -0.33830429 0.0022106982 
  186600    17.634475  -0.38449776            0  -0.33825824 0.0011219233 
  186700    17.694267  -0.38471554            0  -0.33831925 0.0050395529 
  186800    17.770695  -0.38498022            0  -0.33838352  0.002571537 
  186900     17.52933  -0.38432271            0   -0.3383589 0.0028494063 
  187000    17.391855  -0.38398636            0  -0.33838303 -0.00041200979 
  187100    17.472742  -0.38429104            0  -0.33847562 0.00095565873 
  187200    17.683346  -0.38465365            0  -0.33828599 0.0043140043 
  187300    17.637879  -0.38457218            0  -0.33832374 0.0062922179 
  187400    17.873514  -0.38505045            0  -0.33818415 0.0014637571 
  187500     17.84661  -0.38485448            0  -0.33805873 0.0070131318 
  187600    17.876969  -0.38502851            0  -0.33815315 0.0040658989 
  187700     17.67371   -0.3843782            0  -0.33803581 0.0065693558 
  187800    17.832669  -0.38473475            0  -0.33797555 -0.0025449566 
  187900    17.733084  -0.38471693            0  -0.33821885 0.00086872823 
  188000    17.608735  -0.38435882            0   -0.3381868  0.011733254 
  188100    17.738257  -0.38482205            0  -0.33831041 0.0062091377 
  188200    17.787476  -0.38499709            0  -0.33835639 -0.0029520904 
  188300    17.832974  -0.38501152            0  -0.33825153 -0.0010731632 
  188400    17.772499  -0.38493786            0  -0.33833643 0.0090753331 
  188500    17.846002  -0.38504274            0  -0.33824859  0.008009788 
  188600     17.81353  -0.38497257            0  -0.33826356 0.0055682019 
  188700    17.615155  -0.38448218            0  -0.33829333 0.0075614151 
  188800    17.572778  -0.38432139            0  -0.33824365 0.00086918038 
  188900    17.778552  -0.38484041            0  -0.33822311 0.00095543259 
  189000    17.902088  -0.38510235            0  -0.33816113 0.0097851535 
  189100    17.878706  -0.38525352            0  -0.33837361 0.0070211591 
  189200    17.991689  -0.38533091            0  -0.33815474  -0.00106969 
  189300    17.633215   -0.3844775            0   -0.3382413 0.0068489591 
  189400    17.808229  -0.38496209            0  -0.33826698 0.00013227269 
  189500    17.719505  -0.38464701            0  -0.33818454 0.0085335751 
  189600     17.95711  -0.38519207            0  -0.33810658 0.0065489314 
  189700    17.797977  -0.38485835            0  -0.33819012 0.0035619886 
  189800    17.641976  -0.38461633            0  -0.33835715 0.0022535818 
  189900    17.672406  -0.38460356            0  -0.33826459 -0.00045333524 
  190000    17.557287  -0.38438944            0  -0.33835233  0.002964284 
  190100    17.573864   -0.3844235            0  -0.33834292 0.0020403196 
  190200    17.692998  -0.38479913            0  -0.33840617 0.00024956444 
  190300    17.823833  -0.38501579            0  -0.33827976 0.0051802002 
  190400    17.801669  -0.38503458            0  -0.33835666 0.0089295155 
  190500    17.833672  -0.38506869            0  -0.33830687 0.0033888158 
  190600     17.67767  -0.38450933            0  -0.33815656 0.0039456688 
  190700    17.897109  -0.38504724            0  -0.33811907 0.00025224447 
  190800    17.862293   -0.3851724            0  -0.33833552 0.0061916866 
  190900    17.909033  -0.38514646            0  -0.33818703 0.0068537072 
  191000    17.889304  -0.38512722            0  -0.33821952 -0.0016711511 
  191100     17.61102  -0.38442078            0  -0.33824277 0.0045146581 
  191200    17.848623  -0.38513742            0  -0.33833639 0.0011385419 
  191300     17.95282  -0.38537099            0  -0.33829675 0.0034511364 
  191400    18.025042  -0.38552393            0  -0.33826031 0.0057761754 
  191500    18.036137  -0.38554598            0  -0.33825326 0.0068513842 
  191600     18.05475  -0.38552115            0  -0.33817963  0.006256852 
  191700    17.859833  -0.38496895            0  -0.33813852 0.0064070142 
  191800    17.681348  -0.38466784            0  -0.33830543 0.0054870788 
  191900    17.830486  -0.38486639            0  -0.33811291 0.00084770173 
  192000    17.537019  -0.38418667            0   -0.3382027 0.0091736944 
  192100    17.574228  -0.38434305            0  -0.33826151 0.0065141529 
  192200      17.4996  -0.38417971            0  -0.33829385 -0.00075535777 
  192300    17.486617  -0.38426751            0   -0.3384157 -0.00031693472 
  192400    17.607003    -0.384556            0  -0.33838853 0.0063780091 
  192500    18.063339  -0.38574567            0  -0.33838163 -7.1434045e-05 
  192600    17.886665  -0.38521464            0  -0.33831386 0.0095042474 
  192700    17.805951  -0.38494912            0  -0.33825998 0.0054550464 
  192800     17.44012  -0.38390506            0  -0.33817517 0.0058943518 
  192900      17.5916  -0.38433974            0  -0.33821266 0.00031785271 
  193000     17.56479  -0.38416911            0  -0.33811232 0.0037056467 
  193100    17.698079  -0.38455787            0  -0.33815158 0.0018056938 
  193200    17.568464  -0.38441573            0   -0.3383493  0.006480138 
  193300    17.563732  -0.38440713            0  -0.33835311 0.0036476819 
  193400    17.503108  -0.38416176            0  -0.33826671 0.0056077128 
  193500    17.705108  -0.38476048            0  -0.33833576 0.0061607852 
  193600    17.939731  -0.38538667            0  -0.33834674 0.0073366797 
  193700    18.061338  -0.38569204            0  -0.33833325 0.0045995607 
  193800    17.863144  -0.38502157            0  -0.33818246 0.0044528516 
  193900    17.690267   -0.3846211            0  -0.33823529 0.0063226809 
  194000    17.788377  -0.38484481            0  -0.33820175 0.00078506495 
  194100    17.927892  -0.38523221            0  -0.33822333 -0.00038065366 
  194200    18.112311  -0.38562082            0  -0.33812837 8.6848877e-06 
  194300     18.00726  -0.38533285            0  -0.33811585 0.0078320859 
  194400    17.927789   -0.3851821            0  -0.33817349 0.0065937906 
  194500    18.001294  -0.38528582            0  -0.33808447 0.0015663233 
  194600    18.191448  -0.38575854            0  -0.33805858 -0.00026763454 
  194700    18.164628  -0.38592919            0  -0.33829956 0.0069587412 
  194800    18.173231  -0.38578018            0  -0.33812799 0.0070625653 
  194900    17.990348  -0.38522018            0  -0.33804753 0.0036523449 
  195000    18.065901  -0.38554904            0  -0.33817828 -0.0025543749 
  195100    17.843055  -0.38490567            0  -0.33811924 0.0049381203 
  195200    17.802524  -0.38484127            0  -0.33816111 0.0042646827 
  195300    17.865042  -0.38502589            0   -0.3381818 -0.00039387209 
  195400    17.789719  -0.38482635            0  -0.33817977  0.004646449 
  195500    17.738407  -0.38464575            0  -0.33813372 0.0069210362 
  195600    17.921558  -0.38509443            0  -0.33810216 0.00015652263 
  195700    17.970204  -0.38509631            0  -0.33797648 0.0025337951 
  195800    17.883605  -0.38485423            0  -0.33796147 0.0085700422 
  195900    17.897231  -0.38493799            0   -0.3380095 0.0063738852 
  196000    17.776249   -0.3845969            0  -0.33798564 0.0059335773 
  196100    17.922066  -0.38495919            0  -0.33796559 -0.0031395822 
  196200    17.761896  -0.38465257            0  -0.33807895 0.0021582168 
  196300    17.531227   -0.3841576            0  -0.33818882  0.011261164 
  196400    17.759537  -0.38468968            0  -0.33812225 0.0043708717 
  196500    17.900021   -0.3850416            0   -0.3381058 -0.00058806088 
  196600    17.898583  -0.38493975            0  -0.33800772 0.0018318257 
  196700    17.859939  -0.38488896            0  -0.33805825 0.0036292657 
  196800    18.101307  -0.38528167            0  -0.33781808 -0.00037571431 
  196900    18.028539  -0.38523836            0  -0.33796557 0.0042660603 
  197000    18.240218  -0.38554263            0  -0.33771479 0.0035014305 
  197100    18.489746  -0.38619057            0  -0.33770844 0.0002462111 
  197200    18.314121  -0.38567153            0  -0.33764991 0.0099580934 
  197300     18.36012   -0.3859434            0  -0.33780117  0.010850588 
  197400     18.69963  -0.38671552            0  -0.33768305 0.0015475016 
  197500     18.58019  -0.38649498            0  -0.33777571 0.00017768139 
  197600    18.374501  -0.38599387            0  -0.33781392 0.0033141848 
  197700    18.607799  -0.38674728            0  -0.33795561 0.00094068984 
  197800     18.60709  -0.38670364            0  -0.33791382 0.0095696339 
  197900    18.521255  -0.38645475            0  -0.33789001 0.0049076464 
  198000    18.352567  -0.38610347            0  -0.33798104 0.0011459683 
  198100    18.396206  -0.38626296            0  -0.33802611  0.001986112 
  198200    18.608625  -0.38668327            0  -0.33788943 0.0064771336 
  198300    18.752235  -0.38696464            0  -0.33779424 0.0070330285 
  198400    18.819312  -0.38718523            0  -0.33783895 0.0030309974 
  198500    18.511447  -0.38630037            0  -0.33776134 0.0058697124 
  198600    18.403812  -0.38596629            0  -0.33770949 0.0016019263 
  198700    18.463038  -0.38612699            0   -0.3377149 0.0041064976 
  198800    18.484324  -0.38629179            0  -0.33782388 0.0074054542 
  198900    18.700431  -0.38679866            0   -0.3377641 0.0016794961 
  199000    18.643803  -0.38674943            0  -0.33786335 6.0079295e-05 
  199100    18.530595  -0.38665328            0  -0.33806404 0.0023538317 
  199200    18.455933  -0.38630435            0  -0.33791089 0.0068068088 
  199300    18.429568  -0.38644569            0  -0.33812136 0.0032732429 
  199400    18.492395  -0.38651644            0  -0.33802737 -0.00016478484 
  199500    18.446508  -0.38642271            0  -0.33805396 0.0093787514 
  199600    18.490183  -0.38658687            0   -0.3381036 0.0068624732 
  199700    18.323806  -0.38611061            0   -0.3380636  0.007025585 
  199800    18.366467  -0.38626623            0  -0.33810736  0.002154196 
  199900    18.261922  -0.38599164            0  -0.33810689 0.0046217237 
  200000    18.169627  -0.38571131            0  -0.33806857 0.0044487342 
  200100    18.222983  -0.38579846            0  -0.33801582 -1.9740017e-05 
  200200    18.250117  -0.38581135            0  -0.33795756 -0.00074103741 
  200300    18.279874  -0.38579964            0  -0.33786782 0.0043781919 
  200400    18.139868  -0.38546476            0  -0.33790005  0.011662188 
  200500    18.348235  -0.38577829            0  -0.33766722 0.0017774033 
  200600    18.053037   -0.3849741            0  -0.33763708 0.0032710624 
  200700    18.007327   -0.3850601            0  -0.33784292 -0.0004655811 
  200800    17.959842  -0.38490915            0  -0.33781649 0.0025601869 
  200900    17.942383  -0.38506338            0   -0.3380165 0.0040266149 
  201000    18.072035  -0.38550925            0  -0.33812241 0.0057617409 
  201100    18.370467   -0.3863318            0  -0.33816244 0.0028517301 
  201200     18.32967  -0.38629532            0  -0.33823293 0.0065082847 
  201300    18.305554  -0.38618323            0  -0.33818408 0.0076173243 
  201400    18.262629  -0.38596802            0  -0.33808142 0.0035570854 
  201500    18.256525  -0.38596195            0  -0.33809136 -0.00031652071 
  201600    18.038838  -0.38533322            0  -0.33803342 0.0079164614 
  201700    18.146457  -0.38563242            0  -0.33805043 0.0036583211 
  201800    18.257205  -0.38594076            0  -0.33806838  0.002482973 
  201900    18.624285  -0.38672824            0  -0.33789334 0.00031897824 
  202000    18.413098  -0.38621934            0   -0.3379382  0.011250738 
  202100    18.647039  -0.38679348            0  -0.33789892 0.0085335216 
  202200    18.864108   -0.3873621            0  -0.33789836 0.0019695455 
  202300     18.80296  -0.38722892            0  -0.33792551 0.0012874197 
  202400    18.720768  -0.38694016            0  -0.33785227 0.0030742882 
  202500    18.552578  -0.38654282            0  -0.33789594 0.0071677871 
  202600    18.655047  -0.38690442            0  -0.33798886 0.0022148446 
  202700    18.593446  -0.38692792            0  -0.33817388  0.013625342 
  202800    18.848142  -0.38750007            0  -0.33807819 0.0050018802 
  202900    18.719156  -0.38716894            0  -0.33808528 -0.0026443573 
  203000    18.642878  -0.38688225            0   -0.3379986 0.00073593751 
  203100    18.712916  -0.38715979            0  -0.33809249 0.0055941331 
  203200    18.601355  -0.38667046            0  -0.33789568 0.0099539828 
  203300     18.55873  -0.38663979            0  -0.33797678 6.6703679e-06 
  203400    18.543425  -0.38656101            0  -0.33793814 -0.00049186589 
  203500    18.614767  -0.38671814            0  -0.33790819 0.0039959115 
  203600    18.628686  -0.38692724            0   -0.3380808 0.0037867668 
  203700     18.61694   -0.3868307            0  -0.33801506 0.0029026108 
  203800    18.634652    -0.386742            0  -0.33787991 0.0032959143 
  203900    18.589536  -0.38680092            0  -0.33805713 0.0014035771 
  204000    18.584669  -0.38658607            0  -0.33785505 0.0041961308 
  204100     18.63477  -0.38680095            0  -0.33793856 0.0074875352 
  204200    18.660235  -0.38685834            0  -0.33792917 0.0068643048 
  204300    18.381974  -0.38622153            0  -0.33802199 0.0058579953 
  204400    18.264628  -0.38581954            0   -0.3379277 -0.001031681 
  204500    18.265842  -0.38567471            0  -0.33777968 -0.003265237 
  204600    18.154429  -0.38539005            0  -0.33778717 0.0073336219 
  204700    18.540846  -0.38637343            0  -0.33775731 0.0036943651 
  204800    18.698386  -0.38657929            0  -0.33755009 0.0038510695 
  204900    18.637382  -0.38655684            0   -0.3376876 0.0059804491 
  205000    18.728108  -0.38679422            0  -0.33768709 0.0027216657 
  205100    18.579499  -0.38649174            0  -0.33777427  0.005007558 
  205200    18.710008  -0.38686818            0   -0.3378085 0.0011472171 
  205300    18.534695  -0.38653464            0  -0.33793466 0.0071943289 
  205400    18.544625   -0.3865607            0  -0.33793468  0.002576456 
  205500    18.533773  -0.38663896            0  -0.33804139 0.0035576266 
  205600    18.434802  -0.38638497            0  -0.33804691 0.0096316054 
  205700    18.459731  -0.38658201            0  -0.33817859   0.00228667 
  205800    18.440988  -0.38651231            0  -0.33815803 0.0023642261 
  205900    18.593673  -0.38689445            0  -0.33813981 0.0050171996 
  206000    18.698815  -0.38719312            0   -0.3381628 0.0059147948 
  206100    18.893859   -0.3876755            0  -0.33813375 0.0023978894 
  206200    18.654278  -0.38689005            0  -0.33797651  0.010031565 
  206300    18.803606  -0.38713873            0  -0.33783363 0.0043257202 
  206400    18.699111    -0.386784            0   -0.3377529 0.0036172607 
  206500    18.537241  -0.38628043            0  -0.33767377 0.0063399817 
  206600    18.594924  -0.38635821            0  -0.33760029 0.0032394206 
  206700    18.525396  -0.38644923            0  -0.33787363 0.0011161303 
  206800    18.360789  -0.38608426            0  -0.33794027 0.0029951409 
  206900    18.395383   -0.3862099            0  -0.33797521 0.0037000841 
  207000    18.442649  -0.38637198            0  -0.33801334 0.0021731281 
  207100    18.282715  -0.38601291            0  -0.33807364 0.0044622894 
  207200    18.294653  -0.38586598            0  -0.33789541 0.0036081975 
  207300    18.567902  -0.38640109            0  -0.33771403 0.00033069315 
  207400    18.405341  -0.38602539            0  -0.33776458 0.0078677346 
  207500    18.526604   -0.3862645            0  -0.33768572 0.0026457888 
  207600    18.514453  -0.38629072            0  -0.33774381  0.003756033 
  207700    18.553033  -0.38630427            0   -0.3376562 0.0070728336 
  207800    18.687525  -0.38657433            0   -0.3375736 -0.00095675591 
  207900    18.269063  -0.38564835            0  -0.33774488 0.0014710899 
  208000    18.270682  -0.38550215            0  -0.33759443 0.0027811438 
  208100    18.349621  -0.38563589            0  -0.33752119 0.0059794939 
  208200      18.5054  -0.38618553            0  -0.33766236 0.00072719482 
  208300    18.406402  -0.38599399            0   -0.3377304 0.0041377434 
  208400    18.462637  -0.38622532            0  -0.33781427 0.0049685398 
  208500    18.371012  -0.38618947            0  -0.33801868 0.0048322213 
  208600    18.319991  -0.38607958            0  -0.33804257  0.003407721 
  208700    18.178954  -0.38571558            0  -0.33804838 0.0012817148 
  208800    18.072342  -0.38548792            0  -0.33810027 0.0015893829 
  208900    18.223593   -0.3857931            0  -0.33800886 0.0013912997 
  209000     18.13414  -0.38558798            0   -0.3380383 0.0089320328 
  209100    18.155931  -0.38558512            0  -0.33797829  0.010525897 
  209200    18.473205  -0.38631632            0  -0.33787757 0.0039894428 
  209300    18.627968  -0.38669991            0  -0.33785535 0.0016523399 
  209400    18.609129  -0.38648764            0  -0.33769248 0.0061865009 
  209500    18.682699  -0.38664989            0  -0.33766182 0.0010900291 
  209600    18.395684  -0.38617975            0  -0.33794426 0.0057871806 
  209700    18.547692  -0.38636618            0  -0.33773211 0.0014142847 
  209800    18.563095  -0.38641865            0  -0.33774419 0.0011184337 
  209900     18.40613  -0.38608262            0  -0.33781974 0.0045539694 
  210000    18.241466  -0.38578817            0  -0.33795707 0.0030602922 
  210100    18.138275  -0.38542526            0  -0.33786473 0.0039740159 
  210200    18.199748  -0.38566643            0  -0.33794471 0.0029596553 
  210300    18.287675  -0.38596123            0  -0.33800895 0.0026651152 
  210400    18.623476  -0.38670571            0  -0.33787293 0.0030019486 
  210500     18.72446  -0.38689723            0  -0.33779966 0.0097004756 
  210600    18.591243  -0.38670157            0   -0.3379533  0.011661368 
  210700    18.508084  -0.38647407            0  -0.33794386 0.0037808457 
  210800    18.325326  -0.38619557            0  -0.33814457 0.0015532203 
  210900    18.402889  -0.38636775            0  -0.33811338 0.00053196989 
  211000    18.349696  -0.38616613            0  -0.33805123  0.006764621 
  211100    18.346422  -0.38616053            0  -0.33805422 0.0046437667 
  211200    18.346586  -0.38611526            0  -0.33800852 0.0010654167 
  211300    18.370186  -0.38609064            0  -0.33792202 0.0011176624 
  211400    18.337345  -0.38600369            0  -0.33792118 0.0065815472 
  211500      18.5403  -0.38637376            0  -0.33775908 0.0068770816 
  211600    18.483792  -0.38611385            0  -0.33764734 0.0044250257 
  211700    18.367017  -0.38597804            0  -0.33781772 0.0020665355 
  211800    18.307994   -0.3858662            0  -0.33786065 0.0046082018 
  211900    18.203114  -0.38573574            0   -0.3380052 0.0052459596 
  212000     18.08538  -0.38549503            0  -0.33807319 0.0058372316 
  212100    17.994335  -0.38538979            0  -0.33820668 0.0022625993 
  212200      18.0236  -0.38551744            0  -0.33825759 0.0014431066 
  212300    18.108528  -0.38567853            0    -0.338196 0.0044448986 
  212400    18.233442  -0.38596594            0  -0.33815587 0.0030994123 
  212500    18.280105  -0.38600117            0  -0.33806874 0.0030216402 
  212600    18.196423  -0.38585278            0  -0.33813978 0.0044427872 
  212700    18.300932  -0.38602826            0  -0.33804122 0.00066838219 
  212800    18.249452  -0.38586743            0  -0.33801538 0.0038471309 
  212900    18.242122  -0.38589473            0   -0.3380619 0.0061431659 
  213000    18.404378  -0.38630328            0    -0.338045 0.0020698561 
  213100    18.492656   -0.3864347            0  -0.33794494 0.00048245857 
  213200    18.328094  -0.38590519            0  -0.33784693 0.0071092885 
  213300    18.210732  -0.38583538            0  -0.33808486 0.0098443215 
  213400     18.47754  -0.38636711            0  -0.33791699 -0.00041259835 
  213500    18.377123  -0.38623745            0  -0.33805063 0.0042218328 
  213600    18.368576  -0.38627643            0  -0.33811203 0.0071107487 
  213700    18.251273  -0.38595914            0  -0.33810232 0.0018926464 
  213800    18.087712  -0.38547113            0  -0.33804318 0.0051103313 
  213900    18.271661  -0.38594316            0  -0.33803287 0.00072313805 
  214000    18.057188  -0.38532568            0  -0.33797776 0.0083605091 
  214100     18.19451  -0.38567706            0  -0.33796907 0.0053943949 
  214200    18.078568  -0.38540494            0  -0.33800097 0.0065122841 
  214300    18.039865  -0.38522697            0  -0.33792448 -0.00090601184 
  214400    18.048825  -0.38528359            0  -0.33795761 -0.0016588398 
  214500    18.133143  -0.38561215            0  -0.33806507 0.0069299772 
  214600    18.200055  -0.38560993            0  -0.33788741 0.0077255134 
  214700    18.053302   -0.3851646            0  -0.33782688  0.002985861 
  214800    18.146761  -0.38524241            0  -0.33765963 -0.0004745699 
  214900    17.976996  -0.38500117            0  -0.33786353 0.0064398546 
  215000    18.274214  -0.38543126            0  -0.33751429 0.0067328385 
  215100    18.231287  -0.38553311            0  -0.33772869 0.0050644492 
  215200    18.312835  -0.38559248            0  -0.33757424 0.0046141383 
  215300    18.289149  -0.38552961            0  -0.33757347 0.0053434707 
  215400    18.161881  -0.38541389            0  -0.33779147 0.0023550887 
  215500    18.121242  -0.38527092            0  -0.33775505 0.0024473118 
  215600     18.21582  -0.38557963            0  -0.33781577  0.006826185 
  215700    18.303161  -0.38599971            0  -0.33800683 0.0050133638 
  215800    18.243691  -0.38587124            0   -0.3380343  0.001688153 
  215900    18.098658  -0.38542376            0   -0.3379671 0.0044964398 
  216000    18.093688  -0.38539398            0  -0.33795037 0.0072088696 
  216100    18.096148  -0.38533228            0  -0.33788221 0.0046101953 
  216200    18.073613  -0.38539243            0  -0.33800145 0.0029730754 
  216300    18.207912  -0.38549685            0  -0.33775373 0.0024899328 
  216400    18.141233  -0.38543779            0   -0.3378695 0.0019828601 
  216500    18.072682  -0.38518394            0   -0.3377954 0.0065144961 
  216600    18.313072  -0.38578519            0  -0.33776632 0.0038206679 
  216700    18.226679  -0.38543755            0  -0.33764522 0.0079562798 
  216800    18.044696   -0.3850021            0  -0.33768695 0.0060726616 
  216900    17.930192  -0.38482973            0  -0.33781481 0.0016680598 
  217000    17.817125  -0.38446553            0  -0.33774709 0.0046596251 
  217100    17.762066   -0.3843561            0  -0.33778203 0.0063173677 
  217200     17.78106   -0.3845196            0  -0.33789573 0.0030919851 
  217300    17.907593  -0.38488412            0  -0.33792846  0.002214084 
  217400     17.88878   -0.3848163            0  -0.33790998 0.0077563179 
  217500      18.1477    -0.385452            0  -0.33786676 0.00065292181 
  217600    18.290832  -0.38574809            0  -0.33778753 -0.00049535249 
  217700    18.200396   -0.3854208            0  -0.33769738 0.0065588093 
  217800    18.309263  -0.38605895            0  -0.33805007 0.0049444316 
  217900    18.393021  -0.38582912            0  -0.33760062  0.006869984 
  218000      18.4233  -0.38607222            0  -0.33776432 0.0010487937 
  218100    18.226177  -0.38556602            0    -0.337775 0.0053050483 
  218200    18.324854  -0.38581151            0  -0.33776175 0.0054436113 
  218300    18.371225   -0.3860442            0  -0.33787285 0.0041120544 
  218400      18.1785  -0.38522109            0  -0.33755509 0.0042945588 
  218500    18.027701  -0.38505561            0  -0.33778502 -0.0022441898 
  218600    17.977541  -0.38474622            0  -0.33760715 0.0027758115 
  218700    18.216698  -0.38541719            0  -0.33765102 0.0040782133 
  218800    18.236745  -0.38558283            0   -0.3377641 0.0037945281 
  218900    18.250568  -0.38566761            0  -0.33781263 0.0035372014 
  219000    18.124646  -0.38537153            0  -0.33784674 0.0093625783 
  219100    18.165517   -0.3856394            0  -0.33800744 0.0014215488 
  219200    18.180767   -0.3856511            0  -0.33797915 -0.0017330829 
  219300    18.154498  -0.38558488            0  -0.33798182 0.00065478126 
  219400    18.143103  -0.38554138            0  -0.33796819 0.0067392958 
  219500    18.390821  -0.38623687            0  -0.33801414 0.0035806429 
  219600    18.253506  -0.38571044            0  -0.33784776  0.009026535 
  219700    18.411378  -0.38609263            0  -0.33781599 0.0015100874 
  219800    18.322969  -0.38611506            0  -0.33807024 0.0018886558 
  219900    18.364874  -0.38612689            0  -0.33797219 0.0045236153 
  220000    18.557408  -0.38659243            0  -0.33793289  0.004241313 
  220100    18.388108  -0.38626279            0  -0.33804717 0.0079632286 
  220200    18.225458  -0.38591832            0  -0.33812919 0.0025962928 
  220300    18.190463  -0.38571441            0  -0.33801704   0.00031496 
  220400    18.174069  -0.38576062            0  -0.33810623 0.0044007088 
  220500    18.391862  -0.38616531            0  -0.33793985 0.0020534378 
  220600    18.169314  -0.38560885            0  -0.33796693 0.0082502627 
  220700    18.491928  -0.38644518            0  -0.33795733 0.00052242477 
  220800    18.530711  -0.38649825            0  -0.33790871 0.0032741073 
  220900    18.521671  -0.38646466            0  -0.33789883 0.0034554794 
  221000    18.462437  -0.38621789            0  -0.33780737 0.0037107425 
  221100    18.601516  -0.38660735            0  -0.33783216 0.00012821648 
  221200    18.599237  -0.38659282            0   -0.3378236 0.0080148624 
  221300    18.793422  -0.38726308            0  -0.33798468 0.0057511453 
  221400     18.74556  -0.38708281            0  -0.33792992 0.0060918975 
  221500     18.61417  -0.38679355            0  -0.33798517 0.0041509626 
  221600    18.543947  -0.38676694            0  -0.33814269 0.0014952168 
  221700    18.693772  -0.38707628            0  -0.33805918 0.0016590274 
  221800    18.571208  -0.38675537            0  -0.33805964  0.006825984 
  221900    18.714318  -0.38707942            0  -0.33800844 0.00024526249 
  222000    18.603297  -0.38690259            0  -0.33812273 0.0065596241 
  222100     19.03049  -0.38780516            0  -0.33790515  0.004405078 
  222200    19.069179  -0.38798202            0  -0.33798056 0.0027540913 
  222300    18.964955  -0.38779831            0  -0.33807014 0.0024633054 
  222400    18.918216  -0.38767968            0  -0.33807406 0.0012645299 
  222500     18.67449  -0.38698551            0  -0.33801896 0.0027517728 
  222600    18.712208  -0.38719079            0  -0.33812535 0.0022255485 
  222700    18.794472  -0.38732662            0  -0.33804547 0.0041260111 
  222800    18.624564  -0.38702645            0  -0.33819082 0.0073993137 
  222900    18.744203  -0.38711214            0   -0.3379628 0.0022372968 
  223000    18.397999  -0.38621648            0  -0.33797493  0.010526309 
  223100    18.580777  -0.38678695            0  -0.33806613 -0.00026303279 
  223200    18.534237  -0.38656064            0  -0.33796186 0.0021777506 
  223300    18.458635  -0.38656434            0  -0.33816379  0.004388322 
  223400    18.369718  -0.38631555            0  -0.33814816 0.0022049936 
  223500     18.44353  -0.38636407            0  -0.33800313 0.00096036837 
  223600    18.581131   -0.3868907            0  -0.33816895 0.0036252248 
  223700    18.631661  -0.38685175            0  -0.33799751 0.0062870463 
  223800    18.448658  -0.38640172            0  -0.33802733  0.008175332 
  223900    18.426673  -0.38638113            0  -0.33806439 -0.00086046416 
  224000    18.413459  -0.38624092            0  -0.33795883  0.001125367 
  224100    18.345585  -0.38623269            0  -0.33812857 0.0078037214 
  224200     18.56505  -0.38674656            0  -0.33806699 0.0012532345 
  224300    18.245074  -0.38613188            0  -0.33829131 0.0072665818 
  224400    18.464739  -0.38668708            0  -0.33827052 -0.00083861738 
  224500    18.349521  -0.38642865            0  -0.33831421 0.00093051209 
  224600    18.453309   -0.3866885            0  -0.33830192 0.00079626646 
  224700    18.306815  -0.38642137            0  -0.33841891 0.0034744898 
  224800    18.260185  -0.38626754            0  -0.33838735 0.0033096735 
  224900    18.278392  -0.38628015            0  -0.33835222 0.0061212382 
  225000    18.187534    -0.386141            0  -0.33845131 0.0081981207 
  225100    18.268249  -0.38640969            0  -0.33850836 -0.0014070681 
  225200    18.236865   -0.3862654            0  -0.33844636 -0.00042326337 
  225300    18.358976  -0.38645962            0  -0.33832039 0.0068176106 
  225400     18.55199  -0.38684415            0  -0.33819881 0.0048184798 
  225500    18.465234  -0.38658969            0  -0.33817184  0.006978252 
  225600    18.424436  -0.38636004            0  -0.33804916 0.0044179162 
  225700    18.551508  -0.38665212            0  -0.33800805 0.00062318489 
  225800    18.578942  -0.38669069            0  -0.33797468 0.0054516906 
  225900     18.93565  -0.38763769            0  -0.33798635 0.0043291663 
  226000     18.79428  -0.38713998            0  -0.33785934   0.00794893 
  226100     18.41493  -0.38620227            0  -0.33791632 0.0051321702 
  226200    18.463298  -0.38635309            0  -0.33794031 -0.00027268633 
  226300    18.523803  -0.38660749            0  -0.33803606 0.0063229689 
  226400    18.596402  -0.38673834            0  -0.33797655 0.0086006091 
  226500    18.612125  -0.38686219            0  -0.33805918 0.0025979135 
  226600    18.521128  -0.38673836            0  -0.33817395 0.0014886473 
  226700    18.631943  -0.38683804            0  -0.33798306 -0.00023093204 
  226800    18.625711  -0.38695829            0  -0.33811965 0.0055299477 
  226900    18.402795  -0.38636881            0  -0.33811468  0.010322051 
  227000    18.562712  -0.38671352            0  -0.33804007 0.00011322956 
  227100    18.509045  -0.38651222            0  -0.33797949 0.0052534353 
  227200    18.335058  -0.38600375            0  -0.33792723  0.012644796 
  227300    18.646464  -0.38673273            0  -0.33783967 -0.002409585 
  227400    18.653435  -0.38652574            0   -0.3376144 -0.0020469208 
  227500    18.572068  -0.38654908            0   -0.3378511 0.0086807754 
  227600    18.686164  -0.38675906            0  -0.33776191  0.012482542 
  227700    18.778555  -0.38705683            0  -0.33781741 0.0038293201 
  227800    18.539164  -0.38646691            0  -0.33785521 0.0055622876 
  227900    18.396372  -0.38608754            0  -0.33785025 0.0056078068 
  228000    18.455527  -0.38619298            0  -0.33780058 -0.003375421 
  228100    18.193309  -0.38549608            0  -0.33779124 0.0043602636 
  228200    18.293381  -0.38569968            0  -0.33773245 0.0058565928 
  228300    18.574061  -0.38645951            0   -0.3377563 -0.0022451839 
  228400    18.469354  -0.38613655            0  -0.33770789 0.0066744097 
  228500    18.627482  -0.38658852            0  -0.33774523 0.0066746796 
  228600    18.466454  -0.38624143            0  -0.33782038 0.0032612227 
  228700    18.351017  -0.38593546            0   -0.3378171 0.0016245828 
  228800    18.418035  -0.38607934            0  -0.33778524 0.0032564128 
  228900    18.489868  -0.38654423            0  -0.33806178 0.0037005096 
  229000    18.448143  -0.38618522            0  -0.33781218 0.0078891276 
  229100     18.52907  -0.38642979            0  -0.33784455 0.0024990722 
  229200    18.374457  -0.38623587            0  -0.33805605 0.0026877719 
  229300    18.393054  -0.38627156            0  -0.33804297 0.0023612383 
  229400    18.230917  -0.38587595            0   -0.3380725 0.0035231105 
  229500    18.055424  -0.38539795            0  -0.33805467 0.0049329488 
  229600    18.195343  -0.38574093            0  -0.33803076 -0.00068556336 
  229700    18.272809  -0.38595989            0   -0.3380466 0.0027082881 
  229800    18.371742  -0.38615145            0  -0.33797874  0.010023767 
  229900    18.657633  -0.38670866            0  -0.33778632 0.0015538645 
  230000    18.493042  -0.38627768            0  -0.33778691 0.0030202998 
  230100    18.545827  -0.38645266            0  -0.33782349 0.0027168122 
  230200    18.460539  -0.38612732            0  -0.33772177 0.0083368241 
  230300    18.518188  -0.38654972            0  -0.33799302 0.0033635022 
  230400    18.512606  -0.38622477            0   -0.3376827 0.0062736722 
  230500     18.49596  -0.38632728            0  -0.33782887 0.0060381206 
  230600    18.691293  -0.38677556            0  -0.33776496 -0.0028098995 
  230700    18.379258  -0.38606226            0  -0.33786985 0.0057505848 
  230800    18.488129  -0.38635117            0  -0.33787329 0.0020508778 
  230900    18.292276  -0.38573337            0  -0.33776903 0.0061580428 
  231000    18.161241  -0.38543898            0  -0.33781823 0.0018321951 
  231100    17.996925  -0.38501225            0  -0.33782236 0.0020350369 
  231200    18.227921   -0.3855908            0  -0.33779521 0.0015132264 
  231300    18.471901  -0.38615837            0  -0.33772304 0.0075488346 
  231400    18.632064  -0.38660606            0  -0.33775076 0.0075918335 
  231500    18.488446  -0.38630809            0  -0.33782938  0.004692294 
  231600    18.293751  -0.38592456            0  -0.33795636 0.0027554107 
  231700    18.162619   -0.3854976            0  -0.33787324 0.00037070291 
  231800    18.093593  -0.38545006            0  -0.33800669 -0.0014114261 
  231900    18.140018   -0.3855387            0   -0.3379736 0.0013889374 
  232000    18.403544  -0.38608112            0  -0.33782502 0.0048177765 
  232100    18.683367  -0.38672493            0  -0.33773511 -0.00028323383 
  232200    18.510593  -0.38637132            0  -0.33783453 0.0081495622 
  232300    18.578427  -0.38641109            0  -0.33769643   0.00755953 
  232400    18.418036  -0.38619008            0  -0.33789599 0.0027763232 
  232500    18.262846   -0.3858137            0  -0.33792653 0.0040325745 
  232600    18.194054   -0.3856277            0  -0.33792091 0.0085525476 
  232700    18.239114  -0.38578039            0  -0.33795545 0.00065818849 
  232800     18.10789  -0.38541625            0   -0.3379354 -1.8738608e-05 
  232900    18.043055  -0.38519901            0  -0.33788816 0.0051903612 
  233000    17.980821   -0.3851674            0  -0.33801973 0.0063615178 
  233100    18.096858  -0.38546787            0  -0.33801594 0.0011491455 
  233200    18.066562  -0.38532644            0  -0.33795395 0.0019497897 
  233300    17.917954  -0.38494314            0  -0.33796032 0.0033015975 
  233400     17.96748  -0.38504712            0  -0.33793444 0.0029882966 
  233500    17.904051  -0.38505653            0  -0.33811016 0.0031142974 
  233600    17.956722  -0.38509756            0  -0.33801309 -0.00016993328 
  233700    18.149637  -0.38560337            0  -0.33801305 0.0032071614 
  233800    18.249855  -0.38599865            0  -0.33814555 0.0075101068 
  233900    18.216966  -0.38597158            0  -0.33820472 0.0033742601 
  234000    18.097639  -0.38556693            0  -0.33811295 0.0018998867 
  234100    18.281249  -0.38611726            0  -0.33818184 0.00055883572 
  234200    18.185255  -0.38599035            0  -0.33830663 0.0070176333 
  234300     18.04528  -0.38570643            0  -0.33838975 0.0060183732 
  234400    18.117908  -0.38584961            0  -0.33834249 -0.00021065291 
  234500    18.064813  -0.38585648            0  -0.33848857 0.0027651926 
  234600    18.043907  -0.38583058            0  -0.33851749 0.0071990201 
  234700    18.225459  -0.38625153            0  -0.33846239 0.0033500248 
  234800    18.044959  -0.38576705            0   -0.3384512 0.0068114672 
  234900    18.159901    -0.386167            0  -0.33854976 0.0010791755 
  235000    18.194128  -0.38619443            0  -0.33848745 0.0019521871 
  235100    18.104381  -0.38586049            0  -0.33838883 0.0026765092 
  235200    18.147306  -0.38590716            0  -0.33832295 0.0011985429 
  235300    18.196243  -0.38603448            0  -0.33832195  0.006458228 
  235400    18.343939  -0.38613826            0  -0.33803846 0.0044643776 
  235500    18.143998  -0.38547089            0  -0.33789536 0.0053071582 
  235600    18.211786  -0.38563665            0  -0.33788337 0.0017006554 
  235700    18.191875   -0.3856726            0  -0.33797152 0.0033785363 
  235800    18.198777  -0.38560165            0  -0.33788248 0.0062604921 
  235900    18.303879  -0.38582715            0  -0.33783239 0.0019216178 
  236000    18.258672  -0.38581365            0  -0.33793742 -0.00031783984 
  236100    17.996626  -0.38520003            0  -0.33801092 0.0074931871 
  236200     18.16497  -0.38563487            0  -0.33800434 0.0044264266 
  236300    17.963618  -0.38528194            0  -0.33817938 0.0045142796 
  236400    17.854416  -0.38510939            0  -0.33829317 0.0001291131 
  236500    17.798946  -0.38491907            0   -0.3382483 -0.00056805272 
  236600    17.891171  -0.38513852            0  -0.33822593 0.0036287083 
  236700    18.014041  -0.38546372            0  -0.33822894 0.0031201986 
  236800    17.993524  -0.38543528            0   -0.3382543 0.0026918866 
  236900    17.979236  -0.38539257            0  -0.33824906 0.0034296535 
  237000    17.920267  -0.38523375            0  -0.33824486 0.0054917365 
  237100    18.233631  -0.38600431            0  -0.33819375 0.00076244796 
  237200    18.149882   -0.3857321            0  -0.33814114 0.0059879672 
  237300    18.199615  -0.38593237            0    -0.338211 0.0018727547 
  237400    18.123021  -0.38566385            0  -0.33814332 0.0045425877 
  237500    18.115806  -0.38551351            0   -0.3380119 0.0034308699 
  237600    18.023849   -0.3852106            0   -0.3379501 0.00044311571 
  237700    18.142053  -0.38552968            0  -0.33795924 -0.001698922 
  237800    18.267876  -0.38592879            0  -0.33802843 0.0035736017 
  237900    18.399855  -0.38620319            0  -0.33795677 0.0085422909 
  238000    18.295893  -0.38583664            0  -0.33786282 0.0083411193 
  238100    18.035014  -0.38547799            0  -0.33818822 0.0023259804 
  238200    18.051854  -0.38524367            0  -0.33790974 -0.0016611686 
  238300    18.054963  -0.38524814            0  -0.33790606 0.00029990585 
  238400     17.91497  -0.38510513            0  -0.33813013 0.0084171097 
  238500    18.092229  -0.38543215            0  -0.33799236 0.0060598421 
  238600    18.156963  -0.38540264            0  -0.33779311 0.0005363934 
  238700    17.937912   -0.3849614            0  -0.33792624 0.0016171287 
  238800    17.872053   -0.3847939            0  -0.33793143 0.0034143531 
  238900    18.038688   -0.3852084            0  -0.33790899 0.0020051699 
  239000    18.069935  -0.38538801            0  -0.33800668 0.0048205196 
  239100    18.027795  -0.38544018            0  -0.33816935 0.0044530571 
  239200    17.920096  -0.38512233            0  -0.33813389 0.0027924775 
  239300    17.977824  -0.38519002            0  -0.33805021 0.0013372818 
  239400    17.851787  -0.38489687            0  -0.33808755 0.0052743963 
  239500     17.94898  -0.38518973            0  -0.33812556 0.0036987603 
  239600    18.077552  -0.38530405            0  -0.33790274 0.0010427713 
  239700    18.026789  -0.38521166            0  -0.33794346 0.0041548085 
  239800    18.215414  -0.38567331            0  -0.33791051 0.0040566905 
  239900     18.21153  -0.38582883            0  -0.33807622 0.0030825456 
  240000    18.235092  -0.38568718            0  -0.33787279 0.0019960063 
  240100    18.168703  -0.38546927            0  -0.33782895 0.0032179437 
  240200    18.122402  -0.38545469            0  -0.33793578 0.0066290718 
  240300    18.305216  -0.38591937            0   -0.3379211 0.0011339156 
  240400    18.231961  -0.38568881            0  -0.33788263 0.0020073447 
  240500    18.300978  -0.38584521            0  -0.33785806  0.001763116 
  240600    18.275127  -0.38578985            0  -0.33787048 0.0034925741 
  240700    18.379492  -0.38594746            0  -0.33775443 0.0039137924 
  240800    18.372257  -0.38597319            0  -0.33779914 0.0066589075 
  240900    18.338443   -0.3858501            0  -0.33776471 0.0044793813 
  241000    18.204825  -0.38552803            0    -0.337793 0.0030261325 
  241100    18.067237  -0.38522242            0  -0.33784816 0.0027152434 
  241200    18.212884  -0.38581245            0  -0.33805629 -4.0114833e-05 
  241300    18.204985  -0.38555271            0  -0.33781726 0.0091392724 
  241400    18.300475  -0.38588518            0  -0.33789934 0.0046376088 
  241500    18.138125  -0.38548095            0  -0.33792082 0.00099156649 
  241600    18.073426  -0.38536594            0  -0.33797545 -0.0020740659 
  241700    17.825188   -0.3847101            0  -0.33797052  0.006528277 
  241800    18.191935  -0.38572127            0  -0.33802004 0.0013737904 
  241900    18.252196  -0.38603878            0  -0.33817954 0.0050003628 
  242000    18.256646  -0.38607846            0  -0.33820755 0.0024026819 
  242100     18.18361  -0.38574728            0  -0.33806788 0.0021890906 
  242200    18.360842    -0.386081            0  -0.33793688 0.00093780176 
  242300    18.339889  -0.38591946            0  -0.33783028 0.0076642763 
  242400    18.495649  -0.38635807            0  -0.33786047 0.0009029138 
  242500     18.23384  -0.38571169            0  -0.33790058 0.0058424582 
  242600    18.311977  -0.38577297            0  -0.33775697 0.0028722615 
  242700    18.356589  -0.38586781            0  -0.33773484 -0.002459724 
  242800    18.257197  -0.38559904            0  -0.33772669 0.0028806193 
  242900    18.446397  -0.38613342            0  -0.33776496 0.0068048845 
  243000    18.692924  -0.38667095            0  -0.33765607 0.0067525255 
  243100    18.471776  -0.38625512            0  -0.33782011 0.0064015042 
  243200    18.286159  -0.38566804            0  -0.33771975 0.00078696621 
  243300    18.088067  -0.38522587            0  -0.33779699 0.0014492677 
  243400    18.010818  -0.38522861            0  -0.33800228 0.0049009317 
  243500    18.153303  -0.38552375            0  -0.33792382 0.00073331867 
  243600    18.229175  -0.38572011            0  -0.33792123 0.0027303562 
  243700    18.392502  -0.38607811            0  -0.33785097  0.007490477 
  243800    18.527187  -0.38631256            0  -0.33773226 0.0064477055 
  243900    18.200308  -0.38542989            0  -0.33770671  0.006531894 
  244000    18.238404  -0.38552002            0  -0.33769694 -0.0019787206 
  244100    18.046384  -0.38511864            0  -0.33779905 0.0059340919 
  244200    18.184986  -0.38542626            0  -0.33774324 0.0036427324 
  244300    18.178046  -0.38544669            0  -0.33778187 0.00041820958 
  244400    17.952274  -0.38480039            0  -0.33772758 0.0059608163 
  244500    17.950457  -0.38483832            0  -0.33777026 0.00041747816 
  244600    17.746435  -0.38430274            0  -0.33776965  0.004631827 
  244700    17.931892  -0.38461098            0  -0.33759161 0.00021196318 
  244800    17.851972  -0.38435175            0  -0.33754193 0.0038121373 
  244900    17.840703  -0.38444778            0  -0.33766752 0.0039679823 
  245000    17.861555  -0.38438407            0  -0.33754913 0.0030288317 
  245100    17.920056  -0.38460921            0  -0.33762087  0.003166718 
  245200    17.934601   -0.3845971            0  -0.33757062 0.0062482015 
  245300     17.85427  -0.38448502            0  -0.33766918 0.0044389549 
  245400    17.779926  -0.38422779            0  -0.33760689 0.0030877584 
  245500    17.960342    -0.384588            0  -0.33749403  0.003829913 
  245600    18.089049  -0.38510306            0  -0.33767161 0.0046183695 
  245700    17.993196  -0.38487877            0  -0.33769865 0.0061498423 
  245800    17.949648  -0.38477831            0  -0.33771238 0.00027143122 
  245900    17.798878  -0.38438893            0  -0.33771834  0.001651147 
  246000    17.872242  -0.38454703            0  -0.33768407 0.0023820642 
  246100    17.890981  -0.38458535            0  -0.33767325 0.0040114256 
  246200    17.848694  -0.38448653            0  -0.33768531 0.0074735388 
  246300     17.89311  -0.38461213            0  -0.33769445 0.0021578049 
  246400    18.008726  -0.38482333            0  -0.33760249  -0.00154824 
  246500     17.92338  -0.38463404            0  -0.33763698 0.0074621133 
  246600    17.926257  -0.38482141            0  -0.33781682 0.0045486546 
  246700    17.711299  -0.38420714            0  -0.33776619 9.387362e-06 
  246800    17.717045  -0.38425443            0  -0.33779841 0.0011183151 
  246900    17.870756  -0.38466667            0   -0.3378076 0.0028357015 
  247000    17.827284  -0.38456607            0  -0.33782099 0.0028571796 
  247100    17.944699  -0.38485362            0  -0.33780067 0.0041034083 
  247200    17.944821  -0.38472634            0  -0.33767307 0.0070197904 
  247300    17.994298  -0.38492351            0  -0.33774051 0.0027222218 
  247400    17.906198  -0.38471145            0  -0.33775945 0.0055332957 
  247500    17.987079   -0.3848349            0  -0.33767082 0.0036944937 
  247600    17.932166  -0.38481578            0  -0.33779569 0.0043234749 
  247700    17.956547  -0.38487612            0   -0.3377921 0.0039484306 
  247800    17.833028  -0.38466441            0  -0.33790427 0.0032817532 
  247900    17.872388  -0.38465491            0  -0.33779157 0.00067944302 
  248000    17.948825  -0.38489312            0  -0.33782935 0.0040833431 
  248100    18.092915  -0.38530195            0  -0.33786036 0.0060482511 
  248200    18.097756  -0.38523086            0  -0.33777657   0.00175381 
  248300    17.907943  -0.38480714            0  -0.33785057  0.001398044 
  248400    18.015825  -0.38510101            0  -0.33786155 0.0021113497 
  248500    18.022689  -0.38514225            0   -0.3378848 0.0057561015 
  248600    18.031245  -0.38520855            0  -0.33792866  0.003620909 
  248700    18.006988  -0.38513641            0  -0.33792012 0.0023567577 
  248800    17.837758  -0.38471748            0  -0.33794494 0.0074895168 
  248900    17.921195  -0.38496858            0  -0.33797726 0.0021023708 
  249000    18.024638  -0.38505649            0  -0.33779393 0.0015915934 
  249100    18.094476  -0.38516321            0  -0.33771752 0.0028025605 
  249200    18.081422  -0.38520249            0  -0.33779104 0.0029698871 
  249300    18.078501  -0.38524656            0  -0.33784276 0.0024756677 
  249400    17.986504   -0.3851149            0  -0.33795233 0.0055992423 
  249500     18.05641  -0.38524728            0  -0.33790141 0.0024494977 
  249600    18.138114  -0.38549008            0  -0.33792998 0.0044583365 
  249700     18.02724  -0.38509551            0  -0.33782613 0.0071828296 
  249800    17.979268  -0.38491927            0  -0.33777568 -0.0021557043 
  249900     18.09486    -0.385169            0  -0.33772231 -0.0025922274 
  250000    17.976493  -0.38463184            0  -0.33749552  0.013923678 
  250100    17.920373  -0.38464153            0  -0.33765236 0.0081416211 
  250200    17.819847  -0.38419514            0  -0.33746956 -0.00025614037 
  250300    17.696889  -0.38407831            0  -0.33767514 0.00040222878 
  250400    17.809705  -0.38444817            0  -0.33774919 0.0031672733 
  250500    17.807957  -0.38457425            0  -0.33787985  0.005004193 
  250600    17.905253  -0.38485603            0  -0.33790651 0.0018408315 
  250700    17.794671  -0.38463165            0  -0.33797209  0.002496895 
  250800    17.798628  -0.38450457            0  -0.33783463 0.0011282444 
  250900    17.703825    -0.384393            0  -0.33797165 0.0062971525 
  251000    17.863906  -0.38462766            0  -0.33778655 0.0022055176 
  251100    17.859594  -0.38452893            0  -0.33769914 0.0031532658 
  251200    17.962589  -0.38483709            0  -0.33773723 0.00081750557 
  251300    17.934192  -0.38479574            0  -0.33777034 0.0051422412 
  251400    18.237711  -0.38562139            0  -0.33780013 0.0022213325 
  251500    18.170755  -0.38548223            0  -0.33783654 0.0088401894 
  251600      18.3408  -0.38603135            0  -0.33793978 0.0021893383 
  251700    18.248031  -0.38580427            0  -0.33795595 0.0052692094 
  251800    18.405218  -0.38616268            0   -0.3379022 0.0007379587 
  251900    18.011248   -0.3852597            0  -0.33803225 0.0077607485 
  252000    18.316474  -0.38577177            0  -0.33774398 -0.0034100694 
  252100    18.336561  -0.38586036            0  -0.33777991 0.0045398032 
  252200     18.24392  -0.38569072            0  -0.33785318 0.0070442089 
  252300    18.420894  -0.38604446            0  -0.33774287 -0.0021166574 
  252400     18.35285  -0.38595336            0  -0.33783019 0.0069384528 
  252500    18.269581  -0.38581838            0  -0.33791355 0.0085848249 
  252600    18.071531  -0.38536926            0  -0.33798374 0.0026044334 
  252700    17.982168  -0.38518929            0  -0.33803809 0.0011957399 
  252800    18.081008  -0.38535283            0  -0.33794247 0.0015246859 
  252900    18.044494   -0.3852641            0  -0.33794948 0.0039751065 
  253000    17.958503  -0.38517185            0   -0.3380827 0.0029648997 
  253100    17.778609  -0.38472654            0  -0.33810909 0.0036549871 
  253200    17.969632  -0.38518629            0  -0.33806796 -0.0014815256 
  253300    17.907109  -0.38495673            0  -0.33800235 0.0053080065 
  253400    18.101934  -0.38539507            0  -0.33792983 0.0025155168 
  253500    18.158019  -0.38556408            0  -0.33795178 0.0046260432 
  253600    17.968771  -0.38514109            0  -0.33802501  0.010005542 
  253700    17.764897  -0.38451811            0  -0.33793662 0.0067084584 
  253800    17.875639  -0.38474456            0  -0.33787269 -0.00075742844 
  253900    17.778346  -0.38443679            0  -0.33782003 0.00070925219 
  254000    17.849525  -0.38464504            0  -0.33784165 -0.0035055169 
  254100    17.755017  -0.38455512            0  -0.33799953  0.008756101 
  254200    18.013706  -0.38517678            0  -0.33794288 0.0074389535 
  254300    18.058194  -0.38533452            0  -0.33798398 -0.0011849934 
  254400    17.970997  -0.38508377            0  -0.33796186  0.000310721 
  254500    18.068847  -0.38527431            0  -0.33789583 0.0034245287 
  254600    17.850203  -0.38488383            0  -0.33807866  0.010085853 
  254700    18.048822   -0.3851245            0  -0.33779853 0.0017560852 
  254800     17.91632  -0.38476679            0  -0.33778825 0.0012233112 
  254900    17.811207  -0.38461046            0  -0.33790753 0.0016938048 
  255000     17.94937  -0.38481093            0  -0.33774573 0.0054774213 
  255100     18.16347  -0.38531053            0  -0.33768394 0.0052704635 
  255200    18.223232  -0.38557741            0  -0.33779411 0.0015833984 
  255300    18.029285  -0.38515882            0  -0.33788407 0.0066585231 
  255400    17.918703  -0.38489389            0   -0.3379091 0.0045647582 
  255500    17.869853  -0.38471678            0  -0.33786008 0.0015192261 
  255600    17.949217  -0.38486439            0   -0.3377996 0.0024505508 
  255700    17.770592   -0.3843586            0  -0.33776218 0.0043042976 
  255800    17.588979  -0.38384663            0  -0.33772641 0.0008465022 
  255900    17.574587  -0.38369202            0  -0.33760954 0.0039204428 
  256000    17.841476  -0.38438411            0  -0.33760182 0.0049356322 
  256100    17.920169  -0.38457276            0  -0.33758412  0.007945823 
  256200    17.952972  -0.38474705            0   -0.3376724 0.0064491059 
  256300    18.078211  -0.38524873            0   -0.3378457 0.0027402522 
  256400    17.889872  -0.38485571            0  -0.33794652 0.0064226127 
  256500    17.920968  -0.38501881            0  -0.33802808 -0.0011695097 
  256600    17.914021  -0.38499262            0  -0.33802011 -0.00011775251 
  256700    17.851967  -0.38474727            0  -0.33793747 0.0062011009 
  256800    17.621204  -0.38420527            0  -0.33800056 0.0082034139 
  256900     17.67049  -0.38417151            0  -0.33783757 0.00011792885 
  257000     17.57972  -0.38387508            0  -0.33777914 0.0024740331 
  257100    17.955522   -0.3847694            0  -0.33768806 -0.0016241054 
  257200    17.824951  -0.38431345            0  -0.33757449     0.006659 
  257300    17.825589  -0.38463867            0  -0.33789804 0.0052407339 
  257400    18.177121  -0.38527838            0  -0.33761599 0.00071969354 
  257500    18.297497  -0.38561727            0  -0.33763925 0.0020580769 
  257600    18.144358  -0.38535869            0  -0.33778221 0.0086684163 
  257700    18.262636  -0.38563862            0    -0.337752 0.0047252979 
  257800    18.065007  -0.38521778            0  -0.33784937 0.0063028426 
  257900    17.999527  -0.38508948            0  -0.33789276 0.0033953649 
  258000    18.062652  -0.38511898            0  -0.33775674 0.0029645634 
  258100    17.835857  -0.38455925            0  -0.33779169 0.0076455523 
  258200    17.855409   -0.3846468            0  -0.33782798  0.004648977 
  258300    17.789697  -0.38446103            0  -0.33781451 0.0046967504 
  258400    17.690232  -0.38414979            0  -0.33776408 0.0044350241 
  258500    17.797898  -0.38438199            0  -0.33771397 -0.00091497462 
  258600    17.877325   -0.3846773            0  -0.33780101 0.0024958874 
  258700    17.830769  -0.38466909            0  -0.33791488 0.0090460693 
  258800    17.969384  -0.38501071            0  -0.33789303  0.001795415 
  258900    17.787176   -0.3845325            0  -0.33789259 0.0033457028 
  259000    17.836032  -0.38467636            0  -0.33790835 0.00052000882 
  259100    17.702144  -0.38429747            0  -0.33788052  0.002099102 
  259200      17.8323  -0.38450711            0  -0.33774888 -0.00018437396 
  259300    17.728556  -0.38422208            0  -0.33773587 0.0057575185 
  259400    17.906253  -0.38462817            0  -0.33767603 0.0017727762 
  259500    17.915522  -0.38456844            0  -0.33759199 0.0035361263 
  259600    17.894159   -0.3844685            0  -0.33754807 0.0049899871 
  259700    17.988983  -0.38476114            0  -0.33759207 0.0035761598 
  259800    17.712542   -0.3841206            0  -0.33767639  0.004832685 
  259900    17.777761  -0.38413905            0  -0.33752382 -0.0021920872 
  260000    17.876823  -0.38449506            0  -0.33762008 0.00033467012 
  260100    17.807306  -0.38444579            0   -0.3377531 0.0088885534 
  260200    17.989738  -0.38486188            0  -0.33769083 0.0042515972 
  260300    17.863453  -0.38464785            0  -0.33780793 0.0060459093 
  260400    17.644179  -0.38415489            0  -0.33788993 0.0049919381 
  260500    17.547883   -0.3838353            0  -0.33782285 0.0022218743 
  260600    17.654208  -0.38409649            0  -0.33780524 0.0018882507 
  260700    17.829773  -0.38448862            0  -0.33773702 -1.9856235e-05 
  260800    17.529497  -0.38372857            0  -0.33776432 0.0073279527 
  260900    17.769743  -0.38426483            0  -0.33767063 -0.0013380383 
  261000    17.762895  -0.38409425            0  -0.33751801 0.0038622198 
  261100     17.91948  -0.38457226            0  -0.33758543 0.0059358714 
  261200    17.836656  -0.38443125            0  -0.33766159 0.0088143317 
  261300    17.860148  -0.38443738            0  -0.33760613 -0.0018877231 
  261400    17.445792   -0.3834418            0  -0.33769703 0.0021260629 
  261500    17.465942  -0.38367833            0  -0.33788073 0.0031732117 
  261600    17.740209  -0.38433844            0  -0.33782168 0.0041688503 
  261700    17.758914  -0.38432177            0  -0.33775596 0.0049604545 
  261800    17.588839  -0.38385319            0  -0.33773334 0.0038629715 
  261900    17.479385  -0.38365163            0  -0.33781878 0.0030188093 
  262000    17.750335  -0.38417967            0  -0.33763636 0.0021935806 
  262100    17.613758  -0.38392577            0  -0.33774059 0.0076061238 
  262200    17.571698  -0.38377007            0  -0.33769517 8.1514641e-05 
  262300    17.474832  -0.38358268            0  -0.33776177 0.00033591054 
  262400    17.464107  -0.38352179            0    -0.337729 0.0063098251 
  262500    17.443568  -0.38357219            0  -0.33783325 0.0083640509 
  262600      17.6836  -0.38426627            0  -0.33789794 0.00042385849 
  262700    17.561628  -0.38399136            0  -0.33794286 0.0057244667 
  262800    17.566187  -0.38398915            0  -0.33792869 0.0038218504 
  262900    17.509347  -0.38393058            0  -0.33801917 0.0055922239 
  263000    17.691758  -0.38439504            0  -0.33800532  0.003411975 
  263100    17.601184  -0.38408443            0  -0.33793222 0.0046590278 
  263200    17.625559  -0.38412836            0  -0.33791223 0.00012111108 
  263300    17.359587  -0.38347596            0  -0.33795724 0.0085278268 
  263400    17.511846  -0.38377024            0  -0.33785228  0.006622104 
  263500    17.483379  -0.38371367            0  -0.33787035 0.0018745539 
  263600    17.498619  -0.38374959            0  -0.33786631 0.00052044265 
  263700    17.522221  -0.38381274            0  -0.33786757 0.0048647021 
  263800    17.583348  -0.38401954            0  -0.33791409 0.0040446198 
  263900    17.576535  -0.38393226            0  -0.33784467 0.0026906006 
  264000    17.552547  -0.38389195            0  -0.33786726 0.0039019473 
  264100    17.591829  -0.38407045            0  -0.33794276 0.0013569163 
  264200     17.59321   -0.3840552            0  -0.33792389 0.00099449827 
  264300    17.651542  -0.38421862            0  -0.33793435 0.0031432645 
  264400    17.918781  -0.38474681            0  -0.33776182 0.0004421326 
  264500    17.909513  -0.38465569            0  -0.33769499 0.0096042296 
  264600    18.058549  -0.38511743            0  -0.33776595 0.0061332695 
  264700    18.007489  -0.38486596            0  -0.33764837 0.0042049762 
  264800    17.986913  -0.38470628            0  -0.33754264 0.0068407678 
  264900    17.888916  -0.38452233            0  -0.33761565 0.0036388577 
  265000    17.705395  -0.38415193            0  -0.33772646 -0.0027171381 
  265100    17.496934  -0.38375925            0  -0.33788039 0.0057110401 
  265200    17.706403  -0.38422296            0  -0.33779484 0.0057289456 
  265300    17.772397  -0.38451384            0  -0.33791268 0.0016448843 
  265400    17.526343  -0.38384101            0  -0.33788504 0.0057574267 
  265500    17.456972  -0.38357739            0  -0.33780331 0.0068069169 
  265600     17.44985  -0.38342271            0   -0.3376673 0.00056514603 
  265700    17.335851  -0.38325056            0  -0.33779407 0.00083840463 
  265800    17.372298  -0.38312729            0  -0.33757523 0.0048278666 
  265900    17.536038  -0.38350166            0  -0.33752026 0.00082139608 
  266000     17.58563   -0.3838472            0  -0.33773577 0.0038267759 
  266100    17.650352  -0.38390656            0  -0.33762542  0.009998853 
  266200    17.483242   -0.3835161            0  -0.33767314 0.0058592164 
  266300    17.462524  -0.38368992            0  -0.33790128  0.001239811 
  266400    17.674248  -0.38421017            0  -0.33786637  0.001270979 
  266500    17.482267   -0.3837559            0   -0.3379155 0.0091589179 
  266600    17.719589  -0.38443484            0  -0.33797216 -0.0031636662 
  266700    17.426135  -0.38359908            0  -0.33790586 0.0057362979 
  266800    17.701332  -0.38418766            0  -0.33777284 0.0023853131 
  266900     17.58334  -0.38398169            0  -0.33787626 0.0048965292 
  267000    17.536522  -0.38387592            0  -0.33789325 0.0015416254 
  267100    17.768121  -0.38438631            0  -0.33779637 -0.0006599594 
  267200    17.790101  -0.38443874            0  -0.33779116 0.0053238421 
  267300    17.637863  -0.38420389            0   -0.3379555 0.0079844378 
  267400    17.588943   -0.3838615            0  -0.33774138 0.0032401232 
  267500    17.698472  -0.38420295            0  -0.33779563 -0.0030794666 
  267600    17.672217  -0.38399967            0  -0.33766119 0.0062079801 
  267700    17.688437  -0.38417432            0  -0.33779332 0.0090612304 
  267800    17.756882  -0.38422548            0    -0.337665 0.0043866501 
  267900    17.687045  -0.38415001            0  -0.33777266 0.0027146221 
  268000    17.685381  -0.38417089            0   -0.3377979 0.0021171384 
  268100    17.565371  -0.38384158            0  -0.33778326  0.003722867 
  268200    17.397875  -0.38338322            0   -0.3377641 0.0031674581 
  268300    17.487927   -0.3835925            0  -0.33773725 0.0012226232 
  268400    17.554529  -0.38368582            0  -0.33765594 0.0079813238 
  268500    17.813547  -0.38434196            0   -0.3376329 -0.00016444042 
  268600    17.613053   -0.3838207            0  -0.33763735 0.0084262244 
  268700    17.538935  -0.38379749            0  -0.33780849 0.0082415268 
  268800    17.476165  -0.38356581            0  -0.33774141 0.0015432784 
  268900    17.487174  -0.38363425            0  -0.33778097 0.0028850109 
  269000    17.591856  -0.38391072            0  -0.33778296 0.0058363219 
  269100    17.694014  -0.38422929            0  -0.33783367  0.001763751 
  269200    17.648196  -0.38421411            0  -0.33793862 0.0029632138 
  269300    17.790407  -0.38447816            0  -0.33782978 3.5912122e-05 
  269400    17.642678   -0.3842706            0  -0.33800958 0.0033790468 
  269500    17.681403   -0.3842401            0  -0.33787754 0.0028061035 
  269600    17.762875  -0.38451898            0  -0.33794279 0.0020752566 
  269700    17.717153  -0.38446888            0  -0.33801258 0.0041708157 
  269800    17.608851    -0.384205            0  -0.33803268 0.0062856552 
  269900    17.619065  -0.38411944            0  -0.33792033 0.0068590979 
  270000    17.596112  -0.38410894            0  -0.33797002  0.006408515 
  270100    17.616525  -0.38404233            0  -0.33784988 0.0056586606 
  270200     17.71502  -0.38424777            0  -0.33779706  0.000356043 
  270300    17.596235  -0.38411124            0  -0.33797199 0.0041741465 
  270400    17.589159  -0.38394196            0  -0.33782128 0.0032140328 
  270500    17.556782  -0.38372246            0  -0.33768667 0.0024021774 
  270600    17.722138  -0.38420822            0  -0.33773885 0.00082779742 
  270700    17.846056  -0.38455439            0  -0.33776009  0.003997855 
  270800    17.909244  -0.38481048            0  -0.33785049   0.00325593 
  270900    17.657952  -0.38418027            0   -0.3378792 0.0049802221 
  271000    17.875717  -0.38478933            0  -0.33791726 -0.0028806095 
  271100     17.86035  -0.38478074            0  -0.33794896 0.0033812641 
  271200    17.785642  -0.38464176            0  -0.33800587 0.0086292074 
  271300    17.815446  -0.38462797            0  -0.33791393 0.0048870924 
  271400    17.976887  -0.38495278            0  -0.33781542 -0.001367388 
  271500    17.724731  -0.38422045            0  -0.33774428  0.010058863 
  271600    18.058531  -0.38497321            0  -0.33762177 0.0041717523 
  271700    17.965912  -0.38477264            0  -0.33766406 0.0020404722 
  271800    17.912804  -0.38464377            0  -0.33767445 0.0025055898 
  271900     17.89358  -0.38461071            0   -0.3376918  0.005492321 
  272000     17.94524  -0.38477595            0  -0.33772158 0.0037492887 
  272100    17.925926  -0.38492299            0  -0.33791926 -0.0006288425 
  272200    17.606032  -0.38409161            0  -0.33792668  0.011030018 
  272300    17.746699   -0.3844397            0  -0.33790592 0.0029533801 
  272400    17.629495  -0.38409606            0  -0.33786961 0.0012983834 
  272500    17.748057  -0.38436277            0  -0.33782543 0.0003000953 
  272600      17.8779   -0.3847447            0  -0.33786691 0.0037100293 
  272700    17.972473  -0.38491366            0  -0.33778788  0.004265823 
  272800    17.937018  -0.38483725            0  -0.33780444 0.0037248444 
  272900    17.831201  -0.38460122            0  -0.33784587 0.0040892902 
  273000    17.634384  -0.38421474            0  -0.33797546 0.0028563249 
  273100    17.703616  -0.38431374            0  -0.33789293 0.0032932732 
  273200     17.59008  -0.38402858            0  -0.33790548 0.0067652492 
  273300    17.823212  -0.38469439            0  -0.33795999 -0.00020847839 
  273400    17.706808  -0.38452879            0  -0.33809961 0.0074326337 
  273500    17.967312  -0.38511382            0  -0.33800157 0.0027061618 
  273600    18.021166  -0.38513662            0  -0.33788317 0.0030141798 
  273700    18.020717  -0.38502373            0  -0.33777145 0.0055554924 
  273800    18.087659  -0.38532077            0  -0.33789296 -0.00041070323 
  273900    17.920095  -0.38483558            0  -0.33784714 0.0051852368 
  274000    17.879031  -0.38472314            0  -0.33784237 0.0088062879 
  274100    17.890621  -0.38473684            0  -0.33782568 0.0054257691 
  274200    17.847744  -0.38471467            0  -0.33791594 0.00071167245 
  274300    17.838005  -0.38477213            0  -0.33799894 -0.00025141738 
  274400      17.7744  -0.38454044            0  -0.33793403 0.0021937488 
  274500     17.69474    -0.384393            0  -0.33799546 0.0014012789 
  274600    17.823181   -0.3846929            0  -0.33795858 0.00022954751 
  274700    17.655312  -0.38423848            0  -0.33794433  0.010814225 
  274800    17.799166  -0.38458104            0  -0.33790969 0.0032411936 
  274900    17.958066   -0.3848939            0   -0.3378059 -0.00010631575 
  275000    17.802531  -0.38461034            0  -0.33793016 0.0074158442 
  275100    17.746309  -0.38425504            0  -0.33772228 0.0061498376 
  275200    17.852963  -0.38455616            0  -0.33774375 -0.002732646 
  275300    17.682455  -0.38406966            0  -0.33770434 0.0045931728 
  275400     17.95389  -0.38479009            0  -0.33771304 0.00049912019 
  275500    18.012391  -0.38498063            0  -0.33775018 0.0080454402 
  275600     18.12786  -0.38528816            0  -0.33775494 0.0067117912 
  275700    18.091291  -0.38507546            0  -0.33763813 0.0031789906 
  275800    17.950959  -0.38459286            0  -0.33752349 0.0048169873 
  275900    17.729546   -0.3841347            0   -0.3376459  0.006371358 
  276000    17.729505  -0.38412278            0  -0.33763409 0.0025156759 
  276100    17.723017  -0.38403894            0  -0.33756726 0.0051790126 
  276200    17.748259  -0.38425717            0   -0.3377193 0.0066551127 
  276300    17.699894   -0.3841231            0  -0.33771205 0.0042789034 
  276400    17.819511   -0.3844157            0    -0.337691 -0.0038593323 
  276500    17.648001  -0.38400389            0  -0.33772891 0.0051827513 
  276600    17.771554   -0.3842901            0  -0.33769115 0.0065160938 
  276700    17.733947  -0.38424692            0  -0.33774658   0.00249674 
  276800    17.786024  -0.38429309            0   -0.3376562 -0.0016776174 
  276900    17.753417  -0.38434899            0   -0.3377976 0.0049200801 
  277000    17.979172  -0.38494823            0  -0.33780489 0.0025243593 
  277100    17.833618  -0.38465316            0  -0.33789147 0.0046132748 
  277200    17.785394  -0.38444908            0  -0.33781384 0.0030615895 
  277300    17.699178  -0.38420612            0  -0.33779695 0.0050955655 
  277400    17.894445  -0.38471139            0   -0.3377902 0.0010073663 
  277500    17.749293  -0.38435563            0  -0.33781506  0.012166034 
  277600    17.813781  -0.38459362            0  -0.33788395 0.0056210392 
  277700    17.863438  -0.38466095            0  -0.33782107 0.00016793845 
  277800    17.944086  -0.38498314            0   -0.3379318 0.0039163837 
  277900    17.949655  -0.38499695            0    -0.337931 0.0089631349 
  278000    17.898274  -0.38475279            0  -0.33782157 0.0042414876 
  278100    17.911688  -0.38475461            0  -0.33778822 -0.0024141568 
  278200    17.817812  -0.38450922            0  -0.33778898 0.0036602096 
  278300    17.960554  -0.38484551            0  -0.33775098 0.0025633699 
  278400    17.720612  -0.38431951            0  -0.33785414 0.0066234473 
  278500    17.822623  -0.38451834            0  -0.33778548 0.0070910563 
  278600     17.90291  -0.38458788            0   -0.3376445 0.0050953224 
  278700    18.119497  -0.38523787            0  -0.33772658 -0.0039348373 
  278800     18.09444  -0.38513218            0  -0.33768659 0.0037061576 
  278900    18.101171  -0.38508922            0  -0.33762598 0.0073845012 
  279000    17.987139  -0.38486153            0   -0.3376973 0.0059720294 
  279100    17.821533  -0.38437267            0  -0.33764267 0.0084792614 
  279200     17.93691  -0.38464775            0  -0.33761522 0.0023471083 
  279300    17.967863   -0.3847052            0  -0.33759151  0.003343535 
  279400    17.872175  -0.38453397            0  -0.33767119 0.0049863055 
  279500    17.956473  -0.38467581            0  -0.33759198 0.0056970113 
  279600    17.961693  -0.38465322            0   -0.3375557 0.0078825803 
  279700    17.943923  -0.38462508            0  -0.33757417 0.0036643279 
  279800    17.883583  -0.38457469            0  -0.33768199 0.0027231519 
  279900    18.014612  -0.38496034            0  -0.33772407 0.0024104225 
  280000    17.826404  -0.38438354            0  -0.33764077 0.0087707832 
  280100     17.91117  -0.38467602            0  -0.33771099 0.0019567271 
  280200    17.929188  -0.38464978            0  -0.33763749 0.0027217647 
  280300    17.974029  -0.38488394            0  -0.33775409 0.0044089847 
  280400    17.913982  -0.38476598            0  -0.33779357 0.0060718833 
  280500    17.948584   -0.3847672            0  -0.33770406 0.0013270395 
  280600    17.792451  -0.38425026            0  -0.33759651 0.0080833669 
  280700    17.877163  -0.38458052            0  -0.33770466 0.0035218823 
  280800    17.954391  -0.38476369            0  -0.33768532 0.0016354789 
  280900    17.885009  -0.38472969            0  -0.33783325 0.0028388858 
  281000    18.039025  -0.38517619            0   -0.3378759 0.00046981186 
  281100    17.827246  -0.38465637            0  -0.33791139 0.0097211546 
  281200    17.969842  -0.38517174            0  -0.33805286 0.0024041233 
  281300    18.020587  -0.38511343            0  -0.33786149  0.002251123 
  281400    17.785869  -0.38461121            0  -0.33797472 0.0076519276 
  281500    17.774772   -0.3844226            0  -0.33781521 -0.00071838844 
  281600    17.669509  -0.38416297            0   -0.3378316 0.0016167158 
  281700    17.583875  -0.38400774            0  -0.33790091 0.0029186628 
  281800      17.7264  -0.38433061            0  -0.33785006 0.00035489355 
  281900    17.722023  -0.38438395            0  -0.33791488 0.00099253128 
  282000    17.525161  -0.38384632            0  -0.33789344 0.0022304458 
  282100    17.550553  -0.38395855            0  -0.33793909 0.0023518201 
  282200    17.445202  -0.38377609            0  -0.33803287 0.0081565273 
  282300    17.714548   -0.3844736            0  -0.33802413 -0.0012611344 
  282400    17.495841  -0.38385162            0  -0.33797563 0.0038587664 
  282500    17.436364  -0.38367917            0  -0.33795913 0.0030380792 
  282600    17.387278  -0.38358822            0  -0.33799689 0.0028806898 
  282700    17.404757  -0.38359474            0  -0.33795757 0.0064357084 
  282800     17.42315  -0.38368418            0  -0.33799879 0.0051219223 
  282900    17.502857  -0.38380463            0  -0.33791023 0.0010411479 
  283000    17.541434  -0.38400284            0  -0.33800729 0.0058435798 
  283100    17.578004  -0.38410198            0  -0.33801054 0.0087144691 
  283200    17.426624   -0.3836306            0   -0.3379361 0.0094566476 
  283300    17.417024  -0.38373968            0  -0.33807035 0.0029712262 
  283400     17.60434  -0.38410663            0  -0.33794614 0.00060793158 
  283500     17.64684  -0.38421305            0  -0.33794111 0.0030795284 
  283600    17.703933   -0.3843999            0  -0.33797826 0.0025533503 
  283700    17.656341  -0.38428292            0  -0.33798607 0.0018501119 
  283800    17.627741  -0.38416497            0  -0.33794312 0.0038674537 
  283900    17.640602  -0.38425384            0  -0.33799826 0.0042318357 
  284000    17.639925  -0.38405037            0  -0.33779657 0.0075143221 
  284100    17.697238  -0.38443135            0  -0.33802727 0.0037218326 
  284200     17.63699  -0.38403008            0  -0.33778397 0.0018803586 
  284300    17.607575  -0.38385883            0  -0.33768985 0.0038331632 
  284400    17.639563  -0.38407369            0  -0.33782083 0.0023723707 
  284500    17.424416  -0.38335476            0  -0.33766604 0.0051688126 
  284600    17.620811   -0.3838964            0  -0.33769271 -0.00091949532 
  284700    17.623706  -0.38393113            0  -0.33771986 0.0073290429 
  284800    17.853856  -0.38444928            0  -0.33763452 0.0028394206 
  284900    17.980527  -0.38478162            0  -0.33763472 -0.0014925519 
  285000    17.747642  -0.38433053            0  -0.33779428   0.01080209 
  285100    17.865542  -0.38444961            0  -0.33760422 0.0089747459 
  285200    17.927476  -0.38456507            0  -0.33755728 -0.00068962146 
  285300    17.739572  -0.38410077            0  -0.33758568 0.0029289888 
  285400    17.674367  -0.38414577            0  -0.33780166 0.0049597797 
  285500    17.840651  -0.38445941            0  -0.33767929 -0.0012798558 
  285600    17.614744  -0.38397282            0  -0.33778504 0.0040364353 
  285700    17.596162  -0.38390801            0  -0.33776896 0.0053403262 
  285800    17.623055  -0.38401325            0  -0.33780369 0.0043681193 
  285900     17.58423  -0.38390789            0  -0.33780013  0.004358954 
  286000    17.661735  -0.38406239            0   -0.3377514 0.0010035871 
  286100    17.633508  -0.38402352            0  -0.33778654 0.0051585688 
  286200    17.809604  -0.38429631            0  -0.33759759 0.0032228932 
  286300    17.617822   -0.3840449            0  -0.33784906 0.0065504851 
  286400     17.65278  -0.38407336            0  -0.33778585 0.0022723132 
  286500    17.449036  -0.38361076            0  -0.33785749 0.0037360679 
  286600    17.311475  -0.38327759            0  -0.33788502 0.0043482963 
  286700    17.436949  -0.38373068            0   -0.3380091 0.0026615519 
  286800    17.372628  -0.38350292            0     -0.33795 0.0059051488 
  286900    17.397728  -0.38352739            0  -0.33790865 0.0013425353 
  287000    17.336919  -0.38352131            0  -0.33806202 0.00028305127 
  287100     17.38032  -0.38355994            0  -0.33798685 0.0061062271 
  287200    17.284799  -0.38328688            0  -0.33796425   0.01023699 
  287300    17.444974  -0.38369226            0  -0.33794965 -0.0018536301 
  287400    17.209018  -0.38309324            0  -0.33796932 0.0027629134 
  287500    17.159345  -0.38287775            0  -0.33788408 0.0036274141 
  287600    17.335558  -0.38331498            0  -0.33785926 0.0030695703 
  287700    17.473287  -0.38351607            0  -0.33769921 0.0076656206 
  287800    17.493336  -0.38358239            0  -0.33771296 0.0038935346 
  287900    17.469403  -0.38356325            0  -0.33775657 0.0039947531 
  288000    17.414767  -0.38355374            0  -0.33789032 0.0055115127 
  288100     17.41368  -0.38357521            0  -0.33791464 0.0012146839 
  288200    17.321897  -0.38339097            0  -0.33797108 0.0013066635 
  288300    17.260167  -0.38318734            0  -0.33792931 0.0042875563 
  288400    17.343487  -0.38336667            0  -0.33789017 0.0051358586 
  288500    17.526718  -0.38387689            0  -0.33791993 0.0028581176 
  288600    17.553299  -0.38387197            0  -0.33784531 0.0065290249 
  288700    17.544381  -0.38385017            0  -0.33784689 0.0032009952 
  288800    17.503927  -0.38370988            0  -0.33781268  0.002024532 
  288900    17.367603  -0.38348105            0  -0.33794131 0.0059649822 
  289000    17.448098  -0.38356929            0  -0.33781848 0.0039568851 
  289100    17.595783  -0.38397755            0   -0.3378395 0.0017456531 
  289200     17.48601  -0.38373501            0  -0.33788479 0.0020134843 
  289300    17.564772  -0.38378967            0  -0.33773292 0.0001110294 
  289400    17.482428  -0.38364995            0  -0.33780912 0.0097486976 
  289500    17.777057  -0.38434341            0  -0.33773004  0.006377912 
  289600    17.970188  -0.38485362            0  -0.33773383 0.0048175474 
  289700      18.0225  -0.38493758            0  -0.33768063 0.0046412911 
  289800    17.831728  -0.38454595            0  -0.33778922 0.0028541032 
  289900    17.633359  -0.38397654            0  -0.33773996 0.0052165314 
  290000    17.674412  -0.38413641            0  -0.33779218 -0.00078887214 
  290100    17.645658  -0.38399405            0  -0.33772521 0.0026816995 
  290200    17.797841  -0.38432824            0  -0.33766037 0.00022210358 
  290300    17.634249  -0.38404997            0  -0.33781105 0.0060899861 
  290400    17.771906  -0.38434946            0  -0.33774959 0.0058526756 
  290500    17.817957  -0.38447486            0  -0.33775424 0.0024881679 
  290600    17.690236  -0.38431756            0  -0.33793184 0.0039345707 
  290700    17.480954  -0.38381239            0  -0.33797543 0.0090250033 
  290800    17.518161  -0.38400196            0  -0.33806744 0.0017304141 
  290900    17.410013  -0.38363905            0   -0.3379881 0.0049610471 
  291000    17.314466  -0.38341221            0   -0.3380118 0.0029371383 
  291100    17.304758  -0.38328164            0  -0.33790668 -0.0011677756 
  291200    17.183503  -0.38294094            0  -0.33788392 0.0043983782 
  291300    17.164963  -0.38281077            0  -0.33780237 0.0027554476 
  291400    17.276961  -0.38306122            0  -0.33775915 -0.00074441799 
  291500     17.51277  -0.38351352            0  -0.33759313 0.0051123104 
  291600    17.523779  -0.38369191            0  -0.33774265  0.010165426 
  291700      17.5831  -0.38377181            0  -0.33766701 -0.0014846426 
  291800    17.446548  -0.38346712            0  -0.33772037 0.00056822506 
  291900     17.39623  -0.38332129            0  -0.33770648 0.0069133335 
  292000    17.352531  -0.38326736            0  -0.33776713  0.004419323 
  292100    17.392613  -0.38333694            0  -0.33773162 -0.0015868805 
  292200    17.437718  -0.38343467            0  -0.33771108 0.0042098121 
  292300    17.619636  -0.38391808            0  -0.33771748 0.0055147594 
  292400    17.620252   -0.3840652            0  -0.33786298 0.0063367187 
  292500    17.558133   -0.3838635            0  -0.33782417 0.0055612845 
  292600    17.655305  -0.38413229            0  -0.33783816 0.00070502673 
  292700    17.492828  -0.38379844            0  -0.33793034 0.0041086264 
  292800    17.490387   -0.3837273            0   -0.3378656 0.0045116992 
  292900    17.478814  -0.38375988            0  -0.33792853 0.0022962833 
  293000    17.513232  -0.38368845            0  -0.33776685 0.0034079624 
  293100    17.490597   -0.3837058            0  -0.33784355 0.0054077003 
  293200     17.32315  -0.38322066            0  -0.33779748 0.0062376294 
  293300    17.405759   -0.3835847            0  -0.33794491 0.0016479231 
  293400    17.357582  -0.38334043            0  -0.33782696 0.0061009645 
  293500    17.305832  -0.38320867            0   -0.3378309 0.0051897667 
  293600    17.390543  -0.38354203            0  -0.33794214 -0.00066808253 
  293700    17.284001  -0.38317483            0   -0.3378543 0.0053616718 
  293800    17.358924  -0.38341359            0   -0.3378966 0.0045311511 
  293900    17.418043  -0.38359517            0  -0.33792316 0.0012397449 
  294000    17.414364  -0.38366043            0  -0.33799808 0.0032787098 
  294100    17.373998  -0.38360041            0  -0.33804389 0.0096764182 
  294200    17.496597  -0.38389767            0  -0.33801969 0.0033928053 
  294300    17.503456  -0.38403078            0  -0.33813481 0.00024029877 
  294400    17.571786  -0.38407696            0  -0.33800183  0.004048027 
  294500    17.551406  -0.38397119            0  -0.33794949 0.0057527423 
  294600    17.460224  -0.38363415            0  -0.33785154 0.0042081491 
  294700    17.587094   -0.3838468            0  -0.33773153 0.00067507721 
  294800    17.404479  -0.38331427            0  -0.33767783 0.0066055901 
  294900    17.599628  -0.38376078            0  -0.33761264 0.0021246382 
  295000    17.568129  -0.38370465            0  -0.33763911 0.0031486004 
  295100    17.478298  -0.38373642            0  -0.33790642 0.0014786497 
  295200    17.414997  -0.38347641            0  -0.33781239 0.0073834396 
  295300    17.508435  -0.38382748            0  -0.33791845 0.0028555372 
  295400    17.541145   -0.3839184            0  -0.33792361 0.0029579698 
  295500    17.430349  -0.38361687            0   -0.3379126  0.013013623 
  295600    17.715954  -0.38435783            0  -0.33790467 0.0052931907 
  295700    17.687734  -0.38422461            0  -0.33784545 0.0025731319 
  295800    17.517986  -0.38377776            0   -0.3378437  0.002715082 
  295900    17.526396   -0.3838033            0  -0.33784719 0.0043394144 
  296000    17.554567  -0.38396329            0  -0.33793331  0.004538507 
  296100    17.630292  -0.38414814            0  -0.33791959 0.0033060504 
  296200    17.630515  -0.38406374            0  -0.33783461  0.002612547 
  296300     17.43086  -0.38373808            0  -0.33803247 0.0077118512 
  296400    17.416633  -0.38347472            0  -0.33780642 0.0083331519 
  296500    17.637575  -0.38407074            0   -0.3378231 0.0042423864 
  296600    17.503506   -0.3837917            0   -0.3378956 0.0084629499 
  296700    17.617061  -0.38398856            0  -0.33779471 3.1712454e-05 
  296800    17.524301  -0.38373012            0   -0.3377795 0.00050536128 
  296900    17.746999  -0.38432388            0  -0.33778932 -0.0013537013 
  297000    17.515716    -0.383699            0  -0.33777088  0.012485107 
  297100    17.631453  -0.38398671            0  -0.33775512 0.0037858953 
  297200    17.422561  -0.38341764            0  -0.33773379 0.0017455345 
  297300    17.438304  -0.38356052            0  -0.33783539 0.00086482845 
  297400    17.563752  -0.38382168            0  -0.33776761 0.0039440416 
  297500    17.501351  -0.38371697            0  -0.33782653 0.0079642975 
  297600    17.543738  -0.38385059            0    -0.337849 0.00069423263 
  297700    17.649638  -0.38403933            0  -0.33776006 -0.0044789192 
  297800    17.461689  -0.38356427            0  -0.33777782 0.0058567082 
  297900    17.741152  -0.38389414            0  -0.33737491 0.0014319649 
  298000    17.553987  -0.38369796            0   -0.3376695 0.0056296997 
  298100    17.631698   -0.3837403            0  -0.33750807  0.004158418 
  298200    17.575745  -0.38369897            0  -0.33761346 0.0044406459 
  298300    17.717989  -0.38416767            0  -0.33770917 -0.0016013052 
  298400    17.489428  -0.38371226            0  -0.33785308 0.0030168132 
  298500    17.408231  -0.38366813            0  -0.33802185 0.0043506399 
  298600    17.458581  -0.38365116            0  -0.33787286 0.0061160455 
  298700    17.401893  -0.38361605            0   -0.3379864  0.006293039 
  298800    17.332291  -0.38350995            0   -0.3380628 0.0014622999 
  298900     17.22416   -0.3830889            0  -0.33792528 0.0022798823 
  299000    17.306573  -0.38326109            0  -0.33788137 0.00088662045 
  299100    17.361546  -0.38337254            0  -0.33784868 0.0010362072 
  299200    17.350249  -0.38334337            0  -0.33784912 0.0033938442 
  299300    17.318955  -0.38336173            0  -0.33794955 0.0054078566 
  299400    17.366158  -0.38332099            0  -0.33778503 0.0013347623 
  299500    17.218752  -0.38307607            0  -0.33792663  0.004665189 
  299600    17.339737  -0.38331008            0   -0.3378434 0.0013319151 
  299700     17.45245  -0.38363034            0  -0.33786812 -0.001958803 
  299800    17.252334  -0.38307674            0  -0.33783925 0.0091900429 
  299900    17.243797  -0.38339078            0  -0.33817567 0.0059575868 
  300000    17.390994  -0.38355608            0    -0.337955 -0.0034384198 
  300100    17.255538  -0.38326582            0  -0.33801992 0.0040282938 
  300200    17.471114  -0.38380809            0  -0.33799693 0.0023799792 
  300300    17.415481  -0.38357529            0  -0.33791001 0.0027261309 
  300400    17.371467  -0.38329376            0  -0.33774388 0.0014485975 
  300500    17.379145   -0.3833112            0  -0.33774119  0.003621315 
  300600    17.446957  -0.38338055            0  -0.33763274 0.0043124944 
  300700     17.57808  -0.38363942            0  -0.33754778 0.0032571181 
  300800    17.510258  -0.38357583            0  -0.33766203 0.0053125681 
  300900    17.381548  -0.38346134            0  -0.33788503 0.0052258484 
  301000    17.442052  -0.38370025            0  -0.33796529 0.0024053365 
  301100    17.508079  -0.38370828            0  -0.33780019 0.0047718108 
  301200    17.446925  -0.38355843            0   -0.3378107 0.0075072676 
  301300    17.416952  -0.38360688            0  -0.33793774 0.00052985787 
  301400    17.526619  -0.38380351            0   -0.3378468 0.0024664831 
  301500    17.540253  -0.38373831            0  -0.33774586 0.0057622506 
  301600    17.543595  -0.38375487            0  -0.33775366 0.0014002228 
  301700    17.561355   -0.3837431            0  -0.33769532 0.0020926704 
  301800    17.536865  -0.38372582            0  -0.33774226 0.0068967536 
  301900    17.714954  -0.38420406            0  -0.33775352 0.0050581225 
  302000    17.641402  -0.38392718            0  -0.33766951 0.0044786159 
  302100    17.631964  -0.38402474            0  -0.33779182 0.00090876712 
  302200    17.629811  -0.38391345            0  -0.33768617 0.0058394034 
  302300    17.694077  -0.38411038            0  -0.33771459 0.0063560943 
  302400    17.535229  -0.38372807            0  -0.33774879 0.0048928981 
  302500    17.410466  -0.38341857            0  -0.33776643 0.0021005506 
  302600    17.390428  -0.38345163            0  -0.33785204 -0.0023181335 
  302700    17.552058  -0.38383905            0  -0.33781565 0.0012589132 
  302800    17.485448  -0.38368533            0  -0.33783659 0.0094703273 
  302900    17.539576  -0.38385265            0  -0.33786198 0.0029141112 
  303000     17.43572   -0.3836107            0  -0.33789235 -0.00053117715 
  303100    17.426547  -0.38351061            0  -0.33781631 0.00068407224 
  303200    17.404279  -0.38337835            0  -0.33774244 0.0056927954 
  303300    17.537781  -0.38368076            0  -0.33769479 0.0031740566 
  303400    17.472132  -0.38362625            0  -0.33781242 0.0050969334 
  303500     17.39776  -0.38341824            0  -0.33779942 0.0079546769 
  303600    17.476844  -0.38352304            0  -0.33769686 0.00028615576 
  303700    17.289524  -0.38316408            0  -0.33782907 0.0026704615 
  303800    17.436028  -0.38345588            0  -0.33773672 0.0046489923 
  303900    17.536485  -0.38364793            0  -0.33766536 0.0021403324 
  304000    17.453376  -0.38369914            0  -0.33793449 0.0028783751 
  304100    17.493875  -0.38371663            0  -0.33784579 0.0067988775 
  304200    17.432073   -0.3835343            0  -0.33782551 0.0042729405 
  304300    17.289067  -0.38325007            0  -0.33791626 0.0022169204 
  304400     17.36668  -0.38341328            0  -0.33787595 0.0031660763 
  304500     17.40247  -0.38353617            0    -0.337905 0.0022527789 
  304600    17.210876  -0.38311174            0  -0.33798296 0.0045572566 
  304700    17.193218   -0.3830231            0  -0.33794061 0.0028266079 
  304800    17.246984  -0.38315533            0  -0.33793186 0.0053408156 
  304900    17.266034  -0.38318001            0  -0.33790659 0.0050310122 
  305000    17.281974  -0.38322936            0  -0.33791414 0.0012797508 
  305100    17.071799  -0.38268946            0  -0.33792535 0.0055096187 
  305200    17.173817  -0.38293368            0  -0.33790207  0.000894422 
  305300    17.133382  -0.38264927            0  -0.33772368 0.00095289048 
  305400    17.106312  -0.38271089            0  -0.33785628  0.001101732 
  305500    17.074354  -0.38244633            0  -0.33767551 0.0079125533 
  305600     17.21064  -0.38285093            0  -0.33772276 0.0022846628 
  305700    17.089922  -0.38253376            0  -0.33772213 0.0028689551 
  305800    17.193942   -0.3828636            0  -0.33777922  0.005222762 
  305900    17.388145  -0.38343612            0  -0.33784252 0.0042239779 
  306000    17.414104  -0.38348838            0   -0.3378267 0.0071795078 
  306100     17.41098  -0.38340234            0  -0.33774886 0.0025570909 
  306200    17.300707  -0.38293107            0  -0.33756673 0.0025151453 
  306300    17.415493  -0.38313178            0  -0.33746646 0.0034215393 
  306400    17.477965  -0.38334139            0  -0.33751226 0.0066277527 
  306500    17.415204  -0.38315497            0  -0.33749041 0.0037744641 
  306600    17.209697  -0.38277076            0  -0.33764506  0.002734148 
  306700    17.328699  -0.38315257            0  -0.33771483 0.0018344155 
  306800    17.426114  -0.38354741            0  -0.33785424 0.0025600048 
  306900    17.265212  -0.38304263            0  -0.33777136 0.0058052403 
  307000    17.254642  -0.38302479            0  -0.33778124 0.0010987446 
  307100    17.258697  -0.38304005            0  -0.33778587  0.003263301 
  307200    17.506303  -0.38377971            0  -0.33787628 0.0042368424 
  307300    17.487978  -0.38374726            0  -0.33789188 0.0073011029 
  307400    17.492041   -0.3837328            0  -0.33786677  0.002695523 
  307500    17.484845  -0.38375675            0  -0.33790958 0.0032269295 
  307600    17.519475  -0.38384991            0  -0.33791194 0.0026495266 
  307700    17.432084  -0.38358454            0  -0.33787572 0.0042750023 
  307800    17.352343  -0.38343351            0  -0.33793378 0.0044198145 
  307900    17.608678  -0.38396518            0  -0.33779331  0.001673746 
  308000    17.482624  -0.38370289            0  -0.33786155 0.0073908213 
  308100    17.570319  -0.38391145            0  -0.33784016 0.00065292835 
  308200    17.393668  -0.38343889            0   -0.3378308 0.0040630111 
  308300    17.626195  -0.38390555            0  -0.33768774 0.0015778434 
  308400    17.433318  -0.38357357            0  -0.33786151 0.0073456767 
  308500    17.684883  -0.38418701            0  -0.33781533 0.00043081847 
  308600    17.580272   -0.3839205            0  -0.33782312 0.0031866318 
  308700     17.44844   -0.3836142            0  -0.33786249 0.0057875201 
  308800     17.57345  -0.38396123            0  -0.33788173 0.0035624372 
  308900    17.730406  -0.38439501            0  -0.33790396  0.001899466 
  309000    17.346651  -0.38339119            0  -0.33790638  0.012775533 
  309100    17.481299  -0.38361205            0  -0.33777418 0.0024931135 
  309200    17.276586  -0.38312708            0  -0.33782599 0.0044305546 
  309300    17.266602  -0.38310758            0  -0.33783267 0.0020045911 
  309400    17.301636  -0.38309872            0  -0.33773195 0.0044599615 
  309500    17.449052   -0.3836095            0  -0.33785619 0.00015740764 
  309600     17.25547  -0.38303914            0  -0.33779342 0.0048030793 
  309700    17.299934  -0.38305157            0  -0.33768926 0.0027690835 
  309800    17.311435  -0.38310019            0  -0.33770773 0.0028449946 
  309900    17.364485   -0.3833751            0  -0.33784353 0.0014447054 
  310000    17.422753     -0.38342            0  -0.33773565 0.0032538177 
  310100    17.466818  -0.38349326            0  -0.33769337 0.0053168363 
  310200    17.336884   -0.3831232            0    -0.337664 0.0050367346 
  310300     17.19282  -0.38278495            0  -0.33770351 0.00079687156 
  310400    17.254534  -0.38274254            0  -0.33749928 0.0001159883 
  310500    17.129743  -0.38246322            0  -0.33754717 0.0088043845 
  310600    17.267835  -0.38262023            0  -0.33734209 0.0078510064 
  310700    17.323946  -0.38289792            0  -0.33747265 0.0023691222 
  310800     17.15612   -0.3824107            0  -0.33742549  0.010513531 
  310900    17.379622  -0.38307508            0  -0.33750382 -0.00035568834 
  311000    17.347588  -0.38298185            0  -0.33749459 0.00046825952 
  311100    17.222712  -0.38272933            0  -0.33756951 0.0086889302 
  311200    17.415067  -0.38319736            0  -0.33753316 0.0025055683 
  311300    17.299938  -0.38296495            0  -0.33760263 0.0050831091 
  311400    17.355011  -0.38324847            0  -0.33774174 0.0073988333 
  311500    17.416709  -0.38332694            0  -0.33765844 0.0044230401 
  311600    17.328387  -0.38318247            0  -0.33774555 0.0034590412 
  311700    17.298559  -0.38317209            0  -0.33781339 0.00045271117 
  311800    17.274529  -0.38299786            0  -0.33770216 0.00056236167 
  311900    17.323649  -0.38310529            0   -0.3376808 0.0030080051 
  312000    17.388135  -0.38319972            0  -0.33760614 0.0064968982 
  312100    17.130278  -0.38245619            0  -0.33753874 0.0089579992 
  312200    17.450588  -0.38318467            0  -0.33742733 -0.00076967052 
  312300     17.28551  -0.38311685            0  -0.33779236 0.0048845994 
  312400    17.237275  -0.38282754            0  -0.33762953 0.0063396318 
  312500     17.35897  -0.38312865            0  -0.33761155 0.0012582291 
  312600    17.253548  -0.38281414            0  -0.33757347 0.0044461139 
  312700    17.392122  -0.38343212            0  -0.33782809 -0.00043153655 
  312800    17.201599  -0.38271302            0  -0.33760856 0.0095665667 
  312900    17.447859  -0.38355216            0  -0.33780198 0.0037279474 
  313000    17.413028  -0.38350942            0  -0.33785057 0.0042206553 
  313100    17.305208   -0.3833861            0  -0.33800996 9.4728881e-05 
  313200    17.462794  -0.38377809            0  -0.33798874 -0.0024574941 
  313300      17.5355  -0.38399324            0  -0.33801325 0.0037598275 
  313400    17.498465  -0.38379299            0  -0.33791011 0.0056523264 
  313500    17.438339  -0.38365411            0  -0.33792889 0.0034283969 
  313600    17.293217  -0.38314116            0  -0.33779646 0.0038963309 
  313700     17.39877  -0.38322884            0  -0.33760737 0.0016724875 
  313800     17.18021  -0.38290353            0  -0.33785515 0.0064790833 
  313900    17.367562  -0.38322378            0  -0.33768415 -0.0029988543 
  314000    17.206224  -0.38278654            0  -0.33766995 0.0049305727 
  314100    17.253198  -0.38297066            0   -0.3377309  0.003893372 
  314200    17.256586   -0.3829466            0  -0.33769796  0.000419114 
  314300    17.488822   -0.3834529            0  -0.33759531 0.00030717864 
  314400    17.510797  -0.38355134            0  -0.33763613 0.0057343347 
  314500    17.669187   -0.3840287            0  -0.33769817 0.0024609191 
  314600    17.608869  -0.38379674            0  -0.33762437 0.0041761703 
  314700    17.513706  -0.38359134            0   -0.3376685 0.0028299085 
  314800    17.544909  -0.38366732            0  -0.33766266 0.0004747096 
  314900    17.472613  -0.38348921            0  -0.33767412 0.0050516014 
  315000     17.55587   -0.3836154            0    -0.337582 0.0029308242 
  315100    17.568142  -0.38351422            0  -0.33744864   0.00320506 
  315200    17.632491  -0.38382529            0  -0.33759098 0.0022103768 
  315300    17.766302  -0.38400863            0  -0.33742346 -0.0001202181 
  315400    17.429621  -0.38327868            0  -0.33757632 0.0073388564 
  315500    17.550144  -0.38366556            0  -0.33764717 0.00050394276 
  315600    17.434458  -0.38337428            0  -0.33765923 0.0061926574 
  315700    17.497688  -0.38360317            0  -0.33772233 0.0016186936 
  315800    17.369291  -0.38322708            0  -0.33768291 -0.00024685584 
  315900    17.404189  -0.38330001            0  -0.33766433 0.0016805843 
  316000    17.517803  -0.38346452            0  -0.33753094 0.0077893869 
  316100    17.609231  -0.38357842            0   -0.3374051 0.0027299939 
  316200    17.466084    -0.383124            0  -0.33732603 0.0014307092 
  316300    17.432235  -0.38320811            0   -0.3374989 0.0025048011 
  316400    17.700154  -0.38386068            0  -0.33744895 -0.00030296142 
  316500    17.712893  -0.38390097            0  -0.33745584 0.0096402971 
  316600    17.592892  -0.38381388            0   -0.3376834 0.0061462943 
  316700    17.366688  -0.38317065            0   -0.3376333 0.0020663723 
  316800    17.414492   -0.3834098            0  -0.33774711 -0.00033936103 
  316900    17.508802  -0.38364482            0  -0.33773483 0.0025497317 
  317000    17.459159  -0.38349202            0   -0.3377122 0.0068123328 
  317100    17.496709  -0.38359513            0  -0.33771685 0.0043006948 
  317200    17.497722  -0.38357079            0  -0.33768986  0.001938163 
  317300    17.391845  -0.38342831            0    -0.337825 0.0063364277 
  317400    17.666025  -0.38401707            0  -0.33769483 0.0023115253 
  317500    17.480701   -0.3835431            0   -0.3377068  0.006910336 
  317600    17.635431  -0.38384379            0  -0.33760177 -0.00094384815 
  317700    17.541552  -0.38343764            0  -0.33744179 0.0037221057 
  317800    17.537244  -0.38344149            0  -0.33745693 0.0052973792 
  317900    17.612239  -0.38361093            0  -0.33742972 0.00051475146 
  318000    17.785594  -0.38391765            0  -0.33728189 -0.00010261526 
  318100    17.703741  -0.38364374            0  -0.33722261  0.006020777 
  318200    17.690009  -0.38365183            0   -0.3372667 0.0034533797 
  318300    17.614683  -0.38337227            0  -0.33718466  0.004321416 
  318400    17.757842  -0.38375944            0  -0.33719644 0.0021186447 
  318500    17.666855  -0.38341369            0  -0.33708928 0.0070934882 
  318600    17.759259  -0.38377371            0    -0.337207 0.00096470412 
  318700    17.501044  -0.38328022            0  -0.33739058 0.0050917571 
  318800    17.550609  -0.38334187            0  -0.33732226 0.0063165223 
  318900    17.604852  -0.38360402            0  -0.33744218 0.0052598184 
  319000    17.747784  -0.38390158            0  -0.33736496 0.0013036704 
  319100    17.500809   -0.3833481            0  -0.33745908  0.010287205 
  319200    17.539748  -0.38340545            0  -0.33741433 0.0036846576 
  319300    17.302406   -0.3830109            0  -0.33764211 0.00044576783 
  319400     17.41124  -0.38308165            0  -0.33742748 0.00092211217 
  319500    17.505172  -0.38318488            0  -0.33728442  0.007548324 
  319600    17.768082  -0.38386259            0  -0.33727275 0.0035327897 
  319700    17.642172  -0.38350605            0  -0.33724636 0.0076995295 
  319800    17.647606  -0.38348686            0  -0.33721291  0.004427716 
  319900    17.536627  -0.38313068            0  -0.33714774 0.0046159038 
  320000    17.442468   -0.3828953            0  -0.33715926 0.0014099682 
  320100    17.463639  -0.38299829            0  -0.33720673 0.0020607362 
  320200    17.408006   -0.3829431            0  -0.33729741 0.0035047335 
  320300    17.422779  -0.38293954            0  -0.33725512 0.00012672984 
  320400    17.448867   -0.3829386            0  -0.33718578 0.0020819322 
  320500    17.504434   -0.3830437            0  -0.33714517 0.0053232436 
  320600    17.565849  -0.38324382            0  -0.33718425 0.0025124607 
  320700    17.554519  -0.38322348            0  -0.33719363 0.0051129235 
  320800     17.60663  -0.38346041            0  -0.33729391 0.0049422861 
  320900    17.579752  -0.38342156            0  -0.33732554 0.0052401929 
  321000    17.629947  -0.38358887            0  -0.33736123 0.0019331863 
  321100    17.520574  -0.38335297            0  -0.33741212 0.00063075013 
  321200    17.337874  -0.38311684            0  -0.33765505 0.0058501034 
  321300    17.543314  -0.38358101            0  -0.33758053 0.00086182204 
  321400    17.460419    -0.383428            0  -0.33764488 0.0038835061 
  321500    17.614294  -0.38376609            0  -0.33757949 0.0007358346 
  321600    17.452976  -0.38351712            0  -0.33775352 0.0045315832 
  321700    17.508455  -0.38361457            0   -0.3377055 0.0028738702 
  321800    17.481153  -0.38356908            0  -0.33773159 0.0035618479 
  321900    17.529152  -0.38368608            0  -0.33772273 0.0040027584 
  322000    17.540903  -0.38375524            0  -0.33776108 0.0026404824 
  322100    17.305139  -0.38321011            0  -0.33783415 0.0060685787 
  322200    17.355643  -0.38331146            0  -0.33780308 0.0046754483 
  322300    17.531998  -0.38362414            0  -0.33765334 0.0037412453 
  322400    17.715238  -0.38404584            0  -0.33759455 0.0042919478 
  322500    17.720036  -0.38394543            0  -0.33748157 0.0031033822 
  322600    17.564895  -0.38355341            0  -0.33749635 0.0018982286 
  322700    17.535865  -0.38343343            0  -0.33745249 0.0031863453 
  322800    17.757001  -0.38400679            0    -0.337446 0.0040579282 
  322900    17.782924  -0.38420335            0  -0.33757459  0.005550173 
  323000    17.731726  -0.38395195            0  -0.33745743 0.00079284307 
  323100     17.63127  -0.38356535            0  -0.33733425 0.0013343114 
  323200    17.618954  -0.38376002            0  -0.33756121 0.0034416281 
  323300    17.714816   -0.3837863            0  -0.33733613 0.0024320282 
  323400    17.806066  -0.38409626            0  -0.33740682 0.0016078323 
  323500    17.461518  -0.38335974            0  -0.33757374 0.0095538177 
  323600    17.608402  -0.38361142            0  -0.33744027 0.00023135052 
  323700    17.692155  -0.38390635            0  -0.33751559 1.2368186e-06 
  323800    17.832784  -0.38412827            0  -0.33736877 0.0068018304 
  323900    18.009958   -0.3846403            0  -0.33741623 0.0038087063 
  324000    18.061349  -0.38465226            0  -0.33729343 0.0029087727 
  324100    17.821322  -0.38409007            0  -0.33736062 0.0065078205 
  324200    17.784708  -0.38408074            0   -0.3374473  0.003029246 
  324300    17.742801  -0.38401575            0  -0.33749219 0.0013094061 
  324400    17.610336  -0.38365875            0  -0.33748254 0.0039665779 
  324500    17.700434  -0.38382117            0   -0.3374087 0.0020770079 
  324600    17.763428  -0.38391076            0  -0.33733312 0.0043886359 
  324700    17.660033  -0.38374131            0  -0.33743478 0.0093883229 
  324800    17.738593  -0.38384606            0  -0.33733354 0.0040353947 
  324900    17.651271  -0.38350353            0  -0.33721998 0.0029256601 
  325000    17.655826  -0.38346862            0  -0.33717313 0.0030726223 
  325100    17.734693  -0.38376252            0  -0.33726023 0.00028268504 
  325200    17.658737  -0.38357736            0  -0.33727423 0.0064648857 
  325300    17.611988   -0.3835908            0  -0.33741025  0.011245875 
  325400    17.833464  -0.38416502            0  -0.33740374 -0.0010758921 
  325500    17.557924  -0.38357855            0  -0.33753977   0.00102189 
  325600    17.544205  -0.38357579            0  -0.33757297 -0.00052722486 
  325700    17.596785  -0.38370449            0  -0.33756381  0.004388609 
  325800    17.767958  -0.38417747            0  -0.33758795 0.0071305145 
  325900    17.722967  -0.38393611            0  -0.33746456 0.0074481976 
  326000    17.855181   -0.3843587            0  -0.33754047 0.0025640469 
  326100    17.853078  -0.38429739            0  -0.33748468 0.0043346009 
  326200    17.787454  -0.38419984            0   -0.3375592 0.0032813169 
  326300    17.782808  -0.38411025            0  -0.33748179 0.0038133754 
  326400    17.643564  -0.38371852            0  -0.33745518 0.0081919836 
  326500    17.766733  -0.38398105            0  -0.33739475 0.0021454527 
  326600    17.737237  -0.38384712            0  -0.33733816  0.002819723 
  326700    17.775054  -0.38390072            0   -0.3372926 0.0059818411 
  326800    17.899319  -0.38420185            0  -0.33726789 0.0027822197 
  326900    17.683859  -0.38385019            0  -0.33748119 0.0070488155 
  327000    17.716198  -0.38372715            0  -0.33727336 0.0086120627 
  327100     17.78017  -0.38403561            0  -0.33741407 0.0046382877 
  327200    17.822225  -0.38419648            0  -0.33746466 0.00058500864 
  327300     17.64397  -0.38359359            0  -0.33732918 0.0041748699 
  327400    17.697955   -0.3837387            0  -0.33733274 0.00016279426 
  327500    17.526224   -0.3831254            0  -0.33716973 0.0037660555 
  327600    17.672421  -0.38344007            0  -0.33710106 -9.1421403e-05 
  327700    17.633881  -0.38343047            0  -0.33719251 0.0062967167 
  327800    17.710448  -0.38341463            0  -0.33697591 0.0081435674 
  327900    17.765332  -0.38350335            0  -0.33692072  0.005266684 
  328000    17.607174  -0.38312036            0  -0.33695243 0.0054328827 
  328100     17.69271  -0.38345911            0   -0.3370669 0.0018411015 
  328200    17.707258  -0.38336346            0  -0.33693311 0.0041627981 
  328300    17.590219  -0.38325184            0  -0.33712837 0.0047149524 
  328400    17.556701  -0.38317631            0  -0.33714073 0.00085322204 
  328500    17.447041  -0.38292228            0  -0.33717424 0.0033165682 
  328600    17.552802  -0.38320404            0  -0.33717868 0.0008583306 
  328700    17.417938  -0.38291269            0  -0.33724096 0.0098546281 
  328800     17.64782   -0.3833763            0   -0.3371018 0.0031464674 
  328900    17.526229  -0.38320221            0  -0.33724653 0.00039311821 
  329000    17.474579  -0.38301847            0  -0.33719822 0.0014828632 
  329100    17.441743  -0.38293031            0  -0.33719616 0.0044678618 
  329200    17.454671  -0.38300587            0  -0.33723782 0.0017386647 
  329300    17.221257  -0.38260668            0  -0.33745067 0.0074085296 
  329400    17.315477  -0.38265248            0  -0.33724942 0.0055399538 
  329500    17.498148  -0.38308913            0  -0.33720708 -0.00096877464 
  329600    17.466113  -0.38298649            0  -0.33718844 0.0047995853 
  329700    17.443604  -0.38314751            0  -0.33740848 0.0074834216 
  329800     17.59045  -0.38335205            0  -0.33722798 0.0032754013 
  329900    17.533721  -0.38328171            0  -0.33730638 0.0050540167 
  330000    17.614136  -0.38347246            0  -0.33728628 0.0062629014 
  330100    17.781403  -0.38386553            0  -0.33724076 0.0011783335 
  330200    17.586273  -0.38338391            0  -0.33727079 0.0027894927 
  330300    17.598146  -0.38351931            0  -0.33737505 0.0016254209 
  330400    17.737007  -0.38387598            0  -0.33736761 0.0026084489 
  330500    17.772859  -0.38395391            0  -0.33735154 0.0065435717 
  330600    17.841619   -0.3840596            0  -0.33727693 0.0056899153 
  330700    17.958997   -0.3842919            0  -0.33720146 -6.8684186e-06 
  330800    17.713102  -0.38373126            0  -0.33728558 0.0071520716 
  330900    18.003813  -0.38443174            0  -0.33722378 0.0020171646 
  331000    17.972538  -0.38433049            0  -0.33720454 0.0046807219 
  331100    17.976305   -0.3843842            0  -0.33724838  0.006466414 
  331200    17.907649  -0.38418547            0  -0.33722967 0.0080761749 
  331300    17.930611  -0.38414419            0  -0.33712817 0.0004642841 
  331400    17.721892  -0.38356614            0  -0.33709741 0.0020418874 
  331500    17.647741  -0.38324107            0  -0.33696677 0.0067484918 
  331600    17.732276  -0.38341939            0  -0.33692343 0.0038789038 
  331700    17.706368   -0.3833923            0  -0.33696428 0.0037922591 
  331800    17.588174  -0.38327986            0  -0.33716175 0.0040591088 
  331900    17.590017  -0.38314736            0  -0.33702442 0.00066766489 
  332000    17.355068  -0.38268297            0   -0.3371761 0.0013341031 
  332100    17.384415    -0.382753            0  -0.33716917 0.0011367307 
  332200     17.39231  -0.38287028            0  -0.33726575 0.0032151903 
  332300    17.623489  -0.38352073            0  -0.33731002 0.0007245695 
  332400    17.444709  -0.38300725            0  -0.33726532  0.010224174 
  332500    17.703153  -0.38373103            0  -0.33731143 0.0017209024 
  332600    17.692061  -0.38374317            0  -0.33735266 0.0019518784 
  332700     17.54831  -0.38342538            0   -0.3374118 0.0083156762 
  332800    17.735254  -0.38375592            0  -0.33725215 0.00043334485 
  332900    17.809708  -0.38393386            0  -0.33723487 0.00046667649 
  333000    17.763552  -0.38397717            0   -0.3373992 0.0047183591 
  333100      17.7533   -0.3838091            0  -0.33725802 0.0059256837 
  333200    17.584279   -0.3834583            0  -0.33735041 0.0061307876 
  333300    17.857344  -0.38408765            0  -0.33726375 -0.0021566387 
  333400    17.700364  -0.38361917            0  -0.33720689 0.0069749226 
  333500    17.852957   -0.3841138            0   -0.3373014 0.0053514853 
  333600     17.69527  -0.38373804            0  -0.33733912 0.0078454267 
  333700    17.729037  -0.38377212            0  -0.33728465 0.0024261712 
  333800    17.548771  -0.38329576            0  -0.33728098 0.0020513198 
  333900    17.518768  -0.38336881            0  -0.33743269 0.00040530097 
  334000    17.472698  -0.38316859            0  -0.33735327 0.0032277355 
  334100    17.713095  -0.38364406            0   -0.3371984  0.001461077 
  334200    17.823521  -0.38396514            0  -0.33722993 0.0053092763 
  334300     17.82999  -0.38383381            0  -0.33708164 0.0046797177 
  334400    17.780193  -0.38382536            0  -0.33720376 -0.0011705043 
  334500    17.546352  -0.38324476            0  -0.33723632 0.0080151198 
  334600     17.78813  -0.38385318            0  -0.33721077 0.0029380086 
  334700    17.419173  -0.38294073            0  -0.33726577 0.0078618848 
  334800    17.549925  -0.38337555            0  -0.33735774 0.0015929099 
  334900    17.518074  -0.38306579            0   -0.3371315 0.0036235982 
  335000    17.470048  -0.38297446            0  -0.33716609 0.0065829428 
  335100     17.63373   -0.3834278            0  -0.33719024 0.0039368921 
  335200    17.580296  -0.38318062            0  -0.33708317 0.0052719066 
  335300    17.473457  -0.38300999            0  -0.33719268  0.007517674 
  335400    17.634846  -0.38348184            0  -0.33724136 0.0034001285 
  335500      17.4439  -0.38300892            0  -0.33726912 0.0046681418 
  335600    17.552614  -0.38340402            0  -0.33737915 -0.0011588591 
  335700    17.428988  -0.38310037            0  -0.33739967 0.0028364428 
  335800    17.372319  -0.38295193            0  -0.33739982 0.0024916986 
  335900    17.257686  -0.38272781            0  -0.33747628 0.0059032961 
  336000    17.508998  -0.38338115            0  -0.33747065 0.0019023342 
  336100    17.555468  -0.38335747            0  -0.33732512 0.0052069832 
  336200    17.680994  -0.38365484            0  -0.33729335 0.0084901004 
  336300    17.616756  -0.38348746            0   -0.3372944 0.0070861729 
  336400    17.456811  -0.38322541            0  -0.33745175 0.0012510949 
  336500    17.325123   -0.3828114            0  -0.33738304 0.0057559617 
  336600    17.423587   -0.3830527            0  -0.33736616 0.0040672584 
  336700    17.439354  -0.38301767            0  -0.33728979 0.0043492476 
  336800     17.48418  -0.38318239            0  -0.33733697 0.0024334844 
  336900    17.473628   -0.3830323            0  -0.33721455  0.003811358 
  337000    17.641321  -0.38349913            0  -0.33724166 0.00091820518 
  337100    17.766351  -0.38377847            0  -0.33719316 0.0010082315 
  337200    17.591917  -0.38334721            0  -0.33721928 0.0059051291 
  337300    17.479561  -0.38309311            0   -0.3372598 0.0057354203 
  337400    17.584309   -0.3832412            0  -0.33713323  0.001745006 
  337500    17.618398  -0.38348141            0  -0.33728406 0.0021904278 
  337600    17.645538  -0.38342197            0  -0.33715345 0.0062832096 
  337700    17.631861  -0.38343318            0  -0.33720052 0.0071312595 
  337800    17.701623  -0.38346252            0  -0.33704694 0.0044489758 
  337900     17.68346  -0.38340173            0  -0.33703377 0.0043851004 
  338000    17.677949  -0.38343932            0  -0.33708581 0.0047373343 
  338100    17.680565  -0.38373722            0  -0.33737686 0.0060320394 
  338200    17.691496  -0.38351876            0  -0.33712974 0.0049678418 
  338300    17.535869  -0.38324087            0  -0.33725991 0.0014279109 
  338400    17.322434  -0.38261592            0  -0.33719461 0.0058735105 
  338500     17.37514  -0.38279128            0  -0.33723177    0.0035507 
  338600    17.442966  -0.38292489            0  -0.33718754 0.0044589544 
  338700    17.441062  -0.38288135            0  -0.33714899 0.0070607085 
  338800    17.580946   -0.3832169            0  -0.33711775 -0.0010739334 
  338900    17.269387   -0.3823682            0  -0.33708599 0.0053553468 
  339000     17.41533  -0.38275867            0  -0.33709378 0.0025441925 
  339100    17.430511  -0.38275877            0  -0.33705408  0.003806356 
  339200    17.487837  -0.38286031            0   -0.3370053 0.0044795649 
  339300    17.349404  -0.38256148            0  -0.33706946 0.0067180605 
  339400    17.333562   -0.3824369            0  -0.33698642 -0.0010594233 
  339500    16.981552  -0.38176381            0  -0.33723634 0.0030789534 
  339600    17.422042  -0.38274274            0  -0.33706025 -0.0018312744 
  339700    17.300329  -0.38253885            0  -0.33717551 0.0079193247 
  339800    17.371104  -0.38282055            0  -0.33727163 0.0034743418 
  339900    17.274436  -0.38251123            0  -0.33721578 0.0021410302 
  340000    17.290585  -0.38246866            0  -0.33713087  0.001993992 
  340100    17.246511  -0.38238628            0  -0.33716405 0.0060891147 
  340200    17.369324  -0.38264452            0  -0.33710026 0.0028976027 
  340300    17.425541   -0.3828135            0  -0.33712184 0.0021032867 
  340400     17.27015  -0.38226993            0  -0.33698572 0.0075626076 
  340500     17.42264  -0.38277563            0  -0.33709157 0.00064987116 
  340600    17.289664  -0.38233271            0  -0.33699733 0.0063309539 
  340700     17.27234  -0.38239655            0   -0.3371066 0.0066962662 
  340800    17.277723  -0.38253182            0  -0.33722775 0.0023676874 
  340900    17.200279  -0.38213538            0  -0.33703438 0.0015590108 
  341000    17.098428  -0.38182807            0  -0.33699413 0.0029346595 
  341100    17.158107  -0.38195093            0  -0.33696051 -7.3009308e-05 
  341200    17.124512  -0.38177478            0  -0.33687244 0.0045522206 
  341300    17.238879  -0.38210957            0  -0.33690735 0.0038055173 
  341400    17.166873  -0.38216111            0   -0.3371477 0.0064108405 
  341500     17.20032  -0.38212712            0  -0.33702601 0.0020850116 
  341600    17.115079  -0.38198044            0  -0.33710284 0.00057792241 
  341700    16.990151  -0.38176991            0  -0.33721988  0.004370706 
  341800    16.918448  -0.38169694            0  -0.33733493 0.0036836143 
  341900    16.902374  -0.38168122            0  -0.33736136 0.00071920896 
  342000    16.962836  -0.38173128            0  -0.33725288 0.0029461278 
  342100    17.033963  -0.38197035            0  -0.33730545 0.0047646367 
  342200    17.125643  -0.38216519            0   -0.3372599 0.0042969713 
  342300    17.143817   -0.3821537            0  -0.33720074 0.0045825335 
  342400      17.2472  -0.38247376            0  -0.33724972 0.0025861042 
  342500    17.228522  -0.38242896            0   -0.3372539 0.0030055022 
  342600    17.358577  -0.38266274            0  -0.33714666 0.0029312301 
  342700    17.366197  -0.38277783            0  -0.33724177 0.0050273603 
  342800    17.184325  -0.38234721            0  -0.33728804 0.0056060707 
  342900    17.206164  -0.38226357            0  -0.33714713 0.00090597724 
  343000    17.358102  -0.38272813            0   -0.3372133 -2.2817625e-05 
  343100    17.514374  -0.38305415            0  -0.33712956 0.0079536582 
  343200    17.587364   -0.3833004            0  -0.33718442 0.0081673655 
  343300    17.438099  -0.38285293            0  -0.33712834 0.0039950147 
  343400    17.317799  -0.38256974            0  -0.33716058 -5.5482969e-05 
  343500    17.158993  -0.38229265            0   -0.3372999 0.0030079938 
  343600    17.266942  -0.38247273            0  -0.33719693 0.0027497714 
  343700     17.20605  -0.38223738            0  -0.33712124 0.0041549166 
  343800    17.213518  -0.38218629            0  -0.33705057 -0.0017574418 
  343900    17.082626   -0.3820628            0   -0.3372703 0.0029356996 
  344000    17.462858  -0.38269003            0  -0.33690052 0.0031028676 
  344100    17.448692  -0.38285668            0  -0.33710431 0.0062665038 
  344200    17.649039  -0.38349652            0  -0.33721882 -0.0003213373 
  344300    17.060867  -0.38219938            0  -0.33746393  0.013796129 
  344400    17.236053  -0.38264058            0  -0.33744578 4.2426396e-05 
  344500    17.079677  -0.38231509            0  -0.33753032 0.00023163035 
  344600    17.082662  -0.38221792            0  -0.33742533 0.0049812891 
  344700    17.308411  -0.38272121            0  -0.33733667 0.0036191198 
  344800    17.288953  -0.38261203            0  -0.33727852  0.003810743 
  344900    17.243543  -0.38247766            0  -0.33726321 0.0025873409 
  345000    17.202607  -0.38230409            0  -0.33719699 0.0026836808 
  345100    17.286554  -0.38229337            0  -0.33696615 -0.0002067907 
  345200    17.007666  -0.38181226            0  -0.33721631 0.0066442449 
  345300    17.253878  -0.38220865            0  -0.33696711 0.0021946105 
  345400    17.158778  -0.38198672            0  -0.33699454 0.0039726848 
  345500    17.168364   -0.3820941            0  -0.33707678  0.004158547 
  345600      17.2448  -0.38240614            0   -0.3371884 0.0031894384 
  345700    17.003835   -0.3819881            0  -0.33740219 0.0035651565 
  345800    17.164446  -0.38231517            0  -0.33730813 -0.0014886835 
  345900    17.110671  -0.38205314            0   -0.3371871 0.0061212984 
  346000    17.221965  -0.38232261            0  -0.33716475 0.0051332842 
  346100     17.20029   -0.3823553            0  -0.33725426 0.0048312044 
  346200      17.2471   -0.3824567            0  -0.33723293 0.0042596842 
  346300    17.292739  -0.38248708            0  -0.33714363 0.0034388561 
  346400    17.352556   -0.3826536            0  -0.33715331 -0.0016886339 
  346500    17.209056  -0.38236195            0  -0.33723794 0.0039630799 
  346600     17.53881  -0.38298835            0  -0.33699969 0.0029306839 
  346700    17.506215  -0.38292084            0  -0.33701764 0.0048817302 
  346800    17.533588  -0.38302645            0  -0.33705147 0.0031022959 
  346900    17.284988    -0.382353            0  -0.33702988  0.012194717 
  347000    17.620767  -0.38314376            0  -0.33694019 0.00097152766 
  347100    17.501679  -0.38297463            0  -0.33708332 0.0040736809 
  347200    17.400558  -0.38285899            0  -0.33723283 0.0074654648 
  347300    17.606753  -0.38335163            0  -0.33718481 0.00096068379 
  347400    17.314685  -0.38257486            0  -0.33717387 0.0025364244 
  347500     17.29009  -0.38250724            0  -0.33717075 -0.0006026061 
  347600     17.33661  -0.38252798            0  -0.33706951 0.0030854622 
  347700    17.344103   -0.3825837            0  -0.33710558 0.0013268027 
  347800    17.382343  -0.38275585            0  -0.33717746 0.00050940172 
  347900     17.31673  -0.38257721            0  -0.33717086 0.0034310967 
  348000    17.335194  -0.38274806            0  -0.33729329  0.003129119 
  348100    17.445114  -0.38287832            0  -0.33713534 0.0037779265 
  348200    17.404652   -0.3827919            0  -0.33715501 0.0051632823 
  348300     17.49723  -0.38295946            0  -0.33707982 0.0060712605 
  348400    17.664791  -0.38340534            0  -0.33708634 0.0041391463 
  348500    17.536996  -0.38301069            0  -0.33702678 0.0093143392 
  348600    17.507412  -0.38296624            0   -0.3370599 0.0044654157 
  348700    17.449265  -0.38279461            0  -0.33704074 -0.0003639124 
  348800      17.2737  -0.38254111            0  -0.33724759 0.0019212496 
  348900    17.408311  -0.38262891            0  -0.33698243 0.0021294338 
  349000    17.582891  -0.38309746            0  -0.33699321 0.0022840409 
  349100    17.558096  -0.38306562            0  -0.33702638 0.0035120734 
  349200     17.67097  -0.38313573            0  -0.33680053 0.0061145224 
  349300    17.848537  -0.38348559            0  -0.33668478 0.0035076517 
  349400    17.734892  -0.38354508            0  -0.33704227 0.00055285114 
  349500    17.675475  -0.38336872            0  -0.33702171 0.0054484555 
  349600     17.59337  -0.38317007            0  -0.33703834  0.012124083 
  349700    17.855166  -0.38387133            0  -0.33705315 0.00055046624 
  349800    17.508868   -0.3829449            0  -0.33703475 0.0041459112 
  349900     17.55582  -0.38299803            0  -0.33696476 0.0035872428 
  350000    17.509727  -0.38278943            0  -0.33687703 0.0047426132 
  350100    17.396273  -0.38234289            0  -0.33672797 0.0044561644 
  350200    17.393932  -0.38245874            0  -0.33684996 0.00011248492 
  350300    17.443142  -0.38246991            0  -0.33673209 0.00015927751 
  350400     17.41406  -0.38249058            0  -0.33682902 0.0047470288 
  350500    17.497529  -0.38287044            0  -0.33699002 0.0028943491 
  350600    17.451535  -0.38268344            0  -0.33692362 0.0026112921 
  350700    17.481455  -0.38294046            0  -0.33710218 0.0024521108 
  350800    17.411172  -0.38277207            0  -0.33711808 0.0058676352 
  350900    17.580158  -0.38338927            0  -0.33729218 0.0035784796 
  351000    17.477967  -0.38305888            0  -0.33722974 0.0057411576 
  351100    17.566732  -0.38335524            0  -0.33729335  0.001624609 
  351200    17.473121  -0.38315582            0  -0.33733939 0.0066716949 
  351300    17.895227  -0.38414891            0  -0.33722568 -0.00037749548 
  351400    17.750385  -0.38371765            0  -0.33717421 0.0058136885 
  351500    17.586507  -0.38329814            0   -0.3371844 0.0023380856 
  351600    17.457414   -0.3829387            0  -0.33716347 0.00065602391 
  351700    17.549023  -0.38320944            0    -0.337194 0.0012766102 
  351800    17.791807  -0.38362357            0  -0.33697152  0.006698186 
  351900    17.774584  -0.38364804            0  -0.33704115  0.008028776 
  352000    17.698597  -0.38330066            0  -0.33689301 0.0041963813 
  352100    17.766592  -0.38356533            0  -0.33697939 0.0016174475 
  352200    17.788049  -0.38372134            0  -0.33707914 0.0035781992 
  352300    17.592537  -0.38305184            0  -0.33692229  0.005783796 
  352400    17.232621  -0.38224827            0  -0.33706246 0.0015664234 
  352500    17.110297  -0.38210723            0  -0.33724217 -0.00064066494 
  352600    17.125756  -0.38199789            0  -0.33709229 0.0077697755 
  352700     17.37817  -0.38259165            0   -0.3370242 0.0053098465 
  352800    17.305885  -0.38256982            0  -0.33719191 0.0045368244 
  352900    17.502044  -0.38285823            0  -0.33696597 0.0021248699 
  353000    17.512031  -0.38308304            0  -0.33716459 0.0036440528 
  353100    17.584065  -0.38319372            0  -0.33708639 0.0045663588 
  353200    17.506154  -0.38310618            0  -0.33720314 0.0050191003 
  353300    17.354571  -0.38277635            0  -0.33727078 0.0047292537 
  353400    17.264164  -0.38245431            0   -0.3371858 0.0036430971 
  353500    17.325382  -0.38265814            0   -0.3372291 0.00078065216 
  353600    17.445339  -0.38285804            0  -0.33711447 0.0027286123 
  353700    17.432375  -0.38272432            0  -0.33701474 0.0065976445 
  353800    17.575523  -0.38308869            0  -0.33700375 0.0032261951 
  353900    17.646857  -0.38334645            0  -0.33707448 0.0048031041 
  354000    17.685491  -0.38357403            0  -0.33720075 0.0057986495 
  354100    17.608503  -0.38316996            0  -0.33699855 0.0063405847 
  354200     17.43497  -0.38276716            0  -0.33705078 0.0064296713 
  354300    17.507372  -0.38310735            0  -0.33720111 0.0013807336 
  354400    17.633571  -0.38317585            0  -0.33693871 0.0017334657 
  354500    17.686812  -0.38343251            0  -0.33705576 0.0016528641 
  354600    17.526287  -0.38318865            0  -0.33723282 0.0085332923 
  354700    17.708158  -0.38354103            0  -0.33710832 -0.0016532484 
  354800    17.497267  -0.38303004            0  -0.33715031 -0.00064282127 
  354900    17.414211  -0.38291624            0  -0.33725429 0.0057253419 
  355000    17.506378  -0.38318633            0  -0.33728271  0.008708548 
  355100    17.611819  -0.38346811            0  -0.33728801 0.0020476663 
  355200    17.236714     -0.38259            0  -0.33739346 0.0062365744 
  355300    17.383541  -0.38300348            0  -0.33742194 -0.0012195917 
  355400    17.359885  -0.38279779            0  -0.33727828 0.0019495758 
  355500    17.230429  -0.38244824            0  -0.33726818 0.0069872834 
  355600    17.385178  -0.38262806            0  -0.33704223 -0.00065850286 
  355700    17.278243  -0.38246952            0  -0.33716409 0.0026835958 
  355800    17.338561  -0.38249755            0  -0.33703395 0.0085116276 
  355900    17.412144   -0.3829741            0  -0.33731756 0.0029709278 
  356000    17.363574  -0.38272198            0   -0.3371928 0.0032612815 
  356100    17.304764  -0.38274278            0  -0.33736781 0.0027725827 
  356200    17.307795  -0.38274686            0  -0.33736394 0.00079762601 
  356300    17.151279  -0.38229813            0  -0.33732562 0.0038376526 
  356400    17.032462  -0.38221879            0  -0.33755782 0.0016758061 
  356500    17.181766   -0.3823681            0  -0.33731564 0.0027893905 
  356600    17.229051  -0.38243333            0  -0.33725689  0.008944014 
  356700    17.502673  -0.38312215            0  -0.33722824 0.0035908357 
  356800    17.431169  -0.38307851            0  -0.33737209 0.0052096458 
  356900    17.368851  -0.38266299            0  -0.33711997  0.010235846 
  357000    17.633874  -0.38336543            0  -0.33712749 -0.0025657671 
  357100    17.317497  -0.38238699            0  -0.33697863 0.0031993881 
  357200    17.380804  -0.38259145            0  -0.33701709 0.0018633986 
  357300     17.60359  -0.38299699            0  -0.33683846 0.0024600838 
  357400    17.569149   -0.3829095            0  -0.33684128 0.0072560394 
  357500    17.531826  -0.38304403            0  -0.33707367 0.0022777907 
  357600    17.353954  -0.38267778            0  -0.33717382 0.0017440659 
  357700    17.269263  -0.38262234            0  -0.33734046 0.0034240091 
  357800    17.344628  -0.38301966            0  -0.33754015 0.0019900021 
  357900    17.269679  -0.38289758            0   -0.3376146 0.0053113726 
  358000    17.386774  -0.38323647            0  -0.33764645 0.0054009268 
  358100    17.403033   -0.3832162            0  -0.33758355 0.0076810335 
  358200    17.515103  -0.38338435            0  -0.33745784 0.0019226082 
  358300    17.189853  -0.38258399            0  -0.33751032 0.0017237048 
  358400     17.31872  -0.38271532            0  -0.33730375  0.001415785 
  358500    17.320736  -0.38267572            0  -0.33725887 0.0078957819 
  358600    17.601839  -0.38315359            0  -0.33699965 0.0014461134 
  358700    17.661442  -0.38331397            0  -0.33700375 0.0026963494 
  358800     17.53972  -0.38320585            0   -0.3372148 0.0060070152 
  358900    17.415334  -0.38285574            0  -0.33719084 0.0041205197 
  359000    17.247664  -0.38249298            0  -0.33726773 0.0038824569 
  359100     17.36537  -0.38299466            0  -0.33746078 0.0014957503 
  359200    17.347718  -0.38301365            0  -0.33752605 0.0039820313 
  359300    17.354085  -0.38308648            0  -0.33758218  0.002472156 
  359400    17.368803  -0.38295821            0  -0.33741532  0.004313487 
  359500    17.455987  -0.38312322            0  -0.33735173  0.003481267 
  359600    17.484561  -0.38310448            0  -0.33725806 0.0048225562 
  359700    17.284795  -0.38264329            0  -0.33732068 0.0049031854 
  359800    17.272338  -0.38249469            0  -0.33720475 0.0005690085 
  359900    17.236469  -0.38244947            0  -0.33725358 0.0032779768 
  360000    17.228438  -0.38259449            0  -0.33741965 0.0052940179 
  360100    17.491358  -0.38316458            0  -0.33730033 -0.0011465923 
  360200    17.497272  -0.38324793            0  -0.33736818 -2.3245223e-05 
  360300    17.397614  -0.38281625            0  -0.33719782 0.0073059929 
  360400    17.383021  -0.38293559            0  -0.33735541 0.0063473662 
  360500    17.387151  -0.38256188            0  -0.33697088 0.0038270203 
  360600    17.505145  -0.38312968            0  -0.33722929 0.0013262488 
  360700    17.247848   -0.3825796            0  -0.33735387  0.013243004 
  360800    17.565093  -0.38334583            0  -0.33728825 0.0019877081 
  360900    17.429885   -0.3830614            0  -0.33735835 0.0020451737 
  361000    17.348283  -0.38300439            0  -0.33751531 0.0017033566 
  361100    17.118385  -0.38238363            0  -0.33749736 0.0083382979 
  361200     17.18579  -0.38262754            0  -0.33756453 0.0021122905 
  361300    17.201703  -0.38262172            0  -0.33751698 -0.00034258769 
  361400    17.199548  -0.38258751            0  -0.33748842 0.0047829217 
  361500     17.13844  -0.38261367            0  -0.33767482 0.0053872194 
  361600    17.058853  -0.38235565            0  -0.33762548 0.0040450695 
  361700    17.093168  -0.38247841            0  -0.33765826 0.0019444104 
  361800    17.207154  -0.38269684            0  -0.33757781 0.0017600856 
  361900    17.237139  -0.38269455            0  -0.33749689 0.0049359295 
  362000    17.289615  -0.38264836            0   -0.3373131 0.0002036611 
  362100    17.461818  -0.38295615            0  -0.33716937 -0.0018523139 
  362200    17.547281  -0.38318683            0  -0.33717595  0.009420441 
  362300    17.515329  -0.38304494            0  -0.33711785 0.0074706164 
  362400    17.334062  -0.38250548            0  -0.33705369 -7.437795e-05 
  362500    17.140876  -0.38215155            0   -0.3372063 0.0011779175 
  362600    17.150182  -0.38212605            0  -0.33715641 0.0028807083 
  362700    17.279305  -0.38238105            0  -0.33707283 0.0031997948 
  362800    17.309164  -0.38246374            0  -0.33707723 0.0072274249 
  362900    17.351389  -0.38258934            0  -0.33709212 0.0023059702 
  363000    17.405333  -0.38257711            0  -0.33693843 -0.0010026442 
  363100    17.412116  -0.38281406            0  -0.33715759 0.0017097917 
  363200     17.35006    -0.382707            0  -0.33721326 0.0080701991 
  363300    17.437972  -0.38295423            0  -0.33722997 0.0024131322 
  363400    17.400349  -0.38270813            0  -0.33708252 0.0024602392 
  363500    17.422958  -0.38281736            0  -0.33713247  0.003124273 
  363600      17.6525  -0.38323439            0  -0.33694762 0.00064436668 
  363700    17.690791   -0.3832232            0  -0.33683602 0.0067037923 
  363800    17.566203  -0.38333723            0  -0.33727673 0.0072796057 
  363900    17.573979  -0.38309947            0  -0.33701859 0.0030650691 
  364000     17.56349  -0.38307766            0  -0.33702428 0.0022507678 
  364100    17.471268  -0.38304012            0  -0.33722855 0.0067669265 
  364200     17.47927  -0.38317691            0  -0.33734437 -0.0010303556 
  364300    17.529314  -0.38320203            0  -0.33723826 -0.00095795221 
  364400    17.450961  -0.38300953            0  -0.33725122 0.0071435936 
  364500    17.514971  -0.38314481            0  -0.33721866 0.0040552217 
  364600    17.403237  -0.38272693            0  -0.33709375 0.0029682432 
  364700    17.371852  -0.38277039            0   -0.3372195 0.0039692829 
  364800     17.49586  -0.38297394            0  -0.33709789 0.0032329639 
  364900    17.427531  -0.38271307            0  -0.33701618 0.0017760563 
  365000     17.50333  -0.38307239            0  -0.33717676 0.0022787527 
  365100    17.595548  -0.38331842            0  -0.33718098 0.0087051594 
  365200      17.9391  -0.38418114            0  -0.33714287 0.0018249116 
  365300    17.727686  -0.38361548            0  -0.33713156 0.0054582543 
  365400    17.850026  -0.38377568            0  -0.33697098 0.0023783357 
  365500     17.80887  -0.38372241            0  -0.33702561 0.0039115713 
  365600    17.886721  -0.38385126            0  -0.33695033 0.0037821798 
  365700    17.806597  -0.38354174            0  -0.33685091 0.0075476555 
  365800    17.708286  -0.38353818            0  -0.33710513  0.003925465 
  365900    17.742382  -0.38366881            0  -0.33714635 -0.0014617808 
  366000    17.659593  -0.38338813            0  -0.33708276 0.0059116172 
  366100    17.830395  -0.38383306            0  -0.33707982 0.0059446498 
  366200     18.08165  -0.38453412            0  -0.33712206 0.0029723042 
  366300    18.042819  -0.38455013            0   -0.3372399 0.0068400066 
  366400    17.937484  -0.38424396            0  -0.33720992 0.0055870119 
  366500    17.835482  -0.38405978            0  -0.33729321 0.0053575464 
  366600    17.845803  -0.38395068            0  -0.33715704 0.0061092553 
  366700     17.87787  -0.38403509            0  -0.33715737 0.0050405729 
  366800    17.867755  -0.38425304            0  -0.33740184 0.0016888098 
  366900    17.684464  -0.38367494            0  -0.33730436 0.0068390421 
  367000    17.685929  -0.38356269            0  -0.33718826 0.0049240784 
  367100    17.610787  -0.38338038            0  -0.33720298 0.0056169888 
  367200      17.5316  -0.38332685            0  -0.33735709 0.0053473596 
  367300    17.406677  -0.38288044            0  -0.33723824 0.0052247247 
  367400    17.498303  -0.38305243            0  -0.33716998 0.0011659265 
  367500    17.508682  -0.38315317            0   -0.3372435 0.0028011243 
  367600     17.33679  -0.38268976            0  -0.33723081 0.0044055278 
  367700    17.256006  -0.38245143            0   -0.3372043 -0.0003288629 
  367800    17.240526  -0.38236723            0  -0.33716069 0.00016290239 
  367900    17.373951  -0.38275562            0  -0.33719923 0.00027348576 
  368000    17.086428  -0.38195375            0  -0.33715128  0.012840385 
  368100    17.413275   -0.3829491            0   -0.3372896 0.00064960993 
  368200     17.35773  -0.38271799            0  -0.33720413 0.0010233527 
  368300     17.23728  -0.38254675            0  -0.33734873 0.0044099434 
  368400    17.408134   -0.3828693            0  -0.33722328 0.00068351826 
  368500    17.341009  -0.38265537            0  -0.33718536   0.00410713 
  368600    17.518444  -0.38318961            0  -0.33725434 0.0045180282 
  368700     17.69242  -0.38369992            0  -0.33730847 0.0082814665 
  368800    17.746368  -0.38392318            0  -0.33739028  0.003493274 
  368900    17.598224  -0.38346355            0  -0.33731909 0.0015579035 
  369000    17.458166  -0.38306666            0  -0.33728945 0.0038174595 
  369100     17.47425  -0.38309427            0  -0.33727489 0.0022599834 
  369200    17.564905  -0.38349856            0  -0.33744147 -0.001531967 
  369300    17.730661  -0.38379845            0  -0.33730673 0.0036998552 
  369400    17.747969  -0.38372707            0  -0.33718997 0.0083352601 
  369500    17.745844  -0.38378522            0  -0.33725369 0.0035575779 
  369600    17.602667  -0.38339223            0  -0.33723613 0.0042018759 
  369700    17.494482  -0.38319069            0  -0.33731826 0.0068038669 
  369800    17.611744  -0.38348194            0  -0.33730203 0.0009003492 
  369900    17.712131  -0.38358465            0  -0.33714151 0.0018556375 
  370000    17.719162  -0.38346022            0  -0.33699865 0.0057927567 
  370100     17.69974  -0.38357632            0  -0.33716567 0.0034075618 
  370200    17.691836  -0.38326961            0  -0.33687969 0.0041521304 
  370300    17.475339  -0.38278589            0  -0.33696365 0.0060062097 
  370400    17.600448  -0.38306023            0  -0.33690994 -0.0019713778 
  370500    17.455691  -0.38275588            0  -0.33698516 0.0066973774 
  370600    17.630341  -0.38322946            0  -0.33700079 0.0012942306 
  370700    17.435775  -0.38279947            0  -0.33708097 0.0031907715 
  370800    17.381373  -0.38264016            0  -0.33706431 0.0030888649 
  370900    17.485481  -0.38283112            0  -0.33698229 0.0016364955 
  371000    17.478861   -0.3828144            0  -0.33698292 0.0029294224 
  371100     17.46574  -0.38293266            0  -0.33713559 0.0050347953 
  371200    17.666307  -0.38312119            0  -0.33679821 0.0037793465 
  371300    17.761337  -0.38345552            0  -0.33688337 0.0042038022 
  371400    17.724498  -0.38359626            0   -0.3371207 0.0026788554 
  371500    17.732766  -0.38363996            0  -0.33714272 0.00093735774 
  371600    17.771515  -0.38361943            0  -0.33702059 0.0033121451 
  371700    17.772938  -0.38371718            0   -0.3371146 0.0033614097 
  371800    17.680706  -0.38332911            0  -0.33696837  0.004417992 
  371900    17.737942  -0.38339268            0  -0.33688187  0.003890224 
  372000    17.704027  -0.38344947            0  -0.33702758 0.0030497508 
  372100    17.621217  -0.38328884            0   -0.3370841 0.0067157004 
  372200    17.725705  -0.38343385            0  -0.33695512 0.0019651644 
  372300    17.615243  -0.38320796            0  -0.33701887 0.0012785767 
  372400    17.513374  -0.38307703            0  -0.33715505 0.0062071351 
  372500    17.588388  -0.38315375            0  -0.33703508 0.0042741776 
  372600    17.495143  -0.38303704            0  -0.33716287 0.00060579596 
  372700    17.238941  -0.38245107            0  -0.33724869 0.0039987708 
  372800    17.242965  -0.38235531            0  -0.33714238 0.0028610763 
  372900    17.295496  -0.38236708            0  -0.33701641 0.0044272514 
  373000    17.445419   -0.3827323            0  -0.33698851  0.003979636 
  373100    17.369579  -0.38276541            0  -0.33722048 0.0043469186 
  373200    17.457705  -0.38288648            0  -0.33711048  0.002852492 
  373300    17.220598  -0.38236754            0  -0.33721326 0.0077731609 
  373400    17.228531  -0.38248334            0  -0.33730826 0.0029606211 
  373500    17.045122  -0.38201649            0  -0.33732233 0.0049836452 
  373600    17.050288  -0.38198149            0  -0.33727378 0.0027103379 
  373700    17.261532  -0.38259445            0  -0.33733283 -0.0024320356 
  373800      17.3472  -0.38270237            0  -0.33721612 0.0056721034 
  373900     17.49914  -0.38321639            0  -0.33733174 0.0020472035 
  374000    17.317826  -0.38283618            0  -0.33742696  0.001612437 
  374100    17.188023  -0.38264753            0  -0.33757867 0.0049875471 
  374200    17.088567  -0.38250317            0  -0.33769509 0.0051003694 
  374300    17.284868  -0.38296168            0  -0.33763888 -0.0046724928 
  374400    17.155673  -0.38259611            0  -0.33761207 0.0052523391 
  374500    17.368938  -0.38316372            0  -0.33762047 0.0073239354 
  374600    17.520819  -0.38327774            0  -0.33733625 0.0044195282 
  374700    17.329732  -0.38296685            0  -0.33752641 0.0063586873 
  374800    17.415741  -0.38304873            0  -0.33738276 0.0052717529 
  374900    17.394515   -0.3830032            0  -0.33739289 0.0042671369 
  375000    17.514259  -0.38328585            0  -0.33736155 -0.0015940519 
  375100    17.400998  -0.38320063            0  -0.33757332 -0.00033577183 
  375200    17.349136  -0.38292279            0  -0.33743147  0.007596298 
  375300    17.208817  -0.38266611            0  -0.33754272   0.00819232 
  375400    17.568704  -0.38358353            0  -0.33751648 -0.0017384253 
  375500    17.290975  -0.38288878            0  -0.33754996 0.0066489249 
  375600    17.554474  -0.38352443            0  -0.33749469  0.001256666 
  375700    17.568246  -0.38339598            0  -0.33733013 0.0049767304 
  375800    17.497735  -0.38313436            0   -0.3372534 0.0036927897 
  375900    17.524618  -0.38327435            0   -0.3373229 -0.00058386443 
  376000    17.562206   -0.3833455            0  -0.33729549 0.0060691589 
  376100    17.585745  -0.38335211            0  -0.33724037 0.0045172748 
  376200    17.662863  -0.38366002            0  -0.33734608 -0.0046593362 
  376300    17.455776  -0.38309788            0  -0.33732694  0.006860479 
  376400    17.528661  -0.38333108            0  -0.33736902 0.0086395481 
  376500    17.397649  -0.38293614            0  -0.33731761 0.0084662941 
  376600    17.526648  -0.38326194            0  -0.33730516 0.00055716394 
  376700    17.517303  -0.38326227            0  -0.33732999  0.005982761 
  376800    17.625386  -0.38328822            0  -0.33707255 0.0069503781 
  376900    17.641197  -0.38336904            0  -0.33711191 0.0027690149 
  377000    17.690173  -0.38341216            0   -0.3370266 0.0032907835 
  377100     17.60237  -0.38296645            0  -0.33681112 0.0052229586 
  377200    17.608229  -0.38291568            0  -0.33674499 0.00033868668 
  377300    17.475745  -0.38277783            0  -0.33695453 0.0023780574 
  377400    17.484864  -0.38287087            0  -0.33702365 0.0032650682 
  377500    17.503179   -0.3829603            0  -0.33706506 0.0048666599 
  377600    17.447018  -0.38284713            0  -0.33709915 0.0050361628 
  377700    17.479008   -0.3830539            0  -0.33722204 0.0023595632 
  377800     17.52973  -0.38299093            0  -0.33702607 0.0038920601 
  377900    17.625471  -0.38335103            0  -0.33713513 0.0034149712 
  378000    17.522518  -0.38299038            0  -0.33704443 0.0066713399 
  378100    17.480402  -0.38290906            0  -0.33707354 0.0061455421 
  378200    17.457078  -0.38279162            0  -0.33701726  0.002982233 
  378300     17.29965  -0.38246035            0  -0.33709879 0.0015061223 
  378400     17.27147   -0.3822862            0  -0.33699853 9.1260051e-05 
  378500    17.339441  -0.38260084            0  -0.33713494 0.0027509444 
  378600    17.439751  -0.38282094            0  -0.33709202 0.0030302319 
  378700    17.463173  -0.38283692            0  -0.33704658 0.0021487303 
  378800    17.454342  -0.38282814            0  -0.33706096 0.0068947473 
  378900    17.590369  -0.38314112            0  -0.33701726 0.0047266185 
  379000    17.519613  -0.38300944            0  -0.33707112  0.003505703 
  379100    17.745326  -0.38350637            0  -0.33697619  0.001397141 
  379200    17.831319  -0.38376965            0  -0.33701399 0.0039019742 
  379300    18.027361  -0.38424452            0  -0.33697482 0.0033526482 
  379400    18.011418  -0.38430182            0  -0.33707392 0.0020913933 
  379500    17.950157  -0.38385994            0  -0.33679267 0.0026606362 
  379600    17.925479  -0.38395447            0  -0.33695191 0.0018304369 
  379700     17.85333  -0.38386472            0  -0.33705134 0.0072949845 
  379800    18.151255  -0.38442884            0  -0.33683428 0.0021043467 
  379900    17.872719  -0.38384959            0  -0.33698538 0.0064421904 
  380000    17.843035  -0.38361619            0  -0.33682981 0.0030833672 
  380100    17.889051  -0.38371767            0  -0.33681064   0.00214369 
  380200    18.071785  -0.38410914            0  -0.33672296  0.006151024 
  380300     18.19231   -0.3846981            0  -0.33699589 0.0050828515 
  380400    18.133261  -0.38434376            0  -0.33679638 0.0041886328 
  380500     17.93867  -0.38405504            0  -0.33701789 0.0052550875 
  380600    17.952611  -0.38406035            0  -0.33698665 0.0051396953 
  380700    17.855183  -0.38384714            0   -0.3370289 0.0045638831 
  380800    17.773594  -0.38365809            0  -0.33705379 0.0013804818 
  380900    17.520348  -0.38299554            0  -0.33705529 0.0059838387 
  381000    17.545202  -0.38294414            0  -0.33693871 0.0023563729 
  381100    17.517162  -0.38292883            0  -0.33699693 0.00023902797 
  381200    17.583915  -0.38305189            0  -0.33694495 0.00088798223 
  381300    17.711347  -0.38349445            0  -0.33705337 0.0042253692 
  381400    17.831619  -0.38363326            0  -0.33687682 0.0070110956 
  381500    17.856458  -0.38391175            0  -0.33709018 0.0055787259 
  381600    17.638522  -0.38326426            0  -0.33701414 0.0084761724 
  381700    17.756002  -0.38363205            0  -0.33707389 -0.0035190336 
  381800    17.600978  -0.38324145            0  -0.33708977 -0.00047303418 
  381900    17.791265   -0.3837772            0  -0.33712657  0.005727928 
  382000    17.965727  -0.38436805            0  -0.33725996  0.004271286 
  382100    18.108728  -0.38463883            0  -0.33715578 0.0015605735 
  382200    18.080606  -0.38475989            0  -0.33735057 0.0050037833 
  382300    17.979798  -0.38450614            0  -0.33736116 0.0069642891 
  382400    18.006808  -0.38454677            0  -0.33733096 -0.00080008169 
  382500     18.00683   -0.3844574            0  -0.33724154 0.0034298959 
  382600    18.105149  -0.38467367            0      -0.3372 0.0056908464 
  382700    17.979332  -0.38441798            0  -0.33727422 0.0082560793 
  382800    17.981207  -0.38428158            0   -0.3371329 0.0036415276 
  382900    17.982076  -0.38421682            0  -0.33706586 -0.00038016732 
  383000    17.709468  -0.38335345            0   -0.3369173 0.0092005797 
  383100    18.063884  -0.38432101            0  -0.33695554 0.0029738327 
  383200    17.990857  -0.38396712            0  -0.33679314 0.0043364333 
  383300    17.916719  -0.38377189            0   -0.3367923 0.0046285563 
  383400    17.794152  -0.38347102            0  -0.33681282 0.0069564654 
  383500    17.743805   -0.3834088            0  -0.33688261 0.0033861916 
  383600    17.757747   -0.3835211            0  -0.33695836 -0.0011368164 
  383700    17.794128  -0.38367216            0  -0.33701402 0.0068267177 
  383800    18.011171  -0.38423704            0  -0.33700979 0.0094502822 
  383900    18.046267  -0.38433709            0  -0.33701782 0.0056900015 
  384000    18.046006   -0.3843548            0  -0.33703621 0.00015825183 
  384100    17.885899  -0.38386389            0  -0.33696512 0.0034576323 
  384200    17.988678  -0.38415536            0  -0.33698709 0.0052312875 
  384300    18.144095   -0.3846005            0  -0.33702471 0.0019247248 
  384400    18.049001  -0.38436752            0  -0.33704108 0.0052163702 
  384500    18.144377  -0.38456125            0  -0.33698472 0.0051065401 
  384600    18.160287  -0.38451857            0  -0.33690032 0.0056484095 
  384700    18.122663  -0.38454422            0  -0.33702463 0.0035843432 
  384800    18.041599  -0.38434074            0  -0.33703371 0.0033233804 
  384900    18.098797  -0.38444446            0  -0.33698744 0.0018261836 
  385000    17.854693  -0.38390155            0   -0.3370846 0.0058458613 
  385100    17.733494  -0.38355836            0  -0.33705921   0.00241976 
  385200    17.847546  -0.38389218            0  -0.33709398 -0.0011847593 
  385300    17.759415  -0.38351788            0  -0.33695076  0.011547651 
  385400    17.954686  -0.38423582            0  -0.33715668 0.0026493762 
  385500    17.860126  -0.38383534            0  -0.33700415 0.00097505948 
  385600    17.700044  -0.38348266            0  -0.33707122 0.0036172974 
  385700    17.610179  -0.38331585            0  -0.33714005 0.0042382805 
  385800    17.645841  -0.38342918            0  -0.33715987 0.0044701621 
  385900    17.635687  -0.38338531            0  -0.33714262 0.0035251291 
  386000    17.689673  -0.38330714            0   -0.3369229 0.0013907324 
  386100    17.589564  -0.38301983            0  -0.33689807 0.0048430616 
  386200    17.665011  -0.38308228            0   -0.3367627 0.0036456017 
  386300    17.513734  -0.38279067            0  -0.33686776 0.0071666986 
  386400    17.687223  -0.38317088            0  -0.33679306 0.0022536011 
  386500    17.645812  -0.38319071            0  -0.33692148 0.0035682742 
  386600     17.78764  -0.38361895            0  -0.33697783 0.00079214917 
  386700    17.814934  -0.38370229            0   -0.3369896 0.0042668338 
  386800    17.637722  -0.38329124            0  -0.33704322 0.0061621159 
  386900    17.654757  -0.38325582            0  -0.33696313 0.00084497976 
  387000    17.659995  -0.38329424            0  -0.33698782   0.00382869 
  387100    17.950593  -0.38388245            0  -0.33681404 0.0016997196 
  387200    17.796945  -0.38344907            0  -0.33678354 0.0057591065 
  387300    17.907526  -0.38372532            0  -0.33676984 -0.00010896235 
  387400    17.957479  -0.38384099            0  -0.33675453 0.0028266488 
  387500    17.762398  -0.38338662            0  -0.33681168 0.0096481167 
  387600    17.949785  -0.38374639            0   -0.3366801 -0.0010009568 
  387700    17.889754  -0.38348779            0  -0.33657891 0.0018890944 
  387800    18.054819  -0.38395699            0  -0.33661529 0.0023885979 
  387900     17.82513  -0.38339435            0  -0.33665492 0.0082417621 
  388000    17.819762  -0.38337955            0  -0.33665419 0.00069046421 
  388100    17.674121  -0.38311714            0  -0.33677368 -0.00099615874 
  388200    17.495274  -0.38272499            0  -0.33685048  0.003880881 
  388300    17.482026  -0.38275831            0  -0.33691854 0.0040334572 
  388400    17.393091  -0.38265231            0  -0.33704573 0.00075344554 
  388500    17.602484  -0.38311412            0   -0.3369585  0.002164173 
  388600    17.683502  -0.38323673            0  -0.33686867  0.010933949 
  388700    17.744937  -0.38362935            0  -0.33710019 0.0056133568 
  388800     17.76718   -0.3836473            0  -0.33705982 -0.003212542 
  388900    17.669753  -0.38351736            0  -0.33718534  0.001775995 
  389000    17.640697  -0.38333791            0  -0.33708208 0.0067805562 
  389100    17.685093  -0.38338944            0   -0.3370172 0.0014401179 
  389200    17.613283  -0.38326323            0  -0.33707929 0.0026197006 
  389300    17.683796  -0.38346482            0  -0.33709598 0.0054503908 
  389400    17.630004  -0.38328404            0  -0.33705625 0.0089706131 
  389500    17.708689  -0.38355821            0  -0.33712411 0.00055766202 
  389600    17.460617  -0.38300385            0  -0.33722021 0.0011157059 
  389700    17.485987  -0.38304512            0  -0.33719496 0.0080310238 
  389800    17.710051  -0.38352627            0  -0.33708859 0.0026012838 
  389900    17.711588  -0.38341282            0  -0.33697111 0.0026534151 
  390000    17.676263  -0.38314371            0  -0.33679463 0.0017071199 
  390100    17.530524  -0.38270997            0  -0.33674303 0.0048448172 
  390200    17.611274  -0.38298157            0   -0.3368029 0.00086325908 
  390300    17.582314  -0.38288046            0  -0.33677772 0.0033121736 
  390400    17.741623  -0.38339061            0  -0.33687015 -0.0013365771 
  390500    17.693516  -0.38325756            0  -0.33686323 0.0027466242 
  390600    17.749981  -0.38345302            0  -0.33691063 0.0051566829 
  390700    17.734382  -0.38350162            0  -0.33700014 0.0048141215 
  390800    17.831503  -0.38364262            0  -0.33688648 -0.00082706718 
  390900    17.510953  -0.38301141            0  -0.33709579 0.0084746984 
  391000    17.886126  -0.38373593            0  -0.33683656 0.0038668643 
  391100    18.012167  -0.38414713            0  -0.33691727 0.0047361595 
  391200    17.953852  -0.38409504            0  -0.33701808 0.0057950686 
  391300    18.058837  -0.38433117            0  -0.33697894 0.00096822622 
  391400    17.923421  -0.38402199            0  -0.33702483 0.0041886047 
  391500    17.779921  -0.38362199            0   -0.3370011 0.0054488281 
  391600    17.950917  -0.38409762            0  -0.33702836 0.0017834062 
  391700    17.918631  -0.38389037            0  -0.33690577 0.0084360133 
  391800    18.059954   -0.3842226            0  -0.33686743 0.0015974753 
  391900     17.96547  -0.38393573            0  -0.33682832 0.0021539011 
  392000    18.101431  -0.38421986            0  -0.33675594 0.0077090336 
  392100    18.273493  -0.38485321            0  -0.33693812 0.0048546641 
  392200    18.169912  -0.38449717            0  -0.33685369 4.3279859e-05 
  392300    18.013219  -0.38415056            0  -0.33691794 0.0020714583 
  392400    18.184357  -0.38459422            0  -0.33691285 0.00029091665 
  392500    18.044439  -0.38456084            0  -0.33724636  0.006939634 
  392600    18.188285  -0.38475798            0  -0.33706632 0.0040676918 
  392700    17.993783  -0.38440804            0  -0.33722638 0.0041465345 
  392800    17.897843   -0.3842419            0   -0.3373118 -6.7567233e-05 
  392900    17.787991   -0.3839053            0  -0.33726325 0.0034744665 
  393000     17.94387  -0.38427534            0  -0.33722457 0.0062324025 
  393100     17.88093   -0.3840388            0  -0.33715306 0.0039685707 
  393200    17.943937  -0.38413147            0  -0.33708051 -0.004057075 
  393300    17.981333  -0.38428611            0   -0.3371371 0.0042813889 
  393400    18.095567  -0.38455331            0  -0.33710476 0.0045804822 
  393500    18.003347  -0.38420174            0  -0.33699501 0.0019414582 
  393600     17.95012  -0.38422879            0  -0.33716162   0.00404729 
  393700    17.986742  -0.38432039            0   -0.3371572  0.006402611 
  393800    18.070516  -0.38445791            0  -0.33707505 0.0018993141 
  393900    18.094065  -0.38467845            0  -0.33723385 0.0032660848 
  394000    18.147454  -0.38467248            0  -0.33708788  0.010234729 
  394100    18.208721  -0.38479124            0  -0.33704599 0.0040998921 
  394200     17.94755  -0.38419591            0  -0.33713548 0.0020211545 
  394300    17.963111  -0.38431871            0  -0.33721748 0.0025009495 
  394400    17.966973  -0.38432648            0  -0.33721512 0.0076230942 
  394500    18.105193  -0.38455451            0  -0.33708072 0.0019834705 
  394600    17.898359   -0.3840842            0  -0.33715275 0.00017474089 
  394700    17.810241  -0.38384455            0  -0.33714416 0.0014064213 
  394800    17.882724  -0.38400634            0  -0.33711589 0.0021118577 
  394900    17.984538  -0.38429431            0  -0.33713689 0.0027324229 
  395000    18.105102  -0.38456815            0   -0.3370946 0.00062851114 
  395100    17.898868  -0.38401224            0  -0.33707946 0.0085216766 
  395200     18.01417  -0.38427234            0  -0.33703722 0.0022793346 
  395300    17.930076  -0.38405371            0   -0.3370391 0.0046681419 
  395400     18.10767   -0.3843758            0  -0.33689552 0.0014763578 
  395500     17.96557  -0.38407684            0  -0.33696916 0.0052232665 
  395600    18.076679  -0.38414549            0  -0.33674647 0.0042551064 
  395700    18.218826  -0.38453723            0  -0.33676549 0.0004705573 
  395800     18.23598  -0.38449917            0  -0.33668245 0.0039764125 
  395900    18.194013  -0.38429565            0  -0.33658897 0.0090062859 
  396000    18.221735  -0.38460588            0  -0.33682651  0.004230047 
  396100     18.31273  -0.38435357            0   -0.3363356 0.0028185606 
  396200    18.174702  -0.38415842            0  -0.33650238 0.0046203706 
  396300     18.37749  -0.38473466            0  -0.33654689 -0.0014645043 
  396400    18.128006  -0.38436198            0  -0.33682838 0.0095705237 
  396500    18.294973  -0.38481817            0  -0.33684676 0.0053480823 
  396600    18.293584  -0.38480569            0  -0.33683793 -0.00019464741 
  396700    18.262467  -0.38477569            0  -0.33688951 0.0033950569 
  396800     18.24307  -0.38471985            0  -0.33688453 0.0070221532 
  396900    18.325302  -0.38484107            0  -0.33679013  0.004066185 
  397000    18.427802  -0.38526107            0  -0.33694137 0.0045867599 
  397100    18.281759  -0.38480616            0   -0.3368694  0.010464505 
  397200     18.43659  -0.38521238            0  -0.33686963 -0.0014812109 
  397300     18.20471  -0.38467901            0  -0.33694428 0.0022444352 
  397400    17.713448  -0.38363362            0  -0.33718704  0.012766588 
  397500    18.133911  -0.38447759            0   -0.3369285 0.00062436977 
  397600    18.206161   -0.3848653            0  -0.33712677 0.0035552725 
  397700    18.280681  -0.38495507            0  -0.33702114 0.0025505876 
  397800    18.203519  -0.38465627            0  -0.33692466 0.0028481293 
  397900    18.105969  -0.38445562            0   -0.3369798 0.0062663997 
  398000    18.367416  -0.38517319            0  -0.33701183 0.0039676267 
  398100    18.266431  -0.38492968            0  -0.33703311 0.0098461014 
  398200    18.189497  -0.38471814            0   -0.3370233 0.0071402477 
  398300    18.113524  -0.38463516            0  -0.33713953 0.0014096028 
  398400    18.073714  -0.38452875            0   -0.3371375 0.0027625066 
  398500    18.031938  -0.38445269            0  -0.33717099 0.0066241146 
  398600    18.107197  -0.38482771            0  -0.33734867 0.0015419242 
  398700    18.128181  -0.38475585            0  -0.33722179 0.0039740489 
  398800    18.012148  -0.38456003            0  -0.33733021 0.0058349116 
  398900    17.945776  -0.38432113            0  -0.33726535 -0.0012262947 
  399000    17.927473   -0.3840453            0  -0.33703752 0.0053016371 
  399100    18.048057  -0.38435473            0  -0.33703076 0.0051836831 
  399200    18.305537  -0.38508073            0  -0.33708162 -6.29504e-05 
  399300    18.055946  -0.38440472            0  -0.33706006  0.010699139 
  399400    17.988652  -0.38428512            0  -0.33711691 0.0068882498 
  399500    17.950154  -0.38412851            0  -0.33706126 0.0025359646 
  399600    18.055484   -0.3844755            0  -0.33713205 0.0003352562 
  399700    18.248839  -0.38506584            0   -0.3372154 0.0047223914 
  399800    18.215913  -0.38488017            0  -0.33711607 0.0096910255 
  399900    18.291391   -0.3851572            0  -0.33719518 -0.0033667878 
  400000    18.173097  -0.38488856            0  -0.33723672 -0.00098737084 
  400100    18.017761  -0.38446084            0  -0.33721632 0.0089949162 
  400200    18.189205  -0.38500143            0  -0.33730735 0.0028232106 
  400300    18.359911  -0.38535578            0   -0.3372141 0.0041139247 
  400400    18.397427  -0.38557463            0  -0.33733458 0.0072520707 
  400500    18.450106  -0.38549315            0  -0.33711496 0.0030710823 
  400600    18.238171  -0.38511031            0  -0.33728784 0.0037788516 
  400700    18.207271  -0.38494482            0  -0.33720338  0.004342804 
  400800    18.391794   -0.3854456            0  -0.33722032 0.0049040298 
  400900    18.414101  -0.38539902            0  -0.33711525 0.0047363131 
  401000     18.29886  -0.38514217            0  -0.33716057 -0.00048719709 
  401100    18.435596  -0.38548952            0  -0.33714938 -0.00022580457 
  401200    18.361871  -0.38523033            0  -0.33708351  0.010729262 
  401300    18.513853  -0.38556997            0  -0.33702464 0.00055473296 
  401400    18.335938  -0.38500653            0  -0.33692771 -0.00037346869 
  401500    18.275035   -0.3850493            0  -0.33713017 0.0023655683 
  401600    18.385788  -0.38547567            0  -0.33726613 0.0074740118 
  401700    18.386467  -0.38550742            0  -0.33729611 0.0059791961 
  401800    18.255936   -0.3851873            0  -0.33731825  0.005400942 
  401900    18.496896    -0.385795            0  -0.33729413 0.0033728439 
  402000    18.605406  -0.38597316            0  -0.33718776 0.0047836223 
  402100    18.591498  -0.38587167            0  -0.33712274 0.0072346809 
  402200    18.440431   -0.3852731            0  -0.33692028 0.0094837219 
  402300    18.500013   -0.3854431            0  -0.33693406 0.0012156673 
  402400    18.340696  -0.38503743            0  -0.33694613  0.002607046 
  402500    18.361965  -0.38516451            0  -0.33701744 8.1341664e-05 
  402600    18.303308  -0.38512737            0  -0.33713411 0.0035263543 
  402700     18.33895  -0.38517434            0  -0.33708762 0.0016866977 
  402800    18.204837  -0.38477387            0   -0.3370388  0.005329238 
  402900    18.345305  -0.38517516            0  -0.33707178 0.0050757875 
  403000    18.357033  -0.38507551            0  -0.33694138 0.0060367934 
  403100     18.23832  -0.38472908            0  -0.33690622 0.0060345902 
  403200    18.355437  -0.38493371            0  -0.33680376 0.0040544853 
  403300    18.554307  -0.38525876            0  -0.33660735 0.0037028932 
  403400    18.461013  -0.38528479            0    -0.336878 0.0072569797 
  403500    18.518643  -0.38531052            0  -0.33675262 0.00019590558 
  403600    18.260796  -0.38456591            0  -0.33668412 0.0023406023 
  403700    18.307667  -0.38479262            0  -0.33678793 0.00022842834 
  403800    18.351008   -0.3847894            0  -0.33667106 0.0077205573 
  403900    18.540625  -0.38535645            0  -0.33674092 0.0083014143 
  404000    18.651774  -0.38575642            0  -0.33684944 0.0035386393 
  404100    18.600279  -0.38555887            0  -0.33678692  0.001303796 
  404200    18.383518  -0.38493545            0  -0.33673187 0.0053196922 
  404300    18.409136  -0.38512452            0  -0.33685376 0.0017936296 
  404400    18.576022  -0.38554427            0  -0.33683592 0.0014389157 
  404500    18.429898  -0.38533128            0  -0.33700608 0.0097549416 
  404600    18.540893  -0.38553039            0  -0.33691415 0.0022829401 
  404700    18.380804  -0.38518807            0   -0.3369916 0.0012712848 
  404800    18.411668  -0.38513996            0  -0.33686257 0.0037471336 
  404900    18.383953  -0.38512395            0  -0.33691923 0.0066210396 
  405000    18.527244  -0.38551764            0  -0.33693719 0.00070160037 
  405100    18.359518  -0.38509006            0  -0.33694941 0.0074508511 
  405200    18.351207  -0.38506932            0  -0.33695046 0.0053293064 
  405300    18.143791  -0.38452255            0  -0.33694756 0.0023206528 
  405400     18.20871  -0.38474386            0  -0.33699864 0.0013931825 
  405500    18.182304  -0.38467688            0   -0.3370009 0.0081317364 
  405600    18.145472   -0.3846812            0   -0.3371018 0.0037472831 
  405700     18.10512  -0.38441591            0  -0.33694231 -0.00026610647 
  405800    18.103537  -0.38436331            0  -0.33689387 0.0030166153 
  405900    18.095303  -0.38439613            0  -0.33694828  0.006957335 
  406000    18.449673  -0.38523985            0   -0.3368628 0.0028521761 
  406100    18.402759  -0.38498072            0  -0.33672669 0.0061113361 
  406200    18.521718  -0.38525423            0  -0.33668827 0.0028191643 
  406300    18.391502  -0.38498026            0  -0.33675574 0.0057538571 
  406400    18.456954  -0.38514172            0  -0.33674558 -0.00067536126 
  406500     18.39623  -0.38496063            0  -0.33672372  0.004049131 
  406600    18.319759   -0.3848285            0  -0.33679209 0.0081223915 
  406700    18.349583   -0.3846647            0  -0.33655009 0.0033713527 
  406800     18.27035  -0.38446537            0  -0.33655853 0.0037335339 
  406900    18.279602   -0.3846754            0   -0.3367443 0.0021637574 
  407000    18.519738  -0.38523768            0  -0.33667691 -0.0027514327 
  407100    18.496884  -0.38513475            0   -0.3366339 0.0049479131 
  407200    18.482198  -0.38529411            0  -0.33683177 0.0025425648 
  407300     18.38411  -0.38519492            0  -0.33698978 -0.00046029367 
  407400    18.380196  -0.38523613            0  -0.33704126 0.0019534486 
  407500    18.197585  -0.38477325            0   -0.3370572 0.0058119377 
  407600    18.362822  -0.38511832            0  -0.33696901 0.00072988226 
  407700    18.485905  -0.38527962            0  -0.33680757 0.0038591725 
  407800    18.576381  -0.38554188            0  -0.33683258 0.0028777611 
  407900    18.632974  -0.38558562            0  -0.33672794 0.0051245182 
  408000    18.685744  -0.38563477            0  -0.33663872 0.0077539527 
  408100    18.722929  -0.38568693            0  -0.33659337 0.0027273566 
  408200    18.563755  -0.38536317            0  -0.33668699 0.0023432029 
  408300    18.584823  -0.38545614            0  -0.33672472 0.0043834472 
  408400    18.725647  -0.38585879            0  -0.33675811 0.0026394218 
  408500    18.772764  -0.38596812            0  -0.33674389 0.00031885794 
  408600    18.737667  -0.38593135            0  -0.33679915 0.0018789208 
  408700    18.602051  -0.38568357            0  -0.33690696 0.0069422165 
  408800    18.573262  -0.38569259            0  -0.33699148 0.0076575388 
  408900    18.810566  -0.38626717            0  -0.33694382 0.00042784407 
  409000    18.878401  -0.38643934            0  -0.33693812 0.0018031908 
  409100    18.812379  -0.38610643            0  -0.33677833 0.0044394479 
  409200    18.792628  -0.38615005            0  -0.33687374 0.00035954248 
  409300    18.663962  -0.38571139            0  -0.33677245 0.0075351866 
  409400    18.681614  -0.38570279            0  -0.33671756 0.0071320225 
  409500    18.730316  -0.38578486            0  -0.33667193 0.0038013536 
  409600    18.768358   -0.3860427            0  -0.33683002 0.0031388054 
  409700    18.795953  -0.38610158            0  -0.33681655 0.0023837309 
  409800    18.833366  -0.38610877            0  -0.33672563 0.0036425977 
  409900    18.950444  -0.38640021            0  -0.33671009 0.0067780883 
  410000    18.849413  -0.38617269            0  -0.33674747 0.0065507288 
  410100    18.863155   -0.3860616            0  -0.33660036 -0.0015146753 
  410200    18.583759  -0.38570238            0  -0.33697375 0.0060541307 
  410300    18.925063  -0.38621306            0  -0.33658949 0.0024047648 
  410400    18.921389   -0.3862809            0  -0.33666696 0.0056276672 
  410500     18.81272  -0.38602079            0   -0.3366918 0.0062406615 
  410600    18.839978  -0.38608821            0  -0.33668774 0.00033332869 
  410700      18.6977  -0.38581666            0  -0.33678926 0.0047333679 
  410800    18.649576  -0.38560501            0   -0.3367038  0.005454336 
  410900    18.645219  -0.38560267            0  -0.33671288 0.00045667673 
  411000      18.6004  -0.38533857            0   -0.3365663  0.001429483 
  411100    18.439195  -0.38505582            0  -0.33670624 0.0055490579 
  411200    18.579695   -0.3854118            0  -0.33669382 0.0015383858 
  411300     18.78703  -0.38602758            0  -0.33676594 0.00043224927 
  411400    18.694508  -0.38578068            0  -0.33676165 0.0082967361 
  411500    18.605139   -0.3857112            0   -0.3369265 0.0051583472 
  411600    18.353759  -0.38504025            0   -0.3369147 0.0055971225 
  411700    18.410168  -0.38511121            0  -0.33683775 0.0012161599 
  411800    18.302999  -0.38468608            0  -0.33669363 0.0021445347 
  411900    18.013077  -0.38407462            0  -0.33684237 0.0061521634 
  412000    18.223848  -0.38444068            0  -0.33665577 -0.0018250189 
  412100    18.221145  -0.38453136            0  -0.33675354  0.005015952 
  412200    18.534674  -0.38538428            0  -0.33678435 0.0034535544 
  412300    18.406058  -0.38496233            0  -0.33669965  0.004698679 
  412400    18.329158  -0.38477627            0  -0.33671523 0.0041336742 
  412500    18.130497  -0.38431445            0  -0.33677431  0.010051497 
  412600    18.240178  -0.38447243            0  -0.33664469 0.00021200282 
  412700     18.09906  -0.38409901            0   -0.3366413 -0.00032367861 
  412800    17.972907  -0.38383749            0  -0.33671057 0.0068764768 
  412900    17.985056  -0.38391194            0  -0.33675317 0.0069192597 
  413000    18.087033  -0.38411851            0  -0.33669234 0.0025669609 
  413100    18.171529  -0.38444742            0  -0.33679969 0.0024095362 
  413200    18.390214  -0.38495216            0  -0.33673102 0.0029995523 
  413300    18.406557  -0.38507254            0  -0.33680855 0.0035918351 
  413400    18.353726  -0.38502347            0    -0.336898 0.0054469434 
  413500    18.459712  -0.38527311            0  -0.33686974 0.0005168607 
  413600      18.5339  -0.38537656            0  -0.33677866 0.0010085193 
  413700    18.487524  -0.38537421            0  -0.33689792 0.0055777581 
  413800    18.695114   -0.3858512            0  -0.33683058 0.00043107175 
  413900    18.544883  -0.38540848            0  -0.33678178 0.0098943504 
  414000    18.583065  -0.38552434            0  -0.33679752 0.0074514942 
  414100    18.648175  -0.38559674            0   -0.3366992 0.0049730882 
  414200    18.643268  -0.38560725            0  -0.33672257 0.0010618678 
  414300    18.491483  -0.38533712            0  -0.33685044 0.0011784868 
  414400    18.133063  -0.38453038            0  -0.33698351 0.0079109043 
  414500    18.272344  -0.38476531            0  -0.33685324 0.0021792879 
  414600    18.275692  -0.38467842            0  -0.33675757 0.0036586348 
  414700    18.264397  -0.38465754            0  -0.33676631 0.0031010548 
  414800    18.136376  -0.38429776            0  -0.33674221 0.0040900479 
  414900    18.230056  -0.38450415            0  -0.33670296 0.0019085467 
  415000    17.957475  -0.38386932            0  -0.33678286  0.010315429 
  415100    18.202205  -0.38439246            0   -0.3366643 -0.0010830616 
  415200    18.154988  -0.38424692            0  -0.33664257 -0.0011291816 
  415300    18.186601   -0.3844135            0  -0.33672625  0.006584276 
  415400    18.228202  -0.38460282            0  -0.33680649 0.0067903405 
  415500    18.293446  -0.38457269            0  -0.33660528 0.0058184681 
  415600    18.233964  -0.38453421            0  -0.33672277  0.006311327 
  415700    18.298169  -0.38479178            0  -0.33681199 -0.00013378152 
  415800    18.132716  -0.38451931            0  -0.33697335 0.0050063413 
  415900    18.107999  -0.38443184            0   -0.3369507 0.0047061392 
  416000     18.07304  -0.38441676            0  -0.33702728 0.00074968634 
  416100    18.205995  -0.38468184            0  -0.33694374 0.0014957113 
  416200    18.252719  -0.38472026            0  -0.33685964 0.0058761409 
  416300    18.134279   -0.3844948            0  -0.33694475 0.0046996575 
  416400    18.109723  -0.38436996            0  -0.33688429 -0.0012895002 
  416500    18.091924   -0.3841845            0  -0.33674551 0.00090302365 
  416600    18.307887  -0.38473218            0  -0.33672691 0.0024144864 
  416700    18.219093  -0.38469672            0  -0.33692427 0.0062073071 
  416800    18.225961  -0.38460753            0  -0.33681708  0.002161354 
  416900    18.439806  -0.38508105            0  -0.33672988 0.0029853092 
  417000    18.402214  -0.38498805            0  -0.33673544 0.0071079034 
  417100    18.551676  -0.38535328            0  -0.33670877 -0.0020503029 
  417200    18.298174  -0.38451307            0  -0.33653327 0.0095189208 
  417300    18.454204  -0.38496184            0  -0.33657291 0.0060277045 
  417400    18.521745   -0.3851032            0  -0.33653717 0.00050620375 
  417500    18.499748  -0.38497364            0  -0.33646529 0.0065645862 
  417600    18.652321  -0.38551807            0  -0.33660965 0.0027151415 
  417700    18.426457   -0.3848934            0  -0.33657722 0.0062708415 
  417800    18.422444   -0.3850097            0  -0.33670405 0.0037294918 
  417900    18.359866  -0.38485446            0   -0.3367129 0.0032695504 
  418000    18.535005  -0.38526047            0  -0.33665968 -0.0014453813 
  418100    18.402411  -0.38504153            0  -0.33678841 0.0076518276 
  418200    18.463423   -0.3852366            0   -0.3368235 0.0022292837 
  418300    18.281167  -0.38485523            0  -0.33692003 0.0059779426 
  418400    18.471934  -0.38538275            0  -0.33694734  0.002936361 
  418500    18.305986  -0.38503698            0  -0.33703669 0.0052247819 
  418600    18.143146  -0.38461962            0  -0.33704632 0.0035932907 
  418700    18.105167  -0.38433624            0  -0.33686252 0.0048582306 
  418800    18.115804  -0.38423706            0  -0.33673545 0.0063346352 
  418900    18.245429  -0.38446931            0  -0.33662781 -0.0010693146 
  419000    18.195877  -0.38425024            0  -0.33653867  0.002670361 
  419100    18.284847  -0.38460623            0  -0.33666138 0.0032848032 
  419200    18.229545  -0.38435249            0  -0.33655264 0.0065729852 
  419300    18.334345  -0.38461603            0  -0.33654138 0.00057330147 
  419400    18.174281  -0.38431328            0  -0.33665834 0.0033430133 
  419500    18.305973  -0.38459509            0  -0.33659484 0.0048185618 
  419600    18.524296  -0.38517127            0  -0.33659856 0.0028340278 
  419700    18.543008  -0.38526371            0  -0.33664193 0.0047999479 
  419800    18.568881  -0.38519411            0  -0.33650448 0.0082009512 
  419900    18.635777  -0.38539215            0  -0.33652712 0.00065689151 
  420000    18.277466  -0.38450093            0  -0.33657543 0.0026134452 
  420100    18.298517  -0.38460416            0  -0.33662346 0.0020116253 
  420200    18.278984   -0.3845808            0  -0.33665132 0.0057684177 
  420300     18.16399  -0.38459297            0  -0.33696501 0.0036323864 
  420400    18.275555  -0.38461634            0  -0.33669584 -0.00091717078 
  420500    18.229388  -0.38454302            0  -0.33674358 0.0025227803 
  420600    18.292727  -0.38461521            0  -0.33664969 0.0065090757 
  420700    18.459414  -0.38514001            0  -0.33673742 0.0034737787 
  420800     18.49335   -0.3851137            0  -0.33662212 0.0064256259 
  420900    18.521999  -0.38529852            0  -0.33673182 0.0066981925 
  421000    18.320623  -0.38491225            0  -0.33687359 0.0055330137 
  421100    18.308878  -0.38468486            0  -0.33667699 0.0040117129 
  421200    18.450218  -0.38501603            0  -0.33663755 -2.1565066e-05 
  421300     18.13073  -0.38432078            0  -0.33678003  0.009791816 
  421400    18.341194  -0.38496027            0  -0.33686766 0.0038950928 
  421500    18.218265  -0.38456319            0  -0.33679292 0.0057030843 
  421600    18.114882   -0.3844227            0  -0.33692351 0.0013788263 
  421700    18.055626  -0.38436136            0  -0.33701754 -0.00058793544 
  421800    18.088815  -0.38447674            0   -0.3370459  0.004834581 
  421900    18.274397  -0.38482995            0   -0.3369125 0.0066270479 
  422000    18.524718  -0.38544878            0  -0.33687495 0.0023374375 
  422100    18.507175  -0.38546657            0  -0.33693874 0.0027414267 
  422200    18.484154  -0.38510804            0  -0.33664058 0.0040348966 
  422300    18.305043  -0.38478143            0  -0.33678362 0.0015348071 
  422400    18.029664  -0.38414246            0  -0.33686672 0.0057844373 
  422500    18.127809  -0.38419675            0  -0.33666367 0.0039029799 
  422600    18.157499  -0.38430523            0  -0.33669429 0.0015668595 
  422700    18.126805  -0.38428153            0  -0.33675108 0.0031830875 
  422800    18.324494  -0.38481233            0  -0.33676351  0.002453522 
  422900    18.247871  -0.38461643            0  -0.33676853 0.0048530098 
  423000    18.147588  -0.38437853            0  -0.33679358 0.00013975185 
  423100    18.079547  -0.38402047            0  -0.33661393 0.0016670018 
  423200    18.039838  -0.38399753            0  -0.33669511  0.007164598 
  423300    18.146123  -0.38434722            0  -0.33676611 0.0033187198 
  423400    18.353787  -0.38485076            0  -0.33672513 -0.0016666258 
  423500    18.312529   -0.3849502            0  -0.33693276  0.010641667 
  423600    18.583399  -0.38550789            0   -0.3367802 0.0031393315 
  423700    18.216971  -0.38455743            0  -0.33679055 0.0058571989 
  423800    18.237743  -0.38456168            0  -0.33674034 0.0051768997 
  423900    18.526949  -0.38529721            0  -0.33671754 0.00020013882 
  424000    18.539604  -0.38524031            0  -0.33662745 0.0094332155 
  424100    18.573608  -0.38537248            0  -0.33667046  0.003628258 
  424200     18.33968  -0.38478063            0    -0.336692 0.0023783027 
  424300     18.32983  -0.38492778            0  -0.33686497 0.0063720017 
  424400    18.380169  -0.38497421            0  -0.33677941 0.0078568393 
  424500    18.519887  -0.38531461            0  -0.33675345 0.00091702477 
  424600     18.61521    -0.385621            0   -0.3368099 0.00013150243 
  424700    18.575651  -0.38542042            0  -0.33671304 0.0078148688 
  424800    18.493716  -0.38531993            0   -0.3368274 0.0079632287 
  424900    18.682457  -0.38554031            0  -0.33655288 0.0028796837 
  425000    18.699795  -0.38556684            0  -0.33653395 0.0049165834 
  425100    18.675704  -0.38566036            0  -0.33669063 0.0053093641 
  425200    18.396431  -0.38499952            0  -0.33676208 0.0065725469 
  425300    18.500302  -0.38530173            0  -0.33679192 -0.0021340027 
  425400    18.298817  -0.38483456            0  -0.33685307 0.0072412474 
  425500    18.253689   -0.3849407            0  -0.33707755 0.0077837318 
  425600    18.180813  -0.38461453            0  -0.33694246 0.0059953109 
  425700    18.202175  -0.38470438            0   -0.3369763 0.0057259514 
  425800    18.204951  -0.38465573            0  -0.33692036 0.0045842601 
  425900    18.210399  -0.38454312            0  -0.33679347  0.003503808 
  426000    18.502993  -0.38511149            0  -0.33659463 0.0010181994 
  426100    18.474167   -0.3851643            0  -0.33672303  0.006640726 
  426200    18.510034   -0.3850573            0  -0.33652198 0.0030654171 
  426300    18.143301   -0.3842272            0  -0.33665349 0.0074314282 
  426400    18.247507  -0.38455583            0  -0.33670889 0.0037415729 
  426500    18.270135  -0.38479651            0  -0.33689023 0.0088088105 
  426600    18.374788  -0.38512341            0  -0.33694272 0.0054339327 
  426700    18.360881  -0.38523872            0   -0.3370945 6.698038e-06 
  426800    18.305725  -0.38496793            0  -0.33696833 0.0060823027 
  426900    18.611854   -0.3856007            0  -0.33679839 0.0031733127 
  427000    18.482356  -0.38518967            0  -0.33672692 0.0058946935 
  427100    18.624429  -0.38571477            0  -0.33687949 0.0025883046 
  427200    18.585781  -0.38564569            0  -0.33691175 0.0030875446 
  427300    18.561677  -0.38554982            0  -0.33687908 0.00088034946 
  427400    18.569998  -0.38564516            0  -0.33695261 0.0018140465 
  427500    18.472682  -0.38537028            0   -0.3369329 0.0046998458 
  427600    18.331534  -0.38506782            0  -0.33700054 0.0043434023 
  427700    18.413352  -0.38523505            0  -0.33695323 0.0032499664 
  427800    18.331797  -0.38492346            0   -0.3368555 0.0075787897 
  427900    18.344998  -0.38495092            0  -0.33684833 0.0053859345 
  428000    18.521249   -0.3854673            0  -0.33690257 -0.0021231652 
  428100    18.510188  -0.38537748            0  -0.33684175 0.0065155277 
  428200    18.618722  -0.38578319            0  -0.33696288 0.0081339757 
  428300    18.790947  -0.38612016            0  -0.33684825 0.0040216558 
  428400     18.63582   -0.3858774            0  -0.33701225 0.0063904911 
  428500    18.605565  -0.38575397            0  -0.33696816 0.0025300794 
  428600    18.534948  -0.38559927            0  -0.33699862 0.0035213786 
  428700    18.489388  -0.38557695            0  -0.33709576 0.0018831888 
  428800    18.399235  -0.38535521            0  -0.33711041 0.0048264167 
  428900    18.467092   -0.3854398            0  -0.33701707 0.0041648813 
  429000    18.510696  -0.38540248            0  -0.33686542 0.0032541793 
  429100    18.561942  -0.38544319            0  -0.33677176 0.0026864676 
  429200     18.41971  -0.38522462            0  -0.33692613 0.0052017017 
  429300    18.644163  -0.38567532            0   -0.3367883 0.0012703338 
  429400    18.483936   -0.3852005            0  -0.33673361 0.0097575071 
  429500    18.506936  -0.38556463            0  -0.33703743 0.0060577526 
  429600    18.554863  -0.38558243            0  -0.33692956 0.0018739431 
  429700    18.386345  -0.38513895            0  -0.33692795 0.0040042774 
  429800    18.325363  -0.38490326            0  -0.33685216 0.0044352806 
  429900    18.343452  -0.38502998            0  -0.33693146  0.006276782 
  430000    18.387933   -0.3850645            0  -0.33684934 0.0063351427 
  430100    18.401164  -0.38514817            0  -0.33689832 -5.2019886e-05 
  430200    18.402127  -0.38501332            0  -0.33676094 0.0018297931 
  430300    18.467887  -0.38528617            0  -0.33686136 0.0048685949 
  430400    18.397314  -0.38511194            0  -0.33687218 0.0035231272 
  430500    18.380894  -0.38502137            0  -0.33682466  0.002205806 
  430600    18.290047  -0.38489595            0  -0.33693746 0.0056955959 
  430700    18.448925  -0.38527392            0  -0.33689884 0.0039566799 
  430800     18.45713  -0.38519985            0  -0.33680325 0.0036256135 
  430900    18.339293  -0.38499104            0  -0.33690342 0.0013671702 
  431000    18.180362  -0.38479046            0  -0.33711957 0.0041531398 
  431100    18.327955  -0.38510263            0  -0.33704474 0.00084946108 
  431200    18.293267  -0.38497474            0  -0.33700781 0.0037221427 
  431300    18.317252  -0.38487618            0  -0.33684635 0.0035627944 
  431400    18.307784    -0.385124            0    -0.337119 0.0035301895 
  431500    18.570718  -0.38559899            0  -0.33690455 0.0036427953 
  431600     18.38933  -0.38533676            0  -0.33711794 0.0049697991 
  431700    18.185198  -0.38481297            0   -0.3371294 0.0026817435 
  431800    18.288276  -0.38512895            0   -0.3371751 -0.00093666558 
  431900    18.431058  -0.38565479            0  -0.33732655 0.0033857869 
  432000    18.224265   -0.3850699            0   -0.3372839   0.01374264 
  432100    18.405224  -0.38552597            0  -0.33726547 0.0039989384 
  432200    18.484543  -0.38576018            0   -0.3372917 0.00064686185 
  432300    18.175162  -0.38484219            0  -0.33718494  0.010030404 
  432400    18.352487  -0.38532188            0  -0.33719967 0.0049027039 
  432500     18.35225  -0.38526767            0  -0.33714608 0.0049216045 
  432600    18.334244  -0.38502343            0  -0.33694905 0.0036525905 
  432700    18.438594  -0.38518993            0  -0.33684193 -0.00055254857 
  432800    18.184512  -0.38450022            0  -0.33681845 0.0075916526 
  432900    18.330442  -0.38509837            0  -0.33703396 -0.0022616488 
  433000    18.299856  -0.38476354            0  -0.33677933 0.0043373255 
  433100    18.576338  -0.38543209            0  -0.33672291 0.0028680695 
  433200    18.670578  -0.38583871            0  -0.33688242 0.0050656109 
  433300    18.734745  -0.38573076            0  -0.33660622 0.0051040465 
  433400    18.662915   -0.3856717            0  -0.33673551 0.0056037805 
  433500    18.546678  -0.38551245            0  -0.33688104 0.0030212449 
  433600    18.632719  -0.38573933            0  -0.33688232 -0.00097065512 
  433700    18.404887  -0.38533411            0   -0.3370745 0.0057798867 
  433800    18.524944  -0.38571502            0   -0.3371406  0.001679121 
  433900    18.506056  -0.38571736            0  -0.33719247 0.0041175398 
  434000    18.685146  -0.38608368            0  -0.33708919 0.0041260881 
  434100    18.808605  -0.38630216            0  -0.33698395 0.0030622418 
  434200    18.568658  -0.38577756            0  -0.33708852 0.0061905773 
  434300    18.465163  -0.38551653            0  -0.33709887 0.0054779998 
  434400    18.545179  -0.38555838            0  -0.33693091 0.0010265146 
  434500    18.643868  -0.38579647            0  -0.33691022 0.0036722778 
  434600     18.40711  -0.38533301            0  -0.33706757  0.012046006 
  434700    18.472084  -0.38560301            0  -0.33716719 0.0024160372 
  434800    18.462786  -0.38546651            0  -0.33705508 0.00027612807 
  434900    18.486928  -0.38550265            0  -0.33702791 0.0048724222 
  435000    18.575061  -0.38561493            0  -0.33690909 0.0042418203 
  435100    18.652321  -0.38558789            0  -0.33667948 -0.00016392594 
  435200    18.490886  -0.38526571            0   -0.3367806 0.0052083609 
  435300    18.583584  -0.38535395            0  -0.33662577  0.008453961 
  435400    18.679403  -0.38577844            0  -0.33679902 0.0048102133 
  435500     18.77154  -0.38603665            0  -0.33681562 0.0029462264 
  435600    18.627442  -0.38572024            0  -0.33687706 0.0076866075 
  435700    18.804308  -0.38612979            0  -0.33682285 0.0013149453 
  435800    18.761946  -0.38607692            0  -0.33688105 0.0046539363 
  435900    18.715035  -0.38585064            0  -0.33677779  0.007787798 
  436000    18.602376  -0.38562256            0   -0.3368451 0.0037079432 
  436100    18.412248   -0.3852259            0  -0.33694698 0.0010800473 
  436200    18.498425  -0.38530174            0  -0.33679686 0.0015035585 
  436300    18.617293  -0.38581318            0  -0.33699661 0.0034633128 
  436400    18.477819  -0.38537054            0  -0.33691969  0.010950877 
  436500        18.68  -0.38582923            0  -0.33684824 0.00019300504 
  436600     18.55924  -0.38553919            0  -0.33687484 0.0054287433 
  436700    18.586219  -0.38576644            0  -0.33703135 0.0054259608 
  436800    18.692876  -0.38618225            0   -0.3371675 0.0019283651 
  436900     18.50389  -0.38566115            0  -0.33714194 0.0077884138 
  437000    18.441111  -0.38547153            0  -0.33711694  0.002585252 
  437100    18.509401  -0.38560372            0  -0.33707006 3.0204372e-05 
  437200    18.318552  -0.38517225            0  -0.33713901 0.0082605527 
  437300     18.41705  -0.38536816            0  -0.33707665 0.0045165847 
  437400    18.159856  -0.38473433            0  -0.33711721 0.0059333927 
  437500    18.222803  -0.38469339            0  -0.33691122 0.0023156221 
  437600    18.188927  -0.38482953            0  -0.33713619 0.0014301255 
  437700    18.357698  -0.38500033            0  -0.33686445 0.0012346332 
  437800    18.245799  -0.38488253            0  -0.33704006 0.0053177931 
  437900    18.360669  -0.38496385            0  -0.33682018 0.0031710988 
  438000    18.314274  -0.38493505            0  -0.33691303 0.0069385475 
  438100    18.278435  -0.38472318            0  -0.33679514 0.0068866674 
  438200    18.030482  -0.38422397            0  -0.33694608 0.0064896846 
  438300     18.13355  -0.38442284            0   -0.3368747 0.0032439869 
  438400    18.252272   -0.3850234            0  -0.33716396 0.0054859083 
  438500    18.127428  -0.38455756            0  -0.33702548 0.0067083667 
  438600    18.120085    -0.384526            0  -0.33701317 0.00057406013 
  438700     18.23959  -0.38489195            0  -0.33706576 0.0024262682 
  438800    18.286674    -0.384994            0  -0.33704435  0.011540672 
  438900     18.66557  -0.38582663            0  -0.33688348 0.0013623371 
  439000    18.464489  -0.38511578            0  -0.33669988 0.0030845606 
  439100    18.408213  -0.38503776            0  -0.33676942 0.0014936572 
  439200     18.29296  -0.38458034            0  -0.33661421 0.0061495434 
  439300    18.418753  -0.38496566            0  -0.33666969 0.00062448364 
  439400    18.338822  -0.38484163            0  -0.33675524 0.0040351978 
  439500    18.359426  -0.38488743            0  -0.33674701 0.0075347927 
  439600    18.391925  -0.38499068            0  -0.33676505 0.0020349426 
  439700    18.430422  -0.38499572            0  -0.33666916 0.00059042843 
  439800    18.593055   -0.3853911            0  -0.33663809 0.0027970262 
  439900    18.566498  -0.38545405            0  -0.33677067 0.0050221348 
  440000     18.73163  -0.38568605            0  -0.33656968 0.0055347236 
  440100     18.64203  -0.38542216            0  -0.33654073 0.0064057297 
  440200    18.499409  -0.38514792            0  -0.33664046 0.0042399964 
  440300      18.5432  -0.38543115            0  -0.33680886 0.0031480232 
  440400    18.654675  -0.38558305            0  -0.33666846 0.0042854538 
  440500    18.675253   -0.3857452            0  -0.33677665 0.0061688367 
  440600    18.684956  -0.38577271            0  -0.33677872 0.0020991058 
  440700    18.450072  -0.38523286            0  -0.33685477 0.00022934281 
  440800    18.316645  -0.38496308            0  -0.33693485 0.0022369314 
  440900     18.39463  -0.38517953            0  -0.33694681 0.0051118637 
  441000    18.395473  -0.38517788            0  -0.33694295 0.0077563097 
  441100    18.497066  -0.38536598            0  -0.33686466 0.0044900009 
  441200    18.537439  -0.38534298            0   -0.3367358 0.00096092384 
  441300    18.305788  -0.38473966            0  -0.33673989 0.0060290257 
  441400    18.338681  -0.38483757            0  -0.33675155 0.0050709174 
  441500    18.193969  -0.38466007            0  -0.33695351 0.0074362849 
  441600    18.351437  -0.38494527            0  -0.33682581 0.0015885451 
  441700    18.385663  -0.38512186            0  -0.33691266 0.0015677519 
  441800     18.34519  -0.38508797            0  -0.33698489 0.0026712826 
  441900    18.313971  -0.38488624            0  -0.33686502 0.0055527572 
  442000    18.352209  -0.38505655            0  -0.33693506 0.0042967289 
  442100    18.567741  -0.38545899            0  -0.33677235 0.00035935873 
  442200    18.466535  -0.38521762            0  -0.33679636 0.0070858665 
  442300     18.47632  -0.38534193            0  -0.33689501 0.0051344855 
  442400    18.486123  -0.38531953            0   -0.3368469 0.0032957088 
  442500     18.41795  -0.38508006            0  -0.33678619 0.0029933396 
  442600    18.290963  -0.38489983            0  -0.33693894 0.0038981283 
  442700     18.44258  -0.38520695            0   -0.3368485 -0.000343733 
  442800    18.190234  -0.38451525            0  -0.33681848 0.0066785226 
  442900     18.26559  -0.38477733            0  -0.33688297 0.0016518168 
  443000    18.219259  -0.38472853            0  -0.33695566  0.002238289 
  443100    18.393063  -0.38503174            0  -0.33680313 0.0037399876 
  443200    18.487278  -0.38530058            0  -0.33682493 0.0052394323 
  443300    18.418092  -0.38501234            0   -0.3367181 0.0037509152 
  443400    18.290749  -0.38479527            0  -0.33683494 0.0055168005 
  443500    18.362902  -0.38493242            0  -0.33678289 0.0031045604 
  443600     18.31882  -0.38494688            0  -0.33691294  0.002624968 
  443700    18.219621  -0.38474442            0  -0.33697059 0.0037709818 
  443800    18.198636  -0.38462773            0  -0.33690892 0.0060125051 
  443900    18.255722  -0.38473012            0  -0.33686163 0.0033529908 
  444000    18.397281  -0.38502674            0  -0.33678707 -6.05771e-05 
  444100    18.274858  -0.38461486            0  -0.33669619 0.0027896501 
  444200    18.378352  -0.38473696            0  -0.33654693 0.0012497022 
  444300    18.365967  -0.38462316            0  -0.33646559 0.0062267415 
  444400    18.329014  -0.38447885            0  -0.33641818 0.0068832866 
  444500    18.321736  -0.38450669            0  -0.33646511  0.001834521 
  444600    18.047697  -0.38384091            0  -0.33651788 0.0046178552 
  444700    18.059758  -0.38381855            0   -0.3364639 -0.001663798 
  444800    17.867837  -0.38353867            0  -0.33668726 0.00028536697 
  444900    17.965289  -0.38377172            0  -0.33666478 0.0022570645 
  445000    18.003361  -0.38402697            0   -0.3368202 0.0091311262 
  445100    18.041181  -0.38433651            0  -0.33703057 0.0056260014 
  445200    18.153722  -0.38463382            0  -0.33703279 0.0004056697 
  445300    18.076657  -0.38447808            0  -0.33707912 0.0047453848 
  445400    18.032433  -0.38458615            0  -0.33730315  0.004682208 
  445500    18.096398  -0.38464776            0  -0.33719704 0.0012309423 
  445600    17.937713  -0.38411533            0  -0.33708069  0.006574928 
  445700    17.771554  -0.38360017            0  -0.33700122 0.0089650216 
  445800    17.922635   -0.3839171            0    -0.336922 -0.00079092996 
  445900    17.909016  -0.38367181            0  -0.33671243 0.0016777176 
  446000    17.992796  -0.38371411            0  -0.33653504 0.0055781532 
  446100    18.002484  -0.38387662            0  -0.33667215 0.0032455558 
  446200    17.807142  -0.38340903            0  -0.33671677 0.0042398469 
  446300    17.917551  -0.38361898            0  -0.33663721 0.0010744925 
  446400    18.001149  -0.38399556            0  -0.33679459 0.0030897084 
  446500    17.940704  -0.38378574            0  -0.33674326 0.0067383484 
  446600    18.077453  -0.38400718            0  -0.33660613 -0.0030590769 
  446700    17.767642  -0.38330385            0  -0.33671516 0.0040253017 
  446800    17.937997  -0.38376307            0  -0.33672769 0.0055341132 
  446900    17.977826  -0.38380834            0  -0.33666853 0.0083565697 
  447000     18.29919  -0.38469418            0  -0.33671172 -0.002579437 
  447100     18.00319  -0.38398385            0  -0.33677753   0.01011278 
  447200    18.056421   -0.3842528            0   -0.3369069 0.0045933321 
  447300    17.963213  -0.38392643            0  -0.33682493 -0.0016980459 
  447400    17.798793   -0.3836385            0  -0.33696813 0.0029605637 
  447500    17.862512  -0.38377256            0  -0.33693512 0.0020450245 
  447600    17.912177  -0.38379183            0  -0.33682415 0.0036957424 
  447700    17.977068  -0.38374967            0  -0.33661184 0.0074609653 
  447800    18.086075  -0.38402313            0  -0.33659948 -0.00039905809 
  447900    18.155801  -0.38411129            0   -0.3365048  0.004762727 
  448000    18.268731  -0.38433549            0  -0.33643289  0.008214095 
  448100     18.20164  -0.38408895            0  -0.33636227 0.0023020476 
  448200    18.050385  -0.38376292            0  -0.33643285  0.001444568 
  448300    18.051432  -0.38384918            0  -0.33651636 0.0066572935 
  448400    18.088003  -0.38378497            0  -0.33635626 0.0059574698 
  448500    18.199154  -0.38416883            0  -0.33644867 -0.0012948213 
  448600    18.231624  -0.38439301            0  -0.33658771 0.00081800262 
  448700    18.256029  -0.38430513            0  -0.33643584 0.0068692746 
  448800    18.276105  -0.38433852            0  -0.33641659 0.0051674344 
  448900    18.202241    -0.383993            0  -0.33626474  0.004031633 
  449000    18.165823  -0.38378917            0  -0.33615641  0.001873527 
  449100     18.10584  -0.38376583            0  -0.33629035 0.0044942073 
  449200    18.406474  -0.38444443            0  -0.33618065 0.0028293743 
  449300    18.637687  -0.38507719            0  -0.33620715 0.0073918777 
  449400    18.576715  -0.38510585            0  -0.33639569 0.0088873732 
  449500    18.466156  -0.38483488            0  -0.33641461 0.0042996046 
  449600    18.663881  -0.38527011            0  -0.33633138 -0.0014373877 
  449700    18.457559  -0.38481135            0  -0.33641363 0.0089081597 
  449800    18.529552  -0.38507366            0  -0.33648716 0.00017426696 
  449900    18.420603  -0.38486423            0   -0.3365634 -0.0021505694 
  450000    18.359674  -0.38471421            0  -0.33657314 0.0073997679 
  450100    18.549488  -0.38519528            0   -0.3365565 0.0051157607 
  450200    18.638818   -0.3852792            0  -0.33640619 0.0012270797 
  450300    18.492989  -0.38477935            0  -0.33628872  0.005602057 
  450400    18.677585   -0.3852543            0  -0.33627964 0.0024745418 
  450500    18.632871  -0.38520615            0  -0.33634873 0.0066487182 
  450600    18.717605  -0.38529556            0  -0.33621596 0.0031365984 
  450700    18.700524  -0.38528365            0  -0.33624884 0.00068286854 
  450800    18.526556  -0.38499012            0  -0.33641147  0.005543783 
  450900    18.512861  -0.38503457            0  -0.33649183 0.0042640707 
  451000    18.387524  -0.38464207            0  -0.33642799  0.001575386 
  451100    18.355083  -0.38458439            0  -0.33645537 -0.0011763621 
  451200    18.339555  -0.38446226            0  -0.33637396 0.0037690557 
  451300    18.477664   -0.3847448            0  -0.33629435 0.0033636681 
  451400    18.664958  -0.38534102            0  -0.33639947 0.0031458864 
  451500    18.829113  -0.38560928            0  -0.33623729 0.0084406687 
  451600    18.830915  -0.38560088            0  -0.33622417 0.0045134367 
  451700    18.746339  -0.38550471            0  -0.33634977 0.0024271053 
  451800    18.978022  -0.38586006            0  -0.33609763  0.004997267 
  451900    18.832978  -0.38552119            0  -0.33613907  0.011375554 
  452000    18.869681  -0.38556104            0  -0.33608269 0.0010953835 
  452100    18.962833  -0.38567791            0   -0.3359553 -0.002032903 
  452200    18.875412  -0.38566334            0  -0.33616995 0.0058726786 
  452300    18.913404  -0.38559734            0  -0.33600434 0.0073407296 
  452400    18.770967  -0.38552584            0  -0.33630632 0.0019220301 
  452500    18.705938  -0.38526246            0  -0.33621346 0.00084923433 
  452600     18.71111  -0.38540993            0  -0.33634736 0.0010960912 
  452700    18.525065  -0.38498309            0  -0.33640836 0.0055945753 
  452800     18.53234  -0.38510765            0  -0.33651384  0.004295515 
  452900    18.589786  -0.38513985            0   -0.3363954 0.0037626664 
  453000    18.478654  -0.38501467            0  -0.33656162 0.0068135836 
  453100    18.543702  -0.38516825            0  -0.33654464 0.0037996859 
  453200    18.488555  -0.38492405            0  -0.33644505  0.002695831 
  453300    18.626664  -0.38530775            0  -0.33646661 0.00086614839 
  453400    18.558591    -0.385222            0  -0.33655936 0.0070853746 
  453500    18.730848  -0.38559041            0  -0.33647609 0.0061290294 
  453600     18.82679  -0.38582143            0  -0.33645554 0.0021821305 
  453700    18.594761   -0.3852596            0  -0.33650212 0.0046183271 
  453800    18.612247  -0.38513626            0  -0.33633292 0.0016227125 
  453900    18.467259  -0.38481102            0  -0.33638785 0.0036593313 
  454000    18.604375  -0.38521663            0  -0.33643394 0.0025705733 
  454100    18.621152  -0.38530368            0    -0.336477 0.0058322566 
  454200    18.734375  -0.38570598            0  -0.33658241 0.0054161653 
  454300    18.829515  -0.38587383            0  -0.33650079 0.0060856242 
  454400     18.64025  -0.38532113            0  -0.33644436 0.0041941353 
  454500    18.588214  -0.38529131            0  -0.33655099 -0.0015063965 
  454600    18.830316  -0.38580912            0  -0.33643398 0.00040156145 
  454700    18.746348  -0.38561301            0  -0.33645805 0.0081499242 
  454800    18.807543  -0.38582038            0  -0.33650495  0.000247595 
  454900    18.795621  -0.38590898            0  -0.33662482 0.0034092632 
  455000    18.938431  -0.38637523            0   -0.3367166 0.0084165206 
  455100    18.970429  -0.38640119            0  -0.33665866  0.007124817 
  455200    18.869312  -0.38618497            0  -0.33670758 0.0057108628 
  455300    18.752937  -0.38582647            0  -0.33665423 0.0062315622 
  455400    18.644949  -0.38547352            0  -0.33658444 0.0062970192 
  455500    18.885132  -0.38591154            0  -0.33639267 0.00015866433 
  455600     19.01003  -0.38605427            0   -0.3362079 -4.7677189e-05 
  455700    18.956645   -0.3858644            0  -0.33615801 0.0091054585 
  455800    19.105681  -0.38605409            0  -0.33595692 0.0023351541 
  455900    18.879753  -0.38544329            0  -0.33593853 0.0058841956 
  456000    19.017937  -0.38584882            0  -0.33598173 0.0051425983 
  456100    18.747709  -0.38535462            0  -0.33619609 0.0077265432 
  456200     18.94989   -0.3858281            0  -0.33613943 -0.0034292512 
  456300    18.993599  -0.38612389            0  -0.33632061 -0.00062527235 
  456400    18.820795  -0.38585213            0  -0.33650196  0.013245507 
  456500    19.110752  -0.38649165            0  -0.33638118 0.0026486541 
  456600    18.879663  -0.38601846            0  -0.33651393 0.0055051114 
  456700      18.8885  -0.38608105            0  -0.33655335 0.0061566948 
  456800    18.856332  -0.38607522            0  -0.33663187 0.0042817628 
  456900     18.88209  -0.38591943            0  -0.33640854 -0.0023412084 
  457000    18.632564  -0.38517493            0  -0.33631832 0.0015300089 
  457100    18.595792  -0.38507585            0  -0.33631567 0.0066313663 
  457200    18.812108  -0.38559124            0  -0.33626385 0.0040744682 
  457300    18.709227  -0.38542236            0  -0.33636474 0.0066772229 
  457400    18.559284  -0.38503386            0  -0.33636939 0.0061184165 
  457500    18.541167  -0.38512787            0  -0.33651092 0.00010760097 
  457600    18.599216  -0.38523335            0  -0.33646418 0.0026646933 
  457700    18.623015  -0.38522837            0   -0.3363968 0.0073798042 
  457800    18.492216  -0.38494265            0  -0.33645405 0.0069562478 
  457900    18.589269  -0.38503922            0  -0.33629613 0.00092482882 
  458000    18.530429  -0.38474578            0  -0.33615698 0.0055481534 
  458100    18.622512   -0.3849048            0  -0.33607455 0.0049240391 
  458200    18.739692  -0.38528927            0  -0.33615176 -0.00076353839 
  458300    18.766468  -0.38533317            0  -0.33612545 0.0049615411 
  458400    18.796701  -0.38543526            0  -0.33614826 0.0057771141 
  458500    18.732001  -0.38535025            0  -0.33623291 0.0015945799 
  458600    18.796219  -0.38574433            0  -0.33645859 0.0020025222 
  458700    18.758432  -0.38579572            0  -0.33660907  0.011365561 
  458800    18.857157  -0.38603248            0  -0.33658696 0.0051509875 
  458900    18.852395  -0.38610559            0  -0.33667256 0.0024151926 
  459000     18.86966  -0.38613718            0  -0.33665888 0.0038187825 
  459100    18.917453  -0.38632424            0  -0.33672062 0.0057072233 
  459200    18.960117  -0.38644048            0  -0.33672499 0.0044401301 
  459300    18.912995  -0.38621873            0   -0.3366268 0.0032126077 
  459400    18.805641  -0.38584289            0  -0.33653245 0.0049635327 
  459500    18.667429  -0.38554743            0   -0.3365994 0.0027243845 
  459600    18.476763  -0.38503656            0  -0.33658848 0.0025532138 
  459700    18.438421  -0.38483224            0  -0.33648469 0.0012949189 
  459800    18.624344  -0.38547817            0  -0.33664311 0.0016208675 
  459900    18.852072  -0.38597769            0  -0.33654551 0.0060732355 
  460000    18.778546  -0.38585812            0  -0.33661873 0.0072896417 
  460100    18.578114  -0.38527256            0  -0.33655872 0.0040960821 
  460200    18.539456  -0.38519721            0  -0.33658474 0.0011662223 
  460300    18.546372  -0.38520411            0  -0.33657351 0.0030693929 
  460400    18.524156   -0.3850499            0  -0.33647754 0.0030397931 
  460500    18.592598  -0.38511527            0  -0.33636346 0.0031929959 
  460600    18.446799  -0.38493297            0  -0.33656346 0.0070829199 
  460700    18.566703  -0.38507765            0  -0.33639374 0.0011881534 
  460800    18.559971  -0.38489903            0  -0.33623277 -0.00070962005 
  460900    18.625834  -0.38510107            0  -0.33626211 0.0040390093 
  461000    18.630986  -0.38498201            0  -0.33612953 0.0086886889 
  461100    18.531593  -0.38469915            0  -0.33610729 0.0035920126 
  461200    18.291856  -0.38417187            0  -0.33620863 0.00080645847 
  461300    18.239796  -0.38412179            0  -0.33629506 0.0043158606 
  461400    18.570581  -0.38503413            0  -0.33634005 0.0024181697 
  461500    18.661578  -0.38531228            0  -0.33637959 0.0012056637 
  461600    18.697952  -0.38553178            0  -0.33650371 0.0030721799 
  461700    18.573618  -0.38518806            0  -0.33648602 0.0056141075 
  461800     18.45382  -0.38491164            0  -0.33652372 0.0041511109 
  461900    18.497357  -0.38496621            0  -0.33646413 -0.0002635982 
  462000    18.616983  -0.38523957            0  -0.33642382 -0.0015918065 
  462100    18.643163  -0.38532059            0  -0.33643619 0.0057960553 
  462200    18.754361  -0.38557497            0    -0.336399 0.0038175378 
  462300    18.660355   -0.3854181            0  -0.33648862 0.0025009969 
  462400    18.616154  -0.38511148            0   -0.3362979 0.0045455507 
  462500     18.57739  -0.38493153            0  -0.33621959 0.0057103426 
  462600    18.617446  -0.38523969            0  -0.33642272 0.00083193033 
  462700    18.515219  -0.38500384            0  -0.33645492 0.0073368377 
  462800    18.924682  -0.38581075            0  -0.33618817 -1.5947243e-05 
  462900    18.758264   -0.3852754            0  -0.33608919 0.0053378099 
  463000    18.753575  -0.38534518            0  -0.33617127 0.0039096043 
  463100    18.559071  -0.38511813            0  -0.33645422 0.0063389759 
  463200     18.69806  -0.38544152            0  -0.33641317 0.0027192415 
  463300    18.603199  -0.38540278            0  -0.33662317  0.006613222 
  463400    18.565037    -0.385298            0  -0.33661845 0.0002614646 
  463500    18.408776  -0.38497842            0   -0.3367086 0.0012621974 
  463600    18.343785  -0.38487442            0  -0.33677502 0.0030634372 
  463700    18.180631  -0.38434078            0  -0.33666918   0.00441713 
  463800    18.406489  -0.38480439            0  -0.33654057 0.00071462186 
  463900    18.490396  -0.38514221            0  -0.33665838 0.0072536832 
  464000    18.693734  -0.38565127            0  -0.33663427 0.0036284921 
  464100    18.548914  -0.38534081            0  -0.33670354 0.0045600612 
  464200    18.490909  -0.38517999            0  -0.33669482 0.00097754981 
  464300    18.471205  -0.38514898            0  -0.33671547 0.0021671662 
  464400    18.358402  -0.38479089            0  -0.33665316 0.0058772086 
  464500     18.49546  -0.38517534            0  -0.33667823 0.00015357684 
  464600    18.426298   -0.3850343            0  -0.33671855 0.0051895532 
  464700    18.532271  -0.38529983            0   -0.3367062 0.0048575362 
  464800     18.37469     -0.38509            0  -0.33690956 0.0014587087 
  464900    18.190498  -0.38446372            0  -0.33676626 0.0036304585 
  465000    18.487472  -0.38529249            0  -0.33681633 -0.0030507305 
  465100    18.545265  -0.38545599            0  -0.33682829 0.0071355356 
  465200     18.86762  -0.38622545            0   -0.3367525  0.005295678 
  465300    18.821452  -0.38613032            0  -0.33677842 0.0052124479 
  465400    18.677593  -0.38578488            0   -0.3368102 0.0043921654 
  465500    18.854799   -0.3862142            0  -0.33677487 -1.1058189e-05 
  465600    18.771809  -0.38593641            0  -0.33671468 0.0042389785 
  465700     18.73522  -0.38584206            0  -0.33671628  0.002577956 
  465800     18.66677  -0.38567624            0  -0.33672993 0.0082536719 
  465900    18.971194  -0.38632409            0  -0.33657956 0.0034351622 
  466000    18.809974  -0.38583893            0  -0.33651713 0.0058604567 
  466100    18.745138  -0.38569957            0  -0.33654778 0.0031530706 
  466200    18.430597  -0.38517727            0  -0.33685024 0.0073178847 
  466300    18.518025  -0.38540703            0  -0.33685075 0.0015082141 
  466400    18.512619  -0.38536532            0  -0.33682322 2.6126238e-05 
  466500    18.372685  -0.38506761            0  -0.33689243 0.0027120758 
  466600    18.486128  -0.38538536            0  -0.33691272  0.001725606 
  466700    18.407126  -0.38518887            0  -0.33692338 0.0097376063 
  466800    18.599213  -0.38545508            0  -0.33668592 0.0028015883 
  466900    18.414285  -0.38508424            0  -0.33679998  0.004125317 
  467000    18.410707  -0.38502863            0  -0.33675375 0.0048836253 
  467100    18.312394  -0.38477115            0  -0.33675406   0.00470412 
  467200    18.195621  -0.38459008            0  -0.33687918 -0.00045489984 
  467300    18.025706  -0.38400687            0  -0.33674151 0.00021171548 
  467400    18.021486  -0.38404591            0  -0.33679161  0.002341024 
  467500    18.316158  -0.38476287            0  -0.33673591  0.001092906 
  467600    18.381668  -0.38467372            0  -0.33647499 0.0074481937 
  467700    18.262658  -0.38474804            0  -0.33686136 0.0054422294 
  467800    18.238449  -0.38432407            0  -0.33650087 0.0019366596 
  467900    18.194671  -0.38441448            0  -0.33670608 0.0029328681 
  468000    18.424765  -0.38497738            0  -0.33666564 0.0015027394 
  468100    18.251486  -0.38459807            0  -0.33674069 0.0085661919 
  468200    18.489484  -0.38510248            0  -0.33662104 0.0013549797 
  468300    18.333415  -0.38491315            0  -0.33684094 0.0033259712 
  468400    18.448418  -0.38503989            0  -0.33666613 -0.00080531129 
  468500    18.365019  -0.38496409            0  -0.33680901 0.00017432397 
  468600    18.469092  -0.38521342            0  -0.33678545 0.0049725881 
  468700    18.444531  -0.38529694            0  -0.33693338  0.010525653 
  468800    18.803684  -0.38609314            0  -0.33678784 0.0026448029 
  468900    18.953633  -0.38621035            0  -0.33651186 0.0059316035 
  469000    18.964437  -0.38638921            0  -0.33666239 0.0052226555 
  469100    18.953753  -0.38614441            0  -0.33644561 -0.0013160233 
  469200    18.674428  -0.38538315            0  -0.33641677 0.0062256225 
  469300    18.842542  -0.38582164            0  -0.33641445 0.0029232845 
  469400    18.846143  -0.38598136            0  -0.33656473 0.0047024201 
  469500    18.991428  -0.38642316            0  -0.33662557 0.0061898101 
  469600    18.742359  -0.38583792            0  -0.33669342 0.0081239394 
  469700    18.867167  -0.38606218            0  -0.33659042 -0.0029828711 
  469800    18.641688  -0.38546884            0   -0.3365883 0.0078576539 
  469900    18.913833  -0.38606503            0   -0.3364709 0.0046233309 
  470000    18.770077  -0.38570592            0  -0.33648874 0.0044356336 
  470100     18.83569  -0.38589666            0  -0.33650743 0.00085288347 
  470200    18.951402   -0.3862111            0  -0.33651846 0.0015340406 
  470300    18.830706  -0.38617663            0  -0.33680047 0.0057835591 
  470400    18.956487  -0.38649043            0  -0.33678446 0.0042858767 
  470500     18.85553  -0.38635991            0  -0.33691866 0.0037717194 
  470600    18.720134  -0.38601974            0  -0.33693351 0.0059871443 
  470700    18.681916  -0.38584417            0  -0.33685816 0.00046849224 
  470800    18.710736  -0.38587653            0  -0.33681494 0.00044121513 
  470900    18.572826  -0.38551338            0  -0.33681341 0.0078922696 
  471000    18.758473  -0.38611008            0  -0.33692333 0.0028088975 
  471100    18.729149  -0.38578287            0    -0.336673 0.0011509292 
  471200    18.598718  -0.38547389            0  -0.33670603 0.0030834293 
  471300    18.632799  -0.38557856            0  -0.33672133 -0.0016941193 
  471400    18.512131  -0.38513532            0   -0.3365945 0.0028126469 
  471500    18.707608  -0.38558214            0  -0.33652875 0.0032850037 
  471600    18.806807  -0.38586743            0  -0.33655394 0.0023891721 
  471700    18.955335  -0.38614629            0  -0.33644334 0.0059500857 
  471800    19.008444  -0.38630549            0  -0.33646328 0.0048559065 
  471900    18.915835  -0.38618989            0  -0.33659052 -0.0015815686 
  472000     18.77642  -0.38582802            0  -0.33659421 0.0046727931 
  472100     18.65873  -0.38553989            0  -0.33661467  0.011251023 
  472200    18.791745  -0.38613621            0  -0.33686221 0.0033529877 
  472300    18.583667  -0.38569079            0   -0.3369624 0.0063160949 
  472400     18.48287  -0.38530628            0  -0.33684218 0.0060431159 
  472500    18.489268   -0.3854006            0  -0.33691973 0.00014748329 
  472600    18.405959  -0.38515988            0  -0.33689746 0.0054698854 
  472700    18.530224  -0.38523318            0  -0.33664491 0.0037997255 
  472800    18.467549  -0.38511473            0  -0.33669081  0.005278628 
  472900    18.719465  -0.38564108            0   -0.3365566  0.006378431 
  473000     18.56102  -0.38507376            0  -0.33640475  0.012130155 
  473100    18.704202  -0.38535807            0  -0.33631362 -0.00053541088 
  473200     18.46422   -0.3848414            0   -0.3364262 0.0033681478 
  473300    18.225567  -0.38426697            0  -0.33647755 0.0085730524 
  473400    18.577728  -0.38518812            0  -0.33647529 -0.0020808772 
  473500     18.40169   -0.3847399            0  -0.33648867  0.006304226 
  473600    18.667548   -0.3855284            0  -0.33658006 0.0031326511 
  473700    18.604153  -0.38550011            0    -0.336718 0.0055475907 
  473800    18.446591  -0.38514978            0  -0.33678081 0.0059220228 
  473900    18.339205  -0.38478373            0  -0.33669634 0.0014798274 
  474000    18.510727  -0.38527586            0  -0.33673872 -0.0030072549 
  474100    18.365096  -0.38493636            0  -0.33678108 0.0070394514 
  474200    18.601248  -0.38546694            0  -0.33669245 0.0027066057 
  474300    18.441458  -0.38501936            0  -0.33666385 0.0057310459 
  474400    18.547062  -0.38520422            0  -0.33657181 0.0037150736 
  474500     18.64399  -0.38557572            0  -0.33668915 0.0048568946 
  474600     18.45362  -0.38498367            0  -0.33659628 0.0090852564 
  474700     18.40545  -0.38487534            0  -0.33661424 0.0018554155 
  474800    18.464334  -0.38502796            0  -0.33661246 -0.0015767514 
  474900    18.550242  -0.38527031            0  -0.33662956 0.0027112852 
  475000    18.551155  -0.38536513            0  -0.33672199  0.008616392 
  475100    18.823733   -0.3859943            0  -0.33663642 0.0018751924 
  475200    18.656191  -0.38553254            0  -0.33661398 0.0055039894 
  475300    18.759884  -0.38587853            0  -0.33668808 -0.0012135673 
  475400    18.594388  -0.38535288            0  -0.33659637 0.0038365007 
  475500    18.717809   -0.3857716            0  -0.33669147 0.0029191185 
  475600    18.836378   -0.3863367            0  -0.33694567 0.0055371996 
  475700    18.960254  -0.38643275            0   -0.3367169  0.005606909 
  475800    18.762597  -0.38600583            0  -0.33680826 0.0060978728 
  475900    18.768123  -0.38604458            0  -0.33683252 0.0035078575 
  476000    18.862016  -0.38631602            0  -0.33685776 -0.0013208627 
  476100    18.705053  -0.38605924            0  -0.33701256 0.0057007346 
  476200    18.767075  -0.38616394            0  -0.33695463 0.0032317864 
  476300    18.634574  -0.38573171            0  -0.33686983 0.0042428503 
  476400    18.505525   -0.3854481            0   -0.3369246  0.004908679 
  476500    18.605549  -0.38579083            0  -0.33700506  0.001885847 
  476600    18.745665  -0.38602006            0  -0.33686688 0.0046318506 
  476700    18.758128   -0.3862185            0  -0.33703265 0.0051914266 
  476800    18.745416  -0.38584565            0  -0.33669313 0.0076383572 
  476900    19.013599  -0.38684174            0  -0.33698602 0.0016860689 
  477000     19.00572  -0.38651205            0  -0.33667699 0.0061223959 
  477100    18.830054  -0.38606348            0  -0.33668903 0.0059395755 
  477200    18.671966  -0.38552746            0  -0.33656753 0.0040911234 
  477300    18.629652  -0.38555606            0  -0.33670709 0.0010471089 
  477400    18.580436  -0.38550966            0  -0.33678973 0.0039455692 
  477500    18.564891  -0.38566072            0  -0.33698156 0.0065980745 
  477600    18.611386  -0.38579735            0  -0.33699627 0.0028629728 
  477700     18.61841  -0.38578168            0  -0.33696218 -0.00087670499 
  477800    18.404688   -0.3854144            0  -0.33715531 0.0047339886 
  477900    18.605527  -0.38568821            0  -0.33690249 0.0020762466 
  478000    18.694922  -0.38596019            0  -0.33694007 0.0011525165 
  478100    18.545809  -0.38538382            0   -0.3367547 0.0079499155 
  478200    18.578642  -0.38550731            0  -0.33679209 0.0038837143 
  478300    18.527101  -0.38534406            0  -0.33676399   0.00136431 
  478400    18.587139  -0.38531282            0  -0.33657532 0.0049098181 
  478500     18.53108  -0.38519351            0    -0.336603  0.007734131 
  478600    18.565785  -0.38549017            0  -0.33680867 0.0020443455 
  478700    18.652694  -0.38551958            0  -0.33661019 0.0036237128 
  478800    18.711828  -0.38570885            0  -0.33664441 0.0028085373 
  478900    18.600944  -0.38553696            0  -0.33676326  0.003746625 
  479000    18.787033  -0.38589458            0  -0.33663293 -0.00072734308 
  479100    18.531827   -0.3852043            0  -0.33661183  0.006369648 
  479200    18.642809  -0.38559524            0  -0.33671176 0.00088516538 
  479300    18.689194  -0.38589855            0  -0.33689345 0.0017961267 
  479400    18.576601  -0.38534343            0  -0.33663356 0.0067336941 
  479500     18.36657  -0.38488009            0  -0.33672095 0.0032042276 
  479600    18.653197  -0.38551504            0  -0.33660433 -0.0016353388 
  479700    18.558549  -0.38555969            0  -0.33689715  0.012553911 
  479800    18.937826  -0.38615269            0  -0.33649565 0.0051413865 
  479900    18.848434  -0.38584538            0  -0.33642274 0.0029459929 
  480000    18.853019  -0.38572517            0   -0.3362905 0.0039421105 
  480100    18.761895  -0.38589537            0  -0.33669964 0.0037163082 
  480200    18.942928  -0.38605296            0  -0.33638254 0.00099915843 
  480300    18.977901  -0.38634098            0  -0.33657887 0.0036943006 
  480400    19.015489  -0.38654828            0   -0.3366876 0.0042603302 
  480500    18.925524  -0.38647054            0  -0.33684576 0.0034370009 
  480600    18.866312  -0.38623229            0  -0.33676277  0.004569935 
  480700     18.82914  -0.38616917            0  -0.33679711  0.004539197 
  480800    18.749367  -0.38611953            0  -0.33695665 0.0021951769 
  480900    18.729962  -0.38597494            0  -0.33686294 0.0044229605 
  481000    18.807175  -0.38619591            0  -0.33688145 0.0044056782 
  481100    18.736523  -0.38598131            0   -0.3368521 0.0085489339 
  481200    18.654194  -0.38580244            0  -0.33688911 0.0046561826 
  481300    18.713855  -0.38578414            0  -0.33671438 -0.0022161254 
  481400    18.735065  -0.38587576            0  -0.33675038 0.0023157641 
  481500    18.637308  -0.38544715            0   -0.3365781  0.011828663 
  481600     18.77834  -0.38581577            0  -0.33657692 0.0066730894 
  481700    18.814118  -0.38567485            0  -0.33634219 0.0042901751 
  481800     18.82684  -0.38577202            0    -0.336406 0.00079397001 
  481900    18.826201  -0.38553051            0  -0.33616616 0.0018072885 
  482000    19.008656  -0.38600732            0  -0.33616456 0.0028839199 
  482100     18.75917  -0.38551085            0  -0.33632226  0.010513686 
  482200    18.841421  -0.38558529            0  -0.33618104 -0.0015515849 
  482300    18.808349  -0.38555892            0  -0.33624139 0.0030683302 
  482400    18.947431  -0.38610272            0  -0.33642049  0.008405421 
  482500    19.160596  -0.38667301            0  -0.33643185 0.0056264899 
  482600    19.159782  -0.38658455            0  -0.33634552  0.004875045 
  482700    18.923796  -0.38595032            0  -0.33633007 0.0089511256 
  482800    19.054994  -0.38641375            0  -0.33644948 -0.0025367977 
  482900    19.004694  -0.38626017            0  -0.33642779 0.00098942218 
  483000    18.977218  -0.38640536            0  -0.33664503  0.011129022 
  483100    19.137215  -0.38669278            0  -0.33651293  0.008507811 
  483200    19.067873  -0.38652087            0  -0.33652283 0.0025946531 
  483300    18.826349  -0.38611785            0  -0.33675312 0.0024558509 
  483400    18.689279  -0.38572824            0  -0.33672291 0.0029665009 
  483500    18.711301  -0.38572951            0  -0.33666645 -0.00087522347 
  483600    18.599593  -0.38568293            0  -0.33691277 0.0036295621 
  483700    18.676083  -0.38572288            0  -0.33675216 0.0074468205 
  483800    18.789772  -0.38585198            0  -0.33658315 0.0052122094 
  483900    18.757785   -0.3859253            0  -0.33674035 0.0053163599 
  484000     18.95546  -0.38618862            0  -0.33648534 0.0018438055 
  484100    18.803147  -0.38585047            0  -0.33654658 0.0056228468 
  484200    18.644349  -0.38546839            0  -0.33658088 0.0079072394 
  484300    18.801865  -0.38581429            0  -0.33651375 0.00049792952 
  484400    18.749809  -0.38571903            0  -0.33655499 0.0016730618 
  484500    18.648295  -0.38555769            0  -0.33665983 0.0051197931 
  484600    18.675768  -0.38566321            0  -0.33669332 0.0027803967 
  484700    18.584418  -0.38538467            0  -0.33665431 0.0066660465 
  484800    18.691595  -0.38572795            0  -0.33671656 0.0033531918 
  484900    18.531296  -0.38517438            0  -0.33658331 0.0051465269 
  485000    18.683071  -0.38544465            0   -0.3364556 -0.00056521579 
  485100    18.630619  -0.38529839            0  -0.33644688 0.0042395372 
  485200    18.779535  -0.38559114            0  -0.33634915 0.0020628828 
  485300    18.769769  -0.38550955            0  -0.33629318 0.0045258296 
  485400    18.903795  -0.38595403            0  -0.33638623 0.0021432022 
  485500     18.81325  -0.38565206            0  -0.33632168 0.0068094774 
  485600    18.826612  -0.38581171            0  -0.33644628 0.0031559772 
  485700    18.808758  -0.38587269            0  -0.33655408 0.0022991768 
  485800    18.896974  -0.38619488            0  -0.33664496  0.003429264 
  485900    18.791064  -0.38590064            0  -0.33662843 0.0031557751 
  486000    18.707992  -0.38554699            0   -0.3364926 2.017291e-05 
  486100    18.702752   -0.3854978            0  -0.33645715 0.0041199096 
  486200    18.722278   -0.3856599            0  -0.33656805 0.0045329168 
  486300    18.602618  -0.38514349            0  -0.33636541 0.0033438777 
  486400    18.661971  -0.38538703            0  -0.33645332 -0.00067555504 
  486500    18.611222  -0.38533503            0  -0.33653438 0.0082522256 
  486600    18.785367  -0.38588246            0  -0.33662519 0.0045764673 
  486700    18.776969  -0.38586327            0  -0.33662802 0.0016810803 
  486800    18.715009  -0.38581291            0  -0.33674012 0.0058266768 
  486900    18.632321  -0.38555241            0  -0.33669644  0.010438042 
  487000    18.730848  -0.38569653            0  -0.33658221 -0.0016118919 
  487100    18.511209  -0.38507162            0  -0.33653322 -0.00039079734 
  487200    18.354321  -0.38461726            0  -0.33649023 0.0067365976 
  487300    18.470003  -0.38486609            0  -0.33643573 0.0043969594 
  487400    18.494091  -0.38492034            0  -0.33642683 0.0035914287 
  487500    18.456199  -0.38476336            0   -0.3363692 0.0032264554 
  487600     18.50472  -0.38495766            0  -0.33643628 0.0030222572 
  487700    18.747541  -0.38549638            0  -0.33633828 0.0028319116 
  487800    18.648297  -0.38520773            0  -0.33630987 0.0076463587 
  487900    18.575675  -0.38520379            0  -0.33649635 0.0031534369 
  488000    18.656722  -0.38525068            0  -0.33633072 0.0014513678 
  488100    18.562413  -0.38504463            0  -0.33637196 0.0049202562 
  488200     18.57435  -0.38504736            0  -0.33634339 0.0041898351 
  488300    18.514791  -0.38491005            0  -0.33636225 0.0061285793 
  488400    18.625962  -0.38517575            0  -0.33633645 0.0015212434 
  488500    18.501657  -0.38478773            0  -0.33627437 0.0033046056 
  488600    18.549477  -0.38481824            0  -0.33617949 0.0019475933 
  488700    18.498573  -0.38476613            0  -0.33626086 0.0032284849 
  488800     18.70032  -0.38523656            0  -0.33620229 0.00078273962 
  488900    18.734379  -0.38539627            0  -0.33627269 0.0060620739 
  489000      18.7477  -0.38565714            0  -0.33649863 0.0042443599 
  489100    18.947341  -0.38625343            0  -0.33657144 7.7589412e-05 
  489200    18.663945   -0.3856084            0  -0.33666951 0.0088334519 
  489300    18.756192  -0.38582959            0  -0.33664881 0.0037249456 
  489400    18.589677  -0.38536309            0  -0.33661894 0.0043853002 
  489500    18.736652  -0.38562063            0   -0.3364911 0.0012936113 
  489600    18.701434  -0.38560495            0  -0.33656776 0.0073735577 
  489700    18.808041  -0.38573654            0  -0.33641981 0.0035180756 
  489800    18.769474  -0.38554515            0  -0.33632955 0.00060132637 
  489900    18.577448  -0.38520476            0  -0.33649267 0.0026910955 
  490000    18.731913  -0.38548368            0  -0.33636657 0.0013194361 
  490100    18.878137  -0.38587129            0  -0.33637077 0.0031268573 
  490200    18.731681  -0.38547369            0  -0.33635718  0.010442952 
  490300    18.870757  -0.38591032            0  -0.33642914 0.0023389287 
  490400    18.805441  -0.38561183            0  -0.33630191 0.0029830324 
  490500    18.707431  -0.38524361            0  -0.33619069 0.0045613929 
  490600    18.750363  -0.38532292            0  -0.33615743 0.00055980771 
  490700    18.602482  -0.38508532            0  -0.33630759 0.0045409821 
  490800        18.69  -0.38533983            0  -0.33633262 0.0015629684 
  490900    18.586285  -0.38510373            0  -0.33636847 0.0042568556 
  491000    18.646987  -0.38537127            0  -0.33647684 0.0041529038 
  491100    18.581682  -0.38526946            0  -0.33654627 0.0037238688 
  491200    18.636736  -0.38516144            0  -0.33629389   0.00179123 
  491300    18.589227  -0.38532323            0  -0.33658025 0.0045234677 
  491400    18.688949  -0.38542135            0  -0.33641689 0.0055731764 
  491500    18.686196  -0.38538165            0  -0.33638441 0.0065887735 
  491600    18.823141  -0.38570567            0  -0.33634935 -0.0013259756 
  491700    18.687771  -0.38541999            0  -0.33641863 0.0016747514 
  491800    18.785138  -0.38559937            0  -0.33634269 0.0049901922 
  491900    18.843079  -0.38577361            0  -0.33636501 0.0049800756 
  492000    18.753867  -0.38549714            0  -0.33632246 0.0059896033 
  492100    18.522008  -0.38504253            0  -0.33647581 0.0050788631 
  492200    18.370022   -0.3845357            0   -0.3363675 0.0041863769 
  492300    18.450766  -0.38472861            0  -0.33634869 0.0046411062 
  492400    18.567718  -0.38516275            0  -0.33647618 -0.00024653107 
  492500    18.683279  -0.38532827            0  -0.33633868 0.00058809758 
  492600    18.582367  -0.38512184            0  -0.33639685 0.0075095526 
  492700    18.733074    -0.385711            0  -0.33659084 0.0016048646 
  492800    18.505946  -0.38512697            0  -0.33660237  0.010084633 
  492900    18.595924  -0.38520453            0  -0.33644399 0.0086186263 
  493000    18.645154  -0.38533825            0  -0.33644863 0.0044257761 
  493100    18.649555   -0.3854055            0  -0.33650434 0.0040674554 
  493200    18.619123  -0.38535757            0  -0.33653621 0.0040990404 
  493300    18.612284  -0.38522418            0  -0.33642075 0.0036632997 
  493400     18.66968  -0.38546202            0  -0.33650809 -0.0011076508 
  493500    18.549341  -0.38508069            0   -0.3364423 0.0060464506 
  493600    18.602297  -0.38523914            0  -0.33646189 0.0057748376 
  493700    18.595807  -0.38506473            0   -0.3363045 0.0024347873 
  493800    18.565926    -0.384895            0  -0.33621312 0.0021214562 
  493900    18.568425  -0.38476074            0  -0.33607231 0.0012568298 
  494000    18.540132  -0.38487189            0  -0.33625764 0.0031621005 
  494100    18.724131  -0.38500083            0  -0.33590412 0.0049882686 
  494200    18.822332  -0.38525321            0  -0.33589901 0.0017536904 
  494300    18.620824  -0.38490559            0  -0.33607977 0.0068943935 
  494400     18.70076  -0.38523141            0  -0.33619598 0.0037364933 
  494500    18.760016  -0.38532454            0  -0.33613374 0.0030825497 
  494600    18.642615  -0.38499717            0   -0.3361142 0.0057299851 
  494700    18.721383  -0.38534362            0  -0.33625411 0.0046309735 
  494800    18.871807  -0.38551541            0  -0.33603147 0.0024383417 
  494900    18.655723  -0.38526969            0  -0.33635236 0.0060153772 
  495000    18.791353  -0.38534317            0   -0.3360702  0.005166672 
  495100    18.665202   -0.3851892            0  -0.33624701 0.0054513095 
  495200    18.698133  -0.38524781            0  -0.33621928 0.0021281614 
  495300    18.671738  -0.38523654            0  -0.33627721 0.0099106452 
  495400     18.52613  -0.38477336            0  -0.33619584  0.012156494 
  495500    18.425189  -0.38460725            0   -0.3362944 0.0010677123 
  495600    18.259575  -0.38395121            0  -0.33607262 0.0010141244 
  495700    18.450057  -0.38427398            0  -0.33589592 0.0011133209 
  495800    18.342918  -0.38432739            0  -0.33623026 0.0071710888 
  495900    18.437776  -0.38441124            0  -0.33606539 0.0012073687 
  496000    18.162256  -0.38374077            0  -0.33611737 0.0042841071 
  496100     17.98758   -0.3835516            0  -0.33638621  0.003777923 
  496200    18.252013  -0.38410575            0  -0.33624699 5.3971675e-05 
  496300    18.313172  -0.38428381            0  -0.33626468 0.0041494371 
  496400     18.23211   -0.3841256            0  -0.33631902 0.0055724377 
  496500    18.366697  -0.38431226            0  -0.33615279 0.0002569059 
  496600    18.427727  -0.38457741            0  -0.33625791 0.0025424239 
  496700    18.412903  -0.38462233            0  -0.33634169 0.0080271399 
  496800    18.592062  -0.38514623            0  -0.33639582 0.00089847235 
  496900    18.503994  -0.38502573            0  -0.33650624 0.0032979111 
  497000    18.577169  -0.38533086            0   -0.3366195 0.0045447262 
  497100    18.513652   -0.3851744            0  -0.33662959 0.0041325819 
  497200    18.324853  -0.38469902            0  -0.33664926  0.004990826 
  497300    18.450201  -0.38502526            0  -0.33664683 0.0011808807 
  497400    18.481543  -0.38518588            0  -0.33672526 0.0063916023 
  497500    18.442733  -0.38504386            0  -0.33668501 0.0074032549 
  497600    18.485202  -0.38509453            0  -0.33662432  0.001804378 
  497700     18.36636  -0.38462551            0  -0.33646691 0.0081970306 
  497800    18.471425  -0.38486503            0  -0.33643094  0.005948511 
  497900    18.432019  -0.38475586            0   -0.3364251 0.0048910199 
  498000    18.487503  -0.38476884            0  -0.33629259 -0.00082263472 
  498100    18.378597  -0.38461061            0  -0.33641993 0.0039413319 
  498200    18.426268  -0.38465307            0  -0.33633739 0.0032058704 
  498300     18.40157  -0.38467988            0  -0.33642897 0.0022423907 
  498400    18.385384  -0.38466454            0  -0.33645607 0.00061012195 
  498500     18.30028  -0.38453771            0  -0.33655238 0.0042542471 
  498600    18.461993  -0.38480096            0   -0.3363916 0.0084941545 
  498700     18.51893  -0.38505577            0  -0.33649712 0.0036322888 
  498800    18.253185  -0.38433054            0  -0.33646871 0.0054898752 
  498900    18.220169  -0.38435048            0  -0.33657521 -0.0014956002 
  499000    18.085142  -0.38401501            0   -0.3365938 0.0026123672 
  499100    18.210239  -0.38448228            0  -0.33673305 -0.0030490552 
  499200    18.190403   -0.3842973            0  -0.33660008 0.0019451526 
  499300    18.188848  -0.38428609            0  -0.33659296 0.0094059884 
  499400    18.333027  -0.38456865            0  -0.33649746 0.0048823267 
  499500    18.395551  -0.38455374            0  -0.33631861 0.0012779212 
  499600    18.187565  -0.38409826            0  -0.33640848 0.0062588671 
  499700    18.124372  -0.38394998            0  -0.33642591 0.0036289706 
  499800    18.179408  -0.38427916            0  -0.33661077 0.00086637338 
  499900    18.347087  -0.38450172            0  -0.33639367  0.005068482 
  500000     18.38364  -0.38468301            0  -0.33647911 0.0049628547 
Loop time of 5716.12 on 64 procs for 500000 steps with 585216 atoms

Performance: 37787.850 tau/day, 87.472 timesteps/s
98.9% CPU use with 64 MPI tasks x 1 OpenMP threads

MPI task timing breakdown:
Section |  min time  |  avg time  |  max time  |%varavg| %total
---------------------------------------------------------------
Pair    | 1375.3     | 1844.4     | 3154.9     | 885.5 | 32.27
Bond    | 0.082621   | 0.11102    | 0.19311    |   6.7 |  0.00
Neigh   | 215.1      | 280.18     | 438.35     | 258.5 |  4.90
Comm    | 1232       | 2626.7     | 3200.1     | 777.9 | 45.95
Output  | 254.08     | 255.22     | 255.62     |   1.7 |  4.46
Modify  | 434.45     | 525.97     | 659.36     | 309.7 |  9.20
Other   |            | 183.5      |            |       |  3.21

Nlocal:        9144.00 ave       12594 max        3952 min
Histogram: 1 2 2 9 7 12 9 8 8 6
Nghost:        11912.5 ave       19004 max        6349 min
Histogram: 2 7 8 17 5 12 5 4 2 2
Neighs:       282465.0 ave      390018 max      108532 min
Histogram: 1 2 1 10 5 12 6 13 6 8

Total # of neighbors = 18077741
Ave neighs/atom = 30.890716
Ave special neighs/atom = 0.0000000
Neighbor list builds = 16904
Dangerous builds = 0

write_data      data.cubes
System init for write_data ...
WARNING: Not all mixed pair coeffs generated from mixing. Use write_data with 'pair ij' option to store all pair coeffs. (src/write_data.cpp:312)
Total wall time: 1:35:25
