LAMMPS (29 Oct 2020)
  using 1 OpenMP thread(s) per MPI task
units           lj
atom_style      full
atom_modify     map array first cubes
dimension       3
boundary        p p f

variable        sigma           equal 1.0
variable        epsilon         equal 1.0

region 		box block 0 100 0 100 0 133

read_data       data.rigid
Reading data file ...
  orthogonal box = (0.0000000 0.0000000 0.0000000) to (14.285700 14.285700 13.000000)
  4 by 4 by 4 MPI processor grid
  reading atoms ...
  1143 atoms
Finding 1-2 1-3 1-4 neighbors ...
  special bond factors lj:    0.0      0.0      0.0     
  special bond factors coul:  0.0      0.0      0.0     
     0 = max # of 1-2 neighbors
     0 = max # of 1-3 neighbors
     0 = max # of 1-4 neighbors
     1 = max # of special neighbors
  special bonds CPU = 1.369 seconds
  read_data CPU = 1.445 seconds

replicate       7 7 10			# 490 cubes
Replicating atoms ...
WARNING: Replicating in a non-periodic dimension (src/replicate.cpp:75)
  orthogonal box = (0.0000000 0.0000000 0.0000000) to (99.999900 99.999900 130.00000)
  4 by 4 by 4 MPI processor grid
  560070 atoms
Finding 1-2 1-3 1-4 neighbors ...
  special bond factors lj:    0.0      0.0      0.0     
  special bond factors coul:  0.0      0.0      0.0     
     0 = max # of 1-2 neighbors
     0 = max # of 1-3 neighbors
     0 = max # of 1-4 neighbors
     1 = max # of special neighbors
  special bonds CPU = 0.017 seconds
  replicate CPU = 0.036 seconds

group           cubes type 2 3
560070 atoms in group cubes


## relax the structure

pair_style      soft 1.12
pair_coeff      1 1 0.0 0.0
pair_coeff      2 2 0.0
pair_coeff      3 3 0.0
pair_coeff      1 3 0.0 0.0
pair_coeff      2 3 0.0
pair_coeff      1 2 0.0 0.0

variable        prefactor equal ramp(0,60)
fix             soft all adapt 1 pair soft a * * v_prefactor

neighbor        0.3 bin
neigh_modify    delay 0 every 1 check yes

#fix             1     cubes rigid molecule

dump 		1 all movie 100 movie.avi type type

compute         tbig all temp
thermo_modify   temp tbig

thermo          100
run             1000
Neighbor list info ...
  update every 1 steps, delay 0 steps, check yes
  max neighbors/atom: 2000, page size: 100000
  master list distance cutoff = 1.42
  ghost atom cutoff = 1.42
  binsize = 0.71, bins = 141 141 184
  1 neighbor lists, perpetual/occasional/extra = 1 0 0
  (1) pair soft, perpetual
      attributes: half, newton on
      pair build: half/bin/newton
      stencil: half/bin/3d/newton
      bin: standard
Setting up Verlet run ...
  Unit style    : lj
  Current step  : 0
  Time step     : 0.005
Per MPI rank memory allocation (min/avg/max) = 9.257 | 9.321 | 9.354 Mbytes
Step Temp E_pair E_mol TotEng Press 
       0            0            0            0            0            0 
     100            0   0.90670399            0   0.90670399    2.1496369 
     200            0     1.813408            0     1.813408    4.2992737 
     300            0     2.720112            0     2.720112    6.4489106 
     400            0    3.6268159            0    3.6268159    8.5985474 
     500            0    4.5335199            0    4.5335199    10.748184 
     600            0    5.4402239            0    5.4402239    12.897821 
     700            0    6.3469279            0    6.3469279    15.047458 
     800            0    7.2536319            0    7.2536319    17.197095 
     900            0    8.1603359            0    8.1603359    19.346732 
    1000            0    9.0670399            0    9.0670399    21.496369 
Loop time of 2.72093 on 64 procs for 1000 steps with 560070 atoms

Performance: 158769.357 tau/day, 367.522 timesteps/s
99.2% CPU use with 64 MPI tasks x 1 OpenMP threads

MPI task timing breakdown:
Section |  min time  |  avg time  |  max time  |%varavg| %total
---------------------------------------------------------------
Pair    | 0.8889     | 1.1708     | 2.078      |  25.2 | 43.03
Bond    | 7.7583e-05 | 0.0003049  | 0.00091008 |   0.0 |  0.01
Neigh   | 0          | 0          | 0          |   0.0 |  0.00
Comm    | 0.206      | 0.90139    | 1.4245     |  33.5 | 33.13
Output  | 0.31073    | 0.31443    | 0.32003    |   0.6 | 11.56
Modify  | 0.0020333  | 0.0033689  | 0.0079434  |   2.4 |  0.12
Other   |            | 0.3307     |            |       | 12.15

Nlocal:        8751.09 ave        9973 max        7116 min
Histogram: 2 6 4 2 10 16 0 8 8 8
Nghost:        2410.16 ave        3809 max        1415 min
Histogram: 8 8 8 8 10 2 12 0 6 2
Neighs:        67390.3 ave       78281 max       54243 min
Histogram: 4 6 2 4 16 4 12 0 4 12

Total # of neighbors = 4312980
Ave neighs/atom = 7.7007874
Ave special neighs/atom = 0.0000000
Neighbor list builds = 0
Dangerous builds = 0
unfix 		soft

reset_timestep 	0

# Jetzt die eigentliche verteilung

pair_style	lj/cut/opt 2.5
pair_modify	shift yes

pair_coeff	1 1 0.0 0.0

pair_coeff	2 2 1.0 1.0

pair_coeff	1 2 0.0 0.0

pair_coeff	1 3 0.0 0.0

pair_coeff	2 3 0.0 0.0

pair_coeff	3 3 0.0 0.0

comm_modify	cutoff 6.93

fix 		1 cubes rigid/small molecule
  create bodies CPU = 0.023 seconds
  490 rigid bodies with 560070 atoms
  6.9282032 = max distance from body owner to body atom


####################### WALLS ###########################

variable       epsilonWall equal 2*${epsilon}
variable       epsilonWall equal 2*1

variable       cutoffTop   equal   0.7147*${sigma}
variable       cutoffTop   equal   0.7147*1

variable       cutoffLow   equal   3*${sigma}
variable       cutoffLow   equal   3*1


fix            topWall all wall/lj93 zhi EDGE                ${epsilonWall} ${sigma} ${cutoffTop} units box
fix            topWall all wall/lj93 zhi EDGE                2 ${sigma} ${cutoffTop} units box
fix            topWall all wall/lj93 zhi EDGE                2 1 ${cutoffTop} units box
fix            topWall all wall/lj93 zhi EDGE                2 1 0.7147 units box

fix            lowWall all wall/lj93 zlo EDGE                ${epsilonWall} ${sigma} ${cutoffLow} units box
fix            lowWall all wall/lj93 zlo EDGE                2 ${sigma} ${cutoffLow} units box
fix            lowWall all wall/lj93 zlo EDGE                2 1 ${cutoffLow} units box
fix            lowWall all wall/lj93 zlo EDGE                2 1 3 units box


velocity	all create ${temp} ${seed} loop geom
velocity	all create 50.0 ${seed} loop geom
velocity	all create 50.0 22354 loop geom
WARNING: Changing velocities of atoms in rigid bodies. This has no effect unless rigid bodies are rebuild (src/velocity.cpp:71)
WARNING: Cannot count rigid body degrees-of-freedom before bodies are fully initialized (src/RIGID/fix_rigid_small.cpp:1166)


############### Diagnostics and computes ###################
compute        com cubes          rigid/local   1 mol x y z
compute        quat cubes         rigid/local   1 mol quatw quati quatj quatk

thermo          1000
thermo_style    custom step temp epair evdwl etotal press pe ke vol
WARNING: New thermo_style command, previous thermo_modify settings will be lost (src/output.cpp:693)

#dump            1 all custom 100000 dump.lammpstrj id mol type x y z
dump            2 all image 10000 image.*.png type type

dump_modify     2 pad 8


dump            image cubes image 10000 image_cubes.*.png type type

dump_modify     image pad 8

dump            3 all movie 5000 movie.avi type type
dump           com cubes local 1000 dump.*.xyz c_com[*]
dump           quat cubes      local 1000 dump.*.quat c_quat[*]


restart         250000 restart.dat
timestep        0.005
timer           full
New timer settings: style=full  mode=nosync  timeout=off

run 		1000000
Neighbor list info ...
  update every 1 steps, delay 0 steps, check yes
  max neighbors/atom: 2000, page size: 100000
  master list distance cutoff = 2.8
  ghost atom cutoff = 6.93
  binsize = 1.4, bins = 72 72 93
  1 neighbor lists, perpetual/occasional/extra = 1 0 0
  (1) pair lj/cut/opt, perpetual
      attributes: half, newton on
      pair build: half/bin/newton
      stencil: half/bin/3d/newton
      bin: standard
Setting up Verlet run ...
  Unit style    : lj
  Current step  : 0
  Time step     : 0.005
Per MPI rank memory allocation (min/avg/max) = 30.16 | 31.76 | 38.74 Mbytes
Step Temp E_pair E_vdwl TotEng Press PotEng KinEng Volume 
       0    49.605157  -0.36619638  -0.36619638  -0.23613198     2.625404  -0.36619638   0.13006441    1299997.4 
    1000    53.326566  -0.37596401  -0.37596401  -0.23614209   0.19176583  -0.37596401   0.13982192    1299997.4 
    2000    55.998272  -0.38369125  -0.38369125  -0.23686413   0.13658322  -0.38369125   0.14682712    1299997.4 
    3000    55.469664   -0.3828039   -0.3828039  -0.23736279   0.15503982   -0.3828039   0.14544111    1299997.4 
    4000    54.913334  -0.38179537  -0.38179537  -0.23781295   0.20419868  -0.38179537   0.14398241    1299997.4 
    5000    55.934659  -0.38432383  -0.38432383  -0.23766351   0.15804997  -0.38432383   0.14666032    1299997.4 
    6000    54.692647  -0.38106968  -0.38106968  -0.23766591   0.17194183  -0.38106968   0.14340377    1299997.4 
    7000    54.438024  -0.38049075  -0.38049075   -0.2377546   0.17081011  -0.38049075   0.14273615    1299997.4 
    8000    55.186083  -0.38260265  -0.38260265  -0.23790509   0.12725708  -0.38260265   0.14469756    1299997.4 
    9000    54.160807  -0.38017613  -0.38017613  -0.23816684    0.1626697  -0.38017613   0.14200929    1299997.4 
   10000    54.326608  -0.37993561  -0.37993561  -0.23749159   0.16574153  -0.37993561   0.14244402    1299997.4 
   11000     53.76198  -0.37879698  -0.37879698  -0.23783341   0.20589423  -0.37879698   0.14096357    1299997.4 
   12000    54.623445  -0.38067208  -0.38067208  -0.23744975   0.15853946  -0.38067208   0.14322233    1299997.4 
   13000    54.742196  -0.38077846  -0.38077846  -0.23724477   0.14076738  -0.38077846   0.14353369    1299997.4 
   14000    54.845059  -0.38051703  -0.38051703  -0.23671364   0.15819744  -0.38051703    0.1438034    1299997.4 
   15000    54.458584  -0.37978374  -0.37978374  -0.23699368   0.19754619  -0.37978374   0.14279006    1299997.4 
   16000     53.29671  -0.37719965  -0.37719965  -0.23745602   0.23937518  -0.37719965   0.13974364    1299997.4 
   17000    53.965034  -0.37899885  -0.37899885  -0.23750287   0.15626129  -0.37899885   0.14149598    1299997.4 
   18000    53.255193  -0.37697286  -0.37697286  -0.23733808   0.23297695  -0.37697286   0.13963478    1299997.4 
   19000     54.25129  -0.37970138  -0.37970138  -0.23745484     0.156213  -0.37970138   0.14224654    1299997.4 
   20000    53.907968  -0.37856904  -0.37856904  -0.23722269   0.15598328  -0.37856904   0.14134635    1299997.4 
   21000    53.631404  -0.37807232  -0.37807232  -0.23745111   0.18403627  -0.37807232    0.1406212    1299997.4 
   22000    53.753075  -0.37900527  -0.37900527  -0.23806504   0.18024166  -0.37900527   0.14094022    1299997.4 
   23000    53.717013   -0.3785385   -0.3785385  -0.23769283   0.17519733   -0.3785385   0.14084567    1299997.4 
   24000    53.780052  -0.37905118  -0.37905118  -0.23804023   0.14616799  -0.37905118   0.14101096    1299997.4 
   25000    53.657088  -0.37901393  -0.37901393  -0.23832538   0.18539642  -0.37901393   0.14068854    1299997.4 
   26000    53.856849  -0.37906145  -0.37906145  -0.23784913   0.18055474  -0.37906145   0.14121232    1299997.4 
   27000    53.812959  -0.37936549  -0.37936549  -0.23826825   0.15470655  -0.37936549   0.14109724    1299997.4 
   28000    53.826118  -0.37963169  -0.37963169  -0.23849995   0.15554291  -0.37963169   0.14113174    1299997.4 
   29000    53.283612  -0.37839905  -0.37839905  -0.23868976   0.18026554  -0.37839905   0.13970929    1299997.4 
   30000    54.006501  -0.38006616  -0.38006616  -0.23846146   0.15505528  -0.38006616   0.14160471    1299997.4 
   31000     53.57568  -0.37840027  -0.37840027  -0.23792518   0.17836598  -0.37840027   0.14047509    1299997.4 
   32000    54.333679  -0.38019991  -0.38019991  -0.23773735   0.13566914  -0.38019991   0.14246256    1299997.4 
   33000    54.214263  -0.38018231  -0.38018231  -0.23803286    0.1549161  -0.38018231   0.14214946    1299997.4 
   34000    54.033455  -0.37943598  -0.37943598   -0.2377606   0.18035646  -0.37943598   0.14167538    1299997.4 
   35000    54.003412  -0.37974871  -0.37974871  -0.23815211   0.22744437  -0.37974871    0.1415966    1299997.4 
   36000    54.557059   -0.3809173   -0.3809173  -0.23786904   0.15866711   -0.3809173   0.14304826    1299997.4 
   37000    55.103467   -0.3820708   -0.3820708  -0.23758986   0.12012888   -0.3820708   0.14448094    1299997.4 
   38000     54.21054  -0.37978912  -0.37978912  -0.23764943   0.20063565  -0.37978912   0.14213969    1299997.4 
   39000    53.622815  -0.37899782  -0.37899782  -0.23839914   0.23082746  -0.37899782   0.14059868    1299997.4 
   40000    53.955994  -0.37958215  -0.37958215  -0.23810988   0.20670027  -0.37958215   0.14147228    1299997.4 
   41000    54.401508   -0.3804336   -0.3804336  -0.23779319   0.16722016   -0.3804336   0.14264041    1299997.4 
   42000    54.460976  -0.38077602  -0.38077602  -0.23797968   0.16135496  -0.38077602   0.14279633    1299997.4 
   43000    54.244379  -0.38023613  -0.38023613  -0.23800771   0.15504885  -0.38023613   0.14222842    1299997.4 
   44000    54.830599  -0.38192396  -0.38192396  -0.23815848   0.14483536  -0.38192396   0.14376549    1299997.4 
   45000    54.412564  -0.38044137  -0.38044137  -0.23777197   0.16817598  -0.38044137    0.1426694    1299997.4 
   46000    54.689575  -0.38147674  -0.38147674  -0.23808102   0.13569925  -0.38147674   0.14339572    1299997.4 
   47000    55.067738  -0.38246896  -0.38246896   -0.2380817   0.16046065  -0.38246896   0.14438726    1299997.4 
   48000    54.463585  -0.38059754  -0.38059754  -0.23779436   0.19176912  -0.38059754   0.14280318    1299997.4 
   49000    54.375729   -0.3806759   -0.3806759  -0.23810308   0.15638561   -0.3806759   0.14257282    1299997.4 
   50000    54.448196  -0.38050945  -0.38050945  -0.23774663   0.14895688  -0.38050945   0.14276283    1299997.4 
   51000    54.497706  -0.38000471  -0.38000471  -0.23711207      0.15209  -0.38000471   0.14289264    1299997.4 
   52000    52.771363   -0.3766877   -0.3766877  -0.23832152   0.22604374   -0.3766877   0.13836618    1299997.4 
   53000    54.431785  -0.38043033  -0.38043033  -0.23771054   0.14989649  -0.38043033    0.1427198    1299997.4 
   54000    53.698443  -0.37890082  -0.37890082  -0.23810384   0.15551695  -0.37890082   0.14079698    1299997.4 
   55000    53.844853  -0.37968103  -0.37968103  -0.23850017   0.11830301  -0.37968103   0.14118087    1299997.4 
   56000    53.223122  -0.37803136  -0.37803136  -0.23848067   0.20743791  -0.37803136   0.13955069    1299997.4 
   57000    53.434715  -0.37811562  -0.37811562  -0.23801014   0.15940264  -0.37811562   0.14010549    1299997.4 
   58000     53.77548  -0.37859832  -0.37859832  -0.23759935   0.19212802  -0.37859832   0.14099897    1299997.4 
   59000     54.92939  -0.38160135  -0.38160135  -0.23757684   0.13964937  -0.38160135   0.14402451    1299997.4 
   60000    54.973776  -0.38197229  -0.38197229   -0.2378314   0.14000241  -0.38197229   0.14414089    1299997.4 
   61000    54.542331  -0.38070632  -0.38070632  -0.23769667   0.19151327  -0.38070632   0.14300965    1299997.4 
   62000     54.42584  -0.38026636  -0.38026636  -0.23756215   0.18043471  -0.38026636   0.14270421    1299997.4 
   63000    54.227161  -0.38017796  -0.38017796  -0.23799469    0.1644209  -0.38017796   0.14218327    1299997.4 
   64000    54.231818  -0.38026455  -0.38026455  -0.23806906   0.26243035  -0.38026455   0.14219548    1299997.4 
   65000    54.472215  -0.38048733  -0.38048733  -0.23766153   0.14597014  -0.38048733    0.1428258    1299997.4 
   66000    53.997216  -0.37936267  -0.37936267  -0.23778231   0.17055346  -0.37936267   0.14158036    1299997.4 
   67000    54.076031  -0.37971616  -0.37971616  -0.23792914   0.14218132  -0.37971616   0.14178701    1299997.4 
   68000    54.427843  -0.38106106  -0.38106106   -0.2383516   0.16175497  -0.38106106   0.14270946    1299997.4 
   69000    53.952801   -0.3794496   -0.3794496   -0.2379857   0.17697352   -0.3794496    0.1414639    1299997.4 
   70000    53.993182  -0.37928459  -0.37928459   -0.2377148   0.17914747  -0.37928459   0.14156978    1299997.4 
   71000    54.484462  -0.38103795  -0.38103795  -0.23818003   0.13989846  -0.38103795   0.14285791    1299997.4 
   72000    54.664134  -0.38141351  -0.38141351   -0.2380845   0.17444081  -0.38141351   0.14332901    1299997.4 
   73000    54.799143  -0.38106119  -0.38106119  -0.23737819   0.13296266  -0.38106119   0.14368301    1299997.4 
   74000    53.886273  -0.37884318  -0.37884318  -0.23755371   0.16730305  -0.37884318   0.14128947    1299997.4 
   75000    54.161196  -0.37990404  -0.37990404  -0.23789372    0.1474713  -0.37990404   0.14201031    1299997.4 
   76000    53.561948  -0.37933919  -0.37933919  -0.23890011   0.17566653  -0.37933919   0.14043909    1299997.4 
   77000    53.795756  -0.37967155  -0.37967155  -0.23861942   0.18751078  -0.37967155   0.14105213    1299997.4 
   78000    54.317362  -0.38037016  -0.38037016  -0.23795039   0.21655288  -0.38037016   0.14241978    1299997.4 
   79000    54.225948  -0.37997266  -0.37997266  -0.23779257   0.18206396  -0.37997266   0.14218009    1299997.4 
   80000    53.707732  -0.37843338  -0.37843338  -0.23761205   0.17061075  -0.37843338   0.14082134    1299997.4 
   81000    54.046086  -0.38008939  -0.38008939  -0.23838089    0.1684116  -0.38008939    0.1417085    1299997.4 
   82000    53.693869  -0.37900916  -0.37900916  -0.23822417    0.2141851  -0.37900916   0.14078499    1299997.4 
   83000    54.442633  -0.38092459  -0.38092459  -0.23817635   0.12944834  -0.38092459   0.14274824    1299997.4 
   84000    53.592893  -0.37886099  -0.37886099  -0.23834077   0.18055354  -0.37886099   0.14052023    1299997.4 
   85000    53.593986  -0.37874707  -0.37874707  -0.23822398   0.16749844  -0.37874707   0.14052309    1299997.4 
   86000     53.89477  -0.37901167  -0.37901167  -0.23769992   0.16678496  -0.37901167   0.14131175    1299997.4 
   87000    54.465915  -0.38104443  -0.38104443  -0.23823514   0.13692528  -0.38104443   0.14280928    1299997.4 
   88000    53.809734  -0.37972963  -0.37972963  -0.23864085   0.16051784  -0.37972963   0.14108878    1299997.4 
   89000    53.423232  -0.37862645  -0.37862645  -0.23855107   0.20500111  -0.37862645   0.14007538    1299997.4 
   90000    53.645805  -0.37839867  -0.37839867  -0.23773971   0.17144184  -0.37839867   0.14065896    1299997.4 
   91000    54.276881  -0.38067073  -0.38067073  -0.23835709    0.1409151  -0.38067073   0.14231364    1299997.4 
   92000    53.643391   -0.3786236   -0.3786236  -0.23797097   0.21625276   -0.3786236   0.14065263    1299997.4 
   93000     54.20024  -0.38012872  -0.38012872  -0.23801603    0.1419158  -0.38012872   0.14211269    1299997.4 
   94000    53.961456  -0.37977034  -0.37977034  -0.23828374   0.16554399  -0.37977034    0.1414866    1299997.4 
   95000    53.038299  -0.37717379  -0.37717379   -0.2381077    0.2218879  -0.37717379   0.13906608    1299997.4 
   96000    53.671884  -0.37876537  -0.37876537  -0.23803803    0.1828174  -0.37876537   0.14072734    1299997.4 
   97000    54.123113  -0.37941685  -0.37941685  -0.23750639   0.18073728  -0.37941685   0.14191046    1299997.4 
   98000    54.159466   -0.3801337   -0.3801337  -0.23812792   0.12689817   -0.3801337   0.14200578    1299997.4 
   99000      54.0465  -0.37924374  -0.37924374  -0.23753416   0.16812816  -0.37924374   0.14170958    1299997.4 
  100000    54.144674   -0.3797535   -0.3797535  -0.23778651   0.14119754   -0.3797535   0.14196699    1299997.4 
  101000    53.334724  -0.37800352  -0.37800352  -0.23816021   0.20387609  -0.37800352   0.13984331    1299997.4 
  102000    53.701614  -0.37878412  -0.37878412  -0.23797883   0.20999971  -0.37878412   0.14080529    1299997.4 
  103000    53.996402  -0.37990163  -0.37990163  -0.23832341    0.2069308  -0.37990163   0.14157822    1299997.4 
  104000    53.732718  -0.37913079  -0.37913079  -0.23824395   0.19957536  -0.37913079   0.14088685    1299997.4 
  105000     54.01707  -0.37948757  -0.37948757  -0.23785516    0.1831189  -0.37948757   0.14163242    1299997.4 
  106000    54.441521  -0.38043225  -0.38043225  -0.23768693   0.18335842  -0.38043225   0.14274532    1299997.4 
  107000    54.226894  -0.38053746  -0.38053746  -0.23835489   0.19388677  -0.38053746   0.14218257    1299997.4 
  108000     54.16848  -0.37995146  -0.37995146  -0.23792205   0.14663803  -0.37995146   0.14202941    1299997.4 
  109000    54.076575  -0.37906837  -0.37906837  -0.23727993   0.15667913  -0.37906837   0.14178844    1299997.4 
  110000    54.212127  -0.37982038  -0.37982038  -0.23767653   0.15982924  -0.37982038   0.14214385    1299997.4 
  111000    54.653367  -0.38077525  -0.38077525  -0.23747446   0.15876542  -0.38077525   0.14330078    1299997.4 
  112000    54.072838  -0.37963384  -0.37963384   -0.2378552   0.18719376  -0.37963384   0.14177864    1299997.4 
  113000    53.978008  -0.37908288  -0.37908288  -0.23755289    0.2141928  -0.37908288      0.14153    1299997.4 
  114000    53.634855  -0.37810924  -0.37810924  -0.23747899    0.1926502  -0.37810924   0.14063025    1299997.4 
  115000    54.395713  -0.37971688  -0.37971688  -0.23709166   0.16449576  -0.37971688   0.14262522    1299997.4 
  116000    54.329916  -0.38038356  -0.38038356  -0.23793087   0.17916542  -0.38038356    0.1424527    1299997.4 
  117000    54.473111  -0.38068823  -0.38068823  -0.23786008   0.15842181  -0.38068823   0.14282815    1299997.4 
  118000    54.574694   -0.3811497   -0.3811497  -0.23805519   0.12051877   -0.3811497    0.1430945    1299997.4 
  119000    54.214649  -0.38009179  -0.38009179  -0.23794133   0.16105202  -0.38009179   0.14215047    1299997.4 
  120000    53.710944  -0.37863888  -0.37863888  -0.23780912   0.18125135  -0.37863888   0.14082976    1299997.4 
  121000    54.153294  -0.37986278  -0.37986278  -0.23787318   0.14256529  -0.37986278    0.1419896    1299997.4 
  122000    54.161744  -0.38021475  -0.38021475    -0.238203   0.13930159  -0.38021475   0.14201175    1299997.4 
  123000    54.556505  -0.38094001  -0.38094001   -0.2378932    0.1507995  -0.38094001   0.14304681    1299997.4 
  124000     54.38366  -0.38127296  -0.38127296  -0.23867935   0.16110608  -0.38127296   0.14259361    1299997.4 
  125000    53.608174  -0.37908782  -0.37908782  -0.23852752   0.18279978  -0.37908782   0.14056029    1299997.4 
  126000     54.04473  -0.37969095  -0.37969095  -0.23798601   0.16258994  -0.37969095   0.14170494    1299997.4 
  127000    53.779412   -0.3792086   -0.3792086  -0.23819932   0.17088982   -0.3792086   0.14100928    1299997.4 
  128000    53.292583  -0.37802873  -0.37802873  -0.23829591   0.19617541  -0.37802873   0.13973282    1299997.4 
  129000    53.711241   -0.3788189   -0.3788189  -0.23798837   0.17460667   -0.3788189   0.14083053    1299997.4 
  130000    53.730241  -0.37864084  -0.37864084  -0.23776048   0.16385823  -0.37864084   0.14088035    1299997.4 
  131000    53.787354  -0.37859887  -0.37859887  -0.23756876   0.19388649  -0.37859887    0.1410301    1299997.4 
  132000     54.23881  -0.37962673  -0.37962673  -0.23741291   0.18074207  -0.37962673   0.14221382    1299997.4 
  133000     54.10545  -0.37951811  -0.37951811  -0.23765396   0.19560659  -0.37951811   0.14186415    1299997.4 
  134000    54.302973  -0.38032806  -0.38032806  -0.23794601   0.15362767  -0.38032806   0.14238205    1299997.4 
  135000    54.336048  -0.38042326  -0.38042326  -0.23795449   0.14713734  -0.38042326   0.14246878    1299997.4 
  136000    54.332601  -0.38024875  -0.38024875  -0.23778901   0.15776952  -0.38024875   0.14245974    1299997.4 
  137000     52.97757  -0.37698475  -0.37698475  -0.23807789   0.18860934  -0.37698475   0.13890685    1299997.4 
  138000    54.181935  -0.37991095  -0.37991095  -0.23784626    0.1233196  -0.37991095   0.14206469    1299997.4 
  139000    54.258891  -0.38047834  -0.38047834  -0.23821187   0.15770296  -0.38047834   0.14226647    1299997.4 
  140000    53.792991  -0.37910652  -0.37910652  -0.23806163   0.14392338  -0.37910652   0.14104488    1299997.4 
  141000    53.880144   -0.3793432   -0.3793432  -0.23806981   0.17569092   -0.3793432    0.1412734    1299997.4 
  142000    53.654017  -0.37899392  -0.37899392  -0.23831343   0.14694424  -0.37899392   0.14068049    1299997.4 
  143000    53.779307  -0.37886963  -0.37886963  -0.23786063   0.18897431  -0.37886963     0.141009    1299997.4 
  144000    53.949429  -0.37955598  -0.37955598  -0.23810092   0.13762139  -0.37955598   0.14145506    1299997.4 
  145000    54.591419  -0.38049243  -0.38049243  -0.23735408   0.13086214  -0.38049243   0.14313836    1299997.4 
  146000    54.223618  -0.37978226  -0.37978226  -0.23760827   0.14276631  -0.37978226   0.14217398    1299997.4 
  147000    53.688617  -0.37810022  -0.37810022  -0.23732901   0.18699424  -0.37810022   0.14077121    1299997.4 
  148000    53.696908  -0.37792778  -0.37792778  -0.23713483   0.16740663  -0.37792778   0.14079295    1299997.4 
  149000    54.091183  -0.37888288  -0.37888288  -0.23705614   0.18716623  -0.37888288   0.14182674    1299997.4 
  150000    53.857045  -0.37878979  -0.37878979  -0.23757696   0.17888764  -0.37878979   0.14121283    1299997.4 
  151000    54.184319  -0.37975054  -0.37975054  -0.23767959   0.16784693  -0.37975054   0.14207094    1299997.4 
  152000    54.708155  -0.38091469  -0.38091469  -0.23747026   0.12720273  -0.38091469   0.14344444    1299997.4 
  153000    54.064052  -0.37913229  -0.37913229  -0.23737669   0.18949574  -0.37913229    0.1417556    1299997.4 
  154000     53.97155    -0.379148    -0.379148  -0.23763494   0.16259153    -0.379148   0.14151306    1299997.4 
  155000    53.733712  -0.37845177  -0.37845177  -0.23756232   0.17968991  -0.37845177   0.14088945    1299997.4 
  156000    53.837937  -0.37877275  -0.37877275  -0.23761002   0.16151785  -0.37877275   0.14116273    1299997.4 
  157000     53.97437   -0.3786922   -0.3786922  -0.23717174   0.21881654   -0.3786922   0.14152046    1299997.4 
  158000    54.552583  -0.38039769  -0.38039769  -0.23736117   0.14027188  -0.38039769   0.14303653    1299997.4 
  159000    53.979951  -0.37933534  -0.37933534  -0.23780025   0.16269653  -0.37933534   0.14153509    1299997.4 
  160000    53.874192  -0.37850606  -0.37850606  -0.23724826   0.20627695  -0.37850606   0.14125779    1299997.4 
  161000    53.977226  -0.37966394  -0.37966394    -0.238136   0.15670056  -0.37966394   0.14152795    1299997.4 
  162000    54.128245   -0.3794573   -0.3794573  -0.23753338   0.16271153   -0.3794573   0.14192392    1299997.4 
  163000    54.327411  -0.37996108  -0.37996108  -0.23751495   0.16341035  -0.37996108   0.14244613    1299997.4 
  164000    55.093031  -0.38170342  -0.38170342  -0.23724984   0.15065409  -0.38170342   0.14445358    1299997.4 
  165000    53.912415  -0.37828313  -0.37828313  -0.23692511   0.17671621  -0.37828313   0.14135801    1299997.4 
  166000    53.727114  -0.37790543  -0.37790543  -0.23703327   0.19564033  -0.37790543   0.14087215    1299997.4 
  167000     53.78885  -0.37852923  -0.37852923  -0.23749521   0.18341796  -0.37852923   0.14103402    1299997.4 
  168000    54.467415   -0.3807945   -0.3807945  -0.23798129   0.14022103   -0.3807945   0.14281322    1299997.4 
  169000    54.162672  -0.37959167  -0.37959167  -0.23757748   0.15920367  -0.37959167   0.14201418    1299997.4 
  170000    54.403818  -0.38063695  -0.38063695  -0.23799048   0.13536403  -0.38063695   0.14264647    1299997.4 
  171000    54.202729  -0.37999647  -0.37999647  -0.23787726   0.14382316  -0.37999647   0.14211921    1299997.4 
  172000    53.846088   -0.3789189   -0.3789189   -0.2377348   0.19759718   -0.3789189    0.1411841    1299997.4 
  173000    54.629536  -0.38143874  -0.38143874  -0.23820045   0.15471885  -0.38143874    0.1432383    1299997.4 
  174000    54.056814   -0.3798536   -0.3798536  -0.23811698   0.21329133   -0.3798536   0.14173662    1299997.4 
  175000    54.510068  -0.38093374  -0.38093374  -0.23800869   0.14833913  -0.38093374   0.14292505    1299997.4 
  176000    54.408143  -0.38032154  -0.38032154  -0.23766373   0.16076814  -0.38032154   0.14265781    1299997.4 
  177000    54.292183  -0.37967867  -0.37967867  -0.23732491   0.17452645  -0.37967867   0.14235376    1299997.4 
  178000    54.235561  -0.38010023  -0.38010023  -0.23789494     0.149848  -0.38010023    0.1422053    1299997.4 
  179000    53.926172  -0.37907164  -0.37907164  -0.23767756   0.16983523  -0.37907164   0.14139408    1299997.4 
  180000    54.124517  -0.37925378  -0.37925378  -0.23733964    0.1716451  -0.37925378   0.14191414    1299997.4 
  181000    53.825981   -0.3786685   -0.3786685  -0.23753712   0.18996393   -0.3786685   0.14113138    1299997.4 
  182000    53.730325  -0.37826407  -0.37826407   -0.2373835   0.16487456  -0.37826407   0.14088057    1299997.4 
  183000    53.990769  -0.37882968  -0.37882968  -0.23726623   0.18321603  -0.37882968   0.14156345    1299997.4 
  184000    54.368472   -0.3801668   -0.3801668  -0.23761301   0.19116229   -0.3801668   0.14255379    1299997.4 
  185000    54.014759  -0.37949651  -0.37949651  -0.23787016   0.19220431  -0.37949651   0.14162636    1299997.4 
  186000    54.021195   -0.3794483   -0.3794483  -0.23780507   0.14526111   -0.3794483   0.14164323    1299997.4 
  187000    53.652703  -0.37841865  -0.37841865   -0.2377416   0.17267636  -0.37841865   0.14067705    1299997.4 
  188000     53.60884  -0.37826429  -0.37826429  -0.23770225   0.17464209  -0.37826429   0.14056204    1299997.4 
  189000    53.875847  -0.37916332  -0.37916332  -0.23790119   0.16883756  -0.37916332   0.14126213    1299997.4 
  190000    54.293718  -0.38047927  -0.38047927  -0.23812148   0.13159054  -0.38047927   0.14235779    1299997.4 
  191000    54.498558  -0.38070493  -0.38070493  -0.23781005   0.16595074  -0.38070493   0.14289488    1299997.4 
  192000    54.289231  -0.37984554  -0.37984554  -0.23749952   0.12438972  -0.37984554   0.14234602    1299997.4 
  193000    53.758693  -0.37880329  -0.37880329  -0.23784834   0.15647371  -0.37880329   0.14095495    1299997.4 
  194000    54.627132  -0.38089946  -0.38089946  -0.23766746   0.15851172  -0.38089946   0.14323199    1299997.4 
  195000    53.813685  -0.37824717  -0.37824717  -0.23714803   0.19285832  -0.37824717   0.14109914    1299997.4 
  196000    53.997472  -0.37922305  -0.37922305  -0.23764202   0.18548702  -0.37922305   0.14158103    1299997.4 
  197000    53.759882  -0.37837977  -0.37837977   -0.2374217   0.17329092  -0.37837977   0.14095807    1299997.4 
  198000    54.322288  -0.37990784  -0.37990784  -0.23747515   0.18265116  -0.37990784    0.1424327    1299997.4 
  199000    53.779222  -0.37796962  -0.37796962  -0.23696084   0.16606817  -0.37796962   0.14100878    1299997.4 
  200000    54.123141   -0.3794053   -0.3794053  -0.23749476    0.1447085   -0.3794053   0.14191053    1299997.4 
  201000    54.671733  -0.38103341  -0.38103341  -0.23768447   0.13418139  -0.38103341   0.14334894    1299997.4 
  202000    53.976918  -0.37918283  -0.37918283  -0.23765569   0.17785014  -0.37918283   0.14152714    1299997.4 
  203000    54.040953  -0.37964046  -0.37964046  -0.23794542   0.18375819  -0.37964046   0.14169504    1299997.4 
  204000    53.213957  -0.37777761  -0.37777761  -0.23825095   0.18114603  -0.37777761   0.13952666    1299997.4 
  205000    53.629789  -0.37852071  -0.37852071  -0.23790374   0.21172799  -0.37852071   0.14061697    1299997.4 
  206000    54.250895  -0.38041601  -0.38041601   -0.2381705   0.13929986  -0.38041601    0.1422455    1299997.4 
  207000    54.038804  -0.37959287  -0.37959287  -0.23790346   0.16864108  -0.37959287    0.1416894    1299997.4 
  208000    54.206196  -0.37988163  -0.37988163  -0.23775333    0.2049398  -0.37988163    0.1421283    1299997.4 
  209000    53.595195  -0.37830741  -0.37830741  -0.23778115   0.21874371  -0.37830741   0.14052626    1299997.4 
  210000    53.837254   -0.3783601   -0.3783601  -0.23719916   0.17730652   -0.3783601   0.14116094    1299997.4 
  211000    54.331182  -0.37962977  -0.37962977  -0.23717375   0.13881728  -0.37962977   0.14245601    1299997.4 
  212000    54.526645  -0.38039603  -0.38039603  -0.23742751   0.16346613  -0.38039603   0.14296852    1299997.4 
  213000    54.342171  -0.38005258  -0.38005258  -0.23756775   0.16307237  -0.38005258   0.14248483    1299997.4 
  214000    53.792357  -0.37860459  -0.37860459  -0.23756137   0.23781309  -0.37860459   0.14104322    1299997.4 
  215000    54.084147  -0.37976579  -0.37976579   -0.2379575   0.17784084  -0.37976579   0.14180829    1299997.4 
  216000    54.216064   -0.3799309   -0.3799309  -0.23777672   0.18143713   -0.3799309   0.14215418    1299997.4 
  217000     54.11317  -0.38030166  -0.38030166  -0.23841727   0.17200758  -0.38030166   0.14188439    1299997.4 
  218000    53.552997   -0.3781769   -0.3781769  -0.23776128   0.20668931   -0.3781769   0.14041562    1299997.4 
  219000    53.929822  -0.37852064  -0.37852064  -0.23711699   0.17713693  -0.37852064   0.14140365    1299997.4 
  220000    54.105817  -0.37925484  -0.37925484  -0.23738973   0.17590328  -0.37925484   0.14186511    1299997.4 
  221000    54.171749  -0.37921854  -0.37921854  -0.23718055   0.17049758  -0.37921854   0.14203798    1299997.4 
  222000    53.566094  -0.37828438  -0.37828438  -0.23783442   0.17712265  -0.37828438   0.14044996    1299997.4 
  223000    53.837149  -0.37921808  -0.37921808  -0.23805741   0.16062159  -0.37921808   0.14116067    1299997.4 
  224000     54.27816  -0.38060004  -0.38060004  -0.23828305   0.12191377  -0.38060004   0.14231699    1299997.4 
  225000     54.35787  -0.38079981  -0.38079981  -0.23827382    0.1495571  -0.38079981   0.14252599    1299997.4 
  226000    54.217318  -0.38049541  -0.38049541  -0.23833795   0.12723828  -0.38049541   0.14215746    1299997.4 
  227000    54.088091  -0.38061982  -0.38061982  -0.23880119   0.18293329  -0.38061982   0.14181863    1299997.4 
  228000    53.819773  -0.37942965  -0.37942965  -0.23831455   0.18473739  -0.37942965   0.14111511    1299997.4 
  229000    53.761729  -0.37924147  -0.37924147  -0.23827855   0.18286192  -0.37924147   0.14096291    1299997.4 
  230000    53.068583  -0.37720351  -0.37720351  -0.23805802   0.21404392  -0.37720351   0.13914549    1299997.4 
  231000    53.643124  -0.37925216  -0.37925216  -0.23860022   0.19893463  -0.37925216   0.14065193    1299997.4 
  232000    53.785798  -0.37929448  -0.37929448  -0.23826846   0.16322891  -0.37929448   0.14102602    1299997.4 
  233000    53.987692  -0.37959468  -0.37959468  -0.23803929   0.17486723  -0.37959468   0.14155539    1299997.4 
  234000    53.392726  -0.37820686  -0.37820686  -0.23821147   0.18166868  -0.37820686   0.13999539    1299997.4 
  235000    53.950334  -0.37919902  -0.37919902  -0.23774158   0.16661127  -0.37919902   0.14145743    1299997.4 
  236000    53.359207  -0.37831701  -0.37831701   -0.2384095   0.22981929  -0.37831701    0.1399075    1299997.4 
  237000    54.205539  -0.38038117  -0.38038117  -0.23825459   0.12327313  -0.38038117   0.14212658    1299997.4 
  238000    53.564755  -0.37893919  -0.37893919  -0.23849275   0.17852712  -0.37893919   0.14044645    1299997.4 
  239000     54.13343  -0.38037831  -0.38037831   -0.2384408   0.13355902  -0.38037831   0.14193751    1299997.4 
  240000    53.413808  -0.37835204  -0.37835204  -0.23830137   0.19575501  -0.37835204   0.14005067    1299997.4 
  241000    54.484753  -0.38092958  -0.38092958  -0.23807091   0.12558491  -0.38092958   0.14285868    1299997.4 
  242000    54.392777  -0.38061707  -0.38061707  -0.23799955   0.14628355  -0.38061707   0.14261752    1299997.4 
  243000    54.118917  -0.38050068  -0.38050068  -0.23860122   0.16935316  -0.38050068   0.14189946    1299997.4 
  244000     53.92978  -0.37956431  -0.37956431  -0.23816076    0.1490172  -0.37956431   0.14140354    1299997.4 
  245000    54.037405   -0.3800401   -0.3800401  -0.23835436   0.18595717   -0.3800401   0.14168573    1299997.4 
  246000    54.257613  -0.38052196  -0.38052196  -0.23825884   0.18542583  -0.38052196   0.14226312    1299997.4 
  247000     53.94405  -0.37965983  -0.37965983  -0.23821887   0.14570181  -0.37965983   0.14144096    1299997.4 
  248000    54.902991  -0.38169011  -0.38169011  -0.23773481   0.15540673  -0.38169011    0.1439553    1299997.4 
  249000    55.498901  -0.38353687  -0.38353687   -0.2380191   0.13945985  -0.38353687   0.14551777    1299997.4 
  250000    54.346241  -0.38057293  -0.38057293  -0.23807743   0.20187068  -0.38057293    0.1424955    1299997.4 
  251000     54.64487  -0.38159308  -0.38159308  -0.23831457   0.14566223  -0.38159308    0.1432785    1299997.4 
  252000    54.167689  -0.38026573  -0.38026573   -0.2382384   0.15592893  -0.38026573   0.14202734    1299997.4 
  253000    54.401065  -0.38047573  -0.38047573  -0.23783649   0.18253594  -0.38047573   0.14263925    1299997.4 
  254000    53.903642  -0.37940474  -0.37940474  -0.23806973   0.18103821  -0.37940474   0.14133501    1299997.4 
  255000    53.599485   -0.3783616   -0.3783616  -0.23782409   0.21794658   -0.3783616   0.14053751    1299997.4 
  256000    53.697861  -0.37903388  -0.37903388  -0.23823843   0.18837607  -0.37903388   0.14079545    1299997.4 
  257000    53.869336  -0.37907081  -0.37907081  -0.23782575    0.1823945  -0.37907081   0.14124506    1299997.4 
  258000      53.8947  -0.37901517  -0.37901517  -0.23770361   0.17547304  -0.37901517   0.14131156    1299997.4 
  259000     54.17877  -0.38038356  -0.38038356  -0.23832717    0.1329037  -0.38038356   0.14205639    1299997.4 
  260000    54.271239  -0.38048985  -0.38048985    -0.238191   0.14746334  -0.38048985   0.14229885    1299997.4 
  261000    54.339237  -0.38005107  -0.38005107  -0.23757394   0.18820582  -0.38005107   0.14247714    1299997.4 
  262000    53.874861  -0.37886557  -0.37886557  -0.23760603   0.17752186  -0.37886557   0.14125955    1299997.4 
  263000    53.384924  -0.37775729  -0.37775729  -0.23778236   0.18596526  -0.37775729   0.13997493    1299997.4 
  264000    54.142884  -0.37988001  -0.37988001  -0.23791771   0.16964599  -0.37988001    0.1419623    1299997.4 
  265000    53.841148  -0.37881961  -0.37881961  -0.23764846   0.16852336  -0.37881961   0.14117115    1299997.4 
  266000    53.656441   -0.3787788   -0.3787788  -0.23809195   0.17409373   -0.3787788   0.14068685    1299997.4 
  267000    52.947243  -0.37644652  -0.37644652  -0.23761919   0.25502366  -0.37644652   0.13882734    1299997.4 
  268000    54.493703  -0.38038012  -0.38038012  -0.23749797   0.14209637  -0.38038012   0.14288215    1299997.4 
  269000    54.072079  -0.37944013  -0.37944013  -0.23766348    0.1560575  -0.37944013   0.14177665    1299997.4 
  270000    53.632507  -0.37892676  -0.37892676  -0.23830266   0.17220872  -0.37892676    0.1406241    1299997.4 
  271000    53.454603  -0.37814171  -0.37814171  -0.23798408   0.19704242  -0.37814171   0.14015763    1299997.4 
  272000    53.303339  -0.37841514  -0.37841514  -0.23865412   0.20515954  -0.37841514   0.13976102    1299997.4 
  273000    53.742828   -0.3789512   -0.3789512  -0.23803784   0.19805898   -0.3789512   0.14091336    1299997.4 
  274000    53.735639  -0.37895801  -0.37895801   -0.2380635   0.18328223  -0.37895801   0.14089451    1299997.4 
  275000    53.067466  -0.37757206  -0.37757206   -0.2384295   0.20025998  -0.37757206   0.13914256    1299997.4 
  276000    53.838502  -0.37928361  -0.37928361   -0.2381194   0.14825727  -0.37928361   0.14116421    1299997.4 
  277000    53.128003  -0.37801524  -0.37801524  -0.23871396   0.17935906  -0.37801524   0.13930129    1299997.4 
  278000    54.202083  -0.38061833  -0.38061833  -0.23850081   0.15905994  -0.38061833   0.14211752    1299997.4 
  279000    53.512868  -0.37853497  -0.37853497  -0.23822457   0.15905182  -0.37853497    0.1403104    1299997.4 
  280000    53.731873    -0.379054    -0.379054  -0.23816936   0.11787779    -0.379054   0.14088463    1299997.4 
  281000    53.108246   -0.3778358   -0.3778358  -0.23858631   0.20769339   -0.3778358   0.13924949    1299997.4 
  282000    53.895331  -0.37941967  -0.37941967  -0.23810645   0.15701755  -0.37941967   0.14131322    1299997.4 
  283000    54.078473   -0.3803179   -0.3803179  -0.23852448   0.13232604   -0.3803179   0.14179341    1299997.4 
  284000    54.436436  -0.38095292  -0.38095292  -0.23822093   0.16566909  -0.38095292   0.14273199    1299997.4 
  285000    54.295297   -0.3803196   -0.3803196  -0.23795768   0.18229201   -0.3803196   0.14236193    1299997.4 
  286000    54.017593  -0.37980303  -0.37980303  -0.23816924   0.16779791  -0.37980303   0.14163379    1299997.4 
  287000    52.872906  -0.37710281  -0.37710281  -0.23847039   0.18341262  -0.37710281   0.13863243    1299997.4 
  288000    54.067416  -0.37976911  -0.37976911  -0.23800468   0.13045807  -0.37976911   0.14176442    1299997.4 
  289000      53.3837  -0.37731777  -0.37731777  -0.23734604   0.21885492  -0.37731777   0.13997172    1299997.4 
  290000    54.344684  -0.38020402  -0.38020402  -0.23771261   0.17946158  -0.38020402   0.14249142    1299997.4 
  291000    54.470645  -0.38038763  -0.38038763  -0.23756594   0.15806648  -0.38038763   0.14282169    1299997.4 
  292000    53.964518  -0.37887318  -0.37887318  -0.23737856    0.2136709  -0.37887318   0.14149462    1299997.4 
  293000    54.545906  -0.38059315  -0.38059315  -0.23757413   0.18711356  -0.38059315   0.14301902    1299997.4 
  294000    54.164089  -0.37978055  -0.37978055  -0.23776265    0.1879141  -0.37978055    0.1420179    1299997.4 
  295000    54.554665  -0.38102908  -0.38102908  -0.23798709   0.15652777  -0.38102908   0.14304199    1299997.4 
  296000    54.005879  -0.37961575  -0.37961575  -0.23801268   0.17194421  -0.37961575   0.14160307    1299997.4 
  297000    54.621242  -0.38073308  -0.38073308  -0.23751653   0.15300197  -0.38073308   0.14321655    1299997.4 
  298000    53.971417  -0.37946424  -0.37946424  -0.23795152    0.1852494  -0.37946424   0.14151271    1299997.4 
  299000    53.962183  -0.37958946  -0.37958946  -0.23810096   0.19164867  -0.37958946    0.1414885    1299997.4 
  300000    53.679649  -0.37888986  -0.37888986  -0.23814216   0.16077845  -0.37888986    0.1407477    1299997.4 
  301000    54.067267  -0.37982894  -0.37982894  -0.23806491    0.1716157  -0.37982894   0.14176403    1299997.4 
  302000    53.475589  -0.37819827  -0.37819827  -0.23798562   0.17401626  -0.37819827   0.14021266    1299997.4 
  303000    53.647947  -0.37884858  -0.37884858    -0.238184   0.20020221  -0.37884858   0.14066458    1299997.4 
  304000    54.227233  -0.38030936  -0.38030936   -0.2381259   0.15230801  -0.38030936   0.14218346    1299997.4 
  305000    53.835887  -0.37908934  -0.37908934  -0.23793198   0.16430023  -0.37908934   0.14115736    1299997.4 
  306000    53.706883  -0.37883874  -0.37883874  -0.23801963    0.1773165  -0.37883874   0.14081911    1299997.4 
  307000    54.250112  -0.38007171  -0.38007171  -0.23782826     0.178807  -0.38007171   0.14224345    1299997.4 
  308000    53.294701  -0.37819041  -0.37819041  -0.23845204   0.21562888  -0.37819041   0.13973837    1299997.4 
  309000    53.545844  -0.37898382  -0.37898382  -0.23858696   0.15766582  -0.37898382   0.14039686    1299997.4 
  310000    54.241932  -0.37996805  -0.37996805  -0.23774605   0.14567528  -0.37996805     0.142222    1299997.4 
  311000    53.743515  -0.37816901  -0.37816901  -0.23725386   0.18876271  -0.37816901   0.14091516    1299997.4 
  312000    54.114235  -0.37957056  -0.37957056  -0.23768338   0.14892928  -0.37957056   0.14188718    1299997.4 
  313000    54.575538  -0.38049264  -0.38049264  -0.23739593   0.15662727  -0.38049264   0.14309672    1299997.4 
  314000    54.492374  -0.38005992  -0.38005992  -0.23718125    0.1526802  -0.38005992   0.14287866    1299997.4 
  315000    54.271953  -0.37984384  -0.37984384  -0.23754312   0.13890366  -0.37984384   0.14230072    1299997.4 
  316000    54.094811  -0.37902959  -0.37902959  -0.23719334   0.13906595  -0.37902959   0.14183625    1299997.4 
  317000    54.428086  -0.38000277  -0.38000277  -0.23729268   0.16822336  -0.38000277    0.1427101    1299997.4 
  318000    53.706471  -0.37785707  -0.37785707  -0.23703904   0.17001292  -0.37785707   0.14081803    1299997.4 
  319000    53.372831  -0.37766978  -0.37766978  -0.23772655   0.18822562  -0.37766978   0.13994323    1299997.4 
  320000    54.900777  -0.38175459  -0.38175459   -0.2378051   0.10651822  -0.38175459   0.14394949    1299997.4 
  321000    54.770472  -0.38094724  -0.38094724  -0.23733941   0.14304382  -0.38094724   0.14360783    1299997.4 
  322000    53.822413  -0.37852165  -0.37852165  -0.23739962   0.21232719  -0.37852165   0.14112203    1299997.4 
  323000    53.819905  -0.37935876  -0.37935876   -0.2382433   0.18534234  -0.37935876   0.14111545    1299997.4 
  324000    54.279441  -0.38039747  -0.38039747  -0.23807712   0.14503711  -0.38039747   0.14232035    1299997.4 
  325000    54.089252  -0.37948172  -0.37948172  -0.23766004   0.17713435  -0.37948172   0.14182168    1299997.4 
  326000    54.102138  -0.38040966  -0.38040966  -0.23855419     0.154843  -0.38040966   0.14185546    1299997.4 
  327000    53.892184   -0.3798506   -0.3798506  -0.23854564   0.20835504   -0.3798506   0.14130497    1299997.4 
  328000    54.196175  -0.38025964  -0.38025964  -0.23815762     0.173084  -0.38025964   0.14210203    1299997.4 
  329000    54.589444   -0.3816378   -0.3816378  -0.23850462   0.18380153   -0.3816378   0.14313318    1299997.4 
  330000    54.627906  -0.38136281  -0.38136281  -0.23812879   0.18642401  -0.38136281   0.14323402    1299997.4 
  331000     54.73048  -0.38142355  -0.38142355  -0.23792058   0.12058125  -0.38142355   0.14350297    1299997.4 
  332000    54.881479  -0.38166104  -0.38166104  -0.23776215   0.16004178  -0.38166104   0.14389889    1299997.4 
  333000    54.395176  -0.38062681  -0.38062681  -0.23800301   0.14917085  -0.38062681   0.14262381    1299997.4 
  334000    54.216091  -0.38009935  -0.38009935   -0.2379451   0.17005589  -0.38009935   0.14215425    1299997.4 
  335000    53.914878  -0.37994914  -0.37994914  -0.23858467   0.16608367  -0.37994914   0.14136447    1299997.4 
  336000    54.653738  -0.38099729  -0.38099729  -0.23769554   0.13309093  -0.38099729   0.14330175    1299997.4 
  337000    54.498207  -0.38067866  -0.38067866  -0.23778471   0.15010089  -0.38067866   0.14289396    1299997.4 
  338000    54.457966  -0.38062585  -0.38062585  -0.23783741   0.17530916  -0.38062585   0.14278844    1299997.4 
  339000    53.870663  -0.37970754  -0.37970754    -0.238459   0.22709496  -0.37970754   0.14124854    1299997.4 
  340000    54.795594  -0.38145694  -0.38145694  -0.23778324   0.13644542  -0.38145694    0.1436737    1299997.4 
  341000    54.756161  -0.38154332  -0.38154332  -0.23797301   0.14626169  -0.38154332   0.14357031    1299997.4 
  342000     54.18601   -0.3805213   -0.3805213  -0.23844593   0.16183262   -0.3805213   0.14207538    1299997.4 
  343000    54.509031  -0.38074842  -0.38074842  -0.23782608   0.12807392  -0.38074842   0.14292234    1299997.4 
  344000    53.912312  -0.37906846  -0.37906846  -0.23771072    0.1641269  -0.37906846   0.14135774    1299997.4 
  345000    53.630888  -0.37851783  -0.37851783  -0.23789798   0.17303119  -0.37851783   0.14061985    1299997.4 
  346000     54.25314  -0.37950831  -0.37950831  -0.23725692   0.18595341  -0.37950831   0.14225139    1299997.4 
  347000    53.943105  -0.37936696  -0.37936696  -0.23792848   0.19593786  -0.37936696   0.14143848    1299997.4 
  348000    54.196164  -0.37992617  -0.37992617  -0.23782418   0.19705618  -0.37992617     0.142102    1299997.4 
  349000    54.104184  -0.37979078  -0.37979078  -0.23792995   0.20080913  -0.37979078   0.14186083    1299997.4 
  350000    54.596492  -0.38099506  -0.38099506   -0.2378434   0.17231923  -0.38099506   0.14315166    1299997.4 
  351000    53.859867  -0.37974461  -0.37974461  -0.23852438   0.18447294  -0.37974461   0.14122023    1299997.4 
  352000    53.674998  -0.37935434  -0.37935434  -0.23861884   0.17739929  -0.37935434    0.1407355    1299997.4 
  353000    54.041248  -0.37973956  -0.37973956  -0.23804375   0.18234605  -0.37973956   0.14169581    1299997.4 
  354000    54.096814  -0.38029904  -0.38029904  -0.23845753   0.16396959  -0.38029904    0.1418415    1299997.4 
  355000    54.141242  -0.37989039  -0.37989039  -0.23793239   0.18074648  -0.37989039   0.14195799    1299997.4 
  356000    54.278309  -0.37962863  -0.37962863  -0.23731124   0.15870758  -0.37962863   0.14231738    1299997.4 
  357000    53.924613  -0.37906561  -0.37906561  -0.23767562   0.19660737  -0.37906561   0.14138999    1299997.4 
  358000    54.843174  -0.38209251  -0.38209251  -0.23829405   0.14608347  -0.38209251   0.14379846    1299997.4 
  359000    53.625613  -0.37929478  -0.37929478  -0.23868876     0.196525  -0.37929478   0.14060602    1299997.4 
  360000    53.891181  -0.38033679  -0.38033679  -0.23903445   0.17837678  -0.38033679   0.14130234    1299997.4 
  361000    54.285061  -0.38095292  -0.38095292  -0.23861783   0.14633758  -0.38095292   0.14233509    1299997.4 
  362000    54.165763  -0.38041217  -0.38041217  -0.23838989   0.14534119  -0.38041217   0.14202229    1299997.4 
  363000    54.503783  -0.38105102  -0.38105102  -0.23814244   0.14949189  -0.38105102   0.14290857    1299997.4 
  364000    53.785074   -0.3795285   -0.3795285  -0.23850438   0.17549549   -0.3795285   0.14102412    1299997.4 
  365000     53.01189  -0.37765223  -0.37765223  -0.23865539   0.23549189  -0.37765223   0.13899684    1299997.4 
  366000    54.190716  -0.38081009  -0.38081009  -0.23872238   0.15378446  -0.38081009   0.14208771    1299997.4 
  367000    53.843755  -0.37941626  -0.37941626  -0.23823827   0.15377319  -0.37941626   0.14117799    1299997.4 
  368000    53.723791  -0.37904574  -0.37904574   -0.2381823   0.17339517  -0.37904574   0.14086344    1299997.4 
  369000     53.13019  -0.37783592  -0.37783592   -0.2385289   0.22059036  -0.37783592   0.13930702    1299997.4 
  370000    54.463251  -0.38094037  -0.38094037  -0.23813807   0.13298279  -0.38094037    0.1428023    1299997.4 
  371000    54.173219  -0.38063915  -0.38063915  -0.23859731   0.15012164  -0.38063915   0.14204184    1299997.4 
  372000    54.134774   -0.3801492   -0.3801492  -0.23820817   0.17243385   -0.3801492   0.14194104    1299997.4 
  373000    53.956369  -0.37997238  -0.37997238  -0.23849912   0.19746177  -0.37997238   0.14147326    1299997.4 
  374000    54.083691  -0.37916782  -0.37916782  -0.23736073   0.19572675  -0.37916782    0.1418071    1299997.4 
  375000    54.003147   -0.3798689   -0.3798689  -0.23827299   0.15802161   -0.3798689   0.14159591    1299997.4 
  376000    54.398726  -0.38047465  -0.38047465  -0.23784154   0.18409442  -0.38047465   0.14263311    1299997.4 
  377000    53.999033  -0.37992199  -0.37992199  -0.23833687   0.17900524  -0.37992199   0.14158512    1299997.4 
  378000     54.83644  -0.38179997  -0.38179997  -0.23801917   0.12408632  -0.38179997    0.1437808    1299997.4 
  379000    55.259282  -0.38312599  -0.38312599  -0.23823651   0.11732725  -0.38312599   0.14488949    1299997.4 
  380000    54.940612  -0.38229438  -0.38229438  -0.23824044   0.16034232  -0.38229438   0.14405394    1299997.4 
  381000    54.685845  -0.38210135  -0.38210135  -0.23871541   0.18711616  -0.38210135   0.14338594    1299997.4 
  382000    53.949627  -0.38037019  -0.38037019  -0.23891461   0.18050479  -0.38037019   0.14145558    1299997.4 
  383000    53.422344  -0.37913972  -0.37913972  -0.23906667   0.19670763  -0.37913972   0.14007305    1299997.4 
  384000    53.615742  -0.37933262  -0.37933262  -0.23875249   0.14725718  -0.37933262   0.14058014    1299997.4 
  385000    53.414671  -0.37861894  -0.37861894  -0.23856601   0.19536025  -0.37861894   0.14005293    1299997.4 
  386000    53.649473  -0.37921769  -0.37921769  -0.23854912   0.20384544  -0.37921769   0.14066858    1299997.4 
  387000    53.333179  -0.37812736  -0.37812736   -0.2382881   0.22946723  -0.37812736   0.13983926    1299997.4 
  388000    54.038938  -0.37982145  -0.37982145  -0.23813169   0.21048807  -0.37982145   0.14168975    1299997.4 
  389000    54.081466  -0.37987339  -0.37987339  -0.23807212   0.18841255  -0.37987339   0.14180126    1299997.4 
  390000    54.238999  -0.38011236  -0.38011236  -0.23789805   0.19627619  -0.38011236   0.14221431    1299997.4 
  391000    53.447765  -0.37871592  -0.37871592  -0.23857622   0.21734832  -0.37871592    0.1401397    1299997.4 
  392000    53.629337  -0.37930361  -0.37930361  -0.23868783   0.17309597  -0.37930361   0.14061578    1299997.4 
  393000    54.365239  -0.38036285  -0.38036285  -0.23781753   0.17053436  -0.38036285   0.14254531    1299997.4 
  394000    54.161992  -0.38028291  -0.38028291  -0.23827051   0.18878556  -0.38028291    0.1420124    1299997.4 
  395000     54.65753  -0.38089456  -0.38089456  -0.23758287   0.15149693  -0.38089456    0.1433117    1299997.4 
  396000    53.851775  -0.37823533  -0.37823533  -0.23703632   0.19991417  -0.37823533   0.14119901    1299997.4 
  397000     53.91056  -0.37819506  -0.37819506  -0.23684192   0.21077349  -0.37819506   0.14135315    1299997.4 
  398000    53.815174   -0.3785865   -0.3785865  -0.23748345   0.18805431   -0.3785865   0.14110304    1299997.4 
  399000    54.056307  -0.37861594  -0.37861594  -0.23688064   0.15192155  -0.37861594   0.14173529    1299997.4 
  400000    53.907897  -0.37803987  -0.37803987   -0.2366937   0.17241839  -0.37803987   0.14134617    1299997.4 
  401000    54.328428  -0.37993047  -0.37993047  -0.23748168   0.16588491  -0.37993047    0.1424488    1299997.4 
  402000    54.496375   -0.3800047   -0.3800047  -0.23711555   0.12908757   -0.3800047   0.14288915    1299997.4 
  403000    54.290613  -0.38055021  -0.38055021  -0.23820057   0.17521728  -0.38055021   0.14234964    1299997.4 
  404000    54.249838  -0.37882924  -0.37882924   -0.2365865   0.13895192  -0.37882924   0.14224273    1299997.4 
  405000    54.136269  -0.37917443  -0.37917443  -0.23722947   0.16294761  -0.37917443   0.14194496    1299997.4 
  406000    53.327151  -0.37749562  -0.37749562  -0.23767217   0.22535418  -0.37749562   0.13982345    1299997.4 
  407000    54.028752  -0.37893684  -0.37893684   -0.2372738   0.17041318  -0.37893684   0.14166305    1299997.4 
  408000    54.056305  -0.37980906  -0.37980906  -0.23807377   0.14006332  -0.37980906   0.14173529    1299997.4 
  409000    54.790292  -0.38133064  -0.38133064  -0.23767084   0.15316567  -0.38133064    0.1436598    1299997.4 
  410000    53.889378  -0.37904128  -0.37904128  -0.23774367   0.19282118  -0.37904128   0.14129761    1299997.4 
  411000    53.849938  -0.37886858  -0.37886858  -0.23767439   0.19573458  -0.37886858    0.1411942    1299997.4 
  412000    53.547603  -0.37862402  -0.37862402  -0.23822254   0.18252488  -0.37862402   0.14040148    1299997.4 
  413000    53.933144  -0.37924807  -0.37924807  -0.23783571   0.19054261  -0.37924807   0.14141236    1299997.4 
  414000    53.658139  -0.37897884  -0.37897884  -0.23828754   0.21402355  -0.37897884    0.1406913    1299997.4 
  415000    54.574886  -0.38070047  -0.38070047  -0.23760546    0.1901625  -0.38070047   0.14309501    1299997.4 
  416000    53.582344  -0.37783453  -0.37783453  -0.23734196    0.2447222  -0.37783453   0.14049257    1299997.4 
  417000    54.600028  -0.38042661  -0.38042661  -0.23726568   0.18882104  -0.38042661   0.14316093    1299997.4 
  418000    53.662027  -0.37920385  -0.37920385  -0.23850236    0.2313863  -0.37920385   0.14070149    1299997.4 
  419000    53.651436  -0.37893125  -0.37893125  -0.23825752   0.19799634  -0.37893125   0.14067373    1299997.4 
  420000    53.855158  -0.37999785  -0.37999785  -0.23878996   0.17976862  -0.37999785   0.14120788    1299997.4 
  421000     53.97455  -0.37944534  -0.37944534  -0.23792441   0.15817476  -0.37944534   0.14152093    1299997.4 
  422000    53.324849  -0.37792471  -0.37792471  -0.23810729   0.19725149  -0.37792471   0.13981742    1299997.4 
  423000    54.660347  -0.38111515  -0.38111515  -0.23779607    0.1581288  -0.38111515   0.14331908    1299997.4 
  424000    54.336274  -0.37994344  -0.37994344  -0.23747407   0.18633964  -0.37994344   0.14246937    1299997.4 
  425000    54.229776  -0.37974657  -0.37974657  -0.23755644   0.19988108  -0.37974657   0.14219013    1299997.4 
  426000      53.8737  -0.37919491  -0.37919491   -0.2379384   0.14813235  -0.37919491    0.1412565    1299997.4 
  427000    54.161468  -0.37994566  -0.37994566  -0.23793463   0.17572184  -0.37994566   0.14201103    1299997.4 
  428000    53.916722  -0.37908098  -0.37908098  -0.23771168   0.18507239  -0.37908098    0.1413693    1299997.4 
  429000    53.939944  -0.37940631  -0.37940631  -0.23797612   0.20577204  -0.37940631   0.14143019    1299997.4 
  430000    53.559261  -0.37891876  -0.37891876  -0.23848672   0.21196839  -0.37891876   0.14043204    1299997.4 
  431000    53.978599  -0.37944058  -0.37944058  -0.23790904   0.17989403  -0.37944058   0.14153155    1299997.4 
  432000    53.870503  -0.37925965  -0.37925965  -0.23801153   0.16290775  -0.37925965   0.14124812    1299997.4 
  433000    53.604348  -0.37921535  -0.37921535  -0.23866509   0.18540641  -0.37921535   0.14055026    1299997.4 
  434000    54.188809  -0.38040723  -0.38040723  -0.23832451   0.15128058  -0.38040723   0.14208272    1299997.4 
  435000    53.854825  -0.37966031  -0.37966031   -0.2384533   0.15638279  -0.37966031   0.14120701    1299997.4 
  436000     53.71699  -0.37875335  -0.37875335  -0.23790774   0.14068643  -0.37875335   0.14084561    1299997.4 
  437000    53.942473  -0.38023812  -0.38023812  -0.23880129   0.21818459  -0.38023812   0.14143682    1299997.4 
  438000     53.37804  -0.37869434  -0.37869434  -0.23873746   0.22568489  -0.37869434   0.13995688    1299997.4 
  439000    53.779722  -0.37960045  -0.37960045  -0.23859036   0.14596866  -0.37960045   0.14101009    1299997.4 
  440000    53.970272  -0.38002944  -0.38002944  -0.23851973   0.17338516  -0.38002944   0.14150971    1299997.4 
  441000    53.759782  -0.37991442  -0.37991442  -0.23895661   0.18272164  -0.37991442   0.14095781    1299997.4 
  442000    54.126803  -0.38048505  -0.38048505  -0.23856492   0.17220572  -0.38048505   0.14192013    1299997.4 
  443000     54.24635  -0.38048711  -0.38048711  -0.23825353   0.18409979  -0.38048711   0.14223359    1299997.4 
  444000    53.793155  -0.37918839  -0.37918839  -0.23814308   0.19532072  -0.37918839   0.14104531    1299997.4 
  445000    54.217477  -0.38031778  -0.38031778   -0.2381599   0.18836732  -0.38031778   0.14215788    1299997.4 
  446000    54.154613  -0.37972473  -0.37972473  -0.23773168    0.1552648  -0.37972473   0.14199305    1299997.4 
  447000    53.544398  -0.37877721  -0.37877721  -0.23838413   0.19684295  -0.37877721   0.14039307    1299997.4 
  448000    53.559272  -0.37878136  -0.37878136  -0.23834929   0.18225195  -0.37878136   0.14043207    1299997.4 
  449000    54.224464   -0.3802739   -0.3802739   -0.2380977   0.17487185   -0.3802739    0.1421762    1299997.4 
  450000    53.877902  -0.38040291  -0.38040291  -0.23913539   0.16540996  -0.38040291   0.14126752    1299997.4 
  451000    54.334144  -0.38023262  -0.38023262  -0.23776884    0.1935396  -0.38023262   0.14246378    1299997.4 
  452000    54.271854  -0.38081358  -0.38081358  -0.23851313   0.15350487  -0.38081358   0.14230046    1299997.4 
  453000    54.823935  -0.38220015  -0.38220015  -0.23845214   0.15357278  -0.38220015   0.14374801    1299997.4 
  454000    54.490197   -0.3812503   -0.3812503  -0.23837735   0.12260893   -0.3812503   0.14287295    1299997.4 
  455000    53.672725  -0.37926254  -0.37926254    -0.238533   0.20524839  -0.37926254   0.14072955    1299997.4 
  456000    53.662208  -0.37943822  -0.37943822  -0.23873625   0.16711443  -0.37943822   0.14070197    1299997.4 
  457000    53.862401  -0.37961439  -0.37961439  -0.23838751   0.16925657  -0.37961439   0.14122688    1299997.4 
  458000    54.177414  -0.38020084  -0.38020084    -0.238148   0.16981192  -0.38020084   0.14205284    1299997.4 
  459000    54.291253    -0.380144    -0.380144  -0.23779268       0.1492    -0.380144   0.14235132    1299997.4 
  460000    54.513266  -0.38072839  -0.38072839  -0.23779495   0.19490487  -0.38072839   0.14293344    1299997.4 
  461000    54.252219  -0.38047596  -0.38047596  -0.23822699   0.20540952  -0.38047596   0.14224897    1299997.4 
  462000    54.394308  -0.38063466  -0.38063466  -0.23801313   0.18537607  -0.38063466   0.14262153    1299997.4 
  463000    54.978204  -0.38176432  -0.38176432  -0.23761182   0.11870368  -0.38176432    0.1441525    1299997.4 
  464000    54.452673  -0.38010572  -0.38010572  -0.23733115   0.16421282  -0.38010572   0.14277456    1299997.4 
  465000     53.29165  -0.37763093  -0.37763093  -0.23790056   0.20922921  -0.37763093   0.13973037    1299997.4 
  466000    53.958277  -0.37921953  -0.37921953  -0.23774127   0.14541428  -0.37921953   0.14147826    1299997.4 
  467000    53.481804  -0.37847036  -0.37847036  -0.23824141   0.20632406  -0.37847036   0.14022895    1299997.4 
  468000    54.683777   -0.3806533   -0.3806533  -0.23727278   0.13132148   -0.3806533   0.14338052    1299997.4 
  469000    53.582348  -0.37853352  -0.37853352  -0.23804095    0.1784191  -0.37853352   0.14049258    1299997.4 
  470000    53.658254  -0.37855406  -0.37855406  -0.23786246   0.20615467  -0.37855406    0.1406916    1299997.4 
  471000    53.874415  -0.37942287  -0.37942287   -0.2381645    0.1698207  -0.37942287   0.14125838    1299997.4 
  472000    53.965156  -0.38022266  -0.38022266  -0.23872636   0.12997562  -0.38022266    0.1414963    1299997.4 
  473000    53.403305  -0.37825022  -0.37825022  -0.23822709    0.1924637  -0.37825022   0.14002313    1299997.4 
  474000    53.706406  -0.37932531  -0.37932531  -0.23850745   0.16518774  -0.37932531   0.14081786    1299997.4 
  475000     53.80247  -0.37898503  -0.37898503   -0.2379153   0.18038728  -0.37898503   0.14106974    1299997.4 
  476000     53.54745  -0.37799706  -0.37799706  -0.23759599   0.18767817  -0.37799706   0.14040107    1299997.4 
  477000    53.267094  -0.37807637  -0.37807637  -0.23841038   0.19181895  -0.37807637   0.13966598    1299997.4 
  478000    53.043147  -0.37721668  -0.37721668  -0.23813789   0.20933807  -0.37721668    0.1390788    1299997.4 
  479000    53.548977  -0.37829807  -0.37829807  -0.23789299   0.16176286  -0.37829807   0.14040508    1299997.4 
  480000    52.684866  -0.37640728  -0.37640728   -0.2382679   0.22023405  -0.37640728   0.13813938    1299997.4 
  481000    52.984172  -0.37655621  -0.37655621  -0.23763204   0.19770223  -0.37655621   0.13892416    1299997.4 
  482000    53.405284  -0.37843295  -0.37843295  -0.23840463   0.18927843  -0.37843295   0.14002832    1299997.4 
  483000    53.899378  -0.37982043  -0.37982043   -0.2384966   0.14436138  -0.37982043   0.14132383    1299997.4 
  484000    53.541001  -0.37821965  -0.37821965  -0.23783548   0.14632696  -0.37821965   0.14038417    1299997.4 
  485000    53.759981  -0.37859092  -0.37859092  -0.23763259   0.16911834  -0.37859092   0.14095833    1299997.4 
  486000    54.254415  -0.38039523  -0.38039523  -0.23814049   0.11764738  -0.38039523   0.14225473    1299997.4 
  487000    53.868143  -0.37935438  -0.37935438  -0.23811245   0.13873737  -0.37935438   0.14124193    1299997.4 
  488000    53.530873  -0.37863096  -0.37863096  -0.23827335   0.16445619  -0.37863096   0.14035761    1299997.4 
  489000    53.776325  -0.37899925  -0.37899925  -0.23799806   0.16321544  -0.37899925   0.14100118    1299997.4 
  490000    53.796209  -0.37948799  -0.37948799  -0.23843468   0.14539337  -0.37948799   0.14105332    1299997.4 
  491000    54.176618  -0.38004884  -0.38004884  -0.23799809   0.16955779  -0.38004884   0.14205075    1299997.4 
  492000     54.07856   -0.3795955   -0.3795955  -0.23780186   0.15838735   -0.3795955   0.14179364    1299997.4 
  493000    53.401454  -0.37751135  -0.37751135  -0.23749308   0.20478934  -0.37751135   0.14001828    1299997.4 
  494000    53.357539  -0.37806476  -0.37806476  -0.23816163   0.20041268  -0.37806476   0.13990313    1299997.4 
  495000    54.097138   -0.3804608   -0.3804608  -0.23861844    0.1636319   -0.3804608   0.14184235    1299997.4 
  496000    53.850562  -0.37912466  -0.37912466  -0.23792883   0.18569926  -0.37912466   0.14119583    1299997.4 
  497000    53.880905  -0.37910878  -0.37910878  -0.23783338   0.19464874  -0.37910878   0.14127539    1299997.4 
  498000    53.783605  -0.37964085  -0.37964085  -0.23862058    0.1859006  -0.37964085   0.14102027    1299997.4 
  499000    53.822205  -0.37941744  -0.37941744  -0.23829596   0.16216879  -0.37941744   0.14112148    1299997.4 
  500000    53.298143  -0.37849436  -0.37849436  -0.23874697   0.17758076  -0.37849436   0.13974739    1299997.4 
  501000    53.895287  -0.37999222  -0.37999222  -0.23867912   0.15087073  -0.37999222    0.1413131    1299997.4 
  502000    53.810599  -0.37951077  -0.37951077  -0.23841972   0.17112371  -0.37951077   0.14109105    1299997.4 
  503000    54.522728  -0.38118775  -0.38118775   -0.2382295     0.150991  -0.38118775   0.14295825    1299997.4 
  504000    54.856897  -0.38179405  -0.38179405  -0.23795961   0.14403779  -0.38179405   0.14383444    1299997.4 
  505000    54.057496  -0.37955449  -0.37955449  -0.23781608   0.15092467  -0.37955449   0.14173841    1299997.4 
  506000     53.40987  -0.37770171  -0.37770171  -0.23766137   0.20480957  -0.37770171   0.14004034    1299997.4 
  507000    53.759021  -0.37917881  -0.37917881    -0.238223   0.17141198  -0.37917881   0.14095581    1299997.4 
  508000    54.072773  -0.37903778  -0.37903778  -0.23725931   0.16825632  -0.37903778   0.14177847    1299997.4 
  509000     53.69573  -0.37829365  -0.37829365  -0.23750379   0.20242223  -0.37829365   0.14078987    1299997.4 
  510000    53.617944  -0.37814132  -0.37814132  -0.23755541   0.18418167  -0.37814132   0.14058591    1299997.4 
  511000    54.225035  -0.37987979  -0.37987979  -0.23770209   0.15429322  -0.37987979    0.1421777    1299997.4 
  512000    53.658723  -0.37883897  -0.37883897  -0.23814613   0.17195933  -0.37883897   0.14069283    1299997.4 
  513000    53.983484  -0.37923563  -0.37923563  -0.23769128   0.17911572  -0.37923563   0.14154435    1299997.4 
  514000    53.842341  -0.37908937  -0.37908937  -0.23791509   0.19541512  -0.37908937   0.14117428    1299997.4 
  515000    53.587418  -0.37858993  -0.37858993  -0.23808406   0.18581864  -0.37858993   0.14050587    1299997.4 
  516000    54.311175  -0.38006373  -0.38006373  -0.23766017   0.19903535  -0.38006373   0.14240356    1299997.4 
  517000    54.634856  -0.38109613  -0.38109613  -0.23784389    0.1333368  -0.38109613   0.14325225    1299997.4 
  518000    54.322522  -0.37965313  -0.37965313  -0.23721982   0.19695781  -0.37965313   0.14243331    1299997.4 
  519000    54.618381  -0.38094911  -0.38094911  -0.23774006   0.17511314  -0.38094911   0.14320905    1299997.4 
  520000    54.431655   -0.3805356   -0.3805356  -0.23781614   0.16404001   -0.3805356   0.14271945    1299997.4 
  521000    54.101426  -0.37923364  -0.37923364  -0.23738004   0.19297302  -0.37923364    0.1418536    1299997.4 
  522000    53.419221  -0.37787141  -0.37787141  -0.23780655   0.23831871  -0.37787141   0.14006486    1299997.4 
  523000    53.574796  -0.37832668  -0.37832668   -0.2378539    0.1832677  -0.37832668   0.14047278    1299997.4 
  524000    53.858307  -0.37898911  -0.37898911  -0.23777297   0.15295943  -0.37898911   0.14121614    1299997.4 
  525000    53.087431  -0.37710297  -0.37710297  -0.23790807   0.19278748  -0.37710297   0.13919491    1299997.4 
  526000    54.312237  -0.38054763  -0.38054763  -0.23814128   0.12354014  -0.38054763   0.14240634    1299997.4 
  527000    53.979049   -0.3795738   -0.3795738  -0.23804107    0.1634908   -0.3795738   0.14153273    1299997.4 
  528000    53.389392  -0.37756903  -0.37756903  -0.23758239   0.21386571  -0.37756903   0.13998665    1299997.4 
  529000    54.084417   -0.3797735   -0.3797735   -0.2379645   0.18709507   -0.3797735     0.141809    1299997.4 
  530000    54.302681  -0.38039754  -0.38039754  -0.23801625   0.15557908  -0.38039754   0.14238129    1299997.4 
  531000    54.011134  -0.37954575  -0.37954575   -0.2379289    0.1685591  -0.37954575   0.14161685    1299997.4 
  532000    53.803438   -0.3790308   -0.3790308  -0.23795853   0.18857403   -0.3790308   0.14107227    1299997.4 
  533000    53.567291  -0.37878433  -0.37878433  -0.23833123   0.22833929  -0.37878433    0.1404531    1299997.4 
  534000    54.284192  -0.37996675  -0.37996675  -0.23763394   0.15894286  -0.37996675   0.14233281    1299997.4 
  535000    53.795691  -0.37894443  -0.37894443  -0.23789246   0.15779644  -0.37894443   0.14105196    1299997.4 
  536000    54.328434  -0.38051406  -0.38051406  -0.23806525   0.18048679  -0.38051406   0.14244881    1299997.4 
  537000     54.21196  -0.37992825  -0.37992825  -0.23778483   0.15387048  -0.37992825   0.14214342    1299997.4 
  538000    53.916857  -0.37969863  -0.37969863  -0.23832897   0.21843111  -0.37969863   0.14136966    1299997.4 
  539000    54.721227  -0.38184967  -0.38184967  -0.23837096   0.17012114  -0.38184967   0.14347871    1299997.4 
  540000    54.646435  -0.38152349  -0.38152349  -0.23824088   0.11591413  -0.38152349   0.14328261    1299997.4 
  541000    54.085252  -0.37950732  -0.37950732  -0.23769613   0.22667794  -0.37950732   0.14181119    1299997.4 
  542000    54.326409  -0.37990738  -0.37990738  -0.23746388   0.16588567  -0.37990738    0.1424435    1299997.4 
  543000    53.899997  -0.37973582  -0.37973582  -0.23841037   0.18297424  -0.37973582   0.14132545    1299997.4 
  544000     53.89429  -0.37949551  -0.37949551  -0.23818502   0.17458927  -0.37949551   0.14131049    1299997.4 
  545000    54.229156  -0.38043917  -0.38043917  -0.23825066    0.1725585  -0.38043917    0.1421885    1299997.4 
  546000    53.702266  -0.37939169  -0.37939169  -0.23858469   0.19652516  -0.37939169     0.140807    1299997.4 
  547000    53.668327  -0.37855805  -0.37855805  -0.23784004   0.21248492  -0.37855805   0.14071802    1299997.4 
  548000    53.413397   -0.3777845   -0.3777845  -0.23773491    0.2123332   -0.3777845   0.14004959    1299997.4 
  549000    53.943399  -0.37934641  -0.37934641  -0.23790716    0.1764418  -0.37934641   0.14143925    1299997.4 
  550000    53.497102  -0.37807296  -0.37807296  -0.23780389   0.20248633  -0.37807296   0.14026906    1299997.4 
  551000    54.150119  -0.37991845  -0.37991845  -0.23793718   0.16314422  -0.37991845   0.14198127    1299997.4 
  552000    54.133795  -0.37960615  -0.37960615  -0.23766768   0.14677911  -0.37960615   0.14193847    1299997.4 
  553000    53.803409  -0.37935912  -0.37935912  -0.23828693   0.19720406  -0.37935912    0.1410722    1299997.4 
  554000    54.376639  -0.38075529  -0.38075529  -0.23818008     0.148783  -0.38075529    0.1425752    1299997.4 
  555000    53.467357  -0.37841967  -0.37841967   -0.2382286   0.18860399  -0.37841967   0.14019107    1299997.4 
  556000    54.233008  -0.38044985  -0.38044985  -0.23825125   0.17496414  -0.38044985   0.14219861    1299997.4 
  557000    54.263393   -0.3800941   -0.3800941  -0.23781583   0.19111622   -0.3800941   0.14227827    1299997.4 
  558000    53.772127  -0.37908625  -0.37908625  -0.23809608   0.19365369  -0.37908625   0.14099018    1299997.4 
  559000    53.950014  -0.37886823  -0.37886823  -0.23741164   0.16995319  -0.37886823   0.14145659    1299997.4 
  560000    53.363177  -0.37823999  -0.37823999  -0.23832207   0.20085703  -0.37823999   0.13991791    1299997.4 
  561000    53.509175   -0.3788909   -0.3788909  -0.23859018   0.17772646   -0.3788909   0.14030072    1299997.4 
  562000    53.308965  -0.37837871  -0.37837871  -0.23860294   0.20106056  -0.37837871   0.13977577    1299997.4 
  563000    54.176336  -0.38016514  -0.38016514  -0.23811513   0.16401692  -0.38016514   0.14205001    1299997.4 
  564000    54.307835  -0.37996952  -0.37996952  -0.23757472   0.13005666  -0.37996952    0.1423948    1299997.4 
  565000    53.797606  -0.37884683  -0.37884683  -0.23778985   0.18736576  -0.37884683   0.14105698    1299997.4 
  566000    54.699654  -0.38092864  -0.38092864  -0.23750649   0.13773173  -0.38092864   0.14342215    1299997.4 
  567000    54.598451  -0.38107844  -0.38107844  -0.23792165   0.14082867  -0.38107844   0.14315679    1299997.4 
  568000      54.5402  -0.38026506  -0.38026506    -0.237261   0.12138946  -0.38026506   0.14300406    1299997.4 
  569000     53.15706  -0.37728424  -0.37728424  -0.23790676   0.20220761  -0.37728424   0.13937748    1299997.4 
  570000    54.032189  -0.37956892  -0.37956892  -0.23789687   0.16455678  -0.37956892   0.14167206    1299997.4 
  571000    54.533226  -0.38077667  -0.38077667   -0.2377909   0.16204192  -0.38077667   0.14298577    1299997.4 
  572000     54.23648  -0.38020107  -0.38020107  -0.23799337   0.16107779  -0.38020107   0.14220771    1299997.4 
  573000      54.2119  -0.38030691  -0.38030691  -0.23816365   0.14090621  -0.38030691   0.14214326    1299997.4 
  574000    54.476774  -0.38094494  -0.38094494  -0.23810719   0.15106562  -0.38094494   0.14283776    1299997.4 
  575000     54.32483  -0.37993868  -0.37993868  -0.23749932   0.18768268  -0.37993868   0.14243936    1299997.4 
  576000    54.641938  -0.38054666  -0.38054666  -0.23727585   0.17206508  -0.38054666   0.14327082    1299997.4 
  577000    54.863732  -0.38070147  -0.38070147  -0.23684911    0.1601314  -0.38070147   0.14385236    1299997.4 
  578000    54.781286  -0.38070962  -0.38070962  -0.23707343   0.14586292  -0.38070962   0.14363619    1299997.4 
  579000     53.89492  -0.37861044  -0.37861044   -0.2372983   0.18897187  -0.37861044   0.14131214    1299997.4 
  580000    54.021839  -0.37903714  -0.37903714  -0.23739222   0.16466441  -0.37903714   0.14164492    1299997.4 
  581000    54.030572  -0.37854547  -0.37854547  -0.23687765   0.16853317  -0.37854547   0.14166782    1299997.4 
  582000     53.57859  -0.37813969  -0.37813969  -0.23765697   0.15865619  -0.37813969   0.14048272    1299997.4 
  583000    53.545233  -0.37816347  -0.37816347  -0.23776821   0.17448258  -0.37816347   0.14039526    1299997.4 
  584000    54.389383  -0.38024524  -0.38024524  -0.23763662   0.14679406  -0.38024524   0.14260862    1299997.4 
  585000    54.106244  -0.37986624  -0.37986624  -0.23800001   0.16684697  -0.37986624   0.14186623    1299997.4 
  586000    53.468254  -0.37782545  -0.37782545  -0.23763202   0.21988499  -0.37782545   0.14019342    1299997.4 
  587000    53.606946  -0.37882495  -0.37882495  -0.23826788    0.1912237  -0.37882495   0.14055707    1299997.4 
  588000    53.873153  -0.37941071  -0.37941071  -0.23815564   0.17684431  -0.37941071   0.14125507    1299997.4 
  589000     53.18175  -0.37819283  -0.37819283  -0.23875062   0.17947317  -0.37819283   0.13944221    1299997.4 
  590000    53.387937  -0.37832706  -0.37832706  -0.23834423   0.14635246  -0.37832706   0.13998283    1299997.4 
  591000     53.70098  -0.37841981  -0.37841981  -0.23761618   0.17031925  -0.37841981   0.14080363    1299997.4 
  592000    54.127299  -0.37969922  -0.37969922  -0.23777778   0.17934059  -0.37969922   0.14192144    1299997.4 
  593000    54.335456  -0.38026633  -0.38026633  -0.23779911   0.15130747  -0.38026633   0.14246722    1299997.4 
  594000    54.441217    -0.380336    -0.380336  -0.23759147   0.14693469    -0.380336   0.14274453    1299997.4 
  595000    54.439659   -0.3801598   -0.3801598  -0.23741935   0.15970165   -0.3801598   0.14274044    1299997.4 
  596000    54.146206  -0.37910547  -0.37910547  -0.23713446    0.1733246  -0.37910547   0.14197101    1299997.4 
  597000    54.336854  -0.37957065  -0.37957065  -0.23709976   0.15367817  -0.37957065   0.14247089    1299997.4 
  598000    53.835988  -0.37849107  -0.37849107  -0.23733345   0.19008696  -0.37849107   0.14115762    1299997.4 
  599000    53.848341  -0.37847279  -0.37847279  -0.23728277   0.18810074  -0.37847279   0.14119001    1299997.4 
  600000    53.245229  -0.37682159  -0.37682159  -0.23721294    0.1790176  -0.37682159   0.13960865    1299997.4 
  601000    53.601653  -0.37810048  -0.37810048  -0.23755728   0.19269961  -0.37810048    0.1405432    1299997.4 
  602000    54.656851  -0.38110617  -0.38110617  -0.23779625    0.1352854  -0.38110617   0.14330992    1299997.4 
  603000    53.683001  -0.37842218  -0.37842218  -0.23766569   0.17499234  -0.37842218   0.14075649    1299997.4 
  604000     53.47357  -0.37827971  -0.37827971  -0.23807235    0.1890005  -0.37827971   0.14020736    1299997.4 
  605000    53.511782  -0.37817808  -0.37817808  -0.23787052   0.20611775  -0.37817808   0.14030755    1299997.4 
  606000    54.011254  -0.37995151  -0.37995151  -0.23833434   0.14881357  -0.37995151   0.14161717    1299997.4 
  607000    53.822666  -0.37917004  -0.37917004  -0.23804735   0.18105011  -0.37917004   0.14112269    1299997.4 
  608000    54.312298  -0.38070599  -0.38070599  -0.23829949     0.169296  -0.38070599    0.1424065    1299997.4 
  609000    54.835585  -0.38133247  -0.38133247  -0.23755392   0.15428171  -0.38133247   0.14377856    1299997.4 
  610000    54.041448  -0.37983684  -0.37983684  -0.23814051   0.12956135  -0.37983684   0.14169634    1299997.4 
  611000    54.063883   -0.3799327   -0.3799327  -0.23817754   0.17334103   -0.3799327   0.14175516    1299997.4 
  612000     53.62146  -0.37918418  -0.37918418  -0.23858905   0.18730106  -0.37918418   0.14059513    1299997.4 
  613000    53.624031   -0.3790637   -0.3790637  -0.23846183   0.16455589   -0.3790637   0.14060187    1299997.4 
  614000    54.183395  -0.38117373  -0.38117373  -0.23910521   0.14930287  -0.38117373   0.14206852    1299997.4 
  615000    53.542993  -0.37913918  -0.37913918   -0.2387498   0.19211078  -0.37913918   0.14038939    1299997.4 
  616000     54.11193  -0.38011141  -0.38011141  -0.23823027   0.13293526  -0.38011141   0.14188114    1299997.4 
  617000    54.376323  -0.38136248  -0.38136248   -0.2387881   0.11223578  -0.38136248   0.14257438    1299997.4 
  618000    54.327211   -0.3809227   -0.3809227  -0.23847709   0.16079385   -0.3809227    0.1424456    1299997.4 
  619000    54.326965  -0.38085476  -0.38085476   -0.2384098   0.14232023  -0.38085476   0.14244496    1299997.4 
  620000    54.893837  -0.38151688  -0.38151688  -0.23758558   0.12794674  -0.38151688   0.14393129    1299997.4 
  621000    54.745934  -0.38147132  -0.38147132  -0.23792782   0.15801573  -0.38147132   0.14354349    1299997.4 
  622000    54.653867  -0.38047943  -0.38047943  -0.23717733   0.15948746  -0.38047943   0.14330209    1299997.4 
  623000    54.942462  -0.38119233  -0.38119233  -0.23713354   0.16347468  -0.38119233   0.14405879    1299997.4 
  624000    54.904339  -0.38113396  -0.38113396  -0.23717513   0.12791769  -0.38113396   0.14395883    1299997.4 
  625000    54.466846  -0.38086375  -0.38086375  -0.23805203    0.1802656  -0.38086375   0.14281173    1299997.4 
  626000    54.712489   -0.3812702   -0.3812702   -0.2378144   0.16914773   -0.3812702    0.1434558    1299997.4 
  627000    54.649533  -0.38188871  -0.38188871  -0.23859798   0.11522832  -0.38188871   0.14329073    1299997.4 
  628000    54.130496  -0.38017329  -0.38017329  -0.23824347   0.18745144  -0.38017329   0.14192982    1299997.4 
  629000    54.545943  -0.38152616  -0.38152616  -0.23850704   0.18441072  -0.38152616   0.14301912    1299997.4 
  630000    54.491365  -0.38103636  -0.38103636  -0.23816034   0.18373165  -0.38103636   0.14287601    1299997.4 
  631000    55.038344  -0.38191004  -0.38191004  -0.23759985    0.1505597  -0.38191004   0.14431019    1299997.4 
  632000     54.99617  -0.38180177  -0.38180177  -0.23760216   0.15687617  -0.38180177   0.14419961    1299997.4 
  633000    55.100668  -0.38151697  -0.38151697  -0.23704337   0.15991759  -0.38151697    0.1444736    1299997.4 
  634000    55.186058  -0.38186006  -0.38186006  -0.23716257   0.15351514  -0.38186006    0.1446975    1299997.4 
  635000    54.457959  -0.38091743  -0.38091743  -0.23812901   0.16463186  -0.38091743   0.14278842    1299997.4 
  636000    54.173906  -0.37988769  -0.37988769  -0.23784405   0.19303523  -0.37988769   0.14204364    1299997.4 
  637000    53.835945  -0.37852196  -0.37852196  -0.23736445   0.20595165  -0.37852196   0.14115751    1299997.4 
  638000    54.628007  -0.38118459  -0.38118459   -0.2379503   0.14556799  -0.38118459   0.14323429    1299997.4 
  639000      54.4984  -0.38106519  -0.38106519  -0.23817073   0.14792879  -0.38106519   0.14289446    1299997.4 
  640000    54.411273  -0.37997766  -0.37997766  -0.23731165   0.21700223  -0.37997766   0.14266601    1299997.4 
  641000    54.451249  -0.38060944  -0.38060944  -0.23783861   0.17452371  -0.38060944   0.14277083    1299997.4 
  642000    54.425167  -0.38071093  -0.38071093  -0.23800848   0.16072787  -0.38071093   0.14270244    1299997.4 
  643000    54.039365  -0.37942804  -0.37942804  -0.23773717   0.17637086  -0.37942804   0.14169087    1299997.4 
  644000    54.241186  -0.37976156  -0.37976156  -0.23754151   0.22120024  -0.37976156   0.14222005    1299997.4 
  645000    54.341997  -0.38014085  -0.38014085  -0.23765647   0.13337548  -0.38014085   0.14248437    1299997.4 
  646000    54.397506  -0.38007544  -0.38007544  -0.23744552    0.1510581  -0.38007544   0.14262992    1299997.4 
  647000     53.84237  -0.37936262  -0.37936262  -0.23818827   0.17572968  -0.37936262   0.14117435    1299997.4 
  648000    53.934782  -0.37869906  -0.37869906   -0.2372824   0.19150176  -0.37869906   0.14141666    1299997.4 
  649000    54.021959  -0.37875913  -0.37875913   -0.2371139   0.16117597  -0.37875913   0.14164524    1299997.4 
  650000    53.832592  -0.37886458  -0.37886458  -0.23771587   0.17478047  -0.37886458   0.14114872    1299997.4 
  651000    53.902026  -0.37877845  -0.37877845  -0.23744768   0.20086259  -0.37877845   0.14133077    1299997.4 
  652000    53.856395  -0.37872915  -0.37872915  -0.23751802   0.17501137  -0.37872915   0.14121113    1299997.4 
  653000     53.92611  -0.37840219  -0.37840219  -0.23700827    0.1655468  -0.37840219   0.14139392    1299997.4 
  654000     53.81368  -0.37865395  -0.37865395  -0.23755483   0.19280399  -0.37865395   0.14109913    1299997.4 
  655000    54.362757  -0.37984368  -0.37984368  -0.23730488   0.16145012  -0.37984368   0.14253881    1299997.4 
  656000    54.015462  -0.37902813  -0.37902813  -0.23739993   0.21161564  -0.37902813    0.1416282    1299997.4 
  657000    53.939173  -0.37884585  -0.37884585  -0.23741768   0.21024695  -0.37884585   0.14142817    1299997.4 
  658000    54.224892  -0.37960351  -0.37960351  -0.23742618   0.18021363  -0.37960351   0.14217732    1299997.4 
  659000    54.284011  -0.37981574  -0.37981574  -0.23748341   0.14006798  -0.37981574   0.14233233    1299997.4 
  660000    53.923501  -0.37900185  -0.37900185  -0.23761477     0.181075  -0.37900185   0.14138708    1299997.4 
  661000     54.43524  -0.38014761  -0.38014761  -0.23741876   0.17404022  -0.38014761   0.14272886    1299997.4 
  662000    55.010078  -0.38160307  -0.38160307  -0.23736699   0.14356501  -0.38160307   0.14423608    1299997.4 
  663000    54.064769  -0.37922883  -0.37922883  -0.23747135   0.19436239  -0.37922883   0.14175748    1299997.4 
  664000    53.515163  -0.37833197  -0.37833197  -0.23801555   0.21934139  -0.37833197   0.14031642    1299997.4 
  665000    53.526104  -0.37819641  -0.37819641   -0.2378513   0.22276315  -0.37819641   0.14034511    1299997.4 
  666000    53.343294   -0.3776468   -0.3776468  -0.23778102   0.17900836   -0.3776468   0.13986578    1299997.4 
  667000    53.370912  -0.37835348  -0.37835348  -0.23841529   0.20287743  -0.37835348    0.1399382    1299997.4 
  668000    53.785303   -0.3789677   -0.3789677  -0.23794298   0.15433834   -0.3789677   0.14102473    1299997.4 
  669000    53.421192  -0.37800385  -0.37800385  -0.23793382   0.21076411  -0.37800385   0.14007003    1299997.4 
  670000    53.857442  -0.37863226  -0.37863226  -0.23741839   0.20971934  -0.37863226   0.14121387    1299997.4 
  671000    53.575031  -0.37835956  -0.37835956  -0.23788617   0.17159874  -0.37835956   0.14047339    1299997.4 
  672000    53.701876  -0.37814404  -0.37814404  -0.23733806   0.14305291  -0.37814404   0.14080598    1299997.4 
  673000    53.969605  -0.37952327  -0.37952327  -0.23801531   0.15434711  -0.37952327   0.14150796    1299997.4 
  674000    54.141862  -0.37980004  -0.37980004  -0.23784042   0.20046205  -0.37980004   0.14195962    1299997.4 
  675000    54.439878  -0.38057981  -0.38057981   -0.2378388   0.15101354  -0.38057981   0.14274102    1299997.4 
  676000    54.204185   -0.3799976   -0.3799976  -0.23787457    0.1572623   -0.3799976   0.14212303    1299997.4 
  677000    53.665748  -0.37876375  -0.37876375   -0.2380525   0.18040822  -0.37876375   0.14071125    1299997.4 
  678000    53.088969  -0.37755958  -0.37755958  -0.23836064   0.19334232  -0.37755958   0.13919894    1299997.4 
  679000     53.68814  -0.37918157  -0.37918157  -0.23841161   0.18155394  -0.37918157   0.14076996    1299997.4 
  680000    54.066798   -0.3800667   -0.3800667  -0.23830389   0.15846801   -0.3800667    0.1417628    1299997.4 
  681000    53.630034  -0.37848775  -0.37848775  -0.23787014   0.19835112  -0.37848775   0.14061761    1299997.4 
  682000    53.993106  -0.37905224  -0.37905224  -0.23748266    0.1948388  -0.37905224   0.14156958    1299997.4 
  683000    54.698604  -0.38129847  -0.38129847  -0.23787907   0.13097944  -0.38129847   0.14341939    1299997.4 
  684000     53.83078  -0.37896661  -0.37896661  -0.23782265   0.17590617  -0.37896661   0.14114397    1299997.4 
  685000    53.394823  -0.37748181  -0.37748181  -0.23748092    0.2079664  -0.37748181   0.14000089    1299997.4 
  686000    53.476001  -0.37756835  -0.37756835  -0.23735461   0.19284982  -0.37756835   0.14021374    1299997.4 
  687000     54.51863  -0.38004885  -0.38004885  -0.23710135   0.16613919  -0.38004885    0.1429475    1299997.4 
  688000    54.134904  -0.37873973  -0.37873973  -0.23679836   0.19800628  -0.37873973   0.14194138    1299997.4 
  689000    54.202536  -0.37854148  -0.37854148  -0.23642278   0.18118921  -0.37854148   0.14211871    1299997.4 
  690000    54.809603  -0.38029092  -0.38029092  -0.23658049   0.15840169  -0.38029092   0.14371043    1299997.4 
  691000    54.110269  -0.37839559  -0.37839559  -0.23651881   0.17948616  -0.37839559   0.14187678    1299997.4 
  692000    54.077119  -0.37833439  -0.37833439  -0.23654453    0.1787454  -0.37833439   0.14178986    1299997.4 
  693000    54.178133  -0.37909275  -0.37909275  -0.23703803   0.14810827  -0.37909275   0.14205472    1299997.4 
  694000    54.920886  -0.38094354  -0.38094354  -0.23694132   0.11875247  -0.38094354   0.14400222    1299997.4 
  695000    54.081815  -0.37904064  -0.37904064  -0.23723846   0.23609425  -0.37904064   0.14180218    1299997.4 
  696000    55.294462  -0.38221981  -0.38221981  -0.23723808      0.16834  -0.38221981   0.14498173    1299997.4 
  697000    55.147876  -0.38206859  -0.38206859  -0.23747121   0.12347687  -0.38206859   0.14459738    1299997.4 
  698000    54.519705  -0.38077404  -0.38077404  -0.23782371   0.18390718  -0.38077404   0.14295032    1299997.4 
  699000    55.053856   -0.3818725   -0.3818725  -0.23752164   0.13684551   -0.3818725   0.14435086    1299997.4 
  700000    54.643874  -0.38069878  -0.38069878  -0.23742289   0.17157804  -0.38069878   0.14327589    1299997.4 
  701000    54.437864  -0.38000322  -0.38000322  -0.23726749   0.16914047  -0.38000322   0.14273574    1299997.4 
  702000     54.35601  -0.38015378  -0.38015378  -0.23763266   0.14845731  -0.38015378   0.14252111    1299997.4 
  703000    54.493117  -0.38021657  -0.38021657  -0.23733596   0.14595724  -0.38021657   0.14288061    1299997.4 
  704000    53.823011  -0.37901886  -0.37901886  -0.23789526   0.16868915  -0.37901886   0.14112359    1299997.4 
  705000    54.020708  -0.37935123  -0.37935123  -0.23770928   0.16854908  -0.37935123   0.14164195    1299997.4 
  706000    53.967901  -0.37882293  -0.37882293  -0.23731944   0.22005129  -0.37882293    0.1415035    1299997.4 
  707000    54.118587  -0.37984465  -0.37984465  -0.23794606   0.15609797  -0.37984465   0.14189859    1299997.4 
  708000     54.45825  -0.38064944  -0.38064944  -0.23786026   0.13857817  -0.38064944   0.14278919    1299997.4 
  709000    54.330133  -0.38019433  -0.38019433  -0.23774106   0.18570307  -0.38019433   0.14245326    1299997.4 
  710000    54.550929  -0.38092171  -0.38092171  -0.23788952   0.16513054  -0.38092171   0.14303219    1299997.4 
  711000     54.34912  -0.38063645  -0.38063645   -0.2381334   0.16467181  -0.38063645   0.14250305    1299997.4 
  712000    54.277187  -0.38043545  -0.38043545  -0.23812101   0.18809651  -0.38043545   0.14231444    1299997.4 
  713000    54.711814   -0.3814547   -0.3814547  -0.23800067   0.16628555   -0.3814547   0.14345403    1299997.4 
  714000    54.642429   -0.3811565   -0.3811565   -0.2378844   0.18665052   -0.3811565    0.1432721    1299997.4 
  715000    54.561573  -0.38127593  -0.38127593  -0.23821583   0.14904934  -0.38127593    0.1430601    1299997.4 
  716000    54.099624  -0.37983713  -0.37983713  -0.23798826   0.20132164  -0.37983713   0.14184887    1299997.4 
  717000    54.410078  -0.38098623  -0.38098623  -0.23832335   0.17009151  -0.38098623   0.14266288    1299997.4 
  718000    54.758329  -0.38150404  -0.38150404  -0.23792805   0.12096102  -0.38150404   0.14357599    1299997.4 
  719000     54.54581  -0.38044849  -0.38044849  -0.23742972   0.15976665  -0.38044849   0.14301877    1299997.4 
  720000    54.291501  -0.37986633  -0.37986633  -0.23751436   0.15047736  -0.37986633   0.14235197    1299997.4 
  721000    54.609348  -0.38076879  -0.38076879  -0.23758342   0.14808576  -0.38076879   0.14318536    1299997.4 
  722000    53.876322  -0.37866706  -0.37866706  -0.23740369   0.19285747  -0.37866706   0.14126337    1299997.4 
  723000    54.011178  -0.37937742  -0.37937742  -0.23776045   0.14830006  -0.37937742   0.14161697    1299997.4 
  724000    54.036249  -0.37998726  -0.37998726  -0.23830455   0.18198377  -0.37998726    0.1416827    1299997.4 
  725000      53.7189  -0.37850424  -0.37850424  -0.23765362   0.18753767  -0.37850424   0.14085062    1299997.4 
  726000    54.001166  -0.37889753  -0.37889753  -0.23730682   0.17773035  -0.37889753   0.14159071    1299997.4 
  727000     54.07764  -0.37942953  -0.37942953   -0.2376383   0.17830485  -0.37942953   0.14179123    1299997.4 
  728000    54.188914  -0.37984461  -0.37984461  -0.23776162   0.15188145  -0.37984461   0.14208299    1299997.4 
  729000    54.189405  -0.38000255  -0.38000255  -0.23791827   0.14940745  -0.38000255   0.14208428    1299997.4 
  730000    53.652191   -0.3788095   -0.3788095   -0.2381338   0.17213563   -0.3788095   0.14067571    1299997.4 
  731000    54.300913  -0.38035391  -0.38035391  -0.23797726   0.14128446  -0.38035391   0.14237665    1299997.4 
  732000    54.541222  -0.38114134  -0.38114134   -0.2381346   0.15498691  -0.38114134   0.14300674    1299997.4 
  733000    54.702439  -0.38195638  -0.38195638  -0.23852693    0.1424925  -0.38195638   0.14342945    1299997.4 
  734000    54.499844  -0.38081423  -0.38081423  -0.23791598   0.16680894  -0.38081423   0.14289825    1299997.4 
  735000    53.797568  -0.37858455  -0.37858455  -0.23752767    0.1630588  -0.37858455   0.14105688    1299997.4 
  736000    53.999756  -0.37897418  -0.37897418  -0.23738717   0.22039881  -0.37897418   0.14158702    1299997.4 
  737000    54.690857  -0.38071188  -0.38071188   -0.2373128   0.17714612  -0.38071188   0.14339908    1299997.4 
  738000    54.935719  -0.38111311  -0.38111311    -0.237072   0.14383616  -0.38111311   0.14404111    1299997.4 
  739000     54.50151  -0.38088886  -0.38088886  -0.23798625   0.13271424  -0.38088886   0.14290262    1299997.4 
  740000    53.158685  -0.37781607  -0.37781607  -0.23843434   0.20175563  -0.37781607   0.13938174    1299997.4 
  741000    53.955652  -0.37869548  -0.37869548   -0.2372241   0.11725704  -0.37869548   0.14147138    1299997.4 
  742000    54.548559  -0.38098617  -0.38098617  -0.23796019   0.15978466  -0.38098617   0.14302598    1299997.4 
  743000     53.75219  -0.37862459  -0.37862459  -0.23768669   0.15030419  -0.37862459    0.1409379    1299997.4 
  744000    54.656463  -0.38088587  -0.38088587  -0.23757697   0.13666767  -0.38088587    0.1433089    1299997.4 
  745000    53.645249  -0.37850414  -0.37850414  -0.23784664   0.17539144  -0.37850414    0.1406575    1299997.4 
  746000    53.715986  -0.37890815  -0.37890815  -0.23806518   0.19038835  -0.37890815   0.14084298    1299997.4 
  747000    53.686374  -0.37902491  -0.37902491  -0.23825957   0.17379835  -0.37902491   0.14076533    1299997.4 
  748000    53.819507  -0.37910632  -0.37910632  -0.23799192   0.17679233  -0.37910632   0.14111441    1299997.4 
  749000    54.346303  -0.38067048  -0.38067048  -0.23817482   0.15888278  -0.38067048   0.14249566    1299997.4 
  750000    53.900165  -0.37903773  -0.37903773  -0.23771184   0.19649902  -0.37903773   0.14132589    1299997.4 
  751000    53.754501  -0.37853809  -0.37853809  -0.23759413   0.19843337  -0.37853809   0.14094396    1299997.4 
  752000    54.620676  -0.37983478  -0.37983478  -0.23661971   0.18036077  -0.37983478   0.14321507    1299997.4 
  753000    54.560902  -0.37973675  -0.37973675  -0.23667841   0.19725291  -0.37973675   0.14305834    1299997.4 
  754000     54.29933   -0.3792265   -0.3792265    -0.236854   0.18936047   -0.3792265    0.1423725    1299997.4 
  755000    54.806314  -0.38086796  -0.38086796  -0.23716616    0.1683004  -0.38086796   0.14370181    1299997.4 
  756000    54.540907  -0.37963326  -0.37963326  -0.23662735    0.1526606  -0.37963326   0.14300591    1299997.4 
  757000    54.061211  -0.37971081  -0.37971081  -0.23796266   0.17742573  -0.37971081   0.14174815    1299997.4 
  758000    54.004929   -0.3794394   -0.3794394  -0.23783882    0.1935886   -0.3794394   0.14160058    1299997.4 
  759000    54.101127  -0.37971217  -0.37971217  -0.23785936   0.16901353  -0.37971217   0.14185281    1299997.4 
  760000    53.573236  -0.37839179  -0.37839179  -0.23792311   0.19511887  -0.37839179   0.14046869    1299997.4 
  761000     54.05329  -0.37991875  -0.37991875  -0.23819136   0.17047881  -0.37991875   0.14172738    1299997.4 
  762000    53.737811  -0.37930164  -0.37930164  -0.23840144   0.18638126  -0.37930164    0.1409002    1299997.4 
  763000    53.118502  -0.37720387  -0.37720387  -0.23792749   0.24478388  -0.37720387   0.13927638    1299997.4 
  764000    54.019479  -0.37948757  -0.37948757  -0.23784884   0.15181926  -0.37948757   0.14163873    1299997.4 
  765000     53.55071  -0.37845666  -0.37845666  -0.23804704   0.18694963  -0.37845666   0.14040962    1299997.4 
  766000    53.780931  -0.37974401  -0.37974401  -0.23873075   0.18963452  -0.37974401   0.14101326    1299997.4 
  767000    54.191884  -0.38063741  -0.38063741  -0.23854663   0.17173622  -0.38063741   0.14209078    1299997.4 
  768000    54.327551  -0.37984131  -0.37984131  -0.23739481   0.16717282  -0.37984131    0.1424465    1299997.4 
  769000    55.157721  -0.38190721  -0.38190721  -0.23728402   0.16955843  -0.38190721   0.14462319    1299997.4 
  770000    54.344251  -0.38020631  -0.38020631  -0.23771603   0.14746776  -0.38020631   0.14249028    1299997.4 
  771000    54.239051  -0.37979114  -0.37979114  -0.23757669   0.14613963  -0.37979114   0.14221445    1299997.4 
  772000    54.140413  -0.37967915  -0.37967915  -0.23772333   0.20186362  -0.37967915   0.14195582    1299997.4 
  773000    53.915198  -0.37987648  -0.37987648  -0.23851117   0.18143822  -0.37987648   0.14136531    1299997.4 
  774000    54.085566  -0.37959619  -0.37959619  -0.23778417   0.21747166  -0.37959619   0.14181201    1299997.4 
  775000    54.404576  -0.38065567  -0.38065567  -0.23800721   0.15235208  -0.38065567   0.14264845    1299997.4 
  776000    54.911344  -0.38230719  -0.38230719  -0.23832999   0.12391535  -0.38230719    0.1439772    1299997.4 
  777000    53.868014  -0.37957248  -0.37957248  -0.23833089   0.20370707  -0.37957248   0.14124159    1299997.4 
  778000    54.049001   -0.3795801   -0.3795801  -0.23786396   0.14986327   -0.3795801   0.14171614    1299997.4 
  779000     53.67608  -0.37894258  -0.37894258  -0.23820423   0.19404532  -0.37894258   0.14073834    1299997.4 
  780000    53.907695  -0.37952734  -0.37952734  -0.23818171   0.17496361  -0.37952734   0.14134563    1299997.4 
  781000    54.441961   -0.3802283   -0.3802283  -0.23748182   0.17194433   -0.3802283   0.14274648    1299997.4 
  782000    54.244458  -0.38047108  -0.38047108  -0.23824246   0.15613483  -0.38047108   0.14222863    1299997.4 
  783000    54.332705  -0.38074539  -0.38074539  -0.23828538   0.17067195  -0.38074539   0.14246001    1299997.4 
  784000    54.206426  -0.38011782  -0.38011782  -0.23798892   0.21240166  -0.38011782   0.14212891    1299997.4 
  785000    54.304595  -0.38000294  -0.38000294  -0.23761663   0.15730747  -0.38000294    0.1423863    1299997.4 
  786000    53.570069  -0.37835996  -0.37835996  -0.23789958   0.19942542  -0.37835996   0.14046038    1299997.4 
  787000    53.347317     -0.37801     -0.37801  -0.23813367   0.15798655     -0.37801   0.13987633    1299997.4 
  788000    53.752595  -0.37874934  -0.37874934  -0.23781038    0.1686486  -0.37874934   0.14093896    1299997.4 
  789000    54.229177  -0.37997385  -0.37997385  -0.23778529   0.16850722  -0.37997385   0.14218856    1299997.4 
  790000    54.456265  -0.38061373  -0.38061373  -0.23782974   0.14377641  -0.38061373   0.14278398    1299997.4 
  791000    53.851169  -0.37895534  -0.37895534  -0.23775791   0.17772412  -0.37895534   0.14119742    1299997.4 
  792000    53.894167  -0.37897724  -0.37897724  -0.23766707   0.16713159  -0.37897724   0.14131017    1299997.4 
  793000    53.743134  -0.37862226  -0.37862226   -0.2377081   0.21348655  -0.37862226   0.14091416    1299997.4 
  794000    54.262113  -0.38002389  -0.38002389  -0.23774897   0.15333369  -0.38002389   0.14227492    1299997.4 
  795000    54.515375  -0.38083726  -0.38083726  -0.23789829   0.17233066  -0.38083726   0.14293897    1299997.4 
  796000    54.261612  -0.37970078  -0.37970078  -0.23742718    0.2139475  -0.37970078    0.1422736    1299997.4 
  797000    54.396177  -0.37995759  -0.37995759  -0.23733116   0.13954559  -0.37995759   0.14262643    1299997.4 
  798000    53.514728  -0.37847242  -0.37847242  -0.23815715   0.18467016  -0.37847242   0.14031528    1299997.4 
  799000    53.642725  -0.37858334  -0.37858334  -0.23793245   0.17596306  -0.37858334   0.14065089    1299997.4 
  800000    53.443061  -0.37792981  -0.37792981  -0.23780245   0.18146867  -0.37792981   0.14012737    1299997.4 
  801000    54.743324  -0.38157961  -0.38157961  -0.23804296   0.18614048  -0.38157961   0.14353665    1299997.4 
  802000    53.701098  -0.37889158  -0.37889158  -0.23808764   0.16616689  -0.37889158   0.14080394    1299997.4 
  803000    53.187806  -0.37747476  -0.37747476  -0.23801667   0.20305631  -0.37747476   0.13945809    1299997.4 
  804000    53.868076   -0.3791228   -0.3791228  -0.23788104    0.1706298   -0.3791228   0.14124175    1299997.4 
  805000     53.72505  -0.37888157  -0.37888157  -0.23801483   0.17592822  -0.37888157   0.14086674    1299997.4 
  806000    53.641166  -0.37851951  -0.37851951  -0.23787271   0.17311923  -0.37851951    0.1406468    1299997.4 
  807000    53.201373  -0.37726815  -0.37726815  -0.23777449    0.1787891  -0.37726815   0.13949366    1299997.4 
  808000    53.460488  -0.37817427  -0.37817427  -0.23800121   0.13495956  -0.37817427   0.14017306    1299997.4 
  809000    53.207523  -0.37809804  -0.37809804  -0.23858825   0.15741671  -0.37809804   0.13950979    1299997.4 
  810000    53.711188  -0.37940107  -0.37940107  -0.23857067   0.16304845  -0.37940107    0.1408304    1299997.4 
  811000    52.795678  -0.37699544  -0.37699544  -0.23856551   0.23983847  -0.37699544   0.13842993    1299997.4 
  812000    54.130361  -0.38028681  -0.38028681  -0.23835735   0.12435779  -0.38028681   0.14192946    1299997.4 
  813000     53.52691  -0.37900348  -0.37900348  -0.23865626    0.1771027  -0.37900348   0.14034722    1299997.4 
  814000    53.980783  -0.38009998  -0.38009998  -0.23856271   0.17859462  -0.38009998   0.14153727    1299997.4 
  815000    53.672325  -0.37904827  -0.37904827  -0.23831978    0.1945289  -0.37904827    0.1407285    1299997.4 
  816000    54.195943  -0.38026405  -0.38026405  -0.23816263   0.11974835  -0.38026405   0.14210142    1299997.4 
  817000    54.666523   -0.3809977   -0.3809977  -0.23766242   0.16983853   -0.3809977   0.14333528    1299997.4 
  818000    54.274613  -0.38038568  -0.38038568  -0.23807799   0.17772069  -0.38038568   0.14230769    1299997.4 
  819000    54.864717  -0.38173461  -0.38173461  -0.23787967   0.12739088  -0.38173461   0.14385494    1299997.4 
  820000    54.414717  -0.38091988  -0.38091988  -0.23824484   0.13416105  -0.38091988   0.14267505    1299997.4 
  821000    54.005416  -0.37933586  -0.37933586    -0.237734   0.16194196  -0.37933586   0.14160186    1299997.4 
  822000    53.948268   -0.3792804   -0.3792804  -0.23782838   0.14613281   -0.3792804   0.14145202    1299997.4 
  823000    53.131942  -0.37763766  -0.37763766  -0.23832604   0.22975071  -0.37763766   0.13931162    1299997.4 
  824000    53.375078    -0.378032    -0.378032  -0.23808288   0.18840434    -0.378032   0.13994912    1299997.4 
  825000    53.590706  -0.37925871  -0.37925871  -0.23874421   0.20283569  -0.37925871   0.14051449    1299997.4 
  826000    54.165122  -0.38050892  -0.38050892  -0.23848832   0.19204775  -0.38050892   0.14202061    1299997.4 
  827000     54.91319  -0.38170483  -0.38170483   -0.2377228   0.14785124  -0.38170483   0.14398204    1299997.4 
  828000    54.569652  -0.38079485  -0.38079485  -0.23771357   0.16638053  -0.38079485   0.14308128    1299997.4 
  829000    54.245482  -0.38074516  -0.38074516  -0.23851385   0.12470449  -0.38074516   0.14223131    1299997.4 
  830000    54.400819  -0.38133046  -0.38133046  -0.23869185   0.16794081  -0.38133046    0.1426386    1299997.4 
  831000    54.363377  -0.38105627  -0.38105627  -0.23851584   0.18511287  -0.38105627   0.14254043    1299997.4 
  832000    54.658651  -0.38194186  -0.38194186  -0.23862722   0.14150171  -0.38194186   0.14331464    1299997.4 
  833000    54.935863  -0.38208949  -0.38208949  -0.23804801   0.14442179  -0.38208949   0.14404148    1299997.4 
  834000    54.300569  -0.38026266  -0.38026266  -0.23788692   0.15295375  -0.38026266   0.14237575    1299997.4 
  835000    53.897248  -0.37938303  -0.37938303  -0.23806479   0.14834896  -0.37938303   0.14131824    1299997.4 
  836000    53.885679   -0.3789503   -0.3789503  -0.23766239   0.21427624   -0.3789503   0.14128791    1299997.4 
  837000    54.543171  -0.38057332  -0.38057332  -0.23756147   0.13253401  -0.38057332   0.14301185    1299997.4 
  838000    53.854234  -0.37933811  -0.37933811  -0.23813265   0.18888634  -0.37933811   0.14120546    1299997.4 
  839000    54.466063  -0.38108804  -0.38108804  -0.23827837   0.15828844  -0.38108804   0.14280967    1299997.4 
  840000    54.174802  -0.38002021  -0.38002021  -0.23797422   0.13844953  -0.38002021   0.14204599    1299997.4 
  841000    54.011337  -0.37942675  -0.37942675  -0.23780937   0.19771733  -0.37942675   0.14161738    1299997.4 
  842000    54.565085  -0.38141442  -0.38141442  -0.23834512   0.13142891  -0.38141442   0.14306931    1299997.4 
  843000    53.246712  -0.37787426  -0.37787426  -0.23826172   0.17291038  -0.37787426   0.13961254    1299997.4 
  844000    53.384024  -0.37788448  -0.37788448   -0.2379119   0.16851516  -0.37788448   0.13997257    1299997.4 
  845000    53.548422  -0.37864041  -0.37864041  -0.23823678   0.19581177  -0.37864041   0.14040362    1299997.4 
  846000    53.953813  -0.37953005  -0.37953005  -0.23806349    0.1770469  -0.37953005   0.14146656    1299997.4 
  847000     53.24568  -0.37859361  -0.37859361  -0.23898377   0.24241977  -0.37859361   0.13960984    1299997.4 
  848000    54.308902  -0.38126415  -0.38126415  -0.23886655   0.13522306  -0.38126415    0.1423976    1299997.4 
  849000    52.926381  -0.37768491  -0.37768491  -0.23891227   0.19996194  -0.37768491   0.13877264    1299997.4 
  850000    53.412854    -0.378565    -0.378565  -0.23851683    0.1543655    -0.378565   0.14004817    1299997.4 
  851000    53.845987  -0.37950186  -0.37950186  -0.23831803   0.16249236  -0.37950186   0.14118384    1299997.4 
  852000    53.364341  -0.37829136  -0.37829136   -0.2383704   0.19872981  -0.37829136   0.13992096    1299997.4 
  853000    53.735232  -0.37906793  -0.37906793   -0.2381745   0.18608158  -0.37906793   0.14089344    1299997.4 
  854000    54.096265  -0.38010676  -0.38010676  -0.23826669   0.19935545  -0.38010676   0.14184007    1299997.4 
  855000    54.733482  -0.38193132  -0.38193132  -0.23842048    0.1152943  -0.38193132   0.14351084    1299997.4 
  856000    53.339726  -0.37836951  -0.37836951  -0.23851308    0.2166814  -0.37836951   0.13985642    1299997.4 
  857000     54.21174  -0.38069331  -0.38069331  -0.23855047   0.14802805  -0.38069331   0.14214284    1299997.4 
  858000    54.412685  -0.38130394  -0.38130394  -0.23863423   0.13678203  -0.38130394   0.14266972    1299997.4 
  859000    53.915604  -0.37981574  -0.37981574  -0.23844937   0.17649839  -0.37981574   0.14136637    1299997.4 
  860000    54.354012  -0.38015388  -0.38015388  -0.23763801   0.13528057  -0.38015388   0.14251587    1299997.4 
  861000    54.152204   -0.3799961   -0.3799961  -0.23800936   0.16861777   -0.3799961   0.14198674    1299997.4 
  862000    53.625229  -0.37854779  -0.37854779  -0.23794278   0.17545686  -0.37854779   0.14060501    1299997.4 
  863000     53.74705  -0.37800603  -0.37800603   -0.2370816   0.17214957  -0.37800603   0.14092443    1299997.4 
  864000    53.884348  -0.37908213  -0.37908213  -0.23779771   0.14322072  -0.37908213   0.14128442    1299997.4 
  865000    54.366085  -0.38015888  -0.38015888  -0.23761135   0.15567076  -0.38015888   0.14254753    1299997.4 
  866000    53.885054  -0.37923971  -0.37923971  -0.23795344   0.17854022  -0.37923971   0.14128627    1299997.4 
  867000    52.895268  -0.37632128  -0.37632128  -0.23763022   0.22705649  -0.37632128   0.13869106    1299997.4 
  868000    54.078198   -0.3793409   -0.3793409  -0.23754821   0.14270789   -0.3793409   0.14179269    1299997.4 
  869000    53.953351  -0.37935645  -0.37935645  -0.23789111   0.18408971  -0.37935645   0.14146534    1299997.4 
  870000     54.69863  -0.38120773  -0.38120773  -0.23778827   0.13413178  -0.38120773   0.14341946    1299997.4 
  871000    54.227379  -0.38030846  -0.38030846  -0.23812461   0.14340815  -0.38030846   0.14218385    1299997.4 
  872000    53.793165  -0.37948453  -0.37948453  -0.23843919   0.19582936  -0.37948453   0.14104534    1299997.4 
  873000     53.91242  -0.37969132  -0.37969132   -0.2383333   0.14619096  -0.37969132   0.14135803    1299997.4 
  874000    53.843504  -0.37947366  -0.37947366  -0.23829633   0.20921041  -0.37947366   0.14117733    1299997.4 
  875000    54.060304   -0.3801487   -0.3801487  -0.23840293   0.17251197   -0.3801487   0.14174578    1299997.4 
  876000    54.279444  -0.38064514  -0.38064514  -0.23832478   0.18014509  -0.38064514   0.14232036    1299997.4 
  877000    54.374627  -0.38065294  -0.38065294  -0.23808301   0.15906354  -0.38065294   0.14256993    1299997.4 
  878000    53.866431  -0.37944398  -0.37944398  -0.23820653   0.16716041  -0.37944398   0.14123744    1299997.4 
  879000    54.139448  -0.38036253  -0.38036253  -0.23840924   0.13951753  -0.38036253   0.14195329    1299997.4 
  880000    54.929267  -0.38137737  -0.38137737  -0.23735318    0.1203738  -0.38137737   0.14402419    1299997.4 
  881000    54.262137  -0.37952055  -0.37952055  -0.23724557   0.16292381  -0.37952055   0.14227498    1299997.4 
  882000    53.328231  -0.37783061  -0.37783061  -0.23800433   0.20252467  -0.37783061   0.13982628    1299997.4 
  883000    54.356371  -0.37988001  -0.37988001  -0.23735795   0.15338554  -0.37988001   0.14252206    1299997.4 
  884000    54.091324  -0.37973348  -0.37973348  -0.23790637   0.18797126  -0.37973348   0.14182711    1299997.4 
  885000    53.870092  -0.37929187  -0.37929187  -0.23804483   0.18454715  -0.37929187   0.14124704    1299997.4 
  886000    53.948504  -0.37916068  -0.37916068  -0.23770805    0.1406276  -0.37916068   0.14145264    1299997.4 
  887000    54.526872  -0.38090934  -0.38090934  -0.23794023   0.13739543  -0.38090934   0.14296911    1299997.4 
  888000    54.631739  -0.38139893  -0.38139893  -0.23815486     0.142971  -0.38139893   0.14324407    1299997.4 
  889000    55.134057  -0.38264568  -0.38264568  -0.23808453   0.14858445  -0.38264568   0.14456115    1299997.4 
  890000    54.025687  -0.37963626  -0.37963626  -0.23798125   0.17353625  -0.37963626   0.14165501    1299997.4 
  891000    53.917318  -0.37935978  -0.37935978  -0.23798891    0.1733362  -0.37935978   0.14137087    1299997.4 
  892000    54.331514  -0.38054298  -0.38054298  -0.23808609   0.18175395  -0.38054298   0.14245689    1299997.4 
  893000     54.19442  -0.38081063  -0.38081063   -0.2387132   0.16372829  -0.38081063   0.14209743    1299997.4 
  894000    54.229134  -0.38064944  -0.38064944  -0.23846099   0.15825706  -0.38064944   0.14218845    1299997.4 
  895000    54.058398  -0.38033351  -0.38033351  -0.23859273   0.15698465  -0.38033351   0.14174078    1299997.4 
  896000    53.110901  -0.37803548  -0.37803548  -0.23877903   0.21028445  -0.37803548   0.13925645    1299997.4 
  897000      53.7326  -0.37923046  -0.37923046  -0.23834393   0.18238883  -0.37923046   0.14088654    1299997.4 
  898000     54.58794  -0.38059205  -0.38059205  -0.23746282   0.15838634  -0.38059205   0.14312923    1299997.4 
  899000    54.348778  -0.38122034  -0.38122034  -0.23871819   0.15690564  -0.38122034   0.14250215    1299997.4 
  900000    53.599771  -0.37894326  -0.37894326    -0.238405   0.18758551  -0.37894326   0.14053826    1299997.4 
  901000    53.956142  -0.37961444  -0.37961444  -0.23814177   0.16516297  -0.37961444   0.14147266    1299997.4 
  902000    53.502523  -0.37875152  -0.37875152  -0.23846824   0.21187977  -0.37875152   0.14028328    1299997.4 
  903000    54.519108  -0.38067617  -0.38067617  -0.23772741   0.12461812  -0.38067617   0.14294876    1299997.4 
  904000     54.13143  -0.38009191  -0.38009191  -0.23815964   0.13390826  -0.38009191   0.14193227    1299997.4 
  905000    53.666584  -0.37902774  -0.37902774  -0.23831429   0.18517771  -0.37902774   0.14071344    1299997.4 
  906000    53.934078  -0.37984483  -0.37984483  -0.23843001   0.16029188  -0.37984483   0.14141481    1299997.4 
  907000    53.706996  -0.37956475  -0.37956475  -0.23874534   0.16652299  -0.37956475    0.1408194    1299997.4 
  908000    53.617934  -0.37936827  -0.37936827  -0.23878238   0.20242456  -0.37936827   0.14058588    1299997.4 
  909000    53.261301  -0.37792449  -0.37792449   -0.2382737   0.21688292  -0.37792449   0.13965079    1299997.4 
  910000    54.141345  -0.38012954  -0.38012954  -0.23817128    0.1978722  -0.38012954   0.14195827    1299997.4 
  911000    53.912018  -0.37996599  -0.37996599  -0.23860902   0.17382082  -0.37996599   0.14135697    1299997.4 
  912000    53.512449  -0.37887608  -0.37887608  -0.23856678   0.17404757  -0.37887608    0.1403093    1299997.4 
  913000    54.076434   -0.3793923   -0.3793923  -0.23760423   0.18259556   -0.3793923   0.14178807    1299997.4 
  914000    53.715169  -0.37871859  -0.37871859  -0.23787776   0.14780876  -0.37871859   0.14084083    1299997.4 
  915000    53.994041  -0.37994551  -0.37994551  -0.23837347   0.15688328  -0.37994551   0.14157203    1299997.4 
  916000    53.655026  -0.37888769  -0.37888769  -0.23820455   0.16566687  -0.37888769   0.14068314    1299997.4 
  917000    54.417584  -0.38009055  -0.38009055  -0.23740799   0.14205091  -0.38009055   0.14268256    1299997.4 
  918000    54.509237  -0.38043765  -0.38043765  -0.23751478   0.14992814  -0.38043765   0.14292287    1299997.4 
  919000    53.890706  -0.37873539  -0.37873539   -0.2374343   0.20861174  -0.37873539   0.14130109    1299997.4 
  920000    54.099716   -0.3793078   -0.3793078  -0.23745868   0.19227813   -0.3793078   0.14184911    1299997.4 
  921000    53.676256  -0.37854998  -0.37854998  -0.23781117    0.1643231  -0.37854998    0.1407388    1299997.4 
  922000    53.462618  -0.37797612  -0.37797612  -0.23779747   0.19231741  -0.37797612   0.14017865    1299997.4 
  923000    53.326726  -0.37754673  -0.37754673  -0.23772439   0.19010067  -0.37754673   0.13982234    1299997.4 
  924000     54.12502  -0.37956024  -0.37956024  -0.23764478   0.16725184  -0.37956024   0.14191546    1299997.4 
  925000    53.045965  -0.37703477  -0.37703477  -0.23794859   0.23666263  -0.37703477   0.13908618    1299997.4 
  926000    53.969299  -0.38008822  -0.38008822  -0.23858106   0.17695918  -0.38008822   0.14150716    1299997.4 
  927000    53.851366  -0.37938475  -0.37938475  -0.23818681   0.16448645  -0.37938475   0.14119794    1299997.4 
  928000    53.464752  -0.37897875  -0.37897875   -0.2387945   0.21712233  -0.37897875   0.14018424    1299997.4 
  929000    53.720562  -0.37938754  -0.37938754  -0.23853257   0.16032493  -0.37938754   0.14085497    1299997.4 
  930000    54.055484  -0.38035214  -0.38035214    -0.238619   0.16278076  -0.38035214   0.14173314    1299997.4 
  931000    53.375264  -0.37892441  -0.37892441  -0.23897481   0.19080441  -0.37892441   0.13994961    1299997.4 
  932000    53.314133  -0.37868906  -0.37868906  -0.23889974   0.20437656  -0.37868906   0.13978932    1299997.4 
  933000    53.790788  -0.38000668  -0.38000668  -0.23896757   0.15715366  -0.38000668   0.14103911    1299997.4 
  934000    53.878311  -0.38008657  -0.38008657  -0.23881798   0.11993798  -0.38008657   0.14126859    1299997.4 
  935000    53.955155  -0.38038001  -0.38038001  -0.23890994   0.14616736  -0.38038001   0.14147007    1299997.4 
  936000    53.502883  -0.37873982  -0.37873982   -0.2384556   0.19013495  -0.37873982   0.14028422    1299997.4 
  937000    54.035807  -0.38016368  -0.38016368  -0.23848214   0.16064953  -0.38016368   0.14168155    1299997.4 
  938000    54.173292  -0.38046182  -0.38046182  -0.23841979   0.18698713  -0.38046182   0.14204203    1299997.4 
  939000    54.292379  -0.38083713  -0.38083713  -0.23848285   0.15439174  -0.38083713   0.14235427    1299997.4 
  940000    54.333482  -0.38065723  -0.38065723  -0.23819519   0.14992155  -0.38065723   0.14246205    1299997.4 
  941000    54.278491  -0.38059242  -0.38059242  -0.23827456   0.16588681  -0.38059242   0.14231786    1299997.4 
  942000    52.898799  -0.37731459  -0.37731459  -0.23861427    0.2060436  -0.37731459   0.13870032    1299997.4 
  943000     53.68367  -0.37960767  -0.37960767  -0.23884943   0.14606424  -0.37960767   0.14075824    1299997.4 
  944000     53.13539  -0.37794529  -0.37794529  -0.23862463   0.18186864  -0.37794529   0.13932066    1299997.4 
  945000    53.625115  -0.37941519  -0.37941519  -0.23881048   0.18920264  -0.37941519   0.14060471    1299997.4 
  946000    53.843159  -0.37987832  -0.37987832   -0.2387019   0.14044402  -0.37987832   0.14117642    1299997.4 
  947000    53.966841  -0.37947007  -0.37947007  -0.23796936   0.18266248  -0.37947007   0.14150072    1299997.4 
  948000    54.493092  -0.38097669  -0.38097669  -0.23809615   0.17276895  -0.38097669   0.14288054    1299997.4 
  949000    54.709669   -0.3812018   -0.3812018  -0.23775339   0.14540515   -0.3812018   0.14344841    1299997.4 
  950000     54.90237  -0.38195533  -0.38195533  -0.23800166    0.1470476  -0.38195533   0.14395367    1299997.4 
  951000    54.222994  -0.38027796  -0.38027796  -0.23810561   0.20906153  -0.38027796   0.14217235    1299997.4 
  952000    54.187999  -0.38017728  -0.38017728  -0.23809669   0.20283707  -0.38017728   0.14208059    1299997.4 
  953000    54.745101   -0.3817216   -0.3817216  -0.23818029   0.16061665   -0.3817216   0.14354131    1299997.4 
  954000    54.424892  -0.38046344  -0.38046344  -0.23776172   0.17256653  -0.38046344   0.14270172    1299997.4 
  955000    53.923457  -0.37959692  -0.37959692  -0.23820996   0.19304129  -0.37959692   0.14138696    1299997.4 
  956000      54.7539  -0.38173148  -0.38173148   -0.2381671   0.14624894  -0.38173148   0.14356438    1299997.4 
  957000    53.958365  -0.37955923  -0.37955923  -0.23808074   0.17924272  -0.37955923   0.14147849    1299997.4 
  958000    54.433246  -0.38038667  -0.38038667  -0.23766304   0.14157355  -0.38038667   0.14272363    1299997.4 
  959000      53.5452   -0.3783235   -0.3783235  -0.23792832   0.19474005   -0.3783235   0.14039518    1299997.4 
  960000    54.690367  -0.38059107  -0.38059107  -0.23719328   0.16312497  -0.38059107    0.1433978    1299997.4 
  961000    54.529108  -0.38083688  -0.38083688   -0.2378619   0.15414521  -0.38083688   0.14297498    1299997.4 
  962000    54.232475  -0.38032146  -0.38032146  -0.23812425   0.16329025  -0.38032146   0.14219721    1299997.4 
  963000    53.875107  -0.37949906  -0.37949906  -0.23823887   0.17866423  -0.37949906   0.14126019    1299997.4 
  964000    53.924657  -0.37961862  -0.37961862  -0.23822851   0.18524492  -0.37961862   0.14139011    1299997.4 
  965000    54.163635  -0.38032267  -0.38032267  -0.23830596   0.17618822  -0.38032267   0.14201671    1299997.4 
  966000    53.932164  -0.37970098  -0.37970098  -0.23829119   0.19517299  -0.37970098   0.14140979    1299997.4 
  967000    53.920701  -0.37904441  -0.37904441  -0.23766467   0.18679949  -0.37904441   0.14137974    1299997.4 
  968000    53.804628  -0.37905739  -0.37905739  -0.23798199   0.17900609  -0.37905739    0.1410754    1299997.4 
  969000    53.849785  -0.37914414  -0.37914414  -0.23795035   0.18597274  -0.37914414    0.1411938    1299997.4 
  970000    54.579171  -0.38079883  -0.38079883  -0.23769259   0.16077666  -0.38079883   0.14310624    1299997.4 
  971000     54.01681  -0.37968665  -0.37968665  -0.23805492   0.13752214  -0.37968665   0.14163173    1299997.4 
  972000    54.038947   -0.3803106   -0.3803106  -0.23862082   0.16690234   -0.3803106   0.14168978    1299997.4 
  973000    54.527399  -0.38059501  -0.38059501  -0.23762451   0.17730092  -0.38059501    0.1429705    1299997.4 
  974000    54.356879  -0.38022835  -0.38022835  -0.23770495    0.1423488  -0.38022835   0.14252339    1299997.4 
  975000    54.769577  -0.38133279  -0.38133279   -0.2377273   0.18913848  -0.38133279   0.14360548    1299997.4 
  976000    53.967732  -0.37962998  -0.37962998  -0.23812693   0.20010425  -0.37962998   0.14150305    1299997.4 
  977000    54.146054  -0.37999514  -0.37999514  -0.23802452   0.19594075  -0.37999514   0.14197061    1299997.4 
  978000    53.642951  -0.37849327  -0.37849327  -0.23784179   0.22138541  -0.37849327   0.14065148    1299997.4 
  979000    53.961393  -0.37950486  -0.37950486  -0.23801843   0.18911117  -0.37950486   0.14148643    1299997.4 
  980000    53.764495  -0.37934572  -0.37934572  -0.23837555   0.17587524  -0.37934572   0.14097017    1299997.4 
  981000    54.594568   -0.3810545   -0.3810545  -0.23790789   0.14723972   -0.3810545   0.14314661    1299997.4 
  982000    54.623909  -0.38064964  -0.38064964  -0.23742609   0.17528563  -0.38064964   0.14322354    1299997.4 
  983000    54.384216  -0.38056687  -0.38056687   -0.2379718   0.17187598  -0.38056687   0.14259507    1299997.4 
  984000    54.393259  -0.38054255  -0.38054255  -0.23792376   0.18708216  -0.38054255   0.14261878    1299997.4 
  985000    54.065367  -0.37966657  -0.37966657  -0.23790751   0.19541776  -0.37966657   0.14175905    1299997.4 
  986000    53.618322   -0.3786949   -0.3786949  -0.23810799   0.20003715   -0.3786949    0.1405869    1299997.4 
  987000    54.337241  -0.38053732  -0.38053732  -0.23806542   0.13597843  -0.38053732    0.1424719    1299997.4 
  988000    54.188139  -0.38015693  -0.38015693  -0.23807597   0.13187431  -0.38015693   0.14208096    1299997.4 
  989000    53.838961  -0.37900366  -0.37900366  -0.23783825    0.1767683  -0.37900366   0.14116542    1299997.4 
  990000    54.260678  -0.38007808  -0.38007808  -0.23780693   0.16238178  -0.38007808   0.14227115    1299997.4 
  991000    52.982562  -0.37642034  -0.37642034   -0.2375004   0.21271928  -0.37642034   0.13891994    1299997.4 
  992000    53.816763   -0.3789464   -0.3789464  -0.23783919   0.18591984   -0.3789464   0.14110721    1299997.4 
  993000    53.857272  -0.37932876  -0.37932876  -0.23811533   0.16227282  -0.37932876   0.14121343    1299997.4 
  994000    53.129741  -0.37719393  -0.37719393  -0.23788808    0.2179579  -0.37719393   0.13930584    1299997.4 
  995000    53.753492  -0.37897217  -0.37897217  -0.23803085   0.18687058  -0.37897217   0.14094132    1299997.4 
  996000     53.85464  -0.37945146  -0.37945146  -0.23824494   0.17326492  -0.37945146   0.14120652    1299997.4 
  997000    54.686165  -0.38093827  -0.38093827  -0.23755149   0.15253494  -0.38093827   0.14338678    1299997.4 
  998000    54.143158  -0.38022755  -0.38022755  -0.23826453   0.19092947  -0.38022755   0.14196302    1299997.4 
  999000    54.219365  -0.38041341  -0.38041341  -0.23825057   0.15136103  -0.38041341   0.14216283    1299997.4 
 1000000    54.216295  -0.38003969  -0.38003969  -0.23788491   0.16615619  -0.38003969   0.14215478    1299997.4 
Loop time of 14657 on 64 procs for 1000000 steps with 560070 atoms

Performance: 29474.040 tau/day, 68.227 timesteps/s
98.9% CPU use with 64 MPI tasks x 1 OpenMP threads

MPI task timing breakdown:
Section |  min time  |  avg time  |  max time  |%varavg|  %CPU | %total
-----------------------------------------------------------------------
Pair    | 4034.3     | 4823.4     | 8630.7     |1046.0 |  98.7 | 32.91
Bond    | 0.41893    | 0.73772    | 1.375      |  37.3 | 100.0 |  0.01
Neigh   | 950.83     | 1131       | 1759.1     | 420.0 |  99.8 |  7.72
Comm    | 2675       | 6996.5     | 7779.9     | 994.9 |  98.7 | 47.73
Output  | 159.43     | 211.68     | 337.28     | 280.9 |  99.2 |  1.44
Modify  | 877.71     | 1088.9     | 1409.7     | 432.9 |  99.5 |  7.43
Other   |            | 404.8      |            |       |       |  2.76

Nlocal:        8751.09 ave        9949 max        7313 min
Histogram: 3 5 3 8 9 8 10 6 5 7
Nghost:        19221.0 ave       23786 max       15143 min
Histogram: 11 10 7 3 1 3 6 7 11 5
Neighs:       272782.0 ave      322975 max      221256 min
Histogram: 2 5 5 10 10 10 9 4 7 2

Total # of neighbors = 17458020
Ave neighs/atom = 31.171139
Ave special neighs/atom = 0.0000000
Neighbor list builds = 57822
Dangerous builds = 0

write_data      data.cubes
System init for write_data ...
WARNING: Not all mixed pair coeffs generated from mixing. Use write_data with 'pair ij' option to store all pair coeffs. (src/write_data.cpp:312)
Total wall time: 4:04:24
