LAMMPS (29 Oct 2020)
  using 1 OpenMP thread(s) per MPI task
# Simple rigid body system
# needed variables: startTemp, temp

units		lj
atom_style	full
dimension 	3
boundary	p p f
pair_style	lj/smooth/linear 1.5


variable 	sigma		equal 1.0
variable 	epsilon 	equal 1.0


region		box block 0 40 0 40 0 80
create_box 	3 box
Created orthogonal box = (0.0000000 0.0000000 0.0000000) to (40.000000 40.000000 80.000000)
  1 by 1 by 4 MPI processor grid

lattice 	sc 0.66
Lattice spacing in x,y,z = 1.1485556 1.1485556 1.1485556
region 		fluid block EDGE EDGE EDGE EDGE 1 40
create_atoms 	1 region fluid
Created 49000 atoms
  create_atoms CPU = 0.008 seconds

lattice 	sc 0.045
Lattice spacing in x,y,z = 2.8114422 2.8114422 2.8114422
region 		gas block EDGE EDGE EDGE EDGE 40 79
create_atoms 	1 region gas
Created 0 atoms
  create_atoms CPU = 0.005 seconds

mass		1 1.0
mass		2 1.0
mass		3 1.0


group		solvent type 1
49000 atoms in group solvent


velocity 	solvent create ${startTemp} 563435 loop geom
velocity 	solvent create 0.5 563435 loop geom

neighbor 	0.4 bin

pair_coeff	1 1 1.0 1.0
pair_coeff	2 2 0.0 0.0
pair_coeff	3 3 0.0 0.0
pair_coeff	2 3 0.0 0.0
pair_coeff	1 2*3 0.0 0.0

pair_modify 	shift yes


balance 	1.05 shift z 10 1.05
Balancing ...
Neighbor list info ...
  update every 1 steps, delay 10 steps, check yes
  max neighbors/atom: 2000, page size: 100000
  master list distance cutoff = 1.9
  ghost atom cutoff = 1.9
  binsize = 0.95, bins = 43 43 85
  1 neighbor lists, perpetual/occasional/extra = 1 0 0
  (1) pair lj/smooth/linear, perpetual
      attributes: half, newton on
      pair build: half/bin/newton
      stencil: half/bin/3d/newton
      bin: standard
 rebalancing time: 0.030 seconds
  iteration count = 3
  initial/final maximal load/proc = 20825.000 13475.000
  initial/final imbalance factor  = 1.7000000 1.1000000
  x cuts: 0.0000000 1.0000000
  y cuts: 0.0000000 1.0000000
  z cuts: 0.0000000 0.15625 0.28125 0.4375 1.0000000


####################### WALLS ###########################


variable       epsilonWall equal 2*${epsilon}
variable       epsilonWall equal 2*1

variable       cutoffTop   equal   0.858*${sigma}
variable       cutoffTop   equal   0.858*1

variable       cutoffLow   equal   3*${sigma}
variable       cutoffLow   equal   3*1


fix            topWall all wall/lj93 zhi EDGE                ${epsilonWall} ${sigma} ${cutoffTop} units box
fix            topWall all wall/lj93 zhi EDGE                2 ${sigma} ${cutoffTop} units box
fix            topWall all wall/lj93 zhi EDGE                2 1 ${cutoffTop} units box
fix            topWall all wall/lj93 zhi EDGE                2 1 0.858 units box

fix            lowWall all wall/lj93 zlo EDGE                ${epsilonWall} ${sigma} ${cutoffLow} units box
fix            lowWall all wall/lj93 zlo EDGE                2 ${sigma} ${cutoffLow} units box
fix            lowWall all wall/lj93 zlo EDGE                2 1 ${cutoffLow} units box
fix            lowWall all wall/lj93 zlo EDGE                2 1 3 units box


###################### COMPUTES ##########################

compute        bin1 solvent chunk/atom bin/1d z upper 1.0

######################	FIXES ############################

fix 		peclet solvent ave/chunk 1000 1 1000 bin1 density/number norm 		 sample ave one file density.profile

fix 		 temp solvent ave/chunk 1000 1 1000 bin1 temp norm sample ave one file temp.profile

fix 		2 solvent nve/limit 0.1

run 		100000
Per MPI rank memory allocation (min/avg/max) = 12.96 | 13.24 | 13.58 Mbytes
Step Temp E_pair E_mol TotEng Press 
       0          0.5  -0.57754581            0   0.17243888   0.60677542 
  100000    0.3369227   -0.3207188            0   0.18465493   0.21058545 
Loop time of 455.044 on 4 procs for 100000 steps with 49000 atoms

Performance: 94935.920 tau/day, 219.759 timesteps/s
72.4% CPU use with 4 MPI tasks x 1 OpenMP threads

MPI task timing breakdown:
Section |  min time  |  avg time  |  max time  |%varavg| %total
---------------------------------------------------------------
Pair    | 70.639     | 131.73     | 273.06     | 715.0 | 28.95
Bond    | 0.0093072  | 0.011884   | 0.015865   |   2.3 |  0.00
Neigh   | 25.596     | 48.119     | 101.39     | 445.4 | 10.57
Comm    | 31.781     | 233.42     | 335.11     | 777.2 | 51.30
Output  | 0.00049494 | 0.00049962 | 0.00050358 |   0.0 |  0.00
Modify  | 9.6704     | 19.181     | 39.753     | 274.1 |  4.22
Other   |            | 22.58      |            |       |  4.96

Nlocal:        12250.0 ave       27675 max        5976 min
Histogram: 3 0 0 0 0 0 0 0 0 1
Nghost:        4555.25 ave        7067 max        2881 min
Histogram: 1 0 1 1 0 0 0 0 0 1
Neighs:        62433.5 ave      141492 max       29605 min
Histogram: 3 0 0 0 0 0 0 0 0 1

Total # of neighbors = 249734
Ave neighs/atom = 5.0966122
Ave special neighs/atom = 0.0000000
Neighbor list builds = 7451
Dangerous builds = 433
unfix 		2

fix 		2 solvent nve #temp ${temp} ${temp} 10


## Thermostat


region		regthermo block EDGE EDGE EDGE EDGE 0 40

group 		thermo dynamic solvent region regthermo every 1000
dynamic group thermo defined

fix 		3 thermo langevin ${startTemp} ${temp} 10 156453
fix 		3 thermo langevin 0.5 ${temp} 10 156453
fix 		3 thermo langevin 0.5 .5 10 156453



#### Load balancing

fix 		bal all balance 1000 1.05 shift z 10 1.05

############### Diagnostics and computes ###################
dump		1 all custom 100000 dump.lammpstrj id mol type x y z
dump 		2 all image 10000 image.*.png type type zoom 2.0
dump 		3 all movie 1000 movie.avi type type zoom 2.0

################ RUN  ##########################
thermo 		1000
thermo_style 	custom step temp epair evdwl etotal press pe ke vol

restart 	500000 restart.dat
timestep 	0.005
timer 		full
New timer settings: style=full  mode=nosync  timeout=off

run		1000000
Per MPI rank memory allocation (min/avg/max) = 17.87 | 22.68 | 29.87 Mbytes
Step Temp E_pair E_vdwl TotEng Press PotEng KinEng Volume 
  100000    0.3369227   -0.3207188   -0.3207188   0.18465493   0.21058545   -0.3207188   0.50537374       128000 
  101000   0.42667765  -0.28944817  -0.28944817   0.35055523   0.30493153  -0.28944817   0.64000341       128000 
  102000   0.47042096  -0.28022454  -0.28022454   0.42539251    0.3325422  -0.28022454   0.70561705       128000 
  103000    0.4826468  -0.27104489  -0.27104489   0.45291053   0.35486248  -0.27104489   0.72395542       128000 
  104000   0.48980224   -0.2705299   -0.2705299   0.46415847   0.36033851   -0.2705299   0.73468836       128000 
  105000   0.49516709  -0.26928039  -0.26928039   0.47345509   0.36176336  -0.26928039   0.74273547       128000 
  106000   0.50161675  -0.26987787  -0.26987787   0.48253189   0.36495814  -0.26987787   0.75240977       128000 
  107000   0.50008573  -0.26871997  -0.26871997   0.48139331   0.36708955  -0.26871997   0.75011328       128000 
  108000   0.50300319  -0.26670397  -0.26670397   0.48778542   0.37279407  -0.26670397   0.75448939       128000 
  109000   0.50488857  -0.26746352  -0.26746352   0.48985388   0.37359168  -0.26746352   0.75731739       128000 
  110000   0.50223823  -0.26833709  -0.26833709   0.48500488   0.36871758  -0.26833709   0.75334197       128000 
  111000   0.50309469  -0.26737937  -0.26737937   0.48724727   0.36800945  -0.26737937   0.75462663       128000 
  112000   0.50131095  -0.26845889  -0.26845889   0.48349218   0.36979589  -0.26845889   0.75195107       128000 
  113000    0.4999635  -0.27111703  -0.27111703   0.47881291   0.36054876  -0.27111703   0.74992995       128000 
  114000   0.49976181  -0.26992943  -0.26992943   0.47969799   0.36316208  -0.26992943   0.74962742       128000 
  115000   0.49771129  -0.26864659  -0.26864659    0.4779051   0.36540959  -0.26864659   0.74655169       128000 
  116000   0.49689381  -0.26759316  -0.26759316   0.47773235   0.36537813  -0.26759316   0.74532551       128000 
  117000   0.49624347   -0.2674781   -0.2674781   0.47687191   0.36914737   -0.2674781   0.74435001       128000 
  118000   0.49929535  -0.26828915  -0.26828915   0.48063859   0.36602402  -0.26828915   0.74892774       128000 
  119000   0.49774978  -0.26725875  -0.26725875   0.47935068   0.36676693  -0.26725875   0.74660943       128000 
  120000   0.49957255  -0.26862043  -0.26862043    0.4807231   0.36934546  -0.26862043   0.74934354       128000 
  121000   0.50009313  -0.27081796  -0.27081796   0.47930643   0.36117118  -0.27081796   0.75012439       128000 
  122000   0.50225899  -0.26874322  -0.26874322   0.48462989    0.3676879  -0.26874322   0.75337311       128000 
  123000   0.49629988  -0.26826662  -0.26826662     0.476168    0.3655347  -0.26826662   0.74443463       128000 
  124000   0.49798366  -0.26882964  -0.26882964   0.47813061   0.37049098  -0.26882964   0.74696025       128000 
  125000   0.50290971  -0.26916267  -0.26916267    0.4851865   0.36803336  -0.26916267   0.75434917       128000 
  126000   0.50060676  -0.26701841  -0.26701841    0.4838764   0.36898938  -0.26701841   0.75089481       128000 
  127000    0.4993722  -0.26715116  -0.26715116   0.48189185   0.36687937  -0.26715116   0.74904301       128000 
  128000   0.49929487   -0.2679489   -0.2679489   0.48097812   0.37177859   -0.2679489   0.74892702       128000 
  129000   0.50148462  -0.26745049  -0.26745049   0.48476108   0.37011197  -0.26745049   0.75221157       128000 
  130000   0.50038899  -0.26610588  -0.26610588   0.48446229   0.37254092  -0.26610588   0.75056817       128000 
  131000   0.49945959  -0.26708556  -0.26708556   0.48208853   0.36813419  -0.26708556   0.74917409       128000 
  132000   0.49695646  -0.26621271  -0.26621271   0.47920677   0.37239446  -0.26621271   0.74541948       128000 
  133000   0.49975132  -0.26892653  -0.26892653   0.48068516    0.3666235  -0.26892653   0.74961169       128000 
  134000    0.4999473  -0.26668468  -0.26668468   0.48322096   0.37324577  -0.26668468   0.74990564       128000 
  135000   0.50212898  -0.26818742  -0.26818742   0.48499069    0.3727764  -0.26818742    0.7531781       128000 
  136000   0.49998561  -0.26582678  -0.26582678   0.48413633   0.37456702  -0.26582678   0.74996311       128000 
  137000   0.49861572  -0.26771738  -0.26771738   0.48019094   0.36740314  -0.26771738   0.74790832       128000 
  138000   0.49423076  -0.26793883  -0.26793883   0.47339219   0.37205708  -0.26793883   0.74133101       128000 
  139000   0.49959109  -0.26769562  -0.26769562   0.48167573   0.36570585  -0.26769562   0.74937135       128000 
  140000   0.49949545  -0.26804851  -0.26804851   0.48117938   0.36804201  -0.26804851   0.74922789       128000 
  141000   0.50366768    -0.270015    -0.270015    0.4854711   0.36800229    -0.270015    0.7554861       128000 
  142000   0.50201686  -0.26954411  -0.26954411   0.48346581   0.36575979  -0.26954411   0.75300993       128000 
  143000   0.49948698  -0.27155205  -0.27155205   0.47766313   0.35670613  -0.27155205   0.74921518       128000 
  144000   0.49942031  -0.27052779  -0.27052779   0.47858738   0.35892774  -0.27052779   0.74911517       128000 
  145000   0.49895443  -0.26749167  -0.26749167    0.4809247   0.36692923  -0.26749167   0.74841637       128000 
  146000   0.50027057  -0.26832413  -0.26832413   0.48206641   0.36874531  -0.26832413   0.75039053       128000 
  147000   0.50095659  -0.26885418  -0.26885418   0.48256537   0.36214267  -0.26885418   0.75141955       128000 
  148000    0.5015647   -0.2679283   -0.2679283    0.4844034   0.36866342   -0.2679283    0.7523317       128000 
  149000   0.50040152  -0.26880608  -0.26880608   0.48178088   0.36742508  -0.26880608   0.75058696       128000 
  150000   0.50003885  -0.26931091  -0.26931091   0.48073207   0.36560621  -0.26931091   0.75004297       128000 
  151000   0.50059037  -0.26922361  -0.26922361   0.48164662   0.36937307  -0.26922361   0.75087023       128000 
  152000   0.49993109   -0.2679474   -0.2679474   0.48193393   0.37129142   -0.2679474   0.74988133       128000 
  153000   0.50052262  -0.26853438  -0.26853438   0.48223422   0.36499465  -0.26853438    0.7507686       128000 
  154000   0.50012673  -0.26842129  -0.26842129   0.48175349   0.37072411  -0.26842129   0.75017478       128000 
  155000   0.50123462  -0.26844503  -0.26844503   0.48339156   0.36581177  -0.26844503   0.75183659       128000 
  156000   0.50159597  -0.26990854  -0.26990854   0.48247006   0.36369226  -0.26990854    0.7523786       128000 
  157000   0.49990312  -0.26715883  -0.26715883   0.48268054   0.37146184  -0.26715883   0.74983938       128000 
  158000   0.49948661  -0.26570501  -0.26570501   0.48350961    0.3790479  -0.26570501   0.74921462       128000 
  159000   0.49897903  -0.26887951  -0.26887951   0.47957376    0.3668536  -0.26887951   0.74845327       128000 
  160000   0.49703407  -0.26868501  -0.26868501   0.47685088   0.36545284  -0.26868501   0.74553589       128000 
  161000   0.49941697   -0.2672367   -0.2672367   0.48187346   0.37262138   -0.2672367   0.74911016       128000 
  162000   0.50109051  -0.27018876  -0.27018876   0.48143167   0.36662522  -0.27018876   0.75162043       128000 
  163000   0.50051624  -0.26700416  -0.26700416   0.48375488   0.37133234  -0.26700416   0.75075904       128000 
  164000   0.50245709  -0.26690269  -0.26690269   0.48676757   0.37424815  -0.26690269   0.75367026       128000 
  165000    0.5035174  -0.26911446  -0.26911446   0.48614622   0.36527612  -0.26911446   0.75526069       128000 
  166000    0.5030661  -0.26770509  -0.26770509   0.48687866   0.37100105  -0.26770509   0.75458375       128000 
  167000   0.50204761  -0.26778971  -0.26778971   0.48526635   0.36659309  -0.26778971   0.75305605       128000 
  168000   0.49944955  -0.26741374  -0.26741374   0.48174529   0.36696393  -0.26741374   0.74915903       128000 
  169000   0.49984735  -0.26782762  -0.26782762   0.48192811   0.37051743  -0.26782762   0.74975573       128000 
  170000    0.5000738   -0.2696074   -0.2696074     0.480488    0.3638055   -0.2696074   0.75009539       128000 
  171000   0.49733397  -0.26849096  -0.26849096   0.47749477    0.3605091  -0.26849096   0.74598573       128000 
  172000   0.49624775  -0.26958351  -0.26958351   0.47477294   0.36178498  -0.26958351   0.74435644       128000 
  173000   0.50083187   -0.2677777   -0.2677777   0.48345477   0.36590672   -0.2677777   0.75123248       128000 
  174000   0.49893158  -0.26903728  -0.26903728   0.47934482   0.36374804  -0.26903728    0.7483821       128000 
  175000   0.49958988  -0.26910118  -0.26910118   0.48026835   0.36147584  -0.26910118   0.74936953       128000 
  176000   0.49710019   -0.2677607   -0.2677607   0.47787437   0.36706794   -0.2677607   0.74563507       128000 
  177000   0.49859008  -0.26805707  -0.26805707    0.4798128   0.36864806  -0.26805707   0.74786986       128000 
  178000   0.50052675  -0.26937287  -0.26937287   0.48140192    0.3653087  -0.26937287    0.7507748       128000 
  179000   0.50214968  -0.26816088  -0.26816088   0.48504826   0.36927739  -0.26816088   0.75320914       128000 
  180000   0.50180493  -0.26604274  -0.26604274    0.4866493   0.37310679  -0.26604274   0.75269204       128000 
  181000   0.50230006  -0.26931082  -0.26931082    0.4841239   0.37169567  -0.26931082   0.75343472       128000 
  182000   0.50270701  -0.26900933  -0.26900933    0.4850358   0.36643568  -0.26900933   0.75404513       128000 
  183000   0.50170697  -0.26778195  -0.26778195   0.48476314   0.36502807  -0.26778195   0.75254509       128000 
  184000   0.50069488  -0.26897283  -0.26897283   0.48205416   0.36568374  -0.26897283   0.75102699       128000 
  185000    0.5034576  -0.26930146  -0.26930146   0.48586952    0.3681279  -0.26930146   0.75517099       128000 
  186000   0.49966977  -0.26745336  -0.26745336     0.482036   0.37031839  -0.26745336   0.74948936       128000 
  187000   0.49713585  -0.26668209  -0.26668209   0.47900647   0.37197059  -0.26668209   0.74568856       128000 
  188000   0.49945315  -0.26673216  -0.26673216   0.48243227   0.37096102  -0.26673216   0.74916443       128000 
  189000   0.49962295  -0.26808147  -0.26808147   0.48133766   0.36463516  -0.26808147   0.74941913       128000 
  190000   0.49813138  -0.26732656  -0.26732656   0.47985525   0.37055183  -0.26732656   0.74718182       128000 
  191000   0.49834699  -0.26780699  -0.26780699   0.47969824   0.36846591  -0.26780699   0.74750523       128000 
  192000   0.50374455  -0.26675795  -0.26675795   0.48884346   0.36871233  -0.26675795   0.75560141       128000 
  193000      0.50085  -0.26737522  -0.26737522   0.48388445   0.36799619  -0.26737522   0.75125967       128000 
  194000   0.50165438  -0.26874833  -0.26874833   0.48371789   0.36156181  -0.26874833   0.75246622       128000 
  195000     0.502018  -0.26899829  -0.26899829   0.48401335   0.36828175  -0.26899829   0.75301163       128000 
  196000   0.49926972  -0.27011812  -0.27011812   0.47877118   0.36716149  -0.27011812    0.7488893       128000 
  197000   0.49965617  -0.27047913  -0.27047913   0.47898984   0.36056867  -0.27047913   0.74946896       128000 
  198000   0.49903628  -0.26686847  -0.26686847   0.48167067   0.36558518  -0.26686847   0.74853914       128000 
  199000   0.50018514  -0.26853963  -0.26853963   0.48172277   0.36817304  -0.26853963   0.75026239       128000 
  200000   0.49841069   -0.2695131   -0.2695131   0.47808768   0.36313147   -0.2695131   0.74760078       128000 
  201000   0.49927408  -0.26790942  -0.26790942   0.48098641   0.36426693  -0.26790942   0.74889583       128000 
  202000   0.49994887  -0.26770604  -0.26770604   0.48220196   0.36863017  -0.26770604     0.749908       128000 
  203000   0.50150637  -0.26732109  -0.26732109   0.48492311    0.3680065  -0.26732109    0.7522442       128000 
  204000   0.49959904  -0.26711566  -0.26711566   0.48226761   0.37057766  -0.26711566   0.74938327       128000 
  205000    0.5023553  -0.26865525  -0.26865525   0.48486231   0.36625563  -0.26865525   0.75351756       128000 
  206000   0.50032374  -0.26716491  -0.26716491   0.48330539   0.36926475  -0.26716491   0.75047029       128000 
  207000   0.50018521  -0.26731444  -0.26731444   0.48294807   0.36714174  -0.26731444   0.75026251       128000 
  208000   0.50192665  -0.26696705  -0.26696705   0.48590756   0.37106912  -0.26696705   0.75287461       128000 
  209000   0.50102682  -0.26839403  -0.26839403   0.48313086   0.36485428  -0.26839403   0.75152489       128000 
  210000   0.50361527  -0.26936257  -0.26936257   0.48604492    0.3675486  -0.26936257   0.75540749       128000 
  211000   0.50310259  -0.26864551  -0.26864551   0.48599297   0.37015333  -0.26864551   0.75463848       128000 
  212000    0.5016898  -0.26765245  -0.26765245    0.4848669   0.37050183  -0.26765245   0.75251934       128000 
  213000   0.49922197  -0.26942348  -0.26942348    0.4793942   0.36526471  -0.26942348   0.74881768       128000 
  214000    0.5007267  -0.27044195  -0.27044195   0.48063277   0.36495829  -0.27044195   0.75107472       128000 
  215000    0.5003896  -0.26760905  -0.26760905   0.48296003   0.36817746  -0.26760905   0.75056908       128000 
  216000   0.50011742  -0.26677107  -0.26677107   0.48338976   0.36905018  -0.26677107   0.75016082       128000 
  217000   0.49872483  -0.26909642  -0.26909642   0.47897555   0.36198562  -0.26909642   0.74807197       128000 
  218000   0.50351794  -0.26638834  -0.26638834   0.48887316   0.37378089  -0.26638834    0.7552615       128000 
  219000   0.49709641   -0.2684205   -0.2684205    0.4772089   0.36613715   -0.2684205    0.7456294       128000 
  220000   0.50061201  -0.26754371  -0.26754371   0.48335898   0.37169438  -0.26754371   0.75090269       128000 
  221000   0.49858677  -0.26756887  -0.26756887   0.48029602   0.36461386  -0.26756887   0.74786489       128000 
  222000    0.4999426  -0.26784792  -0.26784792   0.48205068    0.3689396  -0.26784792    0.7498986       128000 
  223000   0.50203262  -0.26857784  -0.26857784   0.48445572    0.3656475  -0.26857784   0.75303356       128000 
  224000   0.50326814  -0.26991087  -0.26991087   0.48497594   0.36487655  -0.26991087    0.7548868       128000 
  225000   0.50366736  -0.26799764  -0.26799764   0.48748797   0.36729266  -0.26799764   0.75548562       128000 
  226000   0.50125715  -0.26704457  -0.26704457   0.48482581   0.36745657  -0.26704457   0.75187038       128000 
  227000    0.4984767  -0.26935292  -0.26935292   0.47834687   0.36246758  -0.26935292   0.74769979       128000 
  228000   0.49989425  -0.26752723  -0.26752723   0.48229884   0.36536792  -0.26752723   0.74982607       128000 
  229000   0.49934862  -0.26788198  -0.26788198   0.48112566   0.36945737  -0.26788198   0.74900764       128000 
  230000   0.50237379  -0.26915186  -0.26915186   0.48439345   0.36324887  -0.26915186   0.75354531       128000 
  231000   0.50176215  -0.26834547  -0.26834547   0.48428239   0.36579003  -0.26834547   0.75262786       128000 
  232000   0.50015356  -0.26985392  -0.26985392   0.48036111   0.36318363  -0.26985392   0.75021503       128000 
  233000   0.49881845  -0.26821354  -0.26821354   0.47999887   0.36586218  -0.26821354    0.7482124       128000 
  234000   0.50027534  -0.26673411  -0.26673411   0.48366358   0.37351973  -0.26673411   0.75039769       128000 
  235000   0.49995489   -0.2687627   -0.2687627   0.48115433   0.36968783   -0.2687627   0.74991704       128000 
  236000   0.49974262  -0.26734076  -0.26734076   0.48225787   0.36841523  -0.26734076   0.74959863       128000 
  237000   0.49781085  -0.26631917  -0.26631917   0.48038186   0.36960077  -0.26631917   0.74670103       128000 
  238000    0.4990848  -0.26711636  -0.26711636   0.48149556   0.36920534  -0.26711636   0.74861192       128000 
  239000   0.50236639  -0.26689589  -0.26689589   0.48663831   0.37546934  -0.26689589    0.7535342       128000 
  240000   0.50281151  -0.26783248  -0.26783248   0.48636939   0.36493259  -0.26783248   0.75420187       128000 
  241000   0.50007095  -0.26735664  -0.26735664   0.48273447   0.36911828  -0.26735664   0.75009112       128000 
  242000   0.49941768  -0.26800451  -0.26800451   0.48110672   0.36051967  -0.26800451   0.74911123       128000 
  243000   0.50007716  -0.26826159  -0.26826159   0.48183885   0.36354803  -0.26826159   0.75010044       128000 
  244000   0.49997677   -0.2666168   -0.2666168   0.48333305   0.37068968   -0.2666168   0.74994985       128000 
  245000   0.50111804  -0.26921869  -0.26921869   0.48244303   0.36754935  -0.26921869   0.75166172       128000 
  246000   0.50138807  -0.26992717  -0.26992717   0.48213959   0.36474344  -0.26992717   0.75206676       128000 
  247000    0.5023743  -0.26711151  -0.26711151   0.48643456   0.37722999  -0.26711151   0.75354606       128000 
  248000   0.50086903  -0.26743435  -0.26743435   0.48385387   0.36732636  -0.26743435   0.75128822       128000 
  249000   0.50158275  -0.26656304  -0.26656304   0.48579573   0.37088334  -0.26656304   0.75235877       128000 
  250000   0.50028631   -0.2687203   -0.2687203   0.48169385   0.36871533   -0.2687203   0.75041415       128000 
  251000   0.49957203  -0.26865434  -0.26865434   0.48068841   0.36855313  -0.26865434   0.74934275       128000 
  252000   0.49974372  -0.26745693  -0.26745693   0.48214335   0.36804998  -0.26745693   0.74960028       128000 
  253000   0.49979972  -0.26752977  -0.26752977    0.4821545   0.37338487  -0.26752977   0.74968427       128000 
  254000    0.4997317  -0.26885515  -0.26885515    0.4807271   0.36501639  -0.26885515   0.74958225       128000 
  255000   0.49880077  -0.26807618  -0.26807618   0.48010971   0.36789719  -0.26807618   0.74818589       128000 
  256000   0.50091855  -0.26942783  -0.26942783   0.48193466   0.36379584  -0.26942783   0.75136249       128000 
  257000   0.50021054  -0.26909904  -0.26909904   0.48120146   0.36459008  -0.26909904    0.7503005       128000 
  258000   0.50085343  -0.26896799  -0.26896799   0.48229681   0.36550217  -0.26896799   0.75126481       128000 
  259000   0.49837792   -0.2688783   -0.2688783   0.47867332   0.36368485   -0.2688783   0.74755163       128000 
  260000    0.5001856  -0.26886605  -0.26886605   0.48139703   0.36327119  -0.26886605   0.75026308       128000 
  261000   0.49879805  -0.26799471  -0.26799471   0.48018709   0.37117582  -0.26799471    0.7481818       128000 
  262000   0.49901722  -0.26816563  -0.26816563   0.48034493   0.36695448  -0.26816563   0.74851056       128000 
  263000   0.49824712  -0.26969396  -0.26969396   0.47766148    0.3681132  -0.26969396   0.74735543       128000 
  264000   0.49947297  -0.26819024  -0.26819024   0.48100392   0.36834446  -0.26819024   0.74919416       128000 
  265000   0.50136268  -0.26600222  -0.26600222   0.48602646   0.37066392  -0.26600222   0.75202868       128000 
  266000   0.50167262  -0.26904726  -0.26904726   0.48344632     0.368762  -0.26904726   0.75249357       128000 
  267000   0.49749323  -0.26867043  -0.26867043   0.47755419   0.36681417  -0.26867043   0.74622462       128000 
  268000   0.49728899  -0.26721428  -0.26721428   0.47870397   0.36705445  -0.26721428   0.74591826       128000 
  269000    0.5004228  -0.26812008  -0.26812008    0.4824988   0.36496655  -0.26812008   0.75061888       128000 
  270000   0.50004625  -0.26604128  -0.26604128   0.48401279   0.36817269  -0.26604128   0.75005407       128000 
  271000   0.50158978  -0.26842569  -0.26842569   0.48394363    0.3657603  -0.26842569   0.75236932       128000 
  272000   0.50323111  -0.26880943  -0.26880943   0.48602182   0.36822337  -0.26880943   0.75483126       128000 
  273000   0.49875483  -0.26869583  -0.26869583   0.47942114   0.36576368  -0.26869583   0.74811697       128000 
  274000   0.50042882  -0.26856344  -0.26856344   0.48206447   0.36748118  -0.26856344   0.75062791       128000 
  275000   0.50182548  -0.26841442  -0.26841442   0.48430843   0.36556584  -0.26841442   0.75272285       128000 
  276000   0.50199583  -0.26891989  -0.26891989   0.48405848   0.36848225  -0.26891989   0.75297837       128000 
  277000   0.50285457  -0.26767416  -0.26767416   0.48659231   0.37044719  -0.26767416   0.75426646       128000 
  278000   0.50045171  -0.26781284  -0.26781284   0.48284941   0.36825999  -0.26781284   0.75066224       128000 
  279000   0.49790365  -0.26678646  -0.26678646   0.48005378   0.36845955  -0.26678646   0.74684024       128000 
  280000    0.5004646  -0.26767017  -0.26767017   0.48301141    0.3651384  -0.26767017   0.75068159       128000 
  281000   0.49757922  -0.26450573  -0.26450573   0.48184787   0.37207614  -0.26450573    0.7463536       128000 
  282000   0.50045589  -0.26945803  -0.26945803   0.48121049   0.36788098  -0.26945803   0.75066852       128000 
  283000   0.49866716  -0.26796633  -0.26796633   0.48001914   0.37168297  -0.26796633   0.74798547       128000 
  284000   0.49907841  -0.26933916  -0.26933916   0.47926318   0.36507736  -0.26933916   0.74860234       128000 
  285000   0.50072068  -0.26940291  -0.26940291   0.48166278   0.36501281  -0.26940291   0.75106569       128000 
  286000   0.49988006  -0.26847404  -0.26847404   0.48133075   0.36505953  -0.26847404   0.74980478       128000 
  287000   0.49967785  -0.26834017  -0.26834017    0.4811613   0.36454677  -0.26834017   0.74950147       128000 
  288000   0.49931651  -0.26949119  -0.26949119   0.47946829   0.36506823  -0.26949119   0.74895949       128000 
  289000   0.49841334   -0.2673976   -0.2673976   0.48020715   0.36902102   -0.2673976   0.74760476       128000 
  290000   0.49976678  -0.26920981  -0.26920981   0.48042506   0.36379021  -0.26920981   0.74963487       128000 
  291000   0.49912198   -0.2680617   -0.2680617   0.48060599   0.36993187   -0.2680617   0.74866769       128000 
  292000   0.49910928    -0.266656    -0.266656   0.48199264   0.37224657    -0.266656   0.74864865       128000 
  293000   0.50097871  -0.27006421  -0.27006421   0.48138852    0.3655193  -0.27006421   0.75145273       128000 
  294000   0.49930052  -0.26935817  -0.26935817   0.47957732   0.36534971  -0.26935817   0.74893549       128000 
  295000   0.49935502   -0.2659033   -0.2659033   0.48311394   0.37082505   -0.2659033   0.74901725       128000 
  296000   0.49823779  -0.26858501  -0.26858501   0.47875642   0.37075436  -0.26858501   0.74734143       128000 
  297000   0.49767181  -0.26808456  -0.26808456   0.47840791   0.36658136  -0.26808456   0.74649247       128000 
  298000   0.49929134  -0.26810064  -0.26810064   0.48082108   0.37051877  -0.26810064   0.74892172       128000 
  299000    0.4980121   -0.2661384   -0.2661384    0.4808645   0.37726069   -0.2661384    0.7470029       128000 
  300000   0.49954629   -0.2667501   -0.2667501   0.48255404   0.37236232   -0.2667501   0.74930415       128000 
  301000   0.49724115  -0.26867151  -0.26867151   0.47717499   0.36105175  -0.26867151    0.7458465       128000 
  302000   0.49970271  -0.26810882  -0.26810882   0.48142995   0.37212691  -0.26810882   0.74953876       128000 
  303000   0.49991261  -0.26860046  -0.26860046   0.48125314   0.36751164  -0.26860046   0.74985361       128000 
  304000   0.50001292  -0.26836741  -0.26836741   0.48163665   0.36587856  -0.26836741   0.75000407       128000 
  305000   0.49801608  -0.27040152  -0.27040152   0.47660736   0.35862281  -0.27040152   0.74700888       128000 
  306000   0.49908681  -0.26837261  -0.26837261   0.48024233   0.36610012  -0.26837261   0.74861494       128000 
  307000   0.49814773  -0.26788999  -0.26788999   0.47931635   0.36824493  -0.26788999   0.74720634       128000 
  308000   0.49817689  -0.26843657  -0.26843657   0.47881351   0.36488742  -0.26843657   0.74725008       128000 
  309000   0.49891658  -0.26755807  -0.26755807   0.48080152   0.36563148  -0.26755807   0.74835959       128000 
  310000   0.49784604  -0.26978476  -0.26978476   0.47696907   0.36529265  -0.26978476   0.74675383       128000 
  311000   0.49570418  -0.26579792  -0.26579792   0.47774317   0.37280332  -0.26579792   0.74354109       128000 
  312000   0.49826121  -0.26727022  -0.26727022   0.48010634   0.36551456  -0.26727022   0.74737656       128000 
  313000   0.49823946  -0.26923822  -0.26923822   0.47810572   0.36815559  -0.26923822   0.74734394       128000 
  314000   0.49772561  -0.26655915  -0.26655915   0.48001403   0.37277591  -0.26655915   0.74657318       128000 
  315000   0.50452394  -0.26970812  -0.26970812   0.48706234   0.36311991  -0.26970812   0.75677047       128000 
  316000   0.50272463  -0.26848072  -0.26848072   0.48559084   0.36596394  -0.26848072   0.75407156       128000 
  317000   0.50327054  -0.26768351  -0.26768351   0.48720689   0.37027479  -0.26768351    0.7548904       128000 
  318000   0.50110099  -0.26801904  -0.26801904   0.48361711   0.36744089  -0.26801904   0.75163615       128000 
  319000   0.49681895   -0.2672024   -0.2672024   0.47801082   0.36928511   -0.2672024   0.74521322       128000 
  320000   0.49633761   -0.2672551   -0.2672551   0.47723611   0.36819572   -0.2672551   0.74449122       128000 
  321000   0.49932618  -0.26751789  -0.26751789    0.4814561   0.37447521  -0.26751789   0.74897398       128000 
  322000   0.49982632   -0.2682917   -0.2682917   0.48143248   0.36451932   -0.2682917   0.74972418       128000 
  323000   0.50148036  -0.26758813  -0.26758813   0.48461706   0.36999519  -0.26758813   0.75220519       128000 
  324000   0.50298666  -0.26722393  -0.26722393   0.48724066    0.3719668  -0.26722393   0.75446459       128000 
  325000   0.50060705   -0.2670542   -0.2670542   0.48384106     0.374583   -0.2670542   0.75089525       128000 
  326000   0.49848152  -0.26914181  -0.26914181   0.47856521   0.36390853  -0.26914181   0.74770702       128000 
  327000   0.50003335  -0.26743875  -0.26743875   0.48259596   0.36677539  -0.26743875   0.75003471       128000 
  328000   0.50226961   -0.2678381   -0.2678381   0.48555094    0.3711775   -0.2678381   0.75338903       128000 
  329000   0.50329519  -0.26582419  -0.26582419   0.48910318   0.37834041  -0.26582419   0.75492737       128000 
  330000   0.50733484  -0.26547954  -0.26547954    0.4955072   0.37901456  -0.26547954   0.76098674       128000 
  331000   0.50057472  -0.26695486  -0.26695486   0.48389191   0.37302867  -0.26695486   0.75084676       128000 
  332000   0.50179679  -0.26843945  -0.26843945   0.48424038   0.36847668  -0.26843945   0.75267983       128000 
  333000   0.50351317  -0.26965149  -0.26965149   0.48560286   0.36734111  -0.26965149   0.75525434       128000 
  334000   0.49855403  -0.26654041  -0.26654041   0.48127537   0.36844479  -0.26654041   0.74781578       128000 
  335000   0.50065203  -0.26636642  -0.26636642    0.4845963   0.36951911  -0.26636642   0.75096271       128000 
  336000   0.50374852  -0.26696182  -0.26696182   0.48864554   0.37162086  -0.26696182   0.75560736       128000 
  337000   0.50381799  -0.26956172  -0.26956172   0.48614984   0.36664018  -0.26956172   0.75571156       128000 
  338000   0.50102924  -0.27046276  -0.27046276   0.48106576   0.36086633  -0.27046276   0.75152852       128000 
  339000   0.49870162  -0.26752827  -0.26752827   0.48050889   0.36699675  -0.26752827   0.74803716       128000 
  340000   0.50197572  -0.26983371  -0.26983371    0.4831145   0.36322061  -0.26983371   0.75294822       128000 
  341000   0.50090511  -0.26721129  -0.26721129   0.48413104   0.37186445  -0.26721129   0.75134233       128000 
  342000   0.49853246  -0.26896196  -0.26896196   0.47882148    0.3677888  -0.26896196   0.74778344       128000 
  343000   0.49683676  -0.27062099  -0.27062099   0.47461893   0.36168924  -0.27062099   0.74523993       128000 
  344000    0.4973969  -0.26978758  -0.26978758   0.47629254   0.36315347  -0.26978758   0.74608012       128000 
  345000   0.49804323  -0.26944441  -0.26944441   0.47760519   0.37103139  -0.26944441    0.7470496       128000 
  346000   0.49762758  -0.26989351  -0.26989351   0.47653262   0.36002415  -0.26989351   0.74642613       128000 
  347000   0.49918697  -0.26778819  -0.26778819   0.48097698   0.36687483  -0.26778819   0.74876517       128000 
  348000   0.50054634  -0.26948012  -0.26948012   0.48132407   0.36757893  -0.26948012   0.75080419       128000 
  349000   0.50070994  -0.27010611  -0.27010611   0.48094346   0.36310202  -0.27010611   0.75104957       128000 
  350000   0.50259328  -0.26910821  -0.26910821   0.48476632   0.36163804  -0.26910821   0.75387453       128000 
  351000   0.50076842  -0.26931432  -0.26931432   0.48182298   0.36568347  -0.26931432   0.75113729       128000 
  352000   0.50135145  -0.27005369  -0.27005369   0.48195813   0.36422035  -0.27005369   0.75201182       128000 
  353000   0.50193328  -0.26864118  -0.26864118   0.48424338   0.36785468  -0.26864118   0.75288455       128000 
  354000   0.50207977   -0.2683627   -0.2683627   0.48474158   0.37065463   -0.2683627   0.75310428       128000 
  355000   0.50064264  -0.26634882  -0.26634882   0.48459982    0.3682477  -0.26634882   0.75094864       128000 
  356000   0.50403263  -0.26739767  -0.26739767   0.48863585   0.36847978  -0.26739767   0.75603352       128000 
  357000     0.502222  -0.26630131  -0.26630131   0.48701631   0.37500251  -0.26630131   0.75331762       128000 
  358000   0.50283457  -0.26793872  -0.26793872   0.48629775   0.36776648  -0.26793872   0.75423647       128000 
  359000   0.49824772  -0.27071472  -0.27071472    0.4766416    0.3581099  -0.27071472   0.74735632       128000 
  360000   0.49929902  -0.27014914  -0.27014914    0.4787841   0.36503753  -0.27014914   0.74893324       128000 
  361000   0.50186795  -0.26754467  -0.26754467   0.48524189     0.364535  -0.26754467   0.75278656       128000 
  362000    0.5003141  -0.26812033  -0.26812033    0.4823355   0.36632376  -0.26812033   0.75045584       128000 
  363000   0.49805984  -0.26875853  -0.26875853   0.47831598   0.36241086  -0.26875853   0.74707451       128000 
  364000   0.49723692  -0.27003798  -0.27003798   0.47580218   0.36236756  -0.27003798   0.74584016       128000 
  365000   0.49744159  -0.26876008  -0.26876008   0.47738707   0.36842552  -0.26876008   0.74614716       128000 
  366000   0.49764288  -0.26898994  -0.26898994   0.47745915   0.36198021  -0.26898994   0.74644909       128000 
  367000   0.49563421  -0.26735389  -0.26735389   0.47608225   0.37247583  -0.26735389   0.74343614       128000 
  368000   0.49688041   -0.2702589   -0.2702589    0.4750465    0.3579145   -0.2702589    0.7453054       128000 
  369000   0.49961395  -0.27134112  -0.27134112   0.47806452   0.35857822  -0.27134112   0.74940564       128000 
  370000   0.49991854  -0.26668341  -0.26668341   0.48317909   0.37070323  -0.26668341    0.7498625       128000 
  371000   0.50154716  -0.26917282  -0.26917282   0.48313256    0.3672195  -0.26917282   0.75230539       128000 
  372000   0.50125164  -0.26840306  -0.26840306   0.48345905   0.36734265  -0.26840306   0.75186211       128000 
  373000   0.50137026  -0.26768788  -0.26768788   0.48435215   0.36960739  -0.26768788   0.75204004       128000 
  374000   0.49909715  -0.26897869  -0.26897869   0.47965176   0.36621413  -0.26897869   0.74863045       128000 
  375000   0.50114009   -0.2662894   -0.2662894    0.4854054   0.37267526   -0.2662894   0.75169479       128000 
  376000    0.5018303  -0.26808893  -0.26808893   0.48464116   0.36757258  -0.26808893   0.75273009       128000 
  377000   0.50046361  -0.26639122  -0.26639122   0.48428886    0.3720757  -0.26639122   0.75068009       128000 
  378000   0.50165431  -0.26903852  -0.26903852   0.48342758   0.36892414  -0.26903852   0.75246611       128000 
  379000   0.50043396  -0.26793208  -0.26793208   0.48270354   0.36789182  -0.26793208   0.75063562       128000 
  380000   0.49917303  -0.26916645  -0.26916645   0.47957781   0.36610147  -0.26916645   0.74874426       128000 
  381000   0.49824424   -0.2668556   -0.2668556   0.48049551   0.37250066   -0.2668556   0.74735111       128000 
  382000   0.50274579  -0.26747467  -0.26747467   0.48662862   0.36889434  -0.26747467   0.75410329       128000 
  383000   0.50293538   -0.2684064   -0.2684064   0.48598127   0.37099007   -0.2684064   0.75438767       128000 
  384000   0.50440812  -0.26925716  -0.26925716   0.48733959   0.36580148  -0.26925716   0.75659675       128000 
  385000   0.50106575  -0.26820602  -0.26820602   0.48337728   0.37139778  -0.26820602   0.75158329       128000 
  386000    0.5042649  -0.27051978  -0.27051978   0.48586214   0.36507696  -0.27051978   0.75638192       128000 
  387000   0.50094741  -0.26733745  -0.26733745   0.48406833   0.37213832  -0.26733745   0.75140578       128000 
  388000   0.50076537   -0.2686375   -0.2686375   0.48249523   0.36788104   -0.2686375   0.75113272       128000 
  389000   0.49790242  -0.26898433  -0.26898433   0.47785406   0.35974961  -0.26898433   0.74683838       128000 
  390000   0.49964443  -0.26672142  -0.26672142   0.48272992   0.37706348  -0.26672142   0.74945134       128000 
  391000   0.50317848  -0.26924138  -0.26924138   0.48551094   0.36254856  -0.26924138   0.75475231       128000 
  392000   0.49821035  -0.26800832  -0.26800832   0.47929195     0.368832  -0.26800832   0.74730028       128000 
  393000   0.49898149  -0.26801301  -0.26801301   0.48044395   0.36384296  -0.26801301   0.74845697       128000 
  394000   0.50030667  -0.26846471  -0.26846471   0.48197998   0.37223941  -0.26846471   0.75044469       128000 
  395000   0.50051691  -0.26657808  -0.26657808   0.48418196   0.37025894  -0.26657808   0.75076004       128000 
  396000   0.50064076  -0.26911277  -0.26911277   0.48183304   0.36277204  -0.26911277   0.75094582       128000 
  397000   0.49916246  -0.26871813  -0.26871813   0.48001028   0.36684925  -0.26871813   0.74872841       128000 
  398000   0.50070865  -0.26718124  -0.26718124   0.48386641   0.37246806  -0.26718124   0.75104764       128000 
  399000   0.50033734  -0.26945714  -0.26945714   0.48103355   0.36144703  -0.26945714   0.75049069       128000 
  400000   0.49753909  -0.26812381  -0.26812381   0.47816961   0.36384497  -0.26812381   0.74629341       128000 
  401000   0.50057813  -0.26889774  -0.26889774   0.48195414   0.36732515  -0.26889774   0.75085188       128000 
  402000   0.50015435  -0.26945334  -0.26945334   0.48076288   0.36679128  -0.26945334   0.75021622       128000 
  403000   0.49976348  -0.26710182  -0.26710182   0.48252809   0.36657581  -0.26710182   0.74962991       128000 
  404000   0.50179899  -0.26728465  -0.26728465   0.48539847   0.36990367  -0.26728465   0.75268312       128000 
  405000    0.5011174   -0.2680428   -0.2680428   0.48361797   0.36633014   -0.2680428   0.75166077       128000 
  406000   0.50005842  -0.26718909  -0.26718909   0.48288323   0.36966901  -0.26718909   0.75007232       128000 
  407000   0.50062504  -0.27063988  -0.27063988   0.48028235   0.36630122  -0.27063988   0.75092223       128000 
  408000   0.49722787  -0.26789758  -0.26789758     0.477929    0.3653677  -0.26789758   0.74582658       128000 
  409000   0.49787894  -0.26593641  -0.26593641   0.48086676   0.37070444  -0.26593641   0.74680317       128000 
  410000   0.49905511   -0.2672992   -0.2672992   0.48126818   0.36911938   -0.2672992   0.74856739       128000 
  411000   0.49794394  -0.26851513  -0.26851513   0.47838553   0.36796049  -0.26851513   0.74690066       128000 
  412000   0.50259279  -0.26837028  -0.26837028   0.48550352   0.36626923  -0.26837028    0.7538738       128000 
  413000   0.50021243  -0.26920343  -0.26920343   0.48109991   0.36537559  -0.26920343   0.75030334       128000 
  414000    0.4981285   -0.2685519   -0.2685519   0.47862561   0.36755465   -0.2685519   0.74717751       128000 
  415000   0.49757646  -0.26891956  -0.26891956   0.47742989   0.36973136  -0.26891956   0.74634945       128000 
  416000   0.50062735  -0.26719623  -0.26719623   0.48372947   0.37689936  -0.26719623    0.7509257       128000 
  417000   0.49842959  -0.26880055  -0.26880055   0.47882858   0.36676817  -0.26880055   0.74762913       128000 
  418000   0.49817905  -0.26843942  -0.26843942   0.47881391    0.3628066  -0.26843942   0.74725332       128000 
  419000   0.49684262  -0.26881637  -0.26881637   0.47643235   0.36685252  -0.26881637   0.74524872       128000 
  420000   0.49909387  -0.26773594  -0.26773594   0.48088959   0.36793436  -0.26773594   0.74862553       128000 
  421000   0.50110495  -0.26781297  -0.26781297   0.48382911   0.37138369  -0.26781297   0.75164208       128000 
  422000   0.49947877  -0.26872616  -0.26872616    0.4804767   0.36429717  -0.26872616   0.74920286       128000 
  423000   0.50164247  -0.26645045  -0.26645045    0.4859979   0.37038596  -0.26645045   0.75244835       128000 
  424000   0.49983093  -0.26849333  -0.26849333   0.48123777   0.36629377  -0.26849333   0.74973109       128000 
  425000   0.50090527  -0.26849863  -0.26849863   0.48284394   0.36308415  -0.26849863   0.75134258       128000 
  426000   0.50243108  -0.26786248  -0.26786248   0.48576875   0.36686096  -0.26786248   0.75363123       128000 
  427000   0.50200703  -0.26885614  -0.26885614   0.48413904    0.3686791  -0.26885614   0.75299518       128000 
  428000    0.5003446  -0.26850023  -0.26850023   0.48200136   0.36698468  -0.26850023   0.75050159       128000 
  429000    0.4988053  -0.27045437  -0.27045437   0.47773831   0.36115773  -0.27045437   0.74819268       128000 
  430000   0.49846239  -0.26920484  -0.26920484   0.47847348   0.36546424  -0.26920484   0.74767833       128000 
  431000   0.49633894  -0.26953821  -0.26953821   0.47495501    0.3639819  -0.26953821   0.74449321       128000 
  432000   0.49694245  -0.26867141  -0.26867141   0.47672706   0.36821672  -0.26867141   0.74539847       128000 
  433000   0.50163114  -0.27109111  -0.27109111   0.48134024   0.35902209  -0.27109111   0.75243136       128000 
  434000   0.49808532  -0.26815364  -0.26815364   0.47895908   0.37121272  -0.26815364   0.74711273       128000 
  435000   0.50028777  -0.26749766  -0.26749766   0.48291868   0.37065726  -0.26749766   0.75041634       128000 
  436000   0.50030273  -0.26804758  -0.26804758    0.4823912     0.367656  -0.26804758   0.75043878       128000 
  437000   0.50077322  -0.26949533  -0.26949533   0.48164917   0.36776719  -0.26949533    0.7511445       128000 
  438000   0.50017955  -0.26866793  -0.26866793   0.48158608   0.36782316  -0.26866793   0.75025401       128000 
  439000   0.50229767   -0.2692691   -0.2692691   0.48416202   0.36942779   -0.2692691   0.75343113       128000 
  440000   0.50238325  -0.26799256  -0.26799256   0.48556694   0.36760038  -0.26799256    0.7535595       128000 
  441000   0.50180198  -0.26798182  -0.26798182   0.48470578   0.37206913  -0.26798182    0.7526876       128000 
  442000   0.50120488  -0.26797077  -0.26797077   0.48382121   0.37035614  -0.26797077   0.75179198       128000 
  443000   0.49747667  -0.26719168  -0.26719168   0.47900809   0.36722088  -0.26719168   0.74619978       128000 
  444000   0.49675896  -0.26725932  -0.26725932   0.47786391   0.36870645  -0.26725932   0.74512323       128000 
  445000   0.49935938   -0.2689872   -0.2689872   0.48003659   0.37214877   -0.2689872   0.74902379       128000 
  446000   0.49916353  -0.26841194  -0.26841194   0.48031808   0.36799216  -0.26841194   0.74873002       128000 
  447000    0.4986196  -0.26778583  -0.26778583    0.4801283   0.37142306  -0.26778583   0.74791413       128000 
  448000   0.49955956   -0.2691086   -0.2691086   0.48021546   0.36845471   -0.2691086   0.74932405       128000 
  449000    0.5000985  -0.26926197  -0.26926197   0.48087047   0.36622754  -0.26926197   0.75013244       128000 
  450000    0.5000126  -0.26747314  -0.26747314   0.48253046    0.3698651  -0.26747314   0.75000359       128000 
  451000   0.49828187  -0.26907697  -0.26907697   0.47833059    0.3621194  -0.26907697   0.74740756       128000 
  452000   0.49870611  -0.26577002  -0.26577002   0.48227388   0.37312312  -0.26577002   0.74804389       128000 
  453000   0.50026927  -0.26868018  -0.26868018   0.48170841   0.37152743  -0.26868018   0.75038859       128000 
  454000   0.49741954  -0.26960834  -0.26960834   0.47650574   0.35748988  -0.26960834   0.74611408       128000 
  455000   0.49764834  -0.26749217  -0.26749217    0.4789651   0.36623753  -0.26749217   0.74645728       128000 
  456000   0.49913964  -0.27029227  -0.27029227   0.47840191   0.35892527  -0.27029227   0.74869418       128000 
  457000   0.49890693  -0.26812551  -0.26812551   0.48021961   0.36642702  -0.26812551   0.74834512       128000 
  458000   0.49910007   -0.2690926   -0.2690926   0.47954222   0.36781198   -0.2690926   0.74863483       128000 
  459000   0.50142336  -0.26860026  -0.26860026   0.48351943   0.36581342  -0.26860026   0.75211969       128000 
  460000    0.4989644  -0.26697255  -0.26697255   0.48145878   0.37125541  -0.26697255   0.74843133       128000 
  461000   0.50177119  -0.26738809  -0.26738809   0.48525334   0.36642302  -0.26738809   0.75264142       128000 
  462000   0.49969408  -0.26967656  -0.26967656   0.47984927   0.36731046  -0.26967656   0.74952582       128000 
  463000   0.49882423  -0.26797799  -0.26797799   0.48024309    0.3719053  -0.26797799   0.74822108       128000 
  464000   0.49886303   -0.2685749   -0.2685749   0.47970436   0.36823691   -0.2685749   0.74827927       128000 
  465000   0.49790863  -0.26879855  -0.26879855   0.47804915   0.36913468  -0.26879855    0.7468477       128000 
  466000     0.500757  -0.26820226  -0.26820226   0.48291792   0.37095957  -0.26820226   0.75112017       128000 
  467000   0.49877295  -0.26815089  -0.26815089   0.47999327   0.36682469  -0.26815089   0.74814416       128000 
  468000   0.50020196  -0.26937411  -0.26937411   0.48091353    0.3668952  -0.26937411   0.75028763       128000 
  469000   0.49724518  -0.26845522  -0.26845522   0.47739733   0.36389366  -0.26845522   0.74585255       128000 
  470000   0.49992691  -0.26767421  -0.26767421   0.48220085   0.36508552  -0.26767421   0.74987507       128000 
  471000   0.49826694  -0.26965425  -0.26965425    0.4777309   0.36161625  -0.26965425   0.74738515       128000 
  472000   0.50023964  -0.26953332  -0.26953332   0.48081084   0.36156564  -0.26953332   0.75034415       128000 
  473000   0.49712761  -0.26801812  -0.26801812   0.47765809   0.36452682  -0.26801812    0.7456762       128000 
  474000   0.50053252  -0.26871783  -0.26871783   0.48206562   0.36292412  -0.26871783   0.75078345       128000 
  475000       0.4995   -0.2685683   -0.2685683   0.48066641    0.3633541   -0.2685683   0.74923471       128000 
  476000   0.50331774  -0.26795548  -0.26795548   0.48700573   0.37061763  -0.26795548   0.75496121       128000 
  477000   0.50255405  -0.26742351  -0.26742351   0.48639218    0.3690633  -0.26742351   0.75381569       128000 
  478000   0.50184581  -0.26609538  -0.26609538   0.48665797   0.37503667  -0.26609538   0.75275335       128000 
  479000   0.50158471  -0.26664204  -0.26664204   0.48571966   0.37153242  -0.26664204    0.7523617       128000 
  480000   0.49923736  -0.26760029  -0.26760029   0.48124047   0.36984248  -0.26760029   0.74884076       128000 
  481000   0.49980318  -0.26663579  -0.26663579   0.48305368   0.36919111  -0.26663579   0.74968948       128000 
  482000   0.49942584  -0.26932103  -0.26932103   0.47980244   0.36747081  -0.26932103   0.74912347       128000 
  483000   0.50030405  -0.26773127  -0.26773127   0.48270949   0.37009333  -0.26773127   0.75044076       128000 
  484000   0.50282775  -0.26749115  -0.26749115   0.48673508   0.37120105  -0.26749115   0.75422623       128000 
  485000   0.49954514  -0.26763672  -0.26763672   0.48166569   0.36994668  -0.26763672   0.74930241       128000 
  486000   0.49886083  -0.26617034  -0.26617034   0.48210563   0.37168357  -0.26617034   0.74827597       128000 
  487000   0.49969651  -0.26615435  -0.26615435   0.48337512    0.3707647  -0.26615435   0.74952947       128000 
  488000   0.50051244  -0.26947341  -0.26947341   0.48127993    0.3645794  -0.26947341   0.75075334       128000 
  489000   0.49917324  -0.26749786  -0.26749786   0.48124672   0.36906909  -0.26749786   0.74874458       128000 
  490000    0.5009589  -0.27102225  -0.27102225   0.48040076   0.36047409  -0.27102225   0.75142301       128000 
  491000   0.49963785  -0.26820171  -0.26820171   0.48123978   0.36752136  -0.26820171   0.74944149       128000 
  492000    0.5013313  -0.26580995  -0.26580995   0.48617166   0.37033012  -0.26580995   0.75198161       128000 
  493000   0.50189426  -0.26740081  -0.26740081   0.48542522   0.36709956  -0.26740081   0.75282603       128000 
  494000   0.50088851  -0.26830884  -0.26830884   0.48300858   0.37047287  -0.26830884   0.75131742       128000 
  495000   0.49843719  -0.26865003  -0.26865003    0.4789905   0.36462176  -0.26865003   0.74764053       128000 
  496000   0.49999064  -0.26904148  -0.26904148   0.48092917   0.36528521  -0.26904148   0.74997065       128000 
  497000   0.50330967   -0.2678861   -0.2678861     0.487063   0.36696138   -0.2678861    0.7549491       128000 
  498000   0.50087419  -0.26883381  -0.26883381   0.48246215   0.36605776  -0.26883381   0.75129596       128000 
  499000   0.50082075   -0.2684028   -0.2684028   0.48281299    0.3660832   -0.2684028   0.75121579       128000 
  500000   0.49898447  -0.26961783  -0.26961783   0.47884359   0.36281593  -0.26961783   0.74846142       128000 
  501000   0.49699202  -0.26724986  -0.26724986   0.47822296   0.36493827  -0.26724986   0.74547282       128000 
  502000   0.50226392  -0.26824988  -0.26824988   0.48513062   0.36893901  -0.26824988    0.7533805       128000 
  503000   0.50166228  -0.26905209  -0.26905209   0.48342596   0.36917888  -0.26905209   0.75247806       128000 
  504000   0.49785619  -0.26715819  -0.26715819   0.47961086   0.37043297  -0.26715819   0.74676904       128000 
  505000   0.49790142  -0.26731135  -0.26731135   0.47952554   0.36834833  -0.26731135   0.74683689       128000 
  506000   0.49871463  -0.26610881  -0.26610881   0.48194787   0.37472312  -0.26610881   0.74805668       128000 
  507000   0.50311699  -0.26829521  -0.26829521   0.48636487   0.36704301  -0.26829521   0.75466009       128000 
  508000   0.50107814  -0.26647024  -0.26647024   0.48513163   0.36984763  -0.26647024   0.75160188       128000 
  509000   0.50421269  -0.26844774  -0.26844774   0.48785587   0.36844732  -0.26844774   0.75630361       128000 
  510000   0.50129552  -0.26659583  -0.26659583    0.4853321   0.36627876  -0.26659583   0.75192793       128000 
  511000   0.50044715  -0.26790084  -0.26790084   0.48275456   0.36909514  -0.26790084    0.7506554       128000 
  512000   0.50321834  -0.26867081  -0.26867081   0.48614129   0.36934414  -0.26867081    0.7548121       128000 
  513000    0.4970563   -0.2668661   -0.2668661   0.47870313   0.36956559   -0.2668661   0.74556923       128000 
  514000   0.49909635  -0.26915491  -0.26915491   0.47947433   0.36365061  -0.26915491   0.74862924       128000 
  515000   0.49902747  -0.26661385  -0.26661385   0.48191208   0.37252654  -0.26661385   0.74852593       128000 
  516000   0.49987776   -0.2684085   -0.2684085   0.48139284   0.36614026   -0.2684085   0.74980134       128000 
  517000   0.49830308   -0.2667438   -0.2667438   0.48069557   0.36882433   -0.2667438   0.74743937       128000 
  518000   0.49752556  -0.26822315  -0.26822315   0.47804996   0.36671275  -0.26822315    0.7462731       128000 
  519000   0.49748901  -0.26731812  -0.26731812   0.47890017   0.36974365  -0.26731812   0.74621829       128000 
  520000    0.5024875  -0.26973518  -0.26973518   0.48398068   0.36967392  -0.26973518   0.75371586       128000 
  521000   0.50018603  -0.26902662  -0.26902662   0.48123712   0.36157764  -0.26902662   0.75026374       128000 
  522000   0.49897472  -0.26872629  -0.26872629   0.47972052   0.36750807  -0.26872629   0.74844681       128000 
  523000   0.49758991  -0.26920179  -0.26920179   0.47716784   0.36539393  -0.26920179   0.74636963       128000 
  524000   0.49760875  -0.26858776  -0.26858776   0.47781013    0.3627531  -0.26858776   0.74639789       128000 
  525000   0.49588554  -0.26834356  -0.26834356   0.47546956   0.36745544  -0.26834356   0.74381312       128000 
  526000   0.50092908  -0.26700014  -0.26700014   0.48437814   0.36981804  -0.26700014   0.75137828       128000 
  527000   0.50165232  -0.26597051  -0.26597051   0.48649261   0.37804001  -0.26597051   0.75246313       128000 
  528000   0.49987829  -0.26865753  -0.26865753    0.4811446   0.36830201  -0.26865753   0.74980213       128000 
  529000   0.49940869  -0.26855258  -0.26855258   0.48054517   0.36745019  -0.26855258   0.74909775       128000 
  530000   0.50147904   -0.2696087   -0.2696087    0.4825945   0.36262888   -0.2696087    0.7522032       128000 
  531000   0.49958635  -0.26745839  -0.26745839   0.48190584   0.36751369  -0.26745839   0.74936423       128000 
  532000   0.50263305  -0.26899812  -0.26899812   0.48493607   0.36849767  -0.26899812   0.75393419       128000 
  533000   0.49914499  -0.26772484  -0.26772484   0.48097736    0.3633072  -0.26772484    0.7487022       128000 
  534000   0.50018012  -0.26864985  -0.26864985   0.48160502   0.37034329  -0.26864985   0.75025487       128000 
  535000   0.50131966  -0.26847009  -0.26847009   0.48349406   0.37202229  -0.26847009   0.75196414       128000 
  536000   0.50001044   -0.2672257   -0.2672257   0.48277465   0.36943616   -0.2672257   0.75000035       128000 
  537000   0.49837044  -0.26749303  -0.26749303   0.48004738   0.36996707  -0.26749303   0.74754041       128000 
  538000   0.49866204  -0.26820435  -0.26820435   0.47977345   0.36492197  -0.26820435    0.7479778       128000 
  539000     0.502308  -0.26843373  -0.26843373    0.4850129   0.36844842  -0.26843373   0.75344663       128000 
  540000   0.49933728  -0.26591811  -0.26591811   0.48307253   0.37585125  -0.26591811   0.74899064       128000 
  541000   0.50102179  -0.27103987  -0.27103987   0.48047748   0.35800226  -0.27103987   0.75151734       128000 
  542000     0.499766  -0.26971644  -0.26971644   0.47991726   0.36611907  -0.26971644   0.74963371       128000 
  543000   0.49740614  -0.26876258  -0.26876258   0.47733141   0.36331673  -0.26876258   0.74609399       128000 
  544000   0.49831101  -0.26960397  -0.26960397   0.47784729   0.36396327  -0.26960397   0.74745126       128000 
  545000   0.49933908  -0.26905456  -0.26905456   0.47993878   0.36399081  -0.26905456   0.74899334       128000 
  546000   0.49994076  -0.26717835  -0.26717835   0.48271749   0.36909514  -0.26717835   0.74989584       128000 
  547000   0.50071703  -0.26763904  -0.26763904   0.48342118   0.36847694  -0.26763904   0.75106022       128000 
  548000   0.49841921  -0.26851053  -0.26851053   0.47910303   0.36870906  -0.26851053   0.74761355       128000 
  549000   0.49762926  -0.26579272  -0.26579272   0.48063593   0.37544739  -0.26579272   0.74642866       128000 
  550000   0.49780917  -0.26676443  -0.26676443   0.47993409   0.37085192  -0.26676443   0.74669851       128000 
  551000   0.50147227  -0.26891591  -0.26891591   0.48327715   0.36302446  -0.26891591   0.75219306       128000 
  552000   0.49856942  -0.26999847  -0.26999847   0.47784039   0.36504512  -0.26999847   0.74783886       128000 
  553000   0.49957303  -0.26876825  -0.26876825     0.480576   0.36392984  -0.26876825   0.74934425       128000 
  554000   0.49926236  -0.26813524  -0.26813524   0.48074301   0.36905212  -0.26813524   0.74887826       128000 
  555000    0.4981425  -0.26759161  -0.26759161    0.4796069   0.37365856  -0.26759161    0.7471985       128000 
  556000   0.50036444  -0.27012683  -0.27012683   0.48040451   0.36177406  -0.27012683   0.75053135       128000 
  557000   0.49987995  -0.26941747  -0.26941747   0.48038715   0.36644199  -0.26941747   0.74980462       128000 
  558000   0.50005925  -0.27045539  -0.27045539   0.47961818   0.36497202  -0.27045539   0.75007357       128000 
  559000    0.5009192   -0.2699649   -0.2699649   0.48139856   0.36783164   -0.2699649   0.75136346       128000 
  560000   0.49925493  -0.26827879  -0.26827879   0.48058832    0.3676416  -0.26827879   0.74886712       128000 
  561000   0.50047864  -0.26783258  -0.26783258   0.48287006   0.36470494  -0.26783258   0.75070265       128000 
  562000   0.50229106  -0.26834132  -0.26834132    0.4850799    0.3709448  -0.26834132   0.75342121       128000 
  563000   0.50182642  -0.26727095  -0.26727095   0.48545332   0.37131669  -0.26727095   0.75272427       128000 
  564000   0.49726349  -0.27017037  -0.27017037   0.47570964   0.36534078  -0.27017037   0.74588001       128000 
  565000   0.49777919   -0.2681459   -0.2681459   0.47850764   0.36610086   -0.2681459   0.74665354       128000 
  566000   0.49920644   -0.2687508   -0.2687508   0.48004359   0.36784844   -0.2687508   0.74879438       128000 
  567000   0.49916892  -0.26836889  -0.26836889    0.4803692   0.36789997  -0.26836889   0.74873809       128000 
  568000   0.50139681  -0.26928729  -0.26928729   0.48279258   0.36542018  -0.26928729   0.75207987       128000 
  569000    0.4996931  -0.26826981  -0.26826981   0.48125455   0.36642506  -0.26826981   0.74952435       128000 
  570000   0.50173083  -0.27027388  -0.27027388   0.48230701   0.36419828  -0.27027388   0.75258089       128000 
  571000     0.500361  -0.26868628  -0.26868628   0.48183991   0.36867364  -0.26868628   0.75052619       128000 
  572000   0.50042394  -0.26768964  -0.26768964   0.48293095   0.36976663  -0.26768964   0.75062059       128000 
  573000   0.50310757  -0.26895911  -0.26895911   0.48568684   0.37036635  -0.26895911   0.75464595       128000 
  574000   0.50151159  -0.26796896  -0.26796896   0.48428307    0.3731968  -0.26796896   0.75225203       128000 
  575000   0.50104286   -0.2672123   -0.2672123   0.48433665   0.36801553   -0.2672123   0.75154895       128000 
  576000   0.50015571  -0.26844098  -0.26844098   0.48177727   0.36655089  -0.26844098   0.75021825       128000 
  577000   0.49949263   -0.2691512   -0.2691512   0.48007246   0.36740324   -0.2691512   0.74922366       128000 
  578000   0.49982224  -0.26931042  -0.26931042   0.48040764   0.36439444  -0.26931042   0.74971806       128000 
  579000   0.49907834   -0.2674249   -0.2674249   0.48117734   0.36903901   -0.2674249   0.74860224       128000 
  580000   0.49869295  -0.26649692  -0.26649692   0.48152723   0.37441917  -0.26649692   0.74802415       128000 
  581000   0.49873622  -0.26909348  -0.26909348   0.47899559   0.36884107  -0.26909348   0.74808907       128000 
  582000   0.50294553  -0.26684187  -0.26684187   0.48756103   0.36640596  -0.26684187    0.7544029       128000 
  583000   0.49958973  -0.26759195  -0.26759195   0.48177735   0.37078266  -0.26759195    0.7493693       128000 
  584000   0.50160951  -0.26770167  -0.26770167   0.48469723   0.37079408  -0.26770167   0.75239891       128000 
  585000   0.50146714  -0.26845664  -0.26845664   0.48372871   0.36723649  -0.26845664   0.75218535       128000 
  586000   0.50173832  -0.26927558  -0.26927558   0.48331653   0.36755591  -0.26927558   0.75259212       128000 
  587000   0.49949294  -0.26851828  -0.26851828   0.48070584   0.36600512  -0.26851828   0.74922411       128000 
  588000   0.50189342  -0.26794321  -0.26794321   0.48488156   0.37027317  -0.26794321   0.75282477       128000 
  589000   0.50309463  -0.26949889  -0.26949889   0.48512765   0.36486421  -0.26949889   0.75462654       128000 
  590000   0.50160715  -0.26687511  -0.26687511   0.48552026   0.37440248  -0.26687511   0.75239537       128000 
  591000   0.50217557  -0.26749942  -0.26749942   0.48574856    0.3682221  -0.26749942   0.75324798       128000 
  592000   0.50136773   -0.2677554   -0.2677554   0.48428085   0.36794686   -0.2677554   0.75203625       128000 
  593000    0.5026731  -0.26922671  -0.26922671   0.48476755   0.36213999  -0.26922671   0.75399427       128000 
  594000   0.49744801  -0.26717954  -0.26717954   0.47897725    0.3718551  -0.26717954   0.74615679       128000 
  595000    0.4996358  -0.26881258  -0.26881258   0.48062583   0.36850736  -0.26881258   0.74943841       128000 
  596000   0.50173143  -0.26826391  -0.26826391   0.48431789   0.36307821  -0.26826391   0.75258179       128000 
  597000   0.49968835  -0.26770129  -0.26770129   0.48181593   0.36771066  -0.26770129   0.74951722       128000 
  598000   0.49867591  -0.26632828  -0.26632828   0.48167032   0.37189583  -0.26632828    0.7479986       128000 
  599000   0.49765329  -0.26676015  -0.26676015   0.47970455   0.36882749  -0.26676015    0.7464647       128000 
  600000   0.50240505  -0.26910754  -0.26910754   0.48448466    0.3680836  -0.26910754    0.7535922       128000 
  601000   0.50229818  -0.26752128  -0.26752128   0.48591061   0.36982905  -0.26752128   0.75343189       128000 
  602000   0.50022531  -0.26782325  -0.26782325   0.48249939   0.37087192  -0.26782325   0.75032265       128000 
  603000   0.50447096  -0.26756655  -0.26756655   0.48912444   0.37159722  -0.26756655   0.75669099       128000 
  604000   0.50127522  -0.26901774  -0.26901774   0.48287976   0.36523445  -0.26901774   0.75189749       128000 
  605000   0.50022766  -0.26928414  -0.26928414   0.48104203   0.36468906  -0.26928414   0.75032617       128000 
  606000    0.4984382  -0.26804945  -0.26804945   0.47959259    0.3708779  -0.26804945   0.74764204       128000 
  607000   0.50080382  -0.26951818  -0.26951818   0.48167222   0.36599701  -0.26951818    0.7511904       128000 
  608000   0.49988565  -0.26939369  -0.26939369   0.48041948    0.3620411  -0.26939369   0.74981317       128000 
  609000   0.50088497  -0.26703004  -0.26703004   0.48428208   0.36851193  -0.26703004   0.75131212       128000 
  610000   0.49923312  -0.26890662  -0.26890662   0.47992777   0.36523981  -0.26890662   0.74883439       128000 
  611000   0.50141241  -0.26609629  -0.26609629   0.48600697   0.37040712  -0.26609629   0.75210326       128000 
  612000   0.49983112  -0.26760064  -0.26760064   0.48213073   0.36767674  -0.26760064   0.74973138       128000 
  613000   0.50141515     -0.26708     -0.26708   0.48502737   0.37112667     -0.26708   0.75210737       128000 
  614000   0.49964576   -0.2680606   -0.2680606   0.48139274   0.36773817   -0.2680606   0.74945334       128000 
  615000   0.49907036  -0.26845917  -0.26845917    0.4801311    0.3693418  -0.26845917   0.74859027       128000 
  616000   0.50046634  -0.26981444  -0.26981444   0.48086976   0.36288597  -0.26981444   0.75068419       128000 
  617000   0.49986183  -0.26771542  -0.26771542   0.48206202   0.36883095  -0.26771542   0.74977744       128000 
  618000   0.50263801  -0.26707743  -0.26707743    0.4868642   0.37440396  -0.26707743   0.75394163       128000 
  619000   0.50516301  -0.26640321  -0.26640321   0.49132584   0.37842517  -0.26640321   0.75772905       128000 
  620000    0.5038741  -0.26692146  -0.26692146   0.48887427   0.37247529  -0.26692146   0.75579573       128000 
  621000   0.50158472   -0.2686405   -0.2686405   0.48372122   0.36923119   -0.2686405   0.75236172       128000 
  622000   0.49939964  -0.26655783  -0.26655783   0.48252635   0.36941804  -0.26655783   0.74908418       128000 
  623000   0.50032202  -0.26906326  -0.26906326   0.48140445   0.36415988  -0.26906326   0.75046772       128000 
  624000    0.5012262  -0.26914988  -0.26914988   0.48267407   0.36290246  -0.26914988   0.75182395       128000 
  625000   0.50016994  -0.26625298  -0.26625298   0.48398661   0.37141686  -0.26625298   0.75023959       128000 
  626000    0.5008962  -0.26408784  -0.26408784   0.48724112    0.3817628  -0.26408784   0.75132896       128000 
  627000   0.49994563  -0.26914268  -0.26914268   0.48076045   0.36501132  -0.26914268   0.74990314       128000 
  628000   0.49902389  -0.26538412  -0.26538412   0.48313644   0.37436542  -0.26538412   0.74852056       128000 
  629000   0.49857148  -0.26917024  -0.26917024   0.47867171   0.37058109  -0.26917024   0.74784195       128000 
  630000   0.49803932  -0.26721895  -0.26721895   0.47982478   0.36395793  -0.26721895   0.74704373       128000 
  631000   0.49925934  -0.26925748  -0.26925748   0.47961624   0.36165453  -0.26925748   0.74887372       128000 
  632000   0.50211061  -0.26917143  -0.26917143   0.48397911   0.36578127  -0.26917143   0.75315054       128000 
  633000   0.49875147  -0.26794187  -0.26794187   0.48017007   0.36885448  -0.26794187   0.74811194       128000 
  634000   0.49899607  -0.26683033  -0.26683033    0.4816485   0.37360193  -0.26683033   0.74847883       128000 
  635000   0.49916979     -0.26868     -0.26868    0.4800594   0.36798936     -0.26868    0.7487394       128000 
  636000    0.4975953  -0.26897669  -0.26897669   0.47740104   0.36274408  -0.26897669   0.74637772       128000 
  637000   0.50079804  -0.26681532  -0.26681532   0.48436642   0.37045789  -0.26681532   0.75118174       128000 
  638000   0.50560936  -0.26915294  -0.26915294   0.48924562   0.36656249  -0.26915294   0.75839857       128000 
  639000   0.50102027  -0.26808134  -0.26808134   0.48343373   0.37341596  -0.26808134   0.75151507       128000 
  640000    0.5028539   -0.2671094   -0.2671094   0.48715606   0.37383262   -0.2671094   0.75426545       128000 
  641000   0.50222144  -0.26682926  -0.26682926   0.48648752   0.37786132  -0.26682926   0.75331678       128000 
  642000   0.49928548  -0.26773144  -0.26773144   0.48118149   0.37236384  -0.26773144   0.74891293       128000 
  643000   0.50149673  -0.26774355  -0.26774355    0.4844862   0.37078569  -0.26774355   0.75222975       128000 
  644000   0.50285444  -0.26961644  -0.26961644   0.48464983    0.3659085  -0.26961644   0.75426627       128000 
  645000   0.49953249  -0.26864296  -0.26864296   0.48064049   0.36674837  -0.26864296   0.74928345       128000 
  646000   0.49875996  -0.26893768  -0.26893768   0.47918698   0.36726785  -0.26893768   0.74812467       128000 
  647000   0.49608388   -0.2658624   -0.2658624   0.47824823   0.37520527   -0.2658624   0.74411064       128000 
  648000   0.50098828  -0.26719028  -0.26719028    0.4842768   0.37038814  -0.26719028   0.75146708       128000 
  649000     0.500349  -0.26872351  -0.26872351   0.48178468   0.36678149  -0.26872351   0.75050819       128000 
  650000   0.49917923  -0.26760291  -0.26760291   0.48115065   0.36764368  -0.26760291   0.74875356       128000 
  651000    0.5006413  -0.26689392  -0.26689392   0.48405269   0.36948095  -0.26689392   0.75094662       128000 
  652000   0.50177501   -0.2668426   -0.2668426   0.48580456   0.36822076   -0.2668426   0.75264716       128000 
  653000   0.50261324  -0.26780695  -0.26780695   0.48609752   0.36753123  -0.26780695   0.75390447       128000 
  654000   0.50171951  -0.26700763  -0.26700763   0.48555627    0.3731105  -0.26700763   0.75256391       128000 
  655000   0.49959489  -0.26945791  -0.26945791   0.47991913   0.36200273  -0.26945791   0.74937704       128000 
  656000   0.49883548  -0.26789924  -0.26789924    0.4803387   0.36659495  -0.26789924   0.74823795       128000 
  657000    0.5005834  -0.26865311  -0.26865311   0.48220668   0.36922396  -0.26865311   0.75085978       128000 
  658000    0.4973947  -0.26866275  -0.26866275   0.47741408    0.3654237  -0.26866275   0.74607683       128000 
  659000   0.49854338  -0.26815017  -0.26815017   0.47964964   0.36872608  -0.26815017   0.74779982       128000 
  660000   0.50522163  -0.26910528  -0.26910528    0.4887117   0.37060757  -0.26910528   0.75781698       128000 
  661000   0.50494583  -0.26697048  -0.26697048   0.49043281   0.37227042  -0.26697048   0.75740329       128000 
  662000   0.50110354  -0.26675638  -0.26675638   0.48488359   0.37249994  -0.26675638   0.75163997       128000 
  663000   0.50098719  -0.26837326  -0.26837326   0.48309219   0.37057058  -0.26837326   0.75146544       128000 
  664000   0.50268677  -0.26748079  -0.26748079   0.48653397   0.37279863  -0.26748079   0.75401476       128000 
  665000   0.50114881  -0.26871301  -0.26871301   0.48299486   0.36223327  -0.26871301   0.75170787       128000 
  666000   0.49919669  -0.26808727  -0.26808727   0.48069249   0.36953796  -0.26808727   0.74877976       128000 
  667000   0.49993223  -0.26697207  -0.26697207   0.48291096   0.36852154  -0.26697207   0.74988303       128000 
  668000   0.49867493  -0.26853789  -0.26853789   0.47945924   0.36613482  -0.26853789   0.74799713       128000 
  669000   0.49978855  -0.26836997  -0.26836997   0.48129756    0.3684649  -0.26836997   0.74966753       128000 
  670000   0.49911323  -0.26767903  -0.26767903   0.48097554   0.37049212  -0.26767903   0.74865457       128000 
  671000   0.49995145  -0.26764955  -0.26764955   0.48226232    0.3734089  -0.26764955   0.74991187       128000 
  672000   0.49977418  -0.26782498  -0.26782498   0.48182099   0.36913243  -0.26782498   0.74964597       128000 
  673000   0.50344017  -0.26767975  -0.26767975   0.48746509   0.37346574  -0.26767975   0.75514484       128000 
  674000   0.49964677   -0.2658967   -0.2658967   0.48355816   0.37075562   -0.2658967   0.74945486       128000 
  675000   0.50025654  -0.26925994  -0.26925994   0.48110955   0.36519016  -0.26925994   0.75036949       128000 
  676000   0.49911346  -0.26651793  -0.26651793   0.48213699   0.36835091  -0.26651793   0.74865492       128000 
  677000   0.49907168  -0.26756735  -0.26756735    0.4810249   0.36566273  -0.26756735   0.74859225       128000 
  678000   0.49847972  -0.26778249  -0.26778249   0.47992183   0.36492181  -0.26778249   0.74770432       128000 
  679000   0.49950459  -0.26650247  -0.26650247   0.48273912   0.37045377  -0.26650247    0.7492416       128000 
  680000   0.49995232  -0.26840652  -0.26840652   0.48150665   0.36947928  -0.26840652   0.74991317       128000 
  681000   0.50241125  -0.26967476  -0.26967476   0.48392673   0.36470136  -0.26967476   0.75360149       128000 
  682000   0.50022455  -0.26813375  -0.26813375   0.48218777   0.36658483  -0.26813375   0.75032152       128000 
  683000   0.50050316  -0.26792982  -0.26792982    0.4828096   0.36941994  -0.26792982   0.75073942       128000 
  684000   0.49891133  -0.26792473  -0.26792473   0.48042699   0.36786836  -0.26792473   0.74835172       128000 
  685000   0.50054486  -0.26818833  -0.26818833   0.48261364   0.36858213  -0.26818833   0.75080197       128000 
  686000   0.49891437  -0.26956255  -0.26956255   0.47879374   0.36358363  -0.26956255   0.74835628       128000 
  687000   0.49858839   -0.2666688   -0.2666688   0.48119853   0.36984373   -0.2666688   0.74786733       128000 
  688000   0.50361628  -0.26985068  -0.26985068   0.48555831    0.3623706  -0.26985068     0.755409       128000 
  689000   0.50353953  -0.26960799  -0.26960799    0.4856859   0.36298203  -0.26960799   0.75529389       128000 
  690000   0.50275919  -0.26829617  -0.26829617   0.48582722   0.36894292  -0.26829617    0.7541234       128000 
  691000   0.49828235  -0.26700039  -0.26700039   0.48040789   0.37127801  -0.26700039   0.74740827       128000 
  692000   0.49906753  -0.26730165  -0.26730165   0.48128437   0.37042052  -0.26730165   0.74858602       128000 
  693000   0.50118365  -0.26901551  -0.26901551   0.48274462   0.36527898  -0.26901551   0.75176013       128000 
  694000   0.49928249  -0.26704103  -0.26704103   0.48186743   0.37040875  -0.26704103   0.74890846       128000 
  695000   0.50247568  -0.26506742  -0.26506742   0.48863072   0.37790342  -0.26506742   0.75369813       128000 
  696000   0.50353128  -0.26825049  -0.26825049   0.48703102   0.36766744  -0.26825049   0.75528151       128000 
  697000   0.50184223  -0.26931556  -0.26931556   0.48343242   0.36809803  -0.26931556   0.75274798       128000 
  698000    0.5008493  -0.26743382  -0.26743382    0.4838248   0.36727416  -0.26743382   0.75125861       128000 
  699000   0.50173808  -0.27007438  -0.27007438   0.48251739   0.36871091  -0.27007438   0.75259176       128000 
  700000   0.49860835  -0.26842375  -0.26842375   0.47947352    0.3670261  -0.26842375   0.74789727       128000 
  701000   0.50087188  -0.27010364  -0.27010364   0.48118885   0.35860385  -0.27010364   0.75129248       128000 
  702000   0.49932518   -0.2666464   -0.2666464   0.48232608   0.36873358   -0.2666464   0.74897248       128000 
  703000   0.50183969  -0.26728108  -0.26728108    0.4854631   0.37121647  -0.26728108   0.75274418       128000 
  704000   0.49885991  -0.26745289  -0.26745289   0.48082171    0.3689012  -0.26745289    0.7482746       128000 
  705000   0.49774272  -0.26994549  -0.26994549   0.47665335   0.36649518  -0.26994549   0.74659884       128000 
  706000   0.49876585  -0.26787064  -0.26787064   0.48026286   0.36634093  -0.26787064    0.7481335       128000 
  707000   0.50186761  -0.26805529  -0.26805529   0.48473077   0.36568311  -0.26805529   0.75278605       128000 
  708000   0.49969788  -0.27019182  -0.27019182   0.47933971    0.3636526  -0.27019182   0.74953153       128000 
  709000   0.49960844  -0.26910976  -0.26910976    0.4802876   0.36522021  -0.26910976   0.74939736       128000 
  710000   0.50016841  -0.26823952  -0.26823952   0.48199779   0.36953182  -0.26823952    0.7502373       128000 
  711000   0.49894617  -0.26856639  -0.26856639    0.4798376   0.36287719  -0.26856639   0.74840399       128000 
  712000   0.50171489  -0.26858759  -0.26858759   0.48396939     0.365613  -0.26858759   0.75255698       128000 
  713000   0.49945764  -0.26859775  -0.26859775   0.48057342   0.36244399  -0.26859775   0.74917117       128000 
  714000   0.49879277  -0.26839502  -0.26839502   0.47977887   0.36257766  -0.26839502   0.74817389       128000 
  715000   0.49985629  -0.26919244  -0.26919244   0.48057669   0.36540717  -0.26919244   0.74976913       128000 
  716000   0.49659675  -0.26905532  -0.26905532   0.47582461   0.36492013  -0.26905532   0.74487993       128000 
  717000   0.49596023  -0.27013236  -0.27013236   0.47379279   0.36473509  -0.27013236   0.74392516       128000 
  718000    0.4990344  -0.26993976  -0.26993976   0.47859658    0.3658519  -0.26993976   0.74853633       128000 
  719000   0.49758634   -0.2667262   -0.2667262   0.47963807   0.37162722   -0.2667262   0.74636428       128000 
  720000     0.500069  -0.26674048  -0.26674048   0.48334771   0.37555014  -0.26674048   0.75008819       128000 
  721000   0.50074471  -0.26719405  -0.26719405   0.48390769   0.36970134  -0.26719405   0.75110174       128000 
  722000   0.50026611  -0.26899089  -0.26899089   0.48139295   0.36534355  -0.26899089   0.75038385       128000 
  723000   0.50007642   -0.2688189   -0.2688189   0.48128043    0.3630298   -0.2688189   0.75009933       128000 
  724000   0.49940861  -0.26900852  -0.26900852   0.48008911   0.36562098  -0.26900852   0.74909763       128000 
  725000   0.49679211  -0.26866991  -0.26866991   0.47650305   0.36564236  -0.26866991   0.74517296       128000 
  726000   0.50095043  -0.26694741  -0.26694741   0.48446289   0.37094854  -0.26694741   0.75141031       128000 
  727000   0.49848724   -0.2660799   -0.2660799    0.4816357   0.37153868   -0.2660799    0.7477156       128000 
  728000   0.50308108  -0.26794509  -0.26794509   0.48666113   0.37010402  -0.26794509   0.75460621       128000 
  729000   0.49806969  -0.26805502  -0.26805502   0.47903427   0.36891501  -0.26805502   0.74708928       128000 
  730000   0.49897145   -0.2661845   -0.2661845    0.4822574   0.37107718   -0.2661845    0.7484419       128000 
  731000   0.49981021  -0.26846721  -0.26846721   0.48123281   0.36526505  -0.26846721   0.74970002       128000 
  732000   0.50230747  -0.26704687  -0.26704687   0.48639896   0.37074102  -0.26704687   0.75344582       128000 
  733000   0.49783432  -0.26828417  -0.26828417   0.47845206   0.36840015  -0.26828417   0.74673623       128000 
  734000   0.50088666  -0.26751812  -0.26751812   0.48379654   0.36692407  -0.26751812   0.75131466       128000 
  735000   0.49640498  -0.26761712  -0.26761712   0.47697515   0.36594835  -0.26761712   0.74459227       128000 
  736000   0.49947426   -0.2672638   -0.2672638   0.48193229     0.371473   -0.2672638   0.74919609       128000 
  737000   0.50101197  -0.26739575  -0.26739575   0.48410687   0.36896476  -0.26739575   0.75150262       128000 
  738000    0.5005734   -0.2682401   -0.2682401   0.48260468   0.36816636   -0.2682401   0.75084478       128000 
  739000   0.50156077  -0.26678852  -0.26678852   0.48553728   0.37216699  -0.26678852    0.7523258       128000 
  740000   0.50115675  -0.27003057  -0.27003057   0.48168922   0.36204723  -0.27003057   0.75171979       128000 
  741000   0.49981025  -0.26744019  -0.26744019   0.48225989   0.36836792  -0.26744019   0.74970008       128000 
  742000   0.49742855  -0.26967528  -0.26967528   0.47645232    0.3643413  -0.26967528    0.7461276       128000 
  743000   0.50378441  -0.26874137  -0.26874137   0.48691981   0.36933089  -0.26874137   0.75566119       128000 
  744000   0.50216118  -0.27100483  -0.27100483   0.48222156   0.36450477  -0.27100483    0.7532264       128000 
  745000   0.49721023  -0.26565369  -0.26565369   0.48014642   0.37806048  -0.26565369   0.74580012       128000 
  746000   0.50019409  -0.26598583  -0.26598583   0.48428999   0.37346508  -0.26598583   0.75027582       128000 
  747000   0.50076637   -0.2695661   -0.2695661   0.48156813   0.36525757   -0.2695661   0.75113423       128000 
  748000   0.49858552  -0.26713887  -0.26713887   0.48072415   0.37078732  -0.26713887   0.74786302       128000 
  749000   0.49864357  -0.26660016  -0.26660016   0.48134993   0.37482332  -0.26660016   0.74795009       128000 
  750000   0.50057722  -0.26701806  -0.26701806   0.48383244   0.37008624  -0.26701806    0.7508505       128000 
  751000   0.49778702  -0.26728734  -0.26728734   0.47937794   0.36606301  -0.26728734   0.74666529       128000 
  752000   0.50308393  -0.26894324  -0.26894324   0.48566725   0.36739737  -0.26894324   0.75461049       128000 
  753000   0.50181633   -0.2661049   -0.2661049   0.48660424   0.36849722   -0.2661049   0.75270914       128000 
  754000   0.50446585  -0.26667664  -0.26667664   0.49000669   0.37267798  -0.26667664   0.75668333       128000 
  755000   0.49858841   -0.2672641   -0.2672641   0.48060326    0.3716447   -0.2672641   0.74786736       128000 
  756000   0.49966071  -0.26717738  -0.26717738    0.4822984   0.36730998  -0.26717738   0.74947578       128000 
  757000   0.50064172  -0.26995499  -0.26995499   0.48099227   0.36223616  -0.26995499   0.75094725       128000 
  758000   0.49948648  -0.26913708  -0.26913708   0.48007735   0.36625112  -0.26913708   0.74921443       128000 
  759000   0.49974204   -0.2668194   -0.2668194   0.48277835   0.37135819   -0.2668194   0.74959776       128000 
  760000   0.50357089  -0.26740083  -0.26740083    0.4879401   0.36412781  -0.26740083   0.75534092       128000 
  761000   0.50132677  -0.26715273  -0.26715273   0.48482208   0.37045352  -0.26715273   0.75197481       128000 
  762000   0.49915926  -0.26859128  -0.26859128   0.48013233   0.37090099  -0.26859128   0.74872361       128000 
  763000   0.50190185  -0.26858032  -0.26858032   0.48425709   0.37157295  -0.26858032   0.75283741       128000 
  764000    0.4978234  -0.26925396  -0.26925396    0.4774659   0.36463107  -0.26925396   0.74671986       128000 
  765000    0.5014496  -0.26804029  -0.26804029   0.48411877   0.37011164  -0.26804029   0.75215905       128000 
  766000    0.5022707   -0.2668357   -0.2668357   0.48655498   0.37149451   -0.2668357   0.75339067       128000 
  767000   0.49735881  -0.26795218  -0.26795218   0.47807081   0.36730857  -0.26795218   0.74602299       128000 
  768000   0.50150994  -0.26804862  -0.26804862   0.48420094   0.36622998  -0.26804862   0.75224955       128000 
  769000   0.49833285  -0.26804567  -0.26804567   0.47943834   0.36525755  -0.26804567   0.74748401       128000 
  770000   0.49891453  -0.26792294  -0.26792294   0.48043358   0.36555704  -0.26792294   0.74835653       128000 
  771000   0.49937288  -0.26920461  -0.26920461   0.47983942   0.36748392  -0.26920461   0.74904403       128000 
  772000   0.49807282   -0.2689178   -0.2689178   0.47817619   0.36670513   -0.2689178   0.74709398       128000 
  773000   0.49657922  -0.26754546  -0.26754546   0.47730817   0.36249382  -0.26754546   0.74485363       128000 
  774000   0.49956667  -0.26804701  -0.26804701    0.4812877   0.36850994  -0.26804701   0.74933471       128000 
  775000   0.50239028  -0.27006538  -0.27006538   0.48350466   0.36409291  -0.27006538   0.75357004       128000 
  776000   0.49942102  -0.26697545  -0.26697545    0.4821408   0.36764647  -0.26697545   0.74911625       128000 
  777000   0.49993587  -0.26767823  -0.26767823   0.48221028   0.36895058  -0.26767823    0.7498885       128000 
  778000   0.50002994  -0.26681225  -0.26681225   0.48321736   0.37131044  -0.26681225    0.7500296       128000 
  779000   0.50016951  -0.26742846  -0.26742846    0.4828105   0.36928334  -0.26742846   0.75023896       128000 
  780000   0.50157996  -0.26665213  -0.26665213   0.48570246    0.3726694  -0.26665213   0.75235459       128000 
  781000    0.5012029  -0.26814925  -0.26814925   0.48363976   0.36889034  -0.26814925   0.75178901       128000 
  782000   0.50385079  -0.26793637  -0.26793637    0.4878244   0.36451692  -0.26793637   0.75576077       128000 
  783000   0.50418419  -0.26762551  -0.26762551   0.48863534   0.37030445  -0.26762551   0.75626085       128000 
  784000   0.50061203  -0.26843218  -0.26843218   0.48247054   0.36844822  -0.26843218   0.75090272       128000 
  785000    0.4980084  -0.26913819  -0.26913819   0.47785916   0.36504798  -0.26913819   0.74699735       128000 
  786000   0.50110381  -0.26814536  -0.26814536   0.48349501   0.37289404  -0.26814536   0.75164037       128000 
  787000   0.50390677   -0.2689491   -0.2689491   0.48689563   0.36927305   -0.2689491   0.75584473       128000 
  788000   0.49937222  -0.26749044  -0.26749044    0.4815526     0.366285  -0.26749044   0.74904305       128000 
  789000   0.49936537  -0.26911193  -0.26911193   0.47992083   0.36511974  -0.26911193   0.74903277       128000 
  790000   0.50166503  -0.26676133  -0.26676133   0.48572085   0.36927955  -0.26676133   0.75248218       128000 
  791000    0.5030826  -0.26877715  -0.26877715   0.48583134   0.36570268  -0.26877715   0.75460849       128000 
  792000   0.50239898   -0.2669365   -0.2669365   0.48664659    0.3725063   -0.2669365   0.75358309       128000 
  793000   0.50619144  -0.26781789  -0.26781789   0.49145378   0.37157675  -0.26781789   0.75927167       128000 
  794000   0.50053102  -0.26849512  -0.26849512   0.48228609   0.37043675  -0.26849512    0.7507812       128000 
  795000   0.50270576  -0.26867438  -0.26867438   0.48536887   0.36909691  -0.26867438   0.75404324       128000 
  796000   0.50020994  -0.26792605  -0.26792605   0.48237355   0.36451503  -0.26792605    0.7502996       128000 
  797000   0.50014111  -0.26783555  -0.26783555    0.4823608   0.37000788  -0.26783555   0.75019635       128000 
  798000   0.50338178  -0.26894732  -0.26894732   0.48610993   0.36912151  -0.26894732   0.75505726       128000 
  799000   0.50322931   -0.2659973   -0.2659973   0.48883126   0.37182169   -0.2659973   0.75482856       128000 
  800000   0.50166392     -0.26841     -0.26841   0.48407053   0.36576084     -0.26841   0.75248053       128000 
  801000   0.50411953  -0.26834489  -0.26834489   0.48781897   0.36653441  -0.26834489   0.75616386       128000 
  802000   0.49965464  -0.26831505  -0.26831505   0.48115162   0.36994094  -0.26831505   0.74946666       128000 
  803000    0.5020532  -0.26766324  -0.26766324   0.48540119   0.36834842  -0.26766324   0.75306443       128000 
  804000   0.50184476  -0.26828368  -0.26828368   0.48446811    0.3668229  -0.26828368   0.75275178       128000 
  805000   0.50091342  -0.26911013  -0.26911013   0.48224467    0.3607271  -0.26911013   0.75135479       128000 
  806000   0.49906025  -0.26641512  -0.26641512   0.48215998   0.37042491  -0.26641512    0.7485751       128000 
  807000   0.49913489  -0.26786101  -0.26786101   0.48082605   0.36821495  -0.26786101   0.74868705       128000 
  808000   0.50218782  -0.26626582  -0.26626582   0.48700053   0.37131284  -0.26626582   0.75326635       128000 
  809000   0.50229856  -0.26838808  -0.26838808   0.48504438    0.3702971  -0.26838808   0.75343246       128000 
  810000   0.50325052  -0.26866091  -0.26866091   0.48619946   0.36458974  -0.26866091   0.75486037       128000 
  811000   0.50312101  -0.26883731  -0.26883731    0.4858288   0.36436824  -0.26883731   0.75466611       128000 
  812000   0.49881918  -0.26774558  -0.26774558   0.48046792   0.36546824  -0.26774558    0.7482135       128000 
  813000   0.49652662  -0.26643967  -0.26643967   0.47833506   0.37021483  -0.26643967   0.74477473       128000 
  814000   0.49837373  -0.26612485  -0.26612485    0.4814205   0.37334471  -0.26612485   0.74754535       128000 
  815000   0.49846895  -0.26896193  -0.26896193   0.47872624   0.36656263  -0.26896193   0.74768817       128000 
  816000   0.50135445  -0.26798349  -0.26798349   0.48403284   0.36619325  -0.26798349   0.75201633       128000 
  817000   0.50065939  -0.26680845  -0.26680845    0.4841653   0.36848059  -0.26680845   0.75097375       128000 
  818000   0.50224636  -0.26681254  -0.26681254   0.48654163   0.37443214  -0.26681254   0.75335417       128000 
  819000   0.49998996  -0.26840322  -0.26840322   0.48156642   0.36665872  -0.26840322   0.74996964       128000 
  820000   0.49775421  -0.26920272  -0.26920272   0.47741336   0.36184035  -0.26920272   0.74661608       128000 
  821000   0.50094731  -0.26881692  -0.26881692   0.48258871   0.36598647  -0.26881692   0.75140563       128000 
  822000   0.49808332    -0.267945    -0.267945   0.47916473   0.37161735    -0.267945   0.74710973       128000 
  823000   0.50060672  -0.26958192  -0.26958192   0.48131283   0.36733475  -0.26958192   0.75089475       128000 
  824000   0.49606798  -0.26900746  -0.26900746   0.47507932    0.3638518  -0.26900746   0.74408678       128000 
  825000   0.49760155  -0.26853291  -0.26853291   0.47785417   0.36476042  -0.26853291   0.74638709       128000 
  826000    0.4989056   -0.2675367   -0.2675367   0.48080643   0.37095716   -0.2675367   0.74834313       128000 
  827000   0.50148924  -0.26785954  -0.26785954   0.48435897   0.37065887  -0.26785954   0.75221852       128000 
  828000   0.50164687  -0.26715043  -0.26715043   0.48530452   0.36838995  -0.26715043   0.75245495       128000 
  829000   0.50240639  -0.26793327  -0.26793327   0.48566094   0.36735981  -0.26793327   0.75359421       128000 
  830000   0.50039981  -0.26738709  -0.26738709    0.4831973    0.3748065  -0.26738709    0.7505844       128000 
  831000   0.50185703  -0.26616531  -0.26616531   0.48660486   0.37335946  -0.26616531   0.75277018       128000 
  832000   0.50416583   -0.2690421   -0.2690421   0.48719121   0.36687791   -0.2690421   0.75623331       128000 
  833000   0.50101161  -0.26635367  -0.26635367    0.4851484   0.36749615  -0.26635367   0.75150207       128000 
  834000   0.49908132  -0.26766625  -0.26766625   0.48094045   0.37012982  -0.26766625    0.7486067       128000 
  835000   0.49846794  -0.26674262  -0.26674262   0.48094402   0.37254669  -0.26674262   0.74768665       128000 
  836000   0.50105652  -0.26712454  -0.26712454    0.4844449   0.36884048  -0.26712454   0.75156944       128000 
  837000   0.50038943  -0.26645717  -0.26645717   0.48411166   0.37049937  -0.26645717   0.75056883       128000 
  838000   0.49863303  -0.26812848  -0.26812848    0.4798058   0.36987751  -0.26812848   0.74793428       128000 
  839000   0.49929377  -0.26802553  -0.26802553   0.48089983   0.36477775  -0.26802553   0.74892536       128000 
  840000   0.49928613  -0.26850008  -0.26850008   0.48041382   0.37145382  -0.26850008   0.74891391       128000 
  841000   0.49918338  -0.26758532  -0.26758532   0.48117447   0.36931778  -0.26758532   0.74875979       128000 
  842000   0.49813999  -0.26817911  -0.26817911   0.47901562   0.36760529  -0.26817911   0.74719474       128000 
  843000   0.49892612  -0.26759451  -0.26759451    0.4807794   0.36862752  -0.26759451   0.74837391       128000 
  844000   0.49966857  -0.26682433  -0.26682433   0.48266323   0.37181916  -0.26682433   0.74948756       128000 
  845000   0.50140783   -0.2690297   -0.2690297    0.4830667   0.36666823   -0.2690297    0.7520964       128000 
  846000   0.50214663  -0.26664415  -0.26664415   0.48656042    0.3740189  -0.26664415   0.75320457       128000 
  847000   0.50265192  -0.26593228  -0.26593228    0.4880302   0.37088315  -0.26593228   0.75396249       128000 
  848000    0.5005641  -0.26901484  -0.26901484   0.48181598     0.365697  -0.26901484   0.75083082       128000 
  849000   0.49932141   -0.2691113   -0.2691113   0.47985553   0.35832026   -0.2691113   0.74896684       128000 
  850000   0.50210051  -0.26810818  -0.26810818   0.48502721   0.36823316  -0.26810818   0.75313539       128000 
  851000   0.49972455  -0.26641692  -0.26641692   0.48315461   0.36910142  -0.26641692   0.74957153       128000 
  852000    0.4995741  -0.26686102  -0.26686102   0.48248484   0.37635711  -0.26686102   0.74934586       128000 
  853000   0.49958106  -0.26936639  -0.26936639   0.47998991   0.36119442  -0.26936639    0.7493563       128000 
  854000   0.49904409  -0.26793866  -0.26793866   0.48061219   0.36688299  -0.26793866   0.74855085       128000 
  855000   0.50014063  -0.26694566  -0.26694566   0.48324997   0.37034717  -0.26694566   0.75019563       128000 
  856000   0.50081512  -0.26571339  -0.26571339   0.48549396   0.37214326  -0.26571339   0.75120735       128000 
  857000   0.50214122  -0.26748843  -0.26748843   0.48570803   0.36809787  -0.26748843   0.75319646       128000 
  858000   0.50006868  -0.26688543  -0.26688543   0.48320228   0.36836384  -0.26688543   0.75008771       128000 
  859000   0.50125349  -0.26877041  -0.26877041   0.48309448   0.36784671  -0.26877041   0.75186489       128000 
  860000   0.50019458  -0.26673558  -0.26673558   0.48354097   0.36998135  -0.26673558   0.75027656       128000 
  861000   0.50160021  -0.26977831  -0.26977831   0.48260665   0.36954924  -0.26977831   0.75238496       128000 
  862000   0.49733525  -0.26900676  -0.26900676   0.47698089   0.36598675  -0.26900676   0.74598765       128000 
  863000   0.49679937  -0.26723137  -0.26723137   0.47795247   0.36770641  -0.26723137   0.74518384       128000 
  864000   0.50031016  -0.26817928  -0.26817928   0.48227065   0.36244912  -0.26817928   0.75044993       128000 
  865000   0.50411897  -0.26742778  -0.26742778   0.48873523    0.3685108  -0.26742778   0.75616302       128000 
  866000   0.50406157  -0.26620264  -0.26620264   0.48987429   0.37685249  -0.26620264   0.75607693       128000 
  867000   0.50513207  -0.26804079  -0.26804079   0.48964185   0.37402681  -0.26804079   0.75768264       128000 
  868000   0.50292905  -0.26886924  -0.26886924   0.48550894   0.37150009  -0.26886924   0.75437818       128000 
  869000   0.49820229  -0.26941655  -0.26941655   0.47787164   0.36617221  -0.26941655   0.74728819       128000 
  870000   0.49750118  -0.26720774  -0.26720774    0.4790288   0.37122059  -0.26720774   0.74623654       128000 
  871000   0.50317847   -0.2689318   -0.2689318    0.4858205    0.3675039   -0.2689318    0.7547523       128000 
  872000   0.50080666  -0.26797509  -0.26797509   0.48321957    0.3695999  -0.26797509   0.75119466       128000 
  873000   0.49818232  -0.26562048  -0.26562048   0.48163774   0.37518037  -0.26562048   0.74725823       128000 
  874000   0.49691799  -0.26754796  -0.26754796    0.4778138   0.37075918  -0.26754796   0.74536177       128000 
  875000    0.4992927  -0.26897876  -0.26897876   0.47994501   0.36150603  -0.26897876   0.74892377       128000 
  876000   0.49901819  -0.27022135  -0.27022135   0.47829066    0.3672975  -0.27022135   0.74851201       128000 
  877000   0.49750002  -0.26683242  -0.26683242   0.47940238   0.37475983  -0.26683242   0.74623479       128000 
  878000   0.49794084  -0.26769944  -0.26769944   0.47919658   0.36825524  -0.26769944   0.74689601       128000 
  879000   0.50055575  -0.26960459  -0.26960459   0.48121372   0.36129938  -0.26960459   0.75081831       128000 
  880000   0.49866996  -0.26702672  -0.26702672   0.48096296    0.3717312  -0.26702672   0.74798968       128000 
  881000   0.50039458    -0.267487    -0.267487   0.48308956   0.36811395    -0.267487   0.75057656       128000 
  882000   0.50118276  -0.26935535  -0.26935535   0.48240345   0.36684122  -0.26935535    0.7517588       128000 
  883000   0.50217404  -0.26795032  -0.26795032   0.48529537   0.36907454  -0.26795032   0.75324569       128000 
  884000   0.50104697   -0.2675977   -0.2675977   0.48395742    0.3700791   -0.2675977   0.75155511       128000 
  885000   0.49984535  -0.26784275  -0.26784275   0.48190998   0.37255611  -0.26784275   0.74975272       128000 
  886000   0.49970727  -0.26778176  -0.26778176   0.48176385   0.36870692  -0.26778176   0.74954561       128000 
  887000    0.4997766   -0.2693831   -0.2693831    0.4802665   0.36235063   -0.2693831   0.74964961       128000 
  888000   0.49909025  -0.26754304  -0.26754304   0.48107706   0.36870282  -0.26754304    0.7486201       128000 
  889000   0.49907388  -0.26963968  -0.26963968   0.47895586   0.36192849  -0.26963968   0.74859554       128000 
  890000   0.49830952  -0.26680263  -0.26680263   0.48064639   0.36891137  -0.26680263   0.74744902       128000 
  891000   0.49682431  -0.26791555  -0.26791555   0.47730571   0.36905485  -0.26791555   0.74522126       128000 
  892000   0.49849125  -0.26664271  -0.26664271    0.4810789   0.36860194  -0.26664271   0.74772161       128000 
  893000    0.4995285  -0.26692377  -0.26692377   0.48235369   0.37232925  -0.26692377   0.74927746       128000 
  894000    0.5032301  -0.26834258  -0.26834258   0.48648717   0.36903195  -0.26834258   0.75482975       128000 
  895000   0.50180418  -0.26786129  -0.26786129   0.48482961   0.36940604  -0.26786129    0.7526909       128000 
  896000   0.50224978   -0.2665917   -0.2665917   0.48676761   0.37490524   -0.2665917    0.7533593       128000 
  897000   0.50066822  -0.26923212  -0.26923212   0.48175488   0.36555007  -0.26923212   0.75098701       128000 
  898000   0.49945325  -0.26856832  -0.26856832   0.48059626   0.36568059  -0.26856832   0.74916458       128000 
  899000    0.5010915  -0.26778406  -0.26778406   0.48383786   0.36704691  -0.26778406   0.75162191       128000 
  900000   0.50242387  -0.26892135  -0.26892135   0.48469908   0.36836475  -0.26892135   0.75362043       128000 
  901000   0.50218108  -0.26742316  -0.26742316   0.48583309   0.36988028  -0.26742316   0.75325625       128000 
  902000   0.49951515  -0.26909144  -0.26909144   0.48016599     0.368964  -0.26909144   0.74925743       128000 
  903000   0.50066666  -0.26845075  -0.26845075   0.48253392   0.36734542  -0.26845075   0.75098467       128000 
  904000   0.49895288   -0.2703662   -0.2703662   0.47804785    0.3643841   -0.2703662   0.74841405       128000 
  905000   0.49928889  -0.26643459  -0.26643459   0.48248347   0.37181189  -0.26643459   0.74891805       128000 
  906000   0.49989987  -0.26733953  -0.26733953   0.48249497   0.37120354  -0.26733953   0.74983451       128000 
  907000   0.50014417   -0.2670199   -0.2670199   0.48318103   0.36933833   -0.2670199   0.75020094       128000 
  908000   0.50222441  -0.26895444  -0.26895444   0.48436679   0.36681106  -0.26895444   0.75332123       128000 
  909000   0.50029851  -0.26622156  -0.26622156   0.48421088   0.36797724  -0.26622156   0.75043245       128000 
  910000   0.50206121  -0.26824097  -0.26824097   0.48483548    0.3694769  -0.26824097   0.75307645       128000 
  911000   0.50108899  -0.26849218  -0.26849218   0.48312596   0.36215458  -0.26849218   0.75161815       128000 
  912000   0.50033331  -0.26926072  -0.26926072   0.48122392   0.36582958  -0.26926072   0.75048464       128000 
  913000   0.49873183  -0.26936981  -0.26936981   0.47871266   0.36714146  -0.26936981   0.74808247       128000 
  914000   0.49861471  -0.26768056  -0.26768056   0.48022624   0.37045315  -0.26768056    0.7479068       128000 
  915000    0.5003516  -0.26953176  -0.26953176   0.48098033   0.36247782  -0.26953176   0.75051209       128000 
  916000   0.49864352  -0.26651317  -0.26651317   0.48143684   0.36949155  -0.26651317   0.74795001       128000 
  917000   0.49993116  -0.26862701  -0.26862701   0.48125443   0.37085045  -0.26862701   0.74988144       128000 
  918000   0.49873005  -0.26829953  -0.26829953   0.47978028   0.36198432  -0.26829953   0.74807981       128000 
  919000   0.50082631  -0.26933362  -0.26933362   0.48189051   0.36211812  -0.26933362   0.75122413       128000 
  920000   0.50431495  -0.26826109  -0.26826109    0.4881959   0.37028012  -0.26826109   0.75645699       128000 
  921000   0.50045872  -0.26443894  -0.26443894   0.48623382    0.3808942  -0.26443894   0.75067276       128000 
  922000   0.50092745  -0.26661092  -0.26661092   0.48476492   0.37219189  -0.26661092   0.75137584       128000 
  923000   0.50041197  -0.26779771  -0.26779771   0.48280492   0.37084992  -0.26779771   0.75060263       128000 
  924000   0.50358505  -0.26923873  -0.26923873   0.48612342    0.3695646  -0.26923873   0.75536216       128000 
  925000   0.50185058  -0.26825993  -0.26825993   0.48450057   0.37066029  -0.26825993    0.7527605       128000 
  926000   0.49881957   -0.2686919   -0.2686919   0.47952219   0.36771733   -0.2686919   0.74821409       128000 
  927000   0.49652061  -0.26742894  -0.26742894   0.47733678   0.36728067  -0.26742894   0.74476572       128000 
  928000   0.49718981  -0.26840327  -0.26840327   0.47736622   0.36920046  -0.26840327   0.74576949       128000 
  929000   0.49715038   -0.2664667   -0.2664667   0.47924366   0.37546493   -0.2664667   0.74571036       128000 
  930000   0.50184873  -0.26810455  -0.26810455   0.48465318   0.36852429  -0.26810455   0.75275773       128000 
  931000    0.4996391  -0.26768017  -0.26768017   0.48176318   0.37005576  -0.26768017   0.74944335       128000 
  932000   0.50085835  -0.26771244  -0.26771244   0.48355975   0.37110372  -0.26771244    0.7512722       128000 
  933000   0.50283598  -0.26775016  -0.26775016   0.48648842   0.36554228  -0.26775016   0.75423858       128000 
  934000   0.50230968  -0.26932868  -0.26932868   0.48412047   0.36724652  -0.26932868   0.75344915       128000 
  935000   0.50154505  -0.26720209  -0.26720209   0.48510014   0.37172583  -0.26720209   0.75230223       128000 
  936000   0.50130561  -0.26793313  -0.26793313   0.48400994   0.37204214  -0.26793313   0.75194306       128000 
  937000   0.50166439  -0.26870488  -0.26870488   0.48377635   0.37155258  -0.26870488   0.75248123       128000 
  938000   0.50012404  -0.26944164  -0.26944164    0.4807291   0.36240647  -0.26944164   0.75017074       128000 
  939000   0.49904744  -0.26756081  -0.26756081   0.48099508   0.36775554  -0.26756081   0.74855589       128000 
  940000   0.49707069  -0.26792138  -0.26792138   0.47766944   0.36808395  -0.26792138   0.74559082       128000 
  941000   0.49788562  -0.26762181  -0.26762181   0.47919138   0.36844104  -0.26762181   0.74681318       128000 
  942000   0.49877372  -0.27013485  -0.27013485   0.47801046   0.36301225  -0.27013485   0.74814532       128000 
  943000   0.50039159  -0.26860865  -0.26860865   0.48196343   0.36906744  -0.26860865   0.75057207       128000 
  944000    0.4988727  -0.26585755  -0.26585755   0.48243623   0.37605899  -0.26585755   0.74829378       128000 
  945000   0.50037276  -0.26778382  -0.26778382   0.48276001   0.36842475  -0.26778382   0.75054383       128000 
  946000   0.49883874  -0.27046966  -0.27046966   0.47777317   0.35724279  -0.27046966   0.74824283       128000 
  947000   0.49836749  -0.26984442  -0.26984442   0.47769156   0.36172038  -0.26984442   0.74753597       128000 
  948000   0.49740313  -0.26916584  -0.26916584   0.47692363   0.36488711  -0.26916584   0.74608947       128000 
  949000   0.49650841  -0.26874234  -0.26874234   0.47600509   0.36606055  -0.26874234   0.74474742       128000 
  950000   0.49845418  -0.26968322  -0.26968322    0.4779828   0.36403923  -0.26968322   0.74766602       128000 
  951000    0.4995345  -0.26922532  -0.26922532   0.48006114   0.36670704  -0.26922532   0.74928646       128000 
  952000   0.49892997  -0.26937519  -0.26937519   0.47900449   0.36497873  -0.26937519   0.74837968       128000 
  953000   0.50187301  -0.26748552  -0.26748552   0.48530864   0.37350079  -0.26748552   0.75279416       128000 
  954000   0.50118309  -0.26614605  -0.26614605   0.48561325   0.36925517  -0.26614605    0.7517593       128000 
  955000    0.5029684   -0.2677496   -0.2677496   0.48668761   0.36545989   -0.2677496    0.7544372       128000 
  956000   0.49879969  -0.26567055  -0.26567055   0.48251372    0.3695182  -0.26567055   0.74818427       128000 
  957000   0.50074872  -0.26745478  -0.26745478   0.48365298   0.37276021  -0.26745478   0.75110775       128000 
  958000   0.50121867  -0.26947764  -0.26947764   0.48233502   0.36809946  -0.26947764   0.75181267       128000 
  959000    0.5000863  -0.26950769  -0.26950769   0.48060646   0.35891743  -0.26950769   0.75011415       128000 
  960000   0.50000115  -0.26640223  -0.26640223   0.48358419   0.36908868  -0.26640223   0.74998642       128000 
  961000   0.49926424  -0.26885353  -0.26885353   0.48002755   0.36711596  -0.26885353   0.74888108       128000 
  962000   0.49839058  -0.27000983  -0.27000983   0.47756079   0.36448438  -0.27000983   0.74757062       128000 
  963000   0.50132627  -0.27174662  -0.27174662   0.48022744   0.35678157  -0.27174662   0.75197406       128000 
  964000   0.49603062   -0.2680826   -0.2680826   0.47594814   0.36492269   -0.2680826   0.74403074       128000 
  965000   0.49998003  -0.27121727  -0.27121727   0.47873747    0.3573121  -0.27121727   0.74995475       128000 
  966000   0.50145798  -0.26926783  -0.26926783   0.48290378   0.36716655  -0.26926783   0.75217161       128000 
  967000   0.49920657  -0.26844548  -0.26844548   0.48034909   0.36545986  -0.26844548   0.74879458       128000 
  968000   0.49929272  -0.26915784  -0.26915784   0.47976595   0.36436177  -0.26915784   0.74892379       128000 
  969000   0.49607973  -0.26791435  -0.26791435   0.47619005   0.36162967  -0.26791435    0.7441044       128000 
  970000   0.50245072  -0.26856676  -0.26856676   0.48509394   0.36656608  -0.26856676   0.75366069       128000 
  971000   0.50122356  -0.26712778  -0.26712778   0.48469221    0.3645052  -0.26712778   0.75181999       128000 
  972000   0.50051719  -0.26757982  -0.26757982   0.48318064   0.37109773  -0.26757982   0.75076046       128000 
  973000   0.49905331  -0.26753915  -0.26753915   0.48102554   0.36632025  -0.26753915   0.74856469       128000 
  974000   0.49980129  -0.27161952  -0.27161952   0.47806711   0.36414554  -0.27161952   0.74968663       128000 
  975000   0.49666384  -0.26698885  -0.26698885   0.47799171    0.3665103  -0.26698885   0.74498056       128000 
  976000   0.49990253  -0.26865036  -0.26865036   0.48118812   0.37114702  -0.26865036   0.74983849       128000 
  977000   0.50049309  -0.26821994  -0.26821994   0.48250437   0.36487486  -0.26821994   0.75072431       128000 
  978000   0.49956986  -0.26646802  -0.26646802   0.48287147   0.37158694  -0.26646802   0.74933949       128000 
  979000   0.49737444  -0.26851147  -0.26851147   0.47753496   0.36672443  -0.26851147   0.74604643       128000 
  980000   0.49969543  -0.26806332  -0.26806332   0.48146453   0.36858509  -0.26806332   0.74952785       128000 
  981000   0.49834784  -0.26901511  -0.26901511   0.47849139   0.36417754  -0.26901511    0.7475065       128000 
  982000   0.49919468  -0.26933265  -0.26933265   0.47944409   0.36585199  -0.26933265   0.74877674       128000 
  983000   0.49881599  -0.26894527  -0.26894527   0.47926345   0.36440846  -0.26894527   0.74820872       128000 
  984000   0.50112063  -0.26914917  -0.26914917   0.48251643   0.36119888  -0.26914917   0.75166561       128000 
  985000   0.49905386  -0.26914317  -0.26914317   0.47942234   0.36543818  -0.26914317   0.74856551       128000 
  986000   0.49921747   -0.2698333   -0.2698333   0.47897762   0.36008587   -0.2698333   0.74881092       128000 
  987000   0.50086692  -0.26948683  -0.26948683   0.48179821   0.36565694  -0.26948683   0.75128504       128000 
  988000   0.49970462  -0.26844071  -0.26844071   0.48110093    0.3682703  -0.26844071   0.74954164       128000 
  989000   0.49991401   -0.2693757   -0.2693757   0.48048001   0.36613808   -0.2693757   0.74985571       128000 
  990000    0.4999103  -0.26830592  -0.26830592   0.48154422   0.36461091  -0.26830592   0.74985014       128000 
  991000   0.49993017  -0.27004459  -0.27004459   0.47983536   0.36634503  -0.27004459   0.74987995       128000 
  992000   0.49760798  -0.26780806  -0.26780806   0.47858867    0.3700435  -0.26780806   0.74639673       128000 
  993000   0.49810659  -0.26781304  -0.26781304    0.4793316   0.36856059  -0.26781304   0.74714464       128000 
  994000   0.50210412  -0.26998054  -0.26998054   0.48316027   0.36379425  -0.26998054   0.75314081       128000 
  995000   0.50111351  -0.26721432  -0.26721432    0.4844406   0.37353666  -0.26721432   0.75165492       128000 
  996000   0.49697755  -0.26952613  -0.26952613   0.47592499   0.36649617  -0.26952613   0.74545111       128000 
  997000   0.49887108  -0.26896774  -0.26896774    0.4793236   0.36399176  -0.26896774   0.74829134       128000 
  998000   0.50201699  -0.26890259  -0.26890259   0.48410753   0.36752331  -0.26890259   0.75301012       128000 
  999000   0.50054449  -0.27016071  -0.27016071   0.48064071   0.36569466  -0.27016071   0.75080142       128000 
 1000000   0.49649905  -0.26878241  -0.26878241   0.47595096   0.36425181  -0.26878241   0.74473338       128000 
 1001000   0.50418588  -0.26881706  -0.26881706   0.48744632   0.37137532  -0.26881706   0.75626338       128000 
 1002000   0.50065924  -0.26767806  -0.26767806   0.48329547   0.36754289  -0.26767806   0.75097353       128000 
 1003000   0.49996702  -0.26771075  -0.26771075   0.48222447   0.37142965  -0.26771075   0.74993522       128000 
 1004000   0.49832581   -0.2703336   -0.2703336   0.47713986   0.36507575   -0.2703336   0.74747346       128000 
 1005000   0.49957409  -0.26743153  -0.26743153    0.4819143   0.36974377  -0.26743153   0.74934584       128000 
 1006000   0.50009797  -0.26587494  -0.26587494   0.48425671   0.37679271  -0.26587494   0.75013164       128000 
 1007000   0.50169627  -0.26815285  -0.26815285   0.48437619   0.36577589  -0.26815285   0.75252904       128000 
 1008000   0.49866382  -0.26782164  -0.26782164   0.48015883    0.3646987  -0.26782164   0.74798047       128000 
 1009000   0.49999597  -0.27002789  -0.27002789   0.47995075   0.36508012  -0.27002789   0.74997864       128000 
 1010000   0.50008172  -0.26789449  -0.26789449   0.48221278   0.36940259  -0.26789449   0.75010727       128000 
 1011000   0.50070779   -0.2679573   -0.2679573   0.48308906   0.37271339   -0.2679573   0.75104636       128000 
 1012000   0.50164118  -0.26842984  -0.26842984   0.48401657   0.36656095  -0.26842984   0.75244641       128000 
 1013000   0.50020609   -0.2669141   -0.2669141   0.48337973   0.37175389   -0.2669141   0.75029382       128000 
 1014000   0.50066782  -0.26759401  -0.26759401    0.4833924   0.36946761  -0.26759401   0.75098641       128000 
 1015000   0.50127037  -0.27035422  -0.27035422   0.48153598   0.36034007  -0.27035422    0.7518902       128000 
 1016000     0.499039  -0.27098229  -0.27098229   0.47756094   0.36299715  -0.27098229   0.74854323       128000 
 1017000   0.50016591  -0.26704279  -0.26704279   0.48319077   0.37548489  -0.26704279   0.75023356       128000 
 1018000   0.50269197  -0.26990343  -0.26990343   0.48411913   0.36611576  -0.26990343   0.75402256       128000 
 1019000   0.50056604  -0.26971626  -0.26971626   0.48111747   0.36698836  -0.26971626   0.75083374       128000 
 1020000   0.49988166  -0.26930946  -0.26930946   0.48049773   0.36520014  -0.26930946   0.74980719       128000 
 1021000   0.50056714  -0.26885756  -0.26885756   0.48197782   0.36787912  -0.26885756   0.75083538       128000 
 1022000    0.4994245  -0.26602999  -0.26602999   0.48309147    0.3720897  -0.26602999   0.74912146       128000 
 1023000   0.49831797  -0.26750718  -0.26750718   0.47995452   0.36964722  -0.26750718    0.7474617       128000 
 1024000   0.49947165  -0.27142819  -0.27142819     0.477764   0.35930887  -0.27142819   0.74919219       128000 
 1025000   0.49930988  -0.26729647  -0.26729647   0.48165306   0.36595469  -0.26729647   0.74894953       128000 
 1026000   0.50076281  -0.27029499  -0.27029499   0.48083389   0.36533193  -0.27029499   0.75112888       128000 
 1027000   0.49968059  -0.26681674  -0.26681674   0.48268884   0.37222447  -0.26681674   0.74950558       128000 
 1028000   0.50156735  -0.26921503  -0.26921503   0.48312064   0.36722819  -0.26921503   0.75233568       128000 
 1029000   0.50474814  -0.26658057  -0.26658057   0.49052619   0.37182668  -0.26658057   0.75710676       128000 
 1030000     0.501282  -0.26847404  -0.26847404   0.48343361   0.36441168  -0.26847404   0.75190765       128000 
 1031000   0.49925435  -0.26693159  -0.26693159   0.48193465   0.36847104  -0.26693159   0.74886624       128000 
 1032000   0.50050315   -0.2670686   -0.2670686   0.48367081   0.37003995   -0.2670686   0.75073941       128000 
 1033000   0.49958603  -0.26840441  -0.26840441   0.48095933   0.36671713  -0.26840441   0.74936375       128000 
 1034000   0.49745853  -0.26790538  -0.26790538   0.47826719   0.36785166  -0.26790538   0.74617257       128000 
 1035000   0.49865912  -0.26865069  -0.26865069   0.47932272   0.36230106  -0.26865069   0.74797341       128000 
 1036000   0.49988166  -0.26933513  -0.26933513   0.48047206   0.36783332  -0.26933513   0.74980719       128000 
 1037000   0.49800098  -0.26807464  -0.26807464   0.47891158   0.37045851  -0.26807464   0.74698622       128000 
 1038000   0.50079906  -0.26760585  -0.26760585   0.48357741   0.37049439  -0.26760585   0.75118325       128000 
 1039000   0.49995109   -0.2698569   -0.2698569   0.48005442   0.36322123   -0.2698569   0.74991133       128000 
 1040000   0.50080935  -0.26720572  -0.26720572   0.48399297   0.36914632  -0.26720572   0.75119869       128000 
 1041000   0.50142665  -0.26890743  -0.26890743   0.48321719   0.36501972  -0.26890743   0.75212462       128000 
 1042000   0.50013912  -0.26690252  -0.26690252   0.48329086    0.3703567  -0.26690252   0.75019337       128000 
 1043000   0.49829961  -0.26966582  -0.26966582   0.47776834   0.36536752  -0.26966582   0.74743417       128000 
 1044000   0.49951081  -0.26714014  -0.26714014   0.48211078   0.37141061  -0.26714014   0.74925092       128000 
 1045000   0.50044789  -0.26624661  -0.26624661    0.4844099   0.37155595  -0.26624661   0.75065651       128000 
 1046000   0.49975077  -0.26728917  -0.26728917   0.48232169   0.36876355  -0.26728917   0.74961086       128000 
 1047000   0.49998127  -0.26854352  -0.26854352   0.48141307   0.36424646  -0.26854352   0.74995659       128000 
 1048000   0.50163402  -0.26611884  -0.26611884   0.48631684   0.37150242  -0.26611884   0.75243567       128000 
 1049000   0.50106637  -0.26868052  -0.26868052    0.4829037    0.3699048  -0.26868052   0.75158422       128000 
 1050000   0.49971232  -0.26798823  -0.26798823   0.48156495   0.36697847  -0.26798823   0.74955318       128000 
 1051000   0.50042456  -0.26719562  -0.26719562    0.4834259   0.37100798  -0.26719562   0.75062152       128000 
 1052000   0.50405389  -0.26835166  -0.26835166   0.48771375     0.371509  -0.26835166   0.75606541       128000 
 1053000   0.50288973  -0.26744855  -0.26744855   0.48687065   0.36858946  -0.26744855    0.7543192       128000 
 1054000    0.5048776   -0.2686417   -0.2686417   0.48865924   0.37229937   -0.2686417   0.75730094       128000 
 1055000   0.50089865  -0.26675197  -0.26675197   0.48458067   0.36918096  -0.26675197   0.75133263       128000 
 1056000   0.50100072  -0.26887455  -0.26887455    0.4826112   0.36863094  -0.26887455   0.75148575       128000 
 1057000   0.49930465   -0.2684081   -0.2684081   0.48053359   0.36670761   -0.2684081    0.7489417       128000 
 1058000   0.49911843  -0.26675674  -0.26675674   0.48190564   0.37052672  -0.26675674   0.74866237       128000 
 1059000    0.5015146  -0.26719758  -0.26719758   0.48505897    0.3742102  -0.26719758   0.75225654       128000 
 1060000   0.50174717  -0.26801506  -0.26801506   0.48459034   0.37042854  -0.26801506    0.7526054       128000 
 1061000   0.49652443  -0.26955991  -0.26955991   0.47521154   0.36170202  -0.26955991   0.74477145       128000 
 1062000   0.50263294  -0.26722996  -0.26722996   0.48670407   0.37026086  -0.26722996   0.75393402       128000 
 1063000   0.50022042   -0.2677914   -0.2677914   0.48252391   0.36686092   -0.2677914   0.75031531       128000 
 1064000   0.49932112  -0.26863304  -0.26863304   0.48033336   0.35950138  -0.26863304    0.7489664       128000 
 1065000   0.50059376  -0.26898573  -0.26898573   0.48188959   0.36741947  -0.26898573   0.75087532       128000 
 1066000   0.50266005  -0.26805704  -0.26805704   0.48591765   0.36638734  -0.26805704   0.75397469       128000 
 1067000   0.49788559  -0.26683033  -0.26683033   0.47998281   0.36842245  -0.26683033   0.74681314       128000 
 1068000   0.50052613  -0.26806895  -0.26806895   0.48270491   0.36682921  -0.26806895   0.75077387       128000 
 1069000   0.50302906  -0.26872478  -0.26872478   0.48580341   0.36489942  -0.26872478   0.75452819       128000 
 1070000   0.49894963  -0.26742525  -0.26742525   0.48098392   0.37322406  -0.26742525   0.74840917       128000 
 1071000   0.49987368  -0.26778486  -0.26778486   0.48201035   0.36864285  -0.26778486   0.74979521       128000 
 1072000   0.50116433   -0.2688909   -0.2688909   0.48284026   0.36601843   -0.2688909   0.75173115       128000 
 1073000   0.50117383  -0.26608023  -0.26608023   0.48566516    0.3724657  -0.26608023    0.7517454       128000 
 1074000   0.50120325  -0.27112977  -0.27112977   0.48065977   0.36276752  -0.27112977   0.75178954       128000 
 1075000   0.50034441  -0.26632853  -0.26632853   0.48417276   0.37067635  -0.26632853    0.7505013       128000 
 1076000   0.50266092  -0.26899771  -0.26899771   0.48497828   0.36635107  -0.26899771   0.75397599       128000 
 1077000   0.50221035  -0.26887581  -0.26887581   0.48442434   0.37094618  -0.26887581   0.75330015       128000 
 1078000   0.50072393  -0.26913601  -0.26913601   0.48193456   0.36850304  -0.26913601   0.75107057       128000 
 1079000   0.50136281  -0.26982428  -0.26982428   0.48220458   0.36360089  -0.26982428   0.75202886       128000 
 1080000    0.5014706  -0.26848521  -0.26848521   0.48370534   0.37098611  -0.26848521   0.75219055       128000 
 1081000   0.50018646  -0.26676781  -0.26676781   0.48349656   0.36935119  -0.26676781   0.75026437       128000 
 1082000   0.49516227  -0.26816315  -0.26816315   0.47456509   0.36929392  -0.26816315   0.74272825       128000 
 1083000   0.49989991  -0.26706225  -0.26706225   0.48277232   0.36760342  -0.26706225   0.74983456       128000 
 1084000   0.49902169  -0.26745067  -0.26745067   0.48106659   0.36852356  -0.26745067   0.74851726       128000 
 1085000   0.49980499  -0.26699857  -0.26699857   0.48269361   0.36991475  -0.26699857   0.74969218       128000 
 1086000   0.50015785  -0.26637418  -0.26637418   0.48384729   0.36892915  -0.26637418   0.75022147       128000 
 1087000   0.50017714  -0.26605268  -0.26605268   0.48419772   0.37123226  -0.26605268    0.7502504       128000 
 1088000   0.50053709   -0.2693964   -0.2693964   0.48139391   0.36774773   -0.2693964   0.75079031       128000 
 1089000   0.49895487  -0.26960037  -0.26960037   0.47881666   0.36149412  -0.26960037   0.74841703       128000 
 1090000   0.49917116  -0.26787508  -0.26787508   0.48086637   0.36937788  -0.26787508   0.74874145       128000 
 1091000   0.49807632  -0.26901183  -0.26901183    0.4780874   0.36411784  -0.26901183   0.74709924       128000 
 1092000     0.494966  -0.26685635  -0.26685635   0.47557751   0.37131872  -0.26685635   0.74243385       128000 
 1093000   0.50127303  -0.27132326  -0.27132326   0.48057094   0.36229363  -0.27132326    0.7518942       128000 
 1094000   0.50238586   -0.2689433   -0.2689433   0.48462012    0.3702675   -0.2689433   0.75356341       128000 
 1095000   0.50332931  -0.26930186  -0.26930186   0.48567669   0.36611637  -0.26930186   0.75497855       128000 
 1096000   0.50125603  -0.26671853  -0.26671853   0.48515018   0.37074394  -0.26671853    0.7518687       128000 
 1097000    0.5015359  -0.26701218  -0.26701218   0.48527632   0.36742711  -0.26701218    0.7522885       128000 
 1098000   0.50186389  -0.26814982  -0.26814982   0.48463065   0.36811668  -0.26814982   0.75278047       128000 
 1099000   0.50201685   -0.2661154   -0.2661154   0.48689451   0.37220585   -0.2661154   0.75300991       128000 
 1100000   0.50137015  -0.26729331  -0.26729331   0.48474656   0.37171644  -0.26729331   0.75203987       128000 
Loop time of 4435.64 on 4 procs for 1000000 steps with 49000 atoms

Performance: 97392.928 tau/day, 225.447 timesteps/s
80.1% CPU use with 4 MPI tasks x 1 OpenMP threads

MPI task timing breakdown:
Section |  min time  |  avg time  |  max time  |%varavg|  %CPU | %total
-----------------------------------------------------------------------
Pair    | 1184.9     | 1293.6     | 1381.9     | 198.3 |  80.1 | 29.16
Bond    | 0.38384    | 0.40265    | 0.43793    |   3.3 | 100.0 |  0.01
Neigh   | 503.52     | 546.77     | 586.88     | 126.2 |  94.0 | 12.33
Comm    | 1404.7     | 1583.4     | 1729.2     | 348.5 |  76.0 | 35.70
Output  | 58.194     | 58.23      | 58.25      |   0.3 |  79.6 |  1.31
Modify  | 747.71     | 786.49     | 872.5      | 178.5 |  79.2 | 17.73
Other   |            | 166.8      |            |       |       |  3.76

Nlocal:        12250.0 ave       12497 max       11889 min
Histogram: 1 0 0 0 0 1 0 1 0 1
Nghost:        4557.00 ave        5300 max        3770 min
Histogram: 2 0 0 0 0 0 0 0 0 2
Neighs:        62255.8 ave       64774 max       58359 min
Histogram: 1 0 0 0 0 0 1 0 1 1

Total # of neighbors = 249023
Ave neighs/atom = 5.0821020
Ave special neighs/atom = 0.0000000
Neighbor list builds = 85470
Dangerous builds = 2161
write_restart   restart_write.dat
System init for write_restart ...
write_data	data.write
System init for write_data ...

Total wall time: 1:21:31
