LAMMPS (29 Oct 2020)
  using 1 OpenMP thread(s) per MPI task
# Simple rigid body system

units		lj
atom_style	full
dimension 	3
boundary	p p f
pair_style	lj/cut/opt 2.5


variable 	sigma		equal 1.0
variable 	epsilon 	equal 1.0


region		box block 0 80 0 80 0 80
create_box 	3 box
Created orthogonal box = (0.0000000 0.0000000 0.0000000) to (80.000000 80.000000 80.000000)
  2 by 4 by 4 MPI processor grid
lattice 	sc 1.0
Lattice spacing in x,y,z = 1.0000000 1.0000000 1.0000000

create_atoms 	1 region box
Created 512000 atoms
  create_atoms CPU = 0.061 seconds

mass		1 1.0
mass		2 1.0
mass		3 1.0


group		solvent type 1
512000 atoms in group solvent


velocity 	solvent create ${startTemp} 563435 loop geom
velocity 	solvent create 0.5 563435 loop geom

read_data	data.vac add append
Reading data file ...
  orthogonal box = (0.0000000 0.0000000 0.0000000) to (80.000000 80.000000 160.00000)
  2 by 2 by 8 MPI processor grid
Finding 1-2 1-3 1-4 neighbors ...
  special bond factors lj:    0.0      0.0      0.0     
  special bond factors coul:  0.0      0.0      0.0     
     0 = max # of 1-2 neighbors
     0 = max # of 1-3 neighbors
     0 = max # of 1-4 neighbors
     1 = max # of special neighbors
  special bonds CPU = 0.280 seconds
  read_data CPU = 0.298 seconds

neighbor 	0.4 bin

pair_coeff	1 1 1.0 1.0
pair_coeff	2 2 0.0 0.0
pair_coeff	3 3 0.0 0.0
pair_coeff	2 3 0.0 0.0
pair_coeff	1 2*3 0.0 0.0

pair_modify 	shift yes


balance 	1.05 shift z 10 1.05
Balancing ...
Neighbor list info ...
  update every 1 steps, delay 10 steps, check yes
  max neighbors/atom: 2000, page size: 100000
  master list distance cutoff = 2.9
  ghost atom cutoff = 2.9
  binsize = 1.45, bins = 56 56 111
  1 neighbor lists, perpetual/occasional/extra = 1 0 0
  (1) pair lj/cut/opt, perpetual
      attributes: half, newton on
      pair build: half/bin/newton
      stencil: half/bin/3d/newton
      bin: standard
 rebalancing time: 0.031 seconds
  iteration count = 5
  initial/final maximal load/proc = 32000.000 19200.000
  initial/final imbalance factor  = 2.0000000 1.2000000
  x cuts: 0.0000000 0.5 1.0000000
  y cuts: 0.0000000 0.5 1.0000000
  z cuts: 0.0000000 0.0625 0.12890625 0.1875 0.2578125 0.30859375 0.38671875 0.4375 1.0000000


####################### WALLS ###########################


region	       low block  EDGE EDGE EDGE EDGE 0 2

region 	       top block  EDGE EDGE EDGE EDGE 159 160


delete_atoms   region low
WARNING: Ignoring 'compress yes' for molecular system (src/delete_atoms.cpp:125)
Deleted 19200 atoms, new total = 492800

delete_atoms   region top
WARNING: Ignoring 'compress yes' for molecular system (src/delete_atoms.cpp:125)
Deleted 0 atoms, new total = 492800


variable       epsilonWall equal 2*${epsilon}
variable       epsilonWall equal 2*1

variable       cutoffTop   equal   0.7147*${sigma}
variable       cutoffTop   equal   0.7147*1

variable       cutoffLow   equal   3*${sigma}
variable       cutoffLow   equal   3*1


fix            topWall all wall/lj93 zhi EDGE                ${epsilonWall} ${sigma} ${cutoffTop} units box
fix            topWall all wall/lj93 zhi EDGE                2 ${sigma} ${cutoffTop} units box
fix            topWall all wall/lj93 zhi EDGE                2 1 ${cutoffTop} units box
fix            topWall all wall/lj93 zhi EDGE                2 1 0.7147 units box

fix            lowWall all wall/lj93 zlo EDGE                ${epsilonWall} ${sigma} ${cutoffLow} units box
fix            lowWall all wall/lj93 zlo EDGE                2 ${sigma} ${cutoffLow} units box
fix            lowWall all wall/lj93 zlo EDGE                2 1 ${cutoffLow} units box
fix            lowWall all wall/lj93 zlo EDGE                2 1 3 units box


###################### COMPUTES ##########################

compute        bin1 solvent chunk/atom bin/1d z upper 1.0



######################	FIXES ############################


fix 		peclet solvent ave/chunk 1000 1 1000 bin1 density/number norm 		 none ave one file density.profile

fix 		2 solvent nve

## Thermostat


region		regthermo block EDGE EDGE EDGE EDGE 0 20

group 		thermo dynamic solvent region regthermo every 1000
dynamic group thermo defined

fix 		3 thermo langevin ${startTemp} ${temp} 10 156453
fix 		3 thermo langevin 0.5 ${temp} 10 156453
fix 		3 thermo langevin 0.5 1.1 10 156453



#### Load balancing


fix 		bal all balance 1000 1.05 shift z 10 1.05


############### Diagnostics and computes ###################
#compute 	com cube	  rigid/local	1 mol x y z
#compute 	quat cube	  rigid/local	1 mol quatw quati quatj quatk

thermo 		1000
thermo_style 	custom step temp epair evdwl etotal press pe ke vol

dump		1 all custom 100000 dump.lammpstrj id mol type x y z
dump 		2 all image 10000 image.*.png type type
dump 		3 all movie 1000 movie.avi type type
#dump 		com cube local 1000 dump.*.xyz c_com[*]
#dump		quat cube      local 1000 dump.*.quat c_quat[*]


restart 	500000 restart.dat
timestep 	0.0025
timer 		full
New timer settings: style=full  mode=nosync  timeout=off


run		1000000
Per MPI rank memory allocation (min/avg/max) = 21.45 | 22.19 | 22.73 Mbytes
Step Temp E_pair E_vdwl TotEng Press PotEng KinEng Volume 
       0   0.49998514   -3.2974116   -3.2974116   -2.5474355    8.3319627   -3.2974116   0.74997619      1024000 
    1000    1.4271251   -4.8132397   -4.8132397   -2.6725564    3.6886596   -4.8132397    2.1406833      1024000 
    2000    1.3671488   -4.8638588   -4.8638588   -2.8131397    2.4652595   -4.8638588     2.050719      1024000 
    3000    1.2641624     -4.83876     -4.83876   -2.9425203    1.6273933     -4.83876    1.8962397      1024000 
    4000    1.2109111   -4.8468061   -4.8468061   -3.0304431   0.72354412   -4.8468061     1.816363      1024000 
    5000    1.1404834    -4.785943    -4.785943   -3.0752214  0.080046342    -4.785943    1.7107216      1024000 
    6000     1.062607   -4.6835177   -4.6835177   -3.0896105  -0.25891014   -4.6835177    1.5939072      1024000 
    7000    1.0033693   -4.5967008   -4.5967008     -3.09165  -0.35731543   -4.5967008    1.5050508      1024000 
    8000   0.98927244   -4.5751346   -4.5751346    -3.091229  -0.23819926   -4.5751346    1.4839056      1024000 
    9000    1.0011416   -4.5975292   -4.5975292   -3.0958199 -0.098855863   -4.5975292    1.5017093      1024000 
   10000    1.0078727   -4.6185623   -4.6185623   -3.1067564 -0.018512202   -4.6185623    1.5118059      1024000 
   11000    1.0067887   -4.6284412   -4.6284412   -3.1182613  0.012596183   -4.6284412    1.5101799      1024000 
   12000    1.0077963   -4.6397025   -4.6397025   -3.1280111  0.039507117   -4.6397025    1.5116913      1024000 
   13000    1.0094342   -4.6507175   -4.6507175   -3.1365692   0.06815977   -4.6507175    1.5141483      1024000 
   14000    1.0107236   -4.6606591   -4.6606591   -3.1445768   0.08494686   -4.6606591    1.5160823      1024000 
   15000    1.0094881   -4.6660986   -4.6660986   -3.1518696  0.093808407   -4.6660986     1.514229      1024000 
   16000    1.0039954   -4.6643232   -4.6643232   -3.1583331  0.088986741   -4.6643232    1.5059901      1024000 
   17000    1.0011315   -4.6656826   -4.6656826   -3.1639884  0.087469701   -4.6656826    1.5016942      1024000 
   18000    1.0013852   -4.6704935   -4.6704935   -3.1684188  0.091723383   -4.6704935    1.5020747      1024000 
   19000    1.0039623   -4.6780134   -4.6780134   -3.1720731   0.10519824   -4.6780134    1.5059404      1024000 
   20000    1.0032419   -4.6804837   -4.6804837    -3.175624   0.11681861   -4.6804837    1.5048597      1024000 
   21000    1.0022182    -4.682717    -4.682717   -3.1793927   0.11489994    -4.682717    1.5033243      1024000 
   22000   0.99980343   -4.6819366   -4.6819366   -3.1822345   0.11033897   -4.6819366    1.4997021      1024000 
   23000   0.99993444   -4.6849186   -4.6849186     -3.18502   0.11895421   -4.6849186    1.4998986      1024000 
   24000    1.0053103   -4.6965814   -4.6965814   -3.1886191   0.22586139   -4.6965814    1.5079623      1024000 
   25000    1.0195728   -4.7208787   -4.7208787   -3.1915226   0.67537086   -4.7208787    1.5293561      1024000 
   26000    1.0342688    -4.744691    -4.744691    -3.193291    1.0314831    -4.744691       1.5514      1024000 
   27000    1.0453544   -4.7625555   -4.7625555   -3.1945271    1.4434151   -4.7625555    1.5680284      1024000 
   28000    1.0477441    -4.767719    -4.767719    -3.196106    1.6769184    -4.767719     1.571613      1024000 
   29000    1.0286383   -4.7415013   -4.7415013   -3.1985471    1.3222969   -4.7415013    1.5429543      1024000 
   30000    1.0096799   -4.7136891   -4.7136891   -3.1991724    0.9736703   -4.7136891    1.5145167      1024000 
   31000   0.99221092   -4.6885904   -4.6885904    -3.200277   0.64069135   -4.6885904    1.4883134      1024000 
   32000   0.96132533    -4.643312    -4.643312   -3.2013269   0.40850174    -4.643312    1.4419851      1024000 
   33000   0.92524546   -4.5907288   -4.5907288   -3.2028634   0.22072444   -4.5907288    1.3878654      1024000 
   34000    0.8880743   -4.5369104   -4.5369104   -3.2048017  0.050893451   -4.5369104    1.3321087      1024000 
   35000   0.85243579   -4.4847731   -4.4847731    -3.206122 -0.054836574   -4.4847731    1.2786511      1024000 
   36000   0.82683745   -4.4476811   -4.4476811   -3.2074274  -0.11024752   -4.4476811    1.2402537      1024000 
   37000   0.81371207   -4.4291839   -4.4291839   -3.2086183  -0.13178392   -4.4291839    1.2205656      1024000 
   38000   0.81377016   -4.4301826   -4.4301826   -3.2095298  -0.11320442   -4.4301826    1.2206528      1024000 
   39000   0.82197454   -4.4438097   -4.4438097   -3.2108504 -0.071789896   -4.4438097    1.2329593      1024000 
   40000   0.83235266   -4.4611956   -4.4611956   -3.2126691 -0.031078091   -4.4611956    1.2485265      1024000 
   41000   0.84479921   -4.4809262   -4.4809262   -3.2137299 0.0079701925   -4.4809262    1.2671962      1024000 
   42000   0.85758066   -4.5011244   -4.5011244    -3.214756  0.062160473   -4.5011244    1.2863684      1024000 
   43000   0.86461433   -4.5124824   -4.5124824   -3.2155635  0.091759084   -4.5124824    1.2969189      1024000 
   44000   0.86871328   -4.5200833   -4.5200833    -3.217016   0.12074443   -4.5200833    1.3030673      1024000 
   45000   0.87256854   -4.5272735   -4.5272735   -3.2184234   0.12903272   -4.5272735    1.3088501      1024000 
   46000   0.87354396   -4.5299779   -4.5299779   -3.2196646   0.14002368   -4.5299779    1.3103133      1024000 
   47000   0.87101242   -4.5274415   -4.5274415   -3.2209256   0.12534289   -4.5274415     1.306516      1024000 
   48000   0.86464655   -4.5197802   -4.5197802    -3.222813  0.097476293   -4.5197802    1.2969672      1024000 
   49000   0.85662354   -4.5089128   -4.5089128   -3.2239801  0.059901192   -4.5089128    1.2849327      1024000 
   50000   0.84721814   -4.4963502   -4.4963502   -3.2255255  0.030678419   -4.4963502    1.2708246      1024000 
   51000   0.84021119   -4.4869277   -4.4869277   -3.2266135 0.0095960564   -4.4869277    1.2603142      1024000 
   52000   0.83736434   -4.4841637   -4.4841637   -3.2281198 -0.0016975519   -4.4841637     1.256044      1024000 
   53000   0.83639203   -4.4848703   -4.4848703   -3.2302848 0.0027992164   -4.4848703    1.2545855      1024000 
   54000   0.84006917   -4.4922121   -4.4922121   -3.2321109  0.021032867   -4.4922121    1.2601012      1024000 
   55000   0.84645205    -4.504037    -4.504037   -3.2343615  0.043433295    -4.504037    1.2696755      1024000 
   56000   0.85416582   -4.5183856   -4.5183856   -3.2371395  0.073898107   -4.5183856    1.2812461      1024000 
   57000   0.85932649   -4.5286962   -4.5286962   -3.2397091   0.10424865   -4.5286962    1.2889871      1024000 
   58000   0.86239678   -4.5360607   -4.5360607   -3.2424682    0.1200033   -4.5360607    1.2935925      1024000 
   59000   0.86461987   -4.5422346   -4.5422346   -3.2453075   0.12831999   -4.5422346    1.2969272      1024000 
   60000   0.86410477   -4.5440271   -4.5440271   -3.2478726   0.12535458   -4.5440271    1.2961545      1024000 
   61000   0.85924046   -4.5400177   -4.5400177   -3.2511597   0.10998953   -4.5400177    1.2888581      1024000 
   62000   0.85491784   -4.5373111   -4.5373111   -3.2549369  0.095182596   -4.5373111    1.2823742      1024000 
   63000   0.85002457   -4.5347611   -4.5347611   -3.2597268  0.086437414   -4.5347611    1.2750343      1024000 
   64000   0.84826084   -4.5362363   -4.5362363   -3.2638476  0.081175034   -4.5362363    1.2723887      1024000 
   65000   0.84862342   -4.5411145   -4.5411145    -3.268182  0.096577223   -4.5411145    1.2729325      1024000 
   66000   0.85315414   -4.5529019   -4.5529019   -3.2731733   0.12861465   -4.5529019    1.2797286      1024000 
   67000   0.86071159   -4.5704934   -4.5704934   -3.2794286   0.16461276   -4.5704934    1.2910648      1024000 
   68000   0.87023511   -4.5914853   -4.5914853   -3.2861353   0.23014773   -4.5914853      1.30535      1024000 
   69000   0.87975889   -4.6129174   -4.6129174   -3.2932817   0.30499527   -4.6129174    1.3196357      1024000 
   70000   0.88671798   -4.6318805   -4.6318805   -3.3018063   0.35534637   -4.6318805    1.3300743      1024000 
   71000   0.88607517   -4.6377283   -4.6377283   -3.3086182   0.38838655   -4.6377283    1.3291101      1024000 
   72000   0.88262931   -4.6406444   -4.6406444   -3.3167031   0.39891061   -4.6406444    1.3239413      1024000 
   73000   0.87520721    -4.647064    -4.647064   -3.3342558   0.45947943    -4.647064    1.3128082      1024000 
   74000   0.86484786   -4.6577671   -4.6577671    -3.360498   0.52961726   -4.6577671    1.2972692      1024000 
   75000   0.85785505   -4.6733473   -4.6733473   -3.3865673   0.54666367   -4.6733473      1.28678      1024000 
   76000    0.8519982   -4.6874499   -4.6874499   -3.4094552   0.54927821   -4.6874499    1.2779947      1024000 
   77000   0.84996653   -4.7030768   -4.7030768   -3.4281296   0.54349204   -4.7030768    1.2749472      1024000 
   78000   0.85232233   -4.7212535   -4.7212535   -3.4427726   0.53452724   -4.7212535    1.2784809      1024000 
   79000   0.85480856   -4.7367249   -4.7367249   -3.4545147   0.53358262   -4.7367249    1.2822102      1024000 
   80000   0.85040776   -4.7384917   -4.7384917   -3.4628826   0.50232737   -4.7384917    1.2756091      1024000 
   81000   0.83423113    -4.720059    -4.720059   -3.4687149    0.3851066    -4.720059    1.2513442      1024000 
   82000   0.81306391   -4.6924247   -4.6924247   -3.4728314   0.26787312   -4.6924247    1.2195934      1024000 
   83000    0.7933091   -4.6661191   -4.6661191   -3.4761578   0.17242804   -4.6661191    1.1899612      1024000 
   84000   0.77373865   -4.6396032   -4.6396032   -3.4789976   0.10423965   -4.6396032    1.1606056      1024000 
   85000   0.75732447   -4.6181766   -4.6181766   -3.4821922  0.042315729   -4.6181766    1.1359844      1024000 
   86000   0.74153606   -4.5981617   -4.5981617   -3.4858599 -0.022440092   -4.5981617    1.1123018      1024000 
   87000   0.72976959   -4.5822081   -4.5822081   -3.4875559   -0.0894519   -4.5822081    1.0946522      1024000 
   88000   0.71897915   -4.5656299   -4.5656299   -3.4871633  -0.14584029   -4.5656299    1.0784665      1024000 
   89000    0.7082298   -4.5479074   -4.5479074   -3.4855648  -0.19336331   -4.5479074    1.0623425      1024000 
   90000   0.70129241   -4.5333618   -4.5333618   -3.4814253  -0.22932263   -4.5333618    1.0519365      1024000 
   91000   0.69770397   -4.5225651   -4.5225651   -3.4760112  -0.24601457   -4.5225651    1.0465538      1024000 
   92000   0.69662713   -4.5143711   -4.5143711   -3.4694326  -0.24645388   -4.5143711    1.0449386      1024000 
   93000   0.69753331   -4.5107233   -4.5107233   -3.4644254  -0.23651391   -4.5107233    1.0462978      1024000 
   94000   0.70190524   -4.5133158   -4.5133158   -3.4604601  -0.21778848   -4.5133158    1.0528557      1024000 
   95000   0.70943302   -4.5216282   -4.5216282   -3.4574808  -0.17755783   -4.5216282    1.0641474      1024000 
   96000   0.71858505   -4.5335434   -4.5335434   -3.4556681  -0.14385858   -4.5335434    1.0778754      1024000 
   97000   0.72502011   -4.5435586   -4.5435586   -3.4560306 -0.089481419   -4.5435586     1.087528      1024000 
   98000   0.73134585    -4.556423    -4.556423   -3.4594064 -0.053523314    -4.556423    1.0970165      1024000 
   99000   0.73752327   -4.5697571   -4.5697571   -3.4634744  -0.02142027   -4.5697571    1.1062827      1024000 
  100000   0.74149151     -4.58098     -4.58098    -3.468745 -0.0010567968     -4.58098     1.112235      1024000 
  101000   0.74124154   -4.5860082   -4.5860082   -3.4741482  0.011159368   -4.5860082    1.1118601      1024000 
  102000    0.7403687   -4.5894226   -4.5894226   -3.4788718 0.0076271267   -4.5894226    1.1105508      1024000 
  103000   0.73777733   -4.5894047   -4.5894047    -3.482741 -0.0038225889   -4.5894047    1.1066637      1024000 
  104000   0.73566667   -4.5894127   -4.5894127    -3.485915 -0.012771946   -4.5894127    1.1034978      1024000 
  105000   0.73425853   -4.5893352   -4.5893352   -3.4879496 -0.023904738   -4.5893352    1.1013856      1024000 
  106000    0.7316076   -4.5866198   -4.5866198   -3.4892106 -0.031879988   -4.5866198    1.0974092      1024000 
  107000   0.73170038   -4.5883934   -4.5883934   -3.4908451 -0.035415089   -4.5883934    1.0975483      1024000 
  108000   0.73119516   -4.5899563   -4.5899563   -3.4931658 -0.032477071   -4.5899563    1.0967905      1024000 
  109000   0.73335662   -4.5948959   -4.5948959   -3.4948632 -0.031274229   -4.5948959    1.1000327      1024000 
  110000   0.73347448   -4.5976405   -4.5976405    -3.497431 -0.024233477   -4.5976405    1.1002095      1024000 
  111000   0.73434913    -4.600394    -4.600394   -3.4988725 -0.017326011    -4.600394    1.1015215      1024000 
  112000   0.73575925   -4.6035455   -4.6035455   -3.4999089 -0.0078139707   -4.6035455    1.1036366      1024000 
  113000   0.73741003   -4.6077134   -4.6077134   -3.5016006 -0.0064616377   -4.6077134    1.1061128      1024000 
  114000   0.73741032   -4.6101628   -4.6101628   -3.5040495 0.0052042648   -4.6101628    1.1061132      1024000 
  115000   0.73642126   -4.6110467   -4.6110467    -3.506417 -0.0031975108   -4.6110467    1.1046296      1024000 
  116000   0.73450521   -4.6104027   -4.6104027   -3.5086472 -0.0019994262   -4.6104027    1.1017556      1024000 
  117000   0.73367871   -4.6110093   -4.6110093   -3.5104935 -0.0064812182   -4.6110093    1.1005158      1024000 
  118000   0.73320059   -4.6121824   -4.6121824   -3.5123838  -0.01029185   -4.6121824    1.0997986      1024000 
  119000    0.7318486   -4.6118407   -4.6118407     -3.51407 -0.012808378   -4.6118407    1.0977707      1024000 
  120000   0.73247014   -4.6135285   -4.6135285   -3.5148256 -0.011841415   -4.6135285     1.098703      1024000 
  121000   0.73254285   -4.6147805   -4.6147805   -3.5159684 -0.0072783624   -4.6147805    1.0988121      1024000 
  122000   0.73340026   -4.6178288   -4.6178288   -3.5177306 -0.0048328007   -4.6178288    1.1000982      1024000 
  123000   0.73355528   -4.6196773   -4.6196773   -3.5193466 -0.0028609243   -4.6196773    1.1003307      1024000 
  124000   0.73222281   -4.6197761   -4.6197761   -3.5214441 -0.00093439018   -4.6197761     1.098332      1024000 
  125000   0.73339104   -4.6224642   -4.6224642   -3.5223799 0.0041107329   -4.6224642    1.1000843      1024000 
  126000    0.7340045   -4.6249031   -4.6249031   -3.5238986 0.0038293755   -4.6249031    1.1010045      1024000 
  127000   0.73405941   -4.6262696   -4.6262696   -3.5251827 0.0078488792   -4.6262696    1.1010869      1024000 
  128000   0.73348543    -4.626405    -4.626405   -3.5261791 0.0065928667    -4.626405    1.1002259      1024000 
  129000   0.73443023   -4.6288964   -4.6288964   -3.5272533 0.0021257858   -4.6288964    1.1016431      1024000 
  130000   0.73340452   -4.6285661   -4.6285661   -3.5284615 0.0014029288   -4.6285661    1.1001045      1024000 
  131000   0.73283156   -4.6294047   -4.6294047   -3.5301596 -0.0049963088   -4.6294047    1.0992451      1024000 
  132000    0.7316286   -4.6286277   -4.6286277    -3.531187 -0.0072987225   -4.6286277    1.0974407      1024000 
  133000   0.73192893   -4.6301426   -4.6301426   -3.5322514 -0.0099476551   -4.6301426    1.0978912      1024000 
  134000    0.7320083     -4.63072     -4.63072   -3.5327098 -0.0060195766     -4.63072    1.0980102      1024000 
  135000    0.7315439   -4.6319314   -4.6319314   -3.5346178 -0.008762131   -4.6319314    1.0973136      1024000 
  136000   0.73200765   -4.6335321   -4.6335321   -3.5355228 -0.0056866999   -4.6335321    1.0980092      1024000 
  137000   0.73208356   -4.6343051   -4.6343051    -3.536182 -0.0027140829   -4.6343051    1.0981231      1024000 
  138000   0.73302716   -4.6364226   -4.6364226   -3.5368841 -0.0015293938   -4.6364226    1.0995385      1024000 
  139000   0.73222485   -4.6356395   -4.6356395   -3.5373045 -0.0020176297   -4.6356395     1.098335      1024000 
  140000   0.73222144   -4.6371792   -4.6371792   -3.5388493 -0.0016247571   -4.6371792    1.0983299      1024000 
  141000    0.7323452   -4.6383189   -4.6383189   -3.5398034 0.00034637538   -4.6383189    1.0985156      1024000 
  142000   0.73171322   -4.6387511   -4.6387511   -3.5411835  0.004043888   -4.6387511    1.0975676      1024000 
  143000   0.73172112   -4.6391478   -4.6391478   -3.5415683 0.0045261997   -4.6391478    1.0975795      1024000 
  144000   0.73138092   -4.6400001   -4.6400001    -3.542931  0.012076055   -4.6400001    1.0970691      1024000 
  145000   0.73267799   -4.6435025   -4.6435025   -3.5444877 0.0048865386   -4.6435025    1.0990148      1024000 
  146000   0.73304679   -4.6440656   -4.6440656   -3.5444976   0.00772627   -4.6440656     1.099568      1024000 
  147000   0.73204419    -4.642584    -4.642584     -3.54452 0.0068950267    -4.642584    1.0980641      1024000 
  148000     0.732284   -4.6439585   -4.6439585   -3.5455347 0.0042450806   -4.6439585    1.0984238      1024000 
  149000   0.73191051   -4.6437419   -4.6437419   -3.5458784 -0.00022296339   -4.6437419    1.0978635      1024000 
  150000   0.73226919   -4.6452444   -4.6452444   -3.5468428  0.001889375   -4.6452444    1.0984016      1024000 
  151000   0.73111172   -4.6443835   -4.6443835   -3.5477182 0.0053286016   -4.6443835    1.0966654      1024000 
  152000   0.73027385   -4.6450488   -4.6450488   -3.5496402 0.00011085407   -4.6450488    1.0954085      1024000 
  153000   0.73011428   -4.6455665   -4.6455665   -3.5503973 0.0016721975   -4.6455665    1.0951692      1024000 
  154000   0.73133295   -4.6484508   -4.6484508   -3.5514536 -0.00040869109   -4.6484508    1.0969972      1024000 
  155000   0.73125885   -4.6491243   -4.6491243   -3.5522382 0.0067738057   -4.6491243     1.096886      1024000 
  156000    0.7318884   -4.6512305   -4.6512305   -3.5534001  0.004820984   -4.6512305    1.0978304      1024000 
  157000   0.73155568   -4.6507071   -4.6507071   -3.5533758 0.0058424481   -4.6507071    1.0973313      1024000 
  158000   0.73100957   -4.6507997   -4.6507997   -3.5542875 0.0014033916   -4.6507997    1.0965121      1024000 
  159000   0.73133895   -4.6522055   -4.6522055   -3.5551993  0.003708224   -4.6522055    1.0970062      1024000 
  160000   0.73213521   -4.6538061   -4.6538061   -3.5556056 -0.00051336784   -4.6538061    1.0982006      1024000 
  161000   0.73072717   -4.6518177   -4.6518177   -3.5557291 0.0054598379   -4.6518177    1.0960885      1024000 
  162000   0.73223481   -4.6549137   -4.6549137   -3.5565637 0.0053631717   -4.6549137      1.09835      1024000 
  163000   0.73223074   -4.6554886   -4.6554886   -3.5571447 0.0040373815   -4.6554886    1.0983439      1024000 
  164000   0.73203424   -4.6568177   -4.6568177   -3.5587686 0.0062185626   -4.6568177    1.0980491      1024000 
  165000   0.73253876   -4.6576914   -4.6576914   -3.5588854 0.0090671118   -4.6576914    1.0988059      1024000 
  166000   0.73378677   -4.6602667   -4.6602667   -3.5595888  0.012572885   -4.6602667    1.1006779      1024000 
  167000   0.73374261   -4.6605893   -4.6605893   -3.5599776  0.015731306   -4.6605893    1.1006117      1024000 
  168000   0.73504418   -4.6632856   -4.6632856   -3.5607216  0.012038575   -4.6632856     1.102564      1024000 
  169000   0.73347618   -4.6613268   -4.6613268   -3.5611148  0.014733195   -4.6613268     1.100212      1024000 
  170000   0.73336665   -4.6633473   -4.6633473   -3.5632995  0.013857543   -4.6633473    1.1000477      1024000 
  171000   0.73425643   -4.6643355   -4.6643355   -3.5629531  0.012717048   -4.6643355    1.1013824      1024000 
  172000   0.73379934   -4.6645735   -4.6645735   -3.5638767  0.017055394   -4.6645735    1.1006968      1024000 
  173000   0.73410384   -4.6665813   -4.6665813   -3.5654278  0.016082746   -4.6665813    1.1011535      1024000 
  174000   0.73433484   -4.6674146   -4.6674146   -3.5659146  0.022319555   -4.6674146       1.1015      1024000 
  175000   0.73572587   -4.6701096   -4.6701096    -3.566523  0.021757234   -4.6701096    1.1035866      1024000 
  176000   0.73656298   -4.6709112   -4.6709112   -3.5660689  0.024061631   -4.6709112    1.1048422      1024000 
  177000   0.73570556   -4.6709086   -4.6709086   -3.5673525  0.026649314   -4.6709086    1.1035561      1024000 
  178000   0.73596711   -4.6722658   -4.6722658   -3.5683174  0.027585391   -4.6722658    1.1039484      1024000 
  179000   0.73719356   -4.6740474   -4.6740474   -3.5682593  0.023593411   -4.6740474    1.1057881      1024000 
  180000   0.73582424   -4.6723025   -4.6723025   -3.5685684  0.030094554   -4.6723025    1.1037341      1024000 
  181000   0.73570554   -4.6732094   -4.6732094   -3.5696533  0.030554159   -4.6732094    1.1035561      1024000 
  182000   0.73665424      -4.6759      -4.6759   -3.5709209  0.029561627      -4.6759    1.1049791      1024000 
  183000   0.73634167   -4.6757227   -4.6757227   -3.5712125  0.032454745   -4.6757227    1.1045103      1024000 
  184000   0.73749314   -4.6786263   -4.6786263   -3.5723888  0.036040116   -4.6786263    1.1062375      1024000 
  185000   0.73820895   -4.6799352   -4.6799352    -3.572624  0.037306972   -4.6799352    1.1073112      1024000 
  186000   0.73840288   -4.6815506   -4.6815506   -3.5739485  0.046068502   -4.6815506    1.1076021      1024000 
  187000   0.73866623   -4.6826506   -4.6826506   -3.5746535  0.044265226   -4.6826506    1.1079971      1024000 
  188000   0.73887722   -4.6835336   -4.6835336     -3.57522  0.054581212   -4.6835336    1.1083136      1024000 
  189000   0.74024727   -4.6870181   -4.6870181   -3.5766494  0.058059584   -4.6870181    1.1103687      1024000 
  190000   0.74077617   -4.6883832   -4.6883832   -3.5772212  0.057645299   -4.6883832     1.111162      1024000 
  191000   0.73953251   -4.6873843   -4.6873843   -3.5780878  0.061246237   -4.6873843    1.1092965      1024000 
  192000   0.74069813   -4.6896937   -4.6896937   -3.5786487  0.047189281   -4.6896937    1.1110449      1024000 
  193000   0.73857787   -4.6870667   -4.6870667   -3.5792021  0.053126814   -4.6870667    1.1078646      1024000 
  194000    0.7366763   -4.6851399   -4.6851399   -3.5801277   0.05263149   -4.6851399    1.1050122      1024000 
  195000   0.73614976    -4.685688    -4.685688   -3.5814656  0.038006862    -4.685688    1.1042224      1024000 
  196000   0.73488704   -4.6845226   -4.6845226   -3.5821942  0.032338375   -4.6845226    1.1023283      1024000 
  197000   0.73350418   -4.6822533   -4.6822533   -3.5819993  0.025198898   -4.6822533     1.100254      1024000 
  198000   0.73284523   -4.6808528   -4.6808528   -3.5815872  0.019364068   -4.6808528    1.0992656      1024000 
  199000   0.73121663   -4.6786408   -4.6786408   -3.5818181  0.016056122   -4.6786408    1.0968227      1024000 
  200000    0.7299979   -4.6764944   -4.6764944   -3.5814998 0.0083179622   -4.6764944    1.0949946      1024000 
  201000   0.72897704   -4.6735551   -4.6735551   -3.5800918 0.0051911111   -4.6735551    1.0934633      1024000 
  202000   0.72754219   -4.6712605   -4.6712605   -3.5799494 -0.0028306084   -4.6712605    1.0913111      1024000 
  203000   0.72793485   -4.6714666   -4.6714666   -3.5795665 -0.0093704162   -4.6714666    1.0919001      1024000 
  204000   0.72710913   -4.6701299   -4.6701299   -3.5794684 -0.016959257   -4.6701299    1.0906615      1024000 
  205000   0.72628919   -4.6677571   -4.6677571   -3.5783255 -0.019138456   -4.6677571    1.0894316      1024000 
  206000   0.72556664   -4.6664851   -4.6664851   -3.5781373 -0.015386109   -4.6664851    1.0883477      1024000 
  207000   0.72644357   -4.6672728   -4.6672728   -3.5776097 -0.024279321   -4.6672728    1.0896631      1024000 
  208000    0.7252055   -4.6645577   -4.6645577   -3.5767517 -0.021561874   -4.6645577     1.087806      1024000 
  209000     0.725906   -4.6648965   -4.6648965   -3.5760397 -0.021493697   -4.6648965    1.0888568      1024000 
  210000   0.72606779   -4.6645262   -4.6645262   -3.5754267 -0.019500253   -4.6645262    1.0890995      1024000 
  211000   0.72696988   -4.6650898   -4.6650898   -3.5746372 -0.011269273   -4.6650898    1.0904526      1024000 
  212000   0.72904585   -4.6679028   -4.6679028   -3.5743362 -0.016480779   -4.6679028    1.0935666      1024000 
  213000   0.73029926   -4.6688666   -4.6688666   -3.5734199 -0.010016952   -4.6688666    1.0954467      1024000 
  214000   0.72925288   -4.6683201   -4.6683201    -3.574443 0.00030587646   -4.6683201    1.0938771      1024000 
  215000   0.73042469   -4.6704125   -4.6704125   -3.5747777 0.0053251176   -4.6704125    1.0956348      1024000 
  216000   0.73202637   -4.6727253   -4.6727253    -3.574688 0.0064705135   -4.6727253    1.0980373      1024000 
  217000   0.73239862   -4.6741789   -4.6741789   -3.5755832 0.0094104661   -4.6741789    1.0985957      1024000 
  218000   0.73235609   -4.6740007   -4.6740007   -3.5754688   0.01806708   -4.6740007    1.0985319      1024000 
  219000   0.73302527   -4.6761309   -4.6761309   -3.5765952  0.019270086   -4.6761309    1.0995357      1024000 
  220000   0.73349758   -4.6776343   -4.6776343   -3.5773901  0.022014403   -4.6776343    1.1002441      1024000 
  221000   0.73366374   -4.6792529   -4.6792529   -3.5787595  0.027741386   -4.6792529    1.1004934      1024000 
  222000    0.7340698   -4.6811969   -4.6811969   -3.5800944  0.030656864   -4.6811969    1.1011025      1024000 
  223000   0.73314063   -4.6809133   -4.6809133   -3.5812046   0.03970478   -4.6809133    1.0997087      1024000 
  224000   0.73510708   -4.6837514   -4.6837514    -3.581093  0.028296746   -4.6837514    1.1026584      1024000 
  225000   0.73536309   -4.6848052   -4.6848052   -3.5817628  0.031288945   -4.6848052    1.1030424      1024000 
  226000   0.73539803   -4.6851428   -4.6851428    -3.582048  0.032710995   -4.6851428    1.1030948      1024000 
  227000   0.73510173   -4.6844106   -4.6844106   -3.5817603  0.035190733   -4.6844106    1.1026504      1024000 
  228000   0.73366958   -4.6833767   -4.6833767   -3.5828746  0.036985197   -4.6833767    1.1005021      1024000 
  229000   0.73513177   -4.6855526   -4.6855526   -3.5828572  0.029896062   -4.6855526    1.1026954      1024000 
  230000   0.73266627   -4.6818677   -4.6818677   -3.5828705   0.03374975   -4.6818677    1.0989972      1024000 
  231000   0.73257618   -4.6814515   -4.6814515   -3.5825894  0.032655118   -4.6814515     1.098862      1024000 
  232000   0.73221946   -4.6810569   -4.6810569   -3.5827299  0.028017506   -4.6810569     1.098327      1024000 
  233000    0.7318671   -4.6807172   -4.6807172   -3.5829188  0.018286863   -4.6807172    1.0977984      1024000 
  234000   0.73041741   -4.6775853   -4.6775853   -3.5819614  0.016395119   -4.6775853    1.0956239      1024000 
  235000   0.73007546   -4.6777767   -4.6777767   -3.5826657  0.012370398   -4.6777767     1.095111      1024000 
  236000   0.72944851   -4.6769064   -4.6769064   -3.5827358 0.0041674995   -4.6769064    1.0941705      1024000 
  237000   0.72941632   -4.6760588   -4.6760588   -3.5819365 0.0035435715   -4.6760588    1.0941223      1024000 
  238000   0.72934706   -4.6756105   -4.6756105   -3.5815921 0.0015394202   -4.6756105    1.0940184      1024000 
  239000   0.72863852   -4.6738521   -4.6738521   -3.5808966 0.0039114102   -4.6738521    1.0929556      1024000 
  240000   0.72894193   -4.6739496   -4.6739496   -3.5805389 -4.8457877e-05   -4.6739496    1.0934107      1024000 
  241000   0.72801102   -4.6721384   -4.6721384   -3.5801241 -0.0015164621   -4.6721384    1.0920143      1024000 
  242000   0.72769341   -4.6704991   -4.6704991   -3.5789612 -0.0019711056   -4.6704991    1.0915379      1024000 
  243000   0.72877221   -4.6712661   -4.6712661     -3.57811 -0.0039548953   -4.6712661    1.0931561      1024000 
  244000   0.72851481   -4.6704475   -4.6704475   -3.5776775 -0.00038686019   -4.6704475      1.09277      1024000 
  245000    0.7286492   -4.6703952   -4.6703952   -3.5774236 0.0016649051   -4.6703952    1.0929716      1024000 
  246000   0.72879832   -4.6707748   -4.6707748   -3.5775795 0.0014587791   -4.6707748    1.0931953      1024000 
  247000   0.72935393   -4.6715778   -4.6715778   -3.5775491 -0.0025098784   -4.6715778    1.0940287      1024000 
  248000   0.72931903   -4.6713349   -4.6713349   -3.5773586 0.0039645552   -4.6713349    1.0939763      1024000 
  249000   0.73071773   -4.6731573   -4.6731573   -3.5770829 0.0057907611   -4.6731573    1.0960744      1024000 
  250000   0.73078611   -4.6724732   -4.6724732   -3.5762963 0.0097758503   -4.6724732    1.0961769      1024000 
  251000   0.73068409   -4.6729209   -4.6729209    -3.576897  0.011527414   -4.6729209    1.0960239      1024000 
  252000   0.73186575   -4.6741736   -4.6741736   -3.5763772   0.01163179   -4.6741736    1.0977964      1024000 
  253000   0.73306794   -4.6747746   -4.6747746   -3.5751749  0.020611455   -4.6747746    1.0995997      1024000 
  254000   0.73279668   -4.6759237   -4.6759237   -3.5767309  0.015876394   -4.6759237    1.0991928      1024000 
  255000   0.73248829   -4.6751871   -4.6751871   -3.5764569  0.020367617   -4.6751871    1.0987302      1024000 
  256000   0.73323403    -4.676542    -4.676542   -3.5766932  0.024053354    -4.676542    1.0998488      1024000 
  257000   0.73320144   -4.6770103   -4.6770103   -3.5772104  0.027435587   -4.6770103    1.0997999      1024000 
  258000   0.73457846   -4.6783168   -4.6783168   -3.5764514  0.022431413   -4.6783168    1.1018655      1024000 
  259000   0.73318366   -4.6767833   -4.6767833     -3.57701  0.024244728   -4.6767833    1.0997733      1024000 
  260000   0.73392046   -4.6782049   -4.6782049   -3.5773264  0.019539494   -4.6782049    1.1008785      1024000 
  261000   0.73288508   -4.6775092   -4.6775092   -3.5781838  0.025518289   -4.6775092    1.0993254      1024000 
  262000   0.73289459   -4.6769075   -4.6769075   -3.5775678  0.023334203   -4.6769075    1.0993397      1024000 
  263000   0.73338214   -4.6770378   -4.6770378   -3.5769669  0.020650722   -4.6770378     1.100071      1024000 
  264000   0.73266074   -4.6761155   -4.6761155   -3.5771266  0.019816286   -4.6761155    1.0989889      1024000 
  265000   0.73078486   -4.6736329   -4.6736329   -3.5774579   0.02129308   -4.6736329    1.0961751      1024000 
  266000    0.7323567   -4.6754165   -4.6754165   -3.5768837  0.012121799   -4.6754165    1.0985328      1024000 
  267000   0.73240626   -4.6752246   -4.6752246   -3.5766174 0.0099472097   -4.6752246    1.0986072      1024000 
  268000   0.73111237   -4.6733656   -4.6733656   -3.5766993  0.016748782   -4.6733656    1.0966663      1024000 
  269000   0.73153895   -4.6735125   -4.6735125   -3.5762063  0.011890754   -4.6735125    1.0973062      1024000 
  270000    0.7304709   -4.6712942   -4.6712942     -3.57559  0.013302704   -4.6712942    1.0957041      1024000 
  271000   0.73035947   -4.6709666   -4.6709666   -3.5754296  0.010434333   -4.6709666     1.095537      1024000 
  272000   0.73150355   -4.6727425   -4.6727425   -3.5754894 0.0018886077   -4.6727425    1.0972531      1024000 
  273000   0.73024391   -4.6699747   -4.6699747   -3.5746111 0.0089688208   -4.6699747    1.0953636      1024000 
  274000   0.73133136   -4.6702861   -4.6702861   -3.5732912 0.0044448893   -4.6702861    1.0969948      1024000 
  275000   0.73059185   -4.6694727   -4.6694727   -3.5735871 0.0070538782   -4.6694727    1.0958855      1024000 
  276000   0.73078799   -4.6696988   -4.6696988    -3.573519 0.0044522325   -4.6696988    1.0961798      1024000 
  277000    0.7306134   -4.6688786   -4.6688786   -3.5729607 0.0047947718   -4.6688786    1.0959179      1024000 
  278000   0.72993239    -4.667634    -4.667634   -3.5727377 0.0061672564    -4.667634    1.0948964      1024000 
  279000   0.73097644   -4.6683398   -4.6683398   -3.5718774 0.0092626234   -4.6683398    1.0964624      1024000 
  280000   0.73092364   -4.6669397   -4.6669397   -3.5705564  0.010530306   -4.6669397    1.0963832      1024000 
  281000    0.7318604    -4.668198    -4.668198   -3.5704096  0.010891646    -4.668198    1.0977884      1024000 
  282000   0.73318624   -4.6694393   -4.6694393   -3.5696622 0.0094025821   -4.6694393    1.0997771      1024000 
  283000   0.73202182   -4.6678262   -4.6678262   -3.5697957  0.017174615   -4.6678262    1.0980305      1024000 
  284000   0.73290789   -4.6682289   -4.6682289   -3.5688693  0.016494156   -4.6682289    1.0993596      1024000 
  285000    0.7337742   -4.6698056   -4.6698056   -3.5691465  0.013470066   -4.6698056    1.1006591      1024000 
  286000   0.73362462   -4.6692298   -4.6692298   -3.5687952  0.016953315   -4.6692298    1.1004347      1024000 
  287000   0.73435486   -4.6696616   -4.6696616   -3.5681316  0.017883619   -4.6696616    1.1015301      1024000 
  288000   0.73468988   -4.6701461   -4.6701461   -3.5681135  0.015392215   -4.6701461    1.1020326      1024000 
  289000   0.73425247   -4.6684451   -4.6684451   -3.5670686  0.023206698   -4.6684451    1.1013765      1024000 
  290000   0.73484794   -4.6689874   -4.6689874   -3.5667177  0.016810746   -4.6689874    1.1022697      1024000 
  291000   0.73437312   -4.6680784   -4.6680784    -3.566521   0.01821546   -4.6680784    1.1015574      1024000 
  292000   0.73537612    -4.668916    -4.668916   -3.5658541  0.016407682    -4.668916    1.1030619      1024000 
  293000   0.73447066   -4.6679419   -4.6679419   -3.5662381  0.019781468   -4.6679419    1.1017037      1024000 
  294000   0.73502185   -4.6680926   -4.6680926   -3.5655621  0.018449337   -4.6680926    1.1025305      1024000 
  295000   0.73421589   -4.6667096   -4.6667096    -3.565388  0.017486462   -4.6667096    1.1013216      1024000 
  296000   0.73432268   -4.6665527   -4.6665527   -3.5650709  0.014534102   -4.6665527    1.1014818      1024000 
  297000    0.7340925   -4.6658003   -4.6658003   -3.5646638  0.015249243   -4.6658003    1.1011365      1024000 
  298000   0.73432625   -4.6665235   -4.6665235   -3.5650363  0.011686405   -4.6665235    1.1014871      1024000 
  299000   0.73386185   -4.6651953   -4.6651953   -3.5644048  0.012660275   -4.6651953    1.1007905      1024000 
  300000   0.73393939   -4.6648039   -4.6648039   -3.5638971   0.01048265   -4.6648039    1.1009069      1024000 
  301000   0.73416021   -4.6640909   -4.6640909   -3.5628528  0.014948482   -4.6640909    1.1012381      1024000 
  302000   0.73390447    -4.662981    -4.662981   -3.5621265 0.0083959994    -4.662981    1.1008545      1024000 
  303000   0.73375336   -4.6619883   -4.6619883   -3.5613605  0.013708169   -4.6619883    1.1006278      1024000 
  304000   0.73393881   -4.6622134   -4.6622134   -3.5613074 0.0093951047   -4.6622134     1.100906      1024000 
  305000   0.73528823   -4.6620976   -4.6620976   -3.5591675 0.0087442468   -4.6620976    1.1029301      1024000 
  306000   0.73535638   -4.6618907   -4.6618907   -3.5588584 0.0091418811   -4.6618907    1.1030323      1024000 
  307000   0.73594679   -4.6622222   -4.6622222   -3.5583042  0.010730288   -4.6622222    1.1039179      1024000 
  308000   0.73534224   -4.6603385   -4.6603385   -3.5573274  0.011333311   -4.6603385    1.1030111      1024000 
  309000   0.73524277    -4.659329    -4.659329   -3.5564671  0.010801671    -4.659329    1.1028619      1024000 
  310000   0.73562922   -4.6594625   -4.6594625   -3.5560209  0.011755287   -4.6594625    1.1034416      1024000 
  311000   0.73496796   -4.6577345   -4.6577345   -3.5552848  0.011861161   -4.6577345    1.1024497      1024000 
  312000    0.7357576   -4.6579322   -4.6579322    -3.554298 0.0088856658   -4.6579322    1.1036342      1024000 
  313000   0.73604624   -4.6579366   -4.6579366   -3.5538695  0.010449513   -4.6579366    1.1040671      1024000 
  314000    0.7361024   -4.6570621   -4.6570621   -3.5529108  0.010501173   -4.6570621    1.1041514      1024000 
  315000   0.73511661   -4.6558434   -4.6558434   -3.5531707  0.012792385   -4.6558434    1.1026727      1024000 
  316000   0.73555577   -4.6561726   -4.6561726   -3.5528412  0.011608411   -4.6561726    1.1033314      1024000 
  317000   0.73576309   -4.6555666   -4.6555666   -3.5519242  0.014629476   -4.6555666    1.1036424      1024000 
  318000   0.73671055   -4.6564679   -4.6564679   -3.5514043  0.010471198   -4.6564679    1.1050636      1024000 
  319000   0.73655417   -4.6554767   -4.6554767   -3.5506477  0.010607192   -4.6554767     1.104829      1024000 
  320000   0.73676042   -4.6552312   -4.6552312   -3.5500928  0.010890737   -4.6552312    1.1051384      1024000 
  321000   0.73623743   -4.6532873   -4.6532873   -3.5489334  0.015108607   -4.6532873    1.1043539      1024000 
  322000   0.73689249   -4.6547718   -4.6547718   -3.5494353  0.013396781   -4.6547718    1.1053365      1024000 
  323000   0.73731665    -4.653921    -4.653921   -3.5479483   0.01558004    -4.653921    1.1059727      1024000 
  324000   0.73691461   -4.6536027   -4.6536027    -3.548233  0.012610448   -4.6536027    1.1053697      1024000 
  325000   0.73653129   -4.6524134   -4.6524134   -3.5476188  0.011290509   -4.6524134    1.1047947      1024000 
  326000   0.73681496   -4.6524982   -4.6524982    -3.547278  0.009873716   -4.6524982    1.1052202      1024000 
  327000   0.73723037    -4.653179    -4.653179   -3.5473357 0.0057849603    -4.653179    1.1058433      1024000 
  328000   0.73686787   -4.6524039   -4.6524039   -3.5471044  0.014181689   -4.6524039    1.1052996      1024000 
  329000   0.73693541   -4.6524947   -4.6524947   -3.5470938  0.011559931   -4.6524947    1.1054009      1024000 
  330000   0.73854341   -4.6534203   -4.6534203   -3.5456074 0.0087502527   -4.6534203    1.1078129      1024000 
  331000   0.73783938    -4.651613    -4.651613   -3.5448562  0.017478746    -4.651613    1.1067568      1024000 
  332000   0.73823399   -4.6529128   -4.6529128    -3.545564  0.014250161   -4.6529128    1.1073487      1024000 
  333000   0.73850599    -4.652853    -4.652853   -3.5450963  0.016016884    -4.652853    1.1077567      1024000 
  334000   0.73849329   -4.6517263   -4.6517263   -3.5439887  0.015334353   -4.6517263    1.1077377      1024000 
  335000   0.73873946   -4.6516995   -4.6516995   -3.5435926  0.015859211   -4.6516995    1.1081069      1024000 
  336000   0.73861944   -4.6504246   -4.6504246   -3.5424976  0.018182959   -4.6504246    1.1079269      1024000 
  337000   0.74018508   -4.6523988   -4.6523988   -3.5421235  0.014364361   -4.6523988    1.1102754      1024000 
  338000    0.7379277   -4.6492569   -4.6492569   -3.5423676  0.014687404   -4.6492569    1.1068893      1024000 
  339000    0.7387771   -4.6494223   -4.6494223   -3.5412589  0.012368774   -4.6494223    1.1081634      1024000 
  340000   0.73984352   -4.6496097   -4.6496097   -3.5398467  0.015596484   -4.6496097     1.109763      1024000 
  341000    0.7383435   -4.6466759   -4.6466759   -3.5391629  0.017802417   -4.6466759     1.107513      1024000 
  342000   0.73921677   -4.6469204   -4.6469204   -3.5380975  0.015591114   -4.6469204    1.1088229      1024000 
  343000   0.73893689   -4.6458286   -4.6458286   -3.5374256  0.016244297   -4.6458286    1.1084031      1024000 
  344000   0.73969528   -4.6465884   -4.6465884   -3.5370477  0.014185663   -4.6465884    1.1095407      1024000 
  345000   0.74023376    -4.646575    -4.646575   -3.5362266  0.010691671    -4.646575    1.1103484      1024000 
  346000   0.74030609   -4.6460259   -4.6460259   -3.5355691  0.014377755   -4.6460259    1.1104569      1024000 
  347000   0.73964965   -4.6443662   -4.6443662    -3.534894  0.014600523   -4.6443662    1.1094722      1024000 
  348000   0.73978688   -4.6438546   -4.6438546   -3.5341765  0.014825252   -4.6438546    1.1096781      1024000 
  349000   0.73898104   -4.6425007   -4.6425007   -3.5340314   0.01559875   -4.6425007    1.1084693      1024000 
  350000   0.73884155    -4.641082    -4.641082   -3.5328219  0.012894906    -4.641082    1.1082601      1024000 
  351000   0.73928087   -4.6414287   -4.6414287   -3.5325097 0.0066719989   -4.6414287    1.1089191      1024000 
  352000   0.73875905   -4.6398491   -4.6398491   -3.5317127   0.00786531   -4.6398491    1.1081363      1024000 
  353000   0.73922509   -4.6400606   -4.6400606   -3.5312252 0.0073429926   -4.6400606    1.1088354      1024000 
  354000    0.7384125   -4.6380991   -4.6380991   -3.5304826  0.013912067   -4.6380991    1.1076165      1024000 
  355000   0.73941189   -4.6388952   -4.6388952   -3.5297797  0.011450915   -4.6388952    1.1091156      1024000 
  356000   0.74088695   -4.6405408   -4.6405408   -3.5292126 0.0076477971   -4.6405408    1.1113282      1024000 
  357000   0.74010337   -4.6394611   -4.6394611   -3.5293083 0.0062460997   -4.6394611    1.1101528      1024000 
  358000   0.73902048   -4.6366348   -4.6366348   -3.5281063 0.0070199205   -4.6366348    1.1085285      1024000 
  359000   0.74048925   -4.6375009   -4.6375009   -3.5267693  0.010386174   -4.6375009    1.1107316      1024000 
  360000   0.74061875   -4.6370907   -4.6370907   -3.5261648 0.0091430173   -4.6370907    1.1109259      1024000 
  361000   0.74095334   -4.6366808   -4.6366808    -3.525253  0.010326179   -4.6366808    1.1114278      1024000 
  362000   0.74038296   -4.6358719   -4.6358719   -3.5252997 0.0068654501   -4.6358719    1.1105722      1024000 
  363000   0.74065289   -4.6358174   -4.6358174   -3.5248403 0.0080589028   -4.6358174    1.1109771      1024000 
  364000   0.74017609   -4.6343481   -4.6343481   -3.5240862  0.010259583   -4.6343481    1.1102619      1024000 
  365000   0.74051877   -4.6347796   -4.6347796   -3.5240037 0.0093671528   -4.6347796    1.1107759      1024000 
  366000   0.74040657   -4.6338825   -4.6338825   -3.5232749  0.009950802   -4.6338825    1.1106076      1024000 
  367000   0.74018621   -4.6340211   -4.6340211    -3.523744  0.013408415   -4.6340211    1.1102771      1024000 
  368000   0.74180773   -4.6353519   -4.6353519   -3.5226426  0.013785161   -4.6353519    1.1127093      1024000 
  369000   0.74179931   -4.6353086   -4.6353086   -3.5226119   0.01824402   -4.6353086    1.1126967      1024000 
  370000   0.74246571   -4.6356424   -4.6356424   -3.5219461  0.017104812   -4.6356424    1.1136963      1024000 
  371000   0.74319022    -4.635912    -4.635912   -3.5211289  0.014832434    -4.635912    1.1147831      1024000 
  372000    0.7430676   -4.6350311   -4.6350311    -3.520432  0.015649826   -4.6350311    1.1145991      1024000 
  373000   0.74350427   -4.6347185   -4.6347185   -3.5194643  0.018427528   -4.6347185    1.1152541      1024000 
  374000   0.74409701   -4.6354598   -4.6354598   -3.5193166  0.011344541   -4.6354598    1.1161433      1024000 
  375000   0.74230427   -4.6329765   -4.6329765   -3.5195224   0.02102734   -4.6329765    1.1134541      1024000 
  376000   0.74266997   -4.6325341   -4.6325341   -3.5185314  0.015921462   -4.6325341    1.1140027      1024000 
  377000   0.74361488   -4.6332999   -4.6332999   -3.5178798   0.01539909   -4.6332999    1.1154201      1024000 
  378000    0.7436317   -4.6327455   -4.6327455   -3.5173002  0.019970833   -4.6327455    1.1154453      1024000 
  379000   0.74397635   -4.6323909   -4.6323909   -3.5164286  0.020002376   -4.6323909    1.1159623      1024000 
  380000    0.7433435    -4.631912    -4.631912    -3.516899  0.016414573    -4.631912     1.115013      1024000 
  381000   0.74354203   -4.6314802   -4.6314802   -3.5161694  0.016879163   -4.6314802    1.1153108      1024000 
  382000   0.74289415   -4.6309733   -4.6309733   -3.5166344  0.016317772   -4.6309733     1.114339      1024000 
  383000   0.74279164   -4.6292927   -4.6292927   -3.5151076  0.015984166   -4.6292927    1.1141852      1024000 
  384000   0.74302617   -4.6289604   -4.6289604   -3.5144234  0.013321874   -4.6289604     1.114537      1024000 
  385000   0.74349311   -4.6297519   -4.6297519   -3.5145145  0.008516392   -4.6297519    1.1152374      1024000 
  386000   0.74301143   -4.6282748   -4.6282748   -3.5137599  0.014227296   -4.6282748    1.1145149      1024000 
  387000   0.74370662   -4.6289567   -4.6289567    -3.513399  0.004811076   -4.6289567    1.1155577      1024000 
  388000   0.74324939   -4.6263771   -4.6263771   -3.5115053  0.010245963   -4.6263771    1.1148718      1024000 
  389000   0.74467433   -4.6270756   -4.6270756   -3.5100664  0.010625068   -4.6270756    1.1170092      1024000 
  390000   0.74267664   -4.6227014   -4.6227014   -3.5086887  0.018888167   -4.6227014    1.1140127      1024000 
  391000   0.74391948   -4.6235257   -4.6235257   -3.5076487  0.014075362   -4.6235257     1.115877      1024000 
  392000   0.74511119   -4.6242027   -4.6242027   -3.5065382  0.014245492   -4.6242027    1.1176645      1024000 
  393000   0.74671595   -4.6262121   -4.6262121   -3.5061405  0.012536544   -4.6262121    1.1200716      1024000 
  394000   0.74559595   -4.6241045   -4.6241045   -3.5057129  0.012911114   -4.6241045    1.1183917      1024000 
  395000   0.74505405   -4.6214358   -4.6214358    -3.503857  0.013831748   -4.6214358    1.1175788      1024000 
  396000   0.74542052   -4.6211984   -4.6211984   -3.5030699  0.014450053   -4.6211984    1.1181285      1024000 
  397000   0.74502762   -4.6196378   -4.6196378   -3.5020986  0.016439276   -4.6196378    1.1175392      1024000 
  398000   0.74672921   -4.6215591   -4.6215591   -3.5014675 0.0096188043   -4.6215591    1.1200915      1024000 
  399000   0.74530881   -4.6190605   -4.6190605   -3.5010996  0.010547529   -4.6190605    1.1179609      1024000 
  400000   0.74629938   -4.6187403   -4.6187403   -3.4992935 0.0069979909   -4.6187403    1.1194468      1024000 
  401000   0.74630256   -4.6178613   -4.6178613   -3.4984097  0.015452511   -4.6178613    1.1194516      1024000 
  402000   0.74586443   -4.6168006   -4.6168006   -3.4980062  0.010425755   -4.6168006    1.1187944      1024000 
  403000   0.74597163    -4.615676    -4.615676   -3.4967208   0.01113388    -4.615676    1.1189552      1024000 
  404000   0.74613618   -4.6148688   -4.6148688   -3.4956668  0.012904068   -4.6148688     1.119202      1024000 
  405000   0.74750473   -4.6155131   -4.6155131   -3.4942583 0.0067684572   -4.6155131    1.1212548      1024000 
  406000   0.74637419   -4.6127829   -4.6127829   -3.4932239  0.014297471   -4.6127829     1.119559      1024000 
  407000   0.74683778   -4.6129859   -4.6129859   -3.4927315  0.014917484   -4.6129859    1.1202544      1024000 
  408000   0.74789469   -4.6129757   -4.6129757    -3.491136  0.012687729   -4.6129757    1.1218398      1024000 
  409000   0.74813211   -4.6127276   -4.6127276   -3.4905317  0.011959311   -4.6127276    1.1221959      1024000 
  410000    0.7471367   -4.6087966   -4.6087966   -3.4880938  0.016176195   -4.6087966    1.1207028      1024000 
  411000   0.74767888   -4.6085851   -4.6085851    -3.487069  0.015820429   -4.6085851     1.121516      1024000 
  412000   0.74826084   -4.6076772   -4.6076772   -3.4852883  0.013384417   -4.6076772     1.122389      1024000 
  413000   0.74992949   -4.6086241   -4.6086241   -3.4837321  0.013845138   -4.6086241     1.124892      1024000 
  414000   0.74843017   -4.6065854   -4.6065854   -3.4839424  0.018672998   -4.6065854     1.122643      1024000 
  415000   0.74857923   -4.6060921   -4.6060921   -3.4832256  0.015595705   -4.6060921    1.1228666      1024000 
  416000   0.74849137   -4.6046925   -4.6046925   -3.4819577  0.016290313   -4.6046925    1.1227348      1024000 
  417000   0.74950387   -4.6061768   -4.6061768   -3.4819233  0.012454391   -4.6061768    1.1242535      1024000 
  418000   0.74857589   -4.6043559   -4.6043559   -3.4814943  0.013185036   -4.6043559    1.1228616      1024000 
  419000   0.74987724   -4.6042701   -4.6042701   -3.4794565  0.009887121   -4.6042701    1.1248136      1024000 
  420000   0.74915002   -4.6030578   -4.6030578    -3.479335  0.012784511   -4.6030578    1.1237228      1024000 
  421000   0.74845591   -4.6007421   -4.6007421   -3.4780605 0.0065369797   -4.6007421    1.1226816      1024000 
  422000   0.74993467   -4.6025506   -4.6025506   -3.4776509 0.0051573656   -4.6025506    1.1248997      1024000 
  423000   0.74870516   -4.5999248   -4.5999248   -3.4768694 0.0064017208   -4.5999248    1.1230555      1024000 
  424000   0.74884392   -4.5990838   -4.5990838   -3.4758202 0.0051678924   -4.5990838    1.1232636      1024000 
  425000   0.74975646   -4.6002267   -4.6002267   -3.4755943 0.0033129413   -4.6002267    1.1246324      1024000 
  426000   0.74956935   -4.5997523   -4.5997523   -3.4754006 0.0066579128   -4.5997523    1.1243517      1024000 
  427000   0.74940229   -4.5980703   -4.5980703   -3.4739691 0.0089800712   -4.5980703    1.1241011      1024000 
  428000   0.75012831    -4.598076    -4.598076   -3.4728858  0.014498275    -4.598076    1.1251902      1024000 
  429000   0.74999454   -4.5970348   -4.5970348   -3.4720453  0.012561317   -4.5970348    1.1249895      1024000 
  430000   0.75030482   -4.5960278   -4.5960278   -3.4705729   0.01548332   -4.5960278    1.1254549      1024000 
  431000   0.75171419   -4.5971928   -4.5971928   -3.4696238   0.01157229   -4.5971928     1.127569      1024000 
  432000   0.75193538   -4.5962829   -4.5962829   -3.4683821  0.013179336   -4.5962829    1.1279008      1024000 
  433000   0.75214346     -4.59566     -4.59566   -3.4674471  0.013243623     -4.59566    1.1282129      1024000 
  434000   0.75340898   -4.5959528   -4.5959528   -3.4658416  0.012273292   -4.5959528    1.1301112      1024000 
  435000   0.75264534   -4.5936938   -4.5936938   -3.4647281  0.018527009   -4.5936938    1.1289657      1024000 
  436000   0.75208908   -4.5924317   -4.5924317   -3.4643003  0.018110448   -4.5924317    1.1281313      1024000 
  437000   0.75262311   -4.5921298   -4.5921298   -3.4631974  0.018000777   -4.5921298    1.1289324      1024000 
  438000   0.75467168   -4.5934906   -4.5934906   -3.4614854  0.013143233   -4.5934906    1.1320052      1024000 
  439000   0.75497176   -4.5930218   -4.5930218   -3.4605664  0.018170781   -4.5930218    1.1324553      1024000 
  440000   0.75376273   -4.5900541   -4.5900541   -3.4594123  0.022219042   -4.5900541    1.1306418      1024000 
  441000   0.75379389   -4.5898357   -4.5898357   -3.4591472  0.018916968   -4.5898357    1.1306885      1024000 
  442000    0.7541877   -4.5888183   -4.5888183    -3.457539  0.019708568   -4.5888183    1.1312792      1024000 
  443000   0.75442361   -4.5879527   -4.5879527   -3.4563196  0.017801537   -4.5879527    1.1316331      1024000 
  444000   0.75455862   -4.5869199   -4.5869199   -3.4550843  0.019284345   -4.5869199    1.1318356      1024000 
  445000   0.75526676   -4.5867853   -4.5867853   -3.4538874  0.018203286   -4.5867853    1.1328978      1024000 
  446000   0.75459877   -4.5844976   -4.5844976   -3.4526017  0.020681277   -4.5844976    1.1318959      1024000 
  447000   0.75442111    -4.583541    -4.583541   -3.4519116  0.012795619    -4.583541    1.1316294      1024000 
  448000   0.75376478   -4.5817484   -4.5817484   -3.4511035  0.019346497   -4.5817484    1.1306449      1024000 
  449000   0.75424335    -4.581276    -4.581276   -3.4499133  0.012864798    -4.581276    1.1313627      1024000 
  450000   0.75450664   -4.5808527   -4.5808527    -3.449095  0.011855768   -4.5808527    1.1317577      1024000 
  451000   0.75588784   -4.5813491   -4.5813491   -3.4475197  0.011827263   -4.5813491    1.1338295      1024000 
  452000   0.75498205    -4.579245    -4.579245   -3.4467743  0.015903847    -4.579245    1.1324708      1024000 
  453000   0.75497766   -4.5781508   -4.5781508   -3.4456866  0.012564044   -4.5781508    1.1324642      1024000 
  454000   0.75403514   -4.5764639   -4.5764639   -3.4454134  0.012453364   -4.5764639    1.1310504      1024000 
  455000   0.75405714   -4.5747202   -4.5747202   -3.4436368  0.008111185   -4.5747202    1.1310834      1024000 
  456000   0.75444171    -4.574143    -4.574143   -3.4424827   0.01317376    -4.574143    1.1316603      1024000 
  457000   0.75609756   -4.5761454   -4.5761454   -3.4420014 0.0041536849   -4.5761454     1.134144      1024000 
  458000   0.75516465   -4.5725659   -4.5725659   -3.4398212 0.0074651936   -4.5725659    1.1327447      1024000 
  459000   0.75604365   -4.5739421   -4.5739421   -3.4398789 0.0021377021   -4.5739421    1.1340632      1024000 
  460000   0.75517875   -4.5720525   -4.5720525   -3.4392867 0.0093819678   -4.5720525    1.1327658      1024000 
  461000   0.75509175    -4.569626    -4.569626   -3.4369907  0.011324482    -4.569626    1.1326353      1024000 
  462000   0.75570971   -4.5703521   -4.5703521   -3.4367898 0.0044291545   -4.5703521    1.1335623      1024000 
  463000   0.75531759   -4.5689138   -4.5689138   -3.4359397 0.0052823269   -4.5689138    1.1329741      1024000 
  464000   0.75687132   -4.5690417   -4.5690417    -3.433737 0.0077622653   -4.5690417    1.1353047      1024000 
  465000   0.75642526   -4.5686562   -4.5686562   -3.4340206 0.0059430517   -4.5686562    1.1346356      1024000 
  466000   0.75686025   -4.5678049   -4.5678049   -3.4325168  0.010862902   -4.5678049    1.1352881      1024000 
  467000   0.75666331   -4.5671055   -4.5671055   -3.4321128 0.0095414806   -4.5671055    1.1349927      1024000 
  468000   0.75784447   -4.5679732   -4.5679732   -3.4312088 0.0080731045   -4.5679732    1.1367644      1024000 
  469000   0.75793209   -4.5665931   -4.5665931   -3.4296972  0.014952358   -4.5665931    1.1368958      1024000 
  470000   0.75819986   -4.5655607   -4.5655607   -3.4282633  0.016673923   -4.5655607    1.1372975      1024000 
  471000   0.75980205   -4.5663515   -4.5663515   -3.4266508  0.018190571   -4.5663515    1.1397008      1024000 
  472000   0.76070832   -4.5670188   -4.5670188   -3.4259587   0.01630586   -4.5670188    1.1410602      1024000 
  473000   0.75992358   -4.5658587   -4.5658587   -3.4259756  0.019846354   -4.5658587    1.1398831      1024000 
  474000   0.76020043   -4.5655043   -4.5655043    -3.425206  0.018037218   -4.5655043    1.1402983      1024000 
  475000   0.75980808   -4.5642608   -4.5642608    -3.424551  0.022816705   -4.5642608    1.1397098      1024000 
  476000   0.76048549   -4.5642936   -4.5642936   -3.4235677  0.012589184   -4.5642936    1.1407259      1024000 
  477000   0.76048418   -4.5634507   -4.5634507   -3.4227268  0.014696305   -4.5634507     1.140724      1024000 
  478000    0.7598442    -4.561341    -4.561341    -3.421577  0.023323311    -4.561341     1.139764      1024000 
  479000   0.76010226    -4.561631    -4.561631   -3.4214799  0.015366119    -4.561631    1.1401511      1024000 
  480000   0.76153965   -4.5632272   -4.5632272     -3.42092  0.013256811   -4.5632272    1.1423072      1024000 
  481000    0.7601906   -4.5605379   -4.5605379   -3.4202543  0.016923637   -4.5605379    1.1402836      1024000 
  482000   0.76069668   -4.5599947   -4.5599947    -3.418952  0.015916739   -4.5599947    1.1410427      1024000 
  483000   0.76071508   -4.5592786   -4.5592786   -3.4182083  0.013837822   -4.5592786    1.1410703      1024000 
  484000   0.76075189   -4.5579439   -4.5579439   -3.4168183  0.012822328   -4.5579439    1.1411255      1024000 
  485000    0.7592256   -4.5548738   -4.5548738   -3.4160377  0.019076184   -4.5548738    1.1388361      1024000 
  486000   0.76089009   -4.5559831   -4.5559831   -3.4146503 0.0096515635   -4.5559831    1.1413328      1024000 
  487000   0.76044581   -4.5543731   -4.5543731   -3.4137067  0.010389968   -4.5543731    1.1406664      1024000 
  488000   0.76095504   -4.5531007   -4.5531007   -3.4116704  0.013124576   -4.5531007    1.1414303      1024000 
  489000    0.7616174   -4.5532342   -4.5532342   -3.4108104  0.013032302   -4.5532342    1.1424238      1024000 
  490000   0.76087075   -4.5519215   -4.5519215   -3.4106177  0.009700285   -4.5519215    1.1413038      1024000 
  491000   0.76188762   -4.5518786   -4.5518786   -3.4090495  0.012841179   -4.5518786    1.1428291      1024000 
  492000   0.76220026   -4.5509159   -4.5509159   -3.4076178  0.017102951   -4.5509159    1.1432981      1024000 
  493000   0.76263662   -4.5498317   -4.5498317   -3.4058791  0.016485698   -4.5498317    1.1439526      1024000 
  494000   0.76360838   -4.5501544   -4.5501544   -3.4047442  0.013049451   -4.5501544    1.1454102      1024000 
  495000   0.76396919   -4.5496655   -4.5496655    -3.403714 0.0088708312   -4.5496655    1.1459515      1024000 
  496000    0.7624986   -4.5464524   -4.5464524   -3.4027069  0.012225296   -4.5464524    1.1437456      1024000 
  497000   0.76265016    -4.545397    -4.545397   -3.4014241 0.0091097944    -4.545397    1.1439729      1024000 
  498000   0.76389563   -4.5459127   -4.5459127   -3.4000716 0.0061466346   -4.5459127    1.1458411      1024000 
  499000   0.76322557   -4.5425328   -4.5425328   -3.3976968  0.013065784   -4.5425328     1.144836      1024000 
  500000   0.76392955   -4.5422901   -4.5422901   -3.3963981   0.01063498   -4.5422901     1.145892      1024000 
  501000   0.76370169    -4.541236    -4.541236   -3.3956858 0.0098642889    -4.541236    1.1455502      1024000 
  502000   0.76355617   -4.5399655   -4.5399655   -3.3946335  0.015345477   -4.5399655    1.1453319      1024000 
  503000   0.76493668   -4.5405673   -4.5405673   -3.3931646  0.011726292   -4.5405673    1.1474027      1024000 
  504000   0.76437853    -4.538605    -4.538605   -3.3920396  0.019023544    -4.538605    1.1465655      1024000 
  505000   0.76606079   -4.5405554   -4.5405554   -3.3914665 0.0079314077   -4.5405554    1.1490888      1024000 
  506000   0.76439974   -4.5373254   -4.5373254   -3.3907281   0.01244171   -4.5373254    1.1465973      1024000 
  507000   0.76397157   -4.5359703   -4.5359703   -3.3900152  0.011543228   -4.5359703     1.145955      1024000 
  508000   0.76484658   -4.5362711   -4.5362711   -3.3890035 0.0088074428   -4.5362711    1.1472675      1024000 
  509000   0.76539083   -4.5362373   -4.5362373   -3.3881533 0.0051714925   -4.5362373    1.1480839      1024000 
  510000   0.76550952   -4.5348876   -4.5348876   -3.3866256 0.0092419236   -4.5348876    1.1482619      1024000 
  511000   0.76536067   -4.5326379   -4.5326379   -3.3845992  0.014941905   -4.5326379    1.1480387      1024000 
  512000   0.76509744   -4.5309463   -4.5309463   -3.3833025  0.015743762   -4.5309463    1.1476438      1024000 
  513000    0.7657172   -4.5311941   -4.5311941   -3.3826206  0.011913755   -4.5311941    1.1485735      1024000 
  514000   0.76630408   -4.5313058   -4.5313058    -3.381852 0.0076966366   -4.5313058    1.1494538      1024000 
  515000   0.76615328   -4.5301096   -4.5301096    -3.380882  0.013050103   -4.5301096    1.1492276      1024000 
  516000   0.76873051    -4.533043    -4.533043   -3.3799496 0.0076390522    -4.533043    1.1530934      1024000 
  517000   0.76827759   -4.5307772   -4.5307772   -3.3783632  0.011841492   -4.5307772     1.152414      1024000 
  518000   0.76852801   -4.5298763   -4.5298763   -3.3770866  0.013030134   -4.5298763    1.1527897      1024000 
  519000   0.76900367   -4.5295292   -4.5295292    -3.376026  0.012322727   -4.5295292    1.1535032      1024000 
  520000   0.76787383   -4.5265139   -4.5265139   -3.3747055  0.019096381   -4.5265139    1.1518084      1024000 
  521000   0.76821933   -4.5256659   -4.5256659   -3.3733393  0.012425458   -4.5256659    1.1523267      1024000 
  522000   0.76862429   -4.5247976   -4.5247976   -3.3718635  0.016512187   -4.5247976    1.1529341      1024000 
  523000   0.76897431   -4.5247987   -4.5247987   -3.3713396  0.013115742   -4.5247987    1.1534591      1024000 
  524000   0.77027525   -4.5260816   -4.5260816   -3.3706711  0.014161711   -4.5260816    1.1554105      1024000 
  525000   0.76881821   -4.5224788   -4.5224788   -3.3692538  0.018582011   -4.5224788     1.153225      1024000 
  526000    0.7698571   -4.5229864   -4.5229864   -3.3682031  0.017061795   -4.5229864    1.1547833      1024000 
  527000   0.76947284   -4.5202458   -4.5202458   -3.3660389  0.020547392   -4.5202458    1.1542069      1024000 
  528000   0.76968631   -4.5193859   -4.5193859   -3.3648587  0.015878367   -4.5193859    1.1545271      1024000 
  529000   0.77089192   -4.5192365   -4.5192365    -3.362901  0.016942439   -4.5192365    1.1563355      1024000 
  530000   0.77166972   -4.5187005   -4.5187005   -3.3611983   0.01653655   -4.5187005    1.1575022      1024000 
  531000   0.77094746    -4.516825    -4.516825   -3.3604062  0.015252152    -4.516825    1.1564188      1024000 
  532000   0.77014237   -4.5144087   -4.5144087   -3.3591975  0.018636513   -4.5144087    1.1552112      1024000 
  533000   0.77153961   -4.5153314   -4.5153314   -3.3580244  0.016125747   -4.5153314    1.1573071      1024000 
  534000   0.77143271   -4.5144935   -4.5144935   -3.3573468  0.014164909   -4.5144935    1.1571467      1024000 
  535000   0.77108936   -4.5130442   -4.5130442   -3.3564126  0.012702423   -4.5130442    1.1566317      1024000 
  536000   0.77179213   -4.5114339   -4.5114339   -3.3537481   0.01250395   -4.5114339    1.1576858      1024000 
  537000   0.77142226   -4.5097313   -4.5097313   -3.3526003  0.014146043   -4.5097313     1.157131      1024000 
  538000   0.77111642   -4.5087504   -4.5087504   -3.3520781  0.011458967   -4.5087504    1.1566723      1024000 
  539000   0.77182414   -4.5082133   -4.5082133   -3.3504794 0.0091851343   -4.5082133    1.1577339      1024000 
  540000   0.77202964   -4.5076773   -4.5076773   -3.3496352  0.011125376   -4.5076773    1.1580421      1024000 
  541000    0.7720854   -4.5072804   -4.5072804   -3.3491547 0.0054214338   -4.5072804    1.1581257      1024000 
  542000   0.77115611   -4.5046652   -4.5046652   -3.3479333 0.0080284012   -4.5046652    1.1567318      1024000 
  543000   0.77250869   -4.5044355   -4.5044355   -3.3456748 0.0097226203   -4.5044355    1.1587607      1024000 
  544000   0.77329793   -4.5041399   -4.5041399   -3.3441953 0.0050975307   -4.5041399    1.1599445      1024000 
  545000   0.77452403   -4.5042013   -4.5042013   -3.3424176 0.0051669825   -4.5042013    1.1617837      1024000 
  546000   0.77273394   -4.5004774   -4.5004774   -3.3413788  0.015303561   -4.5004774    1.1590986      1024000 
  547000   0.77353043   -4.5013354   -4.5013354   -3.3410421 0.0059827856   -4.5013354    1.1602933      1024000 
  548000   0.77197197   -4.4969136   -4.4969136    -3.338958  0.014176353   -4.4969136    1.1579556      1024000 
  549000    0.7726787   -4.4975745   -4.4975745   -3.3385588 0.0096685571   -4.4975745    1.1590157      1024000 
  550000   0.77330426   -4.4969046   -4.4969046   -3.3369505  0.010681708   -4.4969046     1.159954      1024000 
  551000   0.77385607   -4.4968321   -4.4968321   -3.3360504 0.0051007268   -4.4968321    1.1607817      1024000 
  552000   0.77490321   -4.4956744   -4.4956744   -3.3333219  0.011005231   -4.4956744    1.1623524      1024000 
  553000   0.77510339    -4.494696    -4.494696   -3.3320433  0.010795211    -4.494696    1.1626527      1024000 
  554000   0.77498363   -4.4937447   -4.4937447   -3.3312716  0.014584269   -4.4937447    1.1624731      1024000 
  555000   0.77522995   -4.4934168   -4.4934168   -3.3305742  0.010023453   -4.4934168    1.1628426      1024000 
  556000   0.77501339   -4.4920892   -4.4920892   -3.3295715  0.013237719   -4.4920892    1.1625177      1024000 
  557000   0.77585719   -4.4920324   -4.4920324    -3.328249  0.010542317   -4.4920324    1.1637834      1024000 
  558000   0.77772648    -4.493241    -4.493241   -3.3266537  0.011912935    -4.493241    1.1665874      1024000 
  559000    0.7771515   -4.4911371   -4.4911371   -3.3254122  0.016580148   -4.4911371    1.1657249      1024000 
  560000    0.7781945   -4.4917924   -4.4917924    -3.324503  0.015078136   -4.4917924    1.1672894      1024000 
  561000   0.77779309   -4.4903947   -4.4903947   -3.3237074  0.014132918   -4.4903947    1.1666873      1024000 
  562000   0.77698658   -4.4885865   -4.4885865    -3.323109  0.012070842   -4.4885865    1.1654775      1024000 
  563000   0.77783078   -4.4878633   -4.4878633   -3.3211195  0.014042781   -4.4878633    1.1667438      1024000 
  564000   0.77793114   -4.4871117   -4.4871117   -3.3202174  0.019710834   -4.4871117    1.1668943      1024000 
  565000   0.77860883   -4.4860907   -4.4860907   -3.3181798  0.016002091   -4.4860907    1.1679109      1024000 
  566000    0.7792238   -4.4859249   -4.4859249   -3.3170916  0.013798535   -4.4859249    1.1688333      1024000 
  567000   0.77849695   -4.4840203   -4.4840203   -3.3162773  0.015686753   -4.4840203    1.1677431      1024000 
  568000   0.77939943   -4.4831211   -4.4831211   -3.3140243  0.012563236   -4.4831211    1.1690968      1024000 
  569000   0.77839342   -4.4818743   -4.4818743   -3.3142865  0.015003539   -4.4818743    1.1675878      1024000 
  570000    0.7788579   -4.4816723   -4.4816723   -3.3133878  0.013760306   -4.4816723    1.1682845      1024000 
  571000   0.77780641   -4.4786293   -4.4786293    -3.311922  0.015867657   -4.4786293    1.1667073      1024000 
  572000   0.77896738   -4.4785968   -4.4785968   -3.3101481  0.013204655   -4.4785968    1.1684487      1024000 
  573000     0.778686   -4.4773515   -4.4773515   -3.3093249  0.013793809   -4.4773515    1.1680266      1024000 
  574000     0.779094   -4.4764384   -4.4764384   -3.3077998  0.015160878   -4.4764384    1.1686386      1024000 
  575000     0.777772    -4.473605    -4.473605   -3.3069494  0.016645661    -4.473605    1.1666556      1024000 
  576000   0.77933482    -4.474705    -4.474705   -3.3057051  0.012035524    -4.474705    1.1689999      1024000 
  577000   0.77864928   -4.4726011   -4.4726011   -3.3046296  0.012458811   -4.4726011    1.1679716      1024000 
  578000    0.7793505   -4.4725329   -4.4725329   -3.3035095 0.0095653224   -4.4725329    1.1690234      1024000 
  579000   0.77929975   -4.4706983   -4.4706983    -3.301751  0.016528427   -4.4706983    1.1689472      1024000 
  580000   0.78099599   -4.4716371   -4.4716371   -3.3001455  0.011352914   -4.4716371    1.1714916      1024000 
  581000   0.78145016   -4.4718615   -4.4718615   -3.2996887 0.0080399905   -4.4718615    1.1721729      1024000 
  582000   0.77973403    -4.468628    -4.468628   -3.2990294  0.014191249    -4.468628    1.1695987      1024000 
  583000   0.78077826   -4.4687823   -4.4687823   -3.2976172  0.013156062   -4.4687823     1.171165      1024000 
  584000   0.78205192   -4.4691372   -4.4691372   -3.2960617  0.011376804   -4.4691372    1.1730755      1024000 
  585000   0.78126459   -4.4656162   -4.4656162   -3.2937217  0.013319875   -4.4656162    1.1718945      1024000 
  586000   0.78298339   -4.4666017   -4.4666017    -3.292129  0.010740149   -4.4666017    1.1744727      1024000 
  587000    0.7819181   -4.4636881   -4.4636881   -3.2908133  0.014965815   -4.4636881    1.1728748      1024000 
  588000   0.78274548   -4.4639989   -4.4639989   -3.2898831  0.011282307   -4.4639989    1.1741158      1024000 
  589000   0.78192115   -4.4624233   -4.4624233    -3.289544  0.013576344   -4.4624233    1.1728793      1024000 
  590000   0.78243013   -4.4626608   -4.4626608    -3.289018  0.010393704   -4.4626608    1.1736428      1024000 
  591000   0.78307835   -4.4614261   -4.4614261   -3.2868109 0.0067634956   -4.4614261    1.1746151      1024000 
  592000   0.78416875   -4.4616905   -4.4616905   -3.2854398  0.008654696   -4.4616905    1.1762507      1024000 
  593000   0.78306818   -4.4589294   -4.4589294   -3.2843295  0.011427828   -4.4589294    1.1745999      1024000 
  594000   0.78525177   -4.4601572   -4.4601572    -3.282282 0.0046673062   -4.4601572    1.1778753      1024000 
  595000   0.78350129   -4.4567025   -4.4567025    -3.281453   0.01164848   -4.4567025    1.1752496      1024000 
  596000   0.78363284   -4.4555586   -4.4555586   -3.2801117  0.010181846   -4.4555586    1.1754469      1024000 
  597000   0.78464995   -4.4553519   -4.4553519   -3.2783793 0.0086999191   -4.4553519    1.1769725      1024000 
  598000   0.78385687    -4.453281    -4.453281   -3.2774981  0.014062364    -4.453281    1.1757829      1024000 
  599000   0.78444329   -4.4535366   -4.4535366   -3.2768741 0.0089915822   -4.4535366    1.1766625      1024000 
  600000   0.78386067   -4.4517398   -4.4517398   -3.2759512  0.015072424   -4.4517398    1.1757886      1024000 
  601000   0.78476354   -4.4510692   -4.4510692   -3.2739263  0.010456626   -4.4510692    1.1771429      1024000 
  602000   0.78456485    -4.450463    -4.450463   -3.2736181 0.0087636262    -4.450463    1.1768449      1024000 
  603000   0.78486595   -4.4488192   -4.4488192   -3.2715226  0.014069909   -4.4488192    1.1772965      1024000 
  604000   0.78700717    -4.450199    -4.450199   -3.2696906  0.012537981    -4.450199    1.1805084      1024000 
  605000    0.7868064   -4.4487086   -4.4487086   -3.2685014   0.01731939   -4.4487086    1.1802072      1024000 
  606000   0.78702124   -4.4481591   -4.4481591   -3.2676297  0.016691828   -4.4481591    1.1805295      1024000 
  607000   0.78894629   -4.4501801   -4.4501801   -3.2667631  0.010088392   -4.4501801     1.183417      1024000 
  608000   0.78778019    -4.447522    -4.447522   -3.2658542  0.016687338    -4.447522    1.1816679      1024000 
  609000   0.78816808     -4.44583     -4.44583   -3.2635803  0.015763132     -4.44583    1.1822497      1024000 
  610000   0.78841976   -4.4444717   -4.4444717   -3.2618445  0.015240194   -4.4444717    1.1826272      1024000 
  611000   0.78765532   -4.4425333   -4.4425333   -3.2610527  0.016092965   -4.4425333    1.1814806      1024000 
  612000   0.78795175   -4.4419815   -4.4419815   -3.2600563  0.015569744   -4.4419815    1.1819252      1024000 
  613000   0.78786389   -4.4408855   -4.4408855    -3.259092 0.0098970762   -4.4408855    1.1817934      1024000 
  614000    0.7877745   -4.4394239   -4.4394239   -3.2577646  0.015901616   -4.4394239    1.1816593      1024000 
  615000   0.78830604   -4.4398364   -4.4398364   -3.2573798  0.004768436   -4.4398364    1.1824567      1024000 
  616000   0.78705326   -4.4361489   -4.4361489   -3.2555714  0.016197202   -4.4361489    1.1805775      1024000 
  617000   0.78718036    -4.435268    -4.435268   -3.2544998  0.012023075    -4.435268    1.1807681      1024000 
  618000   0.78860674   -4.4352477   -4.4352477     -3.25234 0.0081167817   -4.4352477    1.1829077      1024000 
  619000   0.78876145   -4.4348974   -4.4348974   -3.2517576 0.0049463766   -4.4348974    1.1831398      1024000 
  620000   0.78941272   -4.4346135   -4.4346135   -3.2504968 0.0063655163   -4.4346135    1.1841167      1024000 
  621000   0.78883586    -4.431017    -4.431017   -3.2477656  0.016911283    -4.431017    1.1832514      1024000 
  622000   0.79039651   -4.4312479   -4.4312479   -3.2456555  0.012720964   -4.4312479    1.1855924      1024000 
  623000   0.78992691   -4.4291779   -4.4291779   -3.2442899 0.0098899535   -4.4291779     1.184888      1024000 
  624000   0.79018501    -4.428084    -4.428084   -3.2428089  0.014040385    -4.428084    1.1852751      1024000 
  625000   0.79115576   -4.4287066   -4.4287066   -3.2419754  0.013303678   -4.4287066    1.1867312      1024000 
  626000   0.79134769   -4.4273236   -4.4273236   -3.2403045  0.016466404   -4.4273236    1.1870191      1024000 
  627000   0.79235765   -4.4280376   -4.4280376   -3.2395036  0.011813224   -4.4280376    1.1885341      1024000 
  628000   0.79240594   -4.4279773   -4.4279773   -3.2393708 0.0071072226   -4.4279773    1.1886065      1024000 
  629000   0.79030583   -4.4239157   -4.4239157   -3.2384594  0.011516811   -4.4239157    1.1854563      1024000 
  630000   0.79129957   -4.4242652   -4.4242652   -3.2373182  0.013108988   -4.4242652     1.186947      1024000 
  631000   0.79103717   -4.4217747   -4.4217747   -3.2352213  0.012819911   -4.4217747    1.1865534      1024000 
  632000   0.79009169   -4.4188804   -4.4188804   -3.2337453  0.010949677   -4.4188804    1.1851351      1024000 
  633000   0.79042439   -4.4189045   -4.4189045   -3.2332703 0.0081102996   -4.4189045    1.1856342      1024000 
  634000   0.79129415   -4.4194488   -4.4194488     -3.23251 0.0021845996   -4.4194488    1.1869388      1024000 
  635000   0.79211582   -4.4192986   -4.4192986   -3.2311273 0.0034988828   -4.4192986    1.1881713      1024000 
  636000   0.79202856   -4.4174646   -4.4174646   -3.2294242 0.0069025271   -4.4174646    1.1880404      1024000 
  637000   0.79325634   -4.4183862   -4.4183862   -3.2285041 0.0041108981   -4.4183862    1.1898821      1024000 
  638000   0.79338385   -4.4163363   -4.4163363   -3.2262629  0.012346991   -4.4163363    1.1900734      1024000 
  639000   0.79332688   -4.4155026   -4.4155026   -3.2255147  0.014474211   -4.4155026    1.1899879      1024000 
  640000   0.79275016   -4.4134893   -4.4134893   -3.2243665  0.018526208   -4.4134893    1.1891228      1024000 
  641000   0.79540614   -4.4154278   -4.4154278    -3.222321  0.016210878   -4.4154278    1.1931068      1024000 
  642000   0.79535395   -4.4130362   -4.4130362   -3.2200077  0.020337911   -4.4130362    1.1930285      1024000 
  643000   0.79608851    -4.413042    -4.413042   -3.2189117  0.016129292    -4.413042    1.1941303      1024000 
  644000   0.79654773   -4.4126257   -4.4126257   -3.2178066  0.014633186   -4.4126257    1.1948192      1024000 
  645000   0.79470409   -4.4087264   -4.4087264   -3.2166727  0.016318482   -4.4087264    1.1920537      1024000 
  646000   0.79641696   -4.4098465   -4.4098465   -3.2152235   0.01279085   -4.4098465     1.194623      1024000 
  647000   0.79519889   -4.4074554   -4.4074554   -3.2146595  0.012176202   -4.4074554    1.1927959      1024000 
  648000   0.79466975    -4.405645    -4.405645   -3.2136428  0.011368145    -4.405645    1.1920022      1024000 
  649000   0.79436776   -4.4042647   -4.4042647   -3.2127154  0.012835371   -4.4042647    1.1915492      1024000 
  650000   0.79579856   -4.4051301   -4.4051301   -3.2114346 0.0078355886   -4.4051301    1.1936954      1024000 
  651000     0.796047   -4.4041092   -4.4041092   -3.2100411 0.0069081675   -4.4041092    1.1940681      1024000 
  652000   0.79657341   -4.4034244   -4.4034244   -3.2085667   0.01021578   -4.4034244    1.1948577      1024000 
  653000   0.79650453   -4.4020023   -4.4020023   -3.2072479  0.010884079   -4.4020023    1.1947544      1024000 
  654000    0.7961726   -4.4015417   -4.4015417   -3.2072853  0.014883568   -4.4015417    1.1942565      1024000 
  655000   0.79798133   -4.4021627   -4.4021627   -3.2051932 0.0097926631   -4.4021627    1.1969696      1024000 
  656000   0.79757002   -4.3998175   -4.3998175   -3.2034649  0.014061901   -4.3998175    1.1963526      1024000 
  657000   0.79765263   -4.3973822   -4.3973822   -3.2009057  0.017200229   -4.3973822    1.1964765      1024000 
  658000   0.79826395   -4.3971177   -4.3971177   -3.1997242  0.013656808   -4.3971177    1.1973935      1024000 
  659000   0.79829677   -4.3964074   -4.3964074   -3.1989646  0.010565081   -4.3964074    1.1974427      1024000 
  660000   0.79792367   -4.3956285   -4.3956285   -3.1987454  0.012702649   -4.3956285    1.1968831      1024000 
  661000   0.79764498   -4.3929229   -4.3929229   -3.1964579  0.013740428   -4.3929229     1.196465      1024000 
  662000   0.79783567   -4.3920571   -4.3920571   -3.1953061  0.014585233   -4.3920571    1.1967511      1024000 
  663000   0.79970528   -4.3933821   -4.3933821   -3.1938266 0.0088173353   -4.3933821    1.1995555      1024000 
  664000   0.79846565    -4.390134    -4.390134   -3.1924379  0.012538405    -4.390134     1.197696      1024000 
  665000   0.79945483   -4.3901656   -4.3901656   -3.1909858  0.010865134   -4.3901656    1.1991798      1024000 
  666000   0.79950571   -4.3879548   -4.3879548   -3.1886986  0.016627506   -4.3879548    1.1992561      1024000 
  667000   0.79992834   -4.3868682   -4.3868682   -3.1869782  0.015618488   -4.3868682    1.1998901      1024000 
  668000   0.79990065   -4.3868282   -4.3868282   -3.1869797  0.012237497   -4.3868282    1.1998485      1024000 
  669000    0.8011315   -4.3869792   -4.3869792   -3.1852844  0.010116031   -4.3869792    1.2016948      1024000 
  670000   0.80139764     -4.38578     -4.38578    -3.183686   0.01320329     -4.38578     1.202094      1024000 
  671000   0.80199141    -4.384795    -4.384795   -3.1818103  0.011449285    -4.384795    1.2029847      1024000 
  672000   0.79999695   -4.3809883   -4.3809883   -3.1809953  0.012577856   -4.3809883     1.199993      1024000 
  673000   0.80168221   -4.3825637   -4.3825637   -3.1800429 0.0082607017   -4.3825637    1.2025209      1024000 
  674000   0.80124546   -4.3794814   -4.3794814   -3.1776156  0.010150711   -4.3794814    1.2018657      1024000 
  675000   0.80100862   -4.3770803   -4.3770803   -3.1755698  0.010115013   -4.3770803    1.2015105      1024000 
  676000   0.80135405   -4.3760455   -4.3760455   -3.1740169 0.0084934683   -4.3760455    1.2020286      1024000 
  677000   0.80145297   -4.3755387   -4.3755387   -3.1733617  0.010328108   -4.3755387     1.202177      1024000 
  678000   0.80176258   -4.3751135   -4.3751135   -3.1724721  0.010180531   -4.3751135    1.2026414      1024000 
  679000   0.80152687   -4.3726539   -4.3726539    -3.170366  0.007157148   -4.3726539    1.2022879      1024000 
  680000   0.80210485   -4.3722103   -4.3722103   -3.1690555 0.0099688932   -4.3722103    1.2031548      1024000 
  681000   0.80271046   -4.3720944   -4.3720944   -3.1680312 0.0068164396   -4.3720944    1.2040632      1024000 
  682000   0.80245867   -4.3699218   -4.3699218   -3.1662362   0.01657652   -4.3699218    1.2036856      1024000 
  683000   0.80256142   -4.3688067   -4.3688067    -3.164967  0.016523296   -4.3688067    1.2038397      1024000 
  684000   0.80444712   -4.3694112   -4.3694112    -3.162743  0.012041433   -4.3694112    1.2066682      1024000 
  685000   0.80520757    -4.368286    -4.368286   -3.1604771  0.013445128    -4.368286    1.2078089      1024000 
  686000   0.80405486   -4.3652309   -4.3652309    -3.159151  0.011637912   -4.3652309    1.2060798      1024000 
  687000   0.80457513   -4.3636155   -4.3636155   -3.1567552   0.01247652   -4.3636155    1.2068602      1024000 
  688000   0.80513622   -4.3636128   -4.3636128    -3.155911  0.013497614   -4.3636128    1.2077019      1024000 
  689000   0.80451374   -4.3623048   -4.3623048   -3.1555367 0.0083926759   -4.3623048    1.2067682      1024000 
  690000   0.80479762   -4.3606775   -4.3606775   -3.1534836  0.013294059   -4.3606775     1.207194      1024000 
  691000   0.80494686   -4.3594292   -4.3594292   -3.1520114  0.013809171   -4.3594292    1.2074178      1024000 
  692000   0.80473128    -4.358122    -4.358122   -3.1510275   0.01289651    -4.358122    1.2070945      1024000 
  693000   0.80446454   -4.3563803   -4.3563803   -3.1496859  0.013777595   -4.3563803    1.2066944      1024000 
  694000   0.80589755   -4.3574344   -4.3574344   -3.1485905 0.0046842683   -4.3574344    1.2088439      1024000 
  695000   0.80638922   -4.3565349   -4.3565349   -3.1469535 0.0084102534   -4.3565349    1.2095814      1024000 
  696000   0.80636673   -4.3553455   -4.3553455   -3.1457978  0.010672958   -4.3553455    1.2095476      1024000 
  697000     0.807054   -4.3544817   -4.3544817   -3.1439032  0.016071144   -4.3544817    1.2105785      1024000 
  698000   0.80581222    -4.352014    -4.352014   -3.1432982  0.013591732    -4.352014    1.2087159      1024000 
  699000   0.80560599   -4.3507463   -4.3507463   -3.1423397 0.0084834106   -4.3507463    1.2084065      1024000 
  700000   0.80666223   -4.3505749   -4.3505749    -3.140584  0.010630926   -4.3505749    1.2099909      1024000 
  701000   0.80583076   -4.3471359   -4.3471359   -3.1383922 0.0082426745   -4.3471359    1.2087437      1024000 
  702000   0.80706797    -4.347582    -4.347582   -3.1369825 0.0085000727    -4.347582    1.2105995      1024000 
  703000   0.80773115   -4.3473836   -4.3473836   -3.1357893   0.01016753   -4.3473836    1.2115943      1024000 
  704000   0.80682285   -4.3452385   -4.3452385   -3.1350067  0.013451397   -4.3452385    1.2102318      1024000 
  705000   0.80940898   -4.3463837   -4.3463837   -3.1322727  0.004919488   -4.3463837     1.214111      1024000 
  706000   0.80815833   -4.3435636   -4.3435636   -3.1313285  0.012526284   -4.3435636     1.212235      1024000 
  707000   0.80779269    -4.340639    -4.340639   -3.1289525  0.017157557    -4.340639    1.2116866      1024000 
  708000   0.80824415   -4.3407752   -4.3407752   -3.1284115  0.013577566   -4.3407752    1.2123638      1024000 
  709000   0.80807348    -4.339275    -4.339275   -3.1271673  0.013885178    -4.339275    1.2121078      1024000 
  710000   0.80977263   -4.3399734   -4.3399734    -3.125317  0.016559412   -4.3399734    1.2146565      1024000 
  711000   0.80992923   -4.3382309   -4.3382309   -3.1233395  0.017552521   -4.3382309    1.2148914      1024000 
  712000   0.81151101   -4.3399222   -4.3399222   -3.1226581  0.011888014   -4.3399222     1.217264      1024000 
  713000   0.81107993   -4.3369681   -4.3369681   -3.1203506  0.015155648   -4.3369681    1.2166174      1024000 
  714000   0.81033854   -4.3346684   -4.3346684    -3.119163  0.018044285   -4.3346684    1.2155053      1024000 
  715000   0.81066151   -4.3341885   -4.3341885   -3.1181987  0.011703091   -4.3341885    1.2159898      1024000 
  716000   0.81103465   -4.3332355   -4.3332355    -3.116686  0.017942564   -4.3332355    1.2165495      1024000 
  717000   0.81082804   -4.3307502   -4.3307502   -3.1145106  0.012313032   -4.3307502    1.2162396      1024000 
  718000    0.8106404   -4.3294947   -4.3294947   -3.1135366  0.011020525   -4.3294947    1.2159581      1024000 
  719000   0.80968082    -4.327337    -4.327337   -3.1128183  0.012022457    -4.327337    1.2145188      1024000 
  720000   0.81088887   -4.3283019   -4.3283019   -3.1119711 0.0078597951   -4.3283019    1.2163308      1024000 
  721000   0.80957561   -4.3242518   -4.3242518   -3.1098909 0.0094719461   -4.3242518     1.214361      1024000 
  722000   0.81131071   -4.3242877   -4.3242877   -3.1073241 0.0082071528   -4.3242877    1.2169636      1024000 
  723000    0.8126219   -4.3248059   -4.3248059   -3.1058755  0.010294158   -4.3248059    1.2189304      1024000 
  724000   0.81319454   -4.3237497   -4.3237497   -3.1039604  0.012260767   -4.3237497    1.2197893      1024000 
  725000    0.8140583   -4.3237857   -4.3237857   -3.1027007  0.012683876   -4.3237857     1.221085      1024000 
  726000   0.81379782   -4.3219411   -4.3219411   -3.1012469  0.016426115   -4.3219411    1.2206943      1024000 
  727000   0.81413045   -4.3213912   -4.3213912    -3.100198    0.0130844   -4.3213912    1.2211932      1024000 
  728000   0.81407643   -4.3203471   -4.3203471    -3.099235  0.013641422   -4.3203471    1.2211122      1024000 
  729000   0.81308816    -4.317225    -4.317225   -3.0975953  0.018955128    -4.317225    1.2196298      1024000 
  730000   0.81471678   -4.3183579   -4.3183579   -3.0962852  0.012900658   -4.3183579    1.2220727      1024000 
  731000   0.81335819   -4.3148592   -4.3148592   -3.0948244  0.014949402   -4.3148592    1.2200348      1024000 
  732000    0.8142355    -4.314174    -4.314174   -3.0928233   0.01677643    -4.314174    1.2213508      1024000 
  733000   0.81466526   -4.3129899   -4.3129899   -3.0909945  0.018244857   -4.3129899    1.2219954      1024000 
  734000   0.81568516   -4.3121153   -4.3121153   -3.0885901 0.0091788311   -4.3121153    1.2235253      1024000 
  735000    0.8152852   -4.3104948   -4.3104948   -3.0875695  0.013969046   -4.3104948    1.2229253      1024000 
  736000   0.81507761   -4.3092776   -4.3092776   -3.0866636   0.01116324   -4.3092776    1.2226139      1024000 
  737000   0.81511283   -4.3080523   -4.3080523   -3.0853856 0.0099964694   -4.3080523    1.2226668      1024000 
  738000   0.81520942   -4.3077279   -4.3077279   -3.0849162 0.0085688441   -4.3077279    1.2228117      1024000 
  739000   0.81540482   -4.3067588   -4.3067588    -3.083654  0.011240854   -4.3067588    1.2231047      1024000 
  740000    0.8145469   -4.3043236   -4.3043236   -3.0825058  0.011924215   -4.3043236    1.2218179      1024000 
  741000   0.81579805   -4.3047996   -4.3047996    -3.081105 0.0075937798   -4.3047996    1.2236946      1024000 
  742000   0.81482685   -4.3020579   -4.3020579   -3.0798201 0.0061355075   -4.3020579    1.2222378      1024000 
  743000   0.81541474   -4.3007699   -4.3007699   -3.0776502  0.010400471   -4.3007699    1.2231196      1024000 
  744000    0.8164348   -4.3009641   -4.3009641   -3.0763144  0.012862416   -4.3009641    1.2246497      1024000 
  745000   0.81630463   -4.2991688   -4.2991688   -3.0747144   0.01025437   -4.2991688    1.2244545      1024000 
  746000   0.81642245   -4.2980595   -4.2980595   -3.0734283  0.013059723   -4.2980595    1.2246312      1024000 
  747000   0.81719811   -4.2960654   -4.2960654   -3.0702707  0.012999672   -4.2960654    1.2257947      1024000 
  748000   0.81724565   -4.2941472   -4.2941472   -3.0682812  0.016729869   -4.2941472     1.225866      1024000 
  749000   0.81801256   -4.2935557   -4.2935557   -3.0665394  0.014941897   -4.2935557    1.2270163      1024000 
  750000   0.81964409   -4.2941903   -4.2941903   -3.0647267  0.019834172   -4.2941903    1.2294636      1024000 
  751000   0.81966314   -4.2932861   -4.2932861   -3.0637939  0.019363353   -4.2932861    1.2294922      1024000 
  752000   0.81914578   -4.2918247   -4.2918247   -3.0631085  0.016386806   -4.2918247    1.2287162      1024000 
  753000   0.82036404   -4.2920907   -4.2920907   -3.0615472 0.0095821219   -4.2920907    1.2305436      1024000 
  754000   0.81896777   -4.2881095   -4.2881095   -3.0596603    0.0108679   -4.2881095    1.2284492      1024000 
  755000   0.81974305    -4.286922    -4.286922   -3.0573099  0.013421323    -4.286922    1.2296121      1024000 
  756000   0.81938774   -4.2850235   -4.2850235   -3.0559444  0.013701535   -4.2850235    1.2290791      1024000 
  757000   0.81903105   -4.2840223   -4.2840223   -3.0554782  0.011805032   -4.2840223    1.2285441      1024000 
  758000   0.81970315   -4.2837431   -4.2837431   -3.0541909 0.0088908117   -4.2837431    1.2295522      1024000 
  759000   0.81991722    -4.282851    -4.282851   -3.0529776  0.011664298    -4.282851    1.2298733      1024000 
  760000    0.8203477   -4.2816858   -4.2816858   -3.0511668 0.0074756941   -4.2816858    1.2305191      1024000 
  761000   0.82039185   -4.2804547   -4.2804547   -3.0498694  0.010334815   -4.2804547    1.2305853      1024000 
  762000   0.82102485   -4.2802459   -4.2802459   -3.0487111  0.011019065   -4.2802459    1.2315348      1024000 
  763000   0.82042854   -4.2771989   -4.2771989   -3.0465585  0.013203924   -4.2771989    1.2306403      1024000 
  764000   0.82067098   -4.2772224   -4.2772224   -3.0462184  0.010788142   -4.2772224     1.231004      1024000 
  765000   0.82143479   -4.2754146   -4.2754146   -3.0432649   0.01182675   -4.2754146    1.2321497      1024000 
  766000   0.82307668     -4.27563     -4.27563   -3.0410175  0.010037983     -4.27563    1.2346125      1024000 
  767000   0.82208283   -4.2729237   -4.2729237    -3.039802  0.014491828   -4.2729237    1.2331217      1024000 
  768000   0.82150577   -4.2713868   -4.2713868   -3.0391307  0.017157429   -4.2713868    1.2322562      1024000 
  769000    0.8227298   -4.2732017   -4.2732017   -3.0391095  0.011742798   -4.2732017    1.2340922      1024000 
  770000   0.82248386   -4.2709821   -4.2709821   -3.0372589 0.0084211501   -4.2709821    1.2337233      1024000 
  771000   0.82223663   -4.2692184   -4.2692184    -3.035866  0.014548775   -4.2692184    1.2333524      1024000 
  772000   0.82248229   -4.2677269   -4.2677269   -3.0340059 0.0070829917   -4.2677269    1.2337209      1024000 
  773000   0.82313889   -4.2681262   -4.2681262   -3.0334204  0.007506729   -4.2681262    1.2347058      1024000 
  774000   0.82312947    -4.266779    -4.266779   -3.0320873 0.0094851615    -4.266779    1.2346917      1024000 
  775000   0.82266995   -4.2647869   -4.2647869   -3.0307845  0.014464599   -4.2647869    1.2340024      1024000 
  776000   0.82387783   -4.2652108   -4.2652108   -3.0293966  0.012118975   -4.2652108    1.2358142      1024000 
  777000   0.82412911   -4.2637952   -4.2637952    -3.027604   0.01455219   -4.2637952    1.2361912      1024000 
  778000   0.82411475    -4.261776    -4.261776   -3.0256064  0.010420538    -4.261776    1.2361696      1024000 
  779000   0.82350974     -4.26036     -4.26036   -3.0250979  0.014548139     -4.26036    1.2352621      1024000 
  780000   0.82479157   -4.2603294   -4.2603294   -3.0231445  0.016072107   -4.2603294    1.2371848      1024000 
  781000   0.82568422   -4.2603091   -4.2603091   -3.0217853  0.014690652   -4.2603091    1.2385238      1024000 
  782000   0.82613797   -4.2593429   -4.2593429   -3.0201385  0.015276384   -4.2593429    1.2392044      1024000 
  783000   0.82613602   -4.2575092   -4.2575092   -3.0183077  0.014534272   -4.2575092    1.2392015      1024000 
  784000   0.82675419   -4.2560353   -4.2560353   -3.0159065  0.011979251   -4.2560353    1.2401288      1024000 
  785000    0.8276544   -4.2559168   -4.2559168   -3.0144377  0.013016062   -4.2559168    1.2414791      1024000 
  786000   0.82782905   -4.2542581   -4.2542581    -3.012517  0.012983759   -4.2542581    1.2417411      1024000 
  787000   0.82825192   -4.2536114   -4.2536114    -3.011236  0.016405826   -4.2536114    1.2423754      1024000 
  788000   0.82751332    -4.251164    -4.251164   -3.0098965  0.015332906    -4.251164    1.2412675      1024000 
  789000    0.8270038   -4.2482793   -4.2482793   -3.0077761  0.021657733   -4.2482793    1.2405032      1024000 
  790000   0.82828435   -4.2487768   -4.2487768   -3.0063528  0.021872339   -4.2487768     1.242424      1024000 
  791000   0.82903395   -4.2481325   -4.2481325   -3.0045841  0.018588318   -4.2481325    1.2435484      1024000 
  792000   0.82810574   -4.2455092   -4.2455092   -3.0033532  0.013765893   -4.2455092    1.2421561      1024000 
  793000   0.82919055   -4.2464701   -4.2464701   -3.0026868 0.0070464922   -4.2464701    1.2437833      1024000 
  794000    0.8282864   -4.2427509   -4.2427509   -3.0003238   0.01141175   -4.2427509    1.2424271      1024000 
  795000   0.82877504   -4.2417414   -4.2417414   -2.9985814  0.013785745   -4.2417414      1.24316      1024000 
  796000   0.82970827   -4.2417028   -4.2417028   -2.9971429  0.010453215   -4.2417028    1.2445599      1024000 
  797000   0.82887166   -4.2384033   -4.2384033   -2.9950984   0.01417343   -4.2384033     1.243305      1024000 
  798000   0.82953436   -4.2382018   -4.2382018   -2.9939027  0.012656752   -4.2382018     1.244299      1024000 
  799000   0.82897053   -4.2371139   -4.2371139   -2.9936606  0.012402255   -4.2371139    1.2434533      1024000 
  800000   0.82868143   -4.2347131   -4.2347131   -2.9916935  0.014570987   -4.2347131    1.2430196      1024000 
  801000   0.82895312   -4.2325828   -4.2325828   -2.9891557  0.015840813   -4.2325828    1.2434272      1024000 
  802000   0.83082109   -4.2336109   -4.2336109   -2.9873818  0.020890659   -4.2336109    1.2462291      1024000 
  803000   0.82987804   -4.2303822   -4.2303822   -2.9855676  0.015643412   -4.2303822    1.2448145      1024000 
  804000   0.83084289   -4.2302417   -4.2302417   -2.9839799  0.013701406   -4.2302417    1.2462618      1024000 
  805000   0.83038407   -4.2276273   -4.2276273   -2.9820537  0.011082623   -4.2276273    1.2455736      1024000 
  806000   0.83017428   -4.2266161   -4.2266161   -2.9813572   0.01117451   -4.2266161    1.2452589      1024000 
  807000   0.83054574   -4.2257239   -4.2257239   -2.9799078  0.013864232   -4.2257239    1.2458161      1024000 
  808000    0.8303711   -4.2233255   -4.2233255   -2.9777714  0.017037978   -4.2233255    1.2455541      1024000 
  809000   0.83079345   -4.2233493   -4.2233493   -2.9771616  0.012972375   -4.2233493    1.2461876      1024000 
  810000    0.8300833   -4.2205393   -4.2205393   -2.9754168 0.0075419306   -4.2205393    1.2451224      1024000 
  811000   0.83073102   -4.2200209   -4.2200209   -2.9739269 0.0089562313   -4.2200209     1.246094      1024000 
  812000   0.83179836   -4.2199322   -4.2199322   -2.9722372    0.0085779   -4.2199322     1.247695      1024000 
  813000   0.83004723   -4.2162651   -4.2162651   -2.9711968  0.014844667   -4.2162651    1.2450683      1024000 
  814000   0.83164821   -4.2176138   -4.2176138    -2.970144 0.0094441984   -4.2176138    1.2474698      1024000 
  815000   0.83206802   -4.2159471   -4.2159471   -2.9678476  0.010592416   -4.2159471    1.2480995      1024000 
  816000   0.83162439    -4.212913    -4.212913    -2.965479  0.016262713    -4.212913    1.2474341      1024000 
  817000   0.83341548    -4.213308    -4.213308   -2.9631873   0.01326275    -4.213308    1.2501207      1024000 
  818000   0.83379478   -4.2125335   -4.2125335   -2.9618438   0.01308872   -4.2125335    1.2506896      1024000 
  819000   0.83365433   -4.2110075   -4.2110075   -2.9605286  0.019726854   -4.2110075     1.250479      1024000 
  820000   0.83446325      -4.2111      -4.2111   -2.9594077  0.015762997      -4.2111    1.2516923      1024000 
  821000   0.83350284   -4.2080548   -4.2080548   -2.9578031  0.015942251   -4.2080548    1.2502517      1024000 
  822000   0.83338905   -4.2064216   -4.2064216   -2.9563406  0.016898137   -4.2064216     1.250081      1024000 
  823000   0.83405707    -4.205879    -4.205879   -2.9547959  0.013171546    -4.205879    1.2510831      1024000 
  824000   0.83370589   -4.2038115   -4.2038115   -2.9532552   0.01667338   -4.2038115    1.2505563      1024000 
  825000   0.83433363   -4.2016739   -4.2016739    -2.950176  0.010379459   -4.2016739    1.2514979      1024000 
  826000   0.83476904   -4.2000595   -4.2000595   -2.9479085  0.012767631   -4.2000595     1.252151      1024000 
  827000   0.83517263   -4.2008179   -4.2008179   -2.9480615  0.012950882   -4.2008179    1.2527564      1024000 
  828000   0.83354755   -4.1982685   -4.1982685   -2.9479497  0.017024972   -4.1982685    1.2503188      1024000 
  829000   0.83398947   -4.1983281   -4.1983281   -2.9473464  0.011356558   -4.1983281    1.2509817      1024000 
  830000   0.83376755   -4.1964602   -4.1964602   -2.9458115  0.010137034   -4.1964602    1.2506488      1024000 
  831000    0.8348698   -4.1959481   -4.1959481   -2.9436459   0.01586989   -4.1959481    1.2523022      1024000 
  832000   0.83460201   -4.1938798   -4.1938798   -2.9419793  0.017543424   -4.1938798    1.2519005      1024000 
  833000   0.83593446   -4.1947804   -4.1947804   -2.9408812  0.012758548   -4.1947804    1.2538992      1024000 
  834000   0.83636999   -4.1936746   -4.1936746   -2.9391222   0.01300835   -4.1936746    1.2545524      1024000 
  835000   0.83589624   -4.1916444   -4.1916444   -2.9378026  0.016658882   -4.1916444    1.2538418      1024000 
  836000   0.83677768   -4.1915918   -4.1915918   -2.9364278  0.015581288   -4.1915918     1.255164      1024000 
  837000   0.83769699   -4.1900932   -4.1900932   -2.9335502  0.014236789   -4.1900932    1.2565429      1024000 
  838000   0.83756096   -4.1871299   -4.1871299    -2.930791  0.019395882   -4.1871299    1.2563389      1024000 
  839000   0.83831282   -4.1862097   -4.1862097    -2.928743  0.017333538   -4.1862097    1.2574667      1024000 
  840000   0.83922748   -4.1861157   -4.1861157    -2.927277   0.01845005   -4.1861157    1.2588387      1024000 
  841000   0.84006512   -4.1845871   -4.1845871    -2.924492  0.018457303   -4.1845871    1.2600951      1024000 
  842000   0.84046036   -4.1840707   -4.1840707   -2.9233827  0.015563705   -4.1840707     1.260688      1024000 
  843000   0.83873241    -4.181254    -4.181254   -2.9231579  0.016056623    -4.181254    1.2580961      1024000 
  844000   0.84079352    -4.183021    -4.183021   -2.9218333 0.0088965261    -4.183021    1.2611877      1024000 
  845000   0.83819034   -4.1780268   -4.1780268   -2.9207439  0.014825958   -4.1780268     1.257283      1024000 
  846000   0.83858161   -4.1763777   -4.1763777   -2.9185078  0.013021079   -4.1763777    1.2578699      1024000 
  847000   0.83926671   -4.1756928   -4.1756928   -2.9167952  0.012885413   -4.1756928    1.2588975      1024000 
  848000   0.83900205   -4.1746911   -4.1746911   -2.9161906  0.013751864   -4.1746911    1.2585005      1024000 
  849000   0.83926028   -4.1733598   -4.1733598   -2.9144719   0.01203375   -4.1733598    1.2588879      1024000 
  850000   0.84036289   -4.1742229   -4.1742229   -2.9136811 0.0095044647   -4.1742229    1.2605418      1024000 
  851000   0.83870002   -4.1703131   -4.1703131   -2.9122656  0.011733523   -4.1703131    1.2580475      1024000 
  852000   0.83896186   -4.1684464   -4.1684464   -2.9100061   0.01307317   -4.1684464    1.2584402      1024000 
  853000   0.83916977   -4.1670943   -4.1670943   -2.9083422  0.015045277   -4.1670943    1.2587521      1024000 
  854000   0.83984381   -4.1659707   -4.1659707   -2.9062076  0.019773852   -4.1659707    1.2597632      1024000 
  855000   0.84080323   -4.1644982   -4.1644982   -2.9032959  0.016951734   -4.1644982    1.2612023      1024000 
  856000   0.84095655   -4.1637848   -4.1637848   -2.9023525  0.017984436   -4.1637848    1.2614323      1024000 
  857000    0.8403676   -4.1616191   -4.1616191   -2.9010703  0.019958228   -4.1616191    1.2605488      1024000 
  858000   0.84089464   -4.1606427   -4.1606427   -2.8993033  0.018115648   -4.1606427    1.2613394      1024000 
  859000   0.84302038   -4.1625594   -4.1625594   -2.8980314 0.0070761444   -4.1625594     1.264528      1024000 
  860000    0.8427088   -4.1602701   -4.1602701   -2.8962095  0.012705737   -4.1602701    1.2640606      1024000 
  861000   0.84316842   -4.1590584   -4.1590584   -2.8943083  0.014640365   -4.1590584    1.2647501      1024000 
  862000   0.84263185   -4.1556156   -4.1556156   -2.8916704  0.017934142   -4.1556156    1.2639452      1024000 
  863000   0.84245472   -4.1548232   -4.1548232   -2.8911437  0.013801904   -4.1548232    1.2636795      1024000 
  864000   0.84165498   -4.1518027   -4.1518027   -2.8893228  0.019619005   -4.1518027    1.2624799      1024000 
  865000   0.84179349   -4.1500676   -4.1500676     -2.88738  0.016636735   -4.1500676    1.2626877      1024000 
  866000    0.8435352   -4.1512216   -4.1512216   -2.8859213 0.0086742984   -4.1512216    1.2653002      1024000 
  867000   0.84385755   -4.1500385   -4.1500385   -2.8842547  0.008541392   -4.1500385    1.2657838      1024000 
  868000   0.84350494    -4.147445    -4.147445   -2.8821902  0.015083949    -4.147445    1.2652548      1024000 
  869000   0.84395901   -4.1460765   -4.1460765   -2.8801406  0.013436856   -4.1460765    1.2659359      1024000 
  870000   0.84361701   -4.1447971   -4.1447971   -2.8793742  0.016611417   -4.1447971    1.2654229      1024000 
  871000   0.84338131   -4.1430826   -4.1430826   -2.8780132  0.018214911   -4.1430826    1.2650694      1024000 
  872000   0.84483842   -4.1426251   -4.1426251     -2.87537  0.016809174   -4.1426251    1.2672551      1024000 
  873000   0.84474733   -4.1411426   -4.1411426   -2.8740242  0.017121253   -4.1411426    1.2671184      1024000 
  874000   0.84455401   -4.1387952   -4.1387952   -2.8719668  0.019587419   -4.1387952    1.2668284      1024000 
  875000   0.84469877     -4.13754     -4.13754   -2.8704944  0.021609539     -4.13754    1.2670456      1024000 
  876000   0.84670887   -4.1394169   -4.1394169   -2.8693562  0.018659175   -4.1394169    1.2700607      1024000 
  877000   0.84495135   -4.1359668   -4.1359668   -2.8685423  0.016894054   -4.1359668    1.2674245      1024000 
  878000   0.84574351   -4.1351124   -4.1351124   -2.8664997  0.015800207   -4.1351124    1.2686127      1024000 
  879000   0.84512301   -4.1324638   -4.1324638   -2.8647818    0.0166333   -4.1324638    1.2676819      1024000 
  880000   0.84527473   -4.1303111   -4.1303111   -2.8624015  0.019094626   -4.1303111    1.2679095      1024000 
  881000   0.84621139   -4.1301889   -4.1301889   -2.8608744  0.015254115   -4.1301889    1.2693145      1024000 
  882000   0.84623917   -4.1286389   -4.1286389   -2.8592828   0.01066265   -4.1286389    1.2693562      1024000 
  883000   0.84561802   -4.1258436   -4.1258436   -2.8574192  0.016100079   -4.1258436    1.2684245      1024000 
  884000   0.84630072   -4.1249402   -4.1249402   -2.8554917   0.01611037   -4.1249402    1.2694485      1024000 
  885000   0.84636673   -4.1232345   -4.1232345    -2.853687  0.015998416   -4.1232345    1.2695475      1024000 
  886000   0.84627505   -4.1218231   -4.1218231   -2.8524131  0.013423907   -4.1218231      1.26941      1024000 
  887000   0.84741782   -4.1221324   -4.1221324   -2.8510083  0.016021648   -4.1221324    1.2711242      1024000 
  888000   0.84820091   -4.1212825   -4.1212825   -2.8489838  0.012342249   -4.1212825    1.2722988      1024000 
  889000   0.84729288   -4.1192345   -4.1192345   -2.8482977  0.019835601   -4.1192345    1.2709367      1024000 
  890000   0.84750238   -4.1180204   -4.1180204   -2.8467694  0.019666226   -4.1180204     1.271251      1024000 
  891000   0.84752079   -4.1169006   -4.1169006    -2.845622  0.019004579   -4.1169006    1.2712786      1024000 
  892000   0.84751538   -4.1144248   -4.1144248   -2.8431544  0.023372017   -4.1144248    1.2712705      1024000 
  893000   0.84870802   -4.1147205   -4.1147205    -2.841661  0.022662502   -4.1147205    1.2730594      1024000 
  894000   0.84919799   -4.1134022   -4.1134022   -2.8396078  0.017867611   -4.1134022    1.2737944      1024000 
  895000    0.8487128   -4.1105853   -4.1105853   -2.8375186  0.023562984   -4.1105853    1.2730666      1024000 
  896000   0.84888469   -4.1092926   -4.1092926   -2.8359681  0.022588958   -4.1092926    1.2733245      1024000 
  897000   0.85122469   -4.1107957   -4.1107957   -2.8339613  0.020050226   -4.1107957    1.2768344      1024000 
  898000    0.8502244   -4.1083676   -4.1083676   -2.8330335  0.022569288   -4.1083676     1.275334      1024000 
  899000    0.8501162   -4.1063324   -4.1063324   -2.8311607  0.025290065   -4.1063324    1.2751717      1024000 
  900000   0.85043765   -4.1050682   -4.1050682   -2.8294143   0.01748552   -4.1050682    1.2756539      1024000 
  901000   0.85050378   -4.1029543   -4.1029543   -2.8272012  0.016961049   -4.1029543    1.2757531      1024000 
  902000   0.85097544   -4.1021391   -4.1021391   -2.8256785  0.020917163   -4.1021391    1.2764606      1024000 
  903000   0.85055565   -4.0999831   -4.0999831   -2.8241522  0.023532104   -4.0999831    1.2758309      1024000 
  904000   0.85138377   -4.0993706   -4.0993706   -2.8222975  0.019389535   -4.0993706    1.2770731      1024000 
  905000   0.85222447   -4.0981225   -4.0981225   -2.8197884  0.021202476   -4.0981225    1.2783341      1024000 
  906000   0.85250642   -4.0963431   -4.0963431    -2.817586  0.015352088   -4.0963431     1.278757      1024000 
  907000   0.85211335   -4.0942177   -4.0942177   -2.8160502  0.019448774   -4.0942177    1.2781674      1024000 
  908000   0.85238926   -4.0933749   -4.0933749   -2.8147936  0.022759591   -4.0933749    1.2785813      1024000 
  909000   0.85187434   -4.0907094   -4.0907094   -2.8129005  0.022503007   -4.0907094    1.2778089      1024000 
  910000   0.85269609   -4.0899786   -4.0899786    -2.810937  0.024365515   -4.0899786    1.2790415      1024000 
  911000   0.85346843   -4.0891818   -4.0891818   -2.8089818  0.024115781   -4.0891818       1.2802      1024000 
  912000   0.85470834   -4.0884385   -4.0884385   -2.8063786  0.022124612   -4.0884385    1.2820599      1024000 
  913000   0.85356291   -4.0854445   -4.0854445   -2.8051027  0.028717723   -4.0854445    1.2803418      1024000 
  914000    0.8544374   -4.0853151   -4.0853151   -2.8036616  0.024681066   -4.0853151    1.2816535      1024000 
  915000    0.8547443   -4.0844274   -4.0844274   -2.8023135  0.021275785   -4.0844274    1.2821139      1024000 
  916000   0.85511767   -4.0829181   -4.0829181   -2.8002442  0.026647736   -4.0829181    1.2826739      1024000 
  917000   0.85520048   -4.0813665   -4.0813665   -2.7985684  0.024450968   -4.0813665    1.2827981      1024000 
  918000   0.85489137   -4.0796254   -4.0796254   -2.7972909  0.028381709   -4.0796254    1.2823344      1024000 
  919000   0.85514887   -4.0784127   -4.0784127    -2.795692   0.02453482   -4.0784127    1.2827207      1024000 
  920000   0.85484115    -4.076867    -4.076867   -2.7946078  0.025548469    -4.076867    1.2822591      1024000 
  921000   0.85580943   -4.0771098   -4.0771098   -2.7933983  0.022725057   -4.0771098    1.2837115      1024000 
  922000   0.85432338   -4.0735228   -4.0735228   -2.7920403  0.031873849   -4.0735228    1.2814825      1024000 
  923000   0.85531639    -4.072732    -4.072732     -2.78976  0.021425331    -4.072732     1.282972      1024000 
  924000   0.85504491   -4.0699537   -4.0699537    -2.787389  0.022656368   -4.0699537    1.2825648      1024000 
  925000    0.8554029   -4.0689281   -4.0689281   -2.7858263  0.024131404   -4.0689281    1.2831017      1024000 
  926000   0.85603459   -4.0680507   -4.0680507   -2.7840014   0.01888978   -4.0680507    1.2840493      1024000 
  927000   0.85632566   -4.0669093   -4.0669093   -2.7824234  0.026053777   -4.0669093    1.2844859      1024000 
  928000   0.85565611   -4.0641955   -4.0641955   -2.7807139  0.030415497   -4.0641955    1.2834816      1024000 
  929000   0.85601957   -4.0631891   -4.0631891   -2.7791623  0.027104685   -4.0631891    1.2840267      1024000 
  930000   0.85600313   -4.0620741   -4.0620741    -2.778072  0.027964436   -4.0620741    1.2840021      1024000 
  931000   0.85804182   -4.0628232   -4.0628232    -2.775763  0.030402804   -4.0628232    1.2870601      1024000 
  932000   0.85764465   -4.0608049   -4.0608049   -2.7743405  0.027143102   -4.0608049    1.2864644      1024000 
  933000   0.85876867   -4.0610774   -4.0610774    -2.772927  0.028051628   -4.0610774    1.2881504      1024000 
  934000    0.8578564   -4.0586096   -4.0586096   -2.7718276  0.025725515   -4.0586096     1.286782      1024000 
  935000   0.85761547    -4.056435    -4.056435   -2.7700144  0.032778931    -4.056435    1.2864206      1024000 
  936000   0.85883356   -4.0566292   -4.0566292   -2.7683814  0.026112753   -4.0566292    1.2882477      1024000 
  937000   0.85934194   -4.0560706   -4.0560706   -2.7670603  0.028819789   -4.0560706    1.2890103      1024000 
  938000   0.85885446   -4.0538584   -4.0538584   -2.7655793  0.030587539   -4.0538584    1.2882791      1024000 
  939000   0.85885802   -4.0517654   -4.0517654    -2.763481  0.034077722   -4.0517654    1.2882844      1024000 
  940000   0.85993323   -4.0516261   -4.0516261   -2.7617289  0.025761091   -4.0516261    1.2898972      1024000 
  941000   0.85931396   -4.0499397   -4.0499397   -2.7609713  0.029802945   -4.0499397    1.2889683      1024000 
  942000   0.85837524   -4.0472954   -4.0472954   -2.7597352  0.031263835   -4.0472954    1.2875602      1024000 
  943000   0.86001188   -4.0469974   -4.0469974   -2.7569822  0.036429819   -4.0469974    1.2900152      1024000 
  944000   0.85971059   -4.0452087   -4.0452087   -2.7556454  0.036487234   -4.0452087    1.2895633      1024000 
  945000   0.86053688   -4.0458992   -4.0458992   -2.7550965  0.035050917   -4.0458992    1.2908027      1024000 
  946000   0.86056799   -4.0449603   -4.0449603    -2.754111  0.033370563   -4.0449603    1.2908494      1024000 
  947000   0.86069783   -4.0436119   -4.0436119   -2.7525678  0.035081533   -4.0436119    1.2910441      1024000 
  948000   0.86103289   -4.0415865   -4.0415865   -2.7500397  0.032963669   -4.0415865    1.2915467      1024000 
  949000   0.85983283   -4.0381788   -4.0381788   -2.7484322  0.036819872   -4.0381788    1.2897466      1024000 
  950000   0.86174741   -4.0398996   -4.0398996   -2.7472811  0.032649692   -4.0398996    1.2926185      1024000 
  951000   0.86151543   -4.0382818   -4.0382818   -2.7460113  0.028967628   -4.0382818    1.2922705      1024000 
  952000   0.86210595    -4.037216    -4.037216   -2.7440597  0.030473001    -4.037216    1.2931563      1024000 
  953000   0.86130444   -4.0350446   -4.0350446   -2.7430905  0.036681273   -4.0350446     1.291954      1024000 
  954000   0.86219068   -4.0355142   -4.0355142   -2.7422308  0.032560672   -4.0355142    1.2932834      1024000 
  955000   0.86240303   -4.0345226   -4.0345226   -2.7409207  0.034194584   -4.0345226    1.2936019      1024000 
  956000   0.86269248   -4.0329007   -4.0329007   -2.7388646  0.032633701   -4.0329007    1.2940361      1024000 
  957000   0.86151946   -4.0304901   -4.0304901   -2.7382135  0.037481752   -4.0304901    1.2922766      1024000 
  958000   0.86380167   -4.0326774   -4.0326774   -2.7369775  0.030737953   -4.0326774    1.2956999      1024000 
  959000   0.86273707   -4.0288648   -4.0288648   -2.7347619  0.032278264   -4.0288648     1.294103      1024000 
  960000   0.86408543   -4.0296857   -4.0296857   -2.7335601  0.036067732   -4.0296857    1.2961255      1024000 
  961000   0.86349808   -4.0273083   -4.0273083   -2.7320639  0.036795886   -4.0273083    1.2952445      1024000 
  962000   0.86309968   -4.0255047   -4.0255047   -2.7308579  0.039098884   -4.0255047    1.2946469      1024000 
  963000   0.86331999   -4.0249401   -4.0249401   -2.7299628  0.040135573   -4.0249401    1.2949774      1024000 
  964000   0.86386154   -4.0238538   -4.0238538   -2.7280641  0.031664352   -4.0238538    1.2957897      1024000 
  965000   0.86426835   -4.0223922   -4.0223922   -2.7259923  0.035246145   -4.0223922    1.2963999      1024000 
  966000   0.86447242   -4.0224899   -4.0224899   -2.7257839  0.035659214   -4.0224899     1.296706      1024000 
  967000   0.86401292   -4.0202446   -4.0202446   -2.7242278  0.039106493   -4.0202446    1.2960168      1024000 
  968000   0.86516009   -4.0207138   -4.0207138   -2.7229763  0.037417796   -4.0207138    1.2977375      1024000 
  969000   0.86462593   -4.0177546   -4.0177546   -2.7208183  0.038932797   -4.0177546    1.2969363      1024000 
  970000   0.86546774   -4.0169796   -4.0169796   -2.7187806   0.03731907   -4.0169796     1.298199      1024000 
  971000   0.86439858   -4.0136895   -4.0136895   -2.7170943  0.037907672   -4.0136895    1.2965952      1024000 
  972000   0.86393507   -4.0126004   -4.0126004   -2.7167004  0.042568504   -4.0126004       1.2959      1024000 
  973000   0.86588585   -4.0136181   -4.0136181    -2.714792  0.035806243   -4.0136181    1.2988261      1024000 
  974000   0.86671989   -4.0135775   -4.0135775   -2.7135003  0.041517097   -4.0135775    1.3000772      1024000 
  975000   0.86686262   -4.0125253   -4.0125253    -2.712234  0.039190958   -4.0125253    1.3002913      1024000 
  976000   0.86577451   -4.0095372   -4.0095372   -2.7108781  0.043204311   -4.0095372    1.2986591      1024000 
  977000   0.86810615   -4.0116864   -4.0116864   -2.7095298  0.034975072   -4.0116864    1.3021566      1024000 
  978000   0.86809029   -4.0101101   -4.0101101   -2.7079773  0.040769079   -4.0101101    1.3021328      1024000 
  979000   0.86775107   -4.0074389   -4.0074389   -2.7058149  0.039907802   -4.0074389     1.301624      1024000 
  980000   0.86705097   -4.0050437   -4.0050437   -2.7044699   0.04698845   -4.0050437    1.3005738      1024000 
  981000   0.86805686   -4.0052868   -4.0052868   -2.7032041  0.041441778   -4.0052868    1.3020827      1024000 
  982000   0.86809275   -4.0037729   -4.0037729   -2.7016364  0.035549429   -4.0037729    1.3021365      1024000 
  983000   0.86785253   -4.0015996   -4.0015996   -2.6998235  0.042430017   -4.0015996    1.3017762      1024000 
  984000   0.86804807   -4.0015348   -4.0015348   -2.6994654  0.040952516   -4.0015348    1.3020695      1024000 
  985000   0.86952456   -4.0017401   -4.0017401   -2.6974559  0.041771711   -4.0017401    1.3042842      1024000 
  986000   0.86921219   -4.0004805   -4.0004805   -2.6966648  0.044565495   -4.0004805    1.3038156      1024000 
  987000   0.87022318   -4.0002328   -4.0002328   -2.6949007  0.045204371   -4.0002328    1.3053321      1024000 
  988000   0.87026985   -3.9986278   -3.9986278   -2.6932257  0.042758855   -3.9986278    1.3054021      1024000 
  989000   0.86853449   -3.9941828   -3.9941828   -2.6913837    0.0425535   -3.9941828    1.3027991      1024000 
  990000   0.86839496   -3.9919608   -3.9919608    -2.689371  0.048134324   -3.9919608    1.3025898      1024000 
  991000   0.87101981   -3.9939578   -3.9939578   -2.6874308  0.045309389   -3.9939578    1.3065271      1024000 
  992000   0.87115879   -3.9928968   -3.9928968   -2.6861612  0.046294002   -3.9928968    1.3067355      1024000 
  993000   0.87065603   -3.9911462   -3.9911462   -2.6851648  0.046598682   -3.9911462    1.3059814      1024000 
  994000   0.87253223   -3.9925457   -3.9925457     -2.68375  0.040817631   -3.9925457    1.3087957      1024000 
  995000   0.87118712   -3.9888859   -3.9888859   -2.6821079  0.041419314   -3.9888859     1.306778      1024000 
  996000   0.87095856   -3.9869868   -3.9869868   -2.6805516  0.044021281   -3.9869868    1.3064352      1024000 
  997000   0.87131917   -3.9864488   -3.9864488   -2.6794726  0.043466059   -3.9864488    1.3069761      1024000 
  998000   0.87145423   -3.9855763   -3.9855763   -2.6783976  0.043237463   -3.9855763    1.3071787      1024000 
  999000   0.87231104   -3.9856192   -3.9856192   -2.6771553  0.042204768   -3.9856192    1.3084639      1024000 
 1000000   0.87174682   -3.9831791   -3.9831791   -2.6755615  0.051645688   -3.9831791    1.3076176      1024000 
Loop time of 14185.8 on 32 procs for 1000000 steps with 492800 atoms

Performance: 15226.444 tau/day, 70.493 timesteps/s
98.8% CPU use with 32 MPI tasks x 1 OpenMP threads

MPI task timing breakdown:
Section |  min time  |  avg time  |  max time  |%varavg|  %CPU | %total
-----------------------------------------------------------------------
Pair    | 5481       | 6963.6     | 7718.1     | 711.3 |  99.0 | 49.09
Bond    | 0.36077    | 0.61162    | 0.69749    |   7.9 | 100.0 |  0.00
Neigh   | 1169.8     | 1518.7     | 1675.2     | 320.9 |  99.7 | 10.71
Comm    | 3615       | 4704.6     | 6831       |1008.8 |  98.2 | 33.16
Output  | 32.897     | 33.139     | 33.148     |   0.8 |  97.9 |  0.23
Modify  | 192.03     | 411.32     | 1088.6     |1225.2 |  98.7 |  2.90
Other   |            | 553.9      |            |       |       |  3.90

Nlocal:        15400.0 ave       16475 max       14890 min
Histogram: 1 3 6 21 0 0 0 0 0 1
Nghost:        12147.9 ave       13813 max        7930 min
Histogram: 2 2 4 0 0 0 1 3 4 16
Neighs:       502102.0 ave      568731 max      278105 min
Histogram: 3 1 0 0 0 0 1 7 6 14

Total # of neighbors = 16067258
Ave neighs/atom = 32.604014
Ave special neighs/atom = 0.0000000
Neighbor list builds = 60585
Dangerous builds = 615
Total wall time: 3:56:27
