LAMMPS (24 Dec 2020)
OMP_NUM_THREADS environment is not set. Defaulting to 1 thread. (src/comm.cpp:94)
  using 1 OpenMP thread(s) per MPI task
# Simple rigid body system
# needed variables: startTemp, temp

units		lj
atom_style	full
dimension 	3
boundary	p p f
pair_style	lj/smooth 2.5 3.0



variable 	sigma		equal 1.0
variable 	epsilon 	equal 1.0


region		box block 0 80 0 80 0 80
create_box 	3 box
Created orthogonal box = (0.0000000 0.0000000 0.0000000) to (80.000000 80.000000 80.000000)
  6 by 4 by 4 MPI processor grid
lattice 	sc 1.0
Lattice spacing in x,y,z = 1.0000000 1.0000000 1.0000000

create_atoms 	1 region box
Created 512000 atoms
  create_atoms CPU = 0.091 seconds

mass		1 1.0
mass		2 1.0
mass		3 1.0


group		solvent type 1
512000 atoms in group solvent


velocity 	solvent create ${startTemp} 563435 loop geom
velocity 	solvent create 1.0 563435 loop geom

read_data	data.vac add append
Reading data file ...
  orthogonal box = (0.0000000 0.0000000 0.0000000) to (80.000000 80.000000 160.00000)
  3 by 4 by 8 MPI processor grid
Finding 1-2 1-3 1-4 neighbors ...
  special bond factors lj:    0        0        0       
  special bond factors coul:  0        0        0       
     0 = max # of 1-2 neighbors
     0 = max # of 1-3 neighbors
     0 = max # of 1-4 neighbors
     1 = max # of special neighbors
  special bonds CPU = 0.457 seconds
  read_data CPU = 0.467 seconds

neighbor 	0.4 bin

pair_coeff	1 1 1.0 1.0
pair_coeff	2 2 0.0 0.0
pair_coeff	3 3 0.0 0.0
pair_coeff	2 3 0.0 0.0
pair_coeff	1 2*3 0.0 0.0

pair_modify 	shift yes

pair_write      1 1 1000 r 1.0 3.1 pair.txt LJ
Creating table file pair.txt with DATE: 2021-08-12
Neighbor list info ...
  update every 1 steps, delay 10 steps, check yes
  max neighbors/atom: 2000, page size: 100000
  master list distance cutoff = 3.4
  ghost atom cutoff = 3.4
  binsize = 1.7, bins = 48 48 95
  1 neighbor lists, perpetual/occasional/extra = 1 0 0
  (1) pair lj/smooth, perpetual
      attributes: half, newton on
      pair build: half/bin/newton
      stencil: half/bin/3d/newton
      bin: standard
balance 	1.05 shift z 10 1.05
Balancing ...
 rebalancing time: 0.017 seconds
  iteration count = 5
  initial/final maximal load/proc = 10800.000 6480.0000
  initial/final imbalance factor  = 2.0250000 1.2150000
  x cuts: 0.0000000 0.33333333 0.66666667 1.0000000
  y cuts: 0.0000000 0.25000000 0.50000000 0.75000000 1.0000000
  z cuts: 0.0000000 0.062500000 0.12890625 0.18750000 0.25781250 0.30859375 0.38671875 0.43750000 1.0000000


####################### WALLS ###########################


region	       low block  EDGE EDGE EDGE EDGE 0 2

region 	       top block  EDGE EDGE EDGE EDGE 159 160


delete_atoms   region low
WARNING: Ignoring 'compress yes' for molecular system (src/delete_atoms.cpp:125)
Deleted 19200 atoms, new total = 492800

delete_atoms   region top
WARNING: Ignoring 'compress yes' for molecular system (src/delete_atoms.cpp:125)
Deleted 0 atoms, new total = 492800


variable       epsilonWall equal 2*${epsilon}
variable       epsilonWall equal 2*1

variable       cutoffTop   equal   0.7147*${sigma}
variable       cutoffTop   equal   0.7147*1

variable       cutoffLow   equal   3*${sigma}
variable       cutoffLow   equal   3*1


fix            topWall all wall/lj93 zhi EDGE                ${epsilonWall} ${sigma} ${cutoffTop} units box
fix            topWall all wall/lj93 zhi EDGE                2 ${sigma} ${cutoffTop} units box
fix            topWall all wall/lj93 zhi EDGE                2 1 ${cutoffTop} units box
fix            topWall all wall/lj93 zhi EDGE                2 1 0.7147 units box

fix            lowWall all wall/lj93 zlo EDGE                ${epsilonWall} ${sigma} ${cutoffLow} units box
fix            lowWall all wall/lj93 zlo EDGE                2 ${sigma} ${cutoffLow} units box
fix            lowWall all wall/lj93 zlo EDGE                2 1 ${cutoffLow} units box
fix            lowWall all wall/lj93 zlo EDGE                2 1 3 units box


###################### COMPUTES ##########################

compute        bin1 solvent chunk/atom bin/1d z upper 1.0



######################	FIXES ############################


fix 		peclet solvent ave/chunk 1000 1 1000 bin1 density/number norm 		 none ave one file density.profile

fix 		 temp solvent ave/chunk 1000 1 1000 bin1 temp norm none ave one 		 file temp.profile

fix 		2 solvent nve

## Thermostat


region		regthermo block EDGE EDGE EDGE EDGE 0 20

group 		thermo dynamic solvent region regthermo every 1000
dynamic group thermo defined

fix 		3 thermo langevin ${startTemp} ${temp} 10 156453
fix 		3 thermo langevin 1.0 ${temp} 10 156453
fix 		3 thermo langevin 1.0 1.0 10 156453



#### Load balancing


fix 		bal all balance 1000 1.05 shift z 10 1.05


############### Diagnostics and computes ###################
#compute 	com cube	  rigid/local	1 mol x y z
#compute 	quat cube	  rigid/local	1 mol quatw quati quatj quatk

thermo 		1000
thermo_style 	custom step temp epair evdwl etotal press pe ke vol

dump		1 all custom 100000 dump.lammpstrj id mol type x y z
dump 		2 all image 10000 image.*.png type type
dump 		3 all movie 1000 movie.avi type type
#dump 		com cube local 1000 dump.*.xyz c_com[*]
#dump		quat cube      local 1000 dump.*.quat c_quat[*]


restart 	500000 restart.dat
timestep 	0.0025
timer 		full
New timer settings: style=full  mode=nosync  timeout=off


run		1000000
Per MPI rank memory allocation (min/avg/max) = 12.19 | 12.58 | 12.81 Mbytes
Step Temp E_pair E_vdwl TotEng Press PotEng KinEng Volume 
       0   0.99997028   -3.5955076   -3.5955076   -2.0955552    8.5553734   -3.5955076    1.4999524      1024000 
    1000    1.7197313   -4.7706164   -4.7706164   -2.1910247    4.3513259   -4.7706164    2.5795918      1024000 
    2000     1.668251   -4.8105998   -4.8105998   -2.3082283    3.0371239   -4.8105998    2.5023715      1024000 
    3000    1.5913028   -4.7960049   -4.7960049   -2.4090555    2.0496497   -4.7960049    2.3869494      1024000 
    4000     1.559518   -4.8035204   -4.8035204   -2.4642481     1.049449   -4.8035204    2.3392723      1024000 
    5000     1.495727   -4.7150364   -4.7150364   -2.4714506   0.38354956   -4.7150364    2.2435859      1024000 
    6000    1.4213922   -4.5839905   -4.5839905   -2.4519065  0.033371162   -4.5839905     2.132084      1024000 
    7000    1.3597578   -4.4628194   -4.4628194   -2.4231869  -0.10599883   -4.4628194    2.0396325      1024000 
    8000    1.3309034   -4.3898874   -4.3898874   -2.3935364  -0.06864695   -4.3898874     1.996351      1024000 
    9000    1.3330576   -4.3669329   -4.3669329   -2.3673506  0.019732123   -4.3669329    1.9995823      1024000 
   10000     1.339288   -4.3552922   -4.3552922   -2.3463643  0.070413385   -4.3552922    2.0089279      1024000 
   11000    1.3434466   -4.3443078   -4.3443078   -2.3291419    0.0979309   -4.3443078    2.0151658      1024000 
   12000    1.3471518   -4.3362456   -4.3362456   -2.3155219   0.13639061   -4.3362456    2.0207237      1024000 
   13000    1.3550145   -4.3369545   -4.3369545   -2.3044369    0.1657274   -4.3369545    2.0325176      1024000 
   14000    1.3610885   -4.3372574   -4.3372574   -2.2956287   0.19949135   -4.3372574    2.0416287      1024000 
   15000    1.3617189    -4.331574    -4.331574   -2.2889999   0.21572569    -4.331574    2.0425742      1024000 
   16000    1.3618988   -4.3251345   -4.3251345   -2.2822904   0.21510261   -4.3251345     2.042844      1024000 
   17000    1.3630753   -4.3215812   -4.3215812   -2.2769725   0.22083657   -4.3215812    2.0446087      1024000 
   18000    1.3631623   -4.3183052   -4.3183052   -2.2735659   0.22572948   -4.3183052    2.0447393      1024000 
   19000    1.3660729   -4.3189144   -4.3189144   -2.2698093   0.26643474   -4.3189144    2.0491051      1024000 
   20000    1.3770122    -4.334303    -4.334303    -2.268789    0.7254035    -4.334303     2.065514      1024000 
   21000    1.3890429   -4.3480046   -4.3480046   -2.2644446    1.3423408   -4.3480046    2.0835601      1024000 
   22000    1.3951127   -4.3555144   -4.3555144   -2.2628496    1.9776287   -4.3555144    2.0926648      1024000 
   23000    1.4003439   -4.3604307   -4.3604307   -2.2599191    2.2508895   -4.3604307    2.1005116      1024000 
   24000    1.3929465   -4.3463735   -4.3463735    -2.256958     1.786369   -4.3463735    2.0894155      1024000 
   25000     1.378781   -4.3220529   -4.3220529   -2.2538856    1.2767293   -4.3220529    2.0681673      1024000 
   26000    1.3551743    -4.282904    -4.282904   -2.2501466   0.87255999    -4.282904    2.0327574      1024000 
   27000    1.3199303   -4.2273567   -4.2273567   -2.2474652   0.72096887   -4.2273567    1.9798914      1024000 
   28000    1.2903145   -4.1807756   -4.1807756   -2.2453078    0.7723177   -4.1807756    1.9354678      1024000 
   29000    1.2621971   -4.1370223   -4.1370223   -2.2437305   0.74181967   -4.1370223    1.8932918      1024000 
   30000    1.2344231   -4.0946129   -4.0946129   -2.2429819   0.57931092   -4.0946129    1.8516309      1024000 
   31000    1.2054068   -4.0491252   -4.0491252   -2.2410186   0.43351388   -4.0491252    1.8081066      1024000 
   32000    1.1742857   -4.0006126   -4.0006126   -2.2391876   0.37931476   -4.0006126     1.761425      1024000 
   33000    1.1294648   -3.9324282   -3.9324282   -2.2382345    0.2457883   -3.9324282    1.6941937      1024000 
   34000    1.0806782   -3.8592346   -3.8592346   -2.2382206  0.079531762   -3.8592346     1.621014      1024000 
   35000    1.0391575   -3.7974367   -3.7974367   -2.2387037 -0.022515633   -3.7974367     1.558733      1024000 
   36000     1.010639    -3.756129    -3.756129   -2.2401736  -0.08069828    -3.756129    1.5159554      1024000 
   37000   0.99587957   -3.7364997   -3.7364997   -2.2426834 -0.089060972   -3.7364997    1.4938163      1024000 
   38000   0.98975336   -3.7327606   -3.7327606   -2.2481335  -0.07750105   -3.7327606     1.484627      1024000 
   39000   0.99402542   -3.7456497   -3.7456497   -2.2546146 -0.049366517   -3.7456497    1.4910351      1024000 
   40000    1.0022861   -3.7655474   -3.7655474   -2.2621212 -0.022528913   -3.7655474    1.5034262      1024000 
   41000    1.0085786   -3.7841439   -3.7841439   -2.2712791  0.015374043   -3.7841439    1.5128648      1024000 
   42000    1.0138689   -3.8028194   -3.8028194   -2.2820191   0.04170043   -3.8028194    1.5208003      1024000 
   43000    1.0202756   -3.8252516   -3.8252516   -2.2948413  0.063138569   -3.8252516    1.5304104      1024000 
   44000    1.0220298   -3.8413849   -3.8413849   -2.3083433  0.074724776   -3.8413849    1.5330416      1024000 
   45000     1.021947    -3.854817    -3.854817   -2.3218996  0.073280492    -3.854817    1.5329174      1024000 
   46000    1.0212611   -3.8678866   -3.8678866    -2.335998  0.090064656   -3.8678866    1.5318886      1024000 
   47000    1.0211479   -3.8816104   -3.8816104   -2.3498918  0.095730466   -3.8816104    1.5317187      1024000 
   48000    1.0226557   -3.8976491   -3.8976491   -2.3636686   0.10029263   -3.8976491    1.5339805      1024000 
   49000    1.0225054   -3.9121871   -3.9121871   -2.3784321   0.11307155   -3.9121871     1.533755      1024000 
   50000    1.0223084   -3.9251717   -3.9251717   -2.3917122   0.12251705   -3.9251717    1.5334595      1024000 
   51000    1.0207486     -3.93548     -3.93548   -2.4043603   0.12940645     -3.93548    1.5311198      1024000 
   52000    1.0190203   -3.9435326   -3.9435326   -2.4150052   0.12345068   -3.9435326    1.5285273      1024000 
   53000    1.0149386   -3.9475334   -3.9475334   -2.4251286   0.12302152   -3.9475334    1.5224048      1024000 
   54000    1.0109153   -3.9485852   -3.9485852   -2.4322153   0.11211607   -3.9485852    1.5163699      1024000 
   55000    1.0059444   -3.9485533   -3.9485533   -2.4396397   0.10249697   -3.9485533    1.5089136      1024000 
   56000    1.0021743   -3.9475546   -3.9475546   -2.4442962  0.093943196   -3.9475546    1.5032584      1024000 
   57000   0.99643337   -3.9430785   -3.9430785   -2.4484315    0.0749653   -3.9430785     1.494647      1024000 
   58000   0.99368846   -3.9419238   -3.9419238   -2.4513942  0.065925433   -3.9419238    1.4905297      1024000 
   59000   0.99128279   -3.9395309   -3.9395309   -2.4526097  0.068491699   -3.9395309    1.4869212      1024000 
   60000   0.99076105    -3.938303    -3.938303   -2.4521644  0.070777442    -3.938303    1.4861386      1024000 
   61000   0.98899766   -3.9352035   -3.9352035     -2.45171  0.066614701   -3.9352035    1.4834935      1024000 
   62000   0.98919516   -3.9343394   -3.9343394   -2.4505496  0.072301939   -3.9343394    1.4837897      1024000 
   63000   0.98967102   -3.9350526   -3.9350526   -2.4505491  0.066389268   -3.9350526    1.4845035      1024000 
   64000   0.99064199   -3.9345123   -3.9345123   -2.4485523  0.070260396   -3.9345123      1.48596      1024000 
   65000   0.99184188   -3.9347202   -3.9347202   -2.4469604  0.076342925   -3.9347202    1.4877598      1024000 
   66000   0.99184396   -3.9333481   -3.9333481   -2.4455852  0.072487041   -3.9333481    1.4877629      1024000 
   67000   0.99251042   -3.9341782   -3.9341782   -2.4454156  0.066730427   -3.9341782    1.4887626      1024000 
   68000   0.99292054   -3.9331173   -3.9331173   -2.4437395   0.07539088   -3.9331173    1.4893778      1024000 
   69000   0.99290772   -3.9324689   -3.9324689   -2.4431103  0.073719644   -3.9324689    1.4893586      1024000 
   70000   0.99494372   -3.9346567   -3.9346567   -2.4422442  0.074443757   -3.9346567    1.4924125      1024000 
   71000   0.99632966    -3.937378    -3.937378   -2.4428866  0.084072133    -3.937378    1.4944915      1024000 
   72000    0.9984337   -3.9391689   -3.9391689   -2.4415214  0.088840205   -3.9391689    1.4976475      1024000 
   73000    1.0018466   -3.9445363   -3.9445363   -2.4417694  0.095157663   -3.9445363    1.5027669      1024000 
   74000    1.0047774   -3.9508148   -3.9508148   -2.4436517   0.09282184   -3.9508148    1.5071631      1024000 
   75000    1.0079029   -3.9564564   -3.9564564   -2.4446051   0.10308812   -3.9564564    1.5118513      1024000 
   76000     1.011849   -3.9647148   -3.9647148   -2.4469444   0.11372806   -3.9647148    1.5177704      1024000 
   77000    1.0165836   -3.9739047   -3.9739047   -2.4490324   0.12767701   -3.9739047    1.5248723      1024000 
   78000    1.0188638   -3.9813735   -3.9813735   -2.4530809   0.14115808   -3.9813735    1.5282927      1024000 
   79000    1.0214689   -3.9900547   -3.9900547   -2.4578545   0.15810472   -3.9900547    1.5322002      1024000 
   80000    1.0252786   -4.0016139   -4.0016139   -2.4636992   0.15891754   -4.0016139    1.5379147      1024000 
   81000      1.02516    -4.007618    -4.007618   -2.4698811   0.17365323    -4.007618    1.5377369      1024000 
   82000    1.0276573   -4.0166014   -4.0166014   -2.4751185   0.17792187   -4.0166014    1.5414828      1024000 
   83000    1.0257915   -4.0216049   -4.0216049   -2.4829208   0.18269232   -4.0216049    1.5386842      1024000 
   84000    1.0259547   -4.0282455   -4.0282455   -2.4893166   0.18328092   -4.0282455     1.538929      1024000 
   85000    1.0250838    -4.033294    -4.033294   -2.4956713   0.18924754    -4.033294    1.5376226      1024000 
   86000    1.0250493   -4.0383619   -4.0383619    -2.500791   0.19350114   -4.0383619    1.5375709      1024000 
   87000    1.0237498   -4.0422648   -4.0422648   -2.5066433   0.19495913   -4.0422648    1.5356216      1024000 
   88000    1.0232872   -4.0474609   -4.0474609   -2.5125333   0.18920824   -4.0474609    1.5349276      1024000 
   89000    1.0200922   -4.0479443   -4.0479443   -2.5178091   0.19722384   -4.0479443    1.5301352      1024000 
   90000    1.0204874   -4.0531202   -4.0531202   -2.5223922   0.19399271   -4.0531202    1.5307281      1024000 
   91000    1.0182914   -4.0546313   -4.0546313   -2.5271972   0.18758856   -4.0546313    1.5274341      1024000 
   92000    1.0139767   -4.0524852   -4.0524852   -2.5315232   0.17849839   -4.0524852     1.520962      1024000 
   93000     1.012345   -4.0529309   -4.0529309   -2.5344166   0.17110174   -4.0529309    1.5185144      1024000 
   94000    1.0085559   -4.0484063   -4.0484063   -2.5355755   0.16397031   -4.0484063    1.5128308      1024000 
   95000    1.0045158   -4.0447517   -4.0447517    -2.537981   0.14449968   -4.0447517    1.5067707      1024000 
   96000   0.99991823   -4.0378377   -4.0378377   -2.5379634   0.13698041   -4.0378377    1.4998743      1024000 
   97000   0.99479836   -4.0302353   -4.0302353   -2.5380408   0.13007279   -4.0302353    1.4921945      1024000 
   98000   0.99142686   -4.0254596   -4.0254596   -2.5383223    0.1076134   -4.0254596    1.4871373      1024000 
   99000   0.98657066   -4.0174361   -4.0174361   -2.5375831  0.093980994   -4.0174361     1.479853      1024000 
  100000   0.98235583   -4.0095786   -4.0095786   -2.5360478  0.080481192   -4.0095786    1.4735308      1024000 
  101000   0.97731538   -4.0013087   -4.0013087   -2.5353386  0.068971863   -4.0013087    1.4659701      1024000 
  102000   0.97447202   -3.9952231   -3.9952231    -2.533518  0.059540218   -3.9952231    1.4617051      1024000 
  103000   0.96974627    -3.987215    -3.987215   -2.5325986   0.05570427    -3.987215    1.4546164      1024000 
  104000    0.9662726   -3.9794459   -3.9794459   -2.5300399  0.035103977   -3.9794459     1.449406      1024000 
  105000   0.96375633   -3.9725375   -3.9725375    -2.526906  0.032222743   -3.9725375    1.4456316      1024000 
  106000   0.96021411   -3.9648098   -3.9648098   -2.5244915  0.022594898   -3.9648098    1.4403182      1024000 
  107000   0.95666896   -3.9559315   -3.9559315   -2.5209309  0.021119703   -3.9559315    1.4350005      1024000 
  108000   0.95514564   -3.9490846   -3.9490846    -2.516369 0.0079927762   -3.9490846    1.4327156      1024000 
  109000   0.95155615   -3.9396828   -3.9396828   -2.5123515 0.0030414044   -3.9396828    1.4273313      1024000 
  110000   0.94913952   -3.9336194   -3.9336194    -2.509913 -0.0021391046   -3.9336194    1.4237064      1024000 
  111000    0.9485303   -3.9282666   -3.9282666   -2.5054741 -0.0093503112   -3.9282666    1.4227926      1024000 
  112000    0.9460321   -3.9207771   -3.9207771   -2.5017318 -0.011007291   -3.9207771    1.4190453      1024000 
  113000   0.94477522   -3.9156982   -3.9156982   -2.4985383 -0.014383385   -3.9156982      1.41716      1024000 
  114000   0.94344379   -3.9103362   -3.9103362   -2.4951734 -0.021884034   -3.9103362    1.4151628      1024000 
  115000   0.94184951   -3.9034917   -3.9034917   -2.4907203 -0.017473916   -3.9034917    1.4127714      1024000 
  116000   0.94199594   -3.8997182   -3.8997182   -2.4867271 -0.026474202   -3.8997182     1.412991      1024000 
  117000    0.9416039   -3.8953221   -3.8953221   -2.4829191 -0.026808435   -3.8953221     1.412403      1024000 
  118000    0.9407909   -3.8913305   -3.8913305    -2.480147 -0.024499755   -3.8913305    1.4111835      1024000 
  119000   0.94009766   -3.8881143   -3.8881143   -2.4779707 -0.024083302   -3.8881143    1.4101436      1024000 
  120000   0.94137625   -3.8861862   -3.8861862   -2.4741247  -0.02613513   -3.8861862    1.4120615      1024000 
  121000   0.94215919   -3.8859527   -3.8859527   -2.4727167 -0.023297036   -3.8859527    1.4132359      1024000 
  122000   0.94220246   -3.8839547   -3.8839547   -2.4706539   -0.0194033   -3.8839547    1.4133008      1024000 
  123000   0.94384855   -3.8822326   -3.8822326   -2.4664627 -0.013195495   -3.8822326      1.41577      1024000 
  124000   0.94488357   -3.8808038   -3.8808038   -2.4634814 -0.015951329   -3.8808038    1.4173225      1024000 
  125000   0.94530424   -3.8804772   -3.8804772   -2.4625237 -0.013486262   -3.8804772    1.4179535      1024000 
  126000    0.9472793   -3.8800885   -3.8800885   -2.4591724 -0.012508414   -3.8800885    1.4209161      1024000 
  127000   0.94723674   -3.8781802   -3.8781802    -2.457328 -0.0033382362   -3.8781802    1.4208522      1024000 
  128000   0.94969561    -3.880982    -3.880982   -2.4564415 -0.0071261025    -3.880982    1.4245405      1024000 
  129000   0.95001335   -3.8805029   -3.8805029   -2.4554857 -0.001836702   -3.8805029    1.4250171      1024000 
  130000   0.95043604   -3.8802228   -3.8802228   -2.4545717 -0.0048001631   -3.8802228    1.4256512      1024000 
  131000   0.95045286   -3.8794553   -3.8794553   -2.4537789 0.0043067505   -3.8794553    1.4256764      1024000 
  132000    0.9520301   -3.8806778   -3.8806778   -2.4526355 0.0064635855   -3.8806778    1.4280423      1024000 
  133000   0.95162064   -3.8803811   -3.8803811   -2.4529531 0.0015370577   -3.8803811    1.4274281      1024000 
  134000   0.95322996   -3.8815334   -3.8815334   -2.4516914 -0.002765773   -3.8815334     1.429842      1024000 
  135000   0.95420502   -3.8825101   -3.8825101   -2.4512055 0.0040614897   -3.8825101    1.4313046      1024000 
  136000   0.95425305   -3.8829356   -3.8829356    -2.451559 0.0018580218   -3.8829356    1.4313767      1024000 
  137000    0.9552024    -3.883774    -3.883774   -2.4509733  0.003885382    -3.883774    1.4328007      1024000 
  138000    0.9540336   -3.8827549   -3.8827549   -2.4517074  0.008006333   -3.8827549    1.4310475      1024000 
  139000   0.95496791   -3.8843145   -3.8843145   -2.4518656 0.0082642464   -3.8843145     1.432449      1024000 
  140000   0.95654273   -3.8868971   -3.8868971    -2.452086 0.0067845903   -3.8868971    1.4348112      1024000 
  141000   0.95678377   -3.8866568   -3.8866568   -2.4514841 0.0047750425   -3.8866568    1.4351727      1024000 
  142000   0.95682337   -3.8873497   -3.8873497   -2.4521176 0.0074313332   -3.8873497    1.4352321      1024000 
  143000   0.95618671    -3.887556    -3.887556   -2.4532788  0.016943784    -3.887556    1.4342772      1024000 
  144000   0.95722231   -3.8904796   -3.8904796   -2.4546491  0.012213527   -3.8904796    1.4358306      1024000 
  145000   0.95704004   -3.8907628   -3.8907628   -2.4552056   0.01574266   -3.8907628    1.4355571      1024000 
  146000   0.95792962   -3.8923921   -3.8923921   -2.4555005  0.013295746   -3.8923921    1.4368915      1024000 
  147000   0.95896925   -3.8948301   -3.8948301   -2.4563792  0.017890954   -3.8948301    1.4384509      1024000 
  148000   0.95943416   -3.8959912   -3.8959912   -2.4568429  0.021919833   -3.8959912    1.4391483      1024000 
  149000    0.9587645   -3.8965425   -3.8965425   -2.4583987  0.020561807   -3.8965425    1.4381438      1024000 
  150000   0.95954105   -3.8985394   -3.8985394   -2.4592307  0.018922916   -3.8985394    1.4393087      1024000 
  151000   0.95806277   -3.8985798   -3.8985798   -2.4614885  0.025038213   -3.8985798    1.4370912      1024000 
  152000   0.95800064   -3.9000841   -3.9000841    -2.463086  0.015729356   -3.9000841     1.436998      1024000 
  153000   0.95833097   -3.9010902   -3.9010902   -2.4635967  0.012622791   -3.9010902    1.4374935      1024000 
  154000   0.95668443   -3.8992072   -3.8992072   -2.4641835  0.019052231   -3.8992072    1.4350237      1024000 
  155000   0.95655664   -3.9013741   -3.9013741   -2.4665421  0.016570386   -3.9013741     1.434832      1024000 
  156000   0.95640442   -3.9022269   -3.9022269   -2.4676232  0.018183373   -3.9022269    1.4346037      1024000 
  157000   0.95640845   -3.9024568   -3.9024568    -2.467847  0.016232153   -3.9024568    1.4346098      1024000 
  158000   0.95763191   -3.9045114   -3.9045114   -2.4680664  0.017567264   -3.9045114    1.4364449      1024000 
  159000   0.95810291   -3.9055316   -3.9055316   -2.4683801  0.024314875   -3.9055316    1.4371514      1024000 
  160000   0.95881103   -3.9067199   -3.9067199   -2.4685062  0.027356841   -3.9067199    1.4382136      1024000 
  161000   0.95799554   -3.9065672   -3.9065672   -2.4695768   0.02742986   -3.9065672    1.4369904      1024000 
  162000    0.9582928   -3.9075978   -3.9075978   -2.4701615  0.022180512   -3.9075978    1.4374363      1024000 
  163000   0.95785431   -3.9090891   -3.9090891   -2.4723105  0.023592899   -3.9090891    1.4367785      1024000 
  164000   0.95776662    -3.909507    -3.909507     -2.47286  0.022113626    -3.909507     1.436647      1024000 
  165000   0.95876882   -3.9109969   -3.9109969   -2.4728466  0.019013283   -3.9109969    1.4381503      1024000 
  166000   0.95829009   -3.9106483   -3.9106483   -2.4732161  0.023329806   -3.9106483    1.4374322      1024000 
  167000   0.95743381   -3.9101401   -3.9101401   -2.4739923  0.025207044   -3.9101401    1.4361478      1024000 
  168000   0.95635562   -3.9101477   -3.9101477   -2.4756172  0.023371133   -3.9101477    1.4345305      1024000 
  169000   0.95906774   -3.9134347   -3.9134347   -2.4748361  0.023469291   -3.9134347    1.4385987      1024000 
  170000   0.95963748   -3.9151923   -3.9151923    -2.475739  0.022146169   -3.9151923    1.4394533      1024000 
  171000   0.95864829   -3.9140649   -3.9140649   -2.4760954  0.025473423   -3.9140649    1.4379695      1024000 
  172000   0.95774177   -3.9130681   -3.9130681   -2.4764584  0.026122746   -3.9130681    1.4366097      1024000 
  173000   0.95733596   -3.9128285   -3.9128285   -2.4768275  0.024040058   -3.9128285     1.436001      1024000 
  174000   0.95716264   -3.9129214   -3.9129214   -2.4771804  0.019765393   -3.9129214     1.435741      1024000 
  175000   0.95672639   -3.9116735   -3.9116735   -2.4765869  0.023752255   -3.9116735    1.4350867      1024000 
  176000   0.95717804   -3.9117545   -3.9117545   -2.4759904  0.020048321   -3.9117545    1.4357642      1024000 
  177000   0.95794152   -3.9127814   -3.9127814    -2.475872  0.020000585   -3.9127814    1.4369094      1024000 
  178000   0.95756413   -3.9127185   -3.9127185   -2.4763752  0.025130713   -3.9127185    1.4363433      1024000 
  179000   0.95609719   -3.9122564   -3.9122564   -2.4781135  0.024934771   -3.9122564    1.4341429      1024000 
  180000    0.9573175   -3.9141328   -3.9141328   -2.4781595  0.026166789   -3.9141328    1.4359733      1024000 
  181000   0.95815152   -3.9147616   -3.9147616   -2.4775373  0.023861147   -3.9147616    1.4372244      1024000 
  182000   0.95854066   -3.9156674   -3.9156674   -2.4778593  0.023752538   -3.9156674    1.4378081      1024000 
  183000   0.95798707   -3.9146766   -3.9146766   -2.4776989  0.020409691   -3.9146766    1.4369777      1024000 
  184000   0.95814673   -3.9161415   -3.9161415   -2.4789243  0.020002449   -3.9161415    1.4372172      1024000 
  185000   0.95804404   -3.9159488   -3.9159488   -2.4788856  0.024924312   -3.9159488    1.4370631      1024000 
  186000   0.95852504     -3.91656     -3.91656   -2.4787754  0.025563302     -3.91656    1.4377846      1024000 
  187000   0.95790479   -3.9151097   -3.9151097   -2.4782554  0.023332196   -3.9151097    1.4368543      1024000 
  188000    0.9564897    -3.913191    -3.913191   -2.4784593  0.027294422    -3.913191    1.4347316      1024000 
  189000   0.95667862   -3.9132952   -3.9132952   -2.4782802  0.022183552   -3.9132952     1.435015      1024000 
  190000   0.95675367   -3.9131092   -3.9131092   -2.4779816  0.026138912   -3.9131092    1.4351276      1024000 
  191000   0.95645789   -3.9121029   -3.9121029    -2.477419  0.022645829   -3.9121029    1.4346839      1024000 
  192000   0.95692513   -3.9128315   -3.9128315   -2.4774467  0.030013677   -3.9128315    1.4353848      1024000 
  193000   0.95650773   -3.9128269   -3.9128269   -2.4780682  0.033091514   -3.9128269    1.4347587      1024000 
  194000   0.95681959   -3.9138187   -3.9138187   -2.4785922  0.023460799   -3.9138187    1.4352265      1024000 
  195000   0.95619505   -3.9133739   -3.9133739   -2.4790843  0.022586635   -3.9133739    1.4342897      1024000 
  196000   0.95700653   -3.9146687   -3.9146687   -2.4791618  0.018824831   -3.9146687    1.4355069      1024000 
  197000   0.95511513   -3.9125555   -3.9125555   -2.4798857  0.022533808   -3.9125555    1.4326698      1024000 
  198000   0.95425143   -3.9112712   -3.9112712   -2.4798969  0.023655512   -3.9112712    1.4313742      1024000 
  199000    0.9550818   -3.9123573   -3.9123573   -2.4797375  0.015433636   -3.9123573    1.4326198      1024000 
  200000   0.95504996    -3.913775    -3.913775    -2.481203  0.021621478    -3.913775     1.432572      1024000 
  201000   0.95528152   -3.9123632   -3.9123632   -2.4794438  0.020495773   -3.9123632    1.4329194      1024000 
  202000   0.95551693   -3.9129201   -3.9129201   -2.4796476   0.02443856   -3.9129201    1.4332725      1024000 
  203000   0.95584124   -3.9137874   -3.9137874   -2.4800285  0.025683604   -3.9137874    1.4337589      1024000 
  204000   0.95732664   -3.9154075   -3.9154075   -2.4794204  0.021963486   -3.9154075     1.435987      1024000 
  205000   0.95640689    -3.913876    -3.913876   -2.4792685  0.030031107    -3.913876    1.4346074      1024000 
  206000   0.95892686   -3.9173452   -3.9173452   -2.4789578   0.02252079   -3.9173452    1.4383874      1024000 
  207000   0.95867037    -3.917845    -3.917845   -2.4798424  0.023311388    -3.917845    1.4380026      1024000 
  208000   0.95558273    -3.914352    -3.914352   -2.4809808  0.035454039    -3.914352    1.4333712      1024000 
  209000   0.95673844   -3.9161547   -3.9161547   -2.4810499  0.030389914   -3.9161547    1.4351048      1024000 
  210000   0.95808936   -3.9181022   -3.9181022   -2.4809711  0.021624886   -3.9181022    1.4371311      1024000 
  211000   0.95637113   -3.9161463   -3.9161463   -2.4815925  0.022341656   -3.9161463    1.4345538      1024000 
  212000   0.95550867   -3.9143537   -3.9143537   -2.4810936  0.028473086   -3.9143537    1.4332601      1024000 
  213000   0.95691185   -3.9168728   -3.9168728   -2.4815079  0.022120713   -3.9168728    1.4353649      1024000 
  214000   0.95688049   -3.9166026   -3.9166026   -2.4812847  0.029537404   -3.9166026    1.4353178      1024000 
  215000   0.95733864   -3.9163786   -3.9163786   -2.4803736   0.02167105   -3.9163786     1.436005      1024000 
  216000   0.95686005   -3.9163544   -3.9163544   -2.4810672  0.018054819   -3.9163544    1.4352872      1024000 
  217000    0.9557356   -3.9137897   -3.9137897   -2.4801892  0.024317385   -3.9137897    1.4336005      1024000 
  218000   0.95589769   -3.9135271   -3.9135271   -2.4796834  0.032566174   -3.9135271    1.4338436      1024000 
  219000   0.95596163   -3.9145871   -3.9145871   -2.4806475  0.024477208   -3.9145871    1.4339395      1024000 
  220000    0.9567498   -3.9153778   -3.9153778    -2.480256    0.0179026   -3.9153778    1.4351218      1024000 
  221000     0.954561   -3.9117682   -3.9117682   -2.4799296  0.026461941   -3.9117682    1.4318386      1024000 
  222000   0.95638718   -3.9142875   -3.9142875   -2.4797097  0.021261623   -3.9142875    1.4345779      1024000 
  223000   0.95617576   -3.9128745   -3.9128745   -2.4786138  0.022153485   -3.9128745    1.4342607      1024000 
  224000   0.95568924   -3.9127623   -3.9127623   -2.4792314  0.024531025   -3.9127623     1.433531      1024000 
  225000   0.95426623   -3.9105844   -3.9105844    -2.479188    0.0285046   -3.9105844    1.4313964      1024000 
  226000   0.95448323   -3.9113721   -3.9113721   -2.4796502  0.027299175   -3.9113721    1.4317219      1024000 
  227000   0.95638985   -3.9137308   -3.9137308   -2.4791489  0.020114346   -3.9137308    1.4345819      1024000 
  228000   0.95475471   -3.9111268   -3.9111268   -2.4789977  0.026320642   -3.9111268    1.4321292      1024000 
  229000    0.9575708   -3.9146843   -3.9146843    -2.478331  0.022401127   -3.9146843    1.4363533      1024000 
  230000    0.9567555   -3.9137157   -3.9137157   -2.4785854  0.028252594   -3.9137157    1.4351303      1024000 
  231000   0.95662734   -3.9138355   -3.9138355   -2.4788974   0.02542498   -3.9138355    1.4349381      1024000 
  232000   0.95581992   -3.9130084   -3.9130084   -2.4792815  0.029495609   -3.9130084     1.433727      1024000 
  233000   0.95604109    -3.913584    -3.913584   -2.4795253  0.030842009    -3.913584    1.4340587      1024000 
  234000    0.9566436   -3.9154121   -3.9154121   -2.4804496  0.029769254   -3.9154121    1.4349625      1024000 
  235000   0.95660369   -3.9150166   -3.9150166    -2.480114  0.023291835   -3.9150166    1.4349026      1024000 
  236000   0.95561064   -3.9134757   -3.9134757   -2.4800626  0.027578578   -3.9134757     1.433413      1024000 
  237000   0.95633325   -3.9160189   -3.9160189   -2.4815219   0.02525105   -3.9160189     1.434497      1024000 
  238000    0.9554818   -3.9147918   -3.9147918   -2.4815721  0.026933728   -3.9147918    1.4332198      1024000 
  239000   0.95504578   -3.9140012   -3.9140012   -2.4814354  0.028767612   -3.9140012    1.4325658      1024000 
  240000   0.95713138   -3.9172007   -3.9172007   -2.4815066  0.026381425   -3.9172007    1.4356942      1024000 
  241000   0.95721384   -3.9161997   -3.9161997   -2.4803819  0.031237015   -3.9161997    1.4358178      1024000 
  242000   0.95706591   -3.9171434   -3.9171434   -2.4815475  0.031759801   -3.9171434     1.435596      1024000 
  243000   0.95709913   -3.9178452   -3.9178452   -2.4821994  0.022925791   -3.9178452    1.4356458      1024000 
  244000   0.95629475   -3.9163354   -3.9163354   -2.4818961  0.026868049   -3.9163354    1.4344392      1024000 
  245000   0.95547064    -3.914819    -3.914819   -2.4816159  0.029781803    -3.914819     1.433203      1024000 
  246000   0.95562244    -3.914991    -3.914991   -2.4815603  0.028517221    -3.914991    1.4334307      1024000 
  247000   0.95389101    -3.912476    -3.912476   -2.4816424  0.027540273    -3.912476    1.4308336      1024000 
  248000   0.95515282   -3.9137011   -3.9137011   -2.4809748  0.029122702   -3.9137011    1.4327263      1024000 
  249000   0.95468163   -3.9129782   -3.9129782   -2.4809587  0.025335109   -3.9129782    1.4320195      1024000 
  250000   0.95522636   -3.9130116   -3.9130116   -2.4801749  0.024975982   -3.9130116    1.4328366      1024000 
  251000   0.95622506   -3.9141264   -3.9141264   -2.4797917  0.023724859   -3.9141264    1.4343347      1024000 
  252000   0.95541611   -3.9124421   -3.9124421   -2.4793208  0.023222028   -3.9124421    1.4331213      1024000 
  253000   0.95639759   -3.9130802   -3.9130802   -2.4784867  0.023347319   -3.9130802    1.4345935      1024000 
  254000    0.9561941   -3.9130072   -3.9130072    -2.478719   0.02578212   -3.9130072    1.4342882      1024000 
  255000   0.95494892   -3.9114033   -3.9114033   -2.4789829  0.024970575   -3.9114033    1.4324205      1024000 
  256000   0.95579215   -3.9134798   -3.9134798   -2.4797945  0.021430724   -3.9134798    1.4336853      1024000 
  257000   0.95524407   -3.9121552   -3.9121552    -2.479292  0.023645579   -3.9121552    1.4328632      1024000 
  258000   0.95429225    -3.910954    -3.910954   -2.4795186  0.027685786    -3.910954    1.4314355      1024000 
  259000   0.95587838   -3.9137267   -3.9137267    -2.479912  0.022913671   -3.9137267    1.4338147      1024000 
  260000   0.95518848   -3.9124423   -3.9124423   -2.4796625   0.02745186   -3.9124423    1.4327798      1024000 
  261000   0.95548497   -3.9112846   -3.9112846   -2.4780601  0.025947953   -3.9112846    1.4332245      1024000 
  262000   0.95611513   -3.9118919   -3.9118919   -2.4777221  0.024928359   -3.9118919    1.4341698      1024000 
  263000   0.95489321   -3.9094265   -3.9094265   -2.4770896  0.026884085   -3.9094265    1.4323369      1024000 
  264000   0.95709002   -3.9121574   -3.9121574   -2.4765253  0.022342063   -3.9121574    1.4356321      1024000 
  265000   0.95699254   -3.9116103   -3.9116103   -2.4761244  0.029055218   -3.9116103    1.4354859      1024000 
  266000   0.95652351   -3.9116726   -3.9116726   -2.4768902   0.02454683   -3.9116726    1.4347824      1024000 
  267000   0.95553124   -3.9098903   -3.9098903   -2.4765963  0.027241362   -3.9098903     1.433294      1024000 
  268000   0.95506325   -3.9090439   -3.9090439    -2.476452  0.024542952   -3.9090439     1.432592      1024000 
  269000   0.95566739   -3.9106777   -3.9106777   -2.4771795  0.028479731   -3.9106777    1.4334982      1024000 
  270000   0.95775021   -3.9143207   -3.9143207   -2.4776983  0.025334401   -3.9143207    1.4366224      1024000 
  271000   0.95589388   -3.9112458   -3.9112458   -2.4774079  0.039614392   -3.9112458    1.4338379      1024000 
  272000    0.9570087   -3.9132406   -3.9132406   -2.4777305   0.02693804   -3.9132406    1.4355101      1024000 
  273000   0.95666817   -3.9130366   -3.9130366   -2.4780372  0.028701784   -3.9130366    1.4349993      1024000 
  274000   0.95605301   -3.9115222   -3.9115222   -2.4774456  0.031541242   -3.9115222    1.4340766      1024000 
  275000   0.95855106   -3.9146692   -3.9146692   -2.4768456  0.026619206   -3.9146692    1.4378237      1024000 
  276000   0.95684621   -3.9122229   -3.9122229   -2.4769565  0.029689945   -3.9122229    1.4352664      1024000 
  277000   0.95553419    -3.911148    -3.911148   -2.4778496  0.024358193    -3.911148    1.4332984      1024000 
  278000   0.95537619   -3.9104313   -3.9104313     -2.47737  0.028230561   -3.9104313    1.4330614      1024000 
  279000   0.95527521    -3.909081    -3.909081   -2.4761711  0.025103004    -3.909081    1.4329099      1024000 
  280000   0.95652522   -3.9105117   -3.9105117   -2.4757267  0.028507837   -3.9105117    1.4347849      1024000 
  281000   0.95720101   -3.9116178   -3.9116178   -2.4758192  0.027714629   -3.9116178    1.4357986      1024000 
  282000   0.95441118   -3.9080527   -3.9080527   -2.4764388  0.024972812   -3.9080527    1.4316139      1024000 
  283000    0.9551557   -3.9080461   -3.9080461   -2.4753154  0.028934014   -3.9080461    1.4327306      1024000 
  284000   0.95564507   -3.9085002   -3.9085002   -2.4750355  0.022726355   -3.9085002    1.4334647      1024000 
  285000   0.95551032   -3.9079131   -3.9079131   -2.4746506  0.031948095   -3.9079131    1.4332626      1024000 
  286000   0.95638102   -3.9086297   -3.9086297   -2.4740611  0.025687173   -3.9086297    1.4345686      1024000 
  287000   0.95557246   -3.9076771   -3.9076771   -2.4743214  0.027429149   -3.9076771    1.4333558      1024000 
  288000   0.95658983   -3.9097512   -3.9097512   -2.4748694  0.032009941   -3.9097512    1.4348818      1024000 
  289000   0.95688017   -3.9094353   -3.9094353   -2.4741179  0.029803366   -3.9094353    1.4353173      1024000 
  290000   0.95737631   -3.9086267   -3.9086267   -2.4725652  0.030988629   -3.9086267    1.4360615      1024000 
  291000   0.95640403   -3.9076684   -3.9076684   -2.4730652  0.026323904   -3.9076684    1.4346031      1024000 
  292000   0.95535048   -3.9063711   -3.9063711   -2.4733483  0.032112846   -3.9063711    1.4330228      1024000 
  293000    0.9558052   -3.9063318   -3.9063318   -2.4726269  0.032695152   -3.9063318    1.4337049      1024000 
  294000   0.95647508   -3.9070201   -3.9070201   -2.4723104  0.021345418   -3.9070201    1.4347097      1024000 
  295000   0.95552148   -3.9053357   -3.9053357   -2.4720563  0.025010257   -3.9053357    1.4332793      1024000 
  296000   0.95699741   -3.9067184   -3.9067184   -2.4712252  0.024442555   -3.9067184    1.4354932      1024000 
  297000   0.95599636   -3.9054326   -3.9054326    -2.471441  0.031723074   -3.9054326    1.4339916      1024000 
  298000   0.95605433   -3.9059279   -3.9059279   -2.4718493   0.02296548   -3.9059279    1.4340786      1024000 
  299000   0.95566344   -3.9053334   -3.9053334   -2.4718412  0.024574976   -3.9053334    1.4334922      1024000 
  300000   0.95607493   -3.9050866   -3.9050866   -2.4709771  0.029092538   -3.9050866    1.4341095      1024000 
  301000   0.95768891   -3.9066736   -3.9066736   -2.4701431   0.02779707   -3.9066736    1.4365305      1024000 
  302000    0.9566897   -3.9050285   -3.9050285   -2.4699968  0.027432633   -3.9050285    1.4350316      1024000 
  303000   0.95782995   -3.9066928   -3.9066928   -2.4699507  0.029883904   -3.9066928     1.436742      1024000 
  304000   0.95789792   -3.9052598   -3.9052598   -2.4684158   0.02789447   -3.9052598     1.436844      1024000 
  305000   0.95685712   -3.9031742   -3.9031742   -2.4678914   0.03269565   -3.9031742    1.4352828      1024000 
  306000   0.95718425   -3.9041155   -3.9041155   -2.4683421  0.025917107   -3.9041155    1.4357735      1024000 
  307000   0.95585526   -3.9014242   -3.9014242   -2.4676442  0.029472122   -3.9014242      1.43378      1024000 
  308000   0.95711238   -3.9037917   -3.9037917   -2.4681261   0.02831279   -3.9037917    1.4356657      1024000 
  309000   0.95650676   -3.9026077   -3.9026077   -2.4678505   0.02813416   -3.9026077    1.4347572      1024000 
  310000   0.95595293   -3.9026116   -3.9026116   -2.4686851  0.026504175   -3.9026116    1.4339265      1024000 
  311000   0.95552017   -3.9011239   -3.9011239   -2.4678465  0.025988895   -3.9011239    1.4332773      1024000 
  312000   0.95622544   -3.9016737   -3.9016737   -2.4673385  0.030743342   -3.9016737    1.4343353      1024000 
  313000   0.95621202   -3.9021545   -3.9021545   -2.4678394  0.029084946   -3.9021545    1.4343151      1024000 
  314000   0.95499138   -3.9000371   -3.9000371    -2.467553  0.034824022   -3.9000371    1.4324842      1024000 
  315000   0.95659441   -3.9033237   -3.9033237    -2.468435  0.026856571   -3.9033237    1.4348887      1024000 
  316000   0.95658497   -3.9030646   -3.9030646   -2.4681901  0.029722862   -3.9030646    1.4348745      1024000 
  317000   0.95675564   -3.9024082   -3.9024082   -2.4672776  0.031315591   -3.9024082    1.4351305      1024000 
  318000   0.95539919   -3.9010756   -3.9010756   -2.4679797  0.027073334   -3.9010756    1.4330959      1024000 
  319000   0.95543934    -3.901181    -3.901181   -2.4680249  0.028604604    -3.901181    1.4331561      1024000 
  320000   0.95555243   -3.9019415   -3.9019415   -2.4686158  0.024414332   -3.9019415    1.4333257      1024000 
  321000   0.95567779   -3.9023288   -3.9023288    -2.468815  0.026875646   -3.9023288    1.4335138      1024000 
  322000    0.9563349   -3.9036428   -3.9036428   -2.4691434   0.01866067   -3.9036428    1.4344994      1024000 
  323000   0.95616211   -3.9028543   -3.9028543   -2.4686141  0.024437249   -3.9028543    1.4342402      1024000 
  324000   0.95656527   -3.9046729   -3.9046729   -2.4698279  0.032128014   -3.9046729     1.434845      1024000 
  325000   0.95585671   -3.9025817   -3.9025817   -2.4687995  0.031105819   -3.9025817    1.4337822      1024000 
  326000   0.95546503   -3.9034185   -3.9034185   -2.4702239  0.031755841   -3.9034185    1.4331946      1024000 
  327000   0.95433521   -3.9012739   -3.9012739    -2.469774  0.029168367   -3.9012739    1.4314999      1024000 
  328000   0.95606864    -3.903335    -3.903335    -2.469235  0.019846771    -3.903335    1.4341001      1024000 
  329000    0.9560162   -3.9042265   -3.9042265   -2.4702051  0.025212111   -3.9042265    1.4340214      1024000 
  330000   0.95505544   -3.9023317   -3.9023317   -2.4697515  0.030836912   -3.9023317    1.4325802      1024000 
  331000   0.95602615   -3.9037661   -3.9037661   -2.4697298  0.026987315   -3.9037661    1.4340363      1024000 
  332000   0.95484682   -3.9014081   -3.9014081   -2.4691408  0.029032602   -3.9014081    1.4322673      1024000 
  333000   0.95665927   -3.9036324   -3.9036324   -2.4686464  0.025041811   -3.9036324     1.434986      1024000 
  334000   0.95500216   -3.9007969   -3.9007969   -2.4682965  0.027010108   -3.9007969    1.4325003      1024000 
  335000   0.95578843   -3.9028681   -3.9028681   -2.4691884  0.022552101   -3.9028681    1.4336797      1024000 
  336000   0.95668414   -3.9043057   -3.9043057   -2.4692824  0.023447172   -3.9043057    1.4350233      1024000 
  337000   0.95590764   -3.9020156   -3.9020156   -2.4681571  0.029470133   -3.9020156    1.4338586      1024000 
  338000   0.95638879   -3.9033919   -3.9033919   -2.4688117  0.022990444   -3.9033919    1.4345803      1024000 
  339000    0.9565419   -3.9022038   -3.9022038   -2.4673939  0.029209177   -3.9022038    1.4348099      1024000 
  340000   0.95712809   -3.9022324   -3.9022324   -2.4665431  0.029154819   -3.9022324    1.4356892      1024000 
  341000   0.95599702   -3.9000054   -3.9000054   -2.4660128  0.030924875   -3.9000054    1.4339926      1024000 
  342000   0.95617173   -3.9016443   -3.9016443   -2.4673896  0.022954627   -3.9016443    1.4342547      1024000 
  343000   0.95542493   -3.9000715   -3.9000715    -2.466937  0.021399912   -3.9000715    1.4331345      1024000 
  344000   0.95552883   -3.8999416   -3.8999416   -2.4666513  0.027438996   -3.8999416    1.4332903      1024000 
  345000   0.95636846   -3.9011824   -3.9011824   -2.4666326  0.029109294   -3.9011824    1.4345498      1024000 
  346000   0.95582935   -3.9007432   -3.9007432    -2.467002  0.031917687   -3.9007432    1.4337411      1024000 
  347000   0.95607587   -3.9011807   -3.9011807   -2.4670698   0.02962403   -3.9011807    1.4341109      1024000 
  348000   0.95802325   -3.9031206   -3.9031206   -2.4660886  0.025357755   -3.9031206     1.437032      1024000 
  349000   0.95784134   -3.9033402   -3.9033402   -2.4665811  0.026963577   -3.9033402    1.4367591      1024000 
  350000    0.9561879    -3.900683    -3.900683    -2.466404  0.029655239    -3.900683    1.4342789      1024000 
  351000   0.95610082   -3.9001755   -3.9001755   -2.4660272  0.029078459   -3.9001755    1.4341483      1024000 
  352000   0.95550399   -3.8998751   -3.8998751    -2.466622   0.02678227   -3.8998751    1.4332531      1024000 
  353000   0.95643409   -3.9008793   -3.9008793   -2.4662311  0.033270228   -3.9008793    1.4346482      1024000 
  354000   0.95700254   -3.9013975   -3.9013975   -2.4658966  0.025410237   -3.9013975    1.4355009      1024000 
  355000   0.95607506   -3.9006511   -3.9006511   -2.4665415  0.027964199   -3.9006511    1.4341097      1024000 
  356000   0.95521418   -3.8992771   -3.8992771   -2.4664587  0.021882446   -3.8992771    1.4328184      1024000 
  357000   0.95538629   -3.8998581   -3.8998581   -2.4667816  0.024578924   -3.8998581    1.4330765      1024000 
  358000   0.95657737   -3.9026376   -3.9026376   -2.4677745  0.027337751   -3.9026376    1.4348631      1024000 
  359000   0.95608286   -3.9015316   -3.9015316   -2.4674102  0.028877529   -3.9015316    1.4341214      1024000 
  360000   0.95771689   -3.9021604   -3.9021604    -2.465588  0.037627711   -3.9021604    1.4365724      1024000 
  361000   0.95837918    -3.903517    -3.903517   -2.4659511  0.032607122    -3.903517    1.4375659      1024000 
  362000   0.95686316   -3.9017746   -3.9017746   -2.4664827  0.035991359   -3.9017746    1.4352918      1024000 
  363000   0.95728304   -3.9015769   -3.9015769   -2.4656553  0.035433094   -3.9015769    1.4359216      1024000 
  364000   0.95811354   -3.9029848   -3.9029848   -2.4658174  0.030108033   -3.9029848    1.4371674      1024000 
  365000    0.9575095   -3.9031091   -3.9031091   -2.4668477  0.032709145   -3.9031091    1.4362613      1024000 
  366000   0.95753951   -3.9012254   -3.9012254    -2.464919  0.027044837   -3.9012254    1.4363063      1024000 
  367000   0.95644098    -3.899279    -3.899279   -2.4646205  0.028018761    -3.899279    1.4346586      1024000 
  368000   0.95458935   -3.8978682   -3.8978682   -2.4659871  0.028499895   -3.8978682    1.4318811      1024000 
  369000   0.95394925   -3.8965455   -3.8965455   -2.4656245  0.027594435   -3.8965455     1.430921      1024000 
  370000   0.95645025   -3.8994921   -3.8994921   -2.4648196   0.02376701   -3.8994921    1.4346725      1024000 
  371000   0.95637363   -3.8998565   -3.8998565   -2.4652989  0.028622431   -3.8998565    1.4345575      1024000 
  372000   0.95667603   -3.9003633   -3.9003633   -2.4653522  0.026816303   -3.9003633    1.4350111      1024000 
  373000   0.95708222   -3.9008876   -3.9008876   -2.4652672   0.02646091   -3.9008876    1.4356204      1024000 
  374000   0.95658988    -3.900132    -3.900132   -2.4652501  0.029377491    -3.900132    1.4348819      1024000 
  375000   0.95766565   -3.9021995   -3.9021995   -2.4657039  0.030484553   -3.9021995    1.4364956      1024000 
  376000   0.95677716   -3.9006618   -3.9006618    -2.465499  0.028858367   -3.9006618    1.4351628      1024000 
  377000   0.95878578   -3.9031243   -3.9031243   -2.4649485  0.033430851   -3.9031243    1.4381758      1024000 
  378000   0.95902144   -3.9033571   -3.9033571   -2.4648278  0.031427442   -3.9033571    1.4385292      1024000 
  379000   0.95757307   -3.9011325   -3.9011325   -2.4647758  0.031478339   -3.9011325    1.4363567      1024000 
  380000   0.95686562    -3.900882    -3.900882   -2.4655865  0.028210861    -3.900882    1.4352955      1024000 
  381000   0.95881919   -3.9036916   -3.9036916   -2.4654657  0.023442523   -3.9036916    1.4382259      1024000 
  382000   0.95663207   -3.8997226   -3.8997226   -2.4647774  0.027835881   -3.8997226    1.4349452      1024000 
  383000   0.95683434   -3.8992183   -3.8992183   -2.4639697  0.032458619   -3.8992183    1.4352486      1024000 
  384000   0.95818058    -3.900701    -3.900701   -2.4634331  0.027847653    -3.900701     1.437268      1024000 
  385000   0.95704379   -3.8996982   -3.8996982   -2.4641355  0.032728694   -3.8996982    1.4355628      1024000 
  386000   0.95873471    -3.901554    -3.901554   -2.4634549  0.029786577    -3.901554    1.4380992      1024000 
  387000   0.95876136   -3.9009649   -3.9009649   -2.4628258  0.022128411   -3.9009649    1.4381391      1024000 
  388000   0.95729529   -3.8983466   -3.8983466   -2.4624065  0.031088653   -3.8983466      1.43594      1024000 
  389000   0.95803683   -3.8986138   -3.8986138   -2.4615615  0.031710225   -3.8986138    1.4370523      1024000 
  390000    0.9569879   -3.8963905   -3.8963905   -2.4609116  0.029466149   -3.8963905    1.4354789      1024000 
  391000   0.95687788   -3.8966488   -3.8966488   -2.4613349  0.023786039   -3.8966488    1.4353139      1024000 
  392000   0.95709542   -3.8965398   -3.8965398   -2.4608996  0.027580631   -3.8965398    1.4356402      1024000 
  393000   0.95851223   -3.8984068   -3.8984068   -2.4606413  0.027289447   -3.8984068    1.4377654      1024000 
  394000   0.95737222   -3.8969299   -3.8969299   -2.4608745  0.028232459   -3.8969299    1.4360554      1024000 
  395000   0.95888671   -3.8985173   -3.8985173   -2.4601902  0.026371834   -3.8985173    1.4383271      1024000 
  396000   0.95736056   -3.8962821   -3.8962821   -2.4602442  0.033230938   -3.8962821    1.4360379      1024000 
  397000   0.95850109   -3.8976208   -3.8976208   -2.4598721  0.025957061   -3.8976208    1.4377487      1024000 
  398000   0.95665452   -3.8951661   -3.8951661   -2.4601872  0.034496384   -3.8951661    1.4349789      1024000 
  399000   0.95910315   -3.8979178   -3.8979178    -2.459266  0.021048221   -3.8979178    1.4386518      1024000 
  400000   0.95849996   -3.8971325   -3.8971325   -2.4593854  0.031210365   -3.8971325     1.437747      1024000 
  401000   0.95922613   -3.8990263   -3.8990263   -2.4601901  0.024309548   -3.8990263    1.4388363      1024000 
  402000   0.95863037   -3.8964384   -3.8964384   -2.4584957  0.032136382   -3.8964384    1.4379426      1024000 
  403000   0.95787309   -3.8956168   -3.8956168   -2.4588101  0.024847936   -3.8956168    1.4368067      1024000 
  404000   0.95774301   -3.8953737   -3.8953737   -2.4587621  0.029572376   -3.8953737    1.4366116      1024000 
  405000   0.95877471   -3.8955126   -3.8955126   -2.4573535  0.024517586   -3.8955126    1.4381591      1024000 
  406000   0.95821545   -3.8950713   -3.8950713    -2.457751  0.028128063   -3.8950713    1.4373203      1024000 
  407000   0.95729811   -3.8932857   -3.8932857   -2.4573414  0.032388044   -3.8932857    1.4359443      1024000 
  408000   0.95854958   -3.8940253   -3.8940253   -2.4562038  0.026891464   -3.8940253    1.4378215      1024000 
  409000   0.95825963   -3.8931655   -3.8931655    -2.455779  0.031006103   -3.8931655    1.4373865      1024000 
  410000   0.95664537   -3.8925765   -3.8925765   -2.4576113  0.025893196   -3.8925765    1.4349651      1024000 
  411000   0.95725591   -3.8923965   -3.8923965   -2.4565156  0.035679129   -3.8923965    1.4358809      1024000 
  412000   0.95763695    -3.893806    -3.893806   -2.4573535  0.026042838    -3.893806    1.4364525      1024000 
  413000   0.95684995   -3.8920477   -3.8920477   -2.4567757  0.031477348   -3.8920477     1.435272      1024000 
  414000   0.95807579   -3.8942555   -3.8942555   -2.4571447  0.031723576   -3.8942555    1.4371108      1024000 
  415000   0.95772321   -3.8944348   -3.8944348   -2.4578529  0.026773213   -3.8944348    1.4365819      1024000 
  416000   0.95758085   -3.8940587   -3.8940587   -2.4576903   0.02736409   -3.8940587    1.4363684      1024000 
  417000    0.9579656   -3.8943996   -3.8943996   -2.4574542  0.028654417   -3.8943996    1.4369455      1024000 
  418000   0.95853884   -3.8955349   -3.8955349   -2.4577295   0.02783644   -3.8955349    1.4378053      1024000 
  419000    0.9572732    -3.893538    -3.893538   -2.4576311  0.034651686    -3.893538    1.4359069      1024000 
  420000   0.95784587   -3.8948133   -3.8948133   -2.4580474  0.026860154   -3.8948133    1.4367659      1024000 
  421000   0.95796117   -3.8949938   -3.8949938   -2.4580549  0.021868972   -3.8949938    1.4369388      1024000 
  422000   0.95854797   -3.8959717   -3.8959717   -2.4581526  0.028286962   -3.8959717     1.437819      1024000 
  423000   0.95789978   -3.8952472   -3.8952472   -2.4584004   0.02928671   -3.8952472    1.4368468      1024000 
  424000   0.95897158   -3.8966107   -3.8966107   -2.4581563  0.028703763   -3.8966107    1.4384545      1024000 
  425000    0.9590861    -3.896511    -3.896511   -2.4578848  0.033323757    -3.896511    1.4386262      1024000 
  426000   0.95830412   -3.8959472   -3.8959472    -2.458494  0.026913695   -3.8959472    1.4374533      1024000 
  427000   0.95744744    -3.894354    -3.894354   -2.4581857  0.029641775    -3.894354    1.4361682      1024000 
  428000   0.95998036    -3.896305    -3.896305   -2.4563374  0.030313534    -3.896305    1.4399676      1024000 
  429000   0.95976708   -3.8959638   -3.8959638   -2.4563161  0.036292827   -3.8959638    1.4396477      1024000 
  430000   0.95911419   -3.8948799   -3.8948799   -2.4562116  0.036492258   -3.8948799    1.4386684      1024000 
  431000   0.95901426   -3.8943525   -3.8943525    -2.455834  0.035954896   -3.8943525    1.4385185      1024000 
  432000   0.96004485   -3.8955486   -3.8955486   -2.4554842  0.034842599   -3.8955486    1.4400644      1024000 
  433000   0.95889869   -3.8927533   -3.8927533   -2.4544082  0.030143966   -3.8927533    1.4383451      1024000 
  434000   0.95917993   -3.8927708   -3.8927708   -2.4540038  0.027532591   -3.8927708     1.438767      1024000 
  435000   0.95837217   -3.8922912   -3.8922912   -2.4547358  0.022662298   -3.8922912    1.4375553      1024000 
  436000   0.95835829   -3.8923226   -3.8923226   -2.4547881  0.025936128   -3.8923226    1.4375345      1024000 
  437000   0.95771834   -3.8914329   -3.8914329   -2.4548583  0.028691296   -3.8914329    1.4365746      1024000 
  438000   0.95803867   -3.8920714   -3.8920714   -2.4550163  0.028359177   -3.8920714    1.4370551      1024000 
  439000   0.95826107   -3.8917427   -3.8917427    -2.454354  0.025722643   -3.8917427    1.4373887      1024000 
  440000   0.95862762   -3.8919456   -3.8919456   -2.4540071  0.029902345   -3.8919456    1.4379385      1024000 
  441000   0.96023895    -3.893121    -3.893121   -2.4527655  0.028382281    -3.893121    1.4403555      1024000 
  442000   0.95944392   -3.8918944   -3.8918944   -2.4527314  0.026264806   -3.8918944     1.439163      1024000 
  443000    0.9599204   -3.8917197   -3.8917197    -2.451842  0.032426058   -3.8917197    1.4398777      1024000 
  444000   0.96123884   -3.8954397   -3.8954397   -2.4535844  0.032968888   -3.8954397    1.4418553      1024000 
  445000   0.96143487   -3.8943769   -3.8943769   -2.4522275  0.036589539   -3.8943769    1.4421494      1024000 
  446000   0.96158764    -3.894941    -3.894941   -2.4525625  0.022704514    -3.894941    1.4423785      1024000 
  447000   0.96132351   -3.8947314   -3.8947314   -2.4527491  0.027649116   -3.8947314    1.4419823      1024000 
  448000   0.95971493   -3.8924663   -3.8924663   -2.4528968   0.03516988   -3.8924663    1.4395695      1024000 
  449000   0.96066328   -3.8937361   -3.8937361   -2.4527441    0.0247968   -3.8937361     1.440992      1024000 
  450000   0.95976688   -3.8918424   -3.8918424    -2.452195   0.02851084   -3.8918424    1.4396474      1024000 
  451000   0.95893531   -3.8900056   -3.8900056   -2.4516056   0.03921523   -3.8900056       1.4384      1024000 
  452000   0.95996748   -3.8915723   -3.8915723    -2.451624  0.030229207   -3.8915723    1.4399483      1024000 
  453000   0.96020692   -3.8929974   -3.8929974   -2.4526899  0.028845609   -3.8929974    1.4403075      1024000 
  454000   0.95973308    -3.891156    -3.891156   -2.4515593  0.031533778    -3.891156    1.4395967      1024000 
  455000   0.95970433   -3.8906492   -3.8906492   -2.4510956  0.031567961   -3.8906492    1.4395536      1024000 
  456000   0.96014652   -3.8905205   -3.8905205   -2.4503037  0.034747272   -3.8905205    1.4402169      1024000 
  457000   0.96001184     -3.89078     -3.89078   -2.4507652  0.034322709     -3.89078    1.4400148      1024000 
  458000   0.95995088   -3.8910764   -3.8910764    -2.451153  0.029879113   -3.8910764    1.4399234      1024000 
  459000   0.95808425   -3.8887529   -3.8887529   -2.4516295  0.033406918   -3.8887529    1.4371235      1024000 
  460000   0.95894664   -3.8888254   -3.8888254   -2.4504083  0.025035342   -3.8888254     1.438417      1024000 
  461000   0.95950316   -3.8893854   -3.8893854   -2.4501336  0.026443643   -3.8893854    1.4392518      1024000 
  462000   0.95923499   -3.8890804   -3.8890804   -2.4502309  0.025641704   -3.8890804    1.4388496      1024000 
  463000   0.95958313   -3.8890904   -3.8890904   -2.4497186  0.025518131   -3.8890904    1.4393718      1024000 
  464000    0.9607115   -3.8897315   -3.8897315   -2.4486672  0.027504203   -3.8897315    1.4410643      1024000 
  465000   0.96118011   -3.8900135   -3.8900135   -2.4482463  0.029961135   -3.8900135    1.4417672      1024000 
  466000   0.96028375   -3.8884513   -3.8884513   -2.4480286  0.031993745   -3.8884513    1.4404227      1024000 
  467000   0.96032626   -3.8887666   -3.8887666   -2.4482802  0.030178278   -3.8887666    1.4404865      1024000 
  468000   0.96047659   -3.8884796   -3.8884796   -2.4477676  0.035384145   -3.8884796     1.440712      1024000 
  469000    0.9610332   -3.8899023   -3.8899023   -2.4483555  0.032488212   -3.8899023    1.4415469      1024000 
  470000   0.95942439   -3.8867446   -3.8867446   -2.4476109  0.037325405   -3.8867446    1.4391337      1024000 
  471000    0.9617331   -3.8904703   -3.8904703   -2.4478736   0.02926335   -3.8904703    1.4425967      1024000 
  472000   0.96182428   -3.8903889   -3.8903889   -2.4476554  0.034465852   -3.8903889    1.4427335      1024000 
  473000    0.9608996   -3.8894286   -3.8894286   -2.4480821  0.030190123   -3.8894286    1.4413465      1024000 
  474000   0.96174104    -3.890807    -3.890807   -2.4481983  0.032134946    -3.890807    1.4426086      1024000 
  475000   0.96108361   -3.8893473   -3.8893473   -2.4477248  0.031990067   -3.8893473    1.4416225      1024000 
  476000   0.96065497   -3.8883327   -3.8883327   -2.4473532  0.025040573   -3.8883327    1.4409795      1024000 
  477000   0.95938576   -3.8864705   -3.8864705   -2.4473948  0.033099638   -3.8864705    1.4390757      1024000 
  478000   0.96099703   -3.8885899   -3.8885899   -2.4470973  0.027601931   -3.8885899    1.4414926      1024000 
  479000   0.95968872   -3.8874197   -3.8874197   -2.4478896  0.028587419   -3.8874197    1.4395302      1024000 
  480000   0.95843846    -3.885575    -3.885575   -2.4479203  0.029187864    -3.885575    1.4376548      1024000 
  481000   0.96006489   -3.8881282   -3.8881282   -2.4480338  0.024020941   -3.8881282    1.4400944      1024000 
  482000   0.95856576   -3.8863814   -3.8863814   -2.4485357  0.027641519   -3.8863814    1.4378457      1024000 
  483000   0.95807921    -3.885978    -3.885978   -2.4488621  0.028437004    -3.885978    1.4371159      1024000 
  484000   0.96025849   -3.8890036   -3.8890036   -2.4486188  0.024319066   -3.8890036    1.4403848      1024000 
  485000   0.95898843   -3.8878256   -3.8878256   -2.4493459   0.03057164   -3.8878256    1.4384797      1024000 
  486000   0.96163817   -3.8906431   -3.8906431   -2.4481887  0.033270833   -3.8906431    1.4424543      1024000 
  487000   0.95961181   -3.8879631   -3.8879631   -2.4485483  0.036149504   -3.8879631    1.4394148      1024000 
  488000   0.96166929    -3.890211    -3.890211   -2.4477099  0.032967168    -3.890211     1.442501      1024000 
  489000   0.96122963   -3.8889125   -3.8889125    -2.447071  0.030327993   -3.8889125    1.4418415      1024000 
  490000   0.96134286   -3.8896729   -3.8896729   -2.4476616  0.031451851   -3.8896729    1.4420114      1024000 
  491000     0.961956   -3.8906015   -3.8906015   -2.4476704  0.032307813   -3.8906015    1.4429311      1024000 
  492000   0.96124888   -3.8889139   -3.8889139   -2.4470435  0.029861894   -3.8889139    1.4418704      1024000 
  493000   0.96193233   -3.8905487   -3.8905487   -2.4476531  0.033886591   -3.8905487    1.4428956      1024000 
  494000   0.95948582   -3.8872488   -3.8872488   -2.4480229  0.027078833   -3.8872488    1.4392258      1024000 
  495000   0.95943648   -3.8868459   -3.8868459   -2.4476941  0.027507483   -3.8868459    1.4391518      1024000 
  496000   0.96004193   -3.8874409   -3.8874409    -2.447381  0.025900062   -3.8874409      1.44006      1024000 
  497000   0.96046184   -3.8878639   -3.8878639   -2.4471741  0.025920921   -3.8878639    1.4406898      1024000 
  498000   0.96124543   -3.8885638   -3.8885638   -2.4466986  0.027103498   -3.8885638    1.4418652      1024000 
  499000   0.96006921   -3.8858575   -3.8858575   -2.4457566  0.031404324   -3.8858575    1.4401009      1024000 
  500000   0.96167431   -3.8872342   -3.8872342   -2.4447257  0.030383636   -3.8872342    1.4425085      1024000 
  501000   0.96051493   -3.8855931   -3.8855931   -2.4448236   0.03077124   -3.8855931    1.4407695      1024000 
  502000   0.96061898   -3.8866815   -3.8866815   -2.4457559  0.028340839   -3.8866815    1.4409255      1024000 
  503000   0.96183282   -3.8872115   -3.8872115   -2.4444652  0.025130307   -3.8872115    1.4427463      1024000 
  504000   0.96029111   -3.8847137   -3.8847137   -2.4442799  0.026632165   -3.8847137    1.4404337      1024000 
  505000   0.96058078   -3.8841259   -3.8841259   -2.4432576  0.030774942   -3.8841259    1.4408682      1024000 
  506000   0.96083571   -3.8844959   -3.8844959   -2.4432452  0.032364798   -3.8844959    1.4412506      1024000 
  507000   0.96241021   -3.8867801   -3.8867801   -2.4431677  0.025515994   -3.8867801    1.4436124      1024000 
  508000   0.96022212   -3.8836117   -3.8836117   -2.4432814  0.028424782   -3.8836117    1.4403303      1024000 
  509000   0.96110765   -3.8850613   -3.8850613   -2.4434028  0.030553541   -3.8850613    1.4416586      1024000 
  510000   0.96046099   -3.8830725   -3.8830725    -2.442384  0.036670217   -3.8830725    1.4406886      1024000 
  511000   0.96174898   -3.8847475   -3.8847475   -2.4421269  0.030700991   -3.8847475    1.4426205      1024000 
  512000   0.96002588   -3.8824143   -3.8824143   -2.4423784  0.035323932   -3.8824143    1.4400359      1024000 
  513000   0.96090648   -3.8839476   -3.8839476   -2.4425908  0.028372111   -3.8839476    1.4413568      1024000 
  514000   0.96054788   -3.8840926   -3.8840926   -2.4432737  0.031531452   -3.8840926    1.4408189      1024000 
  515000   0.96239036   -3.8864069   -3.8864069   -2.4428243  0.028061654   -3.8864069    1.4435826      1024000 
  516000   0.96035056   -3.8835536   -3.8835536   -2.4430307  0.024403443   -3.8835536    1.4405229      1024000 
  517000   0.96054572   -3.8838032   -3.8838032   -2.4429875  0.029355297   -3.8838032    1.4408157      1024000 
  518000   0.95988977    -3.883459    -3.883459   -2.4436273  0.031748756    -3.883459    1.4398317      1024000 
  519000    0.9612333   -3.8856094   -3.8856094   -2.4437624  0.023949505   -3.8856094     1.441847      1024000 
  520000   0.96222815   -3.8858151   -3.8858151   -2.4424758  0.030226756   -3.8858151    1.4433393      1024000 
  521000   0.96109126   -3.8843457   -3.8843457   -2.4427118  0.029100337   -3.8843457     1.441634      1024000 
  522000   0.96067245   -3.8831614   -3.8831614   -2.4421557  0.025930545   -3.8831614    1.4410057      1024000 
  523000   0.96046946   -3.8835216   -3.8835216   -2.4428203  0.036710327   -3.8835216    1.4407013      1024000 
  524000   0.96187531   -3.8846307   -3.8846307   -2.4418207  0.033751071   -3.8846307      1.44281      1024000 
  525000   0.96180013   -3.8848724   -3.8848724   -2.4421751  0.028667693   -3.8848724    1.4426973      1024000 
  526000   0.96186758   -3.8848068   -3.8848068   -2.4420084  0.032932093   -3.8848068    1.4427984      1024000 
  527000   0.96233523   -3.8846766   -3.8846766   -2.4411767  0.031366081   -3.8846766    1.4434999      1024000 
  528000   0.96034352   -3.8819833   -3.8819833    -2.441471   0.03453318   -3.8819833    1.4405124      1024000 
  529000   0.96176826   -3.8833719   -3.8833719   -2.4407224  0.032262554   -3.8833719    1.4426495      1024000 
  530000   0.96127609   -3.8832406   -3.8832406   -2.4413294  0.030480839   -3.8832406    1.4419112      1024000 
  531000   0.96139466   -3.8832959   -3.8832959   -2.4412068  0.029321353   -3.8832959    1.4420891      1024000 
  532000   0.95906286    -3.879532    -3.879532   -2.4409406  0.030584946    -3.879532    1.4385914      1024000 
  533000   0.95986111   -3.8808293   -3.8808293   -2.4410406  0.025482362   -3.8808293    1.4397887      1024000 
  534000   0.96101197   -3.8825407   -3.8825407   -2.4410257  0.026624967   -3.8825407     1.441515      1024000 
  535000   0.96078121   -3.8821295   -3.8821295   -2.4409606  0.030328392   -3.8821295    1.4411689      1024000 
  536000   0.96070541   -3.8823045   -3.8823045   -2.4412493  0.029967302   -3.8823045    1.4410552      1024000 
  537000   0.96243673   -3.8843196   -3.8843196   -2.4406674  0.026438703   -3.8843196    1.4436522      1024000 
  538000   0.96223173   -3.8829985   -3.8829985   -2.4396538  0.030368928   -3.8829985    1.4433447      1024000 
  539000   0.96175473   -3.8821364   -3.8821364   -2.4395072  0.031964522   -3.8821364    1.4426292      1024000 
  540000   0.96203094   -3.8824777   -3.8824777   -2.4394343  0.035822991   -3.8824777    1.4430435      1024000 
  541000   0.96357283   -3.8850911   -3.8850911   -2.4397348  0.037221511   -3.8850911    1.4453563      1024000 
  542000   0.96212194   -3.8826992   -3.8826992   -2.4395192  0.037005965   -3.8826992      1.44318      1024000 
  543000   0.96204655   -3.8824141   -3.8824141   -2.4393472  0.033638069   -3.8824141    1.4430669      1024000 
  544000   0.96274261   -3.8824744   -3.8824744   -2.4383634  0.032763972   -3.8824744     1.444111      1024000 
  545000   0.96259979    -3.881373    -3.881373   -2.4374763  0.033033313    -3.881373    1.4438968      1024000 
  546000   0.96295848   -3.8816246   -3.8816246   -2.4371898  0.031936542   -3.8816246    1.4444348      1024000 
  547000   0.96180735   -3.8806949   -3.8806949   -2.4379868  0.030562305   -3.8806949    1.4427081      1024000 
  548000   0.96275401   -3.8807299   -3.8807299   -2.4366018  0.031332819   -3.8807299    1.4441281      1024000 
  549000    0.9626818   -3.8801044   -3.8801044   -2.4360847  0.032173261   -3.8801044    1.4440198      1024000 
  550000   0.96362934   -3.8812746   -3.8812746   -2.4358335  0.026597855   -3.8812746    1.4454411      1024000 
  551000   0.96293625   -3.8807948   -3.8807948   -2.4363934  0.031068384   -3.8807948    1.4444014      1024000 
  552000    0.9608685   -3.8783113   -3.8783113   -2.4370115  0.030941245   -3.8783113    1.4412998      1024000 
  553000   0.96069989    -3.879288    -3.879288   -2.4382411   0.02411185    -3.879288    1.4410469      1024000 
  554000   0.96026743   -3.8792924   -3.8792924   -2.4388941  0.029363201   -3.8792924    1.4403982      1024000 
  555000   0.96107255    -3.879839    -3.879839   -2.4382331  0.029264616    -3.879839    1.4416059      1024000 
  556000    0.9614321   -3.8806347   -3.8806347   -2.4384895  0.028745417   -3.8806347    1.4421452      1024000 
  557000   0.96175281   -3.8806363   -3.8806363     -2.43801  0.033656733   -3.8806363    1.4426263      1024000 
  558000    0.9609236   -3.8790604   -3.8790604   -2.4376779   0.03210748   -3.8790604    1.4413825      1024000 
  559000   0.96101489   -3.8792114   -3.8792114    -2.437692  0.035436252   -3.8792114    1.4415194      1024000 
  560000   0.96285952   -3.8811974   -3.8811974    -2.436911  0.032059094   -3.8811974    1.4442863      1024000 
  561000   0.96402671   -3.8815576   -3.8815576   -2.4355204  0.031969358   -3.8815576    1.4460371      1024000 
  562000   0.96340569   -3.8815295   -3.8815295   -2.4364239  0.037182536   -3.8815295    1.4451056      1024000 
  563000   0.96466697   -3.8848473   -3.8848473   -2.4378498  0.034824414   -3.8848473    1.4469975      1024000 
  564000   0.96445465   -3.8844279   -3.8844279   -2.4377489  0.030745253   -3.8844279     1.446679      1024000 
  565000   0.96369462    -3.883522    -3.883522    -2.437983  0.033621548    -3.883522     1.445539      1024000 
  566000   0.96212854   -3.8801051   -3.8801051   -2.4369152  0.030815646   -3.8801051    1.4431899      1024000 
  567000   0.96123059   -3.8803441   -3.8803441   -2.4385011   0.02610789   -3.8803441     1.441843      1024000 
  568000   0.96217266   -3.8809549   -3.8809549   -2.4376988  0.029547893   -3.8809549    1.4432561      1024000 
  569000   0.96265542   -3.8820355   -3.8820355   -2.4380553  0.029640283   -3.8820355    1.4439802      1024000 
  570000   0.96103894   -3.8793499   -3.8793499   -2.4377945  0.030066495   -3.8793499    1.4415555      1024000 
  571000   0.96148069   -3.8797993   -3.8797993   -2.4375811  0.027330951   -3.8797993    1.4422181      1024000 
  572000   0.96023787   -3.8771764   -3.8771764   -2.4368226  0.031141558   -3.8771764    1.4403539      1024000 
  573000   0.96119523   -3.8788443   -3.8788443   -2.4370544  0.028666737   -3.8788443    1.4417899      1024000 
  574000    0.9615175   -3.8782968   -3.8782968   -2.4360235   0.03220538   -3.8782968    1.4422733      1024000 
  575000   0.96210819   -3.8788697   -3.8788697   -2.4357103  0.031834222   -3.8788697    1.4431594      1024000 
  576000   0.96318859   -3.8805023   -3.8805023   -2.4357224  0.032367279   -3.8805023      1.44478      1024000 
  577000   0.96310709   -3.8810667   -3.8810667    -2.436409  0.032619492   -3.8810667    1.4446577      1024000 
  578000   0.96425124   -3.8825803   -3.8825803   -2.4362064  0.030156801   -3.8825803    1.4463739      1024000 
  579000   0.96223449   -3.8792759   -3.8792759   -2.4359271  0.038622693   -3.8792759    1.4433488      1024000 
  580000    0.9646177    -3.882178    -3.882178   -2.4352544  0.039129441    -3.882178    1.4469236      1024000 
  581000   0.96358729   -3.8816888   -3.8816888   -2.4363108  0.034882716   -3.8816888     1.445378      1024000 
  582000    0.9624682   -3.8807076   -3.8807076   -2.4370083  0.034254948   -3.8807076    1.4436994      1024000 
  583000   0.96238871   -3.8805162   -3.8805162    -2.436936  0.033813448   -3.8805162    1.4435801      1024000 
  584000   0.96239252   -3.8808169   -3.8808169   -2.4372311  0.028994508   -3.8808169    1.4435858      1024000 
  585000   0.96197827   -3.8794049   -3.8794049   -2.4364404  0.031470548   -3.8794049    1.4429645      1024000 
  586000   0.96255743    -3.880011    -3.880011   -2.4361778  0.027051698    -3.880011    1.4438332      1024000 
  587000   0.96175001   -3.8793613   -3.8793613   -2.4367392  0.029208683   -3.8793613    1.4426221      1024000 
  588000   0.96084348   -3.8777291   -3.8777291   -2.4364668  0.031153635   -3.8777291    1.4412623      1024000 
  589000   0.96141839    -3.878653    -3.878653   -2.4365283  0.029367334    -3.878653    1.4421247      1024000 
  590000   0.96255923   -3.8790048   -3.8790048   -2.4351689  0.031234523   -3.8790048    1.4438359      1024000 
  591000   0.96289842   -3.8796879   -3.8796879   -2.4353432  0.031666404   -3.8796879    1.4443447      1024000 
  592000   0.96423996   -3.8816476   -3.8816476   -2.4352906  0.034205579   -3.8816476     1.446357      1024000 
  593000   0.96494696   -3.8820513   -3.8820513   -2.4346338  0.031446497   -3.8820513    1.4474175      1024000 
  594000   0.96332367   -3.8793553   -3.8793553   -2.4343727   0.03544765   -3.8793553    1.4449826      1024000 
  595000   0.96376249   -3.8803129   -3.8803129   -2.4346721  0.029357415   -3.8803129    1.4456408      1024000 
  596000   0.96360005   -3.8797025   -3.8797025   -2.4343054  0.032317736   -3.8797025    1.4453971      1024000 
  597000   0.96259576   -3.8776614   -3.8776614   -2.4337706  0.036136666   -3.8776614    1.4438907      1024000 
  598000   0.96437562   -3.8800834   -3.8800834    -2.433523  0.031013315   -3.8800834    1.4465605      1024000 
  599000   0.96311249    -3.877868    -3.877868   -2.4332022  0.030182847    -3.877868    1.4446658      1024000 
  600000   0.96303122   -3.8773007   -3.8773007   -2.4327568  0.034996026   -3.8773007    1.4445439      1024000 
  601000   0.96242248   -3.8759569   -3.8759569   -2.4323261  0.032605245   -3.8759569    1.4436308      1024000 
  602000   0.96111885   -3.8740041   -3.8740041   -2.4323288   0.03184697   -3.8740041    1.4416754      1024000 
  603000   0.96217339   -3.8757658   -3.8757658   -2.4325086  0.024604527   -3.8757658    1.4432572      1024000 
  604000   0.96214497    -3.874855    -3.874855   -2.4316405  0.031421139    -3.874855    1.4432145      1024000 
  605000   0.96251577   -3.8750582   -3.8750582   -2.4312875  0.034519377   -3.8750582    1.4437707      1024000 
  606000    0.9636378   -3.8774558   -3.8774558   -2.4320021  0.021154473   -3.8774558    1.4454538      1024000 
  607000   0.96340288   -3.8764327   -3.8764327   -2.4313313  0.029955811   -3.8764327    1.4451014      1024000 
  608000    0.9636386   -3.8762602   -3.8762602   -2.4308052  0.022503663   -3.8762602     1.445455      1024000 
  609000   0.96418218   -3.8768092   -3.8768092   -2.4305388  0.030953113   -3.8768092    1.4462703      1024000 
  610000   0.96351812   -3.8753342   -3.8753342     -2.43006  0.033789491   -3.8753342    1.4452743      1024000 
  611000   0.96219018   -3.8735566   -3.8735566   -2.4302742  0.035937947   -3.8735566    1.4432823      1024000 
  612000   0.96256224     -3.87389     -3.87389   -2.4300496  0.026733754     -3.87389    1.4438404      1024000 
  613000   0.96314071   -3.8749018   -3.8749018   -2.4301937  0.034291983   -3.8749018    1.4447081      1024000 
  614000   0.96324548   -3.8749664   -3.8749664   -2.4301011  0.026688662   -3.8749664    1.4448653      1024000 
  615000   0.96305406    -3.875448    -3.875448   -2.4308698  0.029486875    -3.875448    1.4445782      1024000 
  616000   0.96282089   -3.8751637   -3.8751637   -2.4309353  0.033602467   -3.8751637    1.4442284      1024000 
  617000   0.96303587   -3.8754611   -3.8754611   -2.4309102   0.03487661   -3.8754611    1.4445509      1024000 
  618000   0.96327774   -3.8758143   -3.8758143   -2.4309006  0.031098355   -3.8758143    1.4449137      1024000 
  619000   0.96351285   -3.8753897   -3.8753897   -2.4301234  0.033801841   -3.8753897    1.4452663      1024000 
  620000   0.96408396   -3.8773168   -3.8773168   -2.4311938  0.027209261   -3.8773168     1.446123      1024000 
  621000   0.96166263   -3.8733762   -3.8733762   -2.4308851  0.033851244   -3.8733762     1.442491      1024000 
  622000   0.96473861   -3.8778742   -3.8778742   -2.4307692  0.025296458   -3.8778742     1.447105      1024000 
  623000   0.96278179   -3.8746938   -3.8746938    -2.430524  0.030219041   -3.8746938    1.4441698      1024000 
  624000   0.96314077   -3.8750524   -3.8750524   -2.4303442  0.031591399   -3.8750524    1.4447082      1024000 
  625000   0.96245761   -3.8738669   -3.8738669   -2.4301834  0.029067752   -3.8738669    1.4436835      1024000 
  626000   0.96309819   -3.8739697   -3.8739697   -2.4293254  0.033909838   -3.8739697    1.4446444      1024000 
  627000   0.96380435   -3.8745515   -3.8745515   -2.4288479  0.031169286   -3.8745515    1.4457036      1024000 
  628000   0.96416783   -3.8752684   -3.8752684   -2.4290196  0.032767617   -3.8752684    1.4462488      1024000 
  629000   0.96384773   -3.8757914   -3.8757914   -2.4300227  0.035683079   -3.8757914    1.4457687      1024000 
  630000   0.96450571   -3.8762417   -3.8762417   -2.4294861  0.031441859   -3.8762417    1.4467556      1024000 
  631000   0.96384947   -3.8746178   -3.8746178   -2.4288465  0.030847214   -3.8746178    1.4457713      1024000 
  632000   0.96244719    -3.872309    -3.872309   -2.4286412  0.034431801    -3.872309    1.4436679      1024000 
  633000   0.96265838   -3.8736956   -3.8736956   -2.4297109  0.036952519   -3.8736956    1.4439846      1024000 
  634000   0.96337365     -3.87389     -3.87389   -2.4288325   0.03373837     -3.87389    1.4450575      1024000 
  635000   0.96349129    -3.873752    -3.873752    -2.428518  0.029307249    -3.873752     1.445234      1024000 
  636000   0.96242261   -3.8707119   -3.8707119   -2.4270809  0.034905906   -3.8707119     1.443631      1024000 
  637000   0.96333583    -3.872969    -3.872969   -2.4279681  0.033931059    -3.872969    1.4450008      1024000 
  638000   0.96399694   -3.8743483   -3.8743483   -2.4283559  0.029220512   -3.8743483    1.4459925      1024000 
  639000    0.9643305   -3.8742414   -3.8742414   -2.4277486  0.033080217   -3.8742414    1.4464928      1024000 
  640000   0.96241616   -3.8711857   -3.8711857   -2.4275644  0.035817595   -3.8711857    1.4436213      1024000 
  641000   0.96435338   -3.8734941   -3.8734941    -2.426967   0.03181298   -3.8734941    1.4465271      1024000 
  642000   0.96391705   -3.8731041   -3.8731041   -2.4272315  0.033867105   -3.8731041    1.4458726      1024000 
  643000   0.96465451   -3.8731596   -3.8731596   -2.4261808  0.030885573   -3.8731596    1.4469788      1024000 
  644000   0.96366896   -3.8717559   -3.8717559   -2.4262554  0.037443054   -3.8717559    1.4455005      1024000 
  645000   0.96207249   -3.8694186   -3.8694186   -2.4263128  0.036877079   -3.8694186    1.4431058      1024000 
  646000   0.96283608   -3.8700411   -3.8700411     -2.42579  0.031396668   -3.8700411    1.4442512      1024000 
  647000   0.96109078   -3.8684426   -3.8684426   -2.4268093  0.035487044   -3.8684426    1.4416332      1024000 
  648000   0.96319067   -3.8706333   -3.8706333   -2.4258502  0.027044707   -3.8706333    1.4447831      1024000 
  649000   0.96184347   -3.8690177   -3.8690177   -2.4262554  0.034218772   -3.8690177    1.4427623      1024000 
  650000   0.96398127   -3.8724065   -3.8724065   -2.4264376  0.029462465   -3.8724065     1.445969      1024000 
  651000   0.96418399   -3.8725631   -3.8725631   -2.4262901  0.033220794   -3.8725631    1.4462731      1024000 
  652000    0.9652689   -3.8742842   -3.8742842   -2.4263838  0.031497416   -3.8742842    1.4479004      1024000 
  653000   0.96597064   -3.8749276   -3.8749276   -2.4259746   0.03207982   -3.8749276     1.448953      1024000 
  654000   0.96622576   -3.8750822   -3.8750822   -2.4257465   0.03114883   -3.8750822    1.4493357      1024000 
  655000   0.96519579   -3.8732881   -3.8732881   -2.4254973  0.035243448   -3.8732881    1.4477908      1024000 
  656000   0.96303041   -3.8704076   -3.8704076   -2.4258649  0.034541498   -3.8704076    1.4445427      1024000 
  657000   0.96367692   -3.8701965   -3.8701965    -2.424684  0.031903383   -3.8701965    1.4455125      1024000 
  658000   0.96318054   -3.8709484   -3.8709484   -2.4261806  0.033547127   -3.8709484    1.4447679      1024000 
  659000   0.96366079   -3.8717705   -3.8717705   -2.4262822  0.029302917   -3.8717705    1.4454883      1024000 
  660000   0.96349758   -3.8729497   -3.8729497   -2.4277063  0.028324836   -3.8729497    1.4452434      1024000 
  661000    0.9636112   -3.8731517   -3.8731517   -2.4277379  0.031206529   -3.8731517    1.4454139      1024000 
  662000   0.96334663   -3.8719679   -3.8719679   -2.4269509  0.027373261   -3.8719679     1.445017      1024000 
  663000    0.9645424   -3.8720933   -3.8720933   -2.4252827  0.030201515   -3.8720933    1.4468107      1024000 
  664000   0.96335704   -3.8708835   -3.8708835   -2.4258509  0.036187287   -3.8708835    1.4450326      1024000 
  665000   0.96380336    -3.871772    -3.871772   -2.4260699   0.02710671    -3.871772    1.4457021      1024000 
  666000   0.96443822   -3.8735665   -3.8735665   -2.4269121  0.030086018   -3.8735665    1.4466544      1024000 
  667000   0.96358835   -3.8718347   -3.8718347   -2.4264551  0.028382143   -3.8718347    1.4453796      1024000 
  668000   0.96350966   -3.8719393   -3.8719393   -2.4266778  0.029260345   -3.8719393    1.4452616      1024000 
  669000   0.96304517   -3.8708622   -3.8708622   -2.4262974  0.036841472   -3.8708622    1.4445648      1024000 
  670000   0.96334276   -3.8705475   -3.8705475   -2.4255363  0.042041061   -3.8705475    1.4450112      1024000 
  671000   0.96377448   -3.8693612   -3.8693612   -2.4237024  0.035200569   -3.8693612    1.4456588      1024000 
  672000   0.96398979   -3.8704823   -3.8704823   -2.4245006  0.031078825   -3.8704823    1.4459817      1024000 
  673000   0.96429909   -3.8701466   -3.8701466   -2.4237009  0.031716834   -3.8701466    1.4464457      1024000 
  674000   0.96283126   -3.8685068   -3.8685068   -2.4242628  0.028521853   -3.8685068     1.444244      1024000 
  675000   0.96337014   -3.8689661   -3.8689661   -2.4239138  0.031675615   -3.8689661    1.4450523      1024000 
  676000    0.9634094   -3.8690214   -3.8690214   -2.4239102  0.031014542   -3.8690214    1.4451112      1024000 
  677000    0.9633819   -3.8684187   -3.8684187   -2.4233488  0.034544317   -3.8684187    1.4450699      1024000 
  678000   0.96379478    -3.868455    -3.868455   -2.4227658  0.029261028    -3.868455    1.4456892      1024000 
  679000   0.96318983   -3.8678034   -3.8678034   -2.4230216   0.03455433   -3.8678034    1.4447818      1024000 
  680000   0.96319579   -3.8672291   -3.8672291   -2.4224384  0.031857646   -3.8672291    1.4447907      1024000 
  681000   0.96395927   -3.8688812   -3.8688812   -2.4229453  0.031157611   -3.8688812     1.445936      1024000 
  682000   0.96421352   -3.8685996   -3.8685996   -2.4222822  0.024969493   -3.8685996    1.4463173      1024000 
  683000   0.96328219   -3.8667008   -3.8667008   -2.4217804  0.033636713   -3.8667008    1.4449204      1024000 
  684000   0.96452507   -3.8676846   -3.8676846   -2.4208999  0.029640468   -3.8676846    1.4467847      1024000 
  685000   0.96420705   -3.8665317   -3.8665317   -2.4202241  0.034521705   -3.8665317    1.4463076      1024000 
  686000   0.96658538    -3.869561    -3.869561   -2.4196859  0.033857151    -3.869561    1.4498751      1024000 
  687000   0.96546257    -3.868354    -3.868354   -2.4201631  0.037075909    -3.868354    1.4481909      1024000 
  688000   0.96679532   -3.8707542   -3.8707542   -2.4205641  0.030771991   -3.8707542      1.45019      1024000 
  689000   0.96578215   -3.8693067   -3.8693067   -2.4206364  0.030094191   -3.8693067    1.4486703      1024000 
  690000   0.96406089   -3.8674089   -3.8674089   -2.4213205  0.036129103   -3.8674089    1.4460884      1024000 
  691000   0.96556111   -3.8686729   -3.8686729   -2.4203341  0.032945321   -3.8686729    1.4483387      1024000 
  692000   0.96585105   -3.8671044   -3.8671044   -2.4183308  0.033591499   -3.8671044    1.4487736      1024000 
  693000   0.96340405   -3.8651211   -3.8651211   -2.4200179  0.035399161   -3.8651211    1.4451031      1024000 
  694000    0.9635127      -3.8658      -3.8658   -2.4205339  0.037935369      -3.8658    1.4452661      1024000 
  695000   0.96432917   -3.8669896   -3.8669896   -2.4204988  0.039817862   -3.8669896    1.4464908      1024000 
  696000   0.96367039    -3.865967    -3.865967   -2.4204644  0.033796243    -3.865967    1.4455026      1024000 
  697000   0.96399167   -3.8675008   -3.8675008   -2.4215162  0.029903539   -3.8675008    1.4459846      1024000 
  698000   0.96477222   -3.8681544   -3.8681544    -2.420999  0.032054537   -3.8681544    1.4471554      1024000 
  699000   0.96479778   -3.8678818   -3.8678818   -2.4206881  0.029543807   -3.8678818    1.4471937      1024000 
  700000   0.96554158   -3.8676715   -3.8676715   -2.4193621  0.035102188   -3.8676715    1.4483094      1024000 
  701000    0.9648281   -3.8672845   -3.8672845   -2.4200453  0.029876534   -3.8672845    1.4472392      1024000 
  702000   0.96460657   -3.8671027   -3.8671027   -2.4201958  0.030083039   -3.8671027    1.4469069      1024000 
  703000   0.96413607   -3.8671172   -3.8671172    -2.420916  0.032766029   -3.8671172    1.4462012      1024000 
  704000   0.96418869   -3.8676391   -3.8676391    -2.421359  0.028845625   -3.8676391    1.4462801      1024000 
  705000   0.96461265   -3.8671208   -3.8671208   -2.4202048  0.034920894   -3.8671208     1.446916      1024000 
  706000   0.96378011   -3.8661279   -3.8661279   -2.4204607   0.03555201   -3.8661279    1.4456672      1024000 
  707000   0.96575061   -3.8693129   -3.8693129     -2.42069  0.032563997   -3.8693129     1.448623      1024000 
  708000   0.96594852   -3.8694901   -3.8694901   -2.4205703  0.032920573   -3.8694901    1.4489198      1024000 
  709000   0.96637361   -3.8689565   -3.8689565   -2.4193991  0.032697115   -3.8689565    1.4495575      1024000 
  710000    0.9651228   -3.8671105   -3.8671105   -2.4194292  0.034467035   -3.8671105    1.4476813      1024000 
  711000   0.96442002   -3.8659827   -3.8659827   -2.4193556  0.030568952   -3.8659827    1.4466271      1024000 
  712000   0.96520368   -3.8669557   -3.8669557   -2.4191532   0.03241159   -3.8669557    1.4478026      1024000 
  713000   0.96531904   -3.8669401   -3.8669401   -2.4189645  0.035634587   -3.8669401    1.4479756      1024000 
  714000   0.96404984   -3.8639077   -3.8639077   -2.4178359  0.026285443   -3.8639077    1.4460718      1024000 
  715000   0.96475973   -3.8647814   -3.8647814   -2.4176447  0.029896053   -3.8647814    1.4471367      1024000 
  716000   0.96615169   -3.8666862   -3.8666862   -2.4174616   0.02844344   -3.8666862    1.4492246      1024000 
  717000   0.96545918   -3.8647945   -3.8647945   -2.4166087  0.032839742   -3.8647945    1.4481858      1024000 
  718000   0.96566334   -3.8648742   -3.8648742   -2.4163821  0.034332344   -3.8648742    1.4484921      1024000 
  719000   0.96504956   -3.8639872   -3.8639872   -2.4164157   0.02920066   -3.8639872    1.4475714      1024000 
  720000   0.96479163   -3.8637295   -3.8637295   -2.4165449  0.026530781   -3.8637295    1.4471845      1024000 
  721000   0.96536313    -3.864118    -3.864118   -2.4160762  0.027079449    -3.864118    1.4480418      1024000 
  722000   0.96414366   -3.8627237   -3.8627237   -2.4165111  0.030455996   -3.8627237    1.4462126      1024000 
  723000   0.96623265   -3.8654784   -3.8654784   -2.4161324  0.032678247   -3.8654784     1.449346      1024000 
  724000   0.96572401   -3.8648429   -3.8648429   -2.4162598  0.027603605   -3.8648429    1.4485831      1024000 
  725000   0.96403261   -3.8621571   -3.8621571   -2.4161111  0.032324884   -3.8621571     1.446046      1024000 
  726000   0.96413603   -3.8614694   -3.8614694   -2.4152683  0.029144025   -3.8614694    1.4462011      1024000 
  727000   0.96584161   -3.8645118   -3.8645118   -2.4157523   0.03261514   -3.8645118    1.4487595      1024000 
  728000   0.96489671   -3.8633597   -3.8633597   -2.4160175  0.033198427   -3.8633597    1.4473421      1024000 
  729000      0.96542   -3.8645976   -3.8645976   -2.4164706  0.038402104   -3.8645976    1.4481271      1024000 
  730000    0.9653702   -3.8643909   -3.8643909   -2.4163386  0.029997125   -3.8643909    1.4480524      1024000 
  731000   0.96716101   -3.8669074   -3.8669074   -2.4161689  0.028485434   -3.8669074    1.4507386      1024000 
  732000    0.9657573   -3.8638372   -3.8638372   -2.4152042  0.038954002   -3.8638372     1.448633      1024000 
  733000   0.96581387    -3.863438    -3.863438   -2.4147201  0.033844406    -3.863438    1.4487179      1024000 
  734000   0.96526902   -3.8627565   -3.8627565   -2.4148559  0.036074373   -3.8627565    1.4479006      1024000 
  735000   0.96619233   -3.8640341   -3.8640341   -2.4147486   0.02621252   -3.8640341    1.4492855      1024000 
  736000   0.96521203   -3.8631514   -3.8631514   -2.4153363  0.029650229   -3.8631514    1.4478151      1024000 
  737000   0.96610981   -3.8643484   -3.8643484   -2.4151866  0.025978223   -3.8643484    1.4491618      1024000 
  738000   0.96599004   -3.8635824   -3.8635824   -2.4146003  0.027085965   -3.8635824    1.4489821      1024000 
  739000   0.96583323   -3.8627918   -3.8627918   -2.4140449  0.026078449   -3.8627918    1.4487469      1024000 
  740000   0.96541964   -3.8618272   -3.8618272   -2.4137007  0.030513735   -3.8618272    1.4481265      1024000 
  741000   0.96677206   -3.8641186   -3.8641186   -2.4139634  0.033759702   -3.8641186    1.4501551      1024000 
  742000   0.96460114   -3.8614961   -3.8614961   -2.4145974  0.035547767   -3.8614961    1.4468988      1024000 
  743000   0.96449133   -3.8618699   -3.8618699   -2.4151358  0.033927765   -3.8618699    1.4467341      1024000 
  744000   0.96669227   -3.8653425   -3.8653425   -2.4153071  0.036962982   -3.8653425    1.4500355      1024000 
  745000   0.96601482   -3.8642057   -3.8642057   -2.4151864  0.031820838   -3.8642057    1.4490193      1024000 
  746000   0.96507539   -3.8626494   -3.8626494   -2.4150392   0.03851463   -3.8626494    1.4476101      1024000 
  747000   0.96597709   -3.8640554   -3.8640554   -2.4150927  0.031554846   -3.8640554    1.4489627      1024000 
  748000   0.96624455   -3.8638525   -3.8638525   -2.4144886  0.035468496   -3.8638525    1.4493639      1024000 
  749000   0.96619347   -3.8642711   -3.8642711   -2.4149838  0.034860817   -3.8642711    1.4492873      1024000 
  750000   0.96650137   -3.8637598   -3.8637598   -2.4140107  0.030636356   -3.8637598    1.4497491      1024000 
  751000   0.96679653   -3.8641294   -3.8641294   -2.4139376  0.032813363   -3.8641294    1.4501918      1024000 
  752000   0.96685051   -3.8645388   -3.8645388    -2.414266   0.03505945   -3.8645388    1.4502728      1024000 
  753000   0.96580326   -3.8630497   -3.8630497   -2.4143477  0.032626878   -3.8630497    1.4487019      1024000 
  754000   0.96412959   -3.8610564   -3.8610564   -2.4148649  0.036623931   -3.8610564    1.4461915      1024000 
  755000   0.96537728   -3.8621602   -3.8621602   -2.4140972  0.029903147   -3.8621602     1.448063      1024000 
  756000   0.96442489   -3.8607936   -3.8607936   -2.4141591  0.029323754   -3.8607936    1.4466344      1024000 
  757000    0.9642138   -3.8614053   -3.8614053   -2.4150875  0.028708821   -3.8614053    1.4463178      1024000 
  758000   0.96407434   -3.8605028   -3.8605028   -2.4143942  0.031328671   -3.8605028    1.4461086      1024000 
  759000    0.9635471   -3.8591185   -3.8591185   -2.4138008  0.025793442   -3.8591185    1.4453177      1024000 
  760000   0.96392201   -3.8595559   -3.8595559   -2.4136758  0.029028966   -3.8595559    1.4458801      1024000 
  761000   0.96507033    -3.860797    -3.860797   -2.4131944  0.035548292    -3.860797    1.4476026      1024000 
  762000   0.96634863   -3.8631605   -3.8631605   -2.4136405  0.030888887   -3.8631605      1.44952      1024000 
  763000   0.96670287   -3.8629263   -3.8629263    -2.412875  0.033999341   -3.8629263    1.4500514      1024000 
  764000   0.96603322    -3.862113    -3.862113   -2.4130661  0.035085256    -3.862113    1.4490469      1024000 
  765000   0.96605018   -3.8617395   -3.8617395   -2.4126672  0.036524966   -3.8617395    1.4490723      1024000 
  766000   0.96544842   -3.8612331   -3.8612331   -2.4130634  0.034062648   -3.8612331    1.4481697      1024000 
  767000   0.96661134   -3.8638944   -3.8638944   -2.4139804  0.030716908   -3.8638944    1.4499141      1024000 
  768000   0.96679503   -3.8630161   -3.8630161   -2.4128265  0.027482132   -3.8630161    1.4501896      1024000 
  769000   0.96559393   -3.8610562   -3.8610562   -2.4126683  0.032201986   -3.8610562     1.448388      1024000 
  770000   0.96518933   -3.8613222   -3.8613222   -2.4135412  0.030448228   -3.8613222    1.4477811      1024000 
  771000   0.96563101   -3.8622137   -3.8622137   -2.4137701  0.029184999   -3.8622137    1.4484436      1024000 
  772000   0.96488914   -3.8607076   -3.8607076   -2.4133769  0.033217655   -3.8607076    1.4473308      1024000 
  773000   0.96615202   -3.8626342   -3.8626342   -2.4134091  0.026535028   -3.8626342    1.4492251      1024000 
  774000   0.96606609   -3.8620437   -3.8620437   -2.4129475  0.027494996   -3.8620437    1.4490962      1024000 
  775000   0.96449249   -3.8610231   -3.8610231   -2.4142873  0.025811856   -3.8610231    1.4467358      1024000 
  776000   0.96428324   -3.8598608   -3.8598608   -2.4134389  0.027333529   -3.8598608    1.4464219      1024000 
  777000   0.96525753   -3.8610999   -3.8610999   -2.4132165  0.034016909   -3.8610999    1.4478834      1024000 
  778000   0.96605776   -3.8620474   -3.8620474   -2.4129637  0.030542405   -3.8620474    1.4490837      1024000 
  779000   0.96718454   -3.8636124   -3.8636124   -2.4128385  0.036380914   -3.8636124    1.4507739      1024000 
  780000    0.9656389   -3.8618069   -3.8618069   -2.4133514  0.036575149   -3.8618069    1.4484554      1024000 
  781000   0.96569362   -3.8618702   -3.8618702   -2.4133327  0.034224729   -3.8618702    1.4485375      1024000 
  782000   0.96569158   -3.8614534   -3.8614534    -2.412919  0.031331706   -3.8614534    1.4485344      1024000 
  783000   0.96577815   -3.8617251   -3.8617251   -2.4130608  0.034937538   -3.8617251    1.4486643      1024000 
  784000   0.96512167   -3.8619559   -3.8619559   -2.4142764  0.033416546   -3.8619559    1.4476796      1024000 
  785000   0.96589678   -3.8624188   -3.8624188   -2.4135766  0.033042713   -3.8624188    1.4488422      1024000 
  786000   0.96637608   -3.8624985   -3.8624985   -2.4129373  0.032271375   -3.8624985    1.4495612      1024000 
  787000   0.96659016   -3.8622926   -3.8622926   -2.4124103  0.032575644   -3.8622926    1.4498823      1024000 
  788000   0.96639528   -3.8616295   -3.8616295   -2.4120395   0.03241409   -3.8616295      1.44959      1024000 
  789000   0.96773265   -3.8631386   -3.8631386   -2.4115426  0.031350436   -3.8631386     1.451596      1024000 
  790000   0.96628737   -3.8615708   -3.8615708   -2.4121427    0.0356935   -3.8615708    1.4494281      1024000 
  791000   0.96585537   -3.8612355   -3.8612355   -2.4124554   0.03248699   -3.8612355    1.4487801      1024000 
  792000   0.96549564   -3.8609735   -3.8609735    -2.412733  0.034373625   -3.8609735    1.4482405      1024000 
  793000   0.96583958   -3.8605848   -3.8605848   -2.4118284  0.028049583   -3.8605848    1.4487564      1024000 
  794000   0.96618768   -3.8595158   -3.8595158   -2.4102372  0.031155944   -3.8595158    1.4492786      1024000 
  795000   0.96751922   -3.8616462   -3.8616462   -2.4103703   0.02906006   -3.8616462    1.4512759      1024000 
  796000   0.96622177   -3.8607866   -3.8607866   -2.4114569  0.034072081   -3.8607866    1.4493297      1024000 
  797000   0.96576393   -3.8598532   -3.8598532   -2.4112103  0.031233759   -3.8598532     1.448643      1024000 
  798000   0.96693299   -3.8611912   -3.8611912   -2.4107947  0.034885921   -3.8611912    1.4503965      1024000 
  799000    0.9663678   -3.8597842   -3.8597842   -2.4102354  0.030494605   -3.8597842    1.4495488      1024000 
  800000   0.96678193   -3.8603343   -3.8603343   -2.4101643  0.033730103   -3.8603343      1.45017      1024000 
  801000   0.96654203   -3.8612842   -3.8612842   -2.4114741  0.028379865   -3.8612842    1.4498101      1024000 
  802000   0.96646222   -3.8611827   -3.8611827   -2.4114923  0.027395732   -3.8611827    1.4496904      1024000 
  803000   0.96616607   -3.8595085   -3.8595085   -2.4102624  0.031834966   -3.8595085    1.4492462      1024000 
  804000   0.96660192   -3.8597091   -3.8597091   -2.4098091  0.025671323   -3.8597091    1.4498999      1024000 
  805000   0.96597397   -3.8591403   -3.8591403   -2.4101823  0.034195815   -3.8591403     1.448958      1024000 
  806000   0.96585793   -3.8588338   -3.8588338   -2.4100499  0.035066195   -3.8588338     1.448784      1024000 
  807000   0.96543333   -3.8577878   -3.8577878   -2.4096407  0.036930862   -3.8577878    1.4481471      1024000 
  808000   0.96635409   -3.8592885   -3.8592885   -2.4097603  0.025675425   -3.8592885    1.4495282      1024000 
  809000   0.96571507   -3.8585366   -3.8585366   -2.4099669  0.033961158   -3.8585366    1.4485697      1024000 
  810000   0.96645243   -3.8583675   -3.8583675   -2.4086918  0.034846378   -3.8583675    1.4496757      1024000 
  811000   0.96656686   -3.8589521   -3.8589521   -2.4091048  0.028869881   -3.8589521    1.4498474      1024000 
  812000   0.96663765   -3.8588741   -3.8588741   -2.4089206  0.026844869   -3.8588741    1.4499535      1024000 
  813000   0.96578277   -3.8577898   -3.8577898   -2.4091186  0.029490094   -3.8577898    1.4486712      1024000 
  814000   0.96582821   -3.8577641   -3.8577641   -2.4090247  0.028896144   -3.8577641    1.4487394      1024000 
  815000   0.96571264   -3.8580782   -3.8580782   -2.4095122  0.033620688   -3.8580782     1.448566      1024000 
  816000   0.96612655   -3.8582374   -3.8582374   -2.4090505  0.033716136   -3.8582374    1.4491869      1024000 
  817000   0.96683997   -3.8593199   -3.8593199   -2.4090629  0.033052604   -3.8593199     1.450257      1024000 
  818000   0.96741336   -3.8595936   -3.8595936   -2.4084765  0.029611807   -3.8595936    1.4511171      1024000 
  819000   0.96761393   -3.8607014   -3.8607014   -2.4092834   0.03499849   -3.8607014    1.4514179      1024000 
  820000   0.96693442   -3.8612557   -3.8612557    -2.410857  0.032337823   -3.8612557    1.4503987      1024000 
  821000   0.96737858   -3.8609616   -3.8609616   -2.4098966  0.033735739   -3.8609616    1.4510649      1024000 
  822000   0.96631625   -3.8599054   -3.8599054    -2.410434  0.029191924   -3.8599054    1.4494714      1024000 
  823000   0.96683595   -3.8601655   -3.8601655   -2.4099145  0.043380933   -3.8601655     1.450251      1024000 
  824000   0.96733209   -3.8607067   -3.8607067   -2.4097115  0.032830449   -3.8607067    1.4509952      1024000 
  825000   0.96723697   -3.8606222   -3.8606222   -2.4097697  0.036559477   -3.8606222    1.4508525      1024000 
  826000   0.96701364     -3.86011     -3.86011   -2.4095925  0.037317162     -3.86011    1.4505175      1024000 
  827000    0.9656214   -3.8577936   -3.8577936   -2.4093645  0.035710324   -3.8577936    1.4484292      1024000 
  828000   0.96721734   -3.8597604   -3.8597604   -2.4089373  0.029745976   -3.8597604    1.4508231      1024000 
  829000    0.9668227   -3.8588636   -3.8588636   -2.4086325  0.029126327   -3.8588636    1.4502311      1024000 
  830000   0.96816475   -3.8605887   -3.8605887   -2.4083445  0.032548061   -3.8605887    1.4522442      1024000 
  831000   0.96841785   -3.8601677   -3.8601677   -2.4075439  0.031773252   -3.8601677    1.4526238      1024000 
  832000   0.96594632   -3.8573633   -3.8573633   -2.4084468  0.032574585   -3.8573633    1.4489165      1024000 
  833000   0.96601286   -3.8567438   -3.8567438   -2.4077275  0.034045461   -3.8567438    1.4490163      1024000 
  834000   0.96750957   -3.8583224   -3.8583224    -2.407061  0.037115292   -3.8583224    1.4512614      1024000 
  835000   0.96734104   -3.8581446   -3.8581446    -2.407136  0.033075504   -3.8581446    1.4510086      1024000 
  836000   0.96860157   -3.8603999   -3.8603999   -2.4075005  0.030105238   -3.8603999    1.4528994      1024000 
  837000    0.9663449   -3.8566193   -3.8566193   -2.4071049  0.033517267   -3.8566193    1.4495144      1024000 
  838000   0.96659251   -3.8565158   -3.8565158     -2.40663  0.033309064   -3.8565158    1.4498858      1024000 
  839000   0.96657829   -3.8566031   -3.8566031   -2.4067386  0.033850984   -3.8566031    1.4498645      1024000 
  840000   0.96734564   -3.8578611   -3.8578611   -2.4068456  0.031322551   -3.8578611    1.4510155      1024000 
  841000    0.9662135   -3.8574888   -3.8574888   -2.4081714  0.029226835   -3.8574888    1.4493173      1024000 
  842000   0.96597632   -3.8578416   -3.8578416   -2.4088801  0.031147158   -3.8578416    1.4489615      1024000 
  843000   0.96607723   -3.8568655   -3.8568655   -2.4077526  0.033566165   -3.8568655    1.4491129      1024000 
  844000   0.96591017    -3.856972    -3.856972   -2.4081097  0.036372634    -3.856972    1.4488623      1024000 
  845000   0.96733534   -3.8591365   -3.8591365   -2.4081364  0.026926586   -3.8591365    1.4510001      1024000 
  846000   0.96589857   -3.8573049   -3.8573049     -2.40846   0.02858002   -3.8573049    1.4488449      1024000 
  847000   0.96730423   -3.8585294   -3.8585294    -2.407576  0.033162482   -3.8585294    1.4509534      1024000 
  848000   0.96752971   -3.8593977   -3.8593977   -2.4081061  0.028926992   -3.8593977    1.4512916      1024000 
  849000   0.96875088   -3.8601891   -3.8601891   -2.4070657  0.033957425   -3.8601891    1.4531234      1024000 
  850000    0.9682237   -3.8598882   -3.8598882   -2.4075556  0.033127231   -3.8598882    1.4523326      1024000 
  851000   0.96780404   -3.8591125   -3.8591125   -2.4074093  0.040472406   -3.8591125    1.4517031      1024000 
  852000   0.96782372   -3.8595651   -3.8595651   -2.4078324  0.035805109   -3.8595651    1.4517326      1024000 
  853000   0.96855161   -3.8604078   -3.8604078   -2.4075834   0.03615135   -3.8604078    1.4528245      1024000 
  854000     0.966735    -3.858147    -3.858147   -2.4080474   0.04059203    -3.858147    1.4500996      1024000 
  855000   0.96718999   -3.8583367   -3.8583367   -2.4075547  0.030848124   -3.8583367     1.450782      1024000 
  856000   0.96621953   -3.8568027   -3.8568027   -2.4074763  0.034055666   -3.8568027    1.4493264      1024000 
  857000   0.96656805     -3.85684     -3.85684   -2.4069909  0.032564436     -3.85684    1.4498491      1024000 
  858000   0.96642837   -3.8563647   -3.8563647   -2.4067251  0.036262449   -3.8563647    1.4496396      1024000 
  859000   0.96621832   -3.8572064   -3.8572064   -2.4078819  0.031775572   -3.8572064    1.4493245      1024000 
  860000   0.96644875   -3.8562689   -3.8562689   -2.4065987  0.035742897   -3.8562689    1.4496702      1024000 
  861000   0.96758395   -3.8577901   -3.8577901   -2.4064172  0.032974302   -3.8577901     1.451373      1024000 
  862000   0.96593164   -3.8544843   -3.8544843   -2.4055898  0.030600767   -3.8544843    1.4488945      1024000 
  863000   0.96686971   -3.8563622   -3.8563622   -2.4060606   0.03149388   -3.8563622    1.4503016      1024000 
  864000    0.9669057   -3.8557731   -3.8557731   -2.4054175  0.035152333   -3.8557731    1.4503556      1024000 
  865000   0.96672987   -3.8550377   -3.8550377   -2.4049459  0.036167263   -3.8550377    1.4500919      1024000 
  866000   0.96689704   -3.8552989   -3.8552989   -2.4049562   0.03717622   -3.8552989    1.4503426      1024000 
  867000   0.96748575   -3.8565131   -3.8565131   -2.4052874  0.032132998   -3.8565131    1.4512257      1024000 
  868000   0.96793751   -3.8560166   -3.8560166   -2.4041133   0.03846356   -3.8560166    1.4519033      1024000 
  869000   0.96860957   -3.8562449   -3.8562449   -2.4033335  0.038034941   -3.8562449    1.4529114      1024000 
  870000   0.96977296   -3.8584252   -3.8584252   -2.4037687   0.03583291   -3.8584252    1.4546565      1024000 
  871000   0.96816448   -3.8561287   -3.8561287   -2.4038849  0.039796437   -3.8561287    1.4522438      1024000 
  872000   0.96817531    -3.856822    -3.856822    -2.404562  0.039149271    -3.856822      1.45226      1024000 
  873000    0.9670155   -3.8552188   -3.8552188   -2.4046985  0.032735926   -3.8552188    1.4505203      1024000 
  874000     0.966636   -3.8542044   -3.8542044   -2.4042533  0.032812153   -3.8542044    1.4499511      1024000 
  875000   0.96600853   -3.8534537   -3.8534537   -2.4044438   0.03863751   -3.8534537    1.4490099      1024000 
  876000   0.96708811   -3.8548816   -3.8548816   -2.4042524  0.028505345   -3.8548816    1.4506292      1024000 
  877000   0.96773814   -3.8551553   -3.8551553    -2.403551  0.031206128   -3.8551553    1.4516043      1024000 
  878000   0.96679831   -3.8527986   -3.8527986    -2.402604  0.033192821   -3.8527986    1.4501945      1024000 
  879000   0.96758694   -3.8527022   -3.8527022   -2.4013248  0.037704138   -3.8527022    1.4513775      1024000 
  880000   0.96824303   -3.8533989   -3.8533989   -2.4010372  0.035112274   -3.8533989    1.4523616      1024000 
  881000   0.96789629   -3.8534302   -3.8534302   -2.4015887  0.041741697   -3.8534302    1.4518415      1024000 
  882000   0.96859369   -3.8533541   -3.8533541   -2.4004665  0.037508247   -3.8533541    1.4528876      1024000 
  883000   0.96855153   -3.8536879   -3.8536879   -2.4008635   0.02780256   -3.8536879    1.4528243      1024000 
  884000   0.96814374   -3.8528318   -3.8528318   -2.4006191   0.03185106   -3.8528318    1.4522127      1024000 
  885000   0.96831346   -3.8530409   -3.8530409   -2.4005737  0.035215637   -3.8530409    1.4524672      1024000 
  886000   0.96695132   -3.8516358   -3.8516358   -2.4012117   0.03744171   -3.8516358     1.450424      1024000 
  887000   0.96696023   -3.8513387   -3.8513387   -2.4009013  0.032926116   -3.8513387    1.4504374      1024000 
  888000   0.96627223    -3.850121    -3.850121   -2.4007156  0.033969865    -3.850121    1.4494054      1024000 
  889000   0.96862175   -3.8516326   -3.8516326    -2.398703  0.030339781   -3.8516326    1.4529297      1024000 
  890000   0.96779192   -3.8515612   -3.8515612   -2.3998763  0.030970107   -3.8515612    1.4516849      1024000 
  891000   0.96677076     -3.85017     -3.85017   -2.4000168  0.031218738     -3.85017    1.4501532      1024000 
  892000   0.96742851   -3.8512675   -3.8512675   -2.4001276  0.032524323   -3.8512675    1.4511398      1024000 
  893000   0.96740309   -3.8519258   -3.8519258   -2.4008241  0.039396716   -3.8519258    1.4511017      1024000 
  894000   0.96851795    -3.852706    -3.852706    -2.399932  0.030112871    -3.852706     1.452774      1024000 
  895000   0.96860111   -3.8524682   -3.8524682   -2.3995695  0.034332045   -3.8524682    1.4528987      1024000 
  896000   0.96920987   -3.8528578   -3.8528578    -2.399046   0.03379998   -3.8528578    1.4538119      1024000 
  897000   0.96958921   -3.8541924   -3.8541924   -2.3998115  0.034573133   -3.8541924    1.4543809      1024000 
  898000   0.96826951   -3.8521282   -3.8521282   -2.3997268  0.037214471   -3.8521282    1.4524013      1024000 
  899000   0.96815427   -3.8516988   -3.8516988   -2.3994704  0.035674666   -3.8516988    1.4522285      1024000 
  900000   0.96805486   -3.8522553   -3.8522553   -2.4001759  0.035771004   -3.8522553    1.4520793      1024000 
  901000   0.96955706   -3.8543063   -3.8543063   -2.3999736  0.032319982   -3.8543063    1.4543326      1024000 
  902000   0.96863936   -3.8533547   -3.8533547   -2.4003986  0.043281302   -3.8533547    1.4529561      1024000 
  903000   0.96807551    -3.852735    -3.852735   -2.4006247  0.033887953    -3.852735    1.4521103      1024000 
  904000   0.96818046   -3.8524367   -3.8524367   -2.4001689  0.035691904   -3.8524367    1.4522677      1024000 
  905000   0.96664471   -3.8502682   -3.8502682   -2.4003041  0.037768107   -3.8502682    1.4499641      1024000 
  906000   0.96698878   -3.8514718   -3.8514718   -2.4009916  0.031015247   -3.8514718    1.4504802      1024000 
  907000   0.96758741   -3.8514595   -3.8514595   -2.4000813  0.029611073   -3.8514595    1.4513782      1024000 
  908000   0.96714284   -3.8503817   -3.8503817   -2.3996704  0.038647545   -3.8503817    1.4507113      1024000 
  909000   0.96742155   -3.8511545   -3.8511545   -2.4000251  0.032349209   -3.8511545    1.4511294      1024000 
  910000   0.96818003   -3.8524931   -3.8524931    -2.400226  0.035157266   -3.8524931    1.4522671      1024000 
  911000   0.96834052   -3.8531071   -3.8531071   -2.4005993  0.035448219   -3.8531071    1.4525078      1024000 
  912000   0.96892098    -3.852719    -3.852719   -2.3993405  0.032649421    -3.852719    1.4533785      1024000 
  913000   0.96753965   -3.8522313   -3.8522313   -2.4009247  0.032763743   -3.8522313    1.4513065      1024000 
  914000   0.96937397   -3.8545202   -3.8545202   -2.4004622  0.034892955   -3.8545202     1.454058      1024000 
  915000   0.96755948   -3.8514706   -3.8514706   -2.4001343  0.040347131   -3.8514706    1.4513363      1024000 
  916000   0.96967637   -3.8532651   -3.8532651   -2.3987535    0.0385396   -3.8532651    1.4545116      1024000 
  917000   0.97067237   -3.8539382   -3.8539382   -2.3979326  0.034677579   -3.8539382    1.4560056      1024000 
  918000   0.96912261   -3.8513665   -3.8513665   -2.3976856  0.034959226   -3.8513665     1.453681      1024000 
  919000   0.96822529   -3.8512354   -3.8512354   -2.3989005  0.033933554   -3.8512354     1.452335      1024000 
  920000   0.96961738   -3.8533324   -3.8533324   -2.3989093  0.030065798   -3.8533324    1.4544231      1024000 
  921000   0.96954896   -3.8528659   -3.8528659   -2.3985454  0.033022713   -3.8528659    1.4543205      1024000 
  922000   0.96897087   -3.8518552   -3.8518552   -2.3984019  0.027546707   -3.8518552    1.4534534      1024000 
  923000   0.96818563   -3.8511337   -3.8511337   -2.3988582  0.036582672   -3.8511337    1.4522755      1024000 
  924000   0.96719407   -3.8506405   -3.8506405   -2.3998523  0.030215347   -3.8506405    1.4507882      1024000 
  925000   0.96730379   -3.8507271   -3.8507271   -2.3997743  0.028989652   -3.8507271    1.4509527      1024000 
  926000      0.96708   -3.8502257   -3.8502257   -2.3996087  0.034248367   -3.8502257    1.4506171      1024000 
  927000   0.96733681   -3.8508001   -3.8508001   -2.3997978  0.033625285   -3.8508001    1.4510023      1024000 
  928000   0.96649583   -3.8501517   -3.8501517   -2.4004109  0.037638815   -3.8501517    1.4497408      1024000 
  929000   0.96899387   -3.8531457   -3.8531457   -2.3996578  0.033628347   -3.8531457    1.4534878      1024000 
  930000   0.96869425   -3.8523235   -3.8523235   -2.3992851  0.033579073   -3.8523235    1.4530384      1024000 
  931000   0.96867419   -3.8530201   -3.8530201   -2.4000118  0.033158758   -3.8530201    1.4530083      1024000 
  932000   0.96915325    -3.853047    -3.853047   -2.3993201  0.031542636    -3.853047    1.4537269      1024000 
  933000   0.96808349   -3.8518896   -3.8518896   -2.3997673   0.03067049   -3.8518896    1.4521223      1024000 
  934000   0.96653541   -3.8502361   -3.8502361   -2.4004359  0.038079523   -3.8502361    1.4498002      1024000 
  935000   0.96714714   -3.8508929   -3.8508929   -2.4001751   0.03471129   -3.8508929    1.4507178      1024000 
  936000   0.96942173   -3.8537566   -3.8537566   -2.3996269  0.028526225   -3.8537566    1.4541296      1024000 
  937000   0.96792229   -3.8516158   -3.8516158   -2.3997353  0.029434982   -3.8516158    1.4518805      1024000 
  938000   0.96568897   -3.8480741   -3.8480741   -2.3995436  0.033460278   -3.8480741    1.4485305      1024000 
  939000   0.96807445   -3.8511821   -3.8511821   -2.3990734  0.033305404   -3.8511821    1.4521087      1024000 
  940000   0.96977466   -3.8530436   -3.8530436   -2.3983845  0.033662047   -3.8530436     1.454659      1024000 
  941000   0.96970492   -3.8536171   -3.8536171   -2.3990627  0.035311924   -3.8536171    1.4545544      1024000 
  942000   0.96880849   -3.8514826   -3.8514826   -2.3982728  0.034326907   -3.8514826    1.4532098      1024000 
  943000   0.96803988   -3.8506641   -3.8506641   -2.3986072  0.034741071   -3.8506641    1.4520569      1024000 
  944000   0.96778998   -3.8501276   -3.8501276   -2.3984456  0.035374319   -3.8501276     1.451682      1024000 
  945000   0.96860445   -3.8513601   -3.8513601   -2.3984563  0.029240246   -3.8513601    1.4529037      1024000 
  946000   0.96782533   -3.8507646   -3.8507646   -2.3990295  0.035277868   -3.8507646    1.4517351      1024000 
  947000   0.96813221   -3.8508169   -3.8508169   -2.3986215  0.034270175   -3.8508169    1.4521954      1024000 
  948000   0.96914655   -3.8511679   -3.8511679    -2.397451  0.033071052   -3.8511679    1.4537169      1024000 
  949000   0.96877908   -3.8499541   -3.8499541   -2.3967884  0.028670008   -3.8499541    1.4531657      1024000 
  950000   0.96798813   -3.8479342   -3.8479342    -2.395955  0.031770888   -3.8479342    1.4519792      1024000 
  951000   0.96847372   -3.8487298   -3.8487298   -2.3960221  0.028280751   -3.8487298    1.4527076      1024000 
  952000   0.96903187   -3.8494236   -3.8494236   -2.3958787  0.035080296   -3.8494236    1.4535449      1024000 
  953000    0.9701384   -3.8503161   -3.8503161   -2.3951115  0.034912004   -3.8503161    1.4552046      1024000 
  954000   0.96878192   -3.8475509   -3.8475509    -2.394381  0.032397151   -3.8475509    1.4531699      1024000 
  955000   0.96960741   -3.8482423   -3.8482423   -2.3938342  0.029690319   -3.8482423    1.4544082      1024000 
  956000   0.97057216   -3.8495172   -3.8495172   -2.3936619  0.034370775   -3.8495172    1.4558553      1024000 
  957000   0.96949511   -3.8496214   -3.8496214   -2.3953817  0.031525761   -3.8496214    1.4542397      1024000 
  958000   0.97009819   -3.8506791   -3.8506791   -2.3955348  0.029522591   -3.8506791    1.4551443      1024000 
  959000   0.96887799   -3.8491564   -3.8491564   -2.3958424   0.03568305   -3.8491564     1.453314      1024000 
  960000   0.96842256   -3.8478946   -3.8478946   -2.3952637  0.032029859   -3.8478946    1.4526309      1024000 
  961000   0.96926663   -3.8493606   -3.8493606   -2.3954636  0.026256416   -3.8493606     1.453897      1024000 
  962000   0.97007282   -3.8502949   -3.8502949   -2.3951886   0.03120588   -3.8502949    1.4551063      1024000 
  963000   0.96933656   -3.8493755   -3.8493755   -2.3953736  0.040905146   -3.8493755    1.4540019      1024000 
  964000   0.97134411   -3.8520647   -3.8520647   -2.3950515  0.033790768   -3.8520647    1.4570132      1024000 
  965000    0.9711305    -3.852254    -3.852254   -2.3955612  0.034131673    -3.852254    1.4566928      1024000 
  966000   0.96985764   -3.8497987   -3.8497987   -2.3950152  0.033770528   -3.8497987    1.4547835      1024000 
  967000   0.97061585   -3.8507998   -3.8507998    -2.394879  0.029340003   -3.8507998    1.4559208      1024000 
  968000   0.96835019   -3.8472322   -3.8472322   -2.3947099  0.035600798   -3.8472322    1.4525223      1024000 
  969000   0.96849839   -3.8477542   -3.8477542   -2.3950096  0.038692932   -3.8477542    1.4527446      1024000 
  970000   0.96958518   -3.8491203   -3.8491203   -2.3947454  0.038512891   -3.8491203    1.4543748      1024000 
  971000   0.96751783   -3.8467228   -3.8467228    -2.395449  0.040522615   -3.8467228    1.4512738      1024000 
  972000   0.96850862   -3.8481682   -3.8481682   -2.3954082  0.034278702   -3.8481682      1.45276      1024000 
  973000   0.96794873   -3.8470902   -3.8470902     -2.39517  0.028344798   -3.8470902    1.4519202      1024000 
  974000   0.96849738   -3.8466511   -3.8466511    -2.393908   0.03063217   -3.8466511    1.4527431      1024000 
  975000   0.96991304   -3.8489062   -3.8489062   -2.3940396  0.033343146   -3.8489062    1.4548666      1024000 
  976000   0.96922405    -3.847739    -3.847739   -2.3939059  0.034070827    -3.847739    1.4538331      1024000 
  977000   0.97002389   -3.8486513   -3.8486513   -2.3936184  0.031033221   -3.8486513    1.4550329      1024000 
  978000   0.96870722    -3.847141    -3.847141   -2.3940831  0.032307587    -3.847141    1.4530579      1024000 
  979000   0.96996377   -3.8484915   -3.8484915   -2.3935488  0.033542086   -3.8484915    1.4549427      1024000 
  980000   0.97109359   -3.8504427   -3.8504427   -2.3938053  0.040354142   -3.8504427    1.4566374      1024000 
  981000   0.97147342   -3.8515301   -3.8515301   -2.3943229  0.039934457   -3.8515301    1.4572072      1024000 
  982000   0.97166802   -3.8514672   -3.8514672   -2.3939682    0.0395107   -3.8514672    1.4574991      1024000 
  983000   0.96958787    -3.848624    -3.848624   -2.3942452  0.041145593    -3.848624    1.4543789      1024000 
  984000   0.96974744   -3.8478034   -3.8478034   -2.3931852  0.036301052   -3.8478034    1.4546182      1024000 
  985000   0.96934227    -3.847339    -3.847339   -2.3933286  0.039601434    -3.847339    1.4540105      1024000 
  986000   0.96895297   -3.8467404   -3.8467404   -2.3933139  0.035417852   -3.8467404    1.4534265      1024000 
  987000   0.96902921   -3.8465667   -3.8465667   -2.3930259  0.036328757   -3.8465667    1.4535409      1024000 
  988000   0.96898166   -3.8462597   -3.8462597   -2.3927902  0.034477964   -3.8462597    1.4534695      1024000 
  989000    0.9692831   -3.8465804   -3.8465804   -2.3926586  0.033540952   -3.8465804    1.4539217      1024000 
  990000   0.96860179   -3.8456771   -3.8456771   -2.3927773  0.031865909   -3.8456771    1.4528997      1024000 
  991000    0.9698789   -3.8479667   -3.8479667   -2.3931513  0.029325869   -3.8479667    1.4548154      1024000 
  992000   0.96845215   -3.8456868   -3.8456868   -2.3930115  0.033286727   -3.8456868    1.4526753      1024000 
  993000   0.96846235   -3.8455823   -3.8455823   -2.3928917  0.031132855   -3.8455823    1.4526906      1024000 
  994000   0.96917263   -3.8470225   -3.8470225   -2.3932665  0.024362996   -3.8470225     1.453756      1024000 
  995000   0.96793643   -3.8441906   -3.8441906   -2.3922889  0.035710546   -3.8441906    1.4519017      1024000 
  996000   0.96837471   -3.8458515   -3.8458515   -2.3932924   0.02701808   -3.8458515    1.4525591      1024000 
  997000    0.9687458    -3.846509    -3.846509   -2.3933932  0.028539533    -3.846509    1.4531157      1024000 
  998000   0.96879619   -3.8462982   -3.8462982   -2.3931069  0.031250932   -3.8462982    1.4531913      1024000 
  999000   0.97069168   -3.8490304   -3.8490304   -2.3929959  0.031952364   -3.8490304    1.4560346      1024000 
 1000000   0.97119934   -3.8483258   -3.8483258   -2.3915297  0.034684803   -3.8483258    1.4567961      1024000 
Loop time of 9514.63 on 96 procs for 1000000 steps with 492800 atoms

Performance: 22701.885 tau/day, 105.101 timesteps/s
99.5% CPU use with 96 MPI tasks x 1 OpenMP threads

MPI task timing breakdown:
Section |  min time  |  avg time  |  max time  |%varavg|  %CPU | %total
-----------------------------------------------------------------------
Pair    | 488.93     | 4552.7     | 7560.6     |1562.1 |  99.5 | 47.85
Bond    | 0.68907    | 0.74631    | 0.81388    |   2.1 | 100.0 |  0.01
Neigh   | 95.469     | 643.68     | 1043.7     | 546.3 |  99.6 |  6.77
Comm    | 700.26     | 3394.4     | 8730.4     |2225.6 |  99.5 | 35.68
Output  | 39.787     | 39.976     | 39.982     |   0.3 |  98.9 |  0.42
Modify  | 26.33      | 114.63     | 330.27     | 687.2 |  99.6 |  1.20
Other   |            | 768.5      |            |       |       |  8.08

Nlocal:        5133.33 ave        7988 max         754 min
Histogram: 3 1 0 1 4 19 57 1 5 5
Nghost:        6593.33 ave        8882 max        1660 min
Histogram: 1 2 1 2 4 23 6 18 35 4
Neighs:        256636.0 ave      412944 max        4768 min
Histogram: 4 0 0 3 1 22 55 3 4 4

Total # of neighbors = 24637067
Ave neighs/atom = 49.994048
Ave special neighs/atom = 0.0000000
Neighbor list builds = 66337
Dangerous builds = 1070
Total wall time: 2:38:36
