LAMMPS (24 Dec 2020)
OMP_NUM_THREADS environment is not set. Defaulting to 1 thread. (src/comm.cpp:94)
  using 1 OpenMP thread(s) per MPI task
# Simple rigid body system
# needed variables: startTemp, temp

units		lj
atom_style	full
dimension 	3
boundary	p p f
pair_style	lj/cut/opt 2.5

variable 	gcmcdisplace	equal 0
variable 	sigma		equal 1.0
variable 	epsilon 	equal 1.0


read_restart	restart.dat.3000000
Reading restart file ...
  restart file = 24 Dec 2020, LAMMPS = 24 Dec 2020
WARNING: Restart file used different # of processors: 144 vs. 192 (src/read_restart.cpp:697)
  restoring atom style full from restart
  orthogonal box = (0.0000000 0.0000000 0.0000000) to (100.00000 100.00000 200.00000)
  4 by 4 by 12 MPI processor grid
  restoring pair style lj/cut/opt from restart
  878832 atoms
Finding 1-2 1-3 1-4 neighbors ...
  special bond factors lj:    0        0        0       
  special bond factors coul:  0        0        0       
     0 = max # of 1-2 neighbors
     0 = max # of 1-3 neighbors
     0 = max # of 1-4 neighbors
     1 = max # of special neighbors
  special bonds CPU = 1.402 seconds
  read_restart CPU = 1.871 seconds

mass		1 1.0
mass		2 1.0
mass		3 1.0


group		solvent type 1
878832 atoms in group solvent


neighbor 	0.4 bin

pair_coeff	1 1 1.0 1.0
pair_coeff	2 2 0.0 0.0
pair_coeff	3 3 0.0 0.0
pair_coeff	2 3 0.0 0.0
pair_coeff	1 2*3 0.0 0.0

pair_modify 	shift yes


balance 	1.05 shift z 10 1.05
Balancing ...
Neighbor list info ...
  update every 1 steps, delay 10 steps, check yes
  max neighbors/atom: 2000, page size: 100000
  master list distance cutoff = 2.9
  ghost atom cutoff = 2.9
  binsize = 1.45, bins = 69 69 138
  1 neighbor lists, perpetual/occasional/extra = 1 0 0
  (1) pair lj/cut/opt, perpetual
      attributes: half, newton on
      pair build: half/bin/newton
      stencil: half/bin/3d/newton
      bin: standard
 rebalancing time: 0.008 seconds
  iteration count = 4
  initial/final maximal load/proc = 6332.0000 5548.0000
  initial/final imbalance factor  = 1.3833634 1.2120815
  x cuts: 0.0000000 0.25000000 0.50000000 0.75000000 1.0000000
  y cuts: 0.0000000 0.25000000 0.50000000 0.75000000 1.0000000
  z cuts: 0.0000000 0.067708333 0.13020833 0.19270833 0.25520833 0.32291667 0.38541667 0.44791667 0.51041667 0.57812500 0.63020833 0.68229167 1.0000000


####################### WALLS ###########################


variable       epsilonWall equal 2*${epsilon}
variable       epsilonWall equal 2*1

variable       cutoffTop   equal   0.7147*${sigma}
variable       cutoffTop   equal   0.7147*1

variable       cutoffLow   equal   3*${sigma}
variable       cutoffLow   equal   3*1


fix            topWall all wall/lj93 zhi EDGE                ${epsilonWall} ${sigma} ${cutoffTop} units box
fix            topWall all wall/lj93 zhi EDGE                2 ${sigma} ${cutoffTop} units box
fix            topWall all wall/lj93 zhi EDGE                2 1 ${cutoffTop} units box
fix            topWall all wall/lj93 zhi EDGE                2 1 0.7147 units box

fix            lowWall all wall/lj93 zlo EDGE                ${epsilonWall} ${sigma} ${cutoffLow} units box
fix            lowWall all wall/lj93 zlo EDGE                2 ${sigma} ${cutoffLow} units box
fix            lowWall all wall/lj93 zlo EDGE                2 1 ${cutoffLow} units box
fix            lowWall all wall/lj93 zlo EDGE                2 1 3 units box


###################### COMPUTES ##########################

compute        bin1 solvent chunk/atom bin/1d z upper 1.0



######################	FIXES ############################


fix 		peclet solvent ave/chunk 1000 1 1000 bin1 density/number norm 		 none ave one file density.profile

fix 		 temp solvent ave/chunk 1000 1 1000 bin1 temp norm none ave one file temp.profile

fix 		2 solvent nve

## Thermostat


region		regthermo block EDGE EDGE EDGE EDGE 0 20

group 		thermo dynamic solvent region regthermo every 1000
dynamic group thermo defined

fix 		3 thermo langevin ${startTemp} ${temp} 10 156453
fix 		3 thermo langevin 1.0 ${temp} 10 156453
fix 		3 thermo langevin 1.0 1.0 10 156453


## Evaporation

region		regevap block EDGE EDGE EDGE EDGE 180 198
fix 		gcmc solvent gcmc 100 100 0 1 780493 ${temp} ${mu} ${gcmcdisplace} region regevap
fix 		gcmc solvent gcmc 100 100 0 1 780493 1.0 ${mu} ${gcmcdisplace} region regevap
fix 		gcmc solvent gcmc 100 100 0 1 780493 1.0 0 ${gcmcdisplace} region regevap
fix 		gcmc solvent gcmc 100 100 0 1 780493 1.0 0 0 region regevap


#### Load balancing

fix 		bal all balance 1000 1.05 shift z 10 1.05

############### Diagnostics and computes ###################
#compute 	com cube	  rigid/local	1 mol x y z
#compute 	quat cube	  rigid/local	1 mol quatw quati quatj quatk

thermo 		1000
thermo_style 	custom step temp epair etotal press pe ke atoms

dump		1 all custom 100000 dump.lammpstrj id mol type x y z
dump 		2 all image 10000 image.*.png type type
dump 		3 all movie 1000 movie.avi type type
#dump 		com cube local 1000 dump.*.xyz c_com[*]
#dump		quat cube      local 1000 dump.*.quat c_quat[*]


restart 	1000000 restart.dat
timestep 	0.005
timer 		full
New timer settings: style=full  mode=nosync  timeout=off


run		5000000
Per MPI rank memory allocation (min/avg/max) = 12.26 | 12.63 | 13.06 Mbytes
Step Temp E_pair TotEng Press PotEng KinEng Atoms 
 3000000   0.98378862   -3.3591705   -1.8834892  0.056035388   -3.3591705    1.4756812   878832 
 3001000   0.98578395   -3.3596027   -1.8815524  0.056602444   -3.3596027    1.4780503   879203 
 3002000   0.98624338   -3.3584764   -1.8803543  0.057853896   -3.3584764    1.4781221   879570 
 3003000   0.98614081   -3.3567497   -1.8793944  0.056863994   -3.3567497    1.4773553   879935 
 3004000    0.9871557   -3.3560394   -1.8778088  0.055448752   -3.3560394    1.4782307   880319 
 3005000   0.98762035   -3.3553699    -1.877053  0.055851068   -3.3553699    1.4783169   880682 
 3006000   0.98739038   -3.3535618   -1.8761628  0.052219361   -3.3535618    1.4773989   881024 
 3007000   0.98806022   -3.3533002   -1.8754627  0.055769506   -3.3533002    1.4778376   881360 
 3008000   0.98838932   -3.3521264   -1.8743901  0.055362765   -3.3521264    1.4777363   881714 
 3009000   0.98977729   -3.3524207   -1.8731931  0.053548851   -3.3524207    1.4792276   882062 
 3010000   0.99068556   -3.3511754   -1.8712246  0.058998675   -3.3511754    1.4799508   882440 
 3011000   0.99082181   -3.3485865   -1.8690609  0.058179692   -3.3485865    1.4795256   882815 
 3012000     0.991307    -3.347974   -1.8682837  0.059668544    -3.347974    1.4796903   883149 
 3013000   0.99129613   -3.3468063   -1.8677351  0.059243964   -3.3468063    1.4790711   883509 
 3014000   0.99323856    -3.346975   -1.8655925   0.05812613    -3.346975    1.4813825   883859 
 3015000   0.99289254   -3.3445757   -1.8643273  0.056496111   -3.3445757    1.4802484   884228 
 3016000   0.99479968   -3.3452095   -1.8626812  0.060351706   -3.3452095    1.4825283   884564 
 3017000    0.9953914   -3.3447097   -1.8619164  0.059381694   -3.3447097    1.4827933   884932 
 3018000   0.99513615   -3.3426342   -1.8608022  0.062424882   -3.3426342     1.481832   885279 
 3019000   0.99685433   -3.3436009    -1.859839  0.058009986   -3.3436009     1.483762   885654 
 3020000   0.99648531   -3.3416357   -1.8590139  0.060154746   -3.3416357    1.4826218   886007 
 3021000   0.99736214   -3.3415892   -1.8582337  0.060963887   -3.3415892    1.4833555   886348 
 3022000   0.99891391   -3.3417829   -1.8567227   0.05778376   -3.3417829    1.4850602   886708 
 3023000   0.99905157    -3.340549   -1.8558517  0.060465816    -3.340549    1.4846972   887047 
 3024000   0.99760402   -3.3382204   -1.8562625  0.061432069   -3.3382204    1.4819579   887399 
 3025000    0.9991107   -3.3390477   -1.8554234  0.059827818   -3.3390477    1.4836244   887741 
 3026000    1.0001235   -3.3387097   -1.8541316  0.064236744   -3.3387097    1.4845781   888070 
 3027000    1.0003671   -3.3375509   -1.8531928  0.059253778   -3.3375509    1.4843581   888418 
 3028000    1.0015274   -3.3380264   -1.8525301  0.063710287   -3.3380264    1.4854962   888767 
 3029000    1.0027236   -3.3387306    -1.852034  0.062248023   -3.3387306    1.4866966   889110 
 3030000    1.0025217   -3.3374486   -1.8516027  0.064973248   -3.3374486    1.4858459   889440 
 3031000    1.0029399   -3.3368581   -1.8509722   0.06178887   -3.3368581    1.4858859   889787 
 3032000    1.0029605   -3.3353116   -1.8499727  0.065806774   -3.3353116     1.485339   890133 
 3033000    1.0036976   -3.3360997    -1.850235  0.065377588   -3.3360997    1.4858647   890472 
 3034000    1.0047564    -3.335537   -1.8486977  0.064750457    -3.335537    1.4868393   890827 
 3035000    1.0070223   -3.3371505   -1.8475502  0.069837152   -3.3371505    1.4896004   891181 
 3036000    1.0074273   -3.3351127   -1.8455048   0.06714905   -3.3351127    1.4896079   891535 
 3037000    1.0086463   -3.3353135   -1.8444351  0.069708055   -3.3353135    1.4908784   891853 
 3038000     1.009514   -3.3359512   -1.8443739  0.069112972   -3.3359512    1.4915773   892202 
 3039000    1.0092122   -3.3343102   -1.8437318  0.070269622   -3.3343102    1.4905784   892533 
 3040000    1.0106482   -3.3345251   -1.8423942  0.066486965   -3.3345251     1.492131   892873 
 3041000    1.0107407   -3.3333511   -1.8416801  0.072418288   -3.3333511     1.491671   893230 
 3042000    1.0119765   -3.3334546   -1.8405529  0.072363622   -3.3334546    1.4929017   893585 
 3043000    1.0129458   -3.3337425   -1.8399844  0.069404492   -3.3337425    1.4937581   893928 
 3044000    1.0132098   -3.3325701   -1.8389707  0.072994677   -3.3325701    1.4935995   894256 
 3045000    1.0122842   -3.3308769   -1.8391907  0.070182767   -3.3308769    1.4916862   894585 
 3046000    1.0133349   -3.3304586    -1.837758  0.072616789   -3.3304586    1.4927006   894905 
 3047000    1.0138742   -3.3302464   -1.8373269  0.071670183   -3.3302464    1.4929195   895250 
 3048000    1.0150597   -3.3309703   -1.8369043   0.07236658   -3.3309703     1.494066   895609 
 3049000    1.0150627   -3.3298386   -1.8363619  0.073053768   -3.3298386    1.4934767   895965 
 3050000    1.0152311   -3.3290331   -1.8358852   0.06933574   -3.3290331    1.4931479   896311 
 3051000    1.0162362   -3.3281955   -1.8341245  0.068342939   -3.3281955     1.494071   896644 
 3052000    1.0166142   -3.3274455   -1.8333536  0.075769937   -3.3274455    1.4940919   896965 
 3053000    1.0183475   -3.3284707   -1.8323369  0.072164124   -3.3284707    1.4961338   897268 
 3054000    1.0173086   -3.3259835   -1.8319188  0.073481983   -3.3259835    1.4940646   897594 
 3055000    1.0172807   -3.3245761   -1.8310948  0.069314718   -3.3245761    1.4934813   897920 
 3056000    1.0184555    -3.323871   -1.8292194  0.070243562    -3.323871    1.4946517   898253 
 3057000     1.019067    -3.323753   -1.8287797  0.071205415    -3.323753    1.4949733   898599 
 3058000    1.0185266   -3.3218989   -1.8282552  0.071732331   -3.3218989    1.4936437   898922 
 3059000    1.0185692   -3.3213296   -1.8281601  0.071004728   -3.3213296    1.4931696   899245 
 3060000    1.0197007   -3.3214496   -1.8271713   0.07341876   -3.3214496    1.4942783   899576 
 3061000    1.0200268   -3.3202749   -1.8260602  0.070826059   -3.3202749    1.4942147   899902 
 3062000    1.0199318   -3.3196389   -1.8261226  0.071083478   -3.3196389    1.4935162   900239 
 3063000    1.0201574   -3.3190689   -1.8257449  0.067405524   -3.3190689     1.493324   900554 
 3064000    1.0203087   -3.3179886   -1.8249753  0.066968687   -3.3179886    1.4930133   900875 
 3065000    1.0201178   -3.3165192   -1.8242938  0.070443894   -3.3165192    1.4922254   901182 
 3066000    1.0208312   -3.3146003   -1.8218414   0.07144282   -3.3146003    1.4927589   901490 
 3067000    1.0225078   -3.3156125   -1.8209343  0.069970873   -3.3156125    1.4946782   901811 
 3068000    1.0238361   -3.3150807   -1.8189683  0.071767159   -3.3150807    1.4961124   902117 
 3069000    1.0247388   -3.3152023   -1.8182935   0.06771391   -3.3152023    1.4969087   902432 
 3070000    1.0246039   -3.3140599   -1.8178158   0.07211269   -3.3140599    1.4962441   902714 
 3071000    1.0260202   -3.3136844   -1.8158782  0.071203975   -3.3136844    1.4978062   903019 
 3072000    1.0251454   -3.3120216   -1.8160341  0.074676734   -3.3120216    1.4959875   903346 
 3073000    1.0268364   -3.3134379   -1.8154934  0.076617566   -3.3134379    1.4979445   903654 
 3074000    1.0274663   -3.3128426   -1.8144865  0.074713799   -3.3128426     1.498356   903960 
 3075000    1.0290986   -3.3141674   -1.8139721   0.07554336   -3.3141674    1.5001954   904286 
 3076000    1.0279368   -3.3111997   -1.8132479  0.077880757   -3.3111997    1.4979518   904618 
 3077000     1.029316   -3.3118779   -1.8124683  0.072554726   -3.3118779    1.4994097   904951 
 3078000     1.029501   -3.3100202   -1.8108811  0.080454426   -3.3100202    1.4991391   905277 
 3079000    1.0303745   -3.3103379   -1.8104554  0.079168056   -3.3103379    1.4998824   905596 
 3080000     1.031125   -3.3101852   -1.8098116    0.0814888   -3.3101852    1.5003736   905959 
 3081000     1.031563   -3.3099691     -1.80947  0.074422572   -3.3099691    1.5004991   906268 
 3082000     1.032065   -3.3099011   -1.8092067  0.076084363   -3.3099011    1.5006944   906591 
 3083000    1.0337557    -3.309975   -1.8073609  0.074297238    -3.309975    1.5026141   906916 
 3084000    1.0333481   -3.3092699   -1.8077516  0.079913702   -3.3092699    1.5015184   907220 
 3085000    1.0338155    -3.309188   -1.8075416  0.080141959    -3.309188    1.5016464   907553 
 3086000    1.0341091   -3.3090247   -1.8074763  0.077811136   -3.3090247    1.5015484   907870 
 3087000    1.0340514   -3.3076433   -1.8066698  0.080890754   -3.3076433    1.5009736   908167 
 3088000     1.034467   -3.3062062   -1.8051335  0.074005927   -3.3062062    1.5010727   908472 
 3089000    1.0352165   -3.3068847   -1.8052517  0.080110742   -3.3068847    1.5016329   908791 
 3090000    1.0359951   -3.3051482   -1.8029527  0.075802019   -3.3051482    1.5021955   909134 
 3091000    1.0369514   -3.3050744   -1.8020099  0.078486597   -3.3050744    1.5030645   909447 
 3092000    1.0373006   -3.3052641   -1.8022437  0.077871838   -3.3052641    1.5030204   909780 
 3093000    1.0376774    -3.304487   -1.8014197  0.079591329    -3.304487    1.5030673   910082 
 3094000    1.0373934   -3.3036322   -1.8014813  0.077499478   -3.3036322     1.502151   910388 
 3095000    1.0380222   -3.3033339   -1.8007445  0.080942186   -3.3033339    1.5025894   910674 
 3096000     1.039803   -3.3040138   -1.7993555  0.077349343   -3.3040138    1.5046583   910982 
 3097000     1.040006   -3.3032464   -1.7987665  0.081730108   -3.3032464    1.5044798   911268 
 3098000     1.041092   -3.3030929   -1.7975608  0.080168305   -3.3030929     1.505532   911582 
 3099000    1.0415098   -3.3020697   -1.7964753  0.083408144   -3.3020697    1.5055944   911910 
 3100000    1.0422491   -3.3018586   -1.7957405  0.082749999   -3.3018586    1.5061181   912240 
 3101000       1.0424   -3.3007555   -1.7949029  0.083231294   -3.3007555    1.5058525   912533 
 3102000    1.0420229   -3.2995778   -1.7947729  0.079235094   -3.2995778    1.5048049   912838 
 3103000    1.0421834   -3.2990217   -1.7945142  0.080583262   -3.2990217    1.5045075   913159 
 3104000    1.0423308   -3.2979338   -1.7937043  0.084459507   -3.2979338    1.5042295   913457 
 3105000     1.043608   -3.2992757    -1.793635  0.080779574   -3.2992757    1.5056407   913719 
 3106000    1.0440535   -3.2973291   -1.7915416  0.077278687   -3.2973291    1.5057875   914020 
 3107000    1.0456064   -3.2974544   -1.7899204  0.083453093   -3.2974544     1.507534   914319 
 3108000    1.0456004   -3.2962023   -1.7891434  0.081377831   -3.2962023    1.5070589   914602 
 3109000    1.0450732   -3.2959236   -1.7901119  0.077410261   -3.2959236    1.5058117   914898 
 3110000    1.0455552   -3.2950157   -1.7890133   0.08038566   -3.2950157    1.5060024   915204 
 3111000    1.0465881   -3.2952973    -1.788278  0.079904463   -3.2952973    1.5070192   915490 
 3112000    1.0481031   -3.2963575    -1.787689  0.084770733   -3.2963575    1.5086685   915813 
 3113000    1.0486878   -3.2946864   -1.7856508  0.083355412   -3.2946864    1.5090356   916101 
 3114000    1.0487242   -3.2942204   -1.7856067  0.084500783   -3.2942204    1.5086137   916389 
 3115000    1.0490267   -3.2941449    -1.785603  0.087315664   -3.2941449    1.5085419   916697 
 3116000    1.0492945   -3.2925014   -1.7840384  0.085783861   -3.2925014     1.508463   916979 
 3117000    1.0499472   -3.2931789   -1.7842203  0.085998051   -3.2931789    1.5089586   917248 
 3118000    1.0494585   -3.2916474   -1.7838416  0.082977545   -3.2916474    1.5078058   917522 
 3119000    1.0511017   -3.2925001   -1.7828237  0.083903085   -3.2925001    1.5096764   917820 
 3120000    1.0508409   -3.2911201   -1.7823115   0.08440918   -3.2911201    1.5088086   918120 
 3121000    1.0507998   -3.2902213   -1.7819794  0.084681451   -3.2902213    1.5082419   918429 
 3122000    1.0510192   -3.2897028   -1.7816007  0.084738517   -3.2897028    1.5081021   918706 
 3123000    1.0527828   -3.2906661   -1.7804593  0.086291104   -3.2906661    1.5102068   918965 
 3124000    1.0528433   -3.2897583   -1.7799395  0.084568768   -3.2897583    1.5098188   919254 
 3125000    1.0530963    -3.288878   -1.7791562  0.086641236    -3.288878    1.5097217   919534 
 3126000    1.0544153   -3.2889192   -1.7777947  0.085344498   -3.2889192    1.5111246   919831 
 3127000    1.0536966   -3.2867764    -1.777115   0.09024334   -3.2867764    1.5096613   920095 
 3128000    1.0554792   -3.2882161   -1.7764658  0.086515118   -3.2882161    1.5117503   920378 
 3129000    1.0552437   -3.2873958   -1.7764343  0.085313579   -3.2873958    1.5109615   920653 
 3130000    1.0565219    -3.287977   -1.7757026  0.086611028    -3.287977    1.5122744   920968 
 3131000    1.0562978   -3.2878493   -1.7763388  0.086018337   -3.2878493    1.5115105   921238 
 3132000     1.056436   -3.2866397   -1.7753924  0.087491113   -3.2866397    1.5112473   921519 
 3133000     1.055446    -3.284994   -1.7756396  0.087041977    -3.284994    1.5093544   921810 
 3134000    1.0571762   -3.2855669   -1.7741743  0.086977249   -3.2855669    1.5113925   922076 
 3135000    1.0577668   -3.2852095    -1.773448  0.083006228   -3.2852095    1.5117614   922366 
 3136000    1.0584386   -3.2851911   -1.7729744  0.090951395   -3.2851911    1.5122166   922674 
 3137000     1.058665    -3.283848   -1.7718044  0.085332758    -3.283848    1.5120436   922977 
 3138000    1.0583793   -3.2828114   -1.7716524  0.086588643   -3.2828114     1.511159   923268 
 3139000    1.0591565    -3.282687   -1.7709226  0.090652841    -3.282687    1.5117644   923576 
 3140000    1.0600242   -3.2838607   -1.7712575  0.086049217   -3.2838607    1.5126033   923820 
 3141000    1.0613329   -3.2838194   -1.7698191  0.087358454   -3.2838194    1.5140004   924107 
 3142000    1.0609969   -3.2825876   -1.7695283  0.089720763   -3.2825876    1.5130594   924389 
 3143000    1.0622831   -3.2840359   -1.7696124  0.085095068   -3.2840359    1.5144234   924676 
 3144000     1.061776    -3.281996    -1.768762  0.088522901    -3.281996     1.513234   924961 
 3145000    1.0626764   -3.2818505   -1.7677965  0.089535591   -3.2818505     1.514054   925244 
 3146000    1.0625471   -3.2812095    -1.767765  0.089565287   -3.2812095    1.5134445   925504 
 3147000    1.0637587   -3.2813473   -1.7666746  0.086232175   -3.2813473    1.5146727   925808 
 3148000    1.0629438   -3.2789968   -1.7659288  0.087954099   -3.2789968     1.513068   926080 
 3149000    1.0639976   -3.2797133   -1.7656064  0.085923313   -3.2797133    1.5141069   926362 
 3150000    1.0640014   -3.2782996   -1.7646546  0.091770346   -3.2782996     1.513645   926648 
 3151000     1.064701   -3.2779975   -1.7638443  0.088565855   -3.2779975    1.5141533   926946 
 3152000    1.0666025   -3.2795315   -1.7631419  0.087570431   -3.2795315    1.5163896   927232 
 3153000     1.066785   -3.2792175   -1.7630115  0.090334578   -3.2792175     1.516206   927503 
 3154000    1.0673114   -3.2794148   -1.7629169  0.089525857   -3.2794148    1.5164979   927782 
 3155000    1.0692597   -3.2810609    -1.762235  0.089595493   -3.2810609    1.5188259   928051 
 3156000    1.0682381    -3.278928   -1.7619571  0.089450362    -3.278928     1.516971   928298 
 3157000    1.0696124   -3.2798085   -1.7613847  0.091682085   -3.2798085    1.5184238   928603 
 3158000    1.0690102   -3.2768721   -1.7597674  0.088526573   -3.2768721    1.5171048   928887 
 3159000     1.069339   -3.2769489   -1.7598397  0.091593689   -3.2769489    1.5171093   929170 
 3160000    1.0701496    -3.276117   -1.7583086  0.093083658    -3.276117    1.5178084   929446 
 3161000     1.069317   -3.2743397    -1.758182  0.092986826   -3.2743397    1.5161577   929734 
 3162000    1.0703262   -3.2749848   -1.7578857  0.089997053   -3.2749848    1.5170991   930034 
 3163000    1.0707985   -3.2757666   -1.7583961  0.093519398   -3.2757666    1.5173705   930278 
 3164000    1.0718563   -3.2758683   -1.7574118  0.087933465   -3.2758683    1.5184565   930531 
 3165000    1.0717928   -3.2746566   -1.7566995  0.089152234   -3.2746566    1.5179571   930782 
 3166000    1.0728154   -3.2752918   -1.7563303  0.091665372   -3.2752918    1.5189615   931054 
 3167000    1.0741562   -3.2758854   -1.7554779  0.091164488   -3.2758854    1.5204075   931331 
 3168000    1.0744114   -3.2759159   -1.7555652  0.089521366   -3.2759159    1.5203508   931587 
 3169000    1.0739391    -3.273316   -1.7541114   0.09390656    -3.273316    1.5192046   931880 
 3170000      1.07383   -3.2733829   -1.7547709  0.094788822   -3.2733829     1.518612   932149 
 3171000    1.0737611   -3.2724864   -1.7544002    0.0902471   -3.2724864    1.5180862   932412 
 3172000    1.0743864   -3.2711347   -1.7526416  0.095482572   -3.2711347    1.5184931   932705 
 3173000    1.0760832   -3.2729446   -1.7524902  0.093442463   -3.2729446    1.5204544   932973 
 3174000    1.0749223   -3.2699876   -1.7516422  0.095565098   -3.2699876    1.5183454   933261 
 3175000    1.0764315    -3.270932   -1.7508978   0.09361241    -3.270932    1.5200342   933533 
 3176000    1.0774941   -3.2712014   -1.7500921  0.095259491   -3.2712014    1.5211094   933794 
 3177000    1.0768893   -3.2704768   -1.7506802   0.09518735   -3.2704768    1.5197966   934076 
 3178000    1.0769101   -3.2697309   -1.7503522  0.093976132   -3.2697309    1.5193787   934351 
 3179000    1.0779056   -3.2700884   -1.7497169  0.092889575   -3.2700884    1.5203715   934604 
 3180000    1.0786619   -3.2696223   -1.7486022  0.095223396   -3.2696223      1.52102   934861 
 3181000    1.0789513   -3.2688364   -1.7478347  0.092212448   -3.2688364    1.5210018   935123 
 3182000    1.0798466   -3.2686638   -1.7468506  0.092035826   -3.2686638    1.5218131   935400 
 3183000    1.0790257   -3.2676918   -1.7474923  0.090730183   -3.2676918    1.5201995   935681 
 3184000    1.0794687   -3.2674329   -1.7470122  0.091876733   -3.2674329    1.5204207   935929 
 3185000    1.0795519   -3.2663921   -1.7463025   0.09253244   -3.2663921    1.5200896   936205 
 3186000    1.0817078   -3.2676612   -1.7449652  0.092446713   -3.2676612    1.5226959   936469 
 3187000    1.0817679   -3.2664819   -1.7441451  0.099492926   -3.2664819    1.5223368   936742 
 3188000    1.0822163   -3.2663309   -1.7437988  0.095557977   -3.2663309    1.5225321   937010 
 3189000    1.0829214   -3.2660373    -1.742913  0.095096549   -3.2660373    1.5231243   937256 
 3190000    1.0829978    -3.266048   -1.7432274  0.096754176    -3.266048    1.5228206   937509 
 3191000    1.0831286   -3.2653951   -1.7427997   0.09381544   -3.2653951    1.5225953   937761 
 3192000    1.0850758   -3.2660355   -1.7411322  0.098033223   -3.2660355    1.5249033   938025 
 3193000    1.0849658   -3.2652599   -1.7409565  0.095636419   -3.2652599    1.5243034   938299 
 3194000    1.0840486   -3.2630542   -1.7404889  0.098113937   -3.2630542    1.5225653   938576 
 3195000     1.085263   -3.2637658   -1.7399056  0.097725084   -3.2637658    1.5238602   938829 
 3196000     1.085439   -3.2641117   -1.7404133  0.097904637   -3.2641117    1.5236984   939081 
 3197000    1.0857199   -3.2638992   -1.7402219  0.096643563   -3.2638992    1.5236773   939337 
 3198000    1.0862537    -3.263215    -1.739178   0.09703393    -3.263215     1.524037   939577 
 3199000    1.0865866   -3.2618142   -1.7377416   0.10147272   -3.2618142    1.5240726   939843 
 3200000    1.0873943   -3.2623868   -1.7376193  0.094947017   -3.2623868    1.5247675   940113 
 3201000    1.0888116   -3.2633991   -1.7370322  0.094239878   -3.2633991    1.5263669   940352 
 3202000    1.0880741   -3.2604528   -1.7355156   0.09916541   -3.2604528    1.5249372   940596 
 3203000    1.0881968   -3.2602364   -1.7355665   0.10000767   -3.2602364    1.5246699   940867 
 3204000    1.0895714   -3.2609031   -1.7347386  0.097958888   -3.2609031    1.5261644   941133 
 3205000    1.0899063   -3.2611129   -1.7348914  0.099196036   -3.2611129    1.5262216   941387 
 3206000    1.0906245   -3.2602271   -1.7334313   0.09346918   -3.2602271    1.5267958   941653 
 3207000    1.0905393   -3.2591521   -1.7329358   0.10101816   -3.2591521    1.5262163   941937 
 3208000    1.0923696   -3.2608943   -1.7325514  0.098540961   -3.2608943    1.5283429   942205 
 3209000    1.0910892   -3.2598178   -1.7336323  0.098698649   -3.2598178    1.5261855   942431 
 3210000    1.0908438   -3.2584454   -1.7330127  0.097724295   -3.2584454    1.5254327   942684 
 3211000    1.0921277   -3.2582305    -1.731451  0.098764158   -3.2582305    1.5267794   942961 
 3212000     1.093478   -3.2584914   -1.7302278  0.096779472   -3.2584914    1.5282636   943210 
 3213000    1.0935862   -3.2575959   -1.7295634  0.097767528   -3.2575959    1.5280325   943446 
 3214000    1.0943615   -3.2570611   -1.7284183   0.09471826   -3.2570611    1.5286427   943738 
 3215000    1.0951699   -3.2574452    -1.728114   0.10120095   -3.2574452    1.5293312   944010 
 3216000    1.0944534   -3.2558331   -1.7279687   0.10047509   -3.2558331    1.5278644   944298 
 3217000    1.0955439   -3.2566688   -1.7277353   0.10042275   -3.2566688    1.5289335   944578 
 3218000    1.0956836   -3.2570461   -1.7283287  0.097931735   -3.2570461    1.5287174   944832 
 3219000    1.0955974   -3.2556947   -1.7275068    0.1026865   -3.2556947    1.5281879   945085 
 3220000    1.0969039   -3.2565765   -1.7269547  0.099890755   -3.2565765    1.5296218   945325 
 3221000    1.0963267   -3.2542145   -1.7258115   0.10188754   -3.2542145     1.528403   945581 
 3222000    1.0969609   -3.2551926   -1.7263065  0.097954483   -3.2551926    1.5288861   945829 
 3223000    1.0961596   -3.2533354   -1.7259874  0.099231822   -3.2533354    1.5273479   946090 
 3224000    1.0968399   -3.2534573   -1.7255443   0.10096272   -3.2534573     1.527913   946327 
 3225000    1.0979582   -3.2541061   -1.7250069   0.10081005   -3.2541061    1.5290992   946557 
 3226000    1.0976634   -3.2536427   -1.7253367   0.10245401   -3.2536427     1.528306   946794 
 3227000    1.0996392    -3.254744   -1.7241285   0.10235137    -3.254744    1.5306156   947067 
 3228000    1.0999996   -3.2543588   -1.7236827   0.10202457   -3.2543588    1.5306761   947340 
 3229000    1.1002974    -3.253421   -1.7227491   0.10170349    -3.253421    1.5306719   947599 
 3230000    1.1009749   -3.2532997   -1.7220764   0.10416262   -3.2532997    1.5312233   947841 
 3231000    1.1023189   -3.2544081   -1.7217311   0.10115452   -3.2544081     1.532677   948098 
 3232000    1.1034737   -3.2551742   -1.7212797  0.098835435   -3.2551742    1.5338945   948338 
 3233000    1.1040058   -3.2543264   -1.7200839   0.10630734   -3.2543264    1.5342426   948580 
 3234000    1.1047071   -3.2541528    -1.719379   0.10385771   -3.2541528    1.5347738   948854 
 3235000    1.1049709   -3.2540242   -1.7192478   0.10365767   -3.2540242    1.5347764   949079 
 3236000    1.1040961   -3.2527002   -1.7195428   0.10669397   -3.2527002    1.5331574   949329 
 3237000    1.1052313   -3.2533727    -1.719085    0.1058888   -3.2533727    1.5342877   949605 
 3238000     1.104971   -3.2523692   -1.7188741   0.10574705   -3.2523692    1.5334952   949872 
 3239000    1.1064678   -3.2533998   -1.7182184   0.10271071   -3.2533998    1.5351814   950114 
 3240000    1.1053049   -3.2511644   -1.7180274   0.10863068   -3.2511644     1.533137   950381 
 3241000    1.1067339   -3.2528038   -1.7180834   0.10386937   -3.2528038    1.5347204   950628 
 3242000    1.1066117   -3.2524534    -1.718298    0.1028421   -3.2524534    1.5341554   950873 
 3243000    1.1062788   -3.2510311   -1.7177484   0.10621963   -3.2510311    1.5332827   951128 
 3244000    1.1073915   -3.2518334   -1.7174036  0.099053469   -3.2518334    1.5344297   951373 
 3245000    1.1074208   -3.2516015   -1.7175666   0.10188504   -3.2516015    1.5340349   951643 
 3246000    1.1077163   -3.2500544   -1.7159873   0.10429485   -3.2500544    1.5340671   951877 
 3247000     1.108674   -3.2509754   -1.7159675     0.105888   -3.2509754     1.535008   952116 
 3248000    1.1086721   -3.2504476   -1.7158114   0.10660155   -3.2504476    1.5346362   952345 
 3249000    1.1089379   -3.2491694   -1.7145729   0.11073076   -3.2491694    1.5345964   952598 
 3250000    1.1092631   -3.2491796   -1.7145328   0.10646139   -3.2491796    1.5346469   952846 
 3251000    1.1109236   -3.2497903   -1.7132347    0.1016143   -3.2497903    1.5365555   953087 
 3252000    1.1101788   -3.2484253   -1.7133412   0.10559946   -3.2484253    1.5350841   953361 
 3253000    1.1114346   -3.2495844   -1.7131747    0.1008343   -3.2495844    1.5364097   953616 
 3254000     1.110858   -3.2479531   -1.7127398   0.10277258   -3.2479531    1.5352133   953864 
 3255000    1.1109698   -3.2485249   -1.7135546   0.10557999   -3.2485249    1.5349703   954111 
 3256000     1.110712   -3.2465663    -1.712351    0.1059045   -3.2465663    1.5342153   954359 
 3257000    1.1123869    -3.247384   -1.7112543   0.10553244    -3.247384    1.5361297   954607 
 3258000    1.1118248   -3.2457785   -1.7107965   0.10508865   -3.2457785     1.534982   954838 
 3259000    1.1125976   -3.2463026   -1.7106316   0.10407479   -3.2463026     1.535671   955073 
 3260000    1.1146851   -3.2472492   -1.7090883   0.10472471   -3.2472492    1.5381609   955316 
 3261000    1.1137424   -3.2458752   -1.7094075    0.1025947   -3.2458752    1.5364677   955560 
 3262000    1.1138305   -3.2453868   -1.7091529   0.10763439   -3.2453868    1.5362338   955781 
 3263000    1.1145257   -3.2451676   -1.7083479   0.10577346   -3.2451676    1.5368197   956013 
 3264000    1.1155267    -3.245337   -1.7075167   0.10578683    -3.245337    1.5378203   956249 
 3265000    1.1164243   -3.2453094   -1.7066282   0.11175843   -3.2453094    1.5386812   956483 
 3266000     1.116607   -3.2456362   -1.7071327   0.10644253   -3.2456362    1.5385036   956750 
 3267000    1.1167431   -3.2449577   -1.7066492   0.10544441   -3.2449577    1.5383084   956988 
 3268000     1.117714   -3.2455279   -1.7062826   0.10684029   -3.2455279    1.5392453   957237 
 3269000    1.1172007   -3.2450261   -1.7068782   0.10656741   -3.2450261    1.5381479   957480 
 3270000    1.1175599   -3.2446034   -1.7063594   0.10737165   -3.2446034    1.5382441   957728 
 3271000    1.1178406   -3.2439902   -1.7057646   0.10531198   -3.2439902    1.5382257   957980 
 3272000    1.1186506   -3.2434449   -1.7045159   0.10684686   -3.2434449    1.5389291   958236 
 3273000    1.1174464   -3.2422012   -1.7052897   0.11090592   -3.2422012    1.5369115   958461 
 3274000     1.118486    -3.242466   -1.7045049   0.10606342    -3.242466    1.5379611   958698 
 3275000    1.1180964   -3.2420388   -1.7049998   0.10683037   -3.2420388     1.537039   958939 
 3276000    1.1195758   -3.2444632   -1.7058013    0.1062087   -3.2444632     1.538662   959195 
 3277000    1.1196966   -3.2440516   -1.7056598   0.10786128   -3.2440516    1.5383918   959467 
 3278000     1.120097   -3.2433403    -1.704796   0.10835581   -3.2433403    1.5385443   959715 
 3279000    1.1207773   -3.2433553   -1.7042519   0.10758278   -3.2433553    1.5391034   959949 
 3280000    1.1216027   -3.2437764   -1.7039133   0.10517571   -3.2437764    1.5398632   960182 
 3281000    1.1218358   -3.2432533    -1.703439   0.10714969   -3.2432533    1.5398143   960412 
 3282000    1.1224342   -3.2426401   -1.7023926   0.10850342   -3.2426401    1.5402475   960654 
 3283000    1.1221147   -3.2420334   -1.7026442   0.11205062   -3.2420334    1.5393892   960916 
 3284000    1.1228957   -3.2428483   -1.7027259   0.11117612   -3.2428483    1.5401225   961127 
 3285000    1.1229378   -3.2423595   -1.7025781   0.10940773   -3.2423595    1.5397814   961376 
 3286000    1.1233434   -3.2425747   -1.7026184   0.11174039   -3.2425747    1.5399563   961614 
 3287000    1.1244052   -3.2430205   -1.7019772   0.10886248   -3.2430205    1.5410433   961844 
 3288000    1.1238872    -3.242728   -1.7027454   0.11010483    -3.242728    1.5399826   962063 
 3289000    1.1245681   -3.2422112    -1.701659   0.10894576   -3.2422112    1.5405522   962290 
 3290000    1.1263281   -3.2433278   -1.7007556   0.10858894   -3.2433278    1.5425721   962534 
 3291000     1.126251   -3.2432789   -1.7011826   0.10939757   -3.2432789    1.5420963   962765 
 3292000     1.125607   -3.2423309   -1.7014653   0.11058077   -3.2423309    1.5408656   962983 
 3293000    1.1250066   -3.2410655   -1.7014295   0.11243078   -3.2410655    1.5396361   963238 
 3294000     1.126528   -3.2419059   -1.7005349   0.11036975   -3.2419059     1.541371   963455 
 3295000    1.1274573   -3.2421448   -1.6998721   0.10874489   -3.2421448    1.5422727   963686 
 3296000    1.1287929   -3.2424915   -1.6987761   0.11159466   -3.2424915    1.5437153   963926 
 3297000    1.1284137   -3.2410827    -1.698243   0.11366413   -3.2410827    1.5428397   964149 
 3298000    1.1288355    -3.240923    -1.697881   0.11045151    -3.240923    1.5430419   964383 
 3299000    1.1300983   -3.2413293   -1.6969247   0.11352242   -3.2413293    1.5444046   964610 
 3300000     1.129714    -3.239982   -1.6965042   0.11266264    -3.239982    1.5434778   964861 
 3301000    1.1290729   -3.2392336   -1.6970184   0.11222805   -3.2392336    1.5422151   965103 
 3302000    1.1299781   -3.2394971   -1.6964213   0.11547451   -3.2394971    1.5430758   965338 
 3303000    1.1291518   -3.2377297    -1.696105   0.11602802   -3.2377297    1.5416248   965540 
 3304000    1.1306887   -3.2389967   -1.6956396   0.11250819   -3.2389967    1.5433571   965769 
 3305000    1.1315954   -3.2388984   -1.6946938   0.11234979   -3.2388984    1.5442046   966013 
 3306000    1.1315017   -3.2379639   -1.6942244   0.11209977   -3.2379639    1.5437395   966224 
 3307000    1.1313842   -3.2366378   -1.6934051   0.11053251   -3.2366378    1.5432326   966441 
 3308000    1.1308341   -3.2358388   -1.6937348   0.10898208   -3.2358388    1.5421041   966678 
 3309000    1.1323638   -3.2370126   -1.6932313   0.11087445   -3.2370126    1.5437813   966934 
 3310000    1.1315128   -3.2355149    -1.693275   0.11034128   -3.2355149    1.5422399   967173 
 3311000    1.1328345   -3.2366974   -1.6930247   0.11272718   -3.2366974    1.5436727   967404 
 3312000    1.1327361    -3.235336   -1.6921946   0.11292467    -3.235336    1.5431414   967653 
 3313000    1.1328453   -3.2347568   -1.6918573   0.11295517   -3.2347568    1.5428995   967898 
 3314000    1.1337273   -3.2351168     -1.69141   0.10734477   -3.2351168    1.5437068   968145 
 3315000    1.1346148   -3.2351292   -1.6905617    0.1079503   -3.2351292    1.5445675   968363 
 3316000    1.1342863   -3.2340443     -1.69027   0.11451952   -3.2340443    1.5437743   968580 
 3317000    1.1345677    -3.233647   -1.6898085   0.11461007    -3.233647    1.5438385   968780 
 3318000    1.1351313   -3.2336784   -1.6894092   0.11386755   -3.2336784    1.5442691   968991 
 3319000    1.1367337   -3.2343298   -1.6882333   0.11050954   -3.2343298    1.5460965   969212 
 3320000    1.1374387    -3.234082   -1.6873443   0.11528092    -3.234082    1.5467377   969411 
 3321000    1.1371747   -3.2333741   -1.6873302    0.1137379   -3.2333741    1.5460439   969621 
 3322000     1.136927   -3.2326339   -1.6872696   0.11234669   -3.2326339    1.5453644   969836 
 3323000    1.1379095   -3.2335223    -1.687178   0.11302823   -3.2335223    1.5463443   970059 
 3324000    1.1387111   -3.2335147   -1.6864496   0.11435118   -3.2335147    1.5470652   970290 
 3325000    1.1384543    -3.232338   -1.6860169   0.11272017    -3.232338     1.546321   970538 
 3326000    1.1387854   -3.2326664   -1.6862366   0.11445107   -3.2326664    1.5464298   970752 
 3327000    1.1392054   -3.2328472   -1.6862405   0.11290324   -3.2328472    1.5466067   970999 
 3328000    1.1397601   -3.2329852   -1.6859695    0.1154345   -3.2329852    1.5470156   971215 
 3329000    1.1401401   -3.2328752   -1.6856926   0.11217513   -3.2328752    1.5471826   971434 
 3330000    1.1405491   -3.2321639   -1.6848247   0.11522066   -3.2321639    1.5473393   971684 
 3331000    1.1408237   -3.2316296   -1.6842282   0.11304183   -3.2316296    1.5474014   971879 
 3332000    1.1416463    -3.232594    -1.684413   0.11406513    -3.232594     1.548181   972090 
 3333000    1.1422118   -3.2324909   -1.6839015   0.11708059   -3.2324909    1.5485893   972315 
 3334000    1.1425537   -3.2325615   -1.6838701   0.11633839   -3.2325615    1.5486914   972542 
 3335000    1.1425652   -3.2322107   -1.6838444   0.11780659   -3.2322107    1.5483663   972756 
 3336000    1.1430451   -3.2320025   -1.6833457   0.11723218   -3.2320025    1.5486569   972982 
 3337000    1.1429424   -3.2317837   -1.6835954   0.11644813   -3.2317837    1.5481883   973189 
 3338000    1.1433915   -3.2318849   -1.6834287    0.1173249   -3.2318849    1.5484562   973403 
 3339000    1.1455428    -3.234256   -1.6832497   0.11292847    -3.234256    1.5510063   973631 
 3340000     1.144534   -3.2335416   -1.6842449    0.1169181   -3.2335416    1.5492967   973847 
 3341000    1.1450562    -3.233573   -1.6839577   0.11663575    -3.233573    1.5496153   974091 
 3342000    1.1444487   -3.2325335   -1.6840932   0.11664026   -3.2325335    1.5484403   974313 
 3343000    1.1455476   -3.2341456   -1.6845033    0.1147307   -3.2341456    1.5496423   974492 
 3344000    1.1450282   -3.2328987   -1.6842878   0.11286615   -3.2328987    1.5486109   974699 
 3345000    1.1453671   -3.2333549   -1.6846114   0.11626103   -3.2333549    1.5487434   974904 
 3346000    1.1454492   -3.2313217   -1.6828039   0.11994289   -3.2313217    1.5485177   975116 
 3347000    1.1472335   -3.2331922   -1.6826313   0.11712034   -3.2331922    1.5505609   975348 
 3348000     1.147714   -3.2330977   -1.6822451   0.11529215   -3.2330977    1.5508526   975573 
 3349000    1.1484703   -3.2335879    -1.682114   0.12020539   -3.2335879    1.5514739   975825 
 3350000    1.1490182    -3.234506   -1.6826291   0.11910809    -3.234506    1.5518769   976037 
 3351000    1.1484671   -3.2328829   -1.6821301   0.11708723   -3.2328829    1.5507528   976276 
 3352000    1.1484967   -3.2319152   -1.6814496   0.11664293   -3.2319152    1.5504657   976482 
 3353000    1.1491966   -3.2317739   -1.6806731   0.12090086   -3.2317739    1.5511008   976677 
 3354000    1.1501048   -3.2324107   -1.6803876   0.12106178   -3.2324107    1.5520231   976868 
 3355000    1.1500781   -3.2310689   -1.6794155    0.1214695   -3.2310689    1.5516534   977078 
 3356000    1.1506648   -3.2314902   -1.6793803   0.11612592   -3.2314902    1.5521099   977289 
 3357000    1.1508089   -3.2315221   -1.6795244   0.11694846   -3.2315221    1.5519977   977482 
 3358000    1.1503769   -3.2309949   -1.6799115   0.11823938   -3.2309949    1.5510834   977691 
 3359000    1.1506798   -3.2307957    -1.679637   0.11756704   -3.2307957    1.5511587   977901 
 3360000    1.1514043    -3.231547    -1.679802   0.11756072    -3.231547     1.551745   978147 
 3361000    1.1517895   -3.2305773   -1.6786606   0.11530172   -3.2305773    1.5519166   978366 
 3362000    1.1522651   -3.2304977   -1.6783353   0.12027464   -3.2304977    1.5521625   978615 
 3363000    1.1526919    -3.229815   -1.6774171   0.11888924    -3.229815    1.5523978   978829 
 3364000    1.1537802   -3.2307009   -1.6771674   0.11792087   -3.2307009    1.5535334   979037 
 3365000    1.1536447   -3.2294238   -1.6764376   0.12125989   -3.2294238    1.5529862   979267 
 3366000    1.1541815   -3.2291251   -1.6757415   0.12264006   -3.2291251    1.5533836   979472 
 3367000    1.1551633   -3.2290979   -1.6747261   0.11825821   -3.2290979    1.5543718   979682 
 3368000     1.155688   -3.2295731   -1.6748096   0.11719639   -3.2295731    1.5547635   979880 
 3369000    1.1549332   -3.2280165   -1.6746156   0.11933463   -3.2280165    1.5534009   980099 
 3370000    1.1546036   -3.2272743   -1.6746842   0.11654193   -3.2272743    1.5525901   980331 
 3371000    1.1553275   -3.2284177   -1.6752076    0.1174373   -3.2284177    1.5532101   980554 
 3372000    1.1575461   -3.2299225   -1.6740501   0.11677787   -3.2299225    1.5558723   980756 
 3373000    1.1576701   -3.2284847   -1.6728202   0.11620281   -3.2284847    1.5556646   980992 
 3374000    1.1578128   -3.2280246   -1.6725139   0.12140876   -3.2280246    1.5555107   981210 
 3375000    1.1573762   -3.2266949   -1.6721384   0.12280701   -3.2266949    1.5545565   981442 
 3376000    1.1578991   -3.2281377   -1.6731624   0.11674637   -3.2281377    1.5549753   981621 
 3377000    1.1587685   -3.2278439   -1.6720656   0.12111981   -3.2278439    1.5557783   981851 
 3378000    1.1577174   -3.2264058   -1.6723821   0.12399436   -3.2264058    1.5540237   982068 
 3379000    1.1581597   -3.2264872   -1.6722323   0.12251345   -3.2264872     1.554255   982297 
 3380000    1.1600444   -3.2272174   -1.6707548   0.11838088   -3.2272174    1.5564626   982500 
 3381000    1.1602715   -3.2256664   -1.6692365   0.12415082   -3.2256664    1.5564299   982713 
 3382000    1.1607286    -3.226979   -1.6702528   0.11975841    -3.226979    1.5567262   982913 
 3383000    1.1620981   -3.2271083   -1.6688957   0.12051977   -3.2271083    1.5582126   983134 
 3384000    1.1618597   -3.2259398   -1.6683923   0.12208457   -3.2259398    1.5575475   983352 
 3385000    1.1612307   -3.2253713   -1.6689931   0.12009797   -3.2253713    1.5563782   983558 
 3386000    1.1623253    -3.226077   -1.6685182   0.12100717    -3.226077    1.5575588   983739 
 3387000    1.1635014   -3.2268987   -1.6680936   0.12185839   -3.2268987    1.5588052   983947 
 3388000    1.1635485    -3.226813   -1.6682362   0.12533332    -3.226813    1.5585768   984131 
 3389000    1.1648476   -3.2279525   -1.6679843   0.12307759   -3.2279525    1.5599682   984351 
 3390000    1.1632491    -3.225732   -1.6682257   0.12305399    -3.225732    1.5575063   984554 
 3391000    1.1627218   -3.2243773   -1.6679012   0.12382156   -3.2243773    1.5564761   984759 
 3392000    1.1634014   -3.2246241    -1.667545    0.1230376   -3.2246241    1.5570792   984953 
 3393000    1.1640384   -3.2255637   -1.6679656   0.12197357   -3.2255637    1.5575981   985164 
 3394000    1.1645388   -3.2253495   -1.6674107   0.12116981   -3.2253495    1.5579388   985372 
 3395000    1.1647784    -3.225464    -1.667532    0.1197274    -3.225464     1.557932   985579 
 3396000    1.1643079   -3.2243704   -1.6673915   0.12366318   -3.2243704    1.5569788   985784 
 3397000    1.1649084   -3.2245876   -1.6671613    0.1188037   -3.2245876    1.5574264   986009 
 3398000      1.16514   -3.2247908   -1.6673895   0.12315951   -3.2247908    1.5574012   986221 
 3399000    1.1658101   -3.2253993   -1.6674105    0.1206085   -3.2253993    1.5579889   986416 
 3400000    1.1657644   -3.2246777   -1.6670531   0.12042917   -3.2246777    1.5576245   986608 
 3401000    1.1654869   -3.2238011   -1.6668662   0.12089817   -3.2238011     1.556935   986810 
 3402000    1.1673607   -3.2255786   -1.6664501   0.12214048   -3.2255786    1.5591285   987006 
 3403000    1.1680242    -3.225712   -1.6660498     0.123232    -3.225712    1.5596622   987229 
 3404000     1.167366   -3.2238418   -1.6653852   0.12404655   -3.2238418    1.5584566   987436 
 3405000     1.168942   -3.2246612   -1.6644166   0.12376388   -3.2246612    1.5602445   987636 
 3406000    1.1691989    -3.225145   -1.6648608   0.12406172    -3.225145    1.5602841   987828 
 3407000    1.1690382   -3.2246775   -1.6649016   0.12631699   -3.2246775     1.559776   988014 
 3408000    1.1707848   -3.2262263   -1.6644629   0.12405226   -3.2262263    1.5617634   988231 
 3409000    1.1708245   -3.2258657   -1.6643844   0.12343657   -3.2258657    1.5614814   988443 
 3410000    1.1697432   -3.2240645   -1.6643173    0.1256734   -3.2240645    1.5597473   988628 
 3411000    1.1712125   -3.2254721   -1.6640847   0.12951994   -3.2254721    1.5613875   988830 
 3412000    1.1714949   -3.2256797   -1.6642395   0.12531919   -3.2256797    1.5614403   989035 
 3413000    1.1717756   -3.2257071   -1.6642227     0.123717   -3.2257071    1.5614844   989244 
 3414000    1.1728388   -3.2268589   -1.6643256   0.12444913   -3.2268589    1.5625332   989477 
 3415000    1.1721305   -3.2255233   -1.6642903   0.12488362   -3.2255233    1.5612329   989703 
 3416000    1.1724693    -3.225189   -1.6638234   0.12287715    -3.225189    1.5613656   989905 
 3417000    1.1717567     -3.22423   -1.6641271    0.1240714     -3.22423    1.5601029   990104 
 3418000    1.1719042   -3.2240019   -1.6640224   0.12962439   -3.2240019    1.5599795   990307 
 3419000    1.1732414   -3.2247154   -1.6632934    0.1261418   -3.2247154     1.561422   990521 
 3420000    1.1735858   -3.2242446    -1.662681   0.12822935   -3.2242446    1.5615636   990722 
 3421000    1.1745592   -3.2245273   -1.6619555   0.12517205   -3.2245273    1.5625718   990904 
 3422000    1.1752962   -3.2247253   -1.6615012   0.12124274   -3.2247253    1.5632241   991112 
 3423000    1.1752831   -3.2244476    -1.661539   0.12709169   -3.2244476    1.5629086   991301 
 3424000    1.1759044   -3.2251957      -1.6618   0.12362869   -3.2251957    1.5633957   991516 
 3425000    1.1766745     -3.22503   -1.6609385   0.12669894     -3.22503    1.5640914   991724 
 3426000    1.1770873   -3.2248055   -1.6604713   0.12643093   -3.2248055    1.5643342   991918 
 3427000    1.1764874   -3.2231783   -1.6599283   0.13236138   -3.2231783      1.56325   992100 
 3428000    1.1777874   -3.2244872   -1.6598315   0.12896282   -3.2244872    1.5646556   992304 
 3429000     1.178301   -3.2250863   -1.6600258   0.12949185   -3.2250863    1.5650605   992480 
 3430000    1.1771263   -3.2223951   -1.6592021   0.12908678   -3.2223951     1.563193   992675 
 3431000    1.1776123   -3.2227523   -1.6592211   0.12769654   -3.2227523    1.5635312   992870 
 3432000    1.1785826   -3.2228336   -1.6582757   0.12965732   -3.2228336    1.5645579   993036 
 3433000    1.1780689   -3.2223418   -1.6587586   0.12944211   -3.2223418    1.5635832   993222 
 3434000    1.1780854   -3.2222174   -1.6589303   0.12708151   -3.2222174    1.5632871   993424 
 3435000    1.1787783   -3.2219395   -1.6580336   0.12501832   -3.2219395    1.5639059   993615 
 3436000    1.1784455   -3.2220351   -1.6588634   0.12573708   -3.2220351    1.5631717   993801 
 3437000    1.1794279   -3.2219583   -1.6578108   0.12603702   -3.2219583    1.5641475   994009 
 3438000    1.1798285   -3.2229325   -1.6585464   0.12415543   -3.2229325    1.5643861   994195 
 3439000    1.1808073   -3.2228873   -1.6575261   0.12863577   -3.2228873    1.5653612   994400 
 3440000    1.1817153    -3.223458   -1.6571988   0.12200828    -3.223458    1.5662592   994594 
 3441000    1.1811295   -3.2223812   -1.6571754   0.12856334   -3.2223812    1.5652058   994770 
 3442000    1.1799961   -3.2205055   -1.6571018   0.13120778   -3.2205055    1.5634037   994961 
 3443000     1.181314   -3.2211255   -1.6562918    0.1289772   -3.2211255    1.5648337   995162 
 3444000    1.1812077   -3.2204408   -1.6559931   0.12843897   -3.2204408    1.5644477   995318 
 3445000    1.1812725   -3.2203116   -1.6560562    0.1288301   -3.2203116    1.5642554   995495 
 3446000     1.182756   -3.2221501   -1.6562041   0.12940104   -3.2221501     1.565946   995669 
 3447000    1.1831125   -3.2211939   -1.6550432   0.13199272   -3.2211939    1.5661506   995839 
 3448000    1.1834768    -3.220999   -1.6546901    0.1339602    -3.220999    1.5663089   996045 
 3449000    1.1837671   -3.2217347   -1.6553341    0.1332611   -3.2217347    1.5664006   996231 
 3450000     1.184783   -3.2229055   -1.6554328    0.1248508   -3.2229055    1.5674727   996404 
 3451000    1.1845931     -3.22166   -1.6547011    0.1300709     -3.22166    1.5669589   996571 
 3452000    1.1854196   -3.2221573   -1.6544293   0.12918668   -3.2221573    1.5677281   996777 
 3453000    1.1846391   -3.2210048   -1.6546154    0.1301565   -3.2210048    1.5663894   996972 
 3454000    1.1858341   -3.2218352   -1.6541598   0.12955574   -3.2218352    1.5676754   997159 
 3455000    1.1861782   -3.2219478   -1.6541068   0.12838954   -3.2219478     1.567841   997343 
 3456000    1.1848897   -3.2202982   -1.6544962   0.12975481   -3.2202982     1.565802   997557 
 3457000    1.1862911   -3.2219794   -1.6546413   0.12922465   -3.2219794    1.5673381   997758 
 3458000    1.1861328   -3.2211965    -1.654366   0.13230879   -3.2211965    1.5668305   997948 
 3459000    1.1860381   -3.2209278   -1.6545269   0.12957151   -3.2209278    1.5664009   998142 
 3460000    1.1864249   -3.2214522   -1.6548261    0.1292204   -3.2214522    1.5666261   998324 
 3461000    1.1858268   -3.2211724   -1.6556104   0.12756346   -3.2211724     1.565562   998499 
 3462000    1.1864113   -3.2209334   -1.6548836   0.13147891   -3.2209334    1.5660497   998680 
 3463000    1.1874765    -3.221572   -1.6544442   0.13014675    -3.221572    1.5671279   998889 
 3464000    1.1889302    -3.222534   -1.6538049   0.13104048    -3.222534    1.5687291   999091 
 3465000    1.1900189   -3.2229661   -1.6530755   0.13148872   -3.2229661    1.5698905   999266 
 3466000     1.189533   -3.2222704   -1.6532752   0.13160924   -3.2222704    1.5689952   999428 
 3467000    1.1894198   -3.2219762   -1.6534174   0.13319903   -3.2219762    1.5685587   999611 
 3468000    1.1906339   -3.2229383   -1.6530612    0.1281233   -3.2229383     1.569877   999791 
 3469000    1.1913364   -3.2235736   -1.6530671   0.13207133   -3.2235736    1.5705065   999980 
 3470000    1.1914074   -3.2232545   -1.6529403   0.13226445   -3.2232545    1.5703142  1000162 
 3471000    1.1906734   -3.2222313   -1.6531809   0.13223253   -3.2222313    1.5690503  1000351 
 3472000    1.1912746   -3.2220696   -1.6525001   0.13391205   -3.2220696    1.5695695  1000525 
 3473000    1.1917266   -3.2229565   -1.6531053   0.12971292   -3.2229565    1.5698512  1000725 
 3474000    1.1926197   -3.2240825   -1.6533499   0.13298713   -3.2240825    1.5707327  1000913 
 3475000     1.192146    -3.222456   -1.6526562   0.13543363    -3.222456    1.5697998  1001110 
 3476000    1.1919425   -3.2227471    -1.653488   0.13404418   -3.2227471    1.5692591  1001284 
 3477000     1.192573   -3.2230275   -1.6531876   0.13510375   -3.2230275    1.5698399  1001443 
 3478000    1.1910679    -3.220976   -1.6533662   0.13577725    -3.220976    1.5676098  1001602 
 3479000    1.1931782   -3.2231715   -1.6530744   0.12705062   -3.2231715    1.5700972  1001787 
 3480000    1.1924551   -3.2222662    -1.653396   0.13496276   -3.2222662    1.5688701  1001963 
 3481000    1.1915076   -3.2211389   -1.6538017   0.13478812   -3.2211389    1.5673372  1002146 
 3482000    1.1920148   -3.2208897   -1.6531388   0.13616692   -3.2208897    1.5677509  1002308 
 3483000    1.1928005    -3.222198   -1.6536891   0.12708205    -3.222198    1.5685089  1002484 
 3484000    1.1935214    -3.222006   -1.6528606   0.13204414    -3.222006    1.5691454  1002683 
 3485000    1.1937439   -3.2214193   -1.6522615   0.13613294   -3.2214193    1.5691578  1002862 
 3486000    1.1936258   -3.2212527   -1.6525051   0.13291112   -3.2212527    1.5687476  1003025 
 3487000    1.1945557   -3.2216492   -1.6519314   0.13527698   -3.2216492    1.5697178  1003186 
 3488000    1.1946583   -3.2207308    -1.651149   0.13310015   -3.2207308    1.5695819  1003359 
 3489000     1.196675   -3.2227011   -1.6507626   0.13347533   -3.2227011    1.5719385  1003546 
 3490000    1.1962352   -3.2208101    -1.649742   0.13337081   -3.2208101    1.5710681  1003733 
 3491000     1.197093   -3.2213228   -1.6493755   0.13421309   -3.2213228    1.5719472  1003891 
 3492000    1.1971147   -3.2205385   -1.6488697   0.13352172   -3.2205385    1.5716689  1004087 
 3493000    1.1972298   -3.2200329   -1.6484602   0.13474065   -3.2200329    1.5715727  1004245 
 3494000    1.1983363   -3.2212878   -1.6485289   0.13204673   -3.2212878    1.5727589  1004415 
 3495000    1.1982322   -3.2203636   -1.6479934   0.13881407   -3.2203636    1.5723702  1004576 
 3496000     1.197575   -3.2194894   -1.6482429   0.13485584   -3.2194894    1.5712466  1004743 
 3497000    1.1987497   -3.2210842   -1.6486015   0.13255326   -3.2210842    1.5724826  1004938 
 3498000     1.198481   -3.2202939   -1.6484249   0.13395718   -3.2202939     1.571869  1005105 
 3499000    1.1994761   -3.2208142   -1.6479406   0.13148263   -3.2208142    1.5728736  1005297 
 3500000    1.1987796   -3.2193898   -1.6476952   0.13339709   -3.2193898    1.5716946  1005467 
 3501000    1.1989945   -3.2184675   -1.6467319   0.13388079   -3.2184675    1.5717356  1005621 
 3502000    1.1990085   -3.2189479    -1.647494   0.13649673   -3.2189479    1.5714539  1005813 
 3503000    1.1998575   -3.2193447   -1.6470798   0.13208023   -3.2193447    1.5722649  1006006 
 3504000    1.1990411   -3.2187995   -1.6478869   0.14117349   -3.2187995    1.5709125  1006187 
 3505000    1.2004762   -3.2197473   -1.6472391   0.13444236   -3.2197473    1.5725082  1006369 
 3506000    1.2001147   -3.2193462   -1.6475926   0.13452859   -3.2193462    1.5717537  1006549 
 3507000    1.2006815   -3.2199279   -1.6476757   0.13577939   -3.2199279    1.5722522  1006705 
 3508000    1.2016806   -3.2203977   -1.6471076   0.13351545   -3.2203977    1.5732901  1006878 
 3509000    1.2024749   -3.2208926   -1.6468329   0.13219716   -3.2208926    1.5740597  1007051 
 3510000    1.2014374   -3.2186344   -1.6462061   0.13410845   -3.2186344    1.5724283  1007226 
 3511000    1.2023699   -3.2200008   -1.6466208    0.1364811   -3.2200008    1.5733801  1007398 
 3512000    1.2029248   -3.2203628   -1.6465207   0.13281275   -3.2203628    1.5738421  1007567 
 3513000    1.2033999    -3.220963   -1.6467445   0.13404704    -3.220963    1.5742184  1007724 
 3514000    1.2027755   -3.2193416   -1.6461679   0.13541448   -3.2193416    1.5731737  1007870 
 3515000    1.2024704   -3.2188465   -1.6463293   0.13691253   -3.2188465    1.5725172  1008035 
 3516000    1.2028521   -3.2187351   -1.6459778   0.13509118   -3.2187351    1.5727574  1008201 
 3517000    1.2040339   -3.2201137    -1.646103   0.13521357   -3.2201137    1.5740107  1008388 
 3518000    1.2038485   -3.2198023   -1.6462791   0.13519391   -3.2198023    1.5735233  1008545 
 3519000    1.2035424    -3.219858   -1.6469812   0.13840992    -3.219858    1.5728768  1008703 
 3520000      1.20401   -3.2198071   -1.6466124     0.135769   -3.2198071    1.5731947  1008891 
 3521000    1.2050877   -3.2210606   -1.6467246   0.13317217   -3.2210606     1.574336  1009062 
 3522000     1.206487   -3.2227654   -1.6468559   0.13497243   -3.2227654    1.5759095  1009225 
 3523000    1.2054311   -3.2215459   -1.6472793   0.13451461   -3.2215459    1.5742666  1009394 
 3524000    1.2062127   -3.2218749   -1.6468262   0.13682709   -3.2218749    1.5750487  1009547 
 3525000    1.2069111   -3.2223462   -1.6466305   0.13761375   -3.2223462    1.5757156  1009704 
 3526000    1.2060579    -3.221439   -1.6470962   0.14263944    -3.221439    1.5743428  1009870 
 3527000    1.2070572    -3.222424   -1.6470185   0.13905489    -3.222424    1.5754055  1010025 
 3528000    1.2071868   -3.2227007   -1.6474302   0.13397491   -3.2227007    1.5752705  1010220 
 3529000    1.2075768   -3.2224293   -1.6469213   0.13514569   -3.2224293     1.575508  1010394 
 3530000    1.2076968   -3.2225885   -1.6471765   0.13683434   -3.2225885     1.575412  1010556 
 3531000    1.2089034   -3.2233805   -1.6466411   0.13605225   -3.2233805    1.5767394  1010714 
 3532000    1.2082079   -3.2221636   -1.6465823   0.13550686   -3.2221636    1.5755813  1010875 
 3533000     1.208994   -3.2237507   -1.6474155   0.13704065   -3.2237507    1.5763352  1011049 
 3534000    1.2088616    -3.222894   -1.6469809   0.14028809    -3.222894    1.5759131  1011209 
 3535000    1.2086612   -3.2215457   -1.6461617   0.14061335   -3.2215457     1.575384  1011381 
 3536000    1.2102975   -3.2236243   -1.6463539   0.13511932   -3.2236243    1.5772704  1011539 
 3537000    1.2090839     -3.22162   -1.6461883   0.14211594     -3.22162    1.5754317  1011704 
 3538000    1.2096347   -3.2217914   -1.6459145   0.13977317   -3.2217914    1.5758769  1011879 
 3539000    1.2107288   -3.2227571   -1.6457308    0.1389655   -3.2227571    1.5770263  1012056 
 3540000    1.2112224   -3.2218624   -1.6444846   0.14022598   -3.2218624    1.5773779  1012243 
 3541000     1.211612   -3.2220666   -1.6444588   0.14073993   -3.2220666    1.5776079  1012421 
 3542000     1.213053   -3.2232863     -1.64403   0.13999391   -3.2232863    1.5792564  1012567 
 3543000    1.2128571   -3.2228315   -1.6440578   0.14059279   -3.2228315    1.5787737  1012713 
 3544000    1.2136811   -3.2222755   -1.6426787   0.13978722   -3.2222755    1.5795967  1012873 
 3545000    1.2132955   -3.2217961   -1.6429382   0.14034705   -3.2217961    1.5788579  1013025 
 3546000    1.2130802   -3.2213285   -1.6430328   0.14167077   -3.2213285    1.5782958  1013206 
 3547000    1.2144265    -3.222819   -1.6430397   0.13809646    -3.222819    1.5797793  1013378 
 3548000    1.2139333   -3.2214544   -1.6425817   0.13973916   -3.2214544    1.5788727  1013548 
 3549000    1.2134317   -3.2198849   -1.6419324   0.14342173   -3.2198849    1.5779526  1013720 
 3550000    1.2136626   -3.2206929   -1.6427061   0.14186867   -3.2206929    1.5779867  1013891 
 3551000    1.2140435   -3.2208907   -1.6426688   0.13819317   -3.2208907    1.5782219  1014058 
 3552000    1.2133579   -3.2190554   -1.6420156   0.14260343   -3.2190554    1.5770399  1014245 
 3553000    1.2148485   -3.2206225   -1.6418896   0.13723173   -3.2206225    1.5787328  1014402 
 3554000    1.2150085   -3.2209305   -1.6422807   0.13709246   -3.2209305    1.5786498  1014589 
 3555000    1.2137002   -3.2186883   -1.6419762   0.13921722   -3.2186883    1.5767121  1014742 
 3556000    1.2150441   -3.2199522   -1.6417539    0.1385005   -3.2199522    1.5781983  1014909 
 3557000    1.2158067   -3.2208764   -1.6419427   0.13854956   -3.2208764    1.5789337  1015073 
 3558000    1.2160233     -3.22018   -1.6412388   0.14152947     -3.22018    1.5789412  1015249 
 3559000    1.2166629   -3.2205409   -1.6410027   0.14054746   -3.2205409    1.5795383  1015399 
 3560000    1.2178394   -3.2210081   -1.6402288   0.14032745   -3.2210081    1.5807793  1015583 
 3561000    1.2170461   -3.2199291   -1.6404161   0.14060501   -3.2199291    1.5795131  1015735 
 3562000    1.2175884   -3.2204913   -1.6405155   0.13975131   -3.2204913    1.5799758  1015890 
 3563000    1.2189578   -3.2211585   -1.6396424   0.14427343   -3.2211585    1.5815162  1016042 
 3564000     1.218379   -3.2201944   -1.6396611   0.14350163   -3.2201944    1.5805334  1016191 
 3565000    1.2192326   -3.2208569   -1.6394557   0.14743609   -3.2208569    1.5814012  1016345 
 3566000    1.2193796   -3.2210609   -1.6397274   0.14539685   -3.2210609    1.5813335  1016511 
 3567000    1.2199994    -3.221575   -1.6397178   0.14296491    -3.221575    1.5818571  1016691 
 3568000    1.2201309   -3.2212537   -1.6394952    0.1452296   -3.2212537    1.5817585  1016864 
 3569000     1.220578   -3.2220433   -1.6399261   0.14723208   -3.2220433    1.5821172  1017006 
 3570000    1.2197982   -3.2212937   -1.6404329   0.14398126   -3.2212937    1.5808609  1017164 
 3571000    1.2208469    -3.222559   -1.6405801   0.14150276    -3.222559    1.5819789  1017319 
 3572000    1.2227135   -3.2239719   -1.6398157   0.14330412   -3.2239719    1.5841562  1017474 
 3573000    1.2222757   -3.2230251   -1.6396819   0.14320386   -3.2230251    1.5833431  1017632 
 3574000    1.2216793   -3.2216762   -1.6393715   0.14678679   -3.2216762    1.5823047  1017803 
 3575000    1.2223108   -3.2220479   -1.6391975   0.14332331   -3.2220479    1.5828504  1017978 
 3576000    1.2230911   -3.2226951    -1.639108   0.14707144   -3.2226951    1.5835871  1018154 
 3577000    1.2227277    -3.222225   -1.6393804   0.14862599    -3.222225    1.5828446  1018329 
 3578000    1.2227994   -3.2220665   -1.6393731   0.14502663   -3.2220665    1.5826933  1018486 
 3579000    1.2231092   -3.2222148   -1.6393582    0.1477877   -3.2222148    1.5828565  1018639 
 3580000    1.2236621   -3.2229998   -1.6396734   0.14521283   -3.2229998    1.5833264  1018797 
 3581000    1.2232541   -3.2216671   -1.6391403   0.14960277   -3.2216671    1.5825267  1018972 
 3582000    1.2245907   -3.2229423   -1.6389165   0.14589048   -3.2229423    1.5840258  1019120 
 3583000    1.2252147   -3.2225232   -1.6379452   0.14707662   -3.2225232     1.584578  1019284 
 3584000    1.2249782   -3.2218387   -1.6377981   0.14608137   -3.2218387    1.5840406  1019433 
 3585000    1.2269235   -3.2231518   -1.6368307   0.14286758   -3.2231518    1.5863211  1019584 
 3586000    1.2256304   -3.2219091   -1.6374759   0.14327686   -3.2219091    1.5844332  1019723 
 3587000    1.2257678   -3.2218332   -1.6374911     0.148287   -3.2218332    1.5843421  1019896 
 3588000    1.2271339   -3.2228441   -1.6369976   0.14487578   -3.2228441    1.5858465  1020064 
 3589000    1.2260153    -3.220672   -1.6365133   0.14982759    -3.220672    1.5841587  1020220 
 3590000    1.2266497   -3.2209397    -1.636216   0.14649333   -3.2209397    1.5847236  1020384 
 3591000    1.2262233   -3.2208101   -1.6368904    0.1438181   -3.2208101    1.5839197  1020547 
 3592000     1.227429    -3.222425   -1.6372088   0.14807409    -3.222425    1.5852162  1020715 
 3593000    1.2278018   -3.2224429   -1.6370108   0.14078735   -3.2224429    1.5854321  1020886 
 3594000    1.2270867   -3.2208433   -1.6365488   0.14737723   -3.2208433    1.5842946  1021024 
 3595000    1.2278841   -3.2214224    -1.636339   0.14811764   -3.2214224    1.5850834  1021179 
 3596000    1.2276602   -3.2209091   -1.6363815   0.14526396   -3.2209091    1.5845276  1021351 
 3597000    1.2292385   -3.2219346    -1.635603   0.14357839   -3.2219346    1.5863316  1021501 
 3598000    1.2281769   -3.2202164   -1.6354967   0.14438354   -3.2202164    1.5847197  1021657 
 3599000    1.2285376   -3.2207902   -1.6358394   0.14411977   -3.2207902    1.5849508  1021808 
 3600000    1.2279314   -3.2204871   -1.6365324   0.14503884   -3.2204871    1.5839548  1021946 
 3601000    1.2283206   -3.2210648    -1.636825   0.14704554   -3.2210648    1.5842398  1022086 
 3602000    1.2279413   -3.2206789   -1.6371995   0.14409561   -3.2206789    1.5834795  1022261 
 3603000    1.2286836   -3.2207553   -1.6366007   0.14417372   -3.2207553    1.5841546  1022443 
 3604000    1.2309092   -3.2232854    -1.636522   0.14329539   -3.2232854    1.5867634  1022611 
 3605000    1.2306718   -3.2220858   -1.6358316   0.14877218   -3.2220858    1.5862542  1022742 
 3606000    1.2310365   -3.2218784   -1.6353946   0.14813308   -3.2218784    1.5864838  1022897 
 3607000     1.231847   -3.2227354   -1.6354288   0.14915116   -3.2227354    1.5873065  1023040 
 3608000    1.2323654   -3.2229223   -1.6351978   0.14980505   -3.2229223    1.5877245  1023201 
 3609000     1.232595   -3.2236519   -1.6358674   0.14801922   -3.2236519    1.5877845  1023353 
 3610000    1.2332463   -3.2238365   -1.6354815   0.15048483   -3.2238365     1.588355  1023526 
 3611000    1.2329858   -3.2239343   -1.6361351   0.14932658   -3.2239343    1.5877992  1023668 
 3612000    1.2339947   -3.2250268   -1.6361534   0.14664475   -3.2250268    1.5888734  1023813 
 3613000    1.2341773   -3.2247889   -1.6359163   0.15013045   -3.2247889    1.5888726  1023965 
 3614000     1.234555   -3.2254981   -1.6363845   0.14741702   -3.2254981    1.5891136  1024123 
 3615000    1.2342328   -3.2245637   -1.6361502    0.1494767   -3.2245637    1.5884135  1024307 
 3616000    1.2349696   -3.2248392   -1.6357211   0.15107114   -3.2248392    1.5891181  1024464 
 3617000    1.2347016   -3.2240229   -1.6354915   0.15266139   -3.2240229    1.5885314  1024620 
 3618000    1.2351416   -3.2241385   -1.6352921   0.15187035   -3.2241385    1.5888464  1024782 
 3619000    1.2354164   -3.2246423   -1.6356581   0.15153708   -3.2246423    1.5889842  1024921 
 3620000    1.2358227   -3.2247724    -1.635492   0.15377772   -3.2247724    1.5892804  1025067 
 3621000    1.2369089    -3.225992   -1.6355055   0.15195949    -3.225992    1.5904865  1025190 
 3622000    1.2364232    -3.225046   -1.6354182   0.15219086    -3.225046    1.5896278  1025341 
 3623000     1.236391   -3.2248139   -1.6354988   0.15304445   -3.2248139    1.5893151  1025516 
 3624000    1.2350632   -3.2229713     -1.63562    0.1526124   -3.2229713    1.5873513  1025682 
 3625000    1.2372055   -3.2247998   -1.6349663   0.15124153   -3.2247998    1.5898335  1025857 
 3626000    1.2375899   -3.2255068   -1.6354491   0.15008156   -3.2255068    1.5900577  1026031 
 3627000    1.2384772   -3.2249426   -1.6339976   0.15080008   -3.2249426     1.590945  1026194 
 3628000    1.2384112    -3.224511   -1.6338616   0.15600128    -3.224511    1.5906494  1026330 
 3629000      1.23826   -3.2242293   -1.6340064   0.15220561   -3.2242293    1.5902229  1026480 
 3630000    1.2378851   -3.2236984   -1.6341861   0.15300494   -3.2236984    1.5895122  1026628 
 3631000    1.2384096   -3.2239673   -1.6340279   0.15013612   -3.2239673    1.5899395  1026787 
 3632000    1.2383764    -3.224254   -1.6345972   0.15085256    -3.224254    1.5896568  1026942 
 3633000    1.2392585   -3.2243266   -1.6337558   0.15124504   -3.2243266    1.5905708  1027083 
 3634000    1.2397925   -3.2243582   -1.6333235   0.15020904   -3.2243582    1.5910347  1027226 
 3635000    1.2394908   -3.2227744   -1.6323561   0.15176669   -3.2227744    1.5904183  1027374 
 3636000    1.2393477   -3.2229235   -1.6329225   0.14809627   -3.2229235    1.5900009  1027525 
 3637000     1.238678   -3.2221439   -1.6332063   0.15221034   -3.2221439    1.5889377  1027657 
 3638000    1.2399735   -3.2236904   -1.6333184   0.14695167   -3.2236904    1.5903721  1027804 
 3639000    1.2399323   -3.2234245   -1.6333498   0.15157571   -3.2234245    1.5900747  1027962 
 3640000    1.2392094   -3.2228998    -1.633987   0.14511884   -3.2228998    1.5889128  1028114 
 3641000    1.2405268   -3.2246573   -1.6342704   0.14966346   -3.2246573    1.5903869  1028253 
 3642000    1.2396554   -3.2239566   -1.6348877   0.14706507   -3.2239566    1.5890689  1028383 
 3643000    1.2394561   -3.2234286   -1.6348669   0.14833733   -3.2234286    1.5885616  1028546 
 3644000    1.2397569   -3.2238756   -1.6351586   0.14882622   -3.2238756     1.588717  1028695 
 3645000    1.2412893   -3.2248376    -1.634378   0.14596976   -3.2248376    1.5904596  1028838 
 3646000    1.2400554   -3.2232244   -1.6345605   0.15000165   -3.2232244    1.5886639  1028977 
 3647000    1.2406298   -3.2233898   -1.6342355   0.15141242   -3.2233898    1.5891543  1029136 
 3648000    1.2411286   -3.2237827   -1.6342072   0.15176946   -3.2237827    1.5895755  1029277 
 3649000    1.2423321   -3.2261977   -1.6352989   0.14847456   -3.2261977    1.5908988  1029418 
 3650000    1.2425492    -3.225701   -1.6347666   0.14939516    -3.225701    1.5909343  1029575 
 3651000    1.2435773   -3.2266437   -1.6346096   0.15130293   -3.2266437    1.5920341  1029715 
 3652000     1.243956   -3.2271501   -1.6348183   0.14994712   -3.2271501    1.5923318  1029836 
 3653000    1.2444201   -3.2270443   -1.6343488   0.15913684   -3.2270443    1.5926955  1029985 
 3654000    1.2437823   -3.2266786   -1.6350143   0.15589891   -3.2266786    1.5916643  1030124 
 3655000    1.2445297   -3.2268514   -1.6344794   0.15459656   -3.2268514     1.592372  1030285 
 3656000    1.2454937   -3.2273015   -1.6339359   0.15975061   -3.2273015    1.5933656  1030440 
 3657000    1.2458885   -3.2276395   -1.6340116   0.15711426   -3.2276395    1.5936279  1030597 
 3658000    1.2461995    -3.228397   -1.6345832   0.15360625    -3.228397    1.5938139  1030734 
 3659000    1.2465723   -3.2283588   -1.6343218   0.15719495   -3.2283588     1.594037  1030898 
 3660000    1.2461528    -3.228237   -1.6349497   0.15646637    -3.228237    1.5932873  1031036 
 3661000    1.2461351   -3.2283471   -1.6353234   0.15629273   -3.2283471    1.5930237  1031192 
 3662000    1.2456195   -3.2275506   -1.6353744   0.15422128   -3.2275506    1.5921761  1031314 
 3663000    1.2461879   -3.2281634   -1.6354815   0.15391028   -3.2281634    1.5926819  1031457 
 3664000    1.2462561   -3.2276119   -1.6350668   0.15561966   -3.2276119    1.5925451  1031602 
 3665000    1.2481405   -3.2298345   -1.6350824   0.15230793   -3.2298345    1.5947522  1031732 
 3666000    1.2467149   -3.2277217    -1.635021   0.15281522   -3.2277217    1.5927007  1031881 
 3667000     1.246018   -3.2269933   -1.6354405   0.15016611   -3.2269933    1.5915528  1032048 
 3668000    1.2467687    -3.227524   -1.6352345    0.1509386    -3.227524    1.5922895  1032192 
 3669000    1.2478056   -3.2275005   -1.6341198   0.15419841   -3.2275005    1.5933807  1032343 
 3670000    1.2465636   -3.2259568   -1.6343856   0.15318959   -3.2259568    1.5915712  1032488 
 3671000    1.2475637   -3.2270487   -1.6344383   0.15230211   -3.2270487    1.5926104  1032642 
 3672000    1.2484892   -3.2271565   -1.6335884   0.15202013   -3.2271565    1.5935681  1032787 
 3673000    1.2490759   -3.2272912   -1.6332103   0.15558696   -3.2272912    1.5940809  1032940 
 3674000    1.2486448   -3.2264653   -1.6330981   0.15433954   -3.2264653    1.5933672  1033046 
 3675000    1.2488279   -3.2254723   -1.6320703   0.15594799   -3.2254723     1.593402  1033175 
 3676000    1.2495835   -3.2264189   -1.6322504   0.15742583   -3.2264189    1.5941685  1033303 
 3677000    1.2500532   -3.2262641   -1.6317449   0.15433386   -3.2262641    1.5945192  1033464 
 3678000    1.2498672   -3.2254405   -1.6313884   0.15645583   -3.2254405    1.5940521  1033613 
 3679000    1.2506841   -3.2269669   -1.6321258   0.15786299   -3.2269669     1.594841  1033777 
 3680000    1.2500534   -3.2259897   -1.6321488   0.15126991   -3.2259897     1.593841  1033904 
 3681000     1.250931   -3.2270254   -1.6322784   0.15577802   -3.2270254     1.594747  1034042 
 3682000    1.2511528   -3.2268977    -1.632056   0.15532456   -3.2268977    1.5948417  1034164 
 3683000    1.2505996   -3.2262264   -1.6323041    0.1562114   -3.2262264    1.5939223  1034303 
 3684000    1.2507191   -3.2267217   -1.6328784   0.15343472   -3.2267217    1.5938434  1034453 
 3685000     1.251393   -3.2273649   -1.6328678   0.15462606   -3.2273649    1.5944971  1034586 
 3686000    1.2521259   -3.2284639    -1.633238   0.15063836   -3.2284639     1.595226  1034719 
 3687000    1.2511566    -3.227198   -1.6334011   0.15232673    -3.227198     1.593797  1034845 
 3688000    1.2519626   -3.2284996   -1.6339271    0.1552417   -3.2284996    1.5945725  1035008 
 3689000    1.2517739   -3.2285489   -1.6344169    0.1537927   -3.2285489     1.594132  1035138 
 3690000    1.2528083   -3.2290393   -1.6338319   0.15855275   -3.2290393    1.5952074  1035295 
 3691000    1.2526711   -3.2291074   -1.6342951   0.15373235   -3.2291074    1.5948123  1035438 
 3692000    1.2521584   -3.2284402   -1.6344976   0.15941926   -3.2284402    1.5939425  1035579 
 3693000    1.2534034   -3.2297191   -1.6344074   0.15756338   -3.2297191    1.5953117  1035719 
 3694000    1.2537634   -3.2298666   -1.6343216   0.15513509   -3.2298666     1.595545  1035865 
 3695000    1.2524355   -3.2283525   -1.6347005   0.15952668   -3.2283525     1.593652  1035997 
 3696000    1.2546616   -3.2312047   -1.6349374   0.15677641   -3.2312047    1.5962673  1036138 
 3697000    1.2539819   -3.2297496   -1.6345703    0.1566102   -3.2297496    1.5951793  1036283 
 3698000    1.2530457    -3.228762   -1.6349566   0.16105338    -3.228762    1.5938054  1036402 
 3699000    1.2555511   -3.2315972   -1.6348423   0.15742807   -3.2315972    1.5967549  1036556 
 3700000    1.2563975    -3.232403   -1.6348029   0.15924334    -3.232403    1.5976001  1036706 
 3701000    1.2560583   -3.2319718   -1.6350079   0.15874982   -3.2319718    1.5969639  1036839 
 3702000    1.2562198   -3.2318082   -1.6348607   0.16024197   -3.2318082    1.5969475  1036983 
 3703000    1.2559379   -3.2310815   -1.6346787   0.16009359   -3.2310815    1.5964028  1037104 
 3704000    1.2555307   -3.2298035   -1.6340953   0.16157523   -3.2298035    1.5957083  1037219 
 3705000    1.2573794   -3.2317818   -1.6339304   0.16098358   -3.2317818    1.5978515  1037353 
 3706000    1.2572077   -3.2316558   -1.6342474   0.15852982   -3.2316558    1.5974084  1037499 
 3707000    1.2576097   -3.2318272   -1.6340989   0.16062535   -3.2318272    1.5977283  1037623 
 3708000     1.257795   -3.2310098   -1.6332448   0.16101579   -3.2310098     1.597765  1037752 
 3709000    1.2570048   -3.2304495   -1.6338974   0.16150211   -3.2304495    1.5965521  1037888 
 3710000    1.2567421   -3.2302782   -1.6342597   0.16114977   -3.2302782    1.5960184  1038018 
 3711000     1.258147   -3.2310479   -1.6334345   0.15957585   -3.2310479    1.5976134  1038141 
 3712000    1.2581768   -3.2310413    -1.633618   0.15783063   -3.2310413    1.5974234  1038289 
 3713000    1.2584688   -3.2316149   -1.6340346    0.1600207   -3.2316149    1.5975803  1038428 
 3714000    1.2584669   -3.2313924   -1.6339868   0.16057223   -3.2313924    1.5974055  1038540 
 3715000    1.2596815   -3.2321551   -1.6333956   0.16087145   -3.2321551    1.5987595  1038662 
 3716000    1.2577094   -3.2298586   -1.6337942   0.16053008   -3.2298586    1.5960644  1038787 
 3717000    1.2597521   -3.2317622    -1.633284   0.15605002   -3.2317622    1.5984782  1038903 
 3718000    1.2591358   -3.2309808    -1.633503   0.16075742   -3.2309808    1.5974778  1039045 
 3719000    1.2589803   -3.2304163   -1.6333601   0.15879299   -3.2304163    1.5970562  1039191 
 3720000    1.2580744   -3.2288809   -1.6331874   0.15952172   -3.2288809    1.5956935  1039330 
 3721000    1.2588734   -3.2297095   -1.6331823   0.15945987   -3.2297095    1.5965272  1039447 
 3722000    1.2592201   -3.2304056   -1.6336368   0.15569297   -3.2304056    1.5967687  1039576 
 3723000     1.259144   -3.2298265   -1.6333339   0.16072634   -3.2298265    1.5964926  1039693 
 3724000    1.2592835    -3.229859   -1.6333815   0.16081144    -3.229859    1.5964775  1039818 
 3725000    1.2603497   -3.2307464   -1.6330924   0.16139424   -3.2307464     1.597654  1039932 
 3726000    1.2601311   -3.2305362   -1.6333235   0.16128438   -3.2305362    1.5972126  1040039 
 3727000    1.2612491   -3.2315037   -1.6331015   0.15862059   -3.2315037    1.5984022  1040187 
 3728000    1.2614736   -3.2306305   -1.6321374   0.15964398   -3.2306305    1.5984931  1040313 
 3729000    1.2628117   -3.2316853   -1.6316904   0.15797558   -3.2316853    1.5999949  1040439 
 3730000    1.2616045   -3.2303525   -1.6320761   0.16285901   -3.2303525    1.5982764  1040562 
 3731000    1.2636502   -3.2326985    -1.632032   0.15899182   -3.2326985    1.6006665  1040693 
 3732000    1.2631592   -3.2316839   -1.6318346   0.16085347   -3.2316839    1.5998493  1040820 
 3733000    1.2629749   -3.2313619    -1.631935   0.16531272   -3.2313619    1.5994269  1040943 
 3734000    1.2624697   -3.2319394   -1.6333581   0.16626654   -3.2319394    1.5985813  1041077 
 3735000    1.2636737   -3.2331157   -1.6332003    0.1597036   -3.2331157    1.5999154  1041201 
 3736000     1.263048   -3.2314334   -1.6325114   0.16556498   -3.2314334     1.598922  1041332 
 3737000    1.2633147   -3.2322198   -1.6331322   0.16259144   -3.2322198    1.5990876  1041444 
 3738000    1.2643631   -3.2334384   -1.6332096   0.16322403   -3.2334384    1.6002288  1041565 
 3739000    1.2642317   -3.2331271   -1.6332398   0.16552641   -3.2331271    1.5998873  1041679 
 3740000    1.2650783   -3.2336071   -1.6328374   0.16591568   -3.2336071    1.6007697  1041802 
 3741000     1.264075   -3.2328146   -1.6334818   0.16556919   -3.2328146    1.5993328  1041911 
 3742000    1.2651765    -3.234217   -1.6336871   0.16116164    -3.234217    1.6005298  1042039 
 3743000    1.2652935   -3.2339161   -1.6334594   0.16162578   -3.2339161    1.6004567  1042183 
 3744000    1.2651078   -3.2334234   -1.6334165   0.16348349   -3.2334234    1.6000068  1042323 
 3745000    1.2655814   -3.2340666   -1.6336634   0.15964203   -3.2340666    1.6004032  1042455 
 3746000    1.2660413   -3.2344234   -1.6336275   0.15992382   -3.2344234    1.6007958  1042578 
 3747000    1.2670956   -3.2354808   -1.6335394   0.16308679   -3.2354808    1.6019414  1042700 
 3748000    1.2656314   -3.2335391   -1.6336176   0.16486653   -3.2335391    1.5999215  1042810 
 3749000    1.2657456   -3.2337681   -1.6338847   0.16261975   -3.2337681    1.5998834  1042929 
 3750000    1.2666841   -3.2341137     -1.63321   0.16230512   -3.2341137    1.6009037  1043037 
 3751000    1.2674872   -3.2343081    -1.632566   0.16102559   -3.2343081    1.6017422  1043152 
 3752000    1.2683657    -3.235246   -1.6325841   0.16191787    -3.235246    1.6026618  1043276 
 3753000    1.2674232    -3.234187   -1.6328817    0.1653225    -3.234187    1.6013052  1043384 
 3754000    1.2668602   -3.2328201    -1.632398   0.16502531   -3.2328201    1.6004221  1043496 
 3755000    1.2677833   -3.2337236   -1.6323303   0.16034864   -3.2337236    1.6013933  1043623 
 3756000    1.2696157   -3.2343243   -1.6308008   0.16581752   -3.2343243    1.6035235  1043743 
 3757000    1.2696612   -3.2346386   -1.6312374    0.1618451   -3.2346386    1.6034012  1043860 
 3758000    1.2679517   -3.2336051   -1.6325529   0.16432394   -3.2336051    1.6010522  1043984 
 3759000    1.2685668    -3.234589   -1.6329335   0.16528915    -3.234589    1.6016555  1044097 
 3760000    1.2688921   -3.2352376   -1.6333371   0.16681606   -3.2352376    1.6019006  1044205 
 3761000        1.269   -3.2347273   -1.6329006   0.16490518   -3.2347273    1.6018266  1044342 
 3762000    1.2691841   -3.2346859   -1.6328033   0.16346222   -3.2346859    1.6018826  1044457 
 3763000    1.2681319   -3.2332724   -1.6329048   0.16211815   -3.2332724    1.6003676  1044579 
 3764000    1.2697077   -3.2349515   -1.6327761   0.15896693   -3.2349515    1.6021754  1044697 
 3765000    1.2691767   -3.2336046   -1.6322603   0.16117547   -3.2336046    1.6013444  1044802 
 3766000    1.2706381   -3.2354584   -1.6324727   0.16188484   -3.2354584    1.6029857  1044934 
 3767000    1.2708471   -3.2353671   -1.6322942   0.16254671   -3.2353671    1.6030729  1045049 
 3768000    1.2707921   -3.2350655   -1.6322675   0.16247485   -3.2350655     1.602798  1045183 
 3769000    1.2702456   -3.2344154   -1.6325074   0.16534413   -3.2344154     1.601908  1045314 
 3770000    1.2704785   -3.2344439    -1.632443   0.16661182   -3.2344439    1.6020009  1045445 
 3771000    1.2707913   -3.2346148   -1.6324264   0.16196826   -3.2346148    1.6021884  1045580 
 3772000     1.272435   -3.2357923   -1.6316911   0.16406519   -3.2357923    1.6041012  1045684 
 3773000    1.2715486   -3.2343173   -1.6315419   0.17123832   -3.2343173    1.6027754  1045820 
 3774000    1.2726819   -3.2355032   -1.6314651     0.166425   -3.2355032    1.6040382  1045928 
 3775000    1.2726441   -3.2357473   -1.6319422   0.16671589   -3.2357473    1.6038051  1046049 
 3776000    1.2721726   -3.2351879   -1.6321502   0.16693244   -3.2351879    1.6030377  1046162 
 3777000     1.272932    -3.235377   -1.6315634   0.16756826    -3.235377    1.6038136  1046280 
 3778000    1.2733567   -3.2357188    -1.631528   0.16671152   -3.2357188    1.6041908  1046383 
 3779000    1.2746046   -3.2370758   -1.6314632   0.16207464   -3.2370758    1.6056126  1046481 
 3780000    1.2748528   -3.2369466   -1.6312024   0.17059687   -3.2369466    1.6057442  1046599 
 3781000    1.2728656   -3.2347031   -1.6316105   0.16851088   -3.2347031    1.6030926  1046696 
 3782000     1.273549   -3.2359358   -1.6321479   0.16606552   -3.2359358    1.6037878  1046804 
 3783000    1.2744239   -3.2374244   -1.6327264    0.1626861   -3.2374244     1.604698  1046929 
 3784000    1.2734832   -3.2360731    -1.632745   0.16839379   -3.2360731    1.6033281  1047050 
 3785000     1.273686   -3.2360079   -1.6326005   0.16594929   -3.2360079    1.6034074  1047165 
 3786000    1.2745106   -3.2370024   -1.6327561   0.16583448   -3.2370024    1.6042463  1047295 
 3787000    1.2736597   -3.2357982   -1.6328173   0.16875014   -3.2357982    1.6029808  1047422 
 3788000    1.2734398   -3.2355664   -1.6330917   0.16778649   -3.2355664    1.6024747  1047572 
 3789000     1.273651    -3.236297    -1.633731   0.16344075    -3.236297     1.602566  1047686 
 3790000    1.2736325   -3.2364688   -1.6340821   0.16398244   -3.2364688    1.6023867  1047788 
 3791000     1.273076   -3.2364009   -1.6348717   0.16549412   -3.2364009    1.6015291  1047891 
 3792000    1.2751535   -3.2381403   -1.6341584   0.16094706   -3.2381403    1.6039819  1047996 
 3793000    1.2757517   -3.2380243   -1.6334859   0.16310759   -3.2380243    1.6045384  1048124 
 3794000    1.2761301   -3.2383828     -1.63354   0.16569493   -3.2383828    1.6048428  1048236 
 3795000    1.2756227   -3.2376021   -1.6335672   0.16598328   -3.2376021    1.6040349  1048347 
 3796000    1.2765206   -3.2394715   -1.6344866   0.16235226   -3.2394715    1.6049849  1048464 
 3797000    1.2757333   -3.2381187   -1.6342645   0.16307723   -3.2381187    1.6038542  1048556 
 3798000    1.2762105   -3.2373545   -1.6330885   0.16812446   -3.2373545    1.6042659  1048679 
 3799000    1.2776714    -3.238875   -1.6329502   0.17254793    -3.238875    1.6059248  1048795 
 3800000    1.2771025   -3.2384002   -1.6333665   0.17030242   -3.2384002    1.6050337  1048910 
 3801000    1.2777843    -3.239476   -1.6337507   0.16829405    -3.239476    1.6057252  1049018 
 3802000    1.2781469   -3.2390342   -1.6330478   0.17194265   -3.2390342    1.6059864  1049145 
 3803000    1.2774113   -3.2386577   -1.6337898    0.1718593   -3.2386577    1.6048679  1049272 
 3804000    1.2774753   -3.2380969   -1.6333121   0.17145224   -3.2380969    1.6047847  1049379 
 3805000    1.2782972   -3.2395578   -1.6338997   0.16636558   -3.2395578    1.6056581  1049483 
 3806000    1.2775712   -3.2389953   -1.6344143   0.16927304   -3.2389953     1.604581  1049591 
 3807000    1.2774399   -3.2385924    -1.634372   0.16837461   -3.2385924    1.6042204  1049719 
 3808000    1.2786001   -3.2388348   -1.6333119   0.17285595   -3.2388348    1.6055229  1049820 
 3809000    1.2789814   -3.2403039   -1.6344781   0.17293577   -3.2403039    1.6058258  1049935 
 3810000    1.2785806   -3.2408592   -1.6357399   0.16642498   -3.2408592    1.6051193  1050068 
 3811000    1.2783143   -3.2403571   -1.6357249   0.16715816   -3.2403571    1.6046322  1050168 
 3812000    1.2789376    -3.241063   -1.6358289   0.16772501    -3.241063    1.6052342  1050286 
 3813000    1.2788784   -3.2407543   -1.6357609   0.16699928   -3.2407543    1.6049934  1050395 
 3814000    1.2787247   -3.2397347   -1.6351161   0.16885222   -3.2397347    1.6046187  1050514 
 3815000    1.2793273   -3.2400963   -1.6349079   0.16857232   -3.2400963    1.6051884  1050636 
 3816000    1.2793166   -3.2402319   -1.6352433   0.16952889   -3.2402319    1.6049886  1050758 
 3817000    1.2797855   -3.2401089   -1.6347153   0.16866768   -3.2401089    1.6053935  1050878 
 3818000    1.2807288   -3.2412772   -1.6349021   0.16496112   -3.2412772    1.6063751  1051010 
 3819000    1.2801321    -3.240643   -1.6351829   0.17089711    -3.240643    1.6054601  1051119 
 3820000    1.2809007   -3.2408729   -1.6346184   0.17159362   -3.2408729    1.6062545  1051230 
 3821000    1.2818995   -3.2423312   -1.6349956   0.16790221   -3.2423312    1.6073357  1051342 
 3822000     1.281186   -3.2411419   -1.6348995   0.16904482   -3.2411419    1.6062424  1051472 
 3823000    1.2806979   -3.2408809   -1.6354138    0.1671556   -3.2408809    1.6054671  1051579 
 3824000    1.2810734   -3.2409729   -1.6351984   0.17013518   -3.2409729    1.6057744  1051686 
 3825000    1.2816901   -3.2420544   -1.6356887   0.16927825   -3.2420544    1.6063657  1051805 
 3826000    1.2817569   -3.2418309   -1.6355373   0.16801495   -3.2418309    1.6062937  1051907 
 3827000    1.2819931   -3.2417261    -1.635306   0.16558024   -3.2417261    1.6064201  1052018 
 3828000    1.2822428   -3.2417919   -1.6352161   0.16875863   -3.2417919    1.6065758  1052121 
 3829000    1.2830491   -3.2422549   -1.6348691   0.16435056   -3.2422549    1.6073858  1052252 
 3830000    1.2819577   -3.2406042   -1.6347641   0.17202577   -3.2406042    1.6058401  1052369 
 3831000    1.2838103   -3.2415277   -1.6335305   0.17278582   -3.2415277    1.6079972  1052476 
 3832000     1.283252   -3.2408741   -1.6337289   0.17169828   -3.2408741    1.6071452  1052576 
 3833000    1.2851184   -3.2426646   -1.6333302   0.16871172   -3.2426646    1.6093344  1052673 
 3834000    1.2836941   -3.2419509   -1.6345667   0.17118086   -3.2419509    1.6073843  1052782 
 3835000    1.2848605   -3.2434718   -1.6347644   0.16891102   -3.2434718    1.6087073  1052872 
 3836000    1.2841371   -3.2421607   -1.6345104   0.17161172   -3.2421607    1.6076503  1052971 
 3837000    1.2847259   -3.2431601   -1.6349452    0.1681341   -3.2431601    1.6082149  1053084 
 3838000    1.2833875   -3.2409203   -1.6345395   0.17391364   -3.2409203    1.6063809  1053188 
 3839000    1.2853138   -3.2424411   -1.6338309   0.17649858   -3.2424411    1.6086103  1053307 
 3840000    1.2837948   -3.2414142   -1.6349095   0.17016424   -3.2414142    1.6065047  1053441 
 3841000    1.2850167   -3.2429677   -1.6351109   0.17054821   -3.2429677    1.6078568  1053557 
 3842000    1.2846582   -3.2420701   -1.6348465   0.16910384   -3.2420701    1.6072236  1053678 
 3843000    1.2853511   -3.2424321   -1.6345034   0.17153184   -3.2424321    1.6079287  1053784 
 3844000    1.2862159    -3.243984   -1.6351307   0.16981254    -3.243984    1.6088534  1053887 
 3845000    1.2838242   -3.2417811   -1.6360794   0.17184648   -3.2417811    1.6057018  1053992 
 3846000    1.2851603   -3.2434864   -1.6363012   0.16937577   -3.2434864    1.6071852  1054115 
 3847000    1.2858452   -3.2431294   -1.6352616   0.16762577   -3.2431294    1.6078678  1054229 
 3848000    1.2852294   -3.2425163   -1.6356121    0.1710342   -3.2425163    1.6069042  1054356 
 3849000    1.2853979    -3.242804   -1.6358613   0.16579904    -3.242804    1.6069427  1054469 
 3850000    1.2867788   -3.2443762   -1.6358674    0.1681722   -3.2443762    1.6085088  1054574 
 3851000    1.2872293   -3.2444581   -1.6355539   0.17199698   -3.2444581    1.6089042  1054684 
 3852000    1.2868967   -3.2437229   -1.6353931   0.17228068   -3.2437229    1.6083298  1054788 
 3853000    1.2874325   -3.2443416     -1.63549   0.17096681   -3.2443416    1.6088516  1054885 
 3854000    1.2883101   -3.2452333    -1.635453   0.16817208   -3.2452333    1.6097804  1054995 
 3855000    1.2870396   -3.2435933    -1.635559    0.1742193   -3.2435933    1.6080343  1055099 
 3856000    1.2883108   -3.2454009   -1.6359369    0.1725963   -3.2454009     1.609464  1055203 
 3857000    1.2873584   -3.2442678   -1.6361552   0.17341456   -3.2442678    1.6081126  1055309 
 3858000    1.2886235   -3.2458826   -1.6363376   0.17174866   -3.2458826     1.609545  1055406 
 3859000    1.2893575   -3.2462875   -1.6359951   0.17305267   -3.2462875    1.6102924  1055517 
 3860000    1.2889086   -3.2459321   -1.6363787   0.17005815   -3.2459321    1.6095534  1055634 
 3861000     1.287467   -3.2440975   -1.6365347   0.17426778   -3.2440975    1.6075627  1055759 
 3862000    1.2888486   -3.2459367   -1.6368195   0.17378878   -3.2459367    1.6091172  1055871 
 3863000    1.2889694    -3.245669   -1.6365565   0.17397517    -3.245669    1.6091125  1055973 
 3864000    1.2898003   -3.2469568     -1.63699    0.1732062   -3.2469568    1.6099668  1056093 
 3865000    1.2898133   -3.2463017   -1.6364741   0.17414502   -3.2463017    1.6098275  1056195 
 3866000    1.2892014   -3.2461775    -1.637275   0.17621574   -3.2461775    1.6089025  1056301 
 3867000    1.2904125   -3.2468854    -1.636662    0.1762116   -3.2468854    1.6102234  1056426 
 3868000    1.2901953   -3.2466446   -1.6368584   0.17374435   -3.2466446    1.6097861  1056535 
 3869000    1.2897183    -3.246031   -1.6370166   0.17556429    -3.246031    1.6090144  1056651 
 3870000    1.2902244   -3.2467417   -1.6372407   0.16982392   -3.2467417     1.609501  1056746 
 3871000    1.2900349   -3.2465046    -1.637409   0.17206439   -3.2465046    1.6090956  1056857 
 3872000     1.290541   -3.2464464   -1.6368809   0.17747686   -3.2464464    1.6095655  1056963 
 3873000    1.2913002   -3.2478473   -1.6374887   0.17439459   -3.2478473    1.6103585  1057064 
 3874000    1.2896496   -3.2460232   -1.6378859   0.17231962   -3.2460232    1.6081373  1057171 
 3875000     1.290552    -3.246696   -1.6376085   0.17529798    -3.246696    1.6090874  1057286 
 3876000    1.2909567    -3.246244   -1.6368224   0.17342968    -3.246244    1.6094215  1057398 
 3877000    1.2911318   -3.2467608   -1.6372929   0.17514893   -3.2467608    1.6094679  1057511 
 3878000    1.2914025   -3.2468254   -1.6371784   0.17139513   -3.2468254     1.609647  1057615 
 3879000    1.2923896   -3.2478656   -1.6371741   0.17609961   -3.2478656    1.6106916  1057737 
 3880000    1.2919228   -3.2473422   -1.6373907     0.178882   -3.2473422    1.6099514  1057841 
 3881000      1.29199   -3.2472166   -1.6373396    0.1752533   -3.2472166     1.609877  1057945 
 3882000     1.291619   -3.2474586   -1.6382265   0.17367024   -3.2474586    1.6092321  1058065 
 3883000    1.2927136   -3.2483991   -1.6380118   0.17626982   -3.2483991    1.6103874  1058202 
 3884000    1.2930071   -3.2476411   -1.6370601   0.17619569   -3.2476411     1.610581  1058315 
 3885000    1.2926225   -3.2468965    -1.636936   0.17385066   -3.2468965    1.6099605  1058408 
 3886000    1.2927429   -3.2475562   -1.6375963   0.17393609   -3.2475562    1.6099599  1058507 
 3887000    1.2924359   -3.2479018   -1.6384688   0.17274912   -3.2479018    1.6094331  1058602 
 3888000    1.2920786      -3.2473   -1.6384867   0.17810603      -3.2473    1.6088133  1058717 
 3889000    1.2923567   -3.2468849   -1.6378938   0.17485231   -3.2468849     1.608991  1058828 
 3890000    1.2928819   -3.2480988   -1.6386212   0.17019899   -3.2480988    1.6094777  1058938 
 3891000    1.2942073   -3.2496844   -1.6387089   0.17604311   -3.2496844    1.6109755  1059038 
 3892000    1.2944835    -3.250412   -1.6392525   0.17118499    -3.250412    1.6111595  1059143 
 3893000    1.2937518   -3.2492051   -1.6391296   0.17770306   -3.2492051    1.6100755  1059257 
 3894000    1.2949292   -3.2500995   -1.6387093    0.1755536   -3.2500995    1.6113902  1059356 
 3895000    1.2945209   -3.2496738   -1.6389514   0.17757053   -3.2496738    1.6107224  1059461 
 3896000    1.2940417   -3.2493409   -1.6393591   0.17929778   -3.2493409    1.6099818  1059556 
 3897000    1.2946385   -3.2504344   -1.6398742    0.1718849   -3.2504344    1.6105602  1059664 
 3898000    1.2960566   -3.2513539   -1.6391498   0.17406961   -3.2513539    1.6122041  1059743 
 3899000    1.2953871    -3.250302   -1.6390751   0.17589503    -3.250302    1.6112269  1059838 
 3900000    1.2959726   -3.2512947   -1.6395068   0.17611716   -3.2512947    1.6117879  1059948 
 3901000    1.2960938   -3.2522071   -1.6404555   0.17977256   -3.2522071    1.6117516  1060071 
 3902000     1.296735    -3.253128   -1.6407463   0.17410429    -3.253128    1.6123817  1060181 
 3903000    1.2961826   -3.2521658   -1.6406596   0.18049354   -3.2521658    1.6115062  1060305 
 3904000     1.296071   -3.2519723   -1.6407643   0.17894053   -3.2519723     1.611208  1060410 
 3905000    1.2953336   -3.2518202   -1.6416823   0.18115405   -3.2518202    1.6101379  1060511 
 3906000    1.2962663   -3.2528562   -1.6417185   0.17971023   -3.2528562    1.6111377  1060616 
 3907000    1.2963303   -3.2520567   -1.6409943   0.17842241   -3.2520567    1.6110624  1060718 
 3908000     1.296811   -3.2530747   -1.6415608   0.17711248   -3.2530747    1.6115139  1060814 
 3909000    1.2955724   -3.2521803   -1.6423482   0.17704066   -3.2521803    1.6098321  1060908 
 3910000    1.2963984   -3.2521943   -1.6414922   0.18067673   -3.2521943    1.6107021  1061011 
 3911000     1.296763   -3.2532053   -1.6421793   0.17657703   -3.2532053     1.611026  1061096 
 3912000    1.2969133   -3.2538379   -1.6427952    0.1790567   -3.2538379    1.6110427  1061208 
 3913000    1.2971108   -3.2527605   -1.6416121   0.17922085   -3.2527605    1.6111484  1061300 
 3914000    1.2972105   -3.2528106   -1.6417069   0.18029015   -3.2528106    1.6111037  1061411 
 3915000    1.2982901   -3.2537868   -1.6414881   0.17754491   -3.2537868    1.6122987  1061507 
 3916000    1.2984617   -3.2537964   -1.6414335   0.17576199   -3.2537964    1.6123629  1061605 
 3917000    1.2972983   -3.2524399   -1.6416643   0.17765297   -3.2524399    1.6107757  1061699 
 3918000     1.298172   -3.2530294   -1.6413314   0.17361954   -3.2530294     1.611698  1061806 
 3919000    1.2980401   -3.2523493   -1.6409743   0.17792117   -3.2523493    1.6113749  1061911 
 3920000    1.2985502   -3.2527324   -1.6408776   0.17681433   -3.2527324    1.6118549  1062012 
 3921000    1.2975883   -3.2516937   -1.6411874   0.17603245   -3.2516937    1.6105063  1062114 
 3922000    1.2988038   -3.2532603   -1.6413835   0.17353364   -3.2532603    1.6118768  1062205 
 3923000    1.2988957   -3.2530775   -1.6412111   0.17618877   -3.2530775    1.6118664  1062287 
 3924000    1.2993862   -3.2532335   -1.6409011   0.17919323   -3.2532335    1.6123324  1062381 
 3925000    1.2995158   -3.2525196   -1.6401691   0.17708982   -3.2525196    1.6123505  1062475 
 3926000    1.2985514    -3.251194   -1.6401916   0.17994411    -3.251194    1.6110024  1062575 
 3927000    1.2997063   -3.2523416   -1.6400521   0.17985894   -3.2523416    1.6122895  1062671 
 3928000    1.3008525   -3.2532636   -1.6396919   0.17567721   -3.2532636    1.6135717  1062763 
 3929000    1.2998321   -3.2526963   -1.6405603   0.17979818   -3.2526963    1.6121361  1062875 
 3930000    1.3005065    -3.253163   -1.6403529   0.17748656    -3.253163    1.6128101  1062982 
 3931000    1.2999797   -3.2528843   -1.6408458   0.17782559   -3.2528843    1.6120385  1063060 
 3932000    1.3005239   -3.2541719    -1.641592   0.17459062   -3.2541719    1.6125799  1063148 
 3933000    1.2999721   -3.2536611   -1.6419033   0.18008103   -3.2536611    1.6117578  1063239 
 3934000    1.3000226   -3.2533448   -1.6416822   0.17916476   -3.2533448    1.6116626  1063343 
 3935000    1.3005266   -3.2539083   -1.6417785   0.17960608   -3.2539083    1.6121298  1063447 
 3936000    1.3007308   -3.2544423   -1.6422185   0.17980538   -3.2544423    1.6122238  1063552 
 3937000    1.3009572   -3.2541036   -1.6417599   0.17448708   -3.2541036    1.6123437  1063658 
 3938000    1.3004207   -3.2535733   -1.6420521   0.17942966   -3.2535733    1.6115212  1063762 
 3939000     1.302623   -3.2557153   -1.6416242   0.17905682   -3.2557153    1.6140911  1063867 
 3940000    1.3022815   -3.2556412   -1.6421098   0.17982389   -3.2556412    1.6135314  1063957 
 3941000    1.3025613   -3.2556351   -1.6419042   0.17991074   -3.2556351    1.6137309  1064054 
 3942000    1.3014629    -3.254268   -1.6420433   0.18182299    -3.254268    1.6122247  1064150 
 3943000    1.3027872   -3.2565789    -1.642838   0.17859791   -3.2565789    1.6137409  1064232 
 3944000     1.303405   -3.2577927   -1.6434307   0.17700322   -3.2577927     1.614362  1064327 
 3945000    1.3022948   -3.2559314   -1.6430914   0.18428881   -3.2559314      1.61284  1064424 
 3946000     1.303989   -3.2577863   -1.6430044   0.18007999   -3.2577863    1.6147819  1064527 
 3947000    1.3036869   -3.2566807    -1.642414   0.17991738   -3.2566807    1.6142667  1064620 
 3948000    1.3032866   -3.2560957   -1.6424762   0.18425895   -3.2560957    1.6136195  1064720 
 3949000    1.3036136   -3.2569202   -1.6430595   0.17954904   -3.2569202    1.6138607  1064828 
 3950000     1.302397   -3.2553548   -1.6431289    0.1815652   -3.2553548    1.6122259  1064913 
 3951000    1.3033003   -3.2563788   -1.6431619   0.18508884   -3.2563788    1.6132168  1064997 
 3952000     1.304437   -3.2570255   -1.6425608   0.18334334   -3.2570255    1.6144647  1065102 
 3953000    1.3039341   -3.2570592   -1.6433397   0.18140439   -3.2570592    1.6137194  1065183 
 3954000    1.3038726   -3.2572664   -1.6437563   0.18422794   -3.2572664    1.6135101  1065271 
 3955000    1.3040657   -3.2576124   -1.6440149   0.18397466   -3.2576124    1.6135975  1065371 
 3956000    1.3047711   -3.2574776   -1.6431451   0.17997913   -3.2574776    1.6143325  1065462 
 3957000     1.304294   -3.2573619   -1.6437484   0.18172635   -3.2573619    1.6136135  1065547 
 3958000    1.3045458    -3.257563   -1.6437774    0.1764742    -3.257563    1.6137856  1065639 
 3959000    1.3041096   -3.2572046   -1.6440902   0.18101086   -3.2572046    1.6131144  1065726 
 3960000     1.305249   -3.2581766   -1.6438028   0.17884926   -3.2581766    1.6143738  1065825 
 3961000    1.3058589    -3.258705   -1.6437269    0.1767164    -3.258705    1.6149781  1065924 
 3962000    1.3049748   -3.2572571   -1.6435177   0.18229901   -3.2572571    1.6137394  1066020 
 3963000    1.3049518   -3.2576357   -1.6440761   0.17935326   -3.2576357    1.6135596  1066120 
 3964000    1.3042752   -3.2568631   -1.6442779   0.17957747   -3.2568631    1.6125853  1066211 
 3965000    1.3064093   -3.2582429   -1.6431734    0.1785556   -3.2582429    1.6150694  1066313 
 3966000    1.3059362   -3.2573179   -1.6429606   0.18294402   -3.2573179    1.6143574  1066397 
 3967000    1.3056569   -3.2578357   -1.6439476   0.18361285   -3.2578357     1.613888  1066479 
 3968000    1.3060132   -3.2578047   -1.6436125   0.18192632   -3.2578047    1.6141922  1066569 
 3969000    1.3056785   -3.2573221   -1.6436737   0.17973655   -3.2573221    1.6136484  1066655 
 3970000    1.3062458    -3.257463   -1.6432967   0.18084842    -3.257463    1.6141663  1066776 
 3971000    1.3064378   -3.2577789   -1.6434903    0.1787024   -3.2577789    1.6142887  1066852 
 3972000    1.3068501   -3.2587473   -1.6440945    0.1806002   -3.2587473    1.6146528  1066948 
 3973000    1.3078759   -3.2588662   -1.6430793   0.18072107   -3.2588662    1.6157869  1067036 
 3974000    1.3065231   -3.2576582   -1.6436742    0.1838376   -3.2576582     1.613984  1067123 
 3975000    1.3079086   -3.2599551   -1.6443912   0.18224117   -3.2599551    1.6155639  1067210 
 3976000    1.3070677    -3.259056   -1.6446685    0.1853721    -3.259056    1.6143876  1067301 
 3977000     1.307473   -3.2589858   -1.6442354   0.18280755   -3.2589858    1.6147504  1067392 
 3978000    1.3081438   -3.2601054   -1.6446582   0.17980226   -3.2601054    1.6154472  1067479 
 3979000     1.308366   -3.2603721   -1.6447897   0.18278475   -3.2603721    1.6155824  1067571 
 3980000    1.3070358    -3.258643   -1.6448544   0.18204324    -3.258643    1.6137887  1067671 
 3981000    1.3072129   -3.2590596   -1.6452156   0.18692326   -3.2590596    1.6138441  1067779 
 3982000    1.3091888   -3.2617351   -1.6455726    0.1794977   -3.2617351    1.6161624  1067859 
 3983000    1.3081898   -3.2608496   -1.6460823   0.18151912   -3.2608496    1.6147674  1067966 
 3984000    1.3078996   -3.2599673   -1.6457048   0.18291492   -3.2599673    1.6142625  1068063 
 3985000    1.3088065   -3.2607854   -1.6455382    0.1813201   -3.2607854    1.6152473  1068152 
 3986000    1.3077128   -3.2598199   -1.6460508   0.18541096   -3.2598199    1.6137691  1068237 
 3987000    1.3088155   -3.2604868   -1.6455036   0.18382658   -3.2604868    1.6149832  1068334 
 3988000    1.3089789   -3.2610544   -1.6460163   0.18567401   -3.2610544    1.6150382  1068431 
 3989000    1.3099076   -3.2630705   -1.6470378   0.18136358   -3.2630705    1.6160327  1068531 
 3990000      1.30915   -3.2621645   -1.6472069   0.18191923   -3.2621645    1.6149576  1068624 
 3991000    1.3087253   -3.2616581    -1.647386   0.18492466   -3.2616581    1.6142721  1068731 
 3992000    1.3084463   -3.2618026   -1.6480016   0.18067101   -3.2618026     1.613801  1068815 
 3993000    1.3099562   -3.2630225   -1.6474831   0.18019909   -3.2630225    1.6155394  1068897 
 3994000    1.3084831   -3.2617404   -1.6481339    0.1878783   -3.2617404    1.6136064  1068974 
 3995000    1.3093804    -3.262537   -1.6479646   0.18312596    -3.262537    1.6145724  1069067 
 3996000    1.3095002   -3.2627347   -1.6481428   0.18355098   -3.2627347    1.6145918  1069152 
 3997000    1.3106157   -3.2637664   -1.6479368   0.18497775   -3.2637664    1.6158296  1069243 
 3998000    1.3090887   -3.2620397    -1.648227   0.18288427   -3.2620397    1.6138127  1069332 
 3999000      1.31024   -3.2639111   -1.6488135    0.1819862   -3.2639111    1.6150976  1069421 
 4000000       1.3105   -3.2637054   -1.6484399     0.180679   -3.2637054    1.6152655  1069522 
 4001000    1.3100505   -3.2634774   -1.6489123   0.18338033   -3.2634774    1.6145651  1069619 
 4002000    1.3107397    -3.264715    -1.649432   0.18954744    -3.264715    1.6152831  1069706 
 4003000     1.310557   -3.2640649   -1.6491458   0.18337213   -3.2640649    1.6149191  1069798 
 4004000    1.3098958   -3.2633444   -1.6493804   0.18490763   -3.2633444     1.613964  1069891 
 4005000    1.3110117   -3.2648131    -1.649604   0.18171428   -3.2648131     1.615209  1069977 
 4006000    1.3117183   -3.2652096   -1.6492735   0.18434444   -3.2652096    1.6159361  1070072 
 4007000    1.3119795   -3.2647129   -1.6485924    0.1861032   -3.2647129    1.6161205  1070163 
 4008000    1.3120477   -3.2650794   -1.6490002   0.18471203   -3.2650794    1.6160792  1070246 
 4009000    1.3120338   -3.2650254   -1.6491127   0.18419244   -3.2650254    1.6159126  1070345 
 4010000    1.3113125    -3.264313   -1.6494156   0.19106811    -3.264313    1.6148975  1070429 
 4011000    1.3126691   -3.2661074   -1.6496858   0.18442544   -3.2661074    1.6164217  1070526 
 4012000    1.3126867   -3.2653837   -1.6490822   0.18687139   -3.2653837    1.6163014  1070620 
 4013000    1.3121476   -3.2654427   -1.6499349   0.18084834   -3.2654427    1.6155079  1070706 
 4014000    1.3129701   -3.2655434   -1.6491542   0.18640473   -3.2655434    1.6163892  1070793 
 4015000    1.3138873   -3.2676037   -1.6502168   0.17883216   -3.2676037    1.6173869  1070880 
 4016000    1.3113874   -3.2643613   -1.6501722   0.18708558   -3.2643613     1.614189  1070960 
 4017000    1.3127146   -3.2660205   -1.6503729   0.18387799   -3.2660205    1.6156476  1071076 
 4018000    1.3137044   -3.2670711   -1.6503365   0.18427471   -3.2670711    1.6167346  1071163 
 4019000    1.3125934   -3.2656975   -1.6504674   0.18622037   -3.2656975    1.6152301  1071254 
 4020000    1.3120769   -3.2653042   -1.6508469   0.18743863   -3.2653042    1.6144573  1071345 
 4021000    1.3123833   -3.2653477   -1.6506429   0.18576376   -3.2653477    1.6147048  1071431 
 4022000    1.3132217   -3.2663156   -1.6507165   0.18575935   -3.2663156     1.615599  1071522 
 4023000    1.3128644   -3.2660341   -1.6510329   0.18479598   -3.2660341    1.6150013  1071627 
 4024000    1.3137952   -3.2663968   -1.6503848   0.18551132   -3.2663968     1.616012  1071716 
 4025000    1.3144923   -3.2672345   -1.6505099   0.18186203   -3.2672345    1.6167246  1071812 
 4026000    1.3130412   -3.2656327   -1.6508269   0.18580618   -3.2656327    1.6148058  1071901 
 4027000    1.3135055   -3.2655236   -1.6502915   0.18703292   -3.2655236    1.6152322  1071997 
 4028000    1.3144514   -3.2671479   -1.6508853   0.18672295   -3.2671479    1.6162626  1072085 
 4029000    1.3138145   -3.2656526   -1.6503087   0.19458571   -3.2656526    1.6153439  1072175 
 4030000    1.3152564   -3.2673865   -1.6504161   0.18454365   -3.2673865    1.6169704  1072272 
 4031000    1.3148351   -3.2664287   -1.6501223   0.18729523   -3.2664287    1.6163063  1072369 
 4032000    1.3159458   -3.2673106   -1.6497701    0.1859316   -3.2673106    1.6175405  1072456 
 4033000    1.3171646   -3.2691509   -1.6502693   0.18509129   -3.2691509    1.6188816  1072560 
 4034000    1.3169516   -3.2680721   -1.6495775   0.18748703   -3.2680721    1.6184946  1072643 
 4035000    1.3174875   -3.2677938    -1.648781   0.18696042   -3.2677938    1.6190128  1072736 
 4036000    1.3177316   -3.2680419   -1.6488726   0.18695828   -3.2680419    1.6191693  1072831 
 4037000    1.3171932   -3.2680085    -1.649626    0.1905007   -3.2680085    1.6183825  1072914 
 4038000    1.3172221   -3.2676099   -1.6493185   0.18343335   -3.2676099    1.6182914  1072998 
 4039000     1.318205   -3.2676473   -1.6482706    0.1849276   -3.2676473    1.6193766  1073079 
 4040000    1.3177245    -3.267795   -1.6491156   0.19243807    -3.267795    1.6186793  1073150 
 4041000    1.3175572   -3.2678912    -1.649538   0.19009404   -3.2678912    1.6183532  1073230 
 4042000    1.3177833   -3.2682231   -1.6497143   0.18706264   -3.2682231    1.6185087  1073311 
 4043000    1.3179893   -3.2687043   -1.6500798    0.1893257   -3.2687043    1.6186245  1073402 
 4044000    1.3175316   -3.2684421   -1.6505048   0.18352992   -3.2684421    1.6179373  1073485 
 4045000    1.3170993   -3.2678209   -1.6505517   0.19041577   -3.2678209    1.6172693  1073576 
 4046000    1.3171999   -3.2678468   -1.6505745   0.19008582   -3.2678468    1.6172723  1073656 
 4047000    1.3180098   -3.2688534   -1.6507299   0.18674395   -3.2688534    1.6181235  1073751 
 4048000    1.3176462   -3.2679139   -1.6503904   0.18988424   -3.2679139    1.6175236  1073853 
 4049000    1.3197514   -3.2697867    -1.649795   0.18789155   -3.2697867    1.6199917  1073930 
 4050000    1.3177866   -3.2680885   -1.6506292   0.18838897   -3.2680885    1.6174594  1074010 
 4051000     1.317142   -3.2667705   -1.6502256   0.19306918   -3.2667705    1.6165448  1074092 
 4052000    1.3182238    -3.268455    -1.650733   0.18718308    -3.268455    1.6177219  1074192 
 4053000    1.3194584   -3.2690672   -1.6499508   0.18577097   -3.2690672    1.6191164  1074272 
 4054000    1.3192666   -3.2689847   -1.6502121    0.1829445   -3.2689847    1.6187725  1074344 
 4055000    1.3191951   -3.2689563    -1.650389   0.18751252   -3.2689563    1.6185673  1074422 
 4056000    1.3206965   -3.2706663   -1.6504016   0.18695846   -3.2706663    1.6202647  1074518 
 4057000    1.3188227   -3.2685472   -1.6507093   0.18591104   -3.2685472    1.6178379  1074603 
 4058000    1.3200836   -3.2701194   -1.6508764    0.1883252   -3.2701194     1.619243  1074697 
 4059000    1.3199072   -3.2699095   -1.6509944   0.18765719   -3.2699095    1.6189151  1074771 
 4060000    1.3202418   -3.2698072   -1.6506217   0.19076221   -3.2698072    1.6191855  1074864 
 4061000    1.3201484   -3.2698278   -1.6509075   0.19002738   -3.2698278    1.6189202  1074964 
 4062000    1.3206134   -3.2700483   -1.6506783   0.18707809   -3.2700483      1.61937  1075044 
 4063000    1.3211501   -3.2711023   -1.6512173   0.19172607   -3.2711023    1.6198849  1075139 
 4064000    1.3215832    -3.270762   -1.6504574   0.19140849    -3.270762    1.6203045  1075213 
 4065000    1.3205294   -3.2698214   -1.6509429    0.1911993   -3.2698214    1.6188785  1075302 
 4066000    1.3216836   -3.2707739   -1.6505949   0.18808765   -3.2707739    1.6201789  1075378 
 4067000     1.321975   -3.2709658   -1.6505668   0.18892543   -3.2709658     1.620399  1075469 
 4068000    1.3222718    -3.271358   -1.6507444   0.19071013    -3.271358    1.6206137  1075568 
 4069000    1.3212665   -3.2703591   -1.6511071   0.18826351   -3.2703591     1.619252  1075654 
 4070000    1.3228174   -3.2717381   -1.6507377   0.18780646   -3.2717381    1.6210005  1075755 
 4071000    1.3212842   -3.2706916   -1.6516918    0.1930997   -3.2706916    1.6189997  1075836 
 4072000    1.3211056   -3.2705065   -1.6518339   0.19258357   -3.2705065    1.6186726  1075908 
 4073000    1.3229203   -3.2719583   -1.6511813   0.18891227   -3.2719583     1.620777  1075987 
 4074000     1.321503   -3.2717591   -1.6528328   0.19434608   -3.2717591    1.6189264  1076063 
 4075000    1.3233494   -3.2730953   -1.6520214   0.18822974   -3.2730953    1.6210738  1076139 
 4076000    1.3233212   -3.2730268     -1.65212    0.1906822   -3.2730268    1.6209067  1076227 
 4077000    1.3228188   -3.2723728   -1.6522245   0.18905314   -3.2723728    1.6201483  1076322 
 4078000    1.3225018   -3.2731967     -1.65356   0.18857643   -3.2731967    1.6196367  1076404 
 4079000    1.3229077   -3.2730214   -1.6530231   0.18708251   -3.2730214    1.6199983  1076494 
 4080000    1.3228226   -3.2725539   -1.6527832    0.1884847   -3.2725539    1.6197707  1076576 
 4081000    1.3227496   -3.2719078   -1.6523228   0.18940506   -3.2719078     1.619585  1076640 
 4082000    1.3235477   -3.2729164   -1.6524806   0.18626009   -3.2729164    1.6204358  1076724 
 4083000    1.3231968   -3.2725859    -1.652691   0.19275602   -3.2725859    1.6198948  1076798 
 4084000    1.3230703   -3.2727535   -1.6531444   0.18872322   -3.2727535    1.6196092  1076885 
 4085000    1.3237489   -3.2734178   -1.6530863   0.19214942   -3.2734178    1.6203315  1076957 
 4086000    1.3239362   -3.2728788   -1.6524325   0.19251766   -3.2728788    1.6204464  1077033 
 4087000    1.3243163   -3.2735044   -1.6527162   0.19052055   -3.2735044    1.6207882  1077115 
 4088000    1.3237887   -3.2717412   -1.6517205   0.19377255   -3.2717412    1.6200206  1077196 
 4089000    1.3233818   -3.2720099   -1.6526374   0.18878158   -3.2720099    1.6193725  1077296 
 4090000    1.3243379   -3.2731671   -1.6527631   0.19282758   -3.2731671     1.620404  1077388 
 4091000    1.3246516   -3.2733305   -1.6526676   0.19459433   -3.2733305    1.6206629  1077471 
 4092000    1.3246348    -3.273666   -1.6531545   0.18996457    -3.273666    1.6205116  1077558 
 4093000    1.3241336   -3.2726525   -1.6528849   0.19199265   -3.2726525    1.6197677  1077645 
 4094000    1.3251299   -3.2736865   -1.6528084   0.19111345   -3.2736865    1.6208781  1077717 
 4095000     1.325833   -3.2735947    -1.651995   0.19261515   -3.2735947    1.6215997  1077809 
 4096000    1.3256388   -3.2733532   -1.6521264   0.18988114   -3.2733532    1.6212268  1077899 
 4097000    1.3251198   -3.2733083   -1.6528351   0.19636954   -3.2733083    1.6204733  1077978 
 4098000    1.3271881   -3.2759403   -1.6530823   0.19072221   -3.2759403     1.622858  1078074 
 4099000    1.3259172   -3.2737547    -1.652574   0.19413297   -3.2737547    1.6211807  1078156 
 4100000    1.3264841   -3.2744757   -1.6527341   0.19248467   -3.2744757    1.6217415  1078244 
 4101000    1.3260299   -3.2741361   -1.6530566   0.18961084   -3.2741361    1.6210794  1078315 
 4102000    1.3258365   -3.2750328   -1.6543446   0.19213558   -3.2750328    1.6206882  1078418 
 4103000    1.3258183   -3.2756228   -1.6550771   0.18877186   -3.2756228    1.6205458  1078498 
 4104000    1.3252747    -3.275339   -1.6556064   0.19129377    -3.275339    1.6197326  1078597 
 4105000    1.3266726    -3.276618   -1.6553107   0.19052865    -3.276618    1.6213074  1078686 
 4106000     1.325562   -3.2752911   -1.6554626   0.19322253   -3.2752911    1.6198285  1078767 
 4107000    1.3250601   -3.2738033   -1.6546812    0.1953697   -3.2738033    1.6191221  1078829 
 4108000    1.3263911   -3.2751719   -1.6545586    0.1905882   -3.2751719    1.6206133  1078919 
 4109000    1.3269941   -3.2755455   -1.6543367     0.194042   -3.2755455    1.6212087  1079013 
 4110000    1.3267085   -3.2756455   -1.6548908   0.19641245   -3.2756455    1.6207547  1079083 
 4111000    1.3286688   -3.2786447   -1.6556111   0.19195515   -3.2786447    1.6230336  1079160 
 4112000     1.327398   -3.2772253   -1.6558627   0.19237818   -3.2772253    1.6213626  1079239 
 4113000    1.3269379   -3.2760582   -1.6553793   0.19404815   -3.2760582     1.620679  1079320 
 4114000    1.3263836    -3.275694   -1.6557986   0.19141384    -3.275694    1.6198954  1079391 
 4115000    1.3271996   -3.2765844   -1.6557915   0.19554265   -3.2765844    1.6207928  1079457 
 4116000    1.3274985   -3.2773816   -1.6563408    0.1925375   -3.2773816    1.6210408  1079535 
 4117000    1.3277286    -3.278164   -1.6569293   0.18990739    -3.278164    1.6212347  1079593 
 4118000    1.3271417   -3.2778209    -1.657414   0.19155383   -3.2778209    1.6204069  1079667 
 4119000    1.3267409   -3.2778214   -1.6580284    0.1905175   -3.2778214     1.619793  1079750 
 4120000     1.327201   -3.2780131   -1.6577799    0.1925829   -3.2780131    1.6202332  1079831 
 4121000    1.3281561   -3.2781981   -1.6569145   0.19287185   -3.2781981    1.6212835  1079908 
 4122000    1.3278878   -3.2785121   -1.6576581   0.19231376   -3.2785121    1.6208541  1079976 
 4123000    1.3278726   -3.2783936   -1.6576782   0.19009791   -3.2783936    1.6207154  1080056 
 4124000    1.3281991   -3.2782204   -1.6572325   0.19213718   -3.2782204    1.6209879  1080140 
 4125000    1.3282052   -3.2780664   -1.6571986   0.19174146   -3.2780664    1.6208678  1080225 
 4126000    1.3280403   -3.2779766    -1.657448   0.19126918   -3.2779766    1.6205285  1080317 
 4127000    1.3290359   -3.2784025   -1.6567837   0.19273546   -3.2784025    1.6216187  1080400 
 4128000    1.3288386   -3.2774222   -1.6561717   0.19276461   -3.2774222    1.6212505  1080485 
 4129000    1.3288506   -3.2778248   -1.6566782   0.19409553   -3.2778248    1.6211466  1080564 
 4130000    1.3295892    -3.278739   -1.6568039   0.19208693    -3.278739    1.6219351  1080639 
 4131000    1.3290053   -3.2778239   -1.6567211   0.19524667   -3.2778239    1.6211028  1080719 
 4132000    1.3286257   -3.2778136   -1.6572728   0.19214835   -3.2778136    1.6205408  1080785 
 4133000    1.3292773   -3.2780553   -1.6568308   0.19607182   -3.2780553    1.6212245  1080859 
 4134000    1.3300027   -3.2788931   -1.6568874   0.19264011   -3.2788931    1.6220057  1080928 
 4135000     1.329431   -3.2788472   -1.6576662   0.19259454   -3.2788472     1.621181  1081013 
 4136000    1.3297711   -3.2787699   -1.6572896   0.19338238   -3.2787699    1.6214803  1081090 
 4137000    1.3301012   -3.2790014   -1.6572372   0.19040539   -3.2790014    1.6217642  1081169 
 4138000    1.3292695   -3.2789923   -1.6583665   0.19296816   -3.2789923    1.6206258  1081252 
 4139000    1.3293861   -3.2792115   -1.6585334   0.19379912   -3.2792115    1.6206781  1081312 
 4140000    1.3288348   -3.2787459   -1.6588763   0.19533557   -3.2787459    1.6198696  1081403 
 4141000    1.3279573   -3.2783644   -1.6597082   0.19517414   -3.2783644    1.6186562  1081499 
 4142000    1.3291045   -3.2794306   -1.6595095     0.192229   -3.2794306    1.6199212  1081588 
 4143000    1.3292501   -3.2794316   -1.6594303   0.19302704   -3.2794316    1.6200013  1081653 
 4144000    1.3301589   -3.2805836   -1.6595571   0.19280234   -3.2805836    1.6210265  1081708 
 4145000     1.331087   -3.2798444   -1.6577933   0.19285252   -3.2798444     1.622051  1081779 
 4146000    1.3315387   -3.2808408   -1.6583443   0.19214904   -3.2808408    1.6224965  1081849 
 4147000     1.331023   -3.2791914   -1.6574508   0.19623589   -3.2791914    1.6217407  1081934 
 4148000    1.3321981   -3.2807228   -1.6576569   0.19241065   -3.2807228    1.6230659  1082005 
 4149000    1.3309816   -3.2791951   -1.6577131   0.19137477   -3.2791951    1.6214819  1082073 
 4150000    1.3305934   -3.2790126   -1.6581145   0.19380331   -3.2790126    1.6208982  1082147 
 4151000     1.331634   -3.2802486   -1.6582026   0.18991728   -3.2802486    1.6220459  1082227 
 4152000    1.3319237   -3.2813666   -1.6590742    0.1938571   -3.2813666    1.6222924  1082298 
 4153000    1.3311159   -3.2796895   -1.6584784    0.1959354   -3.2796895    1.6212111  1082363 
 4154000    1.3319712   -3.2812582   -1.6591358   0.19468953   -3.2812582    1.6221224  1082450 
 4155000    1.3332424   -3.2823754   -1.6588444   0.19266343   -3.2823754     1.623531  1082543 
 4156000    1.3317887   -3.2805066   -1.6588431   0.19456424   -3.2805066    1.6216635  1082608 
 4157000    1.3316728   -3.2804244   -1.6590293   0.19665154   -3.2804244     1.621395  1082693 
 4158000    1.3323111   -3.2815032   -1.6594254   0.19241545   -3.2815032    1.6220778  1082756 
 4159000    1.3326625   -3.2819539   -1.6595443   0.18958551   -3.2819539    1.6224097  1082820 
 4160000    1.3321764   -3.2818267    -1.660133   0.19202442   -3.2818267    1.6216937  1082903 
 4161000    1.3331106   -3.2822926   -1.6595846   0.19387725   -3.2822926     1.622708  1082985 
 4162000    1.3335009   -3.2827192   -1.6596576   0.19285825   -3.2827192    1.6230616  1083066 
 4163000    1.3331533   -3.2827562   -1.6602195   0.19550203   -3.2827562    1.6225366  1083134 
 4164000    1.3331423   -3.2819038   -1.6594824   0.19383682   -3.2819038    1.6224215  1083202 
 4165000    1.3329353   -3.2813373   -1.6592995   0.19493177   -3.2813373    1.6220378  1083290 
 4166000    1.3339176   -3.2831613   -1.6600435   0.19479371   -3.2831613    1.6231178  1083367 
 4167000    1.3324988    -3.281858   -1.6605849   0.19404436    -3.281858    1.6212731  1083446 
 4168000    1.3339095   -3.2840371   -1.6611435   0.19341214   -3.2840371    1.6228936  1083510 
 4169000     1.332927   -3.2831764   -1.6615934   0.19321938   -3.2831764     1.621583  1083587 
 4170000    1.3316519   -3.2820293   -1.6620767   0.19127851   -3.2820293    1.6199526  1083640 
 4171000    1.3321796   -3.2825942   -1.6621238    0.1977152   -3.2825942    1.6204704  1083723 
 4172000    1.3324561   -3.2832719   -1.6625862     0.195661   -3.2832719    1.6206857  1083804 
 4173000    1.3331614   -3.2835994   -1.6621815   0.19424215   -3.2835994    1.6214179  1083888 
 4174000    1.3337907   -3.2849318   -1.6628594   0.19358406   -3.2849318    1.6220724  1083962 
 4175000    1.3336712   -3.2844673   -1.6626448   0.19529638   -3.2844673    1.6218225  1084032 
 4176000    1.3334361   -3.2854682    -1.664017   0.19694421   -3.2854682    1.6214512  1084089 
 4177000    1.3333653   -3.2847469   -1.6635283   0.19635886   -3.2847469    1.6212186  1084187 
 4178000    1.3345741   -3.2857844   -1.6632142   0.19363965   -3.2857844    1.6225702  1084266 
 4179000    1.3344918   -3.2851356   -1.6627717   0.19481789   -3.2851356    1.6223639  1084337 
 4180000    1.3353909   -3.2862588   -1.6628843    0.1940396   -3.2862588    1.6233746  1084392 
 4181000    1.3353013   -3.2861505   -1.6629612   0.19515573   -3.2861505    1.6231893  1084443 
 4182000    1.3341523    -3.285245   -1.6635676    0.1990644    -3.285245    1.6216775  1084520 
 4183000    1.3341377   -3.2856232   -1.6640846   0.19252321   -3.2856232    1.6215386  1084601 
 4184000    1.3343884   -3.2857133   -1.6639927   0.19411194   -3.2857133    1.6217206  1084683 
 4185000    1.3339877   -3.2856909   -1.6645634   0.19546747   -3.2856909    1.6211276  1084754 
 4186000    1.3343583   -3.2860755   -1.6646007     0.192815   -3.2860755    1.6214748  1084823 
 4187000    1.3348007   -3.2866051   -1.6647019   0.19568265   -3.2866051    1.6219032  1084896 
 4188000    1.3336139   -3.2849302    -1.664572   0.19144124   -3.2849302    1.6203582  1084965 
 4189000    1.3352613   -3.2866099   -1.6643772   0.19238126   -3.2866099    1.6222327  1085050 
 4190000    1.3349432   -3.2869222   -1.6651776   0.19497947   -3.2869222    1.6217446  1085118 
 4191000    1.3342348   -3.2865343   -1.6657684    0.1911472   -3.2865343    1.6207659  1085197 
 4192000    1.3338914   -3.2860813   -1.6658474   0.19886971   -3.2860813    1.6202339  1085274 
 4193000    1.3339108   -3.2863941   -1.6662381   0.19275084   -3.2863941    1.6201559  1085342 
 4194000    1.3329611   -3.2853311   -1.6664391   0.19381417   -3.2853311     1.618892  1085416 
 4195000    1.3360127   -3.2882639   -1.6657793   0.19406576   -3.2882639    1.6224846  1085492 
 4196000     1.335484   -3.2875554     -1.66581   0.19316611   -3.2875554    1.6217454  1085557 
 4197000    1.3351191    -3.287255   -1.6660348   0.19483643    -3.287255    1.6212201  1085612 
 4198000    1.3344707   -3.2870686   -1.6667388   0.19665233   -3.2870686    1.6203298  1085681 
 4199000    1.3344554   -3.2871128   -1.6669433   0.19767839   -3.2871128    1.6201695  1085776 
 4200000    1.3355232   -3.2879087   -1.6665488    0.1960514   -3.2879087    1.6213599  1085847 
 4201000    1.3359239   -3.2889265   -1.6671727   0.19128832   -3.2889265    1.6217538  1085909 
 4202000    1.3363731   -3.2887807   -1.6665981   0.19726659   -3.2887807    1.6221826  1085987 
 4203000    1.3356385   -3.2882645   -1.6670886   0.19849428   -3.2882645    1.6211759  1086064 
 4204000    1.3352009    -3.288085   -1.6675491    0.1972434    -3.288085    1.6205359  1086137 
 4205000    1.3365136   -3.2903001   -1.6682682   0.19300947   -3.2903001    1.6220319  1086202 
 4206000    1.3355113   -3.2890751   -1.6683744   0.19788174   -3.2890751    1.6207006  1086279 
 4207000    1.3372813   -3.2904974   -1.6677414   0.19658698   -3.2904974     1.622756  1086341 
 4208000    1.3361365   -3.2897132    -1.668427   0.20221931   -3.2897132    1.6212862  1086395 
 4209000    1.3362834   -3.2899946   -1.6686465   0.19506162   -3.2899946    1.6213481  1086473 
 4210000    1.3373795   -3.2913036   -1.6687391   0.19671532   -3.2913036    1.6225645  1086549 
 4211000     1.337136   -3.2905514   -1.6683838   0.19528986   -3.2905514    1.6221676  1086617 
 4212000    1.3373951   -3.2919962   -1.6696084   0.19466806   -3.2919962    1.6223878  1086680 
 4213000     1.337058   -3.2913736   -1.6694843   0.19429239   -3.2913736    1.6218893  1086740 
 4214000    1.3358602   -3.2903268   -1.6699978   0.19770757   -3.2903268    1.6203291  1086812 
 4215000    1.3365693   -3.2908605   -1.6697683   0.19538592   -3.2908605    1.6210922  1086877 
 4216000    1.3366955   -3.2908284   -1.6696711   0.19508517   -3.2908284    1.6211572  1086936 
 4217000    1.3373881   -3.2916147   -1.6697532   0.19725405   -3.2916147    1.6218615  1087027 
 4218000    1.3363332   -3.2904499   -1.6699914    0.1984289   -3.2904499    1.6204585  1087110 
 4219000     1.336659   -3.2908125   -1.6700425   0.19482938   -3.2908125      1.62077  1087166 
 4220000    1.3369431   -3.2908582   -1.6698541   0.19256188   -3.2908582    1.6210042  1087240 
 4221000    1.3378965   -3.2920446   -1.6700143   0.19213336   -3.2920446    1.6220303  1087327 
 4222000    1.3372645     -3.29063   -1.6694613   0.19786158     -3.29063    1.6211687  1087391 
 4223000    1.3378423   -3.2920118   -1.6702441   0.19451788   -3.2920118    1.6217677  1087459 
 4224000    1.3370908   -3.2910604   -1.6702812   0.19729802   -3.2910604    1.6207792  1087511 
 4225000    1.3372875   -3.2911819   -1.6702656   0.19425904   -3.2911819    1.6209163  1087579 
 4226000    1.3370641    -3.290692   -1.6701537   0.19601172    -3.290692    1.6205383  1087651 
 4227000    1.3382355   -3.2912334   -1.6693827   0.19493852   -3.2912334    1.6218506  1087723 
 4228000    1.3380642   -3.2912495   -1.6697079   0.20035551   -3.2912495    1.6215416  1087791 
 4229000    1.3381449   -3.2908559   -1.6693163    0.1970275   -3.2908559    1.6215396  1087858 
 4230000    1.3389417   -3.2920753   -1.6696611     0.194251   -3.2920753    1.6224142  1087919 
 4231000    1.3389592   -3.2925902   -1.6702547   0.19468424   -3.2925902    1.6223354  1087986 
 4232000    1.3390212   -3.2924065   -1.6701047   0.19432078   -3.2924065    1.6223018  1088059 
 4233000    1.3391907   -3.2921432   -1.6697315   0.19883099   -3.2921432    1.6224117  1088123 
 4234000     1.337915   -3.2916588   -1.6708998   0.19838082   -3.2916588     1.620759  1088195 
 4235000    1.3380867   -3.2919614   -1.6711017   0.19794294   -3.2919614    1.6208596  1088267 
 4236000    1.3382371   -3.2921829   -1.6712453   0.19896533   -3.2921829    1.6209377  1088337 
 4237000    1.3392383   -3.2928022   -1.6707621   0.19878463   -3.2928022    1.6220401  1088411 
 4238000     1.338394   -3.2923937   -1.6714909   0.20249366   -3.2923937    1.6209027  1088488 
 4239000    1.3401702    -3.293324   -1.6703923   0.19507637    -3.293324    1.6229316  1088570 
 4240000    1.3392958   -3.2930937   -1.6713267   0.19584954   -3.2930937     1.621767  1088641 
 4241000    1.3390286   -3.2934281   -1.6720637   0.19782453   -3.2934281    1.6213644  1088694 
 4242000    1.3389785   -3.2935919   -1.6723968   0.19702357   -3.2935919    1.6211951  1088767 
 4243000    1.3392602   -3.2937597   -1.6723337   0.19588635   -3.2937597     1.621426  1088841 
 4244000    1.3389845   -3.2937014   -1.6727179   0.19796463   -3.2937014    1.6209835  1088914 
 4245000    1.3389631   -3.2931342   -1.6723001   0.19893798   -3.2931342    1.6208341  1088997 
 4246000    1.3388687   -3.2932578    -1.672654    0.1974676   -3.2932578    1.6206037  1089075 
 4247000    1.3401256   -3.2946782   -1.6726574     0.200069   -3.2946782    1.6220208  1089145 
 4248000    1.3410335   -3.2956464   -1.6726474    0.1927257   -3.2956464     1.622999  1089226 
 4249000    1.3397214   -3.2946799   -1.6733731   0.19423299   -3.2946799    1.6213069  1089296 
 4250000    1.3407462   -3.2953518   -1.6729149   0.19291101   -3.2953518    1.6224369  1089370 
 4251000    1.3407462   -3.2950816   -1.6727356   0.19962517   -3.2950816    1.6223459  1089431 
 4252000    1.3401144   -3.2944787   -1.6730148   0.20083791   -3.2944787    1.6214639  1089510 
 4253000    1.3411029   -3.2950123   -1.6724417   0.19730596   -3.2950123    1.6225706  1089570 
 4254000    1.3410782   -3.2952327   -1.6727903   0.19571847   -3.2952327    1.6224424  1089636 
 4255000    1.3417431   -3.2958438   -1.6726983   0.19633314   -3.2958438    1.6231455  1089704 
 4256000    1.3414539   -3.2951444   -1.6724575   0.20014718   -3.2951444    1.6226869  1089777 
 4257000    1.3403252   -3.2948218   -1.6736029   0.19885915   -3.2948218     1.621219  1089846 
 4258000    1.3416407   -3.2966272    -1.673902   0.19533846   -3.2966272    1.6227252  1089903 
 4259000    1.3402417   -3.2947429   -1.6738109   0.19951881   -3.2947429    1.6209321  1089971 
 4260000    1.3401743   -3.2949866   -1.6742268   0.20009555   -3.2949866    1.6207598  1090032 
 4261000    1.3416801   -3.2965188   -1.6740317   0.19612221   -3.2965188    1.6224871  1090095 
 4262000    1.3425272   -3.2972478   -1.6738345   0.20056585   -3.2972478    1.6234133  1090161 
 4263000    1.3422705   -3.2965896   -1.6735746   0.20422894   -3.2965896     1.623015  1090220 
 4264000    1.3413854   -3.2954007   -1.6735541   0.20103939   -3.2954007    1.6218466  1090286 
 4265000    1.3425878   -3.2973056   -1.6740991   0.19856382   -3.2973056    1.6232066  1090349 
 4266000    1.3415205   -3.2959491     -1.67414   0.19882559   -3.2959491    1.6218091  1090421 
 4267000    1.3429916   -3.2978827   -1.6744098   0.19728904   -3.2978827     1.623473  1090498 
 4268000    1.3421388   -3.2967936   -1.6744572   0.20113398   -3.2967936    1.6223364  1090569 
 4269000    1.3425051   -3.2976317   -1.6749507   0.19721335   -3.2976317    1.6226809  1090635 
 4270000    1.3432892   -3.2977769    -1.674245   0.20025903   -3.2977769     1.623532  1090700 
 4271000    1.3432998   -3.2979509   -1.6745207   0.19656546   -3.2979509    1.6234302  1090777 
 4272000     1.341663   -3.2964501   -1.6750947   0.20038467   -3.2964501    1.6213554  1090842 
 4273000    1.3424006   -3.2972698   -1.6751242    0.2018511   -3.2972698    1.6221456  1090910 
 4274000     1.341232   -3.2954559   -1.6748308   0.20193069   -3.2954559    1.6206251  1090983 
 4275000    1.3428903    -3.297532   -1.6750028   0.19946669    -3.297532    1.6225292  1091050 
 4276000    1.3421772    -3.296897    -1.675329   0.20094189    -3.296897     1.621568  1091117 
 4277000    1.3425343   -3.2977193   -1.6758225   0.20079296   -3.2977193    1.6218969  1091186 
 4278000    1.3437802   -3.2986308   -1.6753106   0.20080557   -3.2986308    1.6233202  1091241 
 4279000    1.3435517    -3.298076   -1.6751434   0.20681011    -3.298076    1.6229326  1091316 
 4280000    1.3433125   -3.2982252   -1.6756945   0.20183983   -3.2982252    1.6225307  1091392 
 4281000    1.3439031    -3.298099   -1.6749725   0.20200384    -3.298099    1.6231265  1091471 
 4282000    1.3432532   -3.2982637   -1.6760157    0.2008068   -3.2982637     1.622248  1091534 
 4283000    1.3445616   -3.2993227    -1.675612   0.20358083   -3.2993227    1.6237107  1091613 
 4284000    1.3440317   -3.2985182   -1.6755486   0.19996104   -3.2985182    1.6229696  1091681 
 4285000    1.3443782   -3.2994619   -1.6761764   0.20250544   -3.2994619    1.6232855  1091750 
 4286000    1.3445207   -3.2991573   -1.6758143   0.20058738   -3.2991573     1.623343  1091827 
 4287000    1.3442488   -3.2986921   -1.6757814    0.2001174   -3.2986921    1.6229107  1091897 
 4288000    1.3445452   -3.2989221   -1.6757399   0.19895468   -3.2989221    1.6231823  1091955 
 4289000    1.3435726   -3.2979533   -1.6760492   0.20273549   -3.2979533    1.6219041  1092025 
 4290000    1.3448232    -3.299732   -1.6764431   0.19703871    -3.299732    1.6232889  1092109 
 4291000    1.3440283    -3.298999   -1.6767706   0.19717765    -3.298999    1.6222284  1092177 
 4292000    1.3451234   -3.3002337    -1.676795   0.20126989   -3.3002337    1.6234387  1092252 
 4293000    1.3447116   -3.2994869    -1.676658   0.20093634   -3.2994869    1.6228288  1092328 
 4294000     1.344442   -3.2995343   -1.6771303   0.19963473   -3.2995343     1.622404  1092395 
 4295000    1.3452575   -3.3000633   -1.6767882   0.19826707   -3.3000633    1.6232751  1092471 
 4296000    1.3453761   -3.3002445   -1.6769258   0.20042824   -3.3002445    1.6233187  1092538 
 4297000    1.3462453   -3.3011659   -1.6768922    0.2022354   -3.3011659    1.6242737  1092601 
 4298000    1.3456908    -3.300763   -1.6772623    0.1982848    -3.300763    1.6235007  1092671 
 4299000    1.3439581    -3.299312   -1.6780011   0.20123421    -3.299312    1.6213109  1092738 
 4300000    1.3443882    -3.300024   -1.6782907   0.19510377    -3.300024    1.6217333  1092803 
 4301000     1.345536   -3.3011818     -1.67815   0.19997052   -3.3011818    1.6230318  1092861 
 4302000     1.345522   -3.3012488   -1.6783601   0.20097565   -3.3012488    1.6228887  1092946 
 4303000    1.3458111   -3.3011978    -1.678048   0.19922312   -3.3011978    1.6231498  1093005 
 4304000     1.346414   -3.3016167   -1.6778439    0.2004469   -3.3016167    1.6237729  1093075 
 4305000    1.3457954   -3.3013634   -1.6784227   0.20038654   -3.3013634    1.6229407  1093133 
 4306000    1.3456327   -3.3014042    -1.678771   0.20331365   -3.3014042    1.6226332  1093208 
 4307000    1.3460077   -3.3018423   -1.6788238   0.20468785   -3.3018423    1.6230186  1093253 
 4308000    1.3469789   -3.3034558   -1.6793805   0.19996133   -3.3034558    1.6240753  1093330 
 4309000    1.3464298   -3.3035736   -1.6802762   0.20035423   -3.3035736    1.6232974  1093408 
 4310000     1.346068   -3.3030292   -1.6802808    0.2042936   -3.3030292    1.6227484  1093484 
 4311000    1.3458413   -3.3026574   -1.6802935   0.19809951   -3.3026574    1.6223639  1093559 
 4312000    1.3454722   -3.3019752   -1.6801808   0.19847742   -3.3019752    1.6217944  1093643 
 4313000    1.3465035   -3.3031229   -1.6801908    0.2026744   -3.3031229    1.6229321  1093714 
 4314000    1.3465033   -3.3031066   -1.6802921   0.19854414   -3.3031066    1.6228146  1093793 
 4315000    1.3468812    -3.303965   -1.6807751   0.20017024    -3.303965    1.6231899  1093847 
 4316000    1.3456298   -3.3027294    -1.681147   0.20358655   -3.3027294    1.6215824  1093914 
 4317000    1.3470711   -3.3046753   -1.6814524   0.19737758   -3.3046753    1.6232228  1093979 
 4318000    1.3470884   -3.3040801   -1.6809431    0.2031045   -3.3040801    1.6231369  1094051 
 4319000    1.3460426   -3.3038134   -1.6820315   0.20485829   -3.3038134    1.6217819  1094115 
 4320000    1.3472047   -3.3045216   -1.6814492   0.20024912   -3.3045216    1.6230724  1094189 
 4321000    1.3470493   -3.3047966   -1.6820137   0.20144264   -3.3047966    1.6227828  1094258 
 4322000     1.347655   -3.3057537   -1.6823421   0.19852164   -3.3057537    1.6234116  1094326 
 4323000    1.3472025   -3.3052483   -1.6824752   0.20013505   -3.3052483     1.622773  1094389 
 4324000    1.3477797   -3.3056443   -1.6822769   0.20085959   -3.3056443    1.6233675  1094457 
 4325000    1.3463705   -3.3045841   -1.6830207   0.20350307   -3.3045841    1.6215635  1094529 
 4326000    1.3469457   -3.3048912   -1.6827328   0.20092009   -3.3048912    1.6221584  1094595 
 4327000    1.3480674   -3.3061478   -1.6827319   0.20252908   -3.3061478    1.6234159  1094658 
 4328000    1.3472594   -3.3054661   -1.6831315   0.20431554   -3.3054661    1.6223346  1094731 
 4329000      1.34762   -3.3056404   -1.6829887   0.20514868   -3.3056404    1.6226517  1094810 
 4330000    1.3482561   -3.3059996   -1.6826739   0.20391477   -3.3059996    1.6233258  1094872 
 4331000    1.3466289   -3.3039945   -1.6827375   0.20477361   -3.3039945     1.621257  1094946 
 4332000     1.348364   -3.3055288   -1.6823192   0.20277267   -3.3055288    1.6232095  1095038 
 4333000    1.3480739   -3.3054089   -1.6826464     0.204353   -3.3054089    1.6227625  1095104 
 4334000    1.3473637   -3.3043274   -1.6825117   0.20290317   -3.3043274    1.6218157  1095166 
 4335000    1.3488053   -3.3062568   -1.6828007   0.20086661   -3.3062568    1.6234561  1095230 
 4336000    1.3483133   -3.3057269   -1.6829652   0.20532081   -3.3057269    1.6227617  1095299 
 4337000    1.3487124   -3.3061318   -1.6829772   0.20204345   -3.3061318    1.6231546  1095358 
 4338000    1.3484182   -3.3062577   -1.6835431    0.1992591   -3.3062577    1.6227146  1095416 
 4339000    1.3495921   -3.3077114   -1.6836775   0.20232889   -3.3077114    1.6240339  1095479 
 4340000    1.3486734   -3.3066471    -1.683818   0.20538659   -3.3066471    1.6228292  1095546 
 4341000    1.3487563   -3.3065416   -1.6837178   0.20040153   -3.3065416    1.6228238  1095617 
 4342000    1.3479005   -3.3053416   -1.6836275   0.20458421   -3.3053416    1.6217141  1095671 
 4343000    1.3493151   -3.3066017   -1.6832745   0.19967342   -3.3066017    1.6233272  1095731 
 4344000    1.3480728   -3.3056557   -1.6839355   0.20407907   -3.3056557    1.6217201  1095807 
 4345000    1.3497999   -3.3070344   -1.6833418   0.20117186   -3.3070344    1.6236926  1095878 
 4346000    1.3501149   -3.3082861   -1.6843302   0.20133917   -3.3082861     1.623956  1095956 
 4347000    1.3498434    -3.307539   -1.6839896   0.20420873    -3.307539    1.6235494  1096010 
 4348000    1.3493241   -3.3069308   -1.6840978   0.20566387   -3.3069308     1.622833  1096072 
 4349000    1.3490924   -3.3063742    -1.683919   0.20367617   -3.3063742    1.6224552  1096139 
 4350000    1.3493214   -3.3066552   -1.6840164   0.20410301   -3.3066552    1.6226388  1096201 
 4351000    1.3489194   -3.3067642   -1.6846946   0.20364026   -3.3067642    1.6220695  1096259 
 4352000    1.3505344   -3.3087166   -1.6848102   0.20163117   -3.3087166    1.6239064  1096330 
 4353000      1.34965   -3.3075976   -1.6848346   0.20273864   -3.3075976     1.622763  1096384 
 4354000    1.3497214   -3.3080581   -1.6853321   0.20021507   -3.3080581     1.622726  1096467 
 4355000    1.3487841   -3.3073953   -1.6858893   0.20766571   -3.3073953     1.621506  1096530 
 4356000    1.3499064   -3.3083609   -1.6855871   0.20084878   -3.3083609    1.6227738  1096585 
 4357000    1.3497494   -3.3081606   -1.6856791   0.20310431   -3.3081606    1.6224815  1096655 
 4358000    1.3503288   -3.3093637   -1.6862953   0.20216573   -3.3093637    1.6230684  1096729 
 4359000    1.3508091   -3.3085517   -1.6850052   0.20352496   -3.3085517    1.6235465  1096796 
 4360000     1.351275    -3.309055   -1.6850491   0.20324495    -3.309055    1.6240059  1096864 
 4361000    1.3515353   -3.3100682    -1.685862   0.20334633   -3.3100682    1.6242062  1096940 
 4362000    1.3515722   -3.3102494   -1.6860906   0.20125571   -3.3102494    1.6241587  1097002 
 4363000    1.3518409   -3.3112097   -1.6868081   0.19896822   -3.3112097    1.6244016  1097056 
 4364000     1.350837   -3.3100961   -1.6869822   0.19935444   -3.3100961     1.623114  1097111 
 4365000    1.3503729   -3.3103241    -1.687861   0.20196283   -3.3103241    1.6224631  1097174 
 4366000    1.3505183   -3.3109074   -1.6883524   0.20175015   -3.3109074     1.622555  1097230 
 4367000    1.3514384   -3.3117809   -1.6881959    0.2002053   -3.3117809     1.623585  1097281 
 4368000    1.3513319   -3.3112407   -1.6878606   0.20280416   -3.3112407    1.6233801  1097333 
 4369000    1.3524049   -3.3120978   -1.6875265   0.20098171   -3.3120978    1.6245713  1097399 
 4370000    1.3512926   -3.3121154   -1.6889614   0.20757767   -3.3121154    1.6231539  1097454 
 4371000    1.3521861   -3.3131002   -1.6889781   0.20052162   -3.3131002    1.6241221  1097525 
 4372000    1.3506438   -3.3113903    -1.689199   0.20146583   -3.3113903    1.6221913  1097578 
 4373000    1.3511595   -3.3116642   -1.6889467   0.20207449   -3.3116642    1.6227175  1097641 
 4374000    1.3501985   -3.3106197   -1.6891508   0.20325665   -3.3106197    1.6214689  1097705 
 4375000    1.3519943   -3.3116474   -1.6881195   0.20244068   -3.3116474    1.6235279  1097771 
 4376000    1.3518816   -3.3126114   -1.6893076   0.20119513   -3.3126114    1.6233038  1097831 
 4377000    1.3510492   -3.3112863   -1.6890649    0.2042609   -3.3112863    1.6222214  1097887 
 4378000    1.3524925   -3.3129076   -1.6890597   0.20200468   -3.3129076     1.623848  1097959 
 4379000    1.3510958   -3.3113964   -1.6893273    0.2055106   -3.3113964    1.6220691  1098028 
 4380000    1.3511649   -3.3109325   -1.6888809   0.20820157   -3.3109325    1.6220516  1098096 
 4381000    1.3520998   -3.3118632   -1.6887882   0.20460756   -3.3118632     1.623075  1098163 
 4382000     1.352187   -3.3116241   -1.6885288   0.19751592   -3.3116241    1.6230953  1098220 
 4383000    1.3520943    -3.311208   -1.6883244   0.20490289    -3.311208    1.6228836  1098288 
 4384000    1.3521272   -3.3113573   -1.6885303   0.20541913   -3.3113573     1.622827  1098353 
 4385000    1.3522802   -3.3124222   -1.6894957   0.20195785   -3.3124222    1.6229265  1098410 
 4386000    1.3523644   -3.3121593   -1.6892278   0.20154293   -3.3121593    1.6229315  1098475 
 4387000    1.3527499   -3.3126589   -1.6893743   0.20446904   -3.3126589    1.6232847  1098549 
 4388000    1.3524402   -3.3121285   -1.6893173   0.20490094   -3.3121285    1.6228112  1098618 
 4389000    1.3534189   -3.3133846   -1.6894936    0.2010825   -3.3133846     1.623891  1098682 
 4390000     1.353114   -3.3133863   -1.6899735   0.20212584   -3.3133863    1.6234128  1098758 
 4391000    1.3540318   -3.3139341   -1.6894985   0.20509404   -3.3139341    1.6244356  1098811 
 4392000    1.3536378    -3.313363   -1.6894726   0.20596119    -3.313363    1.6238905  1098860 
 4393000    1.3540343   -3.3138491   -1.6895761   0.20437111   -3.3138491     1.624273  1098923 
 4394000    1.3540389   -3.3137055   -1.6895333   0.19926851   -3.3137055    1.6241722  1098995 
 4395000    1.3522016   -3.3118531   -1.6900044   0.20585736   -3.3118531    1.6218487  1099076 
 4396000    1.3533673   -3.3130107   -1.6898406   0.20249486   -3.3130107    1.6231701  1099128 
 4397000    1.3543081   -3.3138865   -1.6896811   0.19985909   -3.3138865    1.6242054  1099191 
 4398000    1.3537263   -3.3130608   -1.6896285   0.20397215   -3.3130608    1.6234323  1099242 
 4399000    1.3548247   -3.3144188   -1.6897668   0.20397437   -3.3144188     1.624652  1099308 
 4400000    1.3544737   -3.3139239   -1.6897903   0.20729429   -3.3139239    1.6241336  1099374 
 4401000    1.3549694   -3.3141549   -1.6895378   0.20376255   -3.3141549    1.6246171  1099449 
 4402000     1.353876   -3.3135132   -1.6902956   0.20485352   -3.3135132    1.6232176  1099509 
 4403000    1.3550649    -3.315732   -1.6911791   0.20028377    -3.315732    1.6245529  1099570 
 4404000    1.3548051   -3.3149607   -1.6908109    0.2037498   -3.3149607    1.6241498  1099632 
 4405000    1.3545364   -3.3150251   -1.6912904   0.20624926   -3.3150251    1.6237347  1099695 
 4406000    1.3539224   -3.3139305   -1.6910411   0.20390769   -3.3139305    1.6228894  1099769 
 4407000    1.3545595   -3.3145859   -1.6910214   0.20605825   -3.3145859    1.6235644  1099829 
 4408000    1.3558057    -3.315348   -1.6903815   0.20218031    -3.315348    1.6249666  1099891 
 4409000    1.3560372   -3.3158967   -1.6907413   0.20390488   -3.3158967    1.6251554  1099951 
 4410000    1.3553124   -3.3141017    -1.689933   0.21012793   -3.3141017    1.6241686  1100031 
 4411000    1.3565403   -3.3155258   -1.6899655   0.20871372   -3.3155258    1.6255603  1100085 
 4412000       1.3572   -3.3157471   -1.6894909   0.20695795   -3.3157471    1.6262562  1100149 
 4413000    1.3569477    -3.315854   -1.6899888   0.20384477    -3.315854    1.6258652  1100209 
 4414000    1.3569872   -3.3158533   -1.6900412    0.2070204   -3.3158533    1.6258121  1100277 
 4415000    1.3555022   -3.3148548   -1.6909179   0.20798021   -3.3148548    1.6239369  1100342 
 4416000     1.354706   -3.3144917   -1.6915867   0.20768861   -3.3144917     1.622905  1100395 
 4417000    1.3557672   -3.3156954   -1.6915856   0.20187365   -3.3156954    1.6241098  1100440 
 4418000    1.3566037   -3.3162743    -1.691254   0.20329646   -3.3162743    1.6250203  1100502 
 4419000    1.3568479   -3.3163816   -1.6911442   0.20393448   -3.3163816    1.6252374  1100553 
 4420000    1.3563533   -3.3164456   -1.6918846   0.20773531   -3.3164456     1.624561  1100610 
 4421000    1.3559905   -3.3159327   -1.6918978   0.20045315   -3.3159327    1.6240349  1100672 
 4422000    1.3549977   -3.3156676   -1.6929102   0.20963533   -3.3156676    1.6227574  1100732 
 4423000    1.3556915   -3.3159358   -1.6924507   0.20530184   -3.3159358     1.623485  1100802 
 4424000     1.355645   -3.3169461   -1.6935964   0.20187307   -3.3169461    1.6233497  1100856 
 4425000    1.3559803   -3.3164894   -1.6928238     0.208542   -3.3164894    1.6236657  1100914 
 4426000    1.3576049    -3.318384   -1.6928645   0.20368448    -3.318384    1.6255195  1100976 
 4427000    1.3556664   -3.3167496   -1.6936411   0.20299229   -3.3167496    1.6231085  1101037 
 4428000    1.3560708   -3.3168267   -1.6933447   0.20679953   -3.3168267    1.6234821  1101112 
 4429000    1.3564669   -3.3171318   -1.6932639   0.20840269   -3.3171318    1.6238678  1101172 
 4430000     1.356935   -3.3174242   -1.6930845   0.20802622   -3.3174242    1.6243397  1101232 
 4431000    1.3572003   -3.3177994    -1.693238   0.20656808   -3.3177994    1.6245614  1101297 
 4432000    1.3576327   -3.3189976    -1.694016   0.20677731   -3.3189976    1.6249816  1101363 
 4433000    1.3581984   -3.3194638    -1.693873   0.20465424   -3.3194638    1.6255908  1101409 
 4434000    1.3565139   -3.3180368   -1.6945639   0.20793698   -3.3180368    1.6234729  1101478 
 4435000    1.3582845   -3.3197227   -1.6942148   0.20447674   -3.3197227    1.6255079  1101535 
 4436000    1.3565842   -3.3177868   -1.6944184   0.21033452   -3.3177868    1.6233684  1101606 
 4437000    1.3556322   -3.3174833   -1.6953439   0.20860713   -3.3174833    1.6221393  1101667 
 4438000    1.3566394   -3.3193599   -1.6961038   0.20798783   -3.3193599    1.6232562  1101727 
 4439000    1.3564537   -3.3193425   -1.6963866   0.20619323   -3.3193425    1.6229559  1101780 
 4440000    1.3562181   -3.3196201   -1.6970535   0.20614168   -3.3196201    1.6225665  1101853 
 4441000    1.3559518   -3.3189782    -1.696826   0.20897559   -3.3189782    1.6221522  1101918 
 4442000    1.3570632   -3.3204204   -1.6970241   0.20547045   -3.3204204    1.6233963  1101976 
 4443000    1.3565935   -3.3189916   -1.6962543   0.21257853   -3.3189916    1.6227372  1102042 
 4444000    1.3578473    -3.321341   -1.6972042   0.20082431    -3.321341    1.6241368  1102110 
 4445000     1.357338   -3.3214103    -1.697974   0.20436698   -3.3214103    1.6234363  1102172 
 4446000    1.3580045   -3.3208462   -1.6966952   0.20157236   -3.3208462     1.624151  1102228 
 4447000    1.3575379   -3.3204251   -1.6969279   0.20499632   -3.3204251    1.6234972  1102293 
 4448000      1.35833   -3.3214144   -1.6970583   0.20621431   -3.3214144     1.624356  1102353 
 4449000    1.3583473   -3.3215231   -1.6972245   0.20186419   -3.3215231    1.6242986  1102406 
 4450000     1.357284   -3.3203719   -1.6974331   0.20624982   -3.3203719    1.6229388  1102466 
 4451000    1.3576967   -3.3207615    -1.697447   0.20705022   -3.3207615    1.6233145  1102546 
 4452000    1.3577836   -3.3204443    -1.697126   0.20312935   -3.3204443    1.6233183  1102614 
 4453000     1.357527   -3.3204798   -1.6975522   0.20683558   -3.3204798    1.6229276  1102671 
 4454000    1.3577612   -3.3215501   -1.6984353   0.20862901   -3.3215501    1.6231148  1102734 
 4455000    1.3577279     -3.32112   -1.6981362   0.20652515     -3.32112    1.6229838  1102796 
 4456000    1.3573417   -3.3215457   -1.6991104   0.20396605   -3.3215457    1.6224353  1102855 
 4457000    1.3570021   -3.3220946   -1.7001607   0.20425718   -3.3220946    1.6219339  1102920 
 4458000    1.3579551   -3.3225193   -1.6995509   0.20190689   -3.3225193    1.6229684  1102991 
 4459000    1.3581365    -3.322937   -1.6998489   0.20648681    -3.322937     1.623088  1103057 
 4460000    1.3587042   -3.3232696   -1.6995914   0.20339532   -3.3232696    1.6236783  1103117 
 4461000     1.358512   -3.3222187   -1.6988614   0.20387174   -3.3222187    1.6233574  1103179 
 4462000    1.3585054   -3.3225184    -1.699247   0.20676745   -3.3225184    1.6232715  1103232 
 4463000    1.3583441   -3.3218761   -1.6988871   0.20811887   -3.3218761     1.622989  1103293 
 4464000    1.3586863   -3.3226009   -1.6993031   0.20873859   -3.3226009    1.6232978  1103361 
 4465000    1.3589574   -3.3233722   -1.6998359   0.20648574   -3.3233722    1.6235363  1103419 
 4466000     1.358282   -3.3225975   -1.6999593   0.20705083   -3.3225975    1.6226382  1103481 
 4467000    1.3591453   -3.3234372   -1.6998529   0.21016995   -3.3234372    1.6235843  1103539 
 4468000    1.3600035   -3.3243554   -1.6998387   0.20915883   -3.3243554    1.6245167  1103602 
 4469000    1.3604488   -3.3248502   -1.6998959   0.20505407   -3.3248502    1.6249543  1103666 
 4470000    1.3592469   -3.3232851   -1.6998443   0.21164594   -3.3232851    1.6234409  1103719 
 4471000    1.3594037   -3.3236308   -1.7001086    0.2066462   -3.3236308    1.6235222  1103791 
 4472000    1.3597414   -3.3239673   -1.7001257   0.20767873   -3.3239673    1.6238416  1103848 
 4473000    1.3595245   -3.3230205   -1.6995378   0.20638092   -3.3230205    1.6234827  1103916 
 4474000    1.3598338   -3.3240198   -1.7002635   0.20375829   -3.3240198    1.6237563  1103981 
 4475000     1.359467   -3.3230044   -1.6997802   0.20906678   -3.3230044    1.6232243  1104045 
 4476000     1.360838    -3.325125   -1.7003491    0.2052464    -3.325125    1.6247759  1104103 
 4477000    1.3587568   -3.3231126   -1.7009186   0.20835975   -3.3231126     1.622194  1104169 
 4478000    1.3599061   -3.3247127   -1.7012391   0.20954714   -3.3247127    1.6234736  1104232 
 4479000    1.3598535   -3.3242833   -1.7009813   0.20783992   -3.3242833     1.623302  1104306 
 4480000    1.3602213   -3.3241632   -1.7005133   0.20470159   -3.3241632    1.6236499  1104368 
 4481000    1.3620447   -3.3260835   -1.7003395   0.20436516   -3.3260835    1.6257439  1104424 
 4482000    1.3602648   -3.3239643   -1.7004271   0.20867549   -3.3239643    1.6235372  1104480 
 4483000    1.3617639   -3.3258847   -1.7006613   0.20295576   -3.3258847    1.6252233  1104550 
 4484000    1.3617409   -3.3256669   -1.7005578   0.20657623   -3.3256669    1.6251092  1104609 
 4485000    1.3613733   -3.3248255   -1.7002404   0.20956835   -3.3248255    1.6245851  1104667 
 4486000    1.3609973   -3.3240932   -1.7000581   0.21312981   -3.3240932     1.624035  1104736 
 4487000    1.3612214   -3.3241193   -1.6999316    0.2132556   -3.3241193    1.6241878  1104814 
 4488000    1.3619266   -3.3254962   -1.7005729   0.20571858   -3.3254962    1.6249233  1104886 
 4489000    1.3620125   -3.3259365    -1.701002   0.21163513   -3.3259365    1.6249345  1104948 
 4490000    1.3622644   -3.3257608   -1.7006183   0.21026765   -3.3257608    1.6251425  1105011 
 4491000    1.3613041   -3.3251895   -1.7012721   0.21169843   -3.3251895    1.6239174  1105065 
 4492000    1.3617978   -3.3257124   -1.7012869   0.21117753   -3.3257124    1.6244256  1105120 
 4493000    1.3624481   -3.3265793    -1.701456   0.20724116   -3.3265793    1.6251233  1105173 
 4494000    1.3636302    -3.327178   -1.7007358   0.20686449    -3.327178    1.6264421  1105235 
 4495000    1.3623503   -3.3264404   -1.7016233   0.20844033   -3.3264404    1.6248171  1105302 
 4496000     1.362232   -3.3265301   -1.7019482   0.20877522   -3.3265301    1.6245819  1105366 
 4497000     1.362264   -3.3270538   -1.7025234   0.20731044   -3.3270538    1.6245304  1105427 
 4498000    1.3613005   -3.3263834   -1.7031195   0.21132015   -3.3263834     1.623264  1105507 
 4499000     1.360733   -3.3262831   -1.7037678    0.2061594   -3.3262831    1.6225153  1105556 
 4500000    1.3610235   -3.3266913   -1.7039163    0.2103384   -3.3266913    1.6227751  1105615 
 4501000    1.3620538   -3.3266263   -1.7027035   0.21198339   -3.3266263    1.6239228  1105670 
 4502000    1.3626122   -3.3274161   -1.7029259      0.20728   -3.3274161    1.6244901  1105737 
 4503000     1.361544   -3.3265828   -1.7034528   0.21220455   -3.3265828      1.62313  1105796 
 4504000    1.3619254   -3.3276804   -1.7041882   0.21050234   -3.3276804    1.6234922  1105859 
 4505000    1.3624001    -3.329205   -1.7052218   0.20575269    -3.329205    1.6239832  1105910 
 4506000    1.3613444   -3.3280707   -1.7054296   0.20414941   -3.3280707    1.6226411  1105967 
 4507000    1.3624231    -3.328744   -1.7048965   0.20848932    -3.328744    1.6238476  1106021 
 4508000    1.3631225   -3.3304722   -1.7058777   0.20608295   -3.3304722    1.6245945  1106080 
 4509000    1.3611537   -3.3284656   -1.7062923   0.20601325   -3.3284656    1.6221733  1106131 
 4510000    1.3618203   -3.3294005   -1.7065018   0.20493329   -3.3294005    1.6228987  1106178 
 4511000    1.3624032   -3.3294841    -1.705989   0.20898753   -3.3294841     1.623495  1106245 
 4512000    1.3623831   -3.3301568    -1.706765   0.20931423   -3.3301568    1.6233918  1106299 
 4513000    1.3617322   -3.3289784   -1.7064341   0.20927657   -3.3289784    1.6225443  1106348 
 4514000    1.3617285   -3.3294756   -1.7070442   0.20545813   -3.3294756    1.6224314  1106422 
 4515000    1.3628418   -3.3294542   -1.7057844   0.20582549   -3.3294542    1.6236698  1106482 
 4516000    1.3641095   -3.3301793   -1.7051049   0.21083338   -3.3301793    1.6250744  1106554 
 4517000    1.3632404   -3.3294406   -1.7054868   0.20932956   -3.3294406    1.6239539  1106612 
 4518000    1.3631821    -3.330133   -1.7063366   0.20931583    -3.330133    1.6237964  1106672 
 4519000    1.3621816   -3.3285407   -1.7060445   0.20916362   -3.3285407    1.6224962  1106746 
 4520000     1.362905   -3.3297375   -1.7064545   0.21287215   -3.3297375     1.623283  1106797 
 4521000    1.3625894   -3.3300944   -1.7072694   0.21128822   -3.3300944     1.622825  1106853 
 4522000    1.3621646   -3.3293807   -1.7071291   0.21561056   -3.3293807    1.6222516  1106899 
 4523000    1.3639358    -3.331875    -1.707608   0.20836108    -3.331875    1.6242671  1106963 
 4524000    1.3633215   -3.3313652   -1.7079146   0.20823398   -3.3313652    1.6234506  1107021 
 4525000     1.362627   -3.3315229   -1.7089976    0.2124298   -3.3315229    1.6225252  1107088 
 4526000    1.3626325   -3.3318517   -1.7093976   0.20871568   -3.3318517    1.6224542  1107141 
 4527000    1.3637144   -3.3325337   -1.7088911   0.20737816   -3.3325337    1.6236426  1107209 
 4528000    1.3635954   -3.3331764   -1.7097707   0.20752527   -3.3331764    1.6234057  1107274 
 4529000    1.3619388   -3.3317529   -1.7104147   0.20932657   -3.3317529    1.6213382  1107339 
 4530000    1.3619395   -3.3312865    -1.710028   0.20925083   -3.3312865    1.6212585  1107394 
 4531000    1.3633178   -3.3322783   -1.7094699   0.20981409   -3.3322783    1.6228084  1107456 
 4532000    1.3637863   -3.3329054   -1.7096141   0.20882997   -3.3329054    1.6232913  1107507 
 4533000    1.3626015   -3.3315431   -1.7097528   0.20786062   -3.3315431    1.6217903  1107569 
 4534000    1.3623831   -3.3316362   -1.7101936   0.21164616   -3.3316362    1.6214425  1107629 
 4535000    1.3628136   -3.3319692   -1.7100919   0.20873678   -3.3319692    1.6218773  1107682 
 4536000    1.3647622   -3.3332027   -1.7090827   0.20939842   -3.3332027    1.6241201  1107734 
 4537000    1.3643886   -3.3324751   -1.7088846   0.20979436   -3.3324751    1.6235905  1107792 
 4538000    1.3648739   -3.3332262    -1.709158   0.21056333   -3.3332262    1.6240682  1107860 
 4539000    1.3653361   -3.3337848   -1.7092414   0.20905538   -3.3337848    1.6245434  1107911 
 4540000    1.3654166    -3.334365   -1.7098137   0.20928439    -3.334365    1.6245513  1107971 
 4541000    1.3643657   -3.3335825   -1.7103696   0.21223594   -3.3335825     1.623213  1108031 
 4542000    1.3649413    -3.334237   -1.7104285   0.20819306    -3.334237    1.6238084  1108092 
 4543000    1.3650046   -3.3352944   -1.7114957   0.20601967   -3.3352944    1.6237987  1108150 
 4544000    1.3641269   -3.3342449   -1.7115693   0.21132505   -3.3342449    1.6226755  1108204 
 4545000     1.364182   -3.3344949   -1.7118286    0.2128599   -3.3344949    1.6226664  1108255 
 4546000    1.3640019   -3.3343091   -1.7119374   0.20929713   -3.3343091    1.6223716  1108310 
 4547000    1.3644306   -3.3349082   -1.7121291   0.20968433   -3.3349082    1.6227791  1108380 
 4548000    1.3638244   -3.3341448   -1.7121804   0.21207126   -3.3341448    1.6219644  1108444 
 4549000     1.365168   -3.3350854   -1.7116153   0.20992972   -3.3350854    1.6234701  1108507 
 4550000    1.3642656    -3.333986   -1.7116754   0.21149472    -3.333986    1.6223106  1108566 
 4551000    1.3661203   -3.3362723   -1.7118528   0.21422467   -3.3362723    1.6244194  1108632 
 4552000    1.3668422   -3.3367543   -1.7115689   0.20990616   -3.3367543    1.6251854  1108695 
 4553000    1.3653614   -3.3352898   -1.7119383     0.212823   -3.3352898    1.6233515  1108745 
 4554000    1.3646198   -3.3350972   -1.7126918    0.2120002   -3.3350972    1.6224054  1108789 
 4555000    1.3649606    -3.335069   -1.7123316   0.21102462    -3.335069    1.6227374  1108839 
 4556000    1.3654419   -3.3357218   -1.7124824   0.21155095   -3.3357218    1.6232394  1108887 
 4557000     1.365953   -3.3362496   -1.7125081    0.2115603   -3.3362496    1.6237416  1108959 
 4558000    1.3643569   -3.3344154   -1.7126516   0.20800657   -3.3344154    1.6217638  1109014 
 4559000     1.365631   -3.3350967   -1.7118945   0.21007029   -3.3350967    1.6232021  1109066 
 4560000    1.3663242   -3.3357222    -1.711765   0.20631389   -3.3357222    1.6239572  1109113 
 4561000    1.3653924   -3.3348071   -1.7120466   0.21086433   -3.3348071    1.6227605  1109174 
 4562000    1.3667919   -3.3367059   -1.7123568   0.20774338   -3.3367059    1.6243491  1109225 
 4563000    1.3652088    -3.334816   -1.7124405   0.21152322    -3.334816    1.6223755  1109288 
 4564000    1.3652269   -3.3352175    -1.712895   0.20736319   -3.3352175    1.6223225  1109339 
 4565000    1.3662707   -3.3365143   -1.7130393   0.21137512   -3.3365143     1.623475  1109399 
 4566000    1.3661658   -3.3366206   -1.7133477   0.21072173   -3.3366206    1.6232728  1109452 
 4567000    1.3662969   -3.3363995   -1.7130529   0.21113646   -3.3363995    1.6233467  1109508 
 4568000    1.3657774   -3.3353036   -1.7126561   0.21240934   -3.3353036    1.6226475  1109564 
 4569000    1.3657434   -3.3350965   -1.7125537   0.21139606   -3.3350965    1.6225428  1109608 
 4570000    1.3663532   -3.3361259   -1.7129391   0.21076925   -3.3361259    1.6231868  1109663 
 4571000     1.366372   -3.3361968   -1.7130887   0.20821942   -3.3361968    1.6231082  1109732 
 4572000    1.3661903   -3.3360702   -1.7132773   0.20781411   -3.3360702     1.622793  1109800 
 4573000    1.3668629   -3.3364883   -1.7129856   0.21037472   -3.3364883    1.6235026  1109861 
 4574000    1.3670886   -3.3369479   -1.7132591   0.21175493   -3.3369479    1.6236888  1109917 
 4575000    1.3665592   -3.3368537   -1.7139019    0.2090666   -3.3368537    1.6229518  1109991 
 4576000     1.367543   -3.3375845   -1.7135522   0.21120671   -3.3375845    1.6240323  1110051 
 4577000    1.3657844   -3.3362643   -1.7144226   0.21133004   -3.3362643    1.6218416  1110121 
 4578000    1.3664841   -3.3371116   -1.7145224   0.21158816   -3.3371116    1.6225892  1110178 
 4579000    1.3679293     -3.33883   -1.7146023    0.2081797     -3.33883    1.6242277  1110231 
 4580000    1.3673978   -3.3385772   -1.7150653   0.21191457   -3.3385772    1.6235119  1110289 
 4581000     1.367964   -3.3388433   -1.7147557   0.21350871   -3.3388433    1.6240876  1110355 
 4582000    1.3666398   -3.3377054   -1.7152616   0.21099453   -3.3377054    1.6224438  1110404 
 4583000    1.3667279   -3.3385642   -1.7161297   0.20947503   -3.3385642    1.6224345  1110482 
 4584000    1.3663552   -3.3384458     -1.71654   0.21337315   -3.3384458    1.6219059  1110541 
 4585000    1.3673767   -3.3393079   -1.7162727   0.21130081   -3.3393079    1.6230351  1110598 
 4586000    1.3671589   -3.3396813   -1.7169954   0.21370574   -3.3396813     1.622686  1110660 
 4587000    1.3671224   -3.3387155   -1.7161459   0.21574406   -3.3387155    1.6225696  1110710 
 4588000    1.3670249   -3.3392707   -1.7169103    0.2124785   -3.3392707    1.6223604  1110774 
 4589000    1.3681066   -3.3402429   -1.7166776   0.21362308   -3.3402429    1.6235652  1110828 
 4590000     1.367946    -3.339599    -1.716296   0.21033754    -3.339599     1.623303  1110877 
 4591000    1.3687076   -3.3409784   -1.7168622   0.20967308   -3.3409784    1.6241162  1110939 
 4592000    1.3680011   -3.3405904   -1.7173841   0.21086923   -3.3405904    1.6232062  1110988 
 4593000    1.3672272   -3.3394964   -1.7172843   0.21526842   -3.3394964    1.6222121  1111040 
 4594000    1.3681505   -3.3401606   -1.7169466   0.21583482   -3.3401606     1.623214  1111104 
 4595000    1.3691266   -3.3415227   -1.7172295   0.20998352   -3.3415227    1.6242932  1111158 
 4596000    1.3688847   -3.3406045   -1.7166758   0.21090683   -3.3406045    1.6239287  1111211 
 4597000    1.3679261   -3.3399938   -1.7172928   0.21229542   -3.3399938     1.622701  1111273 
 4598000    1.3675462   -3.3402704    -1.718118   0.21125587   -3.3402704    1.6221525  1111340 
 4599000    1.3678811   -3.3408283   -1.7183749   0.21168428   -3.3408283    1.6224535  1111406 
 4600000    1.3676429   -3.3407465   -1.7186631   0.21104563   -3.3407465    1.6220833  1111466 
 4601000    1.3676809   -3.3405454   -1.7184915   0.20903362   -3.3405454    1.6220539  1111517 
 4602000    1.3670187   -3.3400576   -1.7188692   0.21364803   -3.3400576    1.6211884  1111572 
 4603000    1.3685842   -3.3413682   -1.7184151   0.21105746   -3.3413682     1.622953  1111635 
 4604000    1.3684532    -3.341342   -1.7186203   0.21035694    -3.341342    1.6227217  1111687 
 4605000    1.3684408   -3.3413643   -1.7187566   0.21183973   -3.3413643    1.6226077  1111755 
 4606000    1.3689141   -3.3413421   -1.7182593    0.2108604   -3.3413421    1.6230829  1111814 
 4607000    1.3674484   -3.3397166   -1.7184592   0.21059843   -3.3397166    1.6212575  1111874 
 4608000    1.3680444   -3.3402832   -1.7184168   0.21494388   -3.3402832    1.6218664  1111941 
 4609000    1.3692801   -3.3420022   -1.7187686   0.21012758   -3.3420022    1.6232336  1112008 
 4610000    1.3698301   -3.3434901   -1.7196877   0.20900645   -3.3434901    1.6238024  1112065 
 4611000    1.3685913   -3.3418655    -1.719625    0.2087492   -3.3418655    1.6222405  1112129 
 4612000    1.3681762   -3.3417116   -1.7200272   0.21132428   -3.3417116    1.6216843  1112173 
 4613000    1.3676785   -3.3418562    -1.720839   0.20668695   -3.3418562    1.6210172  1112226 
 4614000    1.3693789    -3.343583   -1.7206264      0.21074    -3.343583    1.6229566  1112278 
 4615000      1.36891   -3.3419278   -1.7196028    0.2133608   -3.3419278    1.6223251  1112330 
 4616000    1.3684727   -3.3432558   -1.7215307    0.2113056   -3.3432558    1.6217251  1112386 
 4617000    1.3699906   -3.3443908   -1.7209339   0.20652546   -3.3443908    1.6234568  1112432 
 4618000    1.3705881   -3.3442148   -1.7201361   0.20987179   -3.3442148    1.6240787  1112491 
 4619000    1.3697289   -3.3438193   -1.7208593   0.21101745   -3.3438193      1.62296  1112560 
 4620000    1.3684033   -3.3425314   -1.7212121   0.21218561   -3.3425314    1.6213193  1112608 
 4621000    1.3689275   -3.3433405   -1.7214789   0.20859058   -3.3433405    1.6218617  1112662 
 4622000    1.3695185    -3.344681   -1.7221847    0.2100448    -3.344681    1.6224962  1112707 
 4623000    1.3689011   -3.3446699   -1.7229896   0.20940271   -3.3446699    1.6216804  1112765 
 4624000    1.3682298   -3.3438895   -1.7230715   0.21340972   -3.3438895     1.620818  1112811 
 4625000    1.3684127   -3.3439991   -1.7230634   0.21193356   -3.3439991    1.6209357  1112879 
 4626000    1.3702454   -3.3457232   -1.7227114   0.20891065   -3.3457232    1.6230118  1112944 
 4627000    1.3683334   -3.3431798   -1.7225188   0.21305812   -3.3431798    1.6206611  1113003 
 4628000    1.3685365   -3.3434717   -1.7226516   0.21274676   -3.3434717    1.6208201  1113059 
 4629000    1.3696676   -3.3440792   -1.7219996   0.21270741   -3.3440792    1.6220797  1113114 
 4630000    1.3691518   -3.3441089   -1.7227421   0.21630383   -3.3441089    1.6213668  1113184 
 4631000    1.3699883   -3.3450682   -1.7227983   0.21329757   -3.3450682      1.62227  1113244 
 4632000    1.3690381   -3.3442148   -1.7231531   0.20688556   -3.3442148    1.6210617  1113301 
 4633000    1.3704379   -3.3461281   -1.7234817    0.2090051   -3.3461281    1.6226464  1113351 
 4634000    1.3695843   -3.3449254   -1.7233655   0.21094256   -3.3449254    1.6215599  1113403 
 4635000    1.3698767   -3.3451251   -1.7232962   0.21541756   -3.3451251     1.621829  1113456 
 4636000    1.3701295   -3.3464161   -1.7243753   0.21084357   -3.3464161    1.6220408  1113516 
 4637000    1.3686845    -3.345197   -1.7249541   0.21521538    -3.345197    1.6202428  1113576 
 4638000    1.3694322   -3.3454759   -1.7244207    0.2114097   -3.3454759    1.6210552  1113626 
 4639000    1.3697333   -3.3453536   -1.7240177   0.21944958   -3.3453536    1.6213359  1113678 
 4640000    1.3702415   -3.3463056   -1.7244395   0.20896291   -3.3463056    1.6218661  1113727 
 4641000    1.3704242   -3.3465704   -1.7245537     0.206549   -3.3465704    1.6220168  1113772 
 4642000     1.369727   -3.3463106   -1.7252034   0.20687232   -3.3463106    1.6211071  1113830 
 4643000    1.3704086   -3.3469785   -1.7251404   0.20926564   -3.3469785    1.6218382  1113882 
 4644000    1.3716815   -3.3480146    -1.724756    0.2130785   -3.3480146    1.6232586  1113941 
 4645000    1.3708365   -3.3466698   -1.7244855   0.21122658   -3.3466698    1.6221844  1113992 
 4646000    1.3720038   -3.3480013   -1.7245056   0.21010867   -3.3480013    1.6234957  1114040 
 4647000    1.3716719   -3.3473998   -1.7243638    0.2081658   -3.3473998     1.623036  1114086 
 4648000    1.3710039   -3.3467715   -1.7246031   0.21419216   -3.3467715    1.6221684  1114139 
 4649000     1.371198   -3.3471054   -1.7247903    0.2121866   -3.3471054    1.6223151  1114196 
 4650000    1.3712857   -3.3474614   -1.7251168   0.21581971   -3.3474614    1.6223446  1114247 
 4651000    1.3719484   -3.3487767   -1.7257268   0.20922504   -3.3487767    1.6230499  1114301 
 4652000    1.3711014   -3.3470985   -1.7251204     0.212147   -3.3470985    1.6219781  1114349 
 4653000    1.3707973   -3.3471434   -1.7255935   0.21220116   -3.3471434    1.6215499  1114396 
 4654000    1.3726845   -3.3489668   -1.7252427   0.20861826   -3.3489668    1.6237241  1114436 
 4655000    1.3718327    -3.347323   -1.7246983   0.21098771    -3.347323    1.6226248  1114499 
 4656000    1.3712087   -3.3475102    -1.725705   0.21099873   -3.3475102    1.6218051  1114555 
 4657000    1.3724832   -3.3482617   -1.7250118    0.2140789   -3.3482617      1.62325  1114598 
 4658000    1.3706428   -3.3469665   -1.7259659   0.21507117   -3.3469665    1.6210006  1114648 
 4659000    1.3707456   -3.3480531   -1.7269979   0.21376355   -3.3480531    1.6210552  1114694 
 4660000    1.3703325    -3.347712   -1.7272411   0.21009148    -3.347712    1.6204708  1114760 
 4661000    1.3707586   -3.3479184   -1.7270369   0.20884946   -3.3479184    1.6208816  1114824 
 4662000    1.3708746   -3.3486054   -1.7276753   0.20896512   -3.3486054    1.6209301  1114885 
 4663000     1.371163   -3.3480237   -1.7268253   0.20920411   -3.3480237    1.6211983  1114935 
 4664000    1.3708478   -3.3474398     -1.72671   0.21518788   -3.3474398    1.6207297  1115001 
 4665000    1.3720128   -3.3485683    -1.726531   0.21294503   -3.3485683    1.6220373  1115049 
 4666000    1.3727686   -3.3491708   -1.7263199   0.21146909   -3.3491708    1.6228508  1115104 
 4667000    1.3728054   -3.3488453   -1.7260267   0.20997521   -3.3488453    1.6228186  1115156 
 4668000    1.3728275   -3.3494157   -1.7266568   0.21533585   -3.3494157    1.6227588  1115215 
 4669000    1.3729407    -3.349276   -1.7264677   0.21693815    -3.349276    1.6228083  1115273 
 4670000    1.3744254   -3.3515662   -1.7270875   0.21204424   -3.3515662    1.6244787  1115331 
 4671000    1.3731918   -3.3500861   -1.7271383   0.21280145   -3.3500861    1.6229479  1115381 
 4672000    1.3718494   -3.3487835   -1.7274876   0.21632568   -3.3487835     1.621296  1115426 
 4673000    1.3734735   -3.3504892    -1.727348   0.21121377   -3.3504892    1.6231412  1115477 
 4674000    1.3736431   -3.3500514   -1.7268015   0.21264291   -3.3500514    1.6232499  1115540 
 4675000    1.3722795   -3.3483411   -1.7267781   0.21588782   -3.3483411     1.621563  1115592 
 4676000    1.3731513   -3.3499784   -1.7274522   0.21367223   -3.3499784    1.6225262  1115638 
 4677000    1.3730629   -3.3500025   -1.7276724   0.21209825   -3.3500025    1.6223301  1115701 
 4678000    1.3722946   -3.3498075   -1.7284592   0.21426729   -3.3498075    1.6213483  1115752 
 4679000    1.3722237   -3.3492203   -1.7280169    0.2101069   -3.3492203    1.6212034  1115794 
 4680000    1.3730219   -3.3499357   -1.7278575   0.21418707   -3.3499357    1.6220782  1115841 
 4681000     1.373807   -3.3503221   -1.7273745   0.21026364   -3.3503221    1.6229475  1115881 
 4682000     1.374054    -3.351354   -1.7281918   0.21054899    -3.351354    1.6231622  1115934 
 4683000    1.3737571   -3.3508166   -1.7280822   0.21480881   -3.3508166    1.6227344  1115987 
 4684000    1.3730714   -3.3496925   -1.7278625   0.21314032   -3.3496925      1.62183  1116052 
 4685000    1.3740322   -3.3512888   -1.7284141    0.2141231   -3.3512888    1.6228747  1116114 
 4686000    1.3734852   -3.3506649   -1.7285134   0.21248393   -3.3506649    1.6221515  1116167 
 4687000    1.3729409   -3.3503482   -1.7289092   0.21039703   -3.3503482     1.621439  1116215 
 4688000    1.3740035   -3.3517152   -1.7291013   0.21216601   -3.3517152    1.6226139  1116270 
 4689000    1.3736156   -3.3516079   -1.7295305   0.21075317   -3.3516079    1.6220774  1116324 
 4690000    1.3742793   -3.3521615   -1.7293614   0.20914501   -3.3521615    1.6228001  1116366 
 4691000    1.3739596   -3.3517013   -1.7293644   0.21267588   -3.3517013    1.6223368  1116425 
 4692000    1.3732253   -3.3513822   -1.7299719    0.2136787   -3.3513822    1.6214102  1116466 
 4693000    1.3730747   -3.3510343   -1.7298788   0.22083544   -3.3510343    1.6211555  1116519 
 4694000    1.3733423   -3.3515547   -1.7301631   0.21098189   -3.3515547    1.6213916  1116574 
 4695000    1.3733062   -3.3511612   -1.7298907   0.21527481   -3.3511612    1.6212705  1116628 
 4696000    1.3742335   -3.3523789   -1.7300834   0.21091989   -3.3523789    1.6222955  1116676 
 4697000    1.3743987   -3.3526219   -1.7302171   0.21659027   -3.3526219    1.6224049  1116735 
 4698000    1.3759229   -3.3535671   -1.7294503   0.21327913   -3.3535671    1.6241168  1116795 
 4699000    1.3762781   -3.3535139   -1.7290535   0.21646801   -3.3535139    1.6244604  1116847 
 4700000    1.3766586   -3.3542376   -1.7294197   0.21594922   -3.3542376    1.6248179  1116910 
 4701000    1.3760682   -3.3535301   -1.7295036   0.21594039   -3.3535301    1.6240265  1116975 
 4702000     1.376199   -3.3536337   -1.7295254   0.21690772   -3.3536337    1.6241083  1117025 
 4703000    1.3770824   -3.3543504   -1.7292898   0.21369607   -3.3543504    1.6250606  1117087 
 4704000    1.3758878   -3.3528051   -1.7292298   0.21762176   -3.3528051    1.6235753  1117139 
 4705000    1.3759865   -3.3531283   -1.7295121   0.21427959   -3.3531283    1.6236162  1117191 
 4706000    1.3757311   -3.3528112   -1.7295763    0.2174932   -3.3528112    1.6232348  1117246 
 4707000    1.3757661   -3.3530816   -1.7298795   0.21821844   -3.3530816    1.6232021  1117297 
 4708000    1.3761627   -3.3542388   -1.7306502   0.21462378   -3.3542388    1.6235886  1117353 
 4709000    1.3744663   -3.3518502   -1.7303341   0.21921391   -3.3518502    1.6215162  1117402 
 4710000    1.3759607    -3.354576   -1.7313738   0.21136234    -3.354576    1.6232021  1117455 
 4711000    1.3747937   -3.3532653   -1.7315211   0.21428811   -3.3532653    1.6217442  1117511 
 4712000    1.3760273    -3.354813   -1.7316862   0.20953034    -3.354813    1.6231268  1117561 
 4713000    1.3751233   -3.3537755   -1.7317804   0.21338453   -3.3537755    1.6219952  1117606 
 4714000    1.3753622   -3.3538539   -1.7316743   0.21179895   -3.3538539    1.6221796  1117673 
 4715000    1.3760799   -3.3553286   -1.7323897    0.2120275   -3.3553286     1.622939  1117733 
 4716000    1.3747848   -3.3542955   -1.7329826   0.21510292   -3.3542955    1.6213129  1117801 
 4717000    1.3742385   -3.3535718   -1.7329829     0.215834   -3.3535718     1.620589  1117856 
 4718000    1.3754403   -3.3545876   -1.7326772   0.21094964   -3.3545876    1.6219104  1117922 
 4719000    1.3744297   -3.3537207   -1.7330744   0.21373006   -3.3537207    1.6206463  1117972 
 4720000    1.3766887   -3.3560778   -1.7328463    0.2144113   -3.3560778    1.6232316  1118026 
 4721000    1.3759959   -3.3553089   -1.7329639   0.21319448   -3.3553089     1.622345  1118074 
 4722000    1.3760447    -3.355101   -1.7327739   0.21520051    -3.355101    1.6223272  1118126 
 4723000    1.3761895   -3.3553197   -1.7329045   0.21363356   -3.3553197    1.6224152  1118183 
 4724000     1.375351   -3.3549337   -1.7335782   0.21870048   -3.3549337    1.6213555  1118232 
 4725000    1.3765668   -3.3563995   -1.7336949   0.21946049   -3.3563995    1.6227046  1118290 
 4726000     1.376066   -3.3559313   -1.7339143   0.21540778   -3.3559313    1.6220171  1118357 
 4727000     1.376796   -3.3566833   -1.7338754   0.21435725   -3.3566833    1.6228079  1118405 
 4728000     1.376137   -3.3563311   -1.7343536   0.21607396   -3.3563311    1.6219776  1118442 
 4729000    1.3770033   -3.3573223   -1.7343919   0.21837298   -3.3573223    1.6229304  1118489 
 4730000    1.3771892   -3.3572832   -1.7342135   0.21457596   -3.3572832    1.6230697  1118544 
 4731000    1.3759546   -3.3566943   -1.7351593   0.21546607   -3.3566943     1.621535  1118599 
 4732000    1.3762225   -3.3576549   -1.7358681   0.21627729   -3.3576549    1.6217868  1118643 
 4733000    1.3765121   -3.3579591   -1.7359021   0.21482209   -3.3579591    1.6220571  1118692 
 4734000    1.3770684   -3.3581997   -1.7355828   0.21449349   -3.3581997    1.6226169  1118758 
 4735000    1.3776295   -3.3580144   -1.7348148   0.21514469   -3.3580144    1.6231996  1118812 
 4736000    1.3774372   -3.3582619   -1.7353801   0.21786217   -3.3582619    1.6228818  1118875 
 4737000    1.3764786   -3.3579194   -1.7362468    0.2167129   -3.3579194    1.6216726  1118930 
 4738000    1.3762207   -3.3579677   -1.7366628   0.21485048   -3.3579677     1.621305  1118974 
 4739000    1.3764655   -3.3584386   -1.7369076   0.21677007   -3.3584386     1.621531  1119017 
 4740000    1.3761339   -3.3577201   -1.7366694   0.21851723   -3.3577201    1.6210507  1119079 
 4741000    1.3766346   -3.3574398   -1.7358979   0.21409811   -3.3574398    1.6215419  1119147 
 4742000    1.3773645   -3.3585103   -1.7361739   0.21858429   -3.3585103    1.6223364  1119192 
 4743000     1.377562   -3.3587317   -1.7362468   0.21337777   -3.3587317    1.6224849  1119250 
 4744000    1.3775765   -3.3580635   -1.7356586   0.21505059   -3.3580635    1.6224049  1119317 
 4745000    1.3790359   -3.3596051   -1.7355584   0.21345222   -3.3596051    1.6240467  1119370 
 4746000    1.3776782   -3.3576697   -1.7353015   0.21668823   -3.3576697    1.6223682  1119425 
 4747000    1.3790436   -3.3590259   -1.7351297   0.21594008   -3.3590259    1.6238962  1119480 
 4748000    1.3783303   -3.3581559    -1.735188   0.21736305   -3.3581559    1.6229679  1119541 
 4749000    1.3794854   -3.3598648   -1.7356007   0.21117573   -3.3598648    1.6242641  1119585 
 4750000    1.3788461   -3.3594426   -1.7360153   0.21269864   -3.3594426    1.6234273  1119643 
 4751000    1.3787855   -3.3584045   -1.7351456   0.21539856   -3.3584045    1.6232589  1119710 
 4752000    1.3778147    -3.358294    -1.736252   0.21621986    -3.358294     1.622042  1119761 
 4753000     1.378557   -3.3586696   -1.7358175    0.2137278   -3.3586696    1.6228521  1119805 
 4754000     1.378164   -3.3584474   -1.7361115   0.22042287   -3.3584474    1.6223359  1119842 
 4755000    1.3786263   -3.3595897   -1.7367791   0.21480275   -3.3595897    1.6228106  1119890 
 4756000    1.3780858   -3.3586564    -1.736585   0.21977324   -3.3586564    1.6220714  1119961 
 4757000    1.3789051   -3.3596257   -1.7366478   0.21781628   -3.3596257    1.6229779  1120001 
 4758000    1.3794527   -3.3610349   -1.7374792     0.215433   -3.3610349    1.6235557  1120047 
 4759000    1.3778134   -3.3593776   -1.7378308    0.2171874   -3.3593776    1.6215467  1120102 
 4760000    1.3775212    -3.359525   -1.7383989   0.21608001    -3.359525    1.6211261  1120155 
 4761000    1.3792473   -3.3615481   -1.7384529   0.21519419   -3.3615481    1.6230952  1120198 
 4762000    1.3795363   -3.3616385    -1.738283   0.21225393   -3.3616385    1.6233555  1120253 
 4763000    1.3791046   -3.3604996   -1.7377245   0.21897233   -3.3604996    1.6227751  1120303 
 4764000    1.3790404   -3.3606862   -1.7380591   0.21459944   -3.3606862    1.6226271  1120353 
 4765000    1.3773417   -3.3596966   -1.7391463   0.21722098   -3.3596966    1.6205503  1120407 
 4766000    1.3792866   -3.3617738   -1.7389931   0.21891025   -3.3617738    1.6227807  1120447 
 4767000    1.3786433   -3.3610312   -1.7390798   0.21759494   -3.3610312    1.6219514  1120497 
 4768000    1.3783767   -3.3611848   -1.7396122   0.21905005   -3.3611848    1.6215727  1120542 
 4769000    1.3790006   -3.3622849   -1.7400724   0.21131584   -3.3622849    1.6222125  1120607 
 4770000    1.3788628   -3.3617743   -1.7398121   0.21830713   -3.3617743    1.6219622  1120668 
 4771000    1.3786919   -3.3617636   -1.7400749   0.21812577   -3.3617636    1.6216888  1120718 
 4772000    1.3793791   -3.3622606   -1.7398374    0.2185942   -3.3622606    1.6224232  1120769 
 4773000    1.3793623   -3.3623818   -1.7400695   0.21608992   -3.3623818    1.6223123  1120832 
 4774000    1.3784531   -3.3619414   -1.7407563   0.21420031   -3.3619414    1.6211851  1120872 
 4775000    1.3793988   -3.3630173   -1.7407852   0.21578562   -3.3630173    1.6222321  1120917 
 4776000    1.3793607   -3.3623246   -1.7402038   0.21610017   -3.3623246    1.6221208  1120963 
 4777000    1.3807843    -3.363701   -1.7399698   0.21420877    -3.363701    1.6237312  1121007 
 4778000    1.3789789   -3.3613548   -1.7398334   0.21820857   -3.3613548    1.6215214  1121067 
 4779000    1.3801478   -3.3623897   -1.7395879   0.21571489   -3.3623897    1.6228017  1121132 
 4780000    1.3800083   -3.3628254   -1.7402557   0.21569374   -3.3628254    1.6225697  1121179 
 4781000    1.3784265   -3.3612898   -1.7406667   0.22014216   -3.3612898    1.6206231  1121239 
 4782000    1.3790688   -3.3627046    -1.741397   0.21217763   -3.3627046    1.6213075  1121288 
 4783000    1.3805622   -3.3637381   -1.7407472   0.21594925   -3.3637381    1.6229909  1121338 
 4784000    1.3785903   -3.3628215   -1.7422052   0.21891951   -3.3628215    1.6206163  1121377 
 4785000    1.3780026   -3.3624364   -1.7425817   0.21476923   -3.3624364    1.6198547  1121426 
 4786000    1.3785441   -3.3631888   -1.7427612   0.21577822   -3.3631888    1.6204276  1121470 
 4787000    1.3779742   -3.3627748   -1.7430951   0.21736326   -3.3627748    1.6196797  1121524 
 4788000     1.378542   -3.3625395    -1.742269   0.21718648   -3.3625395    1.6202705  1121577 
 4789000    1.3793596   -3.3641035   -1.7429342   0.21553465   -3.3641035    1.6211693  1121620 
 4790000    1.3803514   -3.3643532   -1.7421224   0.21734256   -3.3643532    1.6222309  1121692 
 4791000    1.3796822   -3.3639957   -1.7426236   0.22067996   -3.3639957    1.6213722  1121742 
 4792000      1.37957   -3.3636503   -1.7424822   0.21983558   -3.3636503     1.621168  1121792 
 4793000    1.3798297   -3.3642112   -1.7428233   0.21686272   -3.3642112    1.6213879  1121851 
 4794000    1.3794513   -3.3637622   -1.7428767   0.22114394   -3.3637622    1.6208855  1121891 
 4795000    1.3808665   -3.3660371   -1.7435769   0.21740988   -3.3660371    1.6224602  1121952 
 4796000    1.3806242     -3.36633   -1.7442355   0.21513975     -3.36633    1.6220945  1122008 
 4797000    1.3794001   -3.3647186   -1.7441346   0.22233445   -3.3647186    1.6205841  1122058 
 4798000    1.3803904   -3.3658841   -1.7442204   0.21888879   -3.3658841    1.6216637  1122116 
 4799000    1.3800355    -3.365159   -1.7439786   0.21853633    -3.365159    1.6211804  1122162 
 4800000    1.3807569   -3.3665768   -1.7446343   0.21247723   -3.3665768    1.6219425  1122221 
 4801000    1.3791648   -3.3655919   -1.7455947    0.2153732   -3.3655919    1.6199972  1122273 
 4802000    1.3799567   -3.3666365   -1.7457929   0.21661315   -3.3666365    1.6208437  1122331 
 4803000    1.3787441   -3.3650889   -1.7457532    0.2173429   -3.3650889    1.6193357  1122389 
 4804000    1.3804714   -3.3667868   -1.7454946   0.21491288   -3.3667868    1.6212922  1122439 
 4805000    1.3798161   -3.3672827   -1.7468323   0.21700355   -3.3672827    1.6204504  1122489 
 4806000    1.3811077   -3.3687798   -1.7468863   0.21224796   -3.3687798    1.6218935  1122540 
 4807000    1.3788913   -3.3663803   -1.7471573   0.21889949   -3.3663803     1.619223  1122587 
 4808000    1.3798414   -3.3668384   -1.7465705   0.21728688   -3.3668384    1.6202679  1122636 
 4809000    1.3799637   -3.3670313   -1.7466818   0.21795938   -3.3670313    1.6203495  1122679 
 4810000    1.3786998   -3.3654999   -1.7467297   0.21442751   -3.3654999    1.6187702  1122745 
 4811000    1.3801756   -3.3671818   -1.7467509   0.21511016   -3.3671818    1.6204309  1122795 
 4812000    1.3799607   -3.3665333   -1.7464327   0.21477137   -3.3665333    1.6201006  1122849 
 4813000    1.3817216   -3.3682202    -1.746136   0.21684208   -3.3682202    1.6220842  1122907 
 4814000    1.3805893   -3.3681938    -1.747501   0.21564204   -3.3681938    1.6206928  1122950 
 4815000    1.3800083   -3.3684111   -1.7484681   0.21819159   -3.3684111     1.619943  1122997 
 4816000    1.3804395    -3.368406    -1.748029   0.21292932    -3.368406     1.620377  1123047 
 4817000    1.3795377   -3.3675594   -1.7483072   0.21404639   -3.3675594    1.6192522  1123093 
 4818000    1.3799551    -3.368193   -1.7485187   0.21567159    -3.368193    1.6196743  1123140 
 4819000    1.3804428   -3.3690568   -1.7488865   0.21370845   -3.3690568    1.6201703  1123193 
 4820000    1.3799191   -3.3680135   -1.7485083   0.21395457   -3.3680135    1.6195052  1123228 
 4821000    1.3795837   -3.3681055   -1.7490617   0.21806262   -3.3681055    1.6190438  1123275 
 4822000    1.3798914   -3.3688583   -1.7495342   0.21614291   -3.3688583    1.6193241  1123331 
 4823000    1.3802717   -3.3691152   -1.7494212   0.21956655   -3.3691152     1.619694  1123384 
 4824000    1.3799573   -3.3690612   -1.7498154    0.2191198   -3.3690612    1.6192458  1123439 
 4825000    1.3798827   -3.3693715   -1.7502824   0.21381301   -3.3693715    1.6190891  1123487 
 4826000    1.3801941   -3.3690239   -1.7496501   0.21724982   -3.3690239    1.6193738  1123543 
 4827000    1.3800859   -3.3691595   -1.7500007   0.21661884   -3.3691595    1.6191589  1123604 
 4828000    1.3795601   -3.3682242   -1.7497743   0.21720903   -3.3682242    1.6184499  1123668 
 4829000    1.3806552   -3.3691914   -1.7495159   0.21690692   -3.3691914    1.6196754  1123709 
 4830000    1.3804533   -3.3688263   -1.7494684   0.22031273   -3.3688263    1.6193579  1123765 
 4831000     1.381277    -3.369583   -1.7493367   0.21853474    -3.369583    1.6202463  1123819 
 4832000     1.382166   -3.3701467    -1.748934    0.2180807   -3.3701467    1.6212127  1123872 
 4833000     1.381164   -3.3698554   -1.7498944   0.21624771   -3.3698554     1.619961  1123925 
 4834000    1.3812027   -3.3699265   -1.7499864   0.21416115   -3.3699265    1.6199401  1123971 
 4835000    1.3805339   -3.3697874   -1.7506951   0.21946279   -3.3697874    1.6190923  1124015 
 4836000    1.3809815    -3.370357   -1.7508033   0.21599705    -3.370357    1.6195538  1124059 
 4837000    1.3804315   -3.3698451   -1.7510084   0.21999224   -3.3698451    1.6188368  1124109 
 4838000      1.38049   -3.3695863   -1.7507472   0.21579773   -3.3695863    1.6188391  1124155 
 4839000    1.3802775   -3.3691239   -1.7506002   0.21341528   -3.3691239    1.6185237  1124201 
 4840000     1.382347   -3.3710635   -1.7501923   0.21753699   -3.3710635    1.6208712  1124256 
 4841000    1.3816278   -3.3702513   -1.7503041   0.21801286   -3.3702513    1.6199472  1124312 
 4842000    1.3816863    -3.370395   -1.7504471   0.21817554    -3.370395     1.619948  1124359 
 4843000    1.3803219   -3.3690952   -1.7508175   0.21768431   -3.3690952    1.6182778  1124408 
 4844000    1.3812018   -3.3699937   -1.7507779   0.21637178   -3.3699937    1.6192158  1124473 
 4845000    1.3816513   -3.3713818   -1.7516981   0.21252311   -3.3713818    1.6196837  1124514 
 4846000    1.3806941   -3.3701312   -1.7516388   0.21662204   -3.3701312    1.6184925  1124562 
 4847000    1.3813059    -3.370649   -1.7515185   0.21744543    -3.370649    1.6191305  1124617 
 4848000    1.3812605   -3.3701113   -1.7510988   0.22465009   -3.3701113    1.6190124  1124662 
 4849000    1.3816616   -3.3703074   -1.7508998   0.21757548   -3.3703074    1.6194077  1124714 
 4850000    1.3816067   -3.3707001   -1.7514315   0.21628202   -3.3707001    1.6192685  1124766 
 4851000    1.3823458   -3.3716762    -1.751622   0.21824076   -3.3716762    1.6200542  1124822 
 4852000    1.3818359   -3.3713075   -1.7519259   0.21756298   -3.3713075    1.6193816  1124874 
 4853000    1.3817861   -3.3715382   -1.7522839   0.21446363   -3.3715382    1.6192543  1124922 
 4854000    1.3829678   -3.3724249   -1.7518609   0.21541765   -3.3724249    1.6205641  1124974 
 4855000    1.3821031   -3.3725285   -1.7530438   0.21766175   -3.3725285    1.6194846  1125020 
 4856000     1.382433   -3.3728383   -1.7530406   0.21511304   -3.3728383    1.6197977  1125071 
 4857000    1.3822308   -3.3724303   -1.7529615   0.21588695   -3.3724303    1.6194687  1125135 
 4858000    1.3826528   -3.3730702   -1.7531877   0.21333451   -3.3730702    1.6198825  1125191 
 4859000    1.3826335   -3.3740276   -1.7542541   0.21775637   -3.3740276    1.6197736  1125251 
 4860000    1.3827169   -3.3737483   -1.7539404   0.21533313   -3.3737483    1.6198079  1125295 
 4861000    1.3828533   -3.3736985   -1.7537855   0.21986125   -3.3736985     1.619913  1125333 
 4862000    1.3827541   -3.3742681   -1.7545246    0.2190445   -3.3742681    1.6197435  1125370 
 4863000    1.3810475   -3.3725041   -1.7548187   0.21703582   -3.3725041    1.6176854  1125411 
 4864000    1.3811152   -3.3727699   -1.7550469   0.21680381   -3.3727699    1.6177231  1125440 
 4865000    1.3821433   -3.3742343   -1.7553674   0.21888321   -3.3742343    1.6188669  1125482 
 4866000    1.3824359   -3.3743716   -1.7552325    0.2201576   -3.3743716    1.6191391  1125531 
 4867000    1.3836549   -3.3753948   -1.7548999    0.2145591   -3.3753948    1.6204948  1125581 
 4868000    1.3837579   -3.3747459   -1.7542081   0.21577425   -3.3747459    1.6205378  1125635 
 4869000    1.3834854   -3.3751183   -1.7549659   0.21485182   -3.3751183    1.6201524  1125681 
 4870000    1.3825331    -3.373459   -1.7544966   0.21737463    -3.373459    1.6189624  1125733 
 4871000    1.3823029   -3.3736656   -1.7550318   0.21830359   -3.3736656    1.6186339  1125774 
 4872000    1.3829166   -3.3740709   -1.7547759   0.21889256   -3.3740709     1.619295  1125814 
 4873000     1.382238   -3.3730851   -1.7546796   0.21658048   -3.3730851    1.6184055  1125880 
 4874000    1.3833435   -3.3743135   -1.7546869   0.21805018   -3.3743135    1.6196266  1125931 
 4875000    1.3832476   -3.3734117   -1.7539636    0.2193335   -3.3734117    1.6194481  1125977 
 4876000    1.3823745   -3.3732926    -1.754953   0.21448607   -3.3732926    1.6183397  1126037 
 4877000    1.3827226   -3.3736814   -1.7549888    0.2186864   -3.3736814    1.6186926  1126075 
 4878000    1.3834239   -3.3748558   -1.7554012   0.21712126   -3.3748558    1.6194545  1126116 
 4879000       1.3838   -3.3747924   -1.7549665   0.21385557   -3.3747924    1.6198258  1126164 
 4880000    1.3833029   -3.3749715   -1.7558009    0.2118834   -3.3749715    1.6191706  1126215 
 4881000    1.3825969   -3.3738223   -1.7555457   0.21544964   -3.3738223    1.6182767  1126262 
 4882000    1.3824828   -3.3727151   -1.7546366   0.22396485   -3.3727151    1.6180785  1126307 
 4883000    1.3835365   -3.3750696   -1.7558312   0.21869646   -3.3750696    1.6192384  1126358 
 4884000    1.3834088   -3.3745659   -1.7555531   0.22177638   -3.3745659    1.6190128  1126411 
 4885000      1.38342   -3.3748643   -1.7558744   0.22239072   -3.3748643    1.6189899  1126436 
 4886000    1.3832676   -3.3745348   -1.7557893   0.22056386   -3.3745348    1.6187455  1126482 
 4887000    1.3826782    -3.373839    -1.755858   0.21663393    -3.373839    1.6179811  1126534 
 4888000    1.3838836   -3.3760848   -1.7567722   0.21719595   -3.3760848    1.6193125  1126589 
 4889000    1.3838692   -3.3765435   -1.7573182   0.21685994   -3.3765435    1.6192253  1126638 
 4890000    1.3838382   -3.3770111   -1.7579055   0.21803043   -3.3770111    1.6191056  1126696 
 4891000    1.3828149   -3.3762261   -1.7583823   0.21850243   -3.3762261    1.6178438  1126741 
 4892000    1.3833413   -3.3763248   -1.7579513   0.22138429   -3.3763248    1.6183735  1126801 
 4893000    1.3839636   -3.3760684   -1.7570416   0.22087522   -3.3760684    1.6190267  1126853 
 4894000     1.384093   -3.3768332   -1.7577283   0.22026019   -3.3768332    1.6191049  1126904 
 4895000     1.385055   -3.3778695   -1.7577111   0.21864785   -3.3778695    1.6201583  1126954 
 4896000    1.3837922   -3.3777744   -1.7591678   0.21501516   -3.3777744    1.6186065  1127006 
 4897000    1.3848942   -3.3788741   -1.7590677   0.21829068   -3.3788741    1.6198063  1127068 
 4898000    1.3846111   -3.3786278   -1.7592172   0.21716351   -3.3786278    1.6194106  1127113 
 4899000    1.3846647   -3.3787591   -1.7593562   0.21294098   -3.3787591    1.6194029  1127162 
 4900000    1.3852441   -3.3788391    -1.758829   0.22017403   -3.3788391      1.62001  1127211 
 4901000    1.3833513   -3.3773959   -1.7596668   0.22123836   -3.3773959    1.6177291  1127258 
 4902000    1.3849693   -3.3795457   -1.7600093   0.21712751   -3.3795457    1.6195365  1127317 
 4903000    1.3837526   -3.3780154   -1.7599591   0.21411294   -3.3780154    1.6180563  1127357 
 4904000    1.3833265   -3.3776486    -1.760168   0.22274899   -3.3776486    1.6174805  1127411 
 4905000    1.3840118   -3.3789659   -1.7607558   0.21899687   -3.3789659      1.61821  1127461 
 4906000    1.3847495   -3.3796494   -1.7606458   0.21941408   -3.3796494    1.6190037  1127509 
 4907000    1.3842381   -3.3789021   -1.7605811   0.21821074   -3.3789021     1.618321  1127568 
 4908000    1.3840241   -3.3785208   -1.7605403   0.21963723   -3.3785208    1.6179805  1127631 
 4909000    1.3855367    -3.379957     -1.76027   0.21389708    -3.379957     1.619687  1127674 
 4910000    1.3851605   -3.3795756   -1.7604002   0.21865267   -3.3795756    1.6191754  1127724 
 4911000    1.3843388   -3.3793914   -1.7612454   0.21592377   -3.3793914     1.618146  1127772 
 4912000    1.3853058   -3.3804346   -1.7612257   0.21488786   -3.3804346    1.6192089  1127819 
 4913000    1.3843137   -3.3788977   -1.7609231   0.21538385   -3.3788977    1.6179746  1127871 
 4914000    1.3849232   -3.3809164   -1.7622997   0.21427465   -3.3809164    1.6186168  1127920 
 4915000    1.3839426   -3.3798091   -1.7624058   0.21381132   -3.3798091    1.6174033  1127967 
 4916000    1.3842824   -3.3801149   -1.7623848   0.21460839   -3.3801149    1.6177302  1128016 
 4917000    1.3837173   -3.3793236   -1.7623227   0.21586516   -3.3793236    1.6170009  1128064 
 4918000    1.3843554   -3.3798006     -1.76211    0.2168096   -3.3798006    1.6176906  1128103 
 4919000    1.3848625   -3.3803388   -1.7621302   0.21317728   -3.3803388    1.6182086  1128155 
 4920000     1.384304   -3.3798195   -1.7623308    0.2191292   -3.3798195    1.6174887  1128202 
 4921000    1.3845235    -3.379901   -1.7622262   0.22098809    -3.379901    1.6176748  1128251 
 4922000     1.384645    -3.380328   -1.7625929   0.22183179    -3.380328    1.6177351  1128308 
 4923000    1.3854705   -3.3811169   -1.7625005   0.21682799   -3.3811169    1.6186164  1128366 
 4924000    1.3845254   -3.3808077   -1.7633414    0.2172297   -3.3808077    1.6174663  1128398 
 4925000    1.3856478   -3.3827566   -1.7640466   0.21401394   -3.3827566    1.6187101  1128445 
 4926000    1.3842762    -3.380773   -1.7637095   0.21841623    -3.380773    1.6170634  1128476 
 4927000    1.3849362   -3.3814548   -1.7636877   0.21789272   -3.3814548    1.6177671  1128523 
 4928000      1.38548   -3.3820673   -1.7637382   0.21602171   -3.3820673    1.6183291  1128574 
 4929000    1.3861912   -3.3831899   -1.7640903   0.21602702   -3.3831899    1.6190996  1128616 
 4930000    1.3847869   -3.3818918   -1.7644899   0.22382615   -3.3818918     1.617402  1128656 
 4931000    1.3853409   -3.3825152   -1.7645494   0.21883122   -3.3825152    1.6179659  1128714 
 4932000    1.3862728   -3.3842651   -1.7653026   0.21559967   -3.3842651    1.6189625  1128778 
 4933000    1.3849355   -3.3829929   -1.7656695   0.22009477   -3.3829929    1.6173233  1128832 
 4934000    1.3843302   -3.3827562   -1.7662155   0.21718063   -3.3827562    1.6165407  1128885 
 4935000    1.3848634   -3.3828964   -1.7658234   0.21572003   -3.3828964     1.617073  1128948 
 4936000     1.385476   -3.3839673   -1.7662434   0.21786014   -3.3839673    1.6177239  1128993 
 4937000    1.3841099   -3.3823947   -1.7663447    0.2163471   -3.3823947      1.61605  1129048 
 4938000    1.3850487   -3.3837522   -1.7666734   0.21864238   -3.3837522    1.6170788  1129095 
 4939000    1.3845751   -3.3826796   -1.7662396   0.21782223   -3.3826796    1.6164399  1129155 
 4940000    1.3849681   -3.3839471    -1.767097   0.21956983   -3.3839471    1.6168501  1129189 
 4941000    1.3851766   -3.3833734   -1.7663529   0.21632318   -3.3833734    1.6170205  1129240 
 4942000    1.3849133    -3.383328   -1.7666907   0.21678199    -3.383328    1.6166373  1129293 
 4943000    1.3852871   -3.3835166   -1.7665188   0.21768383   -3.3835166    1.6169977  1129346 
 4944000    1.3857505   -3.3835996    -1.766134   0.21734825   -3.3835996    1.6174656  1129397 
 4945000    1.3859063   -3.3839596   -1.7663809   0.21631919   -3.3839596    1.6175786  1129445 
 4946000    1.3865216   -3.3842347   -1.7659966   0.21446816   -3.3842347    1.6182381  1129486 
 4947000    1.3867392   -3.3849989   -1.7665714   0.21628081   -3.3849989    1.6184275  1129531 
 4948000    1.3868243   -3.3850557   -1.7665919    0.2194664   -3.3850557    1.6184638  1129575 
 4949000     1.385973   -3.3844544    -1.767047   0.21838714   -3.3844544    1.6174074  1129619 
 4950000    1.3857602   -3.3841269   -1.7670437   0.21964434   -3.3841269    1.6170831  1129672 
 4951000    1.3871866   -3.3854227   -1.7667367     0.216296   -3.3854227     1.618686  1129715 
 4952000    1.3863303    -3.384309   -1.7666895    0.2196322    -3.384309    1.6176196  1129762 
 4953000    1.3879564   -3.3858644   -1.7664149   0.21684766   -3.3858644    1.6194496  1129809 
 4954000    1.3869204   -3.3847006     -1.76652   0.21968558   -3.3847006    1.6181806  1129851 
 4955000    1.3866758   -3.3847456   -1.7669105   0.22324763   -3.3847456    1.6178351  1129893 
 4956000    1.3871001   -3.3848079   -1.7665523   0.21882903   -3.3848079    1.6182556  1129945 
 4957000    1.3866342   -3.3840879   -1.7664431    0.2242742   -3.3840879    1.6176448  1129992 
 4958000    1.3871218   -3.3845123   -1.7663716   0.21713475   -3.3845123    1.6181407  1130043 
 4959000    1.3868721    -3.384625   -1.7668372   0.21988183    -3.384625    1.6177878  1130086 
 4960000    1.3868431   -3.3845867   -1.7668986   0.22261913   -3.3845867    1.6176881  1130132 
 4961000    1.3873774   -3.3851315    -1.766876   0.21990313   -3.3851315    1.6182555  1130171 
 4962000    1.3875506   -3.3856514    -1.767267   0.21783052   -3.3856514    1.6183844  1130222 
 4963000    1.3869467   -3.3848787   -1.7672673   0.21986871   -3.3848787    1.6176114  1130270 
 4964000    1.3877766   -3.3857163   -1.7671899   0.21529976   -3.3857163    1.6185264  1130307 
 4965000    1.3879453   -3.3859967   -1.7673351   0.21542915   -3.3859967    1.6186616  1130350 
 4966000    1.3865995   -3.3846439   -1.7676263   0.21767964   -3.3846439    1.6170176  1130402 
 4967000     1.387625   -3.3860932   -1.7679656   0.21808513   -3.3860932    1.6181276  1130462 
 4968000    1.3863801   -3.3854302   -1.7688229   0.22160737   -3.3854302    1.6166073  1130510 
 4969000    1.3866948   -3.3858997   -1.7689969   0.22064079   -3.3858997    1.6169028  1130560 
 4970000     1.386983   -3.3854534   -1.7682904   0.22183467   -3.3854534     1.617163  1130613 
 4971000    1.3875175   -3.3860516   -1.7683398   0.22272253   -3.3860516    1.6177118  1130665 
 4972000    1.3874664    -3.386103   -1.7685137   0.21956922    -3.386103    1.6175892  1130709 
 4973000    1.3877616   -3.3865434    -1.768673   0.22111679   -3.3865434    1.6178704  1130753 
 4974000    1.3884618   -3.3871203   -1.7685036   0.21639589   -3.3871203    1.6186167  1130802 
 4975000      1.38683    -3.385521    -1.768881    0.2236082    -3.385521      1.61664  1130854 
 4976000    1.3869497   -3.3860983   -1.7693773    0.2208494   -3.3860983     1.616721  1130895 
 4977000    1.3874565   -3.3869931   -1.7697601   0.22108043   -3.3869931     1.617233  1130950 
 4978000    1.3879737   -3.3871805   -1.7694448   0.21750508   -3.3871805    1.6177357  1131020 
 4979000    1.3874216    -3.387085   -1.7700386   0.22037378    -3.387085    1.6170465  1131052 
 4980000    1.3883007   -3.3879595   -1.7699542   0.22092203   -3.3879595    1.6180053  1131098 
 4981000    1.3891416    -3.388694   -1.7697744   0.21834112    -3.388694    1.6189195  1131144 
 4982000    1.3887452   -3.3886192   -1.7702375   0.22023031   -3.3886192    1.6183817  1131197 
 4983000    1.3882558   -3.3888051    -1.771071   0.21850048   -3.3888051    1.6177341  1131251 
 4984000    1.3885573   -3.3889926   -1.7709915    0.2213841   -3.3889926    1.6180011  1131310 
 4985000    1.3877055   -3.3880935   -1.7711593    0.2180387   -3.3880935    1.6169342  1131362 
 4986000    1.3890873   -3.3892017   -1.7707361   0.22201839   -3.3892017    1.6184656  1131417 
 4987000    1.3889419   -3.3887887   -1.7705655   0.22047316   -3.3887887    1.6182232  1131468 
 4988000    1.3872919   -3.3867773   -1.7705393   0.22334769   -3.3867773     1.616238  1131512 
 4989000    1.3889919   -3.3892007   -1.7710408   0.22321377   -3.3892007    1.6181599  1131553 
 4990000     1.388789   -3.3885384   -1.7706821   0.22359138   -3.3885384    1.6178564  1131600 
 4991000    1.3877421   -3.3881531   -1.7715863   0.22022304   -3.3881531    1.6165668  1131649 
 4992000    1.3889747   -3.3896463   -1.7717194   0.21930625   -3.3896463    1.6179269  1131702 
 4993000    1.3891208   -3.3890769   -1.7710556   0.21780878   -3.3890769    1.6180213  1131755 
 4994000    1.3886998   -3.3885578   -1.7711097   0.22091753   -3.3885578     1.617448  1131813 
 4995000    1.3882201   -3.3886921   -1.7718715   0.22072541   -3.3886921    1.6168206  1131861 
 4996000    1.3888791   -3.3894384   -1.7719273   0.21777984   -3.3894384    1.6175111  1131915 
 4997000    1.3885033   -3.3895434   -1.7725243   0.21722767   -3.3895434    1.6170191  1131953 
 4998000    1.3887409   -3.3895843   -1.7723471   0.22188928   -3.3895843    1.6172373  1131994 
 4999000    1.3901838   -3.3907463   -1.7718874    0.2157644   -3.3907463    1.6188589  1132035 
 5000000    1.3892104   -3.3894527   -1.7717845   0.21951091   -3.3894527    1.6176682  1132075 
 5001000    1.3895443   -3.3900233   -1.7720192   0.22094415   -3.3900233    1.6180041  1132112 
 5002000    1.3880873   -3.3890363   -1.7728086   0.21966802   -3.3890363    1.6162277  1132168 
 5003000     1.388078    -3.388407   -1.7722458   0.22060406    -3.388407    1.6161611  1132207 
 5004000    1.3879385   -3.3898461   -1.7738974   0.21679224   -3.3898461    1.6159487  1132242 
 5005000    1.3876359   -3.3897567   -1.7742216   0.21971756   -3.3897567    1.6155351  1132285 
 5006000    1.3881469   -3.3900779   -1.7740021    0.2192049   -3.3900779    1.6160757  1132323 
 5007000    1.3887871   -3.3901365   -1.7733768   0.21823528   -3.3901365    1.6167597  1132366 
 5008000    1.3885953   -3.3901248   -1.7736554   0.21813577   -3.3901248    1.6164693  1132413 
 5009000    1.3894324   -3.3911696   -1.7737929   0.21901137   -3.3911696    1.6173767  1132460 
 5010000    1.3881418    -3.389764   -1.7739453    0.2247562    -3.389764    1.6158187  1132499 
 5011000    1.3885703   -3.3905488   -1.7742826   0.22153825   -3.3905488    1.6162661  1132535 
 5012000    1.3897005   -3.3920196   -1.7744921   0.21806257   -3.3920196    1.6175274  1132573 
 5013000    1.3894538   -3.3915294   -1.7743591   0.21788949   -3.3915294    1.6171703  1132622 
 5014000    1.3889689   -3.3911235   -1.7746003   0.21841088   -3.3911235    1.6165231  1132680 
 5015000    1.3884948   -3.3910582   -1.7751838   0.22010063   -3.3910582    1.6158743  1132748 
 5016000    1.3890902   -3.3924235   -1.7759233   0.22169405   -3.3924235    1.6165002  1132795 
 5017000     1.388885   -3.3919138   -1.7757294   0.21871672   -3.3919138    1.6161843  1132849 
 5018000    1.3890856    -3.391975   -1.7756172   0.22394366    -3.391975    1.6163578  1132891 
 5019000    1.3890773   -3.3926742   -1.7763959   0.22149367   -3.3926742    1.6162782  1132940 
 5020000    1.3892527   -3.3925619   -1.7761566   0.21689809   -3.3925619    1.6164053  1132994 
 5021000    1.3895643   -3.3940073   -1.7772965   0.22217545   -3.3940073    1.6167108  1133034 
 5022000    1.3885952   -3.3924001   -1.7768882    0.2224056   -3.3924001     1.615512  1133084 
 5023000    1.3899368   -3.3940685   -1.7770627   0.21585097   -3.3940685    1.6170058  1133131 
 5024000    1.3900456   -3.3934917   -1.7764137   0.21916073   -3.3934917     1.617078  1133169 
 5025000    1.3909233   -3.3945397   -1.7765048   0.22021273   -3.3945397    1.6180349  1133214 
 5026000    1.3892895   -3.3923536   -1.7762806   0.22332902   -3.3923536     1.616073  1133257 
 5027000    1.3894195   -3.3929208   -1.7767693   0.22241092   -3.3929208    1.6161515  1133308 
 5028000    1.3896659   -3.3930727   -1.7766988   0.21732304   -3.3930727    1.6163739  1133353 
 5029000    1.3903895    -3.394304   -1.7771583   0.22074878    -3.394304    1.6171457  1133402 
 5030000    1.3900439   -3.3942163   -1.7775468   0.21927949   -3.3942163    1.6166695  1133454 
 5031000    1.3898977   -3.3937012   -1.7772716   0.21714491   -3.3937012    1.6164296  1133503 
 5032000     1.390158   -3.3942472   -1.7775948   0.21953849   -3.3942472    1.6166524  1133559 
 5033000     1.390065   -3.3939281   -1.7774608   0.22059803   -3.3939281    1.6164673  1133613 
 5034000    1.3906075   -3.3950318   -1.7780121   0.21579259   -3.3950318    1.6170197  1133668 
 5035000    1.3896679   -3.3949575   -1.7791131   0.22150406   -3.3949575    1.6158444  1133726 
 5036000    1.3894308   -3.3943814   -1.7788811   0.22090542   -3.3943814    1.6155003  1133774 
 5037000    1.3885681   -3.3940762   -1.7796501   0.21875965   -3.3940762    1.6144261  1133824 
 5038000    1.3896425   -3.3949067   -1.7792956   0.21515863   -3.3949067    1.6156111  1133869 
 5039000     1.389493   -3.3945831   -1.7792213   0.21883836   -3.3945831    1.6153618  1133922 
 5040000    1.3902709   -3.3958507   -1.7796644   0.21668188   -3.3958507    1.6161863  1133978 
 5041000    1.3903687    -3.395699   -1.7794688   0.21894053    -3.395699    1.6162302  1134027 
 5042000     1.390676   -3.3966154   -1.7801107   0.21310399   -3.3966154    1.6165047  1134085 
 5043000    1.3909613   -3.3963734   -1.7795956   0.22153092   -3.3963734    1.6167779  1134126 
 5044000    1.3903887   -3.3952002   -1.7791634   0.22150974   -3.3952002    1.6160369  1134179 
 5045000    1.3914668    -3.396638   -1.7794094   0.22279158    -3.396638    1.6172286  1134222 
 5046000    1.3907385   -3.3962849   -1.7799811   0.22161401   -3.3962849    1.6163037  1134277 
 5047000    1.3920744   -3.3976837   -1.7798844   0.21859824   -3.3976837    1.6177993  1134317 
 5048000    1.3917078   -3.3972875   -1.7799841   0.22271763   -3.3972875    1.6173034  1134366 
 5049000    1.3906178   -3.3959697   -1.7799986   0.21766082   -3.3959697    1.6159711  1134412 
 5050000    1.3912962   -3.3971162   -1.7804236   0.21970998   -3.3971162    1.6166925  1134459 
 5051000    1.3918039   -3.3972482   -1.7800199   0.22067756   -3.3972482    1.6172282  1134497 
 5052000    1.3908007    -3.397171   -1.7811769    0.2212354    -3.397171    1.6159942  1134545 
 5053000    1.3905973   -3.3974618   -1.7817722    0.2190109   -3.3974618    1.6156896  1134593 
 5054000    1.3890001   -3.3957868   -1.7820013   0.22452415   -3.3957868    1.6137855  1134627 
 5055000    1.3891137   -3.3962566   -1.7824145   0.22165022   -3.3962566    1.6138421  1134680 
 5056000    1.3904206   -3.3980881   -1.7827932   0.21868005   -3.3980881    1.6152949  1134726 
 5057000    1.3903774   -3.3973151   -1.7821216   0.22100183   -3.3973151    1.6151935  1134762 
 5058000     1.389466   -3.3969305   -1.7828656   0.22055759   -3.3969305     1.614065  1134811 
 5059000    1.3899917   -3.3975521   -1.7829348   0.21985337   -3.3975521    1.6146173  1134852 
 5060000    1.3900918   -3.3980895   -1.7834228   0.21886301   -3.3980895    1.6146667  1134899 
 5061000     1.390066   -3.3979051   -1.7833309    0.2191641   -3.3979051    1.6145741  1134943 
 5062000    1.3904779   -3.3987159   -1.7837173   0.21917948   -3.3987159    1.6149986  1134981 
 5063000     1.389228   -3.3968468   -1.7833597   0.22470774   -3.3968468    1.6134871  1135023 
 5064000    1.3894922   -3.3985731   -1.7848488    0.2173266   -3.3985731    1.6137243  1135072 
 5065000    1.3893783   -3.3983239   -1.7848015   0.22055575   -3.3983239    1.6135223  1135121 
 5066000    1.3906584   -3.3987946   -1.7838483   0.21472643   -3.3987946    1.6149463  1135165 
 5067000    1.3910187   -3.3989665   -1.7836615   0.21793311   -3.3989665     1.615305  1135207 
 5068000    1.3902963   -3.3981614   -1.7837536   0.22176948   -3.3981614    1.6144078  1135248 
 5069000    1.3913517   -3.3994484    -1.783872     0.219037   -3.3994484    1.6155764  1135288 
 5070000    1.3916219   -3.3995573   -1.7837426   0.22067662   -3.3995573    1.6158147  1135341 
 5071000    1.3915358   -3.3999592   -1.7843127   0.21643242   -3.3999592    1.6156465  1135389 
 5072000    1.3904216   -3.3984118   -1.7841415   0.22316007   -3.3984118    1.6142703  1135447 
 5073000    1.3910283   -3.3985188   -1.7836066   0.22141748   -3.3985188    1.6149122  1135491 
 5074000    1.3924209   -3.3999966   -1.7835432   0.22213682   -3.3999966    1.6164534  1135544 
 5075000    1.3918253    -3.399642   -1.7839412   0.21990872    -3.399642    1.6157008  1135587 
 5076000     1.391823   -3.3997765   -1.7841382   0.21833243   -3.3997765    1.6156384  1135629 
 5077000    1.3908651   -3.3984917   -1.7840505   0.22424274   -3.3984917    1.6144412  1135689 
 5078000    1.3920613   -3.3994302   -1.7836588    0.2220142   -3.3994302    1.6157713  1135730 
 5079000    1.3921857    -3.399365   -1.7835304   0.22368352    -3.399365    1.6158346  1135787 
 5080000    1.3927515   -3.3997252    -1.783288   0.21977421   -3.3997252    1.6164372  1135825 
 5081000    1.3923571    -3.399638   -1.7837183   0.22192635    -3.399638    1.6159197  1135867 
 5082000    1.3925682   -3.3997671   -1.7836593    0.2201404   -3.3997671    1.6161078  1135907 
 5083000    1.3923758   -3.3994779   -1.7836659   0.22122719   -3.3994779     1.615812  1135958 
 5084000    1.3920078   -3.3992344   -1.7839135   0.22188752   -3.3992344    1.6153209  1136003 
 5085000    1.3925664   -3.4003315   -1.7844192   0.22108254   -3.4003315    1.6159123  1136043 
 5086000    1.3917975   -3.3994645   -1.7845113   0.21945453   -3.3994645    1.6149532  1136090 
 5087000    1.3916773    -3.398646   -1.7839034   0.22092237    -3.398646    1.6147427  1136140 
 5088000    1.3916381    -3.398656   -1.7840228    0.2212809    -3.398656    1.6146332  1136185 
 5089000    1.3925454   -3.4001502   -1.7845411   0.21706172   -3.4001502    1.6156092  1136239 
 5090000    1.3927662   -3.3999824   -1.7841982   0.21374343   -3.3999824    1.6157843  1136296 
 5091000    1.3924631   -3.4002744   -1.7848915   0.21766925   -3.4002744    1.6153828  1136331 
 5092000    1.3917934   -3.4001048   -1.7855742   0.22074156   -3.4001048    1.6145307  1136384 
 5093000    1.3918941   -3.4003857   -1.7858036   0.21682076   -3.4003857    1.6145821  1136430 
 5094000    1.3926842   -3.4002137   -1.7847962    0.2226905   -3.4002137    1.6154176  1136487 
 5095000    1.3933764   -3.4010456   -1.7849147   0.22226918   -3.4010456    1.6161309  1136550 
 5096000    1.3917256   -3.3999483   -1.7858074   0.22113875   -3.3999483    1.6141409  1136603 
 5097000    1.3919348   -3.4006029   -1.7862677   0.22375431   -3.4006029    1.6143352  1136637 
 5098000    1.3922888   -3.4015255   -1.7868393   0.21865492   -3.4015255    1.6146861  1136679 
 5099000    1.3928531    -3.401434   -1.7861545   0.21958536    -3.401434    1.6152795  1136722 
 5100000    1.3931434   -3.4017857   -1.7862306   0.22423802   -3.4017857     1.615555  1136765 
 5101000    1.3932376   -3.4019052    -1.786302   0.22617037   -3.4019052    1.6156032  1136808 
 5102000    1.3935038   -3.4025866   -1.7867359   0.22238265   -3.4025866    1.6158508  1136851 
 5103000    1.3939999    -3.402937   -1.7866076   0.22314077    -3.402937    1.6163293  1136919 
 5104000    1.3943949   -3.4028732   -1.7861569   0.21843268   -3.4028732    1.6167162  1136969 
 5105000     1.392354    -3.401046   -1.7867728   0.22442198    -3.401046    1.6142732  1137023 
 5106000     1.392375   -3.4021575   -1.7879068   0.22021695   -3.4021575    1.6142507  1137056 
 5107000    1.3925457   -3.4015879   -1.7872003    0.2279319   -3.4015879    1.6143876  1137099 
 5108000    1.3930084   -3.4028047   -1.7879376   0.22234913   -3.4028047    1.6148671  1137139 
 5109000    1.3933169   -3.4030033    -1.787851   0.22174251   -3.4030033    1.6151524  1137190 
 5110000    1.3934925   -3.4033869   -1.7880836   0.22096887   -3.4033869    1.6153033  1137227 
 5111000    1.3925378   -3.4027632   -1.7886361   0.22125754   -3.4027632    1.6141271  1137276 
 5112000    1.3918412   -3.4026626   -1.7893939   0.21941403   -3.4026626    1.6132687  1137312 
 5113000    1.3918534   -3.4033292   -1.7901103   0.22078228   -3.4033292     1.613219  1137357 
 5114000    1.3926627   -3.4039515   -1.7898683   0.22251664   -3.4039515    1.6140832  1137409 
 5115000    1.3923489   -3.4028731    -1.789216   0.21959833   -3.4028731    1.6136571  1137453 
 5116000    1.3921824   -3.4028637   -1.7894578   0.22696365   -3.4028637    1.6134059  1137494 
 5117000    1.3929578   -3.4036834   -1.7894441   0.22198441   -3.4036834    1.6142393  1137540 
 5118000    1.3937634   -3.4049259   -1.7898028   0.21698079   -3.4049259    1.6151232  1137575 
 5119000     1.392651   -3.4041882   -1.7904222   0.22094141   -3.4041882     1.613766  1137623 
 5120000    1.3930586   -3.4036871   -1.7895182   0.22325372   -3.4036871    1.6141688  1137672 
 5121000    1.3942457   -3.4054198   -1.7899479   0.21911608   -3.4054198    1.6154719  1137723 
 5122000     1.393017   -3.4040099   -1.7900283   0.22125421   -3.4040099    1.6139815  1137770 
 5123000    1.3940458   -3.4054263   -1.7903011   0.21727031   -3.4054263    1.6151252  1137804 
 5124000    1.3936732   -3.4046284   -1.7899902   0.22019251   -3.4046284    1.6146382  1137843 
 5125000    1.3939588   -3.4052121   -1.7903154   0.22099922   -3.4052121    1.6148967  1137894 
 5126000    1.3942089    -3.405184   -1.7900656   0.21981541    -3.405184    1.6151184  1137942 
 5127000    1.3938297   -3.4049612   -1.7903318   0.22393195   -3.4049612    1.6146294  1137977 
 5128000    1.3943459   -3.4050211   -1.7898448   0.22204358   -3.4050211    1.6151763  1138013 
 5129000    1.3948943   -3.4059912   -1.7902663   0.21879018   -3.4059912    1.6157249  1138074 
 5130000     1.393493   -3.4052051   -1.7911713    0.2246821   -3.4052051    1.6140337  1138122 
 5131000    1.3941193   -3.4061788   -1.7914749    0.2230245   -3.4061788    1.6147038  1138161 
 5132000    1.3937554   -3.4057744   -1.7915389   0.22587774   -3.4057744    1.6142355  1138194 
 5133000     1.393193   -3.4053483   -1.7918195   0.22282539   -3.4053483    1.6135288  1138233 
 5134000    1.3938128   -3.4061495   -1.7919709    0.2221823   -3.4061495    1.6141786  1138281 
 5135000    1.3936852   -3.4056983   -1.7917299   0.22658828   -3.4056983    1.6139684  1138325 
 5136000    1.3952238    -3.407347   -1.7916493   0.21969616    -3.407347    1.6156977  1138362 
 5137000    1.3937311   -3.4050282   -1.7911158   0.22501512   -3.4050282    1.6139125  1138402 
 5138000    1.3954845    -3.406936   -1.7910328   0.22180257    -3.406936    1.6159031  1138430 
 5139000    1.3941435   -3.4054869   -1.7912004   0.22325149   -3.4054869    1.6142865  1138475 
 5140000    1.3942009   -3.4064051   -1.7921145   0.22612833   -3.4064051    1.6142905  1138519 
 5141000    1.3944913   -3.4065788   -1.7920101   0.22243045   -3.4065788    1.6145687  1138560 
 5142000    1.3949247   -3.4078117   -1.7928136   0.22113784   -3.4078117    1.6149981  1138611 
 5143000    1.3947109   -3.4071713   -1.7924873   0.22190665   -3.4071713    1.6146839  1138658 
 5144000    1.3937145   -3.4062389   -1.7927822   0.22228086   -3.4062389    1.6134566  1138710 
 5145000    1.3937265   -3.4070938   -1.7936714   0.22082666   -3.4070938    1.6134224  1138744 
 5146000    1.3936368   -3.4061669   -1.7929022   0.22091607   -3.4061669    1.6132647  1138782 
 5147000    1.3939462   -3.4066699   -1.7931066   0.22037618   -3.4066699    1.6135633  1138824 
 5148000    1.3941001   -3.4069007   -1.7932287    0.2229721   -3.4069007    1.6136721  1138873 
 5149000    1.3949577   -3.4080072   -1.7934035   0.22420817   -3.4080072    1.6146037  1138916 
 5150000    1.3947419   -3.4078781   -1.7935893   0.21644753   -3.4078781    1.6142888  1138962 
 5151000    1.3935554   -3.4072879   -1.7944432   0.22143414   -3.4072879    1.6128447  1139012 
 5152000    1.3931833   -3.4069781   -1.7946277   0.22036033   -3.4069781    1.6123504  1139057 
 5153000    1.3940931   -3.4071856   -1.7938475   0.22204684   -3.4071856    1.6133382  1139103 
 5154000    1.3949915   -3.4072648   -1.7929563   0.22293588   -3.4072648    1.6143084  1139152 
 5155000    1.3953534   -3.4081637   -1.7935074   0.22010398   -3.4081637    1.6146563  1139202 
 5156000    1.3957884   -3.4081789   -1.7930915   0.21987265   -3.4081789    1.6150874  1139253 
 5157000    1.3965492   -3.4095446   -1.7936251   0.21872747   -3.4095446    1.6159195  1139287 
 5158000    1.3945795     -3.40721   -1.7936432   0.22462522     -3.40721    1.6135668  1139339 
 5159000    1.3940305   -3.4070349   -1.7941643   0.22575288   -3.4070349    1.6128706  1139382 
 5160000    1.3961814   -3.4099556   -1.7946729   0.21954892   -3.4099556    1.6152827  1139436 
 5161000    1.3944937   -3.4081106   -1.7948413   0.22727949   -3.4081106    1.6132693  1139479 
 5162000    1.3949887    -3.408205   -1.7944297   0.22642148    -3.408205    1.6137753  1139526 
 5163000     1.395652   -3.4093454   -1.7948777   0.22243687   -3.4093454    1.6144676  1139579 
 5164000    1.3964498   -3.4104326   -1.7951187   0.22026531   -3.4104326    1.6153139  1139633 
 5165000    1.3957191   -3.4097922   -1.7954015   0.22631707   -3.4097922    1.6143907  1139688 
 5166000    1.3951471   -3.4096383   -1.7959714   0.22130028   -3.4096383    1.6136669  1139732 
 5167000    1.3956248     -3.40982   -1.7956799    0.2231124     -3.40982    1.6141401  1139788 
 5168000    1.3952769   -3.4093354   -1.7956487   0.22196995   -3.4093354    1.6136867  1139824 
 5169000    1.3969904   -3.4111421    -1.795526   0.21768587   -3.4111421    1.6156161  1139861 
 5170000    1.3952117    -3.408885   -1.7953727   0.22143384    -3.408885    1.6135123  1139894 
 5171000    1.3958449   -3.4103627   -1.7961536   0.22046433   -3.4103627    1.6142091  1139919 
 5172000    1.3955687   -3.4104848   -1.7966475   0.22536603   -3.4104848    1.6138373  1139956 
 5173000    1.3957684   -3.4107405   -1.7967459   0.22218324   -3.4107405    1.6139946  1140008 
 5174000    1.3950172   -3.4095437    -1.796487   0.22463432   -3.4095437    1.6130567  1140057 
 5175000     1.396113    -3.410303    -1.796043   0.22469079    -3.410303      1.61426  1140102 
 5176000    1.3958338   -3.4104124   -1.7965361   0.22312362   -3.4104124    1.6138763  1140145 
 5177000    1.3946877   -3.4094296   -1.7969393   0.22351336   -3.4094296    1.6124903  1140188 
 5178000    1.3955747   -3.4103433   -1.7968925   0.22394574   -3.4103433    1.6134508  1140234 
 5179000    1.3967709    -3.411547   -1.7967869   0.22278882    -3.411547    1.6147601  1140286 
 5180000    1.3955776   -3.4103757   -1.7970588   0.21957846   -3.4103757    1.6133169  1140331 
 5181000    1.3970246   -3.4118128   -1.7969038   0.21952739   -3.4118128    1.6149089  1140388 
 5182000    1.3966407   -3.4118027   -1.7974055   0.22188522   -3.4118027    1.6143972  1140436 
 5183000    1.3950583   -3.4101109   -1.7975993   0.22616917   -3.4101109    1.6125116  1140476 
 5184000     1.396795   -3.4122018    -1.797755    0.2230685   -3.4122018    1.6144468  1140527 
 5185000    1.3952048   -3.4107595   -1.7982045   0.22526934   -3.4107595     1.612555  1140565 
 5186000     1.394401   -3.4098989   -1.7983393   0.22459851   -3.4098989    1.6115596  1140612 
 5187000    1.3965339   -3.4126618   -1.7986753    0.2209665   -3.4126618    1.6139865  1140639 
 5188000    1.3957364   -3.4115396   -1.7985313   0.22594569   -3.4115396    1.6130083  1140679 
 5189000    1.3962012   -3.4119666   -1.7984708   0.21999552   -3.4119666    1.6134958  1140714 
 5190000    1.3957934   -3.4115193   -1.7985569   0.22212949   -3.4115193    1.6129624  1140758 
 5191000    1.3961176   -3.4121871   -1.7989193   0.22082997   -3.4121871    1.6132677  1140807 
 5192000    1.3968918   -3.4130297   -1.7989424   0.22136286   -3.4130297    1.6140873  1140860 
 5193000    1.3964102   -3.4129719   -1.7995188   0.22308074   -3.4129719    1.6134531  1140915 
 5194000    1.3966711   -3.4129361   -1.7992522   0.22199639   -3.4129361    1.6136838  1140965 
 5195000    1.3962678   -3.4129991   -1.7998477   0.21969118   -3.4129991    1.6131514  1141012 
 5196000    1.3962299   -3.4129244   -1.7998804   0.22035366   -3.4129244     1.613044  1141057 
 5197000    1.3961965   -3.4123231   -1.7993954   0.22379616   -3.4123231    1.6129277  1141112 
 5198000    1.3983086    -3.414541   -1.7992455   0.21793189    -3.414541    1.6152955  1141163 
 5199000    1.3976688   -3.4137936   -1.7993052   0.22194536   -3.4137936    1.6144884  1141211 
 5200000     1.397472   -3.4134048   -1.7992059   0.22500943   -3.4134048    1.6141989  1141255 
 5201000    1.3977382   -3.4129675   -1.7985107   0.22530934   -3.4129675    1.6144569  1141290 
 5202000    1.3967721   -3.4124272   -1.7991372   0.22539914   -3.4124272    1.6132901  1141326 
 5203000    1.3982014   -3.4140449   -1.7991563   0.22225613   -3.4140449    1.6148886  1141363 
 5204000    1.3974382   -3.4130468   -1.7991118   0.22466865   -3.4130468     1.613935  1141414 
 5205000    1.3971973   -3.4130887   -1.7994955    0.2222382   -3.4130887    1.6135932  1141459 
 5206000    1.3971221   -3.4124534   -1.7990149   0.22603655   -3.4124534    1.6134385  1141507 
 5207000    1.3978151   -3.4135994     -1.79943   0.22214499   -3.4135994    1.6141694  1141556 
 5208000     1.397254   -3.4127193   -1.7992557   0.22650573   -3.4127193    1.6134636  1141597 
 5209000    1.3983182   -3.4141053   -1.7994835   0.22278305   -3.4141053    1.6146218  1141647 
 5210000    1.3982188   -3.4138772   -1.7994366   0.22334917   -3.4138772    1.6144406  1141694 
 5211000    1.3967056   -3.4129537   -1.8003169   0.22582512   -3.4129537    1.6126368  1141734 
 5212000    1.3962896   -3.4123673   -1.8002532   0.22555586   -3.4123673    1.6121141  1141764 
 5213000    1.3976491   -3.4139142   -1.8002954   0.22336186   -3.4139142    1.6136187  1141810 
 5214000    1.3981776   -3.4143524   -1.8001913   0.21973923   -3.4143524    1.6141611  1141858 
 5215000    1.3976718   -3.4138427   -1.8003136   0.22255529   -3.4138427    1.6135291  1141892 
 5216000    1.3989161   -3.4145413   -1.7996337   0.22373111   -3.4145413    1.6149076  1141933 
 5217000    1.3986234   -3.4138634   -1.7993573   0.22208408   -3.4138634     1.614506  1141978 
 5218000    1.3973922   -3.4138852   -1.8008639   0.22415303   -3.4138852    1.6130213  1142023 
 5219000    1.3980315   -3.4148846   -1.8011933   0.22391181   -3.4148846    1.6136913  1142071 
 5220000    1.3980355   -3.4154683   -1.8018274   0.22116275   -3.4154683    1.6136409  1142110 
 5221000    1.3980248   -3.4155674    -1.802001   0.22329873   -3.4155674    1.6135664  1142154 
 5222000    1.3970746   -3.4138795   -1.8014677   0.22634832   -3.4138795    1.6124118  1142195 
 5223000    1.3977981   -3.4142717   -1.8010715   0.22879813   -3.4142717    1.6132003  1142228 
 5224000    1.3986236   -3.4154783   -1.8013975   0.22292187   -3.4154783    1.6140809  1142279 
 5225000    1.3974212   -3.4145044   -1.8018705   0.22757131   -3.4145044     1.612634  1142321 
 5226000    1.3981038   -3.4157531   -1.8023908   0.22486032   -3.4157531    1.6133623  1142363 
 5227000    1.3976051   -3.4155282    -1.802802   0.22328318   -3.4155282    1.6127261  1142406 
 5228000     1.396827   -3.4144247   -1.8026557   0.22626479   -3.4144247    1.6117691  1142448 
 5229000    1.3977194   -3.4159187   -1.8031863   0.22742135   -3.4159187    1.6127324  1142495 
 5230000    1.3975302   -3.4159606   -1.8035115   0.22802478   -3.4159606    1.6124491  1142541 
 5231000    1.3980713   -3.4168238   -1.8038124   0.22482739   -3.4168238    1.6130113  1142585 
 5232000    1.3982275   -3.4167921    -1.803657   0.22468348   -3.4167921    1.6131351  1142625 
 5233000    1.3986226      -3.4172    -1.803667   0.22167777      -3.4172     1.613533  1142666 
 5234000    1.3984961   -3.4167945   -1.8034837   0.22553651   -3.4167945    1.6133108  1142720 
 5235000    1.3975027   -3.4160394   -1.8039366    0.2288882   -3.4160394    1.6121029  1142764 
 5236000    1.3988511   -3.4174496   -1.8038379   0.22546639   -3.4174496    1.6136117  1142797 
 5237000    1.3993914   -3.4178055   -1.8036214   0.22310388   -3.4178055    1.6141841  1142833 
 5238000    1.3977358   -3.4163073   -1.8041006   0.22649382   -3.4163073    1.6122066  1142881 
 5239000    1.3990743   -3.4179988   -1.8043034   0.21888803   -3.4179988    1.6136954  1142920 
 5240000    1.3984681   -3.4178849   -1.8049522   0.22481466   -3.4178849    1.6129328  1142965 
 5241000    1.3975364   -3.4174804   -1.8056885   0.22463325   -3.4174804    1.6117919  1143012 
 5242000     1.398644    -3.417754   -1.8047511   0.22186059    -3.417754    1.6130029  1143059 
 5243000     1.397832   -3.4174204   -1.8054117    0.2217471   -3.4174204    1.6120087  1143100 
 5244000    1.3982553   -3.4175497   -1.8051177   0.22755154   -3.4175497     1.612432  1143146 
 5245000    1.3981876    -3.417599   -1.8053127   0.22095368    -3.417599    1.6122862  1143194 
 5246000    1.3974504   -3.4167341   -1.8053515    0.2274037   -3.4167341    1.6113826  1143232 
 5247000    1.3987672   -3.4181108   -1.8052677   0.22328939   -3.4181108    1.6128431  1143273 
 5248000    1.3988665   -3.4181987   -1.8052976   0.22367152   -3.4181987    1.6129012  1143313 
 5249000    1.3984875   -3.4178468   -1.8054433   0.22408125   -3.4178468    1.6124035  1143356 
 5250000    1.4001079   -3.4198667   -1.8056585   0.22096929   -3.4198667    1.6142082  1143401 
 5251000    1.3985737   -3.4183646   -1.8059787   0.22533039   -3.4183646    1.6123859  1143439 
 5252000    1.3985356   -3.4177977    -1.805539   0.23082828   -3.4177977    1.6122587  1143498 
 5253000    1.3991572   -3.4183091   -1.8054085   0.22631112   -3.4183091    1.6129006  1143551 
 5254000    1.3990051   -3.4181249   -1.8054518   0.22551463   -3.4181249    1.6126731  1143588 
 5255000    1.3990599   -3.4178433   -1.8051592   0.22772543   -3.4178433    1.6126841  1143625 
 5256000    1.3999191   -3.4190112   -1.8054143   0.22177252   -3.4190112    1.6135969  1143680 
 5257000    1.4006708   -3.4204238   -1.8060227   0.22255184   -3.4204238    1.6144011  1143724 
 5258000     1.400216   -3.4196676     -1.80584   0.22945157   -3.4196676    1.6138276  1143759 
 5259000    1.4001589   -3.4192622   -1.8055638   0.22342158   -3.4192622    1.6136984  1143804 
 5260000    1.3994462    -3.418362   -1.8055457   0.22629541    -3.418362    1.6128163  1143847 
 5261000    1.4002539   -3.4201504   -1.8064582    0.2250848   -3.4201504    1.6136921  1143886 
 5262000    1.3992833   -3.4189944   -1.8064758   0.22628478   -3.4189944    1.6125185  1143925 
 5263000    1.3997341   -3.4196344   -1.8066555   0.23141778   -3.4196344    1.6129789  1143967 
 5264000    1.3994169   -3.4196336   -1.8070682   0.22770213   -3.4196336    1.6125654  1144001 
 5265000     1.399369   -3.4195145   -1.8070818   0.22476005   -3.4195145    1.6124327  1144056 
 5266000    1.3996766   -3.4200693   -1.8073329   0.22326998   -3.4200693    1.6127364  1144092 
 5267000    1.3994092   -3.4203989   -1.8080312   0.22307647   -3.4203989    1.6123677  1144135 
 5268000    1.3993806   -3.4207964    -1.808511   0.22573168   -3.4207964    1.6122854  1144170 
 5269000    1.3996272   -3.4207925   -1.8082695   0.22432518   -3.4207925     1.612523  1144203 
 5270000    1.3998706   -3.4196448   -1.8069048   0.22919209   -3.4196448      1.61274  1144248 
 5271000    1.3999536   -3.4199967   -1.8072385   0.23032744   -3.4199967    1.6127581  1144303 
 5272000    1.4001662   -3.4203516   -1.8074021   0.22547876   -3.4203516    1.6129494  1144341 
 5273000    1.4004234   -3.4212378   -1.8080428   0.22310051   -3.4212378     1.613195  1144377 
 5274000    1.3995076   -3.4200659   -1.8079864   0.22910882   -3.4200659    1.6120795  1144420 
 5275000      1.39968   -3.4206185   -1.8084009   0.22637168   -3.4206185    1.6122175  1144463 
 5276000    1.3993236   -3.4202495   -1.8085059   0.22780019   -3.4202495    1.6117436  1144508 
 5277000    1.4006787   -3.4221565    -1.808907   0.22144315   -3.4221565    1.6132494  1144547 
 5278000    1.4002885    -3.421908   -1.8091799   0.22190778    -3.421908    1.6127281  1144598 
 5279000    1.3990422   -3.4211564   -1.8099128   0.22689143   -3.4211564    1.6112435  1144633 
 5280000    1.4001324    -3.422407   -1.8099573   0.22598856    -3.422407    1.6124497  1144668 
 5281000    1.3999225    -3.422658   -1.8105092   0.22288363    -3.422658    1.6121489  1144710 
 5282000     1.400302   -3.4233006   -1.8107753   0.22862717   -3.4233006    1.6125253  1144753 
 5283000     1.399292   -3.4217049    -1.810413   0.22422441   -3.4217049    1.6112919  1144803 
 5284000    1.4000855   -3.4226658   -1.8105109   0.22409316   -3.4226658    1.6121549  1144839 
 5285000    1.4005433   -3.4225868   -1.8099513   0.23090425   -3.4225868    1.6126355  1144872 
 5286000    1.4003174   -3.4221317    -1.809814   0.22718716   -3.4221317    1.6123178  1144913 
 5287000    1.3999927   -3.4223261   -1.8104471    0.2251249   -3.4223261    1.6118791  1144959 
 5288000     1.400702    -3.423095   -1.8104767   0.22761713    -3.423095    1.6126183  1145014 
 5289000     1.401523   -3.4233684   -1.8098768   0.22708642   -3.4233684    1.6134917  1145065 
 5290000    1.4008175   -3.4231414   -1.8105212   0.22560371   -3.4231414    1.6126202  1145107 
 5291000    1.4001988   -3.4223314   -1.8104797   0.22840152   -3.4223314    1.6118517  1145147 
 5292000    1.4024405   -3.4247508   -1.8103692   0.22254821   -3.4247508    1.6143816  1145183 
 5293000    1.4016053    -3.423854   -1.8104874   0.22172691    -3.423854    1.6133666  1145221 
 5294000    1.4006071    -3.423317   -1.8111516   0.22412003    -3.423317    1.6121654  1145258 
 5295000     1.400413    -3.423258   -1.8113653   0.22782657    -3.423258    1.6118927  1145293 
 5296000    1.4000554   -3.4224837   -1.8110644   0.22526865   -3.4224837    1.6114193  1145337 
 5297000    1.3995534   -3.4230473    -1.812255   0.22181923   -3.4230473    1.6107923  1145372 
 5298000    1.4000347   -3.4234842   -1.8121957   0.22668207   -3.4234842    1.6112886  1145413 
 5299000    1.4013985   -3.4245545   -1.8117471   0.22131506   -3.4245545    1.6128074  1145449 
 5300000    1.3997786    -3.422936   -1.8120378    0.2246271    -3.422936    1.6108982  1145481 
 5301000    1.4011021   -3.4251662   -1.8127971   0.22085128   -3.4251662    1.6123691  1145518 
 5302000    1.4003161   -3.4245427   -1.8131231   0.21892587   -3.4245427    1.6114197  1145550 
 5303000    1.4002676   -3.4245678    -1.813256   0.22080826   -3.4245678    1.6113118  1145587 
 5304000    1.4005735   -3.4251034   -1.8135043   0.22270244   -3.4251034    1.6115991  1145633 
 5305000    1.4005514   -3.4250683   -1.8135368   0.22352693   -3.4250683    1.6115315  1145663 
 5306000    1.4009431   -3.4252485   -1.8133226   0.22399755   -3.4252485    1.6119259  1145703 
 5307000    1.3997561   -3.4240014   -1.8134806   0.22540093   -3.4240014    1.6105208  1145731 
 5308000    1.4013356   -3.4259312   -1.8136438   0.22596178   -3.4259312    1.6122874  1145767 
 5309000    1.4003448   -3.4248046   -1.8137245   0.22705662   -3.4248046      1.61108  1145815 
 5310000    1.4007047   -3.4250485   -1.8136065   0.22773535   -3.4250485    1.6114421  1145852 
 5311000    1.4007769   -3.4250007   -1.8135431   0.22568919   -3.4250007    1.6114576  1145900 
 5312000     1.401516    -3.426115   -1.8138549   0.22304604    -3.426115      1.61226  1145934 
 5313000    1.4013202   -3.4260229   -1.8140458   0.22933002   -3.4260229    1.6119771  1145975 
 5314000    1.4012755   -3.4262619   -1.8143953   0.22438084   -3.4262619    1.6118666  1146017 
 5315000    1.4011126   -3.4262551   -1.8146363    0.2246228   -3.4262551    1.6116187  1146060 
 5316000    1.4007206   -3.4256823   -1.8145749   0.22360303   -3.4256823    1.6111074  1146103 
 5317000    1.4024839   -3.4273145   -1.8142381   0.22366604   -3.4273145    1.6130764  1146145 
 5318000    1.4008677   -3.4258855   -1.8147241   0.22697789   -3.4258855    1.6111614  1146185 
 5319000    1.4015361   -3.4271485   -1.8152845   0.22178186   -3.4271485     1.611864  1146232 
 5320000    1.4012874    -3.426272   -1.8147391   0.22474117    -3.426272    1.6115329  1146264 
 5321000    1.4009415   -3.4258163   -1.8147486   0.22582951   -3.4258163    1.6110677  1146312 
 5322000    1.4001588   -3.4259256   -1.8158381   0.22269607   -3.4259256    1.6100875  1146369 
 5323000    1.4012387    -3.426721   -1.8154437   0.22631011    -3.426721    1.6112774  1146406 
 5324000    1.4017589   -3.4276787   -1.8158566   0.22356819   -3.4276787    1.6118221  1146444 
 5325000    1.4006177   -3.4261751   -1.8157144   0.22670468   -3.4261751    1.6104607  1146479 
 5326000    1.4018603   -3.4271308   -1.8152919   0.22273586   -3.4271308    1.6118389  1146515 
 5327000    1.4016947   -3.4264351   -1.8148387   0.22628312   -3.4264351    1.6115964  1146552 
 5328000     1.401581   -3.4258476    -1.814455   0.22522066   -3.4258476    1.6113926  1146604 
 5329000    1.4008413   -3.4252391    -1.814753   0.22758211   -3.4252391    1.6104861  1146644 
 5330000    1.4009839   -3.4259352   -1.8153484   0.22410694   -3.4259352    1.6105868  1146689 
 5331000    1.4024722   -3.4273753   -1.8151155    0.2265681   -3.4273753    1.6122598  1146716 
 5332000    1.4013063   -3.4269253   -1.8160592   0.22544622   -3.4269253    1.6108661  1146754 
 5333000    1.4020034   -3.4275373   -1.8159359   0.22759741   -3.4275373    1.6116014  1146801 
 5334000    1.4023169    -3.427247   -1.8153386   0.22421385    -3.427247    1.6119084  1146839 
 5335000    1.4009318   -3.4260598   -1.8158095   0.23094373   -3.4260598    1.6102503  1146886 
 5336000    1.4014738   -3.4269572   -1.8161205   0.22534947   -3.4269572    1.6108367  1146912 
 5337000    1.4025366   -3.4276518   -1.8156793   0.22588468   -3.4276518    1.6119725  1146973 
 5338000    1.4021693   -3.4270603   -1.8155675   0.22421579   -3.4270603    1.6114928  1147014 
 5339000    1.4020194   -3.4264537   -1.8151866   0.23009892   -3.4264537    1.6112672  1147052 
 5340000    1.4030396   -3.4282099   -1.8158336   0.22098984   -3.4282099    1.6123763  1147097 
 5341000    1.4014621   -3.4273288   -1.8168327   0.22472848   -3.4273288    1.6104961  1147145 
 5342000    1.4024697   -3.4285069   -1.8168937    0.2238341   -3.4285069    1.6116132  1147174 
 5343000    1.4013453   -3.4270786   -1.8168319   0.22641455   -3.4270786    1.6102467  1147227 
 5344000     1.402777   -3.4284562    -1.816622   0.22406537   -3.4284562    1.6118343  1147268 
 5345000     1.401762   -3.4280794   -1.8174732   0.22504176   -3.4280794    1.6106062  1147312 
 5346000    1.4014462   -3.4283244   -1.8181203   0.22326264   -3.4283244    1.6102041  1147340 
 5347000    1.4013536   -3.4283632   -1.8183244   0.22578403   -3.4283632    1.6100388  1147382 
 5348000    1.4019594   -3.4284654   -1.8177925   0.22403915   -3.4284654    1.6106729  1147426 
 5349000    1.4020982   -3.4280889    -1.817314   0.22518167   -3.4280889    1.6107749  1147467 
 5350000    1.4016367     -3.42852   -1.8183286   0.22893249     -3.42852    1.6101914  1147505 
 5351000     1.401838   -3.4289946    -1.818617   0.22624459   -3.4289946    1.6103777  1147537 
 5352000    1.4023752     -3.42988   -1.8189455   0.22014395     -3.42988    1.6109344  1147580 
 5353000    1.4037819   -3.4308188    -1.818326    0.2265282   -3.4308188    1.6124928  1147621 
 5354000    1.4026848   -3.4299914   -1.8188276    0.2220864   -3.4299914    1.6111638  1147670 
 5355000    1.4028294   -3.4298938   -1.8186145   0.22105053   -3.4298938    1.6112793  1147706 
 5356000    1.4020932   -3.4293866   -1.8190048   0.22380856   -3.4293866    1.6103818  1147743 
 5357000    1.4022186    -3.430366   -1.8198935   0.22409463    -3.430366    1.6104725  1147781 
 5358000     1.403205    -3.431381   -1.8198135   0.22597403    -3.431381    1.6115675  1147808 
 5359000     1.403667   -3.4315021   -1.8194559   0.22456624   -3.4315021    1.6120461  1147845 
 5360000    1.4034345   -3.4311053   -1.8193711   0.22686189   -3.4311053    1.6117342  1147877 
 5361000    1.4024818   -3.4304027   -1.8198258   0.22621499   -3.4304027    1.6105769  1147922 
 5362000    1.4028329   -3.4312856   -1.8203573   0.22224769   -3.4312856    1.6109283  1147959 
 5363000    1.4032342   -3.4308301      -1.8195   0.22776353   -3.4308301    1.6113301  1148001 
 5364000    1.4035319   -3.4307389   -1.8191189   0.22821329   -3.4307389      1.61162  1148038 
 5365000    1.4027858   -3.4304582    -1.819737   0.22209427   -3.4304582    1.6107212  1148068 
 5366000    1.4029448   -3.4303166   -1.8194731   0.22844171   -3.4303166    1.6108435  1148111 
 5367000    1.4033392   -3.4305394   -1.8193077   0.22892518   -3.4305394    1.6112317  1148157 
 5368000    1.4036312     -3.43117   -1.8196647   0.22605846     -3.43117    1.6115053  1148201 
 5369000    1.4028312   -3.4305536   -1.8200146   0.22694444   -3.4305536     1.610539  1148235 
 5370000    1.4044902   -3.4317697    -1.819385   0.22102451   -3.4317697    1.6123847  1148277 
 5371000    1.4026063   -3.4309474   -1.8207914   0.22423659   -3.4309474     1.610156  1148324 
 5372000    1.4034515   -3.4316658   -1.8206068    0.2262918   -3.4316658     1.611059  1148372 
 5373000    1.4026111   -3.4303551   -1.8203141   0.22482647   -3.4303551     1.610041  1148410 
 5374000      1.40325   -3.4309778   -1.8202568   0.22057185   -3.4309778     1.610721  1148448 
 5375000    1.4039237   -3.4315052   -1.8200753   0.22863315   -3.4315052    1.6114298  1148494 
 5376000    1.4032534    -3.430447   -1.8198301   0.22742439    -3.430447     1.610617  1148525 
 5377000    1.4053804   -3.4326404    -1.819641   0.22294276   -3.4326404    1.6129993  1148567 
 5378000    1.4037401   -3.4307851   -1.8197329   0.22571443   -3.4307851    1.6110522  1148613 
 5379000     1.404221   -3.4310243   -1.8194609   0.22241987   -3.4310243    1.6115634  1148642 
 5380000    1.4053373   -3.4326332   -1.8198392   0.22264473   -3.4326332     1.612794  1148678 
 5381000    1.4047015   -3.4317947   -1.8197766   0.22620501   -3.4317947    1.6120181  1148711 
 5382000    1.4039312   -3.4314154   -1.8203319   0.22382561   -3.4314154    1.6110835  1148747 
 5383000    1.4041361    -3.431778   -1.8205182   0.22678141    -3.431778    1.6112597  1148789 
 5384000    1.4052442   -3.4330317    -1.820548   0.22475324   -3.4330317    1.6124836  1148823 
 5385000     1.404489   -3.4319368   -1.8203828   0.22603462   -3.4319368    1.6115539  1148868 
 5386000    1.4050522   -3.4325666   -1.8204197   0.22844398   -3.4325666    1.6121469  1148906 
 5387000    1.4035328   -3.4309615   -1.8206112   0.23023979   -3.4309615    1.6103502  1148944 
 5388000    1.4046369   -3.4322266   -1.8206685    0.2244478   -3.4322266    1.6115581  1148986 
 5389000    1.4036192   -3.4315955   -1.8212499   0.22509461   -3.4315955    1.6103456  1149018 
 5390000    1.4045484    -3.432548   -1.8211799    0.2249123    -3.432548    1.6113682  1149049 
 5391000    1.4034407   -3.4320709   -1.8220254   0.22827183   -3.4320709    1.6100456  1149086 
 5392000    1.4042364   -3.4334041   -1.8225089   0.22511147   -3.4334041    1.6108953  1149131 
 5393000     1.404094     -3.43252   -1.8218637    0.2280667     -3.43252    1.6106562  1149185 
 5394000    1.4046093   -3.4339855    -1.822804   0.22469323   -3.4339855    1.6111814  1149232 
 5395000    1.4032512   -3.4323689   -1.8228097   0.22657325   -3.4323689    1.6095593  1149278 
 5396000    1.4043266   -3.4336156   -1.8228901   0.23135835   -3.4336156    1.6107255  1149326 
 5397000    1.4046216   -3.4348376   -1.8238187   0.22410301   -3.4348376    1.6110189  1149358 
 5398000    1.4043285   -3.4340836   -1.8234597   0.22624661   -3.4340836    1.6106239  1149400 
 5399000    1.4051517   -3.4349607   -1.8234628   0.22372508   -3.4349607     1.611498  1149450 
 5400000    1.4039937   -3.4337662   -1.8236496   0.22935875   -3.4337662    1.6101166  1149488 
 5401000     1.404343    -3.434621   -1.8241681   0.22367552    -3.434621    1.6104528  1149534 
 5402000    1.4047871    -3.434869   -1.8239643   0.22261047    -3.434869    1.6109046  1149575 
 5403000    1.4042471   -3.4344394   -1.8242227   0.22607932   -3.4344394    1.6102167  1149624 
 5404000    1.4041207    -3.434443    -1.824437   0.22574936    -3.434443     1.610006  1149671 
 5405000    1.4045578   -3.4346448   -1.8241796   0.22772079   -3.4346448    1.6104652  1149701 
 5406000    1.4036733   -3.4342175   -1.8248071   0.22699031   -3.4342175    1.6094104  1149730 
 5407000    1.4039545   -3.4345512   -1.8248759   0.22643423   -3.4345512    1.6096754  1149771 
 5408000    1.4044834   -3.4356364   -1.8254092   0.22678115   -3.4356364    1.6102272  1149810 
 5409000    1.4038969    -3.434911   -1.8254038   0.22550553    -3.434911    1.6095072  1149844 
 5410000    1.4043923   -3.4354548   -1.8254385   0.22456406   -3.4354548    1.6100163  1149886 
 5411000    1.4038878   -3.4346695   -1.8252833   0.23172236   -3.4346695    1.6093862  1149923 
 5412000    1.4050759   -3.4353866   -1.8247043   0.22845438   -3.4353866    1.6106823  1149970 
 5413000    1.4052292    -3.436065   -1.8252489   0.22390274    -3.436065    1.6108161  1150000 
 5414000    1.4045928    -3.435703    -1.825671   0.22822362    -3.435703     1.610032  1150039 
 5415000    1.4053387   -3.4362083   -1.8253718   0.22575498   -3.4362083    1.6108365  1150075 
 5416000    1.4049814   -3.4357311   -1.8253685   0.22692112   -3.4357311    1.6103626  1150121 
 5417000    1.4042631   -3.4355995   -1.8261092   0.22803326   -3.4355995    1.6094903  1150156 
 5418000    1.4034757   -3.4351154   -1.8266017   0.22811846   -3.4351154    1.6085137  1150209 
 5419000    1.4044371   -3.4363239   -1.8267712   0.22350599   -3.4363239    1.6095526  1150254 
 5420000     1.404853   -3.4365067   -1.8265265    0.2264945   -3.4365067    1.6099802  1150289 
 5421000    1.4057365   -3.4371761   -1.8262183   0.22552573   -3.4371761    1.6109577  1150314 
 5422000    1.4040098   -3.4355474   -1.8266132   0.22930179   -3.4355474    1.6089341  1150346 
 5423000    1.4050093   -3.4363037   -1.8262675   0.22554641   -3.4363037    1.6100362  1150377 
 5424000    1.4046244   -3.4364148   -1.8268826   0.22641338   -3.4364148    1.6095322  1150422 
 5425000    1.4042884   -3.4362058   -1.8271119   0.22426114   -3.4362058    1.6090939  1150460 
 5426000    1.4049459   -3.4373801   -1.8275859   0.22756925   -3.4373801    1.6097942  1150498 
 5427000    1.4046316   -3.4369923     -1.82761   0.22809903   -3.4369923    1.6093823  1150535 
 5428000    1.4044526   -3.4370701   -1.8279321   0.22114871   -3.4370701    1.6091381  1150563 
 5429000    1.4041135   -3.4368982   -1.8282032   0.22613229   -3.4368982     1.608695  1150602 
 5430000    1.4048394   -3.4376942   -1.8282025   0.22537348   -3.4376942    1.6094917  1150627 
 5431000    1.4047599   -3.4376557   -1.8283222   0.22604074   -3.4376557    1.6093335  1150675 
 5432000    1.4041268   -3.4371499   -1.8286032   0.22487172   -3.4371499    1.6085467  1150719 
 5433000    1.4049223   -3.4383224    -1.828923   0.22578907   -3.4383224    1.6093993  1150761 
 5434000    1.4049753   -3.4378588   -1.8284575   0.22196632   -3.4378588    1.6094013  1150803 
 5435000    1.4040793    -3.437945   -1.8296176   0.22858926    -3.437945    1.6083274  1150837 
 5436000    1.4051858   -3.4385177   -1.8289802    0.2252266   -3.4385177    1.6095374  1150878 
 5437000    1.4047101   -3.4391724   -1.8302259   0.22745122   -3.4391724    1.6089465  1150911 
 5438000    1.4048467    -3.438817   -1.8297532   0.22609676    -3.438817    1.6090638  1150939 
 5439000    1.4054819   -3.4400015   -1.8302563   0.22700209   -3.4400015    1.6097451  1150972 
 5440000    1.4044406   -3.4386677   -1.8301753    0.2291343   -3.4386677    1.6084924  1151015 
 5441000    1.4052513    -3.439529   -1.8301878   0.23161855    -3.439529    1.6093412  1151072 
 5442000    1.4038877   -3.4382074   -1.8304795   0.22848505   -3.4382074    1.6077279  1151109 
 5443000    1.4048926   -3.4391362   -1.8303064   0.22314091   -3.4391362    1.6088298  1151144 
 5444000    1.4049398   -3.4392349   -1.8304041   0.22781437   -3.4392349    1.6088307  1151182 
 5445000    1.4052472   -3.4401958   -1.8310676   0.22018499   -3.4401958    1.6091282  1151221 
 5446000    1.4046187   -3.4392937   -1.8309341   0.22385559   -3.4392937    1.6083596  1151256 
 5447000    1.4040469   -3.4391447   -1.8315054   0.22532574   -3.4391447    1.6076392  1151303 
 5448000     1.403822   -3.4386499   -1.8313352   0.22746126   -3.4386499    1.6073147  1151351 
 5449000    1.4046021   -3.4395043   -1.8313396   0.22490607   -3.4395043    1.6081647  1151382 
 5450000    1.4060228   -3.4406715   -1.8309376   0.22484683   -3.4406715    1.6097339  1151423 
 5451000    1.4048367   -3.4390159   -1.8307127   0.23012512   -3.4390159    1.6083033  1151475 
 5452000    1.4060083   -3.4404915   -1.8309085   0.22456059   -3.4404915    1.6095831  1151519 
 5453000    1.4055044    -3.440329   -1.8313675   0.22809512    -3.440329    1.6089615  1151551 
 5454000    1.4055624   -3.4395701   -1.8305995    0.2271576   -3.4395701    1.6089706  1151592 
 5455000    1.4061037   -3.4402127   -1.8306727   0.22832431   -3.4402127      1.60954  1151628 
 5456000    1.4066772   -3.4402414   -1.8300967   0.22669666   -3.4402414    1.6101447  1151665 
 5457000    1.4064734   -3.4401036   -1.8302454    0.2284623   -3.4401036    1.6098583  1151703 
 5458000    1.4070928   -3.4404146   -1.8298976   0.22829866   -3.4404146    1.6105169  1151739 
 5459000    1.4062413   -3.4398302   -1.8303368   0.22905338   -3.4398302    1.6094935  1151774 
 5460000    1.4072408    -3.441145   -1.8305719   0.23032878    -3.441145    1.6105731  1151820 
 5461000     1.406629   -3.4411699   -1.8313473   0.22665148   -3.4411699    1.6098226  1151856 
 5462000    1.4058346   -3.4396223   -1.8307508   0.22839759   -3.4396223    1.6088715  1151886 
 5463000    1.4067441   -3.4410386   -1.8311723   0.22648213   -3.4410386    1.6098663  1151919 
 5464000    1.4062364   -3.4402491   -1.8310072   0.22912809   -3.4402491    1.6092419  1151950 
 5465000    1.4060249   -3.4404755   -1.8315287    0.2246209   -3.4404755    1.6089468  1151988 
 5466000    1.4063505   -3.4415494     -1.83229   0.22621088   -3.4415494    1.6092594  1152031 
 5467000    1.4056394   -3.4410582   -1.8326628   0.22553663   -3.4410582    1.6083954  1152067 
 5468000    1.4059123   -3.4411519   -1.8324973   0.22810188   -3.4411519    1.6086546  1152105 
 5469000    1.4055492   -3.4406914   -1.8325026   0.22394249   -3.4406914    1.6081888  1152141 
 5470000    1.4066047   -3.4411727   -1.8318264   0.22765016   -3.4411727    1.6093462  1152177 
 5471000    1.4060406   -3.4408483    -1.832202   0.22954194   -3.4408483    1.6086463  1152216 
 5472000    1.4072081    -3.442698   -1.8327733   0.22645475    -3.442698    1.6099248  1152257 
 5473000    1.4066056   -3.4420349   -1.8328441   0.22520704   -3.4420349    1.6091908  1152289 
 5474000    1.4051901   -3.4406363   -1.8331165   0.22770088   -3.4406363    1.6075198  1152326 
 5475000    1.4057103   -3.4414816   -1.8334308   0.22549767   -3.4414816    1.6080508  1152372 
 5476000    1.4052592   -3.4406309   -1.8331548   0.22647492   -3.4406309    1.6074761  1152414 
 5477000    1.4059857   -3.4411854   -1.8329228   0.22556891   -3.4411854    1.6082626  1152446 
 5478000    1.4091598   -3.4436144   -1.8317715    0.2229034   -3.4436144    1.6118429  1152482 
 5479000    1.4066385   -3.4412137   -1.8323036   0.22930424   -3.4412137    1.6089101  1152517 
 5480000    1.4077317   -3.4429251   -1.8328064   0.22661709   -3.4429251    1.6101186  1152547 
 5481000    1.4066196   -3.4418595   -1.8330785   0.22655044   -3.4418595     1.608781  1152594 
 5482000    1.4075862   -3.4431211   -1.8332918   0.22826902   -3.4431211    1.6098293  1152635 
 5483000    1.4082392   -3.4439662   -1.8334432    0.2281228   -3.4439662     1.610523  1152673 
 5484000     1.408008    -3.443792   -1.8336061   0.23098914    -3.443792    1.6101859  1152725 
 5485000    1.4070869   -3.4432242    -1.834146   0.22861723   -3.4432242    1.6090782  1152764 
 5486000     1.406817   -3.4421663   -1.8334526   0.22668417   -3.4421663    1.6087137  1152804 
 5487000     1.408246   -3.4438191    -1.833537   0.22591444   -3.4438191    1.6102822  1152851 
 5488000    1.4072436   -3.4428295   -1.8337494   0.23012879   -3.4428295      1.60908  1152891 
 5489000    1.4081162   -3.4437668   -1.8337476   0.22943117   -3.4437668    1.6100192  1152933 
 5490000    1.4074237   -3.4435434   -1.8343775   0.22727454   -3.4435434    1.6091659  1152977 
 5491000    1.4072188    -3.443566   -1.8346804   0.23148817    -3.443566    1.6088856  1153010 
 5492000    1.4072224    -3.443708   -1.8348727   0.22914794    -3.443708    1.6088354  1153049 
 5493000    1.4065216   -3.4437649   -1.8357782   0.22439838   -3.4437649    1.6079867  1153083 
 5494000    1.4056007   -3.4427362   -1.8358482   0.23131707   -3.4427362    1.6068879  1153116 
 5495000    1.4050621    -3.442838   -1.8366242   0.22975818    -3.442838    1.6062137  1153158 
 5496000    1.4069075   -3.4443206   -1.8360474   0.22750212   -3.4443206    1.6082731  1153194 
 5497000    1.4066147   -3.4440822    -1.836201   0.22945216   -3.4440822    1.6078812  1153235 
 5498000    1.4069385   -3.4443654   -1.8361754   0.22752923   -3.4443654      1.60819  1153279 
 5499000    1.4062136   -3.4439005   -1.8365767   0.22889678   -3.4439005    1.6073238  1153306 
 5500000    1.4061333   -3.4434735   -1.8363112   0.23086467   -3.4434735    1.6071624  1153356 
 5501000    1.4080057   -3.4451396   -1.8358846   0.22561881   -3.4451396     1.609255  1153390 
 5502000    1.4070271    -3.444593   -1.8365123   0.22555721    -3.444593    1.6080807  1153430 
 5503000    1.4071195   -3.4446538   -1.8365288   0.23282425   -3.4446538     1.608125  1153474 
 5504000    1.4069924    -3.445264   -1.8373373   0.22603169    -3.445264    1.6079268  1153512 
 5505000     1.406485   -3.4450573   -1.8377675   0.23009118   -3.4450573    1.6072898  1153553 
 5506000     1.406225   -3.4444925   -1.8375556   0.22950775   -3.4444925    1.6069369  1153593 
 5507000    1.4066176   -3.4452257   -1.8378847    0.2279391   -3.4452257     1.607341  1153625 
 5508000    1.4062375   -3.4451023    -1.838257   0.22740069   -3.4451023    1.6068454  1153669 
 5509000    1.4071425   -3.4463379   -1.8385199   0.22813815   -3.4463379    1.6078181  1153713 
 5510000    1.4075204   -3.4468096   -1.8386182   0.22401379   -3.4468096    1.6081914  1153755 
 5511000    1.4074204    -3.446433   -1.8384018   0.22689333    -3.446433    1.6080312  1153788 
 5512000    1.4079807   -3.4473623   -1.8387342   0.22371938   -3.4473623    1.6086281  1153819 
 5513000    1.4060751   -3.4449448   -1.8385593   0.23034766   -3.4449448    1.6063854  1153866 
 5514000     1.408049   -3.4473058   -1.8387321   0.23002028   -3.4473058    1.6085737  1153914 
 5515000    1.4076616   -3.4470892   -1.8390096   0.22398434   -3.4470892    1.6080796  1153951 
 5516000    1.4059085   -3.4451936   -1.8391738   0.23361484   -3.4451936    1.6060198  1153992 
 5517000    1.4084378   -3.4468819   -1.8380273   0.22723969   -3.4468819    1.6088547  1154031 
 5518000    1.4075804    -3.446106   -1.8382851   0.23166852    -3.446106     1.607821  1154070 
 5519000    1.4089784   -3.4473778   -1.8380115   0.23088346   -3.4473778    1.6093663  1154107 
 5520000    1.4093889   -3.4476443    -1.837865   0.22594111   -3.4476443    1.6097793  1154147 
 5521000    1.4087539   -3.4463775   -1.8373792   0.22733653   -3.4463775    1.6089983  1154187 
 5522000    1.4093292   -3.4472148   -1.8376111   0.23101663   -3.4472148    1.6096038  1154224 
 5523000    1.4092915   -3.4471668   -1.8376703   0.23092217   -3.4471668    1.6094966  1154270 
 5524000    1.4084236   -3.4463056   -1.8378561   0.23008703   -3.4463056    1.6084496  1154310 
 5525000    1.4089867   -3.4463818   -1.8373338    0.2278424   -3.4463818     1.609048  1154342 
 5526000    1.4096752   -3.4473556   -1.8375756   0.22703328   -3.4473556      1.60978  1154381 
 5527000    1.4101736   -3.4475713    -1.837271   0.22962725   -3.4475713    1.6103003  1154416 
 5528000    1.4091081   -3.4464083   -1.8373791   0.22887952   -3.4464083    1.6090292  1154455 
 5529000    1.4083351   -3.4457053   -1.8375963    0.2272943   -3.4457053     1.608109  1154482 
 5530000    1.4073869   -3.4449411   -1.8379678   0.23222502   -3.4449411    1.6069733  1154520 
 5531000    1.4095496   -3.4475312   -1.8381441   0.22721062   -3.4475312     1.609387  1154560 
 5532000    1.4084895   -3.4467032   -1.8385852   0.23052205   -3.4467032     1.608118  1154602 
 5533000    1.4096024   -3.4479284   -1.8385857   0.22504429   -3.4479284    1.6093427  1154635 
 5534000    1.4086906   -3.4472211   -1.8389946    0.2251616   -3.4472211    1.6082265  1154689 
 5535000     1.408981   -3.4476871   -1.8391722   0.22750809   -3.4476871    1.6085149  1154720 
 5536000    1.4100984   -3.4487889    -1.839036   0.22980297   -3.4487889    1.6097529  1154747 
 5537000    1.4088488   -3.4471778   -1.8388918   0.22888983   -3.4471778    1.6082859  1154776 
 5538000    1.4093462   -3.4479644   -1.8391566    0.2281088   -3.4479644    1.6088078  1154809 
 5539000    1.4098324   -3.4479139   -1.8386165   0.22912317   -3.4479139    1.6092973  1154856 
 5540000    1.4096839   -3.4480321   -1.8389643   0.23219369   -3.4480321    1.6090678  1154899 
 5541000    1.4103334   -3.4481241   -1.8383594   0.23322833   -3.4481241    1.6097646  1154931 
 5542000    1.4088154   -3.4477649    -1.839776   0.22700922   -3.4477649    1.6079888  1154962 
 5543000    1.4098101   -3.4488706    -1.839791   0.22524838   -3.4488706    1.6090796  1154994 
 5544000    1.4095624   -3.4479741   -1.8392316   0.22790286   -3.4479741    1.6087425  1155033 
 5545000    1.4102921   -3.4492554   -1.8397289   0.23036629   -3.4492554    1.6095266  1155068 
 5546000    1.4105885    -3.450145   -1.8403233   0.22845256    -3.450145    1.6098216  1155099 
 5547000    1.4088819   -3.4485839   -1.8407587   0.23354822   -3.4485839    1.6078253  1155134 
 5548000     1.409781   -3.4505427   -1.8417428   0.22849087   -3.4505427    1.6087998  1155171 
 5549000    1.4089995   -3.4492059   -1.8413341   0.22852294   -3.4492059    1.6078717  1155197 
 5550000    1.4098653   -3.4503736    -1.841557   0.22710516   -3.4503736    1.6088166  1155228 
 5551000    1.4082646   -3.4489161   -1.8419693   0.23355913   -3.4489161    1.6069469  1155259 
 5552000    1.4075098   -3.4473127   -1.8412938   0.23613051   -3.4473127    1.6060189  1155307 
 5553000    1.4094018   -3.4498285   -1.8417079    0.2317897   -3.4498285    1.6081206  1155348 
 5554000    1.4090877   -3.4489243   -1.8412246   0.22899678   -3.4489243    1.6076997  1155393 
 5555000    1.4094216   -3.4496286   -1.8416009   0.22969993   -3.4496286    1.6080277  1155431 
 5556000    1.4090978   -3.4494901   -1.8418832   0.23037158   -3.4494901    1.6076068  1155468 
 5557000    1.4085372   -3.4493747   -1.8424547   0.22869339   -3.4493747      1.60692  1155502 
 5558000    1.4093219   -3.4499672    -1.842216   0.22874727   -3.4499672    1.6077512  1155548 
 5559000    1.4089836   -3.4501709   -1.8428669   0.23289003   -3.4501709     1.607304  1155592 
 5560000    1.4093798   -3.4504659   -1.8427697    0.2305275   -3.4504659    1.6076962  1155635 
 5561000    1.4094415   -3.4499117    -1.842198   0.22769184   -3.4499117    1.6077137  1155673 
 5562000    1.4100532    -3.450939   -1.8425831    0.2275493    -3.450939    1.6083558  1155713 
 5563000    1.4102201   -3.4516437   -1.8431365   0.23078854   -3.4516437    1.6085072  1155741 
 5564000     1.410273   -3.4519488   -1.8434384   0.22284714   -3.4519488    1.6085104  1155782 
 5565000    1.4093387   -3.4505444   -1.8431524   0.23067113   -3.4505444     1.607392  1155820 
 5566000     1.410297   -3.4515103   -1.8430796   0.23416565   -3.4515103    1.6084307  1155859 
 5567000    1.4096611   -3.4515337   -1.8438853   0.22769576   -3.4515337    1.6076484  1155900 
 5568000    1.4093333   -3.4507691   -1.8435613   0.22974988   -3.4507691    1.6072078  1155948 
 5569000    1.4089219   -3.4501382   -1.8434398     0.234196   -3.4501382    1.6066983  1155977 
 5570000    1.4089551   -3.4500432   -1.8433752   0.23343879   -3.4500432    1.6066681  1156026 
 5571000    1.4106058   -3.4515222   -1.8430329   0.23012428   -3.4515222    1.6084893  1156070 
 5572000    1.4097931   -3.4515577   -1.8440536   0.23058767   -3.4515577    1.6075041  1156112 
 5573000    1.4102153     -3.45185   -1.8439063   0.23093504     -3.45185    1.6079438  1156142 
 5574000     1.409488   -3.4512623   -1.8442103   0.23474407   -3.4512623     1.607052  1156187 
 5575000    1.4106797   -3.4529826   -1.8446316   0.23089972   -3.4529826    1.6083509  1156230 
 5576000    1.4104552   -3.4531041    -1.845062   0.22848805   -3.4531041    1.6080421  1156268 
 5577000    1.4096765   -3.4517109   -1.8446219   0.22648014   -3.4517109     1.607089  1156315 
 5578000    1.4109389   -3.4527175   -1.8442408    0.2290598   -3.4527175    1.6084767  1156352 
 5579000    1.4107645    -3.453214   -1.8449875   0.23410997    -3.453214    1.6082265  1156389 
 5580000    1.4108328   -3.4540731   -1.8458091   0.22780456   -3.4540731     1.608264  1156418 
 5581000    1.4098969   -3.4523333   -1.8451848   0.23511492   -3.4523333    1.6071485  1156453 
 5582000     1.410719   -3.4535875   -1.8455533   0.22949301   -3.4535875    1.6080341  1156490 
 5583000    1.4111504    -3.454198   -1.8457111   0.22900138    -3.454198    1.6084869  1156518 
 5584000    1.4098871   -3.4524376   -1.8454559   0.22898772   -3.4524376    1.6069817  1156565 
 5585000    1.4102058   -3.4528953   -1.8456074    0.2264797   -3.4528953    1.6072879  1156606 
 5586000    1.4110538   -3.4531238   -1.8449208   0.23117553   -3.4531238     1.608203  1156643 
 5587000    1.4112973   -3.4536542   -1.8452238      0.23044   -3.4536542    1.6084304  1156679 
 5588000    1.4105118   -3.4527349    -1.845247   0.23108779   -3.4527349    1.6074879  1156713 
 5589000    1.4112618   -3.4539279   -1.8456449   0.22954493   -3.4539279     1.608283  1156756 
 5590000    1.4094124   -3.4518373   -1.8457105   0.23020817   -3.4518373    1.6061268  1156791 
 5591000    1.4101038   -3.4519898   -1.8451335   0.23454894   -3.4519898    1.6068563  1156833 
 5592000    1.4099533   -3.4524029   -1.8457625   0.23272402   -3.4524029    1.6066404  1156865 
 5593000    1.4107251     -3.45317   -1.8456974   0.23228222     -3.45317    1.6074726  1156899 
 5594000    1.4118997   -3.4541239   -1.8453727   0.22922376   -3.4541239    1.6087512  1156942 
 5595000    1.4110264   -3.4530337   -1.8453443   0.23195063   -3.4530337    1.6076894  1156990 
 5596000     1.411552   -3.4536016   -1.8453633   0.23113031   -3.4536016    1.6082383  1157026 
 5597000    1.4121646    -3.453948   -1.8450618   0.23238855    -3.453948    1.6088862  1157062 
 5598000    1.4122016   -3.4543045    -1.845411   0.22772805   -3.4543045    1.6088935  1157087 
 5599000    1.4115191   -3.4534851   -1.8454219    0.2306277   -3.4534851    1.6080632  1157125 
 5600000     1.411342   -3.4532259   -1.8454214   0.23474648   -3.4532259    1.6078045  1157166 
 5601000     1.413407   -3.4552328   -1.8451358   0.23042772   -3.4552328    1.6100971  1157209 
 5602000    1.4124357   -3.4545436   -1.8456071   0.23345613   -3.4545436    1.6089364  1157248 
 5603000    1.4110549   -3.4534361   -1.8461211   0.23207516   -3.4534361    1.6073149  1157283 
 5604000    1.4130867   -3.4553859   -1.8458275   0.22889678   -3.4553859    1.6095584  1157334 
 5605000    1.4116169   -3.4544768   -1.8466593   0.23339275   -3.4544768    1.6078175  1157382 
 5606000    1.4126018   -3.4550723   -1.8461762    0.2283074   -3.4550723    1.6088962  1157413 
 5607000    1.4119736   -3.4547762   -1.8466511   0.23130695   -3.4547762    1.6081251  1157453 
 5608000    1.4126247   -3.4550917   -1.8462694   0.23211132   -3.4550917    1.6088222  1157485 
 5609000    1.4114644   -3.4544926   -1.8470501   0.23387843   -3.4544926    1.6074424  1157527 
 5610000    1.4117483   -3.4550399   -1.8473213   0.23148868   -3.4550399    1.6077186  1157561 
 5611000    1.4108579     -3.45478   -1.8481309   0.23211812     -3.45478     1.606649  1157601 
 5612000    1.4111299    -3.455163   -1.8482723   0.23105458    -3.455163    1.6068907  1157650 
 5613000     1.411505   -3.4561433   -1.8488907   0.23118854   -3.4561433    1.6072526  1157697 
 5614000    1.4123724   -3.4573455   -1.8491649   0.23047018   -3.4573455    1.6081806  1157740 
 5615000    1.4125676    -3.457496    -1.849139   0.22648257    -3.457496     1.608357  1157773 
 5616000     1.413148   -3.4574992   -1.8485161   0.23029351   -3.4574992     1.608983  1157798 
 5617000    1.4126344   -3.4566093   -1.8482609   0.22937188   -3.4566093    1.6083483  1157834 
 5618000    1.4115323   -3.4556514   -1.8486106   0.23271945   -3.4556514    1.6070408  1157872 
 5619000    1.4118015   -3.4560072   -1.8486988   0.23336307   -3.4560072    1.6073084  1157900 
 5620000    1.4124194   -3.4568319    -1.848877   0.23129769   -3.4568319    1.6079549  1157941 
 5621000    1.4131942   -3.4579047   -1.8491192   0.22667388   -3.4579047    1.6087855  1157978 
 5622000    1.4123145   -3.4570206   -1.8492921   0.23264688   -3.4570206    1.6077285  1158018 
 5623000    1.4128691   -3.4578925   -1.8495881   0.22979622   -3.4578925    1.6083043  1158058 
 5624000    1.4126967   -3.4572637   -1.8492083   0.23113755   -3.4572637    1.6080554  1158096 
 5625000    1.4135609   -3.4585851   -1.8495987   0.23182675   -3.4585851    1.6089863  1158134 
 5626000    1.4135586   -3.4581491   -1.8492238   0.22741867   -3.4581491    1.6089253  1158176 
 5627000    1.4133987   -3.4575062   -1.8488254   0.23249635   -3.4575062    1.6086808  1158221 
 5628000     1.413148   -3.4580685   -1.8497481   0.23144487   -3.4580685    1.6083204  1158275 
 5629000    1.4128338   -3.4578618   -1.8499434    0.2290236   -3.4578618    1.6079184  1158307 
 5630000    1.4124071   -3.4576508    -1.850247   0.23210218   -3.4576508    1.6074037  1158328 
 5631000    1.4120757   -3.4568153   -1.8498539   0.23332013   -3.4568153    1.6069614  1158375 
 5632000    1.4125789   -3.4576982   -1.8502183   0.23253059   -3.4576982    1.6074799  1158414 
 5633000    1.4131961   -3.4581679   -1.8500329   0.22773262   -3.4581679     1.608135  1158448 
 5634000     1.412375   -3.4581667   -1.8510174   0.22980188   -3.4581667    1.6071493  1158485 
 5635000    1.4123027   -3.4572273    -1.850213     0.231632   -3.4572273    1.6070144  1158523 
 5636000    1.4118403   -3.4572724    -1.850837   0.23224232   -3.4572724    1.6064355  1158561 
 5637000    1.4114789   -3.4575702   -1.8516041   0.23129993   -3.4575702    1.6059661  1158603 
 5638000    1.4122337   -3.4579459    -1.851157   0.23226532   -3.4579459    1.6067888  1158629 
 5639000    1.4116952   -3.4572485   -1.8511264   0.23130455   -3.4572485     1.606122  1158668 
 5640000    1.4123414   -3.4576863   -1.8508804   0.23503982   -3.4576863     1.606806  1158705 
 5641000    1.4124914    -3.458295   -1.8513516   0.23215887    -3.458295    1.6069434  1158729 
 5642000    1.4139689   -3.4597573   -1.8511914   0.22868586   -3.4597573    1.6085659  1158771 
 5643000    1.4128552    -3.458805   -1.8515504   0.23052459    -3.458805    1.6072546  1158803 
 5644000     1.412597   -3.4584971   -1.8515667   0.23110883   -3.4584971    1.6069303  1158825 
 5645000    1.4136355   -3.4595422   -1.8514901   0.23042068   -3.4595422     1.608052  1158868 
 5646000    1.4133701   -3.4595469   -1.8518411   0.23108204   -3.4595469    1.6077058  1158900 
 5647000    1.4133038   -3.4597215    -1.852148   0.22935746   -3.4597215    1.6075734  1158941 
 5648000    1.4124643   -3.4588207   -1.8522714   0.23452199   -3.4588207    1.6065493  1158991 
 5649000    1.4129373   -3.4587126   -1.8516808    0.2356149   -3.4587126    1.6070318  1159031 
 5650000     1.413625   -3.4595103   -1.8517546   0.23081294   -3.4595103    1.6077557  1159073 
 5651000    1.4149981   -3.4608136   -1.8515532   0.22871828   -3.4608136    1.6092604  1159114 
 5652000    1.4134171   -3.4598942   -1.8524748   0.23385267   -3.4598942    1.6074194  1159145 
 5653000    1.4139785   -3.4601409   -1.8521386   0.23307538   -3.4601409    1.6080023  1159185 
 5654000    1.4133912   -3.4595669   -1.8523003   0.23389329   -3.4595669    1.6072665  1159234 
 5655000    1.4130022   -3.4598962   -1.8531303   0.23197673   -3.4598962     1.606766  1159276 
 5656000    1.4129802   -3.4601839   -1.8535136   0.23210514   -3.4601839    1.6066703  1159327 
 5657000    1.4127257   -3.4602425   -1.8539199   0.23029709   -3.4602425    1.6063226  1159369 
 5658000    1.4130973   -3.4605651   -1.8538824   0.22838575   -3.4605651    1.6066828  1159414 
 5659000    1.4131854   -3.4605848   -1.8538615   0.23174082   -3.4605848    1.6067234  1159457 
 5660000    1.4130301   -3.4603073   -1.8538089   0.23144959   -3.4603073    1.6064984  1159492 
 5661000    1.4117986    -3.459246   -1.8542004   0.23196818    -3.459246    1.6050456  1159530 
 5662000     1.412601   -3.4597249   -1.8538085   0.23734275   -3.4597249    1.6059163  1159560 
 5663000    1.4128228   -3.4604048   -1.8542904   0.22987099   -3.4604048    1.6061144  1159599 
 5664000    1.4136317   -3.4613262   -1.8543475   0.23024221   -3.4613262    1.6069786  1159639 
 5665000    1.4141532   -3.4621743   -1.8546542   0.23068479   -3.4621743    1.6075201  1159676 
 5666000    1.4134774   -3.4612999   -1.8546048   0.23104376   -3.4612999    1.6066952  1159717 
 5667000    1.4133406   -3.4605041   -1.8540199   0.23350186   -3.4605041    1.6064842  1159757 
 5668000    1.4128334   -3.4602638   -1.8544018   0.23394411   -3.4602638     1.605862  1159790 
 5669000    1.4150023   -3.4627676   -1.8545042    0.2279706   -3.4627676    1.6082634  1159836 
 5670000    1.4135448    -3.461901   -1.8553454   0.22807299    -3.461901    1.6065556  1159873 
 5671000    1.4133023   -3.4620352   -1.8558009    0.2277488   -3.4620352    1.6062343  1159906 
 5672000    1.4134439   -3.4620662   -1.8557235   0.22905903   -3.4620662    1.6063427  1159944 
 5673000    1.4130527   -3.4616241   -1.8557704   0.23104316   -3.4616241    1.6058537  1159976 
 5674000    1.4137414   -3.4617679   -1.8551772    0.2310731   -3.4617679    1.6065907  1160009 
 5675000     1.413678   -3.4624676   -1.8559946   0.23359009   -3.4624676     1.606473  1160042 
 5676000    1.4130179   -3.4621823    -1.856501   0.22750112   -3.4621823    1.6056812  1160072 
 5677000    1.4133679   -3.4624482   -1.8564232    0.2289378   -3.4624482     1.606025  1160111 
 5678000    1.4136251   -3.4623277    -1.856052    0.2285576   -3.4623277    1.6062757  1160141 
 5679000    1.4146219   -3.4640208   -1.8566595   0.22862933   -3.4640208    1.6073613  1160175 
 5680000    1.4133056   -3.4630349   -1.8572205   0.23276279   -3.4630349    1.6058144  1160212 
 5681000    1.4128454   -3.4630484   -1.8578053   0.23183069   -3.4630484    1.6052431  1160247 
 5682000    1.4136371    -3.463775    -1.857674    0.2344462    -3.463775    1.6061011  1160277 
 5683000    1.4145322   -3.4646265   -1.8575597   0.22782969   -3.4646265    1.6070668  1160314 
 5684000    1.4130936   -3.4628357   -1.8574449   0.23340289   -3.4628357    1.6053909  1160344 
 5685000    1.4146281   -3.4645645   -1.8574926   0.22724795   -3.4645645    1.6070719  1160389 
 5686000    1.4140011   -3.4633572     -1.85706   0.23146933   -3.4633572    1.6062972  1160434 
 5687000    1.4140301   -3.4636728    -1.857384   0.23313078   -3.4636728    1.6062887  1160464 
 5688000    1.4137205   -3.4636472   -1.8577475   0.23409239   -3.4636472    1.6058996  1160491 
 5689000    1.4132706    -3.462825   -1.8574793   0.23173145    -3.462825    1.6053457  1160522 
 5690000    1.4142805   -3.4644867   -1.8580437   0.23079555   -3.4644867     1.606443  1160558 
 5691000    1.4133918   -3.4638026   -1.8584064   0.23536571   -3.4638026    1.6053962  1160585 
 5692000    1.4139228   -3.4645934   -1.8586369   0.22942235   -3.4645934    1.6059565  1160616 
 5693000    1.4134518   -3.4639482   -1.8585835   0.22925414   -3.4639482    1.6053647  1160657 
 5694000    1.4141838   -3.4642249   -1.8580923   0.23050233   -3.4642249    1.6061326  1160703 
 5695000    1.4128079   -3.4629899   -1.8584684   0.23605101   -3.4629899    1.6045215  1160738 
 5696000    1.4134792   -3.4637321   -1.8584911   0.23477786   -3.4637321     1.605241  1160769 
 5697000    1.4141174   -3.4648433   -1.8589342   0.22879726   -3.4648433    1.6059091  1160810 
 5698000    1.4147952   -3.4649488   -1.8583184   0.23051364   -3.4649488    1.6066303  1160845 
 5699000    1.4135056   -3.4638694   -1.8587588   0.22740432   -3.4638694    1.6051106  1160885 
 5700000     1.413911   -3.4650703   -1.8595643   0.22813101   -3.4650703    1.6055059  1160932 
 5701000    1.4140183   -3.4648401   -1.8592621   0.22741079   -3.4648401     1.605578  1160968 
 5702000    1.4129352   -3.4644133   -1.8601272   0.23029002   -3.4644133     1.604286  1161013 
 5703000    1.4132736   -3.4643696   -1.8597464   0.23251509   -3.4643696    1.6046232  1161047 
 5704000    1.4149062   -3.4661731   -1.8597432   0.22698052   -3.4661731    1.6064298  1161081 
 5705000    1.4147194   -3.4660427   -1.8598941   0.23234673   -3.4660427    1.6061486  1161131 
 5706000     1.413209    -3.464266   -1.8598722   0.23584499    -3.464266    1.6043937  1161160 
 5707000    1.4141915   -3.4658851    -1.860423   0.22953517   -3.4658851    1.6054621  1161194 
 5708000    1.4146147   -3.4662909   -1.8604092   0.23247277   -3.4662909    1.6058817  1161238 
 5709000    1.4146561    -3.466089     -1.86021   0.23071728    -3.466089    1.6058789  1161274 
 5710000    1.4159185   -3.4675068   -1.8602128   0.23147017   -3.4675068     1.607294  1161287 
 5711000     1.415805    -3.467096   -1.8599849    0.2321589    -3.467096    1.6071111  1161326 
 5712000     1.414274   -3.4661938    -1.860873   0.23296828   -3.4661938    1.6053208  1161364 
 5713000    1.4150357   -3.4667671   -1.8606329   0.22776637   -3.4667671    1.6061342  1161401 
 5714000    1.4133396   -3.4644395   -1.8602705     0.236995   -3.4644395     1.604169  1161430 
 5715000    1.4140356    -3.466509    -1.861597   0.23239441    -3.466509     1.604912  1161464 
 5716000    1.4140727   -3.4671047   -1.8622197   0.23034931   -3.4671047     1.604885  1161514 
 5717000    1.4136421   -3.4666801   -1.8623294   0.23017419   -3.4666801    1.6043507  1161547 
 5718000    1.4138346   -3.4665546   -1.8620255   0.23419315   -3.4665546    1.6045291  1161576 
 5719000     1.415064   -3.4683148   -1.8624346   0.22910416   -3.4683148    1.6058801  1161608 
 5720000     1.413694   -3.4661653   -1.8618952   0.23449586   -3.4661653    1.6042701  1161648 
 5721000    1.4140561   -3.4664308   -1.8618023   0.23862819   -3.4664308    1.6046285  1161686 
 5722000    1.4150835   -3.4672697   -1.8615278   0.23218404   -3.4672697    1.6057419  1161724 
 5723000    1.4144407   -3.4670937   -1.8621337    0.2288743   -3.4670937      1.60496  1161762 
 5724000    1.4145385   -3.4672526   -1.8622314    0.2278172   -3.4672526    1.6050212  1161798 
 5725000    1.4137853   -3.4668498   -1.8627399   0.23309294   -3.4668498      1.60411  1161839 
 5726000    1.4137941   -3.4667268   -1.8626469   0.23575402   -3.4667268    1.6040799  1161868 
 5727000     1.414823   -3.4678668    -1.862672   0.23110494   -3.4678668    1.6051948  1161906 
 5728000    1.4142831    -3.467712   -1.8631698   0.23444274    -3.467712    1.6045422  1161935 
 5729000    1.4153121   -3.4684187   -1.8627589   0.23069325   -3.4684187    1.6056598  1161971 
 5730000    1.4146648   -3.4675874   -1.8627158   0.22913317   -3.4675874    1.6048716  1162010 
 5731000    1.4144664    -3.468025   -1.8634365   0.22956762    -3.468025    1.6045886  1162052 
 5732000    1.4137467   -3.4673612   -1.8636539    0.2297109   -3.4673612    1.6037073  1162099 
 5733000    1.4137208   -3.4675033   -1.8638627   0.23130734   -3.4675033    1.6036406  1162126 
 5734000    1.4144081   -3.4682006   -1.8638272   0.23052772   -3.4682006    1.6043733  1162160 
 5735000    1.4135565    -3.467929   -1.8645589   0.23265376    -3.467929    1.6033702  1162187 
 5736000    1.4143013    -3.468758   -1.8646079   0.22821969    -3.468758    1.6041501  1162234 
 5737000    1.4151105   -3.4696062   -1.8645936   0.23077881   -3.4696062    1.6050126  1162274 
 5738000    1.4143016   -3.4683771   -1.8643275   0.23481728   -3.4683771    1.6040496  1162307 
 5739000    1.4143609   -3.4687059   -1.8646345   0.23291934   -3.4687059    1.6040714  1162340 
 5740000    1.4132216   -3.4671907   -1.8644666   0.23313906   -3.4671907    1.6027241  1162380 
 5741000    1.4142012   -3.4695825   -1.8657888    0.2290114   -3.4695825    1.6037937  1162410 
 5742000    1.4142138   -3.4696537   -1.8658789   0.22970689   -3.4696537    1.6037748  1162434 
 5743000    1.4143897   -3.4692459   -1.8653268   0.23238799   -3.4692459    1.6039191  1162474 
 5744000    1.4148675   -3.4698465   -1.8654421   0.22912632   -3.4698465    1.6044044  1162515 
 5745000    1.4141786   -3.4691975   -1.8656212    0.2317957   -3.4691975    1.6035762  1162549 
 5746000     1.414224    -3.469316   -1.8657504   0.23051027    -3.469316    1.6035657  1162594 
 5747000    1.4149102   -3.4702018   -1.8658982    0.2324252   -3.4702018    1.6043037  1162623 
 5748000    1.4134315   -3.4699043   -1.8673434   0.22889732   -3.4699043    1.6025609  1162671 
 5749000    1.4140412   -3.4707814   -1.8675692   0.22704128   -3.4707814    1.6032122  1162700 
 5750000    1.4136807   -3.4699752   -1.8672227   0.22888695   -3.4699752    1.6027525  1162737 
 5751000    1.4142487   -3.4707122   -1.8673695   0.23321268   -3.4707122    1.6033426  1162776 
 5752000    1.4149536   -3.4707264   -1.8666328   0.23077601   -3.4707264    1.6040935  1162811 
 5753000    1.4149036   -3.4708305   -1.8668239   0.22886644   -3.4708305    1.6040066  1162833 
 5754000    1.4155227   -3.4715183   -1.8668486   0.23074313   -3.4715183    1.6046697  1162861 
 5755000    1.4145948   -3.4700322   -1.8664516   0.23491489   -3.4700322    1.6035806  1162888 
 5756000    1.4149285   -3.4705396   -1.8666414   0.22740739   -3.4705396    1.6038982  1162932 
 5757000    1.4160505   -3.4720198   -1.8668857   0.22654114   -3.4720198    1.6051341  1162958 
 5758000    1.4144391   -3.4702975   -1.8670477   0.23723853   -3.4702975    1.6032497  1163000 
 5759000    1.4156666   -3.4716267   -1.8670202   0.23062776   -3.4716267    1.6046065  1163025 
 5760000    1.4151791   -3.4713335   -1.8673278   0.22782952   -3.4713335    1.6040057  1163060 
 5761000    1.4149696   -3.4706838    -1.866979   0.23003501   -3.4706838    1.6037048  1163106 
 5762000    1.4164537     -3.47208   -1.8667455   0.22875016     -3.47208    1.6053345  1163144 
 5763000    1.4154307   -3.4713155   -1.8671819   0.23173964   -3.4713155    1.6041337  1163174 
 5764000       1.4147   -3.4705634   -1.8672965   0.23652632   -3.4705634    1.6032669  1163202 
 5765000    1.4149444   -3.4710106   -1.8675177   0.22878966   -3.4710106    1.6034929  1163239 
 5766000    1.4156179   -3.4722297   -1.8680094   0.22795261   -3.4722297    1.6042203  1163265 
 5767000    1.4147334   -3.4711875    -1.868026   0.23319052   -3.4711875    1.6031615  1163306 
 5768000    1.4154394   -3.4715247   -1.8675921   0.23202927   -3.4715247    1.6039326  1163327 
 5769000    1.4143208   -3.4709415   -1.8683192   0.23239776   -3.4709415    1.6026223  1163358 
 5770000    1.4150812   -3.4713205    -1.867878   0.23309428   -3.4713205    1.6034426  1163388 
 5771000    1.4144267    -3.471922   -1.8692734   0.23143171    -3.471922    1.6026486  1163426 
 5772000    1.4158365   -3.4728007   -1.8686043   0.23028314   -3.4728007    1.6041964  1163462 
 5773000    1.4146811   -3.4724261   -1.8695843   0.22799496   -3.4724261    1.6028418  1163495 
 5774000    1.4142361   -3.4711077   -1.8688182   0.23286381   -3.4711077    1.6022894  1163530 
 5775000    1.4163557   -3.4735021   -1.8688581   0.22422379   -3.4735021     1.604644  1163564 
 5776000    1.4151751   -3.4719471   -1.8686986   0.23225961   -3.4719471    1.6032485  1163606 
 5777000    1.4148225   -3.4714367   -1.8686441   0.23375728   -3.4714367    1.6027926  1163647 
 5778000     1.415353   -3.4721647   -1.8688206    0.2336277   -3.4721647     1.603344  1163683 
 5779000    1.4150374   -3.4723031   -1.8693704   0.22880088   -3.4723031    1.6029327  1163722 
 5780000     1.416205   -3.4732189   -1.8690062    0.2299498   -3.4732189    1.6042127  1163753 
 5781000    1.4153921   -3.4720735   -1.8688272   0.23663513   -3.4720735    1.6032463  1163786 
 5782000    1.4157213   -3.4723711   -1.8687945   0.23262739   -3.4723711    1.6035766  1163817 
 5783000    1.4162038    -3.472442   -1.8683617   0.23246434    -3.472442    1.6040803  1163848 
 5784000    1.4163018   -3.4731036    -1.868955   0.23314258   -3.4731036    1.6041487  1163879 
 5785000    1.4167613   -3.4734475   -1.8688212   0.23538339   -3.4734475    1.6046263  1163910 
 5786000    1.4150823   -3.4724586   -1.8697793   0.23095118   -3.4724586    1.6026793  1163943 
 5787000    1.4146122   -3.4721137   -1.8700027   0.23262323   -3.4721137     1.602111  1163969 
 5788000    1.4162941   -3.4732499    -1.869285   0.22494636   -3.4732499    1.6039649  1164006 
 5789000    1.4147176   -3.4718252   -1.8697035   0.23270324   -3.4718252    1.6021217  1164048 
 5790000    1.4162013   -3.4733149   -1.8695666   0.22919363   -3.4733149    1.6037482  1164087 
 5791000    1.4148099   -3.4718331    -1.869717   0.23232283   -3.4718331    1.6021161  1164128 
 5792000    1.4153638   -3.4721851   -1.8694913   0.23038782   -3.4721851    1.6026938  1164164 
 5793000    1.4162776    -3.472963   -1.8692828   0.23212203    -3.472963    1.6036803  1164199 
 5794000    1.4161126   -3.4735263   -1.8700687   0.22805181   -3.4735263    1.6034576  1164225 
 5795000    1.4168751   -3.4738509   -1.8695892    0.2296402   -3.4738509    1.6042617  1164268 
 5796000     1.416115   -3.4731047   -1.8697614   0.23070697   -3.4731047    1.6033433  1164310 
 5797000    1.4164768   -3.4731893   -1.8694804   0.23256766   -3.4731893    1.6037089  1164342 
 5798000    1.4167097   -3.4730401   -1.8691117   0.23307618   -3.4730401    1.6039284  1164374 
 5799000    1.4170323   -3.4736338   -1.8693938   0.23175683   -3.4736338      1.60424  1164413 
 5800000    1.4172275   -3.4740915   -1.8696788   0.23036024   -3.4740915    1.6044127  1164448 
 5801000    1.4170962   -3.4742977   -1.8700722   0.23019238   -3.4742977    1.6042255  1164476 
 5802000     1.417209   -3.4742185   -1.8699066   0.22711858   -3.4742185    1.6043118  1164506 
 5803000    1.4170401   -3.4741026    -1.870026   0.23095685   -3.4741026    1.6040766  1164538 
 5804000    1.4165457    -3.473677   -1.8701986   0.23404966    -3.473677    1.6034784  1164566 
 5805000    1.4160753   -3.4735583   -1.8706826    0.2348047   -3.4735583    1.6028757  1164617 
 5806000    1.4177719   -3.4755279   -1.8707897    0.2301146   -3.4755279    1.6047382  1164659 
 5807000    1.4172342   -3.4754687   -1.8713803   0.23430724   -3.4754687    1.6040883  1164689 
 5808000    1.4163285   -3.4747317   -1.8717221    0.2356625   -3.4747317    1.6030096  1164728 
 5809000     1.416779   -3.4755537   -1.8720866   0.23323355   -3.4755537    1.6034671  1164766 
 5810000    1.4164029    -3.475883   -1.8728814   0.23140924    -3.475883    1.6030015  1164795 
 5811000    1.4163447   -3.4757111   -1.8728044   0.23480756   -3.4757111    1.6029067  1164816 
 5812000    1.4171814   -3.4760323   -1.8722241   0.23064554   -3.4760323    1.6038082  1164849 
 5813000    1.4165217   -3.4753467   -1.8723429   0.23345321   -3.4753467    1.6030038  1164891 
 5814000    1.4167934   -3.4757558    -1.872505   0.23347621   -3.4757558    1.6032508  1164935 
 5815000     1.417004   -3.4760738   -1.8726425   0.23241375   -3.4760738    1.6034313  1164977 
 5816000     1.416641   -3.4757785   -1.8728172   0.23353258   -3.4757785    1.6029613  1165020 
 5817000    1.4175989   -3.4763645   -1.8723854   0.23394528   -3.4763645    1.6039792  1165068 
 5818000    1.4161927   -3.4752617   -1.8729205   0.23336679   -3.4752617    1.6023413  1165102 
 5819000    1.4173714   -3.4762651   -1.8726328   0.23135381   -3.4762651    1.6036323  1165133 
 5820000    1.4162743   -3.4760403   -1.8736987   0.23165341   -3.4760403    1.6023415  1165169 
 5821000    1.4171923   -3.4773292   -1.8739821   0.22973161   -3.4773292    1.6033471  1165193 
 5822000    1.4169509   -3.4768357   -1.8738071   0.22932386   -3.4768357    1.6030286  1165226 
 5823000    1.4160567    -3.475973   -1.8740069   0.23141645    -3.475973     1.601966  1165263 
 5824000    1.4171507   -3.4772554   -1.8740875   0.23070887   -3.4772554     1.603168  1165289 
 5825000    1.4153839   -3.4751432   -1.8740221   0.23428204   -3.4751432    1.6011211  1165324 
 5826000    1.4162555   -3.4762827   -1.8742264   0.23137944   -3.4762827    1.6020563  1165361 
 5827000    1.4161669   -3.4766707     -1.87476   0.23086463   -3.4766707    1.6019107  1165394 
 5828000    1.4178877   -3.4777873   -1.8739811   0.22913492   -3.4777873    1.6038062  1165431 
 5829000    1.4174183   -3.4774042   -1.8741757   0.23087253   -3.4774042    1.6032285  1165465 
 5830000    1.4174027   -3.4768932   -1.8737291   0.23413323   -3.4768932    1.6031641  1165499 
 5831000    1.4176197   -3.4768137   -1.8734399    0.2327653   -3.4768137    1.6033738  1165525 
 5832000    1.4179618   -3.4774367   -1.8737201   0.22891575   -3.4774367    1.6037167  1165557 
 5833000    1.4178816   -3.4780897    -1.874516   0.23261484   -3.4780897    1.6035737  1165595 
 5834000    1.4160436   -3.4761735   -1.8747225   0.23474265   -3.4761735     1.601451  1165627 
 5835000    1.4165865   -3.4766615   -1.8746377   0.23459958   -3.4766615    1.6020238  1165657 
 5836000    1.4163186   -3.4772629   -1.8755971   0.23072076   -3.4772629    1.6016658  1165697 
 5837000    1.4168956   -3.4770364   -1.8747704    0.2352252   -3.4770364    1.6022661  1165735 
 5838000    1.4175633   -3.4775504   -1.8745719   0.23427204   -3.4775504    1.6029785  1165766 
 5839000    1.4172297   -3.4778842   -1.8753255   0.23228657   -3.4778842    1.6025587  1165797 
 5840000    1.4170385   -3.4780041   -1.8757207   0.23663509   -3.4780041    1.6022834  1165840 
 5841000    1.4181919   -3.4790127   -1.8754637   0.23237547   -3.4790127     1.603549  1165868 
 5842000    1.4174998   -3.4784365   -1.8757168   0.23504147   -3.4784365    1.6027197  1165902 
 5843000    1.4165347   -3.4776838   -1.8761075   0.23245223   -3.4776838    1.6015763  1165940 
 5844000    1.4182131   -3.4794149   -1.8759987   0.23146384   -3.4794149    1.6034162  1165982 
 5845000    1.4173043   -3.4788277   -1.8764885   0.23218002   -3.4788277    1.6023393  1166018 
 5846000    1.4164927   -3.4786198   -1.8772435   0.23471401   -3.4786198    1.6013764  1166051 
 5847000    1.4177952   -3.4786255   -1.8758055   0.23287629   -3.4786255      1.60282  1166072 
 5848000    1.4183343   -3.4791309   -1.8757564   0.23508131   -3.4791309    1.6033745  1166112 
 5849000    1.4177942   -3.4786113   -1.8758927   0.23679235   -3.4786113    1.6027186  1166145 
 5850000     1.416887   -3.4783284   -1.8766766   0.23410309   -3.4783284    1.6016518  1166175 
 5851000     1.417302   -3.4787238   -1.8766591   0.23132609   -3.4787238    1.6020647  1166216 
 5852000    1.4186334   -3.4795044   -1.8760008   0.22878101   -3.4795044    1.6035036  1166264 
 5853000    1.4182921   -3.4794254   -1.8763434   0.23339256   -3.4794254    1.6030821  1166290 
 5854000    1.4174948    -3.479606   -1.8774868   0.22731221    -3.479606    1.6021191  1166335 
 5855000    1.4179115   -3.4795286   -1.8769715   0.22973016   -3.4795286    1.6025571  1166359 
 5856000     1.418375   -3.4797224   -1.8766978    0.2324471   -3.4797224    1.6030246  1166400 
 5857000    1.4185109   -3.4797743   -1.8766361   0.23105714   -3.4797743    1.6031383  1166429 
 5858000    1.4186811   -3.4800492   -1.8767722   0.23066332   -3.4800492     1.603277  1166468 
 5859000    1.4186837   -3.4803004   -1.8770576   0.22866388   -3.4803004    1.6032429  1166495 
 5860000    1.4179555    -3.479124   -1.8767563   0.23896176    -3.479124    1.6023677  1166533 
 5861000    1.4179917   -3.4796992   -1.8773413   0.23364516   -3.4796992    1.6023579  1166570 
 5862000    1.4178323    -3.479069   -1.8769421   0.23464689    -3.479069    1.6021269  1166607 
 5863000    1.4189744   -3.4807512   -1.8773654   0.22995816   -3.4807512    1.6033858  1166630 
 5864000    1.4181253   -3.4805863   -1.8781873   0.23456777   -3.4805863     1.602399  1166650 
 5865000    1.4185283   -3.4805448   -1.8777468   0.23492335   -3.4805448     1.602798  1166691 
 5866000    1.4191024   -3.4815757   -1.8781867   0.23091521   -3.4815757     1.603389  1166733 
 5867000    1.4179547   -3.4801136   -1.8780599   0.23310095   -3.4801136    1.6020537  1166761 
 5868000    1.4181304    -3.480718   -1.8785028   0.23255736    -3.480718    1.6022152  1166788 
 5869000    1.4170848   -3.4799325   -1.8789356   0.23502051   -3.4799325    1.6009968  1166815 
 5870000    1.4184654   -3.4821594   -1.8796454   0.23079043   -3.4821594     1.602514  1166846 
 5871000    1.4179612   -3.4813473   -1.8794455   0.22964005   -3.4813473    1.6019018  1166877 
 5872000    1.4184256    -3.481368   -1.8789923   0.23138487    -3.481368    1.6023757  1166914 
 5873000    1.4172718   -3.4809363   -1.8799025   0.23299811   -3.4809363    1.6010338  1166942 
 5874000    1.4173351   -3.4814245   -1.8803549   0.23037841   -3.4814245    1.6010696  1166968 
 5875000    1.4186163   -3.4829508   -1.8804875   0.22980538   -3.4829508    1.6024633  1167007 
 5876000    1.4173546   -3.4814985   -1.8805248   0.23419149   -3.4814985    1.6009737  1167054 
 5877000    1.4175263   -3.4822435   -1.8811349   0.23126869   -3.4822435    1.6011087  1167097 
 5878000    1.4170952   -3.4817515   -1.8811737   0.23192185   -3.4817515    1.6005778  1167129 
 5879000    1.4175209   -3.4822074   -1.8811953    0.2337847   -3.4822074    1.6010121  1167163 
 5880000    1.4172067   -3.4817703   -1.8811708   0.23619067   -3.4817703    1.6005995  1167205 
 5881000    1.4175772    -3.482159   -1.8811822   0.23375076    -3.482159    1.6009768  1167235 
 5882000    1.4183542   -3.4832932   -1.8814896   0.23257169   -3.4832932    1.6018036  1167272 
 5883000    1.4171145   -3.4815037   -1.8811523   0.23660719   -3.4815037    1.6003514  1167310 
 5884000    1.4171766   -3.4815151    -1.881136   0.23920757   -3.4815151    1.6003791  1167341 
 5885000    1.4185201   -3.4829672   -1.8811176   0.23259213   -3.4829672    1.6018496  1167375 
 5886000    1.4192973   -3.4843099   -1.8816335   0.23068251   -3.4843099    1.6026764  1167412 
 5887000    1.4185715   -3.4826362    -1.880811    0.2334447   -3.4826362    1.6018253  1167435 
 5888000    1.4185485   -3.4832948   -1.8815311   0.23460905   -3.4832948    1.6017637  1167461 
 5889000    1.4192905   -3.4836311   -1.8810846   0.22782554   -3.4836311    1.6025466  1167501 
 5890000    1.4192215   -3.4837199   -1.8812883   0.23024116   -3.4837199    1.6024316  1167528 
 5891000    1.4184993   -3.4829947   -1.8814087   0.23493191   -3.4829947     1.601586  1167550 
 5892000    1.4179785   -3.4831336   -1.8821863   0.23204002   -3.4831336    1.6009473  1167587 
 5893000    1.4180183   -3.4829564   -1.8820067   0.23151848   -3.4829564    1.6009497  1167618 
 5894000    1.4169638   -3.4821887   -1.8824734     0.232791   -3.4821887    1.5997153  1167650 
 5895000    1.4185729   -3.4838144   -1.8823113   0.23013701   -3.4838144    1.6015031  1167671 
 5896000    1.4175489   -3.4825239   -1.8822166   0.23135503   -3.4825239    1.6003073  1167700 
 5897000    1.4187691   -3.4844154   -1.8827881   0.22952983   -3.4844154    1.6016272  1167742 
 5898000    1.4180854    -3.484269   -1.8834643   0.22912525    -3.484269    1.6008047  1167779 
 5899000    1.4176664   -3.4836064   -1.8833213   0.22960081   -3.4836064    1.6002851  1167813 
 5900000    1.4178577   -3.4835777   -1.8831342   0.23397546   -3.4835777    1.6004435  1167855 
 5901000    1.4183585   -3.4833563   -1.8823927   0.23306358   -3.4833563    1.6009636  1167888 
 5902000    1.4186256   -3.4838579   -1.8826381    0.2370826   -3.4838579    1.6012198  1167921 
 5903000    1.4190605   -3.4843031   -1.8826377   0.23416057   -3.4843031    1.6016655  1167954 
 5904000    1.4187712   -3.4840087    -1.882726   0.23186303   -3.4840087    1.6012827  1167995 
 5905000    1.4198816   -3.4849167   -1.8824247   0.23538478   -3.4849167     1.602492  1168027 
 5906000    1.4187387   -3.4837823   -1.8826131   0.23613387   -3.4837823    1.6011692  1168051 
 5907000    1.4194169   -3.4847272   -1.8828447   0.23343947   -3.4847272    1.6018825  1168089 
 5908000    1.4183851   -3.4840022    -1.883343   0.23103975   -3.4840022    1.6006592  1168132 
 5909000    1.4178727   -3.4835811   -1.8835331   0.24022102   -3.4835811     1.600048  1168156 
 5910000    1.4193415   -3.4853998   -1.8837367    0.2326406   -3.4853998    1.6016631  1168187 
 5911000     1.418291   -3.4845236   -1.8840994   0.23546343   -3.4845236    1.6004242  1168226 
 5912000    1.4196107   -3.4858914   -1.8840329   0.22857523   -3.4858914    1.6018585  1168266 
 5913000     1.419565   -3.4857607   -1.8839907   0.23393374   -3.4857607      1.60177  1168293 
 5914000    1.4189049   -3.4849719   -1.8839838   0.23823438   -3.4849719    1.6009881  1168320 
 5915000    1.4182682   -3.4837055   -1.8834728    0.2364455   -3.4837055    1.6002327  1168347 
 5916000    1.4187554   -3.4845419   -1.8838033    0.2336977   -3.4845419    1.6007386  1168379 
 5917000    1.4205999   -3.4868374   -1.8840616   0.23291061   -3.4868374    1.6027758  1168411 
 5918000    1.4189161   -3.4847567   -1.8839163   0.23179079   -3.4847567    1.6008404  1168437 
 5919000    1.4179507   -3.4844752   -1.8847719   0.23266417   -3.4844752    1.5997033  1168472 
 5920000    1.4194362   -3.4853286   -1.8839933   0.23165602   -3.4853286    1.6013354  1168504 
 5921000    1.4190778   -3.4846946   -1.8838074   0.23251188   -3.4846946    1.6008873  1168536 
 5922000    1.4193435    -3.485457   -1.8843139   0.23485579    -3.485457    1.6011431  1168568 
 5923000    1.4194566   -3.4854314   -1.8842238   0.23345088   -3.4854314    1.6012077  1168614 
 5924000    1.4201618   -3.4865021   -1.8845441   0.22877637   -3.4865021    1.6019579  1168647 
 5925000    1.4181602   -3.4843169   -1.8846633   0.23348156   -3.4843169    1.5996536  1168681 
 5926000     1.419207   -3.4858779    -1.885097   0.23231447   -3.4858779    1.6007809  1168720 
 5927000     1.420346   -3.4872004    -1.885176   0.22990652   -3.4872004    1.6020245  1168750 
 5928000    1.4199447   -3.4860652   -1.8845345   0.23509324   -3.4860652    1.6015308  1168780 
 5929000    1.4201226   -3.4862582   -1.8845665   0.23011831   -3.4862582    1.6016916  1168809 
 5930000     1.419426   -3.4860698   -1.8852159   0.23231987   -3.4860698    1.6008539  1168847 
 5931000    1.4190354    -3.485795   -1.8854405   0.23437906    -3.485795    1.6003545  1168890 
 5932000    1.4187489   -3.4860984   -1.8861299   0.23111305   -3.4860984    1.5999685  1168936 
 5933000     1.420713   -3.4880942   -1.8859518   0.23203535   -3.4880942    1.6021424  1168966 
 5934000    1.4203744   -3.4874299   -1.8857201   0.23049717   -3.4874299    1.6017098  1169003 
 5935000      1.42021   -3.4872345   -1.8857553   0.23569644   -3.4872345    1.6014792  1169036 
 5936000    1.4198096    -3.487486   -1.8865007   0.23321466    -3.487486    1.6009853  1169067 
 5937000      1.42022   -3.4883931   -1.8869958   0.22792138   -3.4883931    1.6013973  1169104 
 5938000    1.4203795   -3.4879612   -1.8864347   0.23492984   -3.4879612    1.6015265  1169141 
 5939000    1.4211438   -3.4892659   -1.8869145   0.22860436   -3.4892659    1.6023513  1169168 
 5940000    1.4188988   -3.4874165   -1.8876375   0.23431842   -3.4874165     1.599779  1169198 
 5941000    1.4208572   -3.4895565   -1.8876065   0.23129927   -3.4895565      1.60195  1169225 
 5942000    1.4185948   -3.4876508   -1.8883103   0.23681957   -3.4876508    1.5993405  1169268 
 5943000    1.4184273   -3.4878947   -1.8887992   0.23558029   -3.4878947    1.5990955  1169309 
 5944000    1.4202354    -3.489436   -1.8883555     0.234528    -3.489436    1.6010805  1169348 
 5945000    1.4190147   -3.4879647   -1.8883041   0.23005135   -3.4879647    1.5996606  1169380 
 5946000    1.4184234   -3.4873952   -1.8884517   0.23815138   -3.4873952    1.5989435  1169417 
 5947000    1.4189299   -3.4882523   -1.8887898   0.22881136   -3.4882523    1.5994625  1169455 
 5948000    1.4191787   -3.4882312   -1.8885334   0.22836729   -3.4882312    1.5996977  1169488 
 5949000    1.4195254   -3.4885955   -1.8885616   0.23279786   -3.4885955    1.6000339  1169528 
 5950000    1.4204394   -3.4898798   -1.8888759   0.23095928   -3.4898798    1.6010039  1169572 
 5951000      1.41885   -3.4883987   -1.8892177   0.23170677   -3.4883987     1.599181  1169595 
 5952000     1.419108   -3.4885857   -1.8891535   0.23468268   -3.4885857    1.5994321  1169624 
 5953000    1.4186104   -3.4879758   -1.8891606   0.23553647   -3.4879758    1.5988152  1169665 
 5954000    1.4202506   -3.4896163   -1.8890059   0.23409376   -3.4896163    1.6006104  1169704 
 5955000    1.4192883   -3.4886166   -1.8891386    0.2365328   -3.4886166    1.5994781  1169739 
 5956000    1.4196436   -3.4893217   -1.8894966   0.23189231   -3.4893217    1.5998251  1169778 
 5957000    1.4187732   -3.4891055   -1.8903118   0.23647785   -3.4891055    1.5987936  1169815 
 5958000    1.4198579   -3.4903562   -1.8903908   0.23157981   -3.4903562    1.5999654  1169852 
 5959000    1.4188945   -3.4887906   -1.8899587   0.23409382   -3.4887906    1.5988319  1169887 
 5960000    1.4204649   -3.4902918   -1.8897396   0.23244826   -3.4902918    1.6005522  1169923 
 5961000    1.4206842   -3.4898409   -1.8890758   0.23586707   -3.4898409    1.6007651  1169948 
 5962000    1.4203741   -3.4899693   -1.8896124   0.23459369   -3.4899693    1.6003569  1169991 
 5963000    1.4206902   -3.4900066   -1.8893619   0.23450894   -3.4900066    1.6006447  1170041 
 5964000     1.419902   -3.4901787   -1.8904808   0.23334648   -3.4901787    1.5996979  1170084 
 5965000    1.4200628   -3.4903186    -1.890482   0.23543598   -3.4903186    1.5998366  1170115 
 5966000    1.4195254   -3.4905648   -1.8913801   0.23302261   -3.4905648    1.5991847  1170149 
 5967000    1.4206996   -3.4911896   -1.8907258   0.23069962   -3.4911896    1.6004637  1170181 
 5968000    1.4197592   -3.4904714   -1.8911053   0.23246265   -3.4904714    1.5993661  1170209 
 5969000    1.4191009   -3.4894714   -1.8908907   0.23871426   -3.4894714    1.5985808  1170241 
 5970000    1.4192117   -3.4901328   -1.8914586   0.23264522   -3.4901328    1.5986742  1170264 
 5971000    1.4195886   -3.4908798   -1.8918234   0.23279446   -3.4908798    1.5990564  1170295 
 5972000    1.4200466   -3.4909807   -1.8914495    0.2350898   -3.4909807    1.5995312  1170325 
 5973000    1.4203285   -3.4910358   -1.8912307   0.23501354   -3.4910358    1.5998051  1170357 
 5974000    1.4196726   -3.4895828   -1.8905534   0.23642835   -3.4895828    1.5990294  1170384 
 5975000    1.4205478   -3.4906726   -1.8907038   0.23536211   -3.4906726    1.5999687  1170418 
 5976000    1.4217627   -3.4910593   -1.8897757   0.23466644   -3.4910593    1.6012837  1170457 
 5977000    1.4210874   -3.4912601   -1.8907794   0.23313077   -3.4912601    1.6004807  1170488 
 5978000    1.4211243    -3.491199   -1.8907204   0.23343263    -3.491199    1.6004786  1170520 
 5979000    1.4203475   -3.4910555   -1.8914983   0.23832542   -3.4910555    1.5995572  1170554 
 5980000    1.4204195   -3.4912138   -1.8916287   0.23436774   -3.4912138    1.5995851  1170593 
 5981000     1.419972   -3.4912739   -1.8922392   0.23219631   -3.4912739    1.5990347  1170627 
 5982000    1.4203186   -3.4913145   -1.8919292   0.23611826   -3.4913145    1.5993853  1170656 
 5983000    1.4215605   -3.4925504   -1.8918158    0.2340432   -3.4925504    1.6007346  1170692 
 5984000    1.4207579   -3.4921012   -1.8923223   0.23359664   -3.4921012    1.5997789  1170730 
 5985000     1.420003   -3.4905831   -1.8916898   0.23928706   -3.4905831    1.5988933  1170756 
 5986000    1.4213268   -3.4925086   -1.8921684   0.23421727   -3.4925086    1.6003402  1170788 
 5987000    1.4208778   -3.4924875   -1.8927034   0.23204042   -3.4924875    1.5997841  1170825 
 5988000    1.4199623   -3.4912611   -1.8925556   0.23566645   -3.4912611    1.5987055  1170860 
 5989000     1.419469   -3.4915883    -1.893486   0.23220607   -3.4915883    1.5981023  1170895 
 5990000    1.4215207   -3.4929522   -1.8925795   0.23573808   -3.4929522    1.6003726  1170924 
 5991000     1.419937   -3.4923905   -1.8938541   0.23696637   -3.4923905    1.5985365  1170963 
 5992000    1.4221125   -3.4939385   -1.8930064   0.23265881   -3.4939385    1.6009322  1171002 
 5993000    1.4208023   -3.4932038   -1.8938026   0.23659795   -3.4932038    1.5994012  1171043 
 5994000    1.4204043   -3.4926782   -1.8937619   0.23519091   -3.4926782    1.5989163  1171070 
 5995000    1.4202157   -3.4926278   -1.8939715   0.23344239   -3.4926278    1.5986563  1171105 
 5996000    1.4200478   -3.4924155   -1.8939919   0.23535633   -3.4924155    1.5984236  1171137 
 5997000    1.4210045   -3.4934066   -1.8939539   0.23166399   -3.4934066    1.5994527  1171172 
 5998000     1.421562   -3.4937189   -1.8936811   0.22965969   -3.4937189    1.6000378  1171203 
 5999000    1.4207186   -3.4927329   -1.8936962   0.23588221   -3.4927329    1.5990366  1171241 
 6000000    1.4208325   -3.4940529   -1.8949358   0.23278467   -3.4940529    1.5991171  1171276 
 6001000    1.4215802   -3.4946999   -1.8948069   0.22786952   -3.4946999     1.599893  1171324 
 6002000    1.4215006   -3.4939075   -1.8941545   0.23379579   -3.4939075    1.5997529  1171361 
 6003000    1.4205064   -3.4933917   -1.8947904   0.23488509   -3.4933917    1.5986013  1171385 
 6004000    1.4213925   -3.4949821     -1.89543   0.22959215   -3.4949821    1.5995521  1171419 
 6005000    1.4196395   -3.4936135   -1.8960751   0.23470841   -3.4936135    1.5975384  1171449 
 6006000    1.4200538   -3.4932194   -1.8952597   0.23522062   -3.4932194    1.5979597  1171482 
 6007000    1.4217304   -3.4952437   -1.8954425   0.23643859   -3.4952437    1.5998012  1171515 
 6008000    1.4210027   -3.4948789   -1.8959456   0.23298464   -3.4948789    1.5989332  1171551 
 6009000    1.4217163   -3.4946583   -1.8949618   0.23581157   -3.4946583    1.5996966  1171580 
 6010000    1.4209757   -3.4946613   -1.8958403   0.23609119   -3.4946613     1.598821  1171611 
 6011000    1.4212998   -3.4943244    -1.895196   0.22871764   -3.4943244    1.5991283  1171653 
 6012000    1.4205705   -3.4941887   -1.8959096   0.23393107   -3.4941887    1.5982791  1171674 
 6013000    1.4210964    -3.495044   -1.8962086    0.2328485    -3.495044    1.5988354  1171700 
 6014000    1.4201514   -3.4942921   -1.8965472   0.23223757   -3.4942921    1.5977449  1171720 
 6015000    1.4211625   -3.4953001   -1.8964586   0.23264545   -3.4953001    1.5988415  1171750 
 6016000    1.4212449   -3.4944213   -1.8955362   0.23558781   -3.4944213    1.5988851  1171786 
 6017000    1.4206655   -3.4939293   -1.8957315   0.23538941   -3.4939293    1.5981978  1171812 
 6018000    1.4207691   -3.4948069   -1.8965444   0.23690646   -3.4948069    1.5982625  1171850 
 6019000    1.4210349   -3.4947614   -1.8962408   0.23785572   -3.4947614    1.5985206  1171880 
 6020000    1.4212716   -3.4948697   -1.8961402   0.23885342   -3.4948697    1.5987295  1171922 
 6021000    1.4220012   -3.4952157    -1.895716   0.23626326   -3.4952157    1.5994997  1171959 
 6022000    1.4212686   -3.4951613   -1.8965211   0.23763636   -3.4951613    1.5986402  1171985 
 6023000     1.421709   -3.4953338   -1.8962583   0.23514966   -3.4953338    1.5990755  1172029 
 6024000    1.4214092   -3.4953213   -1.8966334   0.23404792   -3.4953213    1.5986879  1172066 
 6025000    1.4219918   -3.4950522   -1.8957623   0.23914045   -3.4950522      1.59929  1172105 
 6026000      1.42242   -3.4957621   -1.8960479   0.24180106   -3.4957621    1.5997142  1172147 
 6027000    1.4217323   -3.4954957   -1.8966177   0.23773415   -3.4954957    1.5988781  1172193 
 6028000    1.4213492   -3.4949232   -1.8965359   0.23880698   -3.4949232    1.5983872  1172237 
 6029000    1.4219909   -3.4958831   -1.8968288   0.23721243   -3.4958831    1.5990543  1172277 
 6030000    1.4221218    -3.496533   -1.8973794   0.23647796    -3.496533    1.5991537  1172312 
 6031000    1.4217202   -3.4957317    -1.897076   0.23493904   -3.4957317    1.5986557  1172346 
 6032000    1.4217545   -3.4961296   -1.8974775   0.23295183   -3.4961296    1.5986521  1172377 
 6033000    1.4206614   -3.4956006   -1.8982213   0.23786993   -3.4956006    1.5973793  1172409 
 6034000    1.4220669   -3.4968136   -1.8979084   0.23485393   -3.4968136    1.5989051  1172449 
 6035000    1.4232674   -3.4982541   -1.8980497   0.23350699   -3.4982541    1.6002044  1172486 
 6036000    1.4226284   -3.4960342   -1.8965945   0.24046791   -3.4960342    1.5994396  1172520 
 6037000    1.4238533   -3.4980809   -1.8973174   0.23219841   -3.4980809    1.6007634  1172559 
 6038000    1.4229687   -3.4972735   -1.8975496   0.23604435   -3.4972735     1.599724  1172592 
 6039000    1.4221347   -3.4964803   -1.8977402   0.23852797   -3.4964803    1.5987401  1172626 
 6040000    1.4237661    -3.498181   -1.8976616   0.23274164    -3.498181    1.6005194  1172666 
 6041000    1.4242854   -3.4989273   -1.8978924   0.23197205   -3.4989273    1.6010349  1172716 
 6042000     1.423257   -3.4974131   -1.8975697   0.23458945   -3.4974131    1.5998434  1172742 
 6043000    1.4227443   -3.4973805   -1.8981638     0.232571   -3.4973805    1.5992167  1172779 
 6044000     1.422718   -3.4973043   -1.8981608   0.23607591   -3.4973043    1.5991434  1172811 
 6045000    1.4229756   -3.4979538   -1.8985673   0.23245506   -3.4979538    1.5993866  1172845 
 6046000    1.4213973   -3.4965227   -1.8989468   0.23403131   -3.4965227    1.5975759  1172872 
 6047000    1.4210573   -3.4973761   -1.9002382   0.23337817   -3.4973761    1.5971379  1172913 
 6048000    1.4212543   -3.4979049    -1.900596   0.23329405   -3.4979049     1.597309  1172950 
 6049000    1.4217216   -3.4989221   -1.9011356   0.23231404   -3.4989221    1.5977865  1172985 
 6050000    1.4220753   -3.4989362   -1.9007971    0.2323995   -3.4989362     1.598139  1173018 
 6051000    1.4209446   -3.4976732   -1.9008594   0.23665133   -3.4976732    1.5968138  1173058 
 6052000    1.4224594   -3.4988832   -1.9004053   0.23319296   -3.4988832    1.5984779  1173086 
 6053000    1.4214535   -3.4978618   -1.9005577   0.23339449   -3.4978618     1.597304  1173118 
 6054000    1.4221958   -3.4976281    -1.899539   0.23620702   -3.4976281    1.5980891  1173154 
 6055000     1.423502   -3.4986617   -1.8991634   0.23698218   -3.4986617    1.5994982  1173197 
 6056000    1.4224039   -3.4979123   -1.8996833   0.23694218   -3.4979123     1.598229  1173223 
 6057000    1.4231956   -3.4996824   -1.9006184   0.23339891   -3.4996824     1.599064  1173263 
 6058000    1.4229685   -3.4980753   -1.8993223   0.23750044   -3.4980753     1.598753  1173304 
 6059000    1.4226706   -3.4983221    -1.899961   0.23468638   -3.4983221    1.5983611  1173346 
 6060000    1.4235031    -3.499427   -1.9001784   0.23921385    -3.499427    1.5992487  1173381 
 6061000    1.4234672   -3.4987921    -1.899622   0.23814657   -3.4987921    1.5991701  1173409 
 6062000    1.4228466   -3.4987353   -1.9003032   0.23859802   -3.4987353    1.5984321  1173439 
 6063000    1.4225265   -3.4984652   -1.9004458   0.23942602   -3.4984652    1.5980194  1173478 
 6064000    1.4219103   -3.4982675   -1.9009852   0.23762886   -3.4982675    1.5972823  1173511 
 6065000     1.421927   -3.4989527    -1.901698   0.23367622   -3.4989527    1.5972547  1173545 
 6066000    1.4227151   -3.4996163   -1.9015227   0.23724492   -3.4996163    1.5980937  1173579 
 6067000    1.4232715   -3.4998074   -1.9011377   0.23696187   -3.4998074    1.5986697  1173615 
 6068000    1.4231869   -3.4997705   -1.9012259   0.23587346   -3.4997705    1.5985447  1173637 
 6069000     1.424161   -3.4999448   -1.9003456    0.2404279   -3.4999448    1.5995992  1173666 
 6070000    1.4238061   -3.4995223   -1.9003762   0.23625227   -3.4995223    1.5991461  1173706 
 6071000    1.4238295   -3.4999987   -1.9008699   0.23425122   -3.4999987    1.5991288  1173738 
 6072000    1.4233783   -3.4987705   -1.9001879    0.2380415   -3.4987705    1.5985826  1173767 
 6073000    1.4227007   -3.4979198   -1.9001622   0.23861449   -3.4979198    1.5977576  1173814 
 6074000    1.4250225   -3.5007254   -1.9003957    0.2322695   -3.5007254    1.6003297  1173840 
 6075000    1.4255576   -3.5008342   -1.8999446   0.23353593   -3.5008342    1.6008897  1173870 
 6076000    1.4250589   -3.5004689   -1.9001843   0.23320923   -3.5004689    1.6002846  1173903 
 6077000    1.4239585    -3.498724   -1.8997173   0.23796607    -3.498724    1.5990067  1173934 
 6078000    1.4248679   -3.5004434   -1.9004605    0.2324624   -3.5004434    1.5999829  1173967 
 6079000    1.4243457    -3.499743   -1.9003873   0.23489433    -3.499743    1.5993557  1173997 
 6080000    1.4237118   -3.4990683   -1.9004735   0.24314187   -3.4990683    1.5985948  1174033 
 6081000    1.4239485   -3.4995535   -1.9007269   0.23624319   -3.4995535    1.5988265  1174058 
 6082000    1.4233384   -3.4994039   -1.9012964   0.23648905   -3.4994039    1.5981075  1174083 
 6083000    1.4252215   -3.5017086   -1.9015344   0.23527583   -3.5017086    1.6001742  1174118 
 6084000    1.4244006   -3.5007083   -1.9015021   0.23797588   -3.5007083    1.5992062  1174152 
 6085000    1.4232924   -3.4997003   -1.9017846   0.24196587   -3.4997003    1.5979157  1174186 
 6086000    1.4229443   -3.5002478   -1.9027678   0.23544108   -3.5002478      1.59748  1174219 
 6087000    1.4231455   -3.5010217   -1.9033526   0.23511635   -3.5010217    1.5976691  1174246 
 6088000    1.4243028   -3.5018342   -1.9029067   0.23529988   -3.5018342    1.5989275  1174276 
 6089000     1.423055   -3.5013143    -1.903827   0.23692284   -3.5013143    1.5974873  1174305 
 6090000    1.4237501   -3.5015806    -1.903358   0.23526915   -3.5015806    1.5982226  1174338 
 6091000    1.4242685   -3.5024204   -1.9036688   0.23805033   -3.5024204    1.5987515  1174377 
 6092000    1.4232576   -3.5007019   -1.9031288   0.23784825   -3.5007019    1.5975732  1174409 
 6093000    1.4230839   -3.5011476   -1.9038307   0.23445918   -3.5011476     1.597317  1174454 
 6094000    1.4248732   -3.5024576   -1.9031812    0.2417105   -3.5024576    1.5992763  1174490 
 6095000    1.4238802   -3.5019459   -1.9038359   0.23882861   -3.5019459    1.5981101  1174528 
 6096000    1.4231965   -3.5016031   -1.9043161   0.23523698   -3.5016031     1.597287  1174569 
 6097000    1.4238209   -3.5024239   -1.9044688   0.23963059   -3.5024239    1.5979552  1174593 
 6098000    1.4242055   -3.5027842   -1.9044641   0.23577828   -3.5027842    1.5983201  1174642 
 6099000     1.424767   -3.5031472   -1.9042337   0.23764277   -3.5031472    1.5989135  1174669 
 6100000    1.4245844    -3.503616   -1.9049632   0.23459315    -3.503616    1.5986528  1174710 
 6101000    1.4233369   -3.5025657   -1.9053496   0.23763621   -3.5025657    1.5972161  1174737 
 6102000    1.4246578    -3.503828     -1.90518   0.23670238    -3.503828     1.598648  1174774 
 6103000     1.424288    -3.503138   -1.9049443   0.23794572    -3.503138    1.5981936  1174803 
 6104000    1.4252313   -3.5043435   -1.9051254   0.23340167   -3.5043435    1.5992181  1174828 
 6105000    1.4236383   -3.5025231   -1.9051279   0.23616804   -3.5025231    1.5973952  1174854 
 6106000    1.4223631   -3.5008601   -1.9049581   0.24136963   -3.5008601    1.5959019  1174900 
 6107000    1.4233884   -3.5028219   -1.9058158   0.23862071   -3.5028219    1.5970061  1174934 
 6108000    1.4240653   -3.5032628   -1.9055449   0.23615951   -3.5032628     1.597718  1174969 
 6109000    1.4244803   -3.5033923   -1.9052427   0.23273059   -3.5033923    1.5981496  1174994 
 6110000    1.4243501   -3.5033707    -1.905408   0.23535355   -3.5033707    1.5979627  1175024 
 6111000      1.42455   -3.5040483   -1.9059021   0.23753727   -3.5040483    1.5981462  1175054 
 6112000    1.4241462    -3.502968   -1.9053211   0.23401821    -3.502968    1.5976469  1175088 
 6113000    1.4242422   -3.5026122   -1.9049052   0.23503536   -3.5026122     1.597707  1175123 
 6114000    1.4255805   -3.5045929   -1.9054213   0.23112294   -3.5045929    1.5991716  1175150 
 6115000    1.4243206   -3.5029941   -1.9052739   0.24028019   -3.5029941    1.5977202  1175178 
 6116000    1.4239104   -3.5024353   -1.9052201   0.23467371   -3.5024353    1.5972152  1175211 
 6117000    1.4249148    -3.503231   -1.9049436   0.23178215    -3.503231    1.5982874  1175251 
 6118000     1.425532   -3.5038978   -1.9049411   0.23930329   -3.5038978    1.5989567  1175268 
 6119000    1.4247211   -3.5029083   -1.9048898   0.23816343   -3.5029083    1.5980185  1175289 
 6120000    1.4252582   -3.5039846   -1.9053921   0.23547264   -3.5039846    1.5985924  1175310 
 6121000    1.4249263   -3.5036787    -1.905517   0.23876935   -3.5036787    1.5981617  1175353 
 6122000    1.4251511   -3.5042455   -1.9058806   0.23606427   -3.5042455    1.5983648  1175389 
 6123000    1.4253661   -3.5048573   -1.9062894   0.23838732   -3.5048573    1.5985679  1175417 
 6124000    1.4245955   -3.5038975   -1.9062387    0.2380629   -3.5038975    1.5976588  1175450 
 6125000    1.4239224   -3.5042244   -1.9073707   0.23839353   -3.5042244    1.5968537  1175487 
 6126000    1.4238277   -3.5043101   -1.9076062   0.23620801   -3.5043101    1.5967039  1175519 
 6127000     1.424463   -3.5051725   -1.9077927   0.23773742   -3.5051725    1.5973798  1175546 
 6128000    1.4241622   -3.5040908   -1.9070865   0.23667291   -3.5040908    1.5970043  1175574 
 6129000    1.4250548   -3.5053139   -1.9073467   0.23386817   -3.5053139    1.5979673  1175602 
 6130000    1.4245554   -3.5049595   -1.9076053   0.23707416   -3.5049595    1.5973542  1175641 
 6131000    1.4249308   -3.5055573   -1.9078297   0.23612624   -3.5055573    1.5977277  1175676 
 6132000    1.4248765   -3.5054365   -1.9078064   0.23438478   -3.5054365    1.5976301  1175703 
 6133000    1.4246668   -3.5051397   -1.9077923   0.23641013   -3.5051397    1.5973474  1175738 
 6134000    1.4252194   -3.5061725    -1.908245   0.23588363   -3.5061725    1.5979275  1175767 
 6135000    1.4236364   -3.5046282   -1.9085257   0.23639544   -3.5046282    1.5961025  1175804 
 6136000     1.424573   -3.5062172   -1.9090986   0.23367086   -3.5062172    1.5971186  1175829 
 6137000     1.423822   -3.5050423   -1.9088254   0.23747965   -3.5050423    1.5962169  1175873 
 6138000    1.4244124   -3.5057131   -1.9088791   0.23210372   -3.5057131     1.596834  1175906 
 6139000    1.4245439   -3.5050155   -1.9080749   0.23649433   -3.5050155    1.5969406  1175936 
 6140000    1.4259216   -3.5068502   -1.9084018   0.23391433   -3.5068502    1.5984484  1175963 
 6141000    1.4244409   -3.5048363   -1.9080885   0.23896579   -3.5048363    1.5967478  1175993 
 6142000    1.4254231   -3.5057867   -1.9079827   0.23405403   -3.5057867     1.597804  1176026 
 6143000    1.4244399   -3.5055555    -1.908893   0.23885774   -3.5055555    1.5966625  1176055 
 6144000    1.4240947    -3.505025   -1.9087942   0.23890332    -3.505025    1.5962307  1176088 
 6145000     1.425536   -3.5061709   -1.9083708   0.23888787   -3.5061709    1.5978001  1176122 
 6146000    1.4262165   -3.5070192    -1.908504   0.23591433   -3.5070192    1.5985152  1176157 
 6147000    1.4251952   -3.5052327   -1.9079002    0.2404863   -3.5052327    1.5973325  1176185 
 6148000    1.4263085   -3.5064611   -1.9079325   0.23716928   -3.5064611    1.5985286  1176223 
 6149000    1.4260665   -3.5063352   -1.9081239   0.23805923   -3.5063352    1.5982113  1176257 
 6150000    1.4263267   -3.5071979   -1.9087521   0.23871316   -3.5071979    1.5984458  1176299 
 6151000    1.4250731   -3.5063718   -1.9093635   0.24126225   -3.5063718    1.5970083  1176323 
 6152000    1.4251786   -3.5066186   -1.9095382   0.23332492   -3.5066186    1.5970804  1176357 
 6153000    1.4255919   -3.5064754   -1.9089875   0.23765677   -3.5064754    1.5974879  1176398 
 6154000    1.4264542    -3.507491   -1.9090722   0.23700424    -3.507491    1.5984188  1176424 
 6155000    1.4267813   -3.5085378   -1.9097891   0.23579462   -3.5085378    1.5987487  1176451 
 6156000    1.4262304    -3.507898   -1.9098101   0.23628458    -3.507898    1.5980879  1176483 
 6157000    1.4251673   -3.5068176   -1.9099725   0.23153453   -3.5068176    1.5968452  1176521 
 6158000    1.4253909   -3.5072528   -1.9102033   0.23966076   -3.5072528    1.5970495  1176555 
 6159000    1.4259293   -3.5074308    -1.909816   0.23970059   -3.5074308    1.5976147  1176583 
 6160000    1.4255764   -3.5073383    -1.910161   0.23911519   -3.5073383    1.5971773  1176614 
 6161000    1.4265087   -3.5079404   -1.9097742   0.23671648   -3.5079404    1.5981661  1176655 
 6162000    1.4264031   -3.5079176   -1.9099119   0.23492162   -3.5079176    1.5980057  1176686 
 6163000    1.4267909   -3.5083656   -1.9099825   0.23795301   -3.5083656    1.5983831  1176728 
 6164000     1.427271    -3.508281    -1.909409   0.23740073    -3.508281     1.598872  1176764 
 6165000     1.426107   -3.5075226   -1.9099859   0.24060422   -3.5075226    1.5975368  1176787 
 6166000    1.4254856   -3.5076323   -1.9108323   0.23796308   -3.5076323       1.5968  1176817 
 6167000    1.4254855   -3.5077862   -1.9110202   0.24020004   -3.5077862     1.596766  1176842 
 6168000     1.427384   -3.5091807    -1.910333   0.23708962   -3.5091807    1.5988478  1176875 
 6169000    1.4262453   -3.5085436   -1.9110133   0.24191793   -3.5085436    1.5975302  1176906 
 6170000    1.4258868    -3.508017   -1.9109237    0.2445484    -3.508017    1.5970933  1176932 
 6171000    1.4264627   -3.5079341    -1.910231   0.23982489   -3.5079341    1.5977031  1176958 
 6172000    1.4267724   -3.5086242   -1.9106109    0.2390615   -3.5086242    1.5980134  1176985 
 6173000    1.4266309    -3.508187    -1.910396   0.23955535    -3.508187     1.597791  1177032 
 6174000    1.4277379   -3.5091711   -1.9101743   0.24053514   -3.5091711    1.5989968  1177057 
 6175000    1.4272304   -3.5088979   -1.9105074   0.23961064   -3.5088979    1.5983904  1177085 
 6176000     1.426836   -3.5092069   -1.9113151    0.2376368   -3.5092069    1.5978918  1177127 
 6177000    1.4275364   -3.5100416   -1.9114075   0.23739482   -3.5100416    1.5986341  1177158 
 6178000    1.4263849   -3.5090893   -1.9117881   0.23484527   -3.5090893    1.5973011  1177190 
 6179000    1.4266617   -3.5094324   -1.9118539   0.23574739   -3.5094324    1.5975785  1177214 
 6180000    1.4270428   -3.5099129   -1.9119633   0.23192209   -3.5099129    1.5979496  1177255 
 6181000    1.4270469   -3.5096451   -1.9117302    0.2379717   -3.5096451    1.5979149  1177284 
 6182000    1.4261657   -3.5091045   -1.9122225   0.23389342   -3.5091045     1.596882  1177318 
 6183000    1.4254687   -3.5088378   -1.9127837   0.24121288   -3.5088378    1.5960541  1177353 
 6184000    1.4258185   -3.5092837   -1.9128907   0.24027497   -3.5092837    1.5963929  1177392 
 6185000    1.4285514    -3.511764   -1.9123506   0.23515499    -3.511764    1.5994134  1177421 
 6186000     1.427843   -3.5104765   -1.9118902   0.23866102   -3.5104765    1.5985863  1177446 
 6187000    1.4263982   -3.5090929   -1.9121635   0.23831035   -3.5090929    1.5969294  1177475 
 6188000     1.427379   -3.5107292   -1.9127384   0.23817065   -3.5107292    1.5979908  1177502 
 6189000    1.4268747   -3.5105747   -1.9131974   0.23927819   -3.5105747    1.5973773  1177538 
 6190000    1.4263278   -3.5101692   -1.9134529   0.23877208   -3.5101692    1.5967163  1177574 
 6191000    1.4266397   -3.5106416   -1.9136154   0.23588315   -3.5106416    1.5970262  1177603 
 6192000    1.4254063   -3.5093248   -1.9137186   0.23973292   -3.5093248    1.5956062  1177632 
 6193000    1.4262669    -3.509507   -1.9129754   0.23782808    -3.509507    1.5965316  1177660 
 6194000    1.4276697   -3.5112806   -1.9132195   0.23650839   -3.5112806    1.5980611  1177690 
 6195000    1.4266975    -3.510043   -1.9131067   0.24485809    -3.510043    1.5969362  1177717 
 6196000    1.4261472     -3.51019   -1.9139172   0.24222919     -3.51019    1.5962728  1177752 
 6197000     1.426447    -3.510472   -1.9139016   0.23733357    -3.510472    1.5965704  1177780 
 6198000    1.4257432   -3.5095557   -1.9138325   0.24303362   -3.5095557    1.5957232  1177824 
 6199000    1.4283424   -3.5125937   -1.9140036   0.23662248   -3.5125937    1.5985901  1177855 
 6200000    1.4281306   -3.5118068    -1.913508   0.23734116   -3.5118068    1.5982988  1177895 
 6201000    1.4265319   -3.5106787   -1.9142098   0.24145912   -3.5106787    1.5964689  1177925 
 6202000    1.4261184   -3.5100138   -1.9140523   0.24221746   -3.5100138    1.5959615  1177958 
 6203000     1.427105   -3.5113353   -1.9143158   0.23880749   -3.5113353    1.5970194  1177992 
 6204000    1.4271089   -3.5114447   -1.9144697   0.24068129   -3.5114447    1.5969751  1178028 
 6205000    1.4272232      -3.5111   -1.9140338   0.24214189      -3.5111    1.5970663  1178055 
 6206000    1.4275747   -3.5116221   -1.9141964   0.23824821   -3.5116221    1.5974257  1178080 
 6207000    1.4270742    -3.512438   -1.9156048    0.2359282    -3.512438    1.5968332  1178104 
 6208000    1.4263637   -3.5118055    -1.915812   0.23590139   -3.5118055    1.5959935  1178137 
 6209000    1.4265447   -3.5120836   -1.9159148   0.23549881   -3.5120836    1.5961689  1178157 
 6210000    1.4265175   -3.5119525   -1.9158574    0.2399924   -3.5119525    1.5960951  1178189 
 6211000    1.4258511   -3.5112112   -1.9159078    0.2397616   -3.5112112    1.5953034  1178223 
 6212000    1.4266144   -3.5120797   -1.9159696   0.24076473   -3.5120797    1.5961101  1178258 
 6213000    1.4264525   -3.5119113   -1.9160217   0.23785904   -3.5119113    1.5958897  1178287 
 6214000    1.4270088   -3.5126209   -1.9161563   0.23855239   -3.5126209    1.5964646  1178322 
 6215000    1.4261049   -3.5105099   -1.9151175   0.24376904   -3.5105099    1.5953924  1178367 
 6216000    1.4268115   -3.5116195   -1.9154759   0.23628663   -3.5116195    1.5961436  1178396 
 6217000    1.4279624   -3.5131301   -1.9157288   0.23559873   -3.5131301    1.5974013  1178418 
 6218000    1.4268697   -3.5113039   -1.9151642   0.23902038   -3.5113039    1.5961397  1178447 
 6219000    1.4281539   -3.5125693   -1.9150378   0.24088856   -3.5125693    1.5975315  1178480 
 6220000    1.4273269   -3.5125947   -1.9160493   0.24133833   -3.5125947    1.5965454  1178525 
 6221000    1.4281347   -3.5134626   -1.9160475   0.23289487   -3.5134626    1.5974151  1178550 
 6222000    1.4276585   -3.5130033   -1.9161411   0.23697183   -3.5130033    1.5968622  1178565 
 6223000    1.4270921   -3.5128614   -1.9166626   0.23817986   -3.5128614    1.5961988  1178587 
 6224000    1.4266819   -3.5127731   -1.9170724   0.24006507   -3.5127731    1.5957007  1178616 
 6225000    1.4281302   -3.5150644   -1.9177885   0.23272769   -3.5150644    1.5972759  1178649 
 6226000    1.4275823   -3.5139737   -1.9173567   0.23811464   -3.5139737     1.596617  1178683 
 6227000    1.4269801   -3.5134642   -1.9175789   0.23763135   -3.5134642    1.5958853  1178726 
 6228000    1.4268887   -3.5139383   -1.9182066   0.23861049   -3.5139383    1.5957317  1178764 
 6229000    1.4281101   -3.5152968   -1.9182466    0.2294565   -3.5152968    1.5970502  1178799 
 6230000    1.4273574    -3.514711   -1.9185514   0.23705481    -3.514711    1.5961597  1178835 
 6231000    1.4271819   -3.5148022   -1.9188916   0.23625636   -3.5148022    1.5959106  1178874 
 6232000    1.4272899   -3.5143732   -1.9184027   0.23874774   -3.5143732    1.5959705  1178919 
 6233000    1.4262955   -3.5138855   -1.9190689   0.23781815   -3.5138855    1.5948166  1178950 
 6234000     1.427392   -3.5145055   -1.9185251   0.23570283   -3.5145055    1.5959804  1178996 
 6235000    1.4272253   -3.5141765   -1.9184244   0.23642571   -3.5141765    1.5957521  1179027 
 6236000    1.4275415   -3.5145898   -1.9185194   0.24005933   -3.5145898    1.5960704  1179053 
 6237000    1.4284562   -3.5155832   -1.9185267   0.23563082   -3.5155832    1.5970565  1179080 
 6238000    1.4275275   -3.5152827   -1.9192957   0.23739226   -3.5152827     1.595987  1179103 
 6239000    1.4278286   -3.5153428   -1.9190556   0.23969369   -3.5153428    1.5962871  1179130 
 6240000    1.4280992   -3.5154961   -1.9189551   0.23946945   -3.5154961    1.5965409  1179166 
 6241000    1.4278095   -3.5150951   -1.9189064   0.23945164   -3.5150951    1.5961886  1179187 
 6242000    1.4263355    -3.514415   -1.9199053   0.23805079    -3.514415    1.5945097  1179210 
 6243000    1.4265487   -3.5146354   -1.9199211   0.23964388   -3.5146354    1.5947143  1179235 
 6244000    1.4270927   -3.5152586   -1.9199822   0.23742591   -3.5152586    1.5952764  1179269 
 6245000    1.4262616   -3.5145458   -1.9202565   0.23707739   -3.5145458    1.5942892  1179312 
 6246000    1.4265576   -3.5148822   -1.9203177   0.24259735   -3.5148822    1.5945646  1179353 
 6247000    1.4263383   -3.5143321   -1.9200653   0.23787878   -3.5143321    1.5942668  1179392 
 6248000     1.426737   -3.5139071   -1.9192393   0.24081434   -3.5139071    1.5946678  1179425 
 6249000    1.4279187   -3.5150221   -1.9190606   0.24010776   -3.5150221    1.5959615  1179445 
 6250000    1.4268107   -3.5145476   -1.9198731   0.23990203   -3.5145476    1.5946745  1179481 
 6251000    1.4294923   -3.5170914   -1.9194807   0.23721895   -3.5170914    1.5976106  1179526 
 6252000    1.4270578   -3.5147114   -1.9198554   0.24283798   -3.5147114    1.5948559  1179551 
 6253000    1.4288152   -3.5162539   -1.9194759   0.23921069   -3.5162539     1.596778  1179582 
 6254000    1.4283232   -3.5158144   -1.9196228   0.23637642   -3.5158144    1.5961917  1179609 
 6255000    1.4286839   -3.5166774   -1.9201233   0.23722771   -3.5166774    1.5965542  1179639 
 6256000    1.4283257   -3.5165059   -1.9203872   0.23827117   -3.5165059    1.5961187  1179665 
 6257000    1.4277338   -3.5155976   -1.9201905   0.23794992   -3.5155976    1.5954072  1179702 
 6258000     1.427827   -3.5159932   -1.9205278   0.24089586   -3.5159932    1.5954654  1179736 
 6259000    1.4271222   -3.5155525   -1.9209233   0.23694033   -3.5155525    1.5946292  1179772 
 6260000    1.4288213   -3.5175156   -1.9210272   0.23332696   -3.5175156    1.5964884  1179801 
 6261000    1.4282307   -3.5174908   -1.9216988   0.22976042   -3.5174908     1.595792  1179828 
 6262000     1.430232   -3.5188129   -1.9208458    0.2370194   -3.5188129    1.5979672  1179873 
 6263000    1.4280107   -3.5165308     -1.92109   0.24015939   -3.5165308    1.5954407  1179906 
 6264000     1.429614   -3.5184648   -1.9212733   0.23365798   -3.5184648    1.5971915  1179936 
 6265000     1.428125   -3.5170993    -1.921612   0.23979507   -3.5170993    1.5954873  1179966 
 6266000      1.42869     -3.51743   -1.9213561   0.24208201     -3.51743    1.5960739  1179999 
 6267000    1.4288078   -3.5173417   -1.9211984    0.2376552   -3.5173417    1.5961433  1180045 
 6268000    1.4285565   -3.5174876   -1.9216873   0.23766607   -3.5174876    1.5958003  1180091 
 6269000    1.4289398   -3.5176172   -1.9214266   0.23692178   -3.5176172    1.5961907  1180119 
 6270000    1.4278448   -3.5164681   -1.9215452   0.23859693   -3.5164681    1.5949229  1180152 
 6271000    1.4291557   -3.5178311   -1.9214777   0.23579081   -3.5178311    1.5963533  1180177 
 6272000    1.4293843   -3.5184339   -1.9218712   0.23996337   -3.5184339    1.5965627  1180211 
 6273000    1.4286896   -3.5178972   -1.9221523   0.24136496   -3.5178972    1.5957449  1180242 
 6274000    1.4292597   -3.5182807   -1.9219492   0.23761026   -3.5182807    1.5963315  1180279 
 6275000    1.4286342   -3.5177898   -1.9222002   0.23703158   -3.5177898    1.5955896  1180311 
 6276000    1.4285829   -3.5174832   -1.9220062   0.24129886   -3.5174832     1.595477  1180352 
 6277000    1.4290817   -3.5176902   -1.9217008   0.24162326   -3.5176902    1.5959894  1180385 
 6278000    1.4298502   -3.5183764   -1.9215693   0.23897509   -3.5183764    1.5968071  1180415 
 6279000    1.4292385   -3.5175542   -1.9214668   0.24195288   -3.5175542    1.5960874  1180442 
 6280000    1.4286833   -3.5171964    -1.921779   0.24183932   -3.5171964    1.5954174  1180479 
 6281000    1.4288381   -3.5181401   -1.9225944   0.23920912   -3.5181401    1.5955457  1180512 
 6282000    1.4288577   -3.5187496   -1.9232239   0.23858011   -3.5187496    1.5955256  1180543 
 6283000    1.4272461   -3.5168074   -1.9231285   0.24099875   -3.5168074    1.5936789  1180578 
 6284000    1.4273407   -3.5178625   -1.9241145   0.23882471   -3.5178625     1.593748  1180605 
 6285000    1.4293097   -3.5186148   -1.9227034   0.24051937   -3.5186148    1.5959114  1180631 
 6286000    1.4277598   -3.5173476   -1.9231937   0.23933686   -3.5173476    1.5941539  1180651 
 6287000    1.4301368   -3.5192579   -1.9225015   0.23824545   -3.5192579    1.5967565  1180689 
 6288000    1.4291482    -3.518274   -1.9226834   0.23947137    -3.518274    1.5955906  1180735 
 6289000    1.4289398   -3.5181374   -1.9228187   0.24143215   -3.5181374    1.5953187  1180764 
 6290000    1.4283474   -3.5186068   -1.9240021   0.24166782   -3.5186068    1.5946046  1180803 
 6291000    1.4298806    -3.519738   -1.9234784    0.2371385    -3.519738    1.5962595  1180845 
 6292000    1.4282233   -3.5181431    -1.923781   0.24326975   -3.5181431    1.5943621  1180880 
 6293000    1.4292907   -3.5191322   -1.9236109   0.24223267   -3.5191322    1.5955213  1180904 
 6294000     1.430563   -3.5211838   -1.9242801   0.23838443   -3.5211838    1.5969037  1180932 
 6295000    1.4291242   -3.5200298   -1.9247768   0.23719452   -3.5200298     1.595253  1180965 
 6296000    1.4297736   -3.5206238   -1.9246811   0.23684416   -3.5206238    1.5959427  1180991 
 6297000    1.4294862   -3.5208972    -1.925305   0.23843187   -3.5208972    1.5955922  1181013 
 6298000    1.4289851   -3.5197266   -1.9247423   0.24193687   -3.5197266    1.5949843  1181049 
 6299000      1.42882   -3.5203256   -1.9255661   0.23769499   -3.5203256    1.5947596  1181079 
 6300000     1.428065   -3.5192033   -1.9253391   0.23909114   -3.5192033    1.5938642  1181118 
 6301000    1.4291045   -3.5199092   -1.9249348    0.2406133   -3.5199092    1.5949744  1181155 
 6302000     1.428714   -3.5200881   -1.9255995   0.24160031   -3.5200881    1.5944886  1181192 
 6303000     1.429388   -3.5210773   -1.9258716   0.23839455   -3.5210773    1.5952057  1181218 
 6304000    1.4295501   -3.5215102   -1.9261601   0.24007041   -3.5215102    1.5953501  1181245 
 6305000    1.4298147   -3.5207833   -1.9251757   0.24065844   -3.5207833    1.5956076  1181273 
 6306000    1.4296203    -3.520714   -1.9253705   0.23972803    -3.520714    1.5953434  1181308 
 6307000    1.4297544   -3.5208714   -1.9254256   0.23876976   -3.5208714    1.5954458  1181343 
 6308000    1.4289756   -3.5196492   -1.9251035   0.23820287   -3.5196492    1.5945457  1181366 
 6309000    1.4296888   -3.5203131   -1.9250133   0.24199124   -3.5203131    1.5952997  1181397 
 6310000    1.4299319   -3.5206264   -1.9250934   0.24276418   -3.5206264    1.5955331  1181425 
 6311000    1.4295732   -3.5204724   -1.9253827   0.24722991   -3.5204724    1.5950897  1181457 
 6312000    1.4296872   -3.5205445   -1.9253655    0.2440785   -3.5205445     1.595179  1181485 
 6313000    1.4295395   -3.5205562    -1.925565   0.24370876   -3.5205562    1.5949913  1181502 
 6314000     1.430519   -3.5215503   -1.9254999   0.23755423   -3.5215503    1.5960504  1181527 
 6315000    1.4295474   -3.5206094    -1.925689   0.24299394   -3.5206094    1.5949204  1181561 
 6316000    1.4297851   -3.5209781   -1.9258261   0.23925096   -3.5209781    1.5951519  1181586 
 6317000    1.4290499   -3.5202385   -1.9259539   0.24500632   -3.5202385    1.5942845  1181621 
 6318000    1.4290807   -3.5200497   -1.9257807   0.24197137   -3.5200497     1.594269  1181658 
 6319000    1.4297054   -3.5206273   -1.9256979   0.23999437   -3.5206273    1.5949294  1181685 
 6320000    1.4293855   -3.5204469   -1.9259108   0.24113732   -3.5204469    1.5945361  1181712 
 6321000     1.428987   -3.5212308   -1.9271663   0.24116616   -3.5212308    1.5940645  1181732 
 6322000     1.428842   -3.5209468   -1.9270818   0.24035272   -3.5209468    1.5938651  1181760 
 6323000    1.4298638   -3.5215968   -1.9266256   0.24168521   -3.5215968    1.5949711  1181785 
 6324000    1.4297905   -3.5217133   -1.9268658   0.24350223   -3.5217133    1.5948475  1181816 
 6325000    1.4299118   -3.5217336   -1.9267966   0.23882116   -3.5217336    1.5949369  1181850 
 6326000    1.4295114   -3.5221116   -1.9276659   0.24121908   -3.5221116    1.5944458  1181883 
 6327000    1.4300676   -3.5230212   -1.9279956   0.23902943   -3.5230212    1.5950257  1181913 
 6328000    1.4306652   -3.5234217   -1.9277686   0.23919008   -3.5234217    1.5956531  1181942 
 6329000    1.4311714   -3.5234282    -1.927247   0.24236736   -3.5234282    1.5961812  1181969 
 6330000    1.4289298   -3.5217481   -1.9281047   0.24217162   -3.5217481    1.5936434  1181997 
 6331000     1.429756   -3.5226001   -1.9280837   0.24039063   -3.5226001    1.5945163  1182033 
 6332000    1.4312527   -3.5237547   -1.9276192   0.24003307   -3.5237547    1.5961355  1182070 
 6333000    1.4304164   -3.5236229   -1.9284673   0.24048683   -3.5236229    1.5951556  1182105 
 6334000    1.4291068   -3.5227813   -1.9291387   0.23844604   -3.5227813    1.5936426  1182144 
 6335000    1.4294173   -3.5222526   -1.9282948   0.25009948   -3.5222526    1.5939578  1182167 
 6336000    1.4305281   -3.5241304   -1.9289731   0.24017785   -3.5241304    1.5951573  1182196 
 6337000    1.4295509   -3.5236472   -1.9296172   0.23886782   -3.5236472    1.5940299  1182224 
 6338000    1.4303993    -3.524268   -1.9293257   0.23764291    -3.524268    1.5949422  1182249 
 6339000    1.4291002   -3.5240479   -1.9305933   0.24086828   -3.5240479    1.5934546  1182278 
 6340000    1.4307545    -3.525055   -1.9297895   0.23962539    -3.525055    1.5952655  1182303 
 6341000    1.4293508   -3.5234871   -1.9298205   0.24122387   -3.5234871    1.5936666  1182328 
 6342000    1.4290378   -3.5232319   -1.9299492   0.24104585   -3.5232319    1.5932827  1182354 
 6343000    1.4295943   -3.5242729   -1.9304116   0.23670875   -3.5242729    1.5938613  1182385 
 6344000    1.4295554   -3.5245139   -1.9307311   0.23878368   -3.5245139    1.5937828  1182411 
 6345000    1.4297952   -3.5248781   -1.9308751   0.23692049   -3.5248781     1.594003  1182446 
 6346000    1.4296195   -3.5243033   -1.9305285   0.23514449   -3.5243033    1.5937748  1182470 
 6347000    1.4299206   -3.5238796   -1.9298069   0.24201225   -3.5238796    1.5940727  1182498 
 6348000    1.4295215   -3.5233986   -1.9298247   0.24018185   -3.5233986    1.5935739  1182538 
 6349000    1.4298839    -3.524072   -1.9301062   0.23569252    -3.524072    1.5939658  1182547 
 6350000    1.4284401   -3.5231852   -1.9308639   0.24331361   -3.5231852    1.5923213  1182573 
 6351000    1.4307173   -3.5253788   -1.9305621   0.23765806   -3.5253788    1.5948166  1182605 
 6352000    1.4304485   -3.5249552   -1.9304841   0.23920129   -3.5249552    1.5944711  1182639 
 6353000    1.4294829   -3.5230577   -1.9297101   0.24193267   -3.5230577    1.5933477  1182674 
 6354000    1.4306237   -3.5248299   -1.9302431   0.24077872   -3.5248299    1.5945868  1182698 
 6355000    1.4312684   -3.5252169   -1.9299479   0.24315652   -3.5252169    1.5952691  1182725 
 6356000    1.4309111   -3.5253879   -1.9305508   0.23936511   -3.5253879    1.5948371  1182750 
 6357000    1.4302381   -3.5247753   -1.9307369    0.2398722   -3.5247753    1.5940384  1182786 
 6358000    1.4300598   -3.5243758     -1.93059    0.2400394   -3.5243758    1.5937858  1182826 
 6359000    1.4307911   -3.5253343   -1.9307807   0.24024744   -3.5253343    1.5945536  1182861 
 6360000    1.4313269   -3.5255485   -1.9304314   0.23799656   -3.5255485    1.5951171  1182886 
 6361000    1.4300965    -3.524765   -1.9310542   0.24556128    -3.524765    1.5937109  1182912 
 6362000    1.4309151   -3.5257404   -1.9311645   0.23966199   -3.5257404    1.5945759  1182947 
 6363000    1.4306377   -3.5253375   -1.9311233   0.24051761   -3.5253375    1.5942142  1182986 
 6364000    1.4308332    -3.525599   -1.9311952   0.23964166    -3.525599    1.5944039  1183007 
 6365000    1.4319909   -3.5261975   -1.9305482   0.23533834   -3.5261975    1.5956493  1183040 
 6366000    1.4310135   -3.5248551   -1.9303312   0.24306891   -3.5248551    1.5945239  1183067 
 6367000    1.4310811   -3.5250391   -1.9304844   0.24239652   -3.5250391    1.5945547  1183100 
 6368000    1.4319298   -3.5262344   -1.9307786   0.23897552   -3.5262344    1.5954559  1183133 
 6369000    1.4309845   -3.5252259   -1.9308664   0.24237768   -3.5252259    1.5943595  1183165 
 6370000    1.4312342   -3.5258325   -1.9312231   0.24046683   -3.5258325    1.5946094  1183186 
 6371000    1.4316846    -3.525808   -1.9307359   0.24103762    -3.525808    1.5950721  1183215 
 6372000    1.4305854   -3.5246799   -1.9308688   0.24322165   -3.5246799    1.5938111  1183242 
 6373000    1.4306921   -3.5246357   -1.9307449   0.24114707   -3.5246357    1.5938909  1183271 
 6374000    1.4307114   -3.5249066   -1.9310318   0.24388669   -3.5249066    1.5938747  1183299 
 6375000     1.432256   -3.5268805   -1.9313295    0.2360669   -3.5268805     1.595551  1183332 
 6376000    1.4314519    -3.526349   -1.9317356   0.24400527    -3.526349    1.5946134  1183363 
 6377000    1.4312394   -3.5263746    -1.932041   0.24440223   -3.5263746    1.5943336  1183395 
 6378000    1.4327657    -3.527752   -1.9317789   0.23970356    -3.527752    1.5959731  1183440 
 6379000    1.4303223   -3.5252299   -1.9320108   0.24262728   -3.5252299    1.5932191  1183464 
 6380000    1.4314629   -3.5262395   -1.9317837   0.24219196   -3.5262395    1.5944558  1183489 
 6381000    1.4307399   -3.5255759   -1.9319564   0.24056424   -3.5255759    1.5936195  1183512 
 6382000    1.4319965   -3.5270916   -1.9321182   0.24117906   -3.5270916    1.5949734  1183546 
 6383000    1.4314533   -3.5268168   -1.9324808   0.23907002   -3.5268168     1.594336  1183570 
 6384000    1.4315591   -3.5271152   -1.9326977   0.23855011   -3.5271152    1.5944175  1183597 
 6385000    1.4315916   -3.5266786   -1.9322735   0.24130282   -3.5266786    1.5944052  1183633 
 6386000    1.4321767    -3.527564   -1.9325638   0.23812894    -3.527564    1.5950002  1183675 
 6387000    1.4316835   -3.5270757   -1.9326624   0.24085359   -3.5270757    1.5944133  1183703 
 6388000    1.4328655    -3.528039   -1.9323539   0.23837775    -3.528039    1.5956851  1183736 
 6389000    1.4321085   -3.5279188   -1.9331077   0.24106864   -3.5279188    1.5948111  1183759 
 6390000    1.4314089   -3.5280735   -1.9340873   0.23942758   -3.5280735    1.5939862  1183793 
 6391000    1.4327459   -3.5283383    -1.932913   0.24102129   -3.5283383    1.5954253  1183830 
 6392000    1.4310263    -3.527216   -1.9337406   0.24243145    -3.527216    1.5934754  1183856 
 6393000    1.4316388   -3.5282024   -1.9340894    0.2442122   -3.5282024     1.594113  1183889 
 6394000    1.4321172   -3.5283027   -1.9337054   0.24288549   -3.5283027    1.5945973  1183925 
 6395000    1.4315099   -3.5280438   -1.9341672   0.24532364   -3.5280438    1.5938766  1183958 
 6396000    1.4317134   -3.5280843   -1.9340148   0.24016766   -3.5280843    1.5940695  1183983 
 6397000    1.4317789   -3.5282403   -1.9341301   0.24135563   -3.5282403    1.5941101  1184007 
 6398000    1.4305138   -3.5265228   -1.9338616   0.24481167   -3.5265228    1.5926612  1184037 
 6399000    1.4321636   -3.5284673   -1.9340083   0.24080135   -3.5284673     1.594459  1184066 
 6400000    1.4310818   -3.5283349   -1.9351341   0.24131689   -3.5283349    1.5932008  1184106 
 6401000    1.4315052   -3.5294754    -1.935841   0.23906313   -3.5294754    1.5936344  1184134 
 6402000    1.4321458   -3.5299747   -1.9356688   0.23686088   -3.5299747    1.5943059  1184165 
 6403000    1.4314989   -3.5286017    -1.935055   0.24066368   -3.5286017    1.5935467  1184194 
 6404000    1.4317868   -3.5291711   -1.9353375   0.23843991   -3.5291711    1.5938336  1184219 
 6405000    1.4318874   -3.5291343   -1.9352319   0.24072839   -3.5291343    1.5939024  1184251 
 6406000    1.4321383   -3.5292734    -1.935132   0.23814522   -3.5292734    1.5941414  1184281 
 6407000    1.4320675   -3.5290707   -1.9350391   0.23562338   -3.5290707    1.5940316  1184304 
 6408000    1.4309934   -3.5277155   -1.9349171   0.24448987   -3.5277155    1.5927983  1184332 
 6409000    1.4320349   -3.5292767   -1.9353622   0.24116462   -3.5292767    1.5939145  1184364 
 6410000    1.4320607   -3.5287419   -1.9348606   0.24229549   -3.5287419    1.5938813  1184410 
 6411000    1.4317894   -3.5287746   -1.9352423    0.2423495   -3.5287746    1.5935323  1184445 
 6412000    1.4315554   -3.5283898   -1.9351475   0.24344166   -3.5283898    1.5932423  1184467 
 6413000     1.432325   -3.5299977   -1.9359366   0.24270971   -3.5299977    1.5940612  1184495 
 6414000    1.4336428   -3.5315248   -1.9360389   0.23593156   -3.5315248    1.5954859  1184526 
 6415000     1.432939   -3.5302409   -1.9355812   0.23832709   -3.5302409    1.5946597  1184558 
 6416000    1.4323082   -3.5295804   -1.9356672   0.24554183   -3.5295804    1.5939132  1184591 
 6417000    1.4320838   -3.5295688    -1.935955   0.24445413   -3.5295688    1.5936137  1184628 
 6418000    1.4326221   -3.5302806   -1.9361055    0.2412992   -3.5302806    1.5941751  1184656 
 6419000    1.4331303   -3.5312693   -1.9365745   0.23671448   -3.5312693    1.5946948  1184690 
 6420000     1.432572   -3.5300164   -1.9359779   0.24454972   -3.5300164    1.5940385  1184716 
 6421000    1.4326837   -3.5310149   -1.9368802   0.24193474   -3.5310149    1.5941346  1184737 
 6422000    1.4315719   -3.5302544   -1.9373959   0.24033243   -3.5302544    1.5928586  1184766 
 6423000    1.4316965   -3.5302376   -1.9372875   0.24134854   -3.5302376    1.5929501  1184801 
 6424000     1.431969   -3.5303284   -1.9371155   0.23972559   -3.5303284    1.5932129  1184831 
 6425000    1.4328872   -3.5316839   -1.9374964   0.24035137   -3.5316839    1.5941875  1184866 
 6426000    1.4317098   -3.5296831   -1.9368553   0.24071009   -3.5296831    1.5928278  1184903 
 6427000    1.4321667   -3.5304066   -1.9371028   0.24278281   -3.5304066    1.5933038  1184927 
 6428000    1.4320893    -3.529682   -1.9365019   0.24746432    -3.529682    1.5931801  1184955 
 6429000    1.4324265    -3.530521   -1.9370128   0.24343262    -3.530521    1.5935082  1184990 
 6430000    1.4325704   -3.5306522   -1.9370298   0.24127969   -3.5306522    1.5936225  1185024 
 6431000    1.4334167   -3.5315786   -1.9370523   0.23987355   -3.5315786    1.5945263  1185052 
 6432000    1.4334535   -3.5314402   -1.9369148   0.24209768   -3.5314402    1.5945255  1185083 
 6433000    1.4324799   -3.5303671   -1.9369757   0.24527969   -3.5303671    1.5933914  1185121 
 6434000    1.4325648   -3.5308607   -1.9374179   0.24336097   -3.5308607    1.5934429  1185153 
 6435000     1.432782   -3.5307874   -1.9371622   0.24380907   -3.5307874    1.5936252  1185197 
 6436000    1.4338299   -3.5329137   -1.9381524    0.2386554   -3.5329137    1.5947612  1185219 
 6437000    1.4320402   -3.5306157   -1.9378908   0.24297768   -3.5306157     1.592725  1185253 
 6438000    1.4311665    -3.529924   -1.9382043   0.24313336    -3.529924    1.5917196  1185278 
 6439000    1.4321449    -3.531085   -1.9383041   0.24420853    -3.531085    1.5927809  1185298 
 6440000    1.4326481   -3.5314463   -1.9381313   0.24141144   -3.5314463     1.593315  1185317 
 6441000    1.4328975   -3.5313739   -1.9378259   0.24649089   -3.5313739     1.593548  1185350 
 6442000    1.4336181   -3.5314413   -1.9371443   0.24157718   -3.5314413     1.594297  1185389 
 6443000    1.4335726   -3.5314011   -1.9372005   0.24360091   -3.5314011    1.5942006  1185423 
 6444000    1.4338832   -3.5314113   -1.9368975   0.24340957   -3.5314113    1.5945138  1185447 
 6445000    1.4339928   -3.5329441   -1.9383556   0.24263648   -3.5329441    1.5945886  1185482 
 6446000    1.4330606   -3.5330068    -1.939475   0.23979266   -3.5330068    1.5935318  1185497 
 6447000    1.4341009   -3.5334036     -1.93875    0.2378266   -3.5334036    1.5946536  1185523 
 6448000    1.4325067   -3.5326802   -1.9398383   0.24190268   -3.5326802    1.5928419  1185552 
 6449000    1.4327112   -3.5323337    -1.939306   0.24403046   -3.5323337    1.5930277  1185583 
 6450000    1.4334483   -3.5332855    -1.939488   0.23974319   -3.5332855    1.5937975  1185620 
 6451000    1.4322931   -3.5322508   -1.9397739    0.2422895   -3.5322508    1.5924769  1185647 
 6452000     1.432958    -3.532023   -1.9388445   0.24352298    -3.532023    1.5931785  1185675 
 6453000    1.4327538   -3.5325814   -1.9396703   0.24236078   -3.5325814    1.5929111  1185705 
 6454000    1.4317572   -3.5318519   -1.9400783   0.24164321   -3.5318519    1.5917736  1185727 
 6455000     1.431958    -3.532443   -1.9404838    0.2425899    -3.532443    1.5919593  1185755 
 6456000    1.4318625   -3.5326561   -1.9408487    0.2432617   -3.5326561    1.5918074  1185789 
 6457000    1.4313706   -3.5322812   -1.9410703   0.24581047   -3.5322812     1.591211  1185826 
 6458000     1.432245    -3.534181    -1.942041   0.24364665    -3.534181      1.59214  1185858 
 6459000    1.4330884   -3.5351809   -1.9421504   0.24011785   -3.5351809    1.5930305  1185893 
 6460000    1.4325382   -3.5343086   -1.9419488   0.24245598   -3.5343086    1.5923598  1185937 
 6461000    1.4329652   -3.5344805   -1.9416943   0.24065779   -3.5344805    1.5927861  1185973 
 6462000    1.4324042   -3.5345951   -1.9424875    0.2371046   -3.5345951    1.5921076  1186014 
 6463000    1.4325528   -3.5345407   -1.9423136   0.24053901   -3.5345407    1.5922271  1186048 
 6464000    1.4325325   -3.5342287   -1.9420699   0.24138865   -3.5342287    1.5921588  1186082 
 6465000    1.4327621   -3.5346705   -1.9422928   0.24197676   -3.5346705    1.5923778  1186109 
 6466000    1.4325799   -3.5348944   -1.9427568   0.23958434   -3.5348944    1.5921377  1186137 
 6467000    1.4312713   -3.5334773   -1.9428462   0.24232087   -3.5334773    1.5906311  1186176 
 6468000    1.4320707   -3.5340741   -1.9425935   0.24303966   -3.5340741    1.5914805  1186205 
 6469000    1.4318926   -3.5342269   -1.9429724   0.24344095   -3.5342269    1.5912545  1186226 
 6470000    1.4326073   -3.5355793   -1.9435869   0.24239272   -3.5355793    1.5919924  1186268 
 6471000    1.4328494   -3.5356282   -1.9434031   0.24148483   -3.5356282    1.5922251  1186295 
 6472000    1.4328066   -3.5350055    -1.942875   0.24403875   -3.5350055    1.5921306  1186330 
 6473000    1.4328312   -3.5346446   -1.9425229   0.24257113   -3.5346446    1.5921217  1186357 
 6474000    1.4330973   -3.5357233   -1.9433422   0.24151069   -3.5357233    1.5923811  1186384 
 6475000     1.433848   -3.5353808   -1.9422045   0.24445582   -3.5353808    1.5931763  1186413 
 6476000     1.432709   -3.5352899   -1.9434127   0.23813604   -3.5352899    1.5918772  1186438 
 6477000    1.4323472   -3.5352937   -1.9438507   0.24507231   -3.5352937     1.591443  1186462 
 6478000     1.432575   -3.5362895   -1.9446335   0.24065642   -3.5362895    1.5916559  1186492 
 6479000    1.4323928   -3.5352567   -1.9438368    0.2443766   -3.5352567    1.5914199  1186517 
 6480000     1.432557   -3.5362717   -1.9447083   0.23658999   -3.5362717    1.5915634  1186546 
 6481000    1.4329362   -3.5364004   -1.9444653    0.2385938   -3.5364004    1.5919351  1186583 
 6482000    1.4321875   -3.5360995   -1.9450243   0.24260593   -3.5360995    1.5910752  1186604 
 6483000    1.4314645   -3.5357238   -1.9454895   0.24429478   -3.5357238    1.5902344  1186632 
 6484000    1.4323775   -3.5358629   -1.9446706   0.24388526   -3.5358629    1.5911923  1186674 
 6485000    1.4323419   -3.5358889   -1.9447709   0.23978624   -3.5358889    1.5911179  1186700 
 6486000    1.4321836   -3.5362815   -1.9453823   0.23949734   -3.5362815    1.5908992  1186732 
 6487000    1.4330454   -3.5366262   -1.9448167   0.24121773   -3.5366262    1.5918096  1186767 
 6488000    1.4324335   -3.5359604   -1.9448533   0.24165763   -3.5359604    1.5911071  1186784 
 6489000    1.4326454   -3.5357885   -1.9444755   0.24040239   -3.5357885     1.591313  1186806 
 6490000    1.4341934   -3.5373153   -1.9443258   0.24295658   -3.5373153    1.5929894  1186838 
 6491000     1.433983   -3.5365971    -1.943891   0.24055455   -3.5365971    1.5927061  1186875 
 6492000    1.4339686   -3.5361892    -1.943554   0.24247156   -3.5361892    1.5926351  1186916 
 6493000    1.4335108   -3.5352942   -1.9432118   0.24521805   -3.5352942    1.5920823  1186949 
 6494000    1.4334866    -3.535588   -1.9435835   0.24678504    -3.535588    1.5920045  1186987 
 6495000    1.4336166   -3.5367306   -1.9446192   0.24296141   -3.5367306    1.5921114  1187015 
 6496000    1.4332574   -3.5365577   -1.9448841    0.2421504   -3.5365577    1.5916735  1187044 
 6497000    1.4333633    -3.536885   -1.9451367   0.24355643    -3.536885    1.5917483  1187076 
 6498000    1.4330927   -3.5362025   -1.9447883   0.24519146   -3.5362025    1.5914142  1187101 
 6499000     1.434437   -3.5376531   -1.9447903    0.2441891   -3.5376531    1.5928628  1187134 
 6500000    1.4346794    -3.537708   -1.9446231   0.24413207    -3.537708     1.593085  1187169 
 6501000    1.4330933   -3.5364483   -1.9451661   0.24439702   -3.5364483    1.5912822  1187200 
 6502000     1.434217   -3.5371656   -1.9446612   0.24459272   -3.5371656    1.5925044  1187219 
 6503000    1.4333528   -3.5365272   -1.9450238   0.24024786   -3.5365272    1.5915034  1187250 
 6504000    1.4338271   -3.5368422   -1.9448444   0.24003966   -3.5368422    1.5919978  1187274 
 6505000    1.4341005   -3.5371076   -1.9448519    0.2425606   -3.5371076    1.5922558  1187308 
 6506000    1.4334588   -3.5361689   -1.9446605   0.24347105   -3.5361689    1.5915084  1187334 
 6507000    1.4337409   -3.5367924   -1.9450097   0.24705167   -3.5367924    1.5917828  1187363 
 6508000    1.4337449   -3.5375832   -1.9458389   0.24414861   -3.5375832    1.5917442  1187395 
 6509000    1.4346864   -3.5384232   -1.9456859   0.24778744   -3.5384232    1.5927372  1187434 
 6510000    1.4343315   -3.5375835   -1.9452738    0.2455479   -3.5375835    1.5923097  1187459 
 6511000    1.4339204   -3.5377596   -1.9459397   0.24316607   -3.5377596    1.5918198  1187484 
 6512000    1.4343159   -3.5378704   -1.9456505   0.24117224   -3.5378704    1.5922199  1187513 
 6513000    1.4343368    -3.537476   -1.9452677   0.24476882    -3.537476    1.5922083  1187539 
 6514000      1.43406   -3.5375361   -1.9456672   0.24089037   -3.5375361    1.5918689  1187563 
 6515000    1.4326971   -3.5368799   -1.9465627    0.2447477   -3.5368799    1.5903172  1187592 
 6516000    1.4325544   -3.5375105   -1.9473905   0.24498215   -3.5375105      1.59012  1187621 
 6517000    1.4339983   -3.5391472   -1.9474714   0.23945398   -3.5391472    1.5916757  1187656 
 6518000    1.4338678   -3.5389462   -1.9474515   0.24444799   -3.5389462    1.5914947  1187683 
 6519000    1.4325256   -3.5375204   -1.9475516     0.242691   -3.5375204    1.5899689  1187710 
 6520000    1.4339404   -3.5389918   -1.9474889   0.24309062   -3.5389918    1.5915029  1187737 
 6521000    1.4344988   -3.5402579   -1.9481714   0.23873527   -3.5402579    1.5920865  1187764 
 6522000    1.4327892   -3.5388632   -1.9487049    0.2372658   -3.5388632    1.5901583  1187787 
 6523000    1.4348185   -3.5405549   -1.9481953   0.24283989   -3.5405549    1.5923595  1187825 
 6524000    1.4339054    -3.539616    -1.948306   0.24355913    -3.539616      1.59131  1187852 
 6525000    1.4343161   -3.5395346   -1.9478157   0.24357297   -3.5395346    1.5917189  1187887 
 6526000    1.4345335   -3.5401964   -1.9482872   0.23960285   -3.5401964    1.5919092  1187925 
 6527000     1.433915   -3.5400672   -1.9488819   0.24608568   -3.5400672    1.5911854  1187953 
 6528000    1.4324782   -3.5387647   -1.9492165   0.24044361   -3.5387647    1.5895481  1187985 
 6529000    1.4350246   -3.5420769   -1.9497366   0.23570144   -3.5420769    1.5923403  1188010 
 6530000    1.4332686   -3.5400793   -1.9497277   0.23984732   -3.5400793    1.5903516  1188040 
 6531000    1.4328428   -3.5401479   -1.9503103   0.24110224   -3.5401479    1.5898376  1188071 
 6532000    1.4326953   -3.5397327   -1.9500962    0.2445876   -3.5397327    1.5896365  1188099 
 6533000    1.4315763    -3.537369   -1.9490141   0.24595616    -3.537369    1.5883549  1188129 
 6534000    1.4326979   -3.5394196   -1.9498525   0.24519461   -3.5394196    1.5895672  1188153 
 6535000    1.4343399   -3.5410005   -1.9496517   0.23884423   -3.5410005    1.5913487  1188183 
 6536000    1.4317114   -3.5382023   -1.9498045   0.24677991   -3.5382023    1.5883978  1188209 
 6537000    1.4331057   -3.5393577   -1.9494571   0.24377491   -3.5393577    1.5899005  1188242 
 6538000    1.4335351   -3.5396707   -1.9493206   0.24509208   -3.5396707    1.5903501  1188262 
 6539000    1.4347307   -3.5407371   -1.9491048   0.24511589   -3.5407371    1.5916323  1188295 
 6540000    1.4341183   -3.5402416   -1.9493368   0.23992786   -3.5402416    1.5909047  1188331 
 6541000    1.4343946   -3.5410215   -1.9498437   0.23878956   -3.5410215    1.5911778  1188356 
 6542000    1.4335975   -3.5403056   -1.9500495   0.24081505   -3.5403056    1.5902561  1188384 
 6543000     1.433395   -3.5401275   -1.9501348   0.24159498   -3.5401275    1.5899927  1188413 
 6544000     1.434308   -3.5411425   -1.9501772   0.24372583   -3.5411425    1.5909653  1188443 
 6545000    1.4339886   -3.5403866   -1.9498037   0.24588782   -3.5403866    1.5905828  1188464 
 6546000    1.4353853   -3.5419152     -1.94983   0.24286391   -3.5419152    1.5920852  1188499 
 6547000    1.4340119   -3.5405462   -1.9500232   0.24578892   -3.5405462     1.590523  1188528 
 6548000      1.43385   -3.5407379   -1.9504387   0.24215829   -3.5407379    1.5902993  1188561 
 6549000    1.4352134    -3.542184   -1.9504114   0.24207071    -3.542184    1.5917727  1188590 
 6550000     1.433068   -3.5400942   -1.9507371   0.24234416   -3.5400942    1.5893571  1188617 
 6551000    1.4332316   -3.5403389   -1.9508351    0.2425922   -3.5403389    1.5895038  1188643 
 6552000    1.4339374   -3.5411116   -1.9508732    0.2417029   -3.5411116    1.5902384  1188679 
 6553000    1.4354184   -3.5423141   -1.9504695   0.24110374   -3.5423141    1.5918446  1188706 
 6554000    1.4349818   -3.5421971   -1.9508754   0.24082534   -3.5421971    1.5913217  1188735 
 6555000    1.4354919   -3.5427381   -1.9508923   0.23804142   -3.5427381    1.5918458  1188766 
 6556000    1.4338866   -3.5414299   -1.9513963   0.24247813   -3.5414299    1.5900336  1188790 
 6557000    1.4329721   -3.5403334   -1.9513474   0.24525609   -3.5403334     1.588986  1188815 
 6558000    1.4346116    -3.542065   -1.9512971   0.23931421    -3.542065    1.5907679  1188842 
 6559000    1.4344386   -3.5420026   -1.9514746   0.24302044   -3.5420026     1.590528  1188878 
 6560000    1.4336149   -3.5415139   -1.9519527   0.24586609   -3.5415139    1.5895612  1188918 
 6561000    1.4343301   -3.5427718   -1.9524645    0.2392527   -3.5427718    1.5903073  1188953 
 6562000     1.434218   -3.5419359   -1.9517903   0.24094434   -3.5419359    1.5901456  1188981 
 6563000    1.4355327   -3.5430192   -1.9514562   0.24115704   -3.5430192     1.591563  1189011 
 6564000    1.4354064   -3.5432789    -1.951896   0.24207304   -3.5432789    1.5913829  1189041 
 6565000     1.433678   -3.5419533   -1.9525228   0.24173958   -3.5419533    1.5894305  1189068 
 6566000    1.4352288   -3.5440448   -1.9529311   0.23466408   -3.5440448    1.5911138  1189095 
 6567000    1.4338945    -3.542807   -1.9532126   0.24365387    -3.542807    1.5895944  1189125 
 6568000    1.4353339   -3.5434943   -1.9523363    0.2416336   -3.5434943     1.591158  1189149 
 6569000    1.4356158   -3.5436931   -1.9522655   0.24124556   -3.5436931    1.5914276  1189181 
 6570000      1.43576   -3.5442288   -1.9527002   0.24099652   -3.5442288    1.5915286  1189225 
 6571000    1.4337655   -3.5425634   -1.9532818   0.24530271   -3.5425634    1.5892816  1189252 
 6572000    1.4347661   -3.5436309   -1.9532816   0.24191269   -3.5436309    1.5903493  1189283 
 6573000    1.4347343    -3.543253   -1.9529791   0.24121487    -3.543253    1.5902739  1189313 
 6574000    1.4358746   -3.5439216   -1.9524306   0.24407919   -3.5439216     1.591491  1189348 
 6575000    1.4350148   -3.5436021   -1.9530975   0.24536539   -3.5436021    1.5905046  1189373 
 6576000    1.4344788   -3.5424251   -1.9525547   0.24354237   -3.5424251    1.5898704  1189403 
 6577000    1.4355728    -3.543383   -1.9523282   0.24515365    -3.543383    1.5910548  1189424 
 6578000    1.4348277   -3.5429475   -1.9527519   0.24544106   -3.5429475    1.5901956  1189449 
 6579000    1.4366108   -3.5444945   -1.9523735   0.24237604   -3.5444945    1.5921209  1189487 
 6580000    1.4349273   -3.5424305   -1.9522048    0.2446413   -3.5424305    1.5902258  1189509 
 6581000    1.4360864   -3.5439919   -1.9525257   0.24661509   -3.5439919    1.5914662  1189542 
 6582000    1.4356018   -3.5438737   -1.9529847   0.24236358   -3.5438737     1.590889  1189572 
 6583000    1.4349318   -3.5433957   -1.9532839   0.24123187   -3.5433957    1.5901118  1189598 
 6584000    1.4350073   -3.5433216   -1.9531648   0.24485164   -3.5433216    1.5901568  1189627 
 6585000    1.4365872   -3.5451458   -1.9532746   0.23980556   -3.5451458    1.5918712  1189654 
 6586000     1.437119   -3.5459423   -1.9535151   0.23743992   -3.5459423    1.5924272  1189679 
 6587000    1.4365214     -3.54555   -1.9538265    0.2383721     -3.54555    1.5917235  1189710 
 6588000    1.4355748   -3.5444089   -1.9537705   0.24523961   -3.5444089    1.5906385  1189737 
 6589000    1.4355805   -3.5443626   -1.9537526   0.23859009   -3.5443626    1.5906101  1189763 
 6590000    1.4355458   -3.5440754   -1.9535413   0.24590516   -3.5440754    1.5905341  1189791 
 6591000    1.4357627   -3.5448994   -1.9541623   0.24602675   -3.5448994    1.5907371  1189819 
 6592000     1.434622   -3.5436963   -1.9542712   0.24523909   -3.5436963    1.5894251  1189855 
 6593000    1.4344002   -3.5431111   -1.9539811   0.24682588   -3.5431111      1.58913  1189892 
 6594000    1.4346082   -3.5443101   -1.9549883   0.24591641   -3.5443101    1.5893217  1189921 
 6595000    1.4365499    -3.545804   -1.9543687   0.23802935    -3.545804    1.5914353  1189949 
 6596000    1.4358982   -3.5448717   -1.9541877   0.24819442   -3.5448717     1.590684  1189971 
 6597000    1.4365301   -3.5462826   -1.9549307   0.24767085   -3.5462826    1.5913518  1189995 
 6598000    1.4360035   -3.5452702   -1.9545579   0.24194164   -3.5452702    1.5907124  1190037 
 6599000    1.4370187   -3.5463174   -1.9545232   0.23964399   -3.5463174    1.5917941  1190069 
 6600000     1.435743   -3.5449844   -1.9546381   0.24418194   -3.5449844    1.5903463  1190095 
 6601000    1.4362118   -3.5461553   -1.9553285   0.24113044   -3.5461553    1.5908268  1190124 
 6602000    1.4343446   -3.5447149   -1.9559843   0.24848565   -3.5447149    1.5887306  1190145 
 6603000    1.4352888   -3.5453794   -1.9556497   0.24577063   -3.5453794    1.5897297  1190180 
 6604000    1.4347565   -3.5451874    -1.956078   0.24463298   -3.5451874    1.5891094  1190203 
 6605000    1.4354929   -3.5459755   -1.9560838   0.24389973   -3.5459755    1.5898916  1190228 
 6606000    1.4356419   -3.5455543   -1.9555525   0.24361618   -3.5455543    1.5900019  1190269 
 6607000    1.4351522   -3.5447772    -1.955347   0.24340016   -3.5447772    1.5894302  1190291 
 6608000    1.4351963   -3.5457657   -1.9563228   0.24316972   -3.5457657    1.5894429  1190318 
 6609000    1.4355149   -3.5458131   -1.9560534    0.2462111   -3.5458131    1.5897597  1190345 
 6610000     1.434422   -3.5448332   -1.9563239   0.24512362   -3.5448332    1.5885093  1190375 
 6611000    1.4358273   -3.5457728     -1.95575   0.24516356   -3.5457728    1.5900228  1190407 
 6612000     1.435613   -3.5454627   -1.9557172    0.2431366   -3.5454627    1.5897455  1190437 
 6613000    1.4360942   -3.5458143   -1.9555694   0.24516065   -3.5458143    1.5902449  1190462 
 6614000    1.4362005   -3.5453701   -1.9550448   0.24770574   -3.5453701    1.5903253  1190490 
 6615000    1.4359528   -3.5466982   -1.9566713   0.24059369   -3.5466982    1.5900269  1190508 
 6616000    1.4362003   -3.5470006   -1.9567424   0.24168256   -3.5470006    1.5902582  1190540 
 6617000    1.4359664   -3.5464379   -1.9564761    0.2437931   -3.5464379    1.5899618  1190568 
 6618000    1.4383427   -3.5485463    -1.955988   0.23916313   -3.5485463    1.5925582  1190594 
 6619000    1.4357931   -3.5459635   -1.9562617   0.24785869   -3.5459635    1.5897018  1190619 
 6620000    1.4354386   -3.5460658   -1.9567978   0.24469796   -3.5460658    1.5892679  1190650 
 6621000      1.43687   -3.5479674   -1.9571641   0.24446413   -3.5479674    1.5908033  1190687 
 6622000    1.4364065   -3.5472465   -1.9570017    0.2432558   -3.5472465    1.5902448  1190721 
 6623000    1.4374767   -3.5477631   -1.9563803   0.24085393   -3.5477631    1.5913828  1190756 
 6624000    1.4365346   -3.5474847    -1.957197   0.24516983   -3.5474847    1.5902877  1190795 
 6625000    1.4354815   -3.5466805   -1.9576039   0.24546712   -3.5466805    1.5890766  1190829 
 6626000    1.4362417   -3.5471198   -1.9572404   0.24268377   -3.5471198    1.5898793  1190858 
 6627000    1.4362329   -3.5468085   -1.9569615   0.24411801   -3.5468085     1.589847  1190875 
 6628000    1.4356592    -3.546755   -1.9575884   0.24847616    -3.546755    1.5891665  1190909 
 6629000     1.436762   -3.5479092   -1.9575793   0.24187451   -3.5479092    1.5903298  1190952 
 6630000    1.4353833    -3.546142   -1.9573836   0.24922317    -3.546142    1.5887584  1190986 
 6631000    1.4373973   -3.5478325   -1.9568757   0.24133015   -3.5478325    1.5909569  1191009 
 6632000    1.4368954   -3.5474628   -1.9570988   0.24536505   -3.5474628     1.590364  1191037 
 6633000    1.4374932   -3.5480918   -1.9571022   0.24440021   -3.5480918    1.5909895  1191064 
 6634000     1.436823   -3.5483291    -1.958112   0.24777672   -3.5483291    1.5902171  1191087 
 6635000    1.4359703   -3.5469562   -1.9577149   0.24449418   -3.5469562    1.5892413  1191111 
 6636000    1.4374028   -3.5492264   -1.9584451   0.24112404   -3.5492264    1.5907813  1191145 
 6637000     1.437089   -3.5479351   -1.9575518   0.24356316   -3.5479351    1.5903833  1191183 
 6638000    1.4366062   -3.5473598   -1.9575402   0.24569755   -3.5473598    1.5898196  1191205 
 6639000    1.4361404   -3.5473544   -1.9580877   0.24834287   -3.5473544    1.5892667  1191233 
 6640000    1.4367403   -3.5477598   -1.9578745   0.24598189   -3.5477598    1.5898853  1191267 
 6641000    1.4375221   -3.5487033   -1.9580023   0.24412561   -3.5487033     1.590701  1191304 
 6642000    1.4369915   -3.5480297   -1.9579519   0.24402043   -3.5480297    1.5900778  1191331 
 6643000    1.4367503   -3.5478468   -1.9580746   0.24658496   -3.5478468    1.5897722  1191360 
 6644000    1.4363123   -3.5476323   -1.9583887   0.25111982   -3.5476323    1.5892436  1191393 
 6645000    1.4376665   -3.5493392    -1.958636   0.24093107   -3.5493392    1.5907032  1191422 
 6646000    1.4374444   -3.5489715   -1.9585514   0.23745688   -3.5489715    1.5904201  1191450 
 6647000    1.4370212   -3.5484087   -1.9584862   0.24591907   -3.5484087    1.5899225  1191472 
 6648000    1.4366786   -3.5479354   -1.9584253    0.2438673   -3.5479354    1.5895101  1191497 
 6649000    1.4369901    -3.549336   -1.9595132   0.24168856    -3.549336    1.5898227  1191521 
 6650000    1.4373927   -3.5500608    -1.959842   0.23938328   -3.5500608    1.5902187  1191558 
 6651000    1.4370148   -3.5502706   -1.9605099   0.23852192   -3.5502706    1.5897607  1191588 
 6652000    1.4357691   -3.5490791   -1.9607312   0.24342466   -3.5490791    1.5883479  1191614 
 6653000    1.4355786   -3.5495237   -1.9614159   0.24318381   -3.5495237    1.5881078  1191636 
 6654000    1.4366333   -3.5507279    -1.961488   0.23982912   -3.5507279    1.5892399  1191662 
 6655000    1.4365744   -3.5504042   -1.9612802    0.2460037   -3.5504042    1.5891241  1191700 
 6656000    1.4362616   -3.5496143   -1.9608788   0.24708737   -3.5496143    1.5887355  1191732 
 6657000    1.4376969   -3.5507591   -1.9604774   0.24185779   -3.5507591    1.5902817  1191763 
 6658000    1.4362889   -3.5493749   -1.9606852   0.24524341   -3.5493749    1.5886896  1191789 
 6659000    1.4367781   -3.5497105    -1.960513   0.24877603   -3.5497105    1.5891974  1191814 
 6660000    1.4373877   -3.5507355   -1.9608972   0.24591869   -3.5507355    1.5898383  1191839 
 6661000    1.4361618   -3.5499581   -1.9615224   0.24680698   -3.5499581    1.5884358  1191874 
 6662000      1.43597   -3.5499652   -1.9617723   0.24537894   -3.5499652    1.5881929  1191897 
 6663000    1.4359026    -3.549591   -1.9615192   0.24811047    -3.549591    1.5880718  1191932 
 6664000    1.4373746   -3.5511042   -1.9614324   0.24289724   -3.5511042    1.5896718  1191953 
 6665000    1.4373627   -3.5514078   -1.9617892   0.24333351   -3.5514078    1.5896186  1191983 
 6666000    1.4372911    -3.550959   -1.9614556   0.24806642    -3.550959    1.5895034  1192010 
 6667000    1.4384547   -3.5517366   -1.9609944   0.23887613   -3.5517366    1.5907422  1192046 
 6668000    1.4364636   -3.5496265   -1.9611221   0.24522883   -3.5496265    1.5885043  1192073 
 6669000    1.4362373   -3.5496563   -1.9614436   0.24595738   -3.5496563    1.5882128  1192104 
 6670000    1.4366676   -3.5500385   -1.9613912    0.2461583   -3.5500385    1.5886473  1192135 
 6671000    1.4377011   -3.5517842   -1.9620315   0.24414684   -3.5517842    1.5897527  1192163 
 6672000    1.4375172    -3.550617   -1.9611022   0.24400472    -3.550617    1.5895147  1192189 
 6673000    1.4379692   -3.5515941   -1.9616169   0.24261716   -3.5515941    1.5899772  1192217 
 6674000    1.4383365   -3.5520598   -1.9617178   0.24287197   -3.5520598     1.590342  1192248 
 6675000    1.4377381   -3.5517144   -1.9620727    0.2400215   -3.5517144    1.5896417  1192277 
 6676000    1.4372886   -3.5515818   -1.9624691    0.2391143   -3.5515818    1.5891127  1192301 
 6677000    1.4368575   -3.5513342   -1.9627501   0.24139175   -3.5513342    1.5885841  1192340 
 6678000    1.4365258   -3.5506349   -1.9624588   0.25012269   -3.5506349    1.5881761  1192371 
 6679000    1.4371745   -3.5514626   -1.9626013   0.24295925   -3.5514626    1.5888613  1192395 
 6680000     1.437063   -3.5519899   -1.9632812   0.24498064   -3.5519899    1.5887087  1192417 
 6681000    1.4381329   -3.5527424   -1.9628936   0.23940822   -3.5527424    1.5898488  1192449 
 6682000    1.4365719   -3.5515294   -1.9634462   0.24405567   -3.5515294    1.5880832  1192479 
 6683000    1.4372999   -3.5519009   -1.9630662   0.24365244   -3.5519009    1.5888347  1192519 
 6684000    1.4379534   -3.5523617   -1.9628272   0.24430977   -3.5523617    1.5895344  1192536 
 6685000    1.4362586   -3.5512174   -1.9635831   0.24698816   -3.5512174    1.5876344  1192556 
 6686000    1.4378961   -3.5526326   -1.9632295   0.24325155   -3.5526326    1.5894031  1192587 
 6687000    1.4378163   -3.5531465   -1.9638742   0.24695992   -3.5531465    1.5892723  1192619 
 6688000    1.4384163   -3.5535939   -1.9636958   0.24453101   -3.5535939    1.5898981  1192647 
 6689000    1.4384559   -3.5539257   -1.9640398    0.2480075   -3.5539257    1.5898859  1192689 
 6690000    1.4367482   -3.5530749   -1.9651244    0.2471037   -3.5530749    1.5879505  1192725 
 6691000    1.4364242   -3.5532037   -1.9656498   0.24901011   -3.5532037    1.5875538  1192754 
 6692000     1.436166   -3.5528273   -1.9655894   0.24558422   -3.5528273    1.5872379  1192777 
 6693000    1.4378196   -3.5545953   -1.9655739   0.24184317   -3.5545953    1.5890214  1192810 
 6694000    1.4371634   -3.5531479   -1.9648902   0.24463242   -3.5531479    1.5882577  1192839 
 6695000    1.4374931   -3.5529658   -1.9643877   0.24575138   -3.5529658    1.5885781  1192872 
 6696000    1.4383417   -3.5544761   -1.9650055   0.24288347   -3.5544761    1.5894705  1192906 
 6697000    1.4384402   -3.5547206   -1.9651653   0.24059462   -3.5547206    1.5895554  1192924 
 6698000    1.4367099   -3.5524532   -1.9648551   0.24788009   -3.5524532    1.5875981  1192958 
 6699000    1.4376442   -3.5541653   -1.9655708   0.24368905   -3.5541653    1.5885945  1192985 
 6700000    1.4379706   -3.5544544   -1.9655472   0.24139989   -3.5544544    1.5889072  1193021 
 6701000    1.4372142   -3.5539825    -1.965959   0.24378546   -3.5539825    1.5880235  1193057 
 6702000    1.4373867   -3.5538481   -1.9656632   0.24316498   -3.5538481    1.5881849  1193079 
 6703000    1.4382916   -3.5539301   -1.9647907   0.24401593   -3.5539301    1.5891394  1193113 
 6704000    1.4373931   -3.5527661   -1.9646714   0.25009145   -3.5527661    1.5880947  1193152 
 6705000    1.4392171   -3.5544448   -1.9643668   0.24347996   -3.5544448     1.590078  1193176 
 6706000      1.43845   -3.5532613   -1.9640695   0.24682791   -3.5532613    1.5891918  1193205 
 6707000    1.4374854   -3.5522025    -1.964111   0.24853994   -3.5522025    1.5880915  1193231 
 6708000    1.4378094    -3.552955   -1.9645282   0.24622911    -3.552955    1.5884269  1193248 
 6709000    1.4389614   -3.5534627   -1.9637938   0.24406419   -3.5534627     1.589669  1193271 
 6710000    1.4394582   -3.5534636   -1.9632857   0.24748424   -3.5534636    1.5901778  1193301 
 6711000    1.4391906   -3.5533467   -1.9635166   0.24733113   -3.5533467    1.5898302  1193340 
 6712000    1.4392116   -3.5538784   -1.9640677   0.25084802   -3.5538784    1.5898108  1193372 
 6713000    1.4375992   -3.5526578   -1.9646707   0.24818882   -3.5526578    1.5879871  1193404 
 6714000    1.4382959   -3.5537348   -1.9650194   0.24996295   -3.5537348    1.5887154  1193435 
 6715000    1.4388355   -3.5544525   -1.9651798   0.24703115   -3.5544525    1.5892728  1193464 
 6716000    1.4392499   -3.5547785   -1.9650827   0.24538183   -3.5547785    1.5896959  1193490 
 6717000    1.4385377   -3.5533805   -1.9645005   0.24903582   -3.5533805      1.58888  1193512 
 6718000    1.4386575   -3.5535359   -1.9645502   0.25075574   -3.5535359    1.5889857  1193532 
 6719000    1.4375631   -3.5532847   -1.9655423   0.24973543   -3.5532847    1.5877424  1193558 
 6720000    1.4384136   -3.5546017   -1.9659706   0.24893316   -3.5546017    1.5886311  1193596 
 6721000     1.438407   -3.5550687   -1.9664702   0.24810219   -3.5550687    1.5885985  1193615 
 6722000     1.439135   -3.5560207   -1.9666515    0.2442232   -3.5560207    1.5893692  1193640 
 6723000    1.4377504   -3.5545517   -1.9667742   0.24984765   -3.5545517    1.5877775  1193687 
 6724000    1.4391382   -3.5562741   -1.9670039   0.24260622   -3.5562741    1.5892702  1193717 
 6725000    1.4392664   -3.5563696   -1.9669804   0.24609932   -3.5563696    1.5893892  1193734 
 6726000    1.4382445    -3.555217   -1.9669949   0.24802885    -3.555217    1.5882221  1193763 
 6727000    1.4396668   -3.5570049   -1.9672534   0.24408304   -3.5570049    1.5897515  1193794 
 6728000    1.4390788   -3.5566896   -1.9676287   0.24857774   -3.5566896    1.5890609  1193825 
 6729000    1.4383946   -3.5565338   -1.9682577   0.24765824   -3.5565338    1.5882761  1193847 
 6730000    1.4382482   -3.5562965   -1.9682166   0.24787939   -3.5562965    1.5880798  1193873 
 6731000    1.4379402   -3.5556671   -1.9679673   0.24666808   -3.5556671    1.5876998  1193903 
 6732000    1.4369857    -3.555437   -1.9688269   0.24400454    -3.555437    1.5866101  1193930 
 6733000    1.4385207   -3.5565063   -1.9682426   0.24369196   -3.5565063    1.5882637  1193961 
 6734000    1.4400547   -3.5581018   -1.9681964   0.23954409   -3.5581018    1.5899054  1194000 
 6735000    1.4391924   -3.5572264    -1.968309   0.23971925   -3.5572264    1.5889175  1194027 
 6736000    1.4387967   -3.5558276   -1.9673842   0.24961737   -3.5558276    1.5884434  1194055 
 6737000    1.4387292   -3.5565928   -1.9682625   0.24457438   -3.5565928    1.5883302  1194084 
 6738000    1.4397342   -3.5573353   -1.9679288   0.24269859   -3.5573353    1.5894065  1194109 
 6739000    1.4393257   -3.5571974   -1.9682818    0.2471106   -3.5571974    1.5889156  1194139 
 6740000    1.4392357   -3.5571179   -1.9683429   0.24589323   -3.5571179     1.588775  1194170 
 6741000    1.4387131   -3.5562457   -1.9680835   0.24225453   -3.5562457    1.5881622  1194197 
 6742000    1.4397522   -3.5576318   -1.9683598   0.24261774   -3.5576318     1.589272  1194225 
 6743000    1.4394684   -3.5571943   -1.9682809   0.24255244   -3.5571943    1.5889134  1194259 
 6744000    1.4381297    -3.556329   -1.9689304   0.24518675    -3.556329    1.5873986  1194287 
 6745000      1.43946   -3.5570084   -1.9681707   0.24597558   -3.5570084    1.5888376  1194309 
 6746000    1.4396762   -3.5574216   -1.9683772    0.2415309   -3.5574216    1.5890444  1194333 
 6747000    1.4395828   -3.5580896   -1.9691722   0.23846888   -3.5580896    1.5889174  1194351 
 6748000    1.4388928   -3.5573311   -1.9692205   0.24732708   -3.5573311    1.5881105  1194385 
 6749000    1.4384664   -3.5573497   -1.9697456   0.23968121   -3.5573497     1.587604  1194412 
 6750000    1.4379219   -3.5572571   -1.9702912   0.24917028   -3.5572571    1.5869659  1194440 
 6751000    1.4390017    -3.558616   -1.9704956   0.24263204    -3.558616    1.5881203  1194468 
 6752000    1.4388124    -3.558866   -1.9710024     0.243369    -3.558866    1.5878636  1194504 
 6753000    1.4395506   -3.5591154   -1.9704743   0.24749134   -3.5591154    1.5886411  1194532 
 6754000    1.4394907   -3.5592656   -1.9707239   0.24400262   -3.5592656    1.5885417  1194557 
 6755000    1.4381199   -3.5575756   -1.9705852   0.24852032   -3.5575756    1.5869904  1194586 
 6756000    1.4386909   -3.5581467   -1.9705527   0.24362936   -3.5581467     1.587594  1194606 
 6757000    1.4376647   -3.5573826   -1.9709569   0.24618976   -3.5573826    1.5864257  1194633 
 6758000    1.4384415   -3.5585267   -1.9712904   0.24238849   -3.5585267    1.5872363  1194668 
 6759000    1.4387773   -3.5585285   -1.9709694   0.24752361   -3.5585285    1.5875591  1194704 
 6760000    1.4398647   -3.5606026   -1.9718849   0.24239555   -3.5606026    1.5887177  1194735 
 6761000    1.4397671   -3.5594864   -1.9709083    0.2469238   -3.5594864    1.5885781  1194759 
 6762000    1.4394669   -3.5591983   -1.9709927   0.24646746   -3.5591983    1.5882056  1194790 
 6763000    1.4401218   -3.5603504   -1.9714541   0.24244369   -3.5603504    1.5888963  1194814 
 6764000    1.4381917   -3.5577757   -1.9710448   0.24793567   -3.5577757    1.5867309  1194841 
 6765000    1.4399585   -3.5595476   -1.9709059     0.241567   -3.5595476    1.5886417  1194870 
 6766000    1.4391798   -3.5590291   -1.9712745   0.24958485   -3.5590291    1.5877546  1194891 
 6767000    1.4379025   -3.5581307   -1.9718251   0.24762758   -3.5581307    1.5863056  1194921 
 6768000    1.4387515   -3.5588416   -1.9716339   0.24377979   -3.5588416    1.5872077  1194947 
 6769000    1.4377801    -3.558182   -1.9720778   0.24404868    -3.558182    1.5861043  1194971 
 6770000     1.439194   -3.5602269   -1.9725961   0.24674026   -3.5602269    1.5876308  1194996 
 6771000    1.4392214   -3.5603877   -1.9727784   0.24449576   -3.5603877    1.5876092  1195035 
 6772000    1.4396318   -3.5600267   -1.9720139    0.2432312   -3.5600267    1.5880128  1195072 
 6773000    1.4395029    -3.559646   -1.9718086   0.24493843    -3.559646    1.5878374  1195097 
 6774000    1.4393108   -3.5593412   -1.9717463   0.24669912   -3.5593412    1.5875949  1195120 
 6775000    1.4394944   -3.5593482   -1.9715907   0.24571528   -3.5593482    1.5877575  1195150 
 6776000    1.4396842   -3.5592631   -1.9713334   0.24604874   -3.5592631    1.5879297  1195178 
 6777000    1.4391706   -3.5593219   -1.9720118   0.24641174   -3.5593219    1.5873101  1195218 
 6778000    1.4390266   -3.5592889   -1.9721748   0.24632195   -3.5592889    1.5871141  1195246 
 6779000    1.4392993   -3.5596334   -1.9722544   0.24327731   -3.5596334     1.587379  1195273 
 6780000    1.4406228   -3.5605095   -1.9717173    0.2485313   -3.5605095    1.5887922  1195308 
 6781000    1.4395901     -3.55951   -1.9718926   0.25193336     -3.55951    1.5876174  1195335 
 6782000    1.4400915    -3.560198   -1.9720821    0.2486528    -3.560198    1.5881158  1195376 
 6783000     1.439946   -3.5600406   -1.9721064   0.24616455   -3.5600406    1.5879342  1195392 
 6784000    1.4412273   -3.5615152   -1.9722013   0.24252574   -3.5615152    1.5893139  1195417 
 6785000    1.4403764   -3.5601831    -1.971858   0.24799331   -3.5601831     1.588325  1195455 
 6786000    1.4406057   -3.5608996   -1.9723589   0.24455383   -3.5608996    1.5885407  1195483 
 6787000    1.4399472   -3.5601626   -1.9723865   0.25078018   -3.5601626     1.587776  1195512 
 6788000    1.4409277   -3.5601683    -1.971359   0.24557863   -3.5601683    1.5888094  1195548 
 6789000    1.4403547   -3.5598982   -1.9717631   0.24795767   -3.5598982    1.5881351  1195580 
 6790000    1.4411332   -3.5611819   -1.9722349   0.24509149   -3.5611819     1.588947  1195615 
 6791000    1.4414457   -3.5612029   -1.9719632   0.24964463   -3.5612029    1.5892397  1195654 
 6792000    1.4403896   -3.5602515   -1.9722121   0.24615241   -3.5602515    1.5880394  1195681 
 6793000     1.440827   -3.5615782   -1.9730978   0.24537558   -3.5615782    1.5884805  1195712 
 6794000    1.4402969   -3.5610924   -1.9732335   0.24482429   -3.5610924    1.5878589  1195740 
 6795000    1.4400289   -3.5613316   -1.9738107   0.24307347   -3.5613316    1.5875209  1195772 
 6796000    1.4399947   -3.5609282   -1.9734741   0.24575741   -3.5609282    1.5874541  1195794 
 6797000    1.4396792   -3.5604967   -1.9734357   0.24835004   -3.5604967     1.587061  1195828 
 6798000    1.4402396   -3.5619181   -1.9742871   0.24543044   -3.5619181     1.587631  1195864 
 6799000    1.4404674   -3.5623181   -1.9744838    0.2435267   -3.5623181    1.5878344  1195900 
 6800000    1.4388676   -3.5609363   -1.9748972   0.24849575   -3.5609363     1.586039  1195924 
 6801000     1.440082   -3.5620999   -1.9747607   0.24505225   -3.5620999    1.5873392  1195953 
 6802000    1.4400868    -3.561703   -1.9743944   0.25001094    -3.561703    1.5873086  1195980 
 6803000    1.4397425   -3.5614601   -1.9745641   0.25031523   -3.5614601     1.586896  1196005 
 6804000    1.4406893   -3.5620771   -1.9741853    0.2496019   -3.5620771    1.5878918  1196041 
 6805000    1.4410352   -3.5631988    -1.974955     0.242325   -3.5631988    1.5882437  1196063 
 6806000    1.4405456   -3.5622375   -1.9745652   0.24904216   -3.5622375    1.5876723  1196087 
 6807000    1.4393435   -3.5617947    -1.975491   0.24892868   -3.5617947    1.5863036  1196120 
 6808000    1.4390588   -3.5614526   -1.9754959   0.25322893   -3.5614526    1.5859567  1196145 
 6809000     1.439849   -3.5627296   -1.9759498   0.24598752   -3.5627296    1.5867798  1196181 
 6810000    1.4417214   -3.5645395   -1.9757347   0.24047951   -3.5645395    1.5888048  1196210 
 6811000    1.4409202   -3.5640607   -1.9761786   0.24501403   -3.5640607    1.5878821  1196240 
 6812000    1.4393557   -3.5621859   -1.9760704   0.24826419   -3.5621859    1.5861156  1196272 
 6813000    1.4391141   -3.5619969   -1.9761966   0.24742053   -3.5619969    1.5858003  1196309 
 6814000    1.4393841   -3.5627043    -1.976653   0.25052254   -3.5627043    1.5860514  1196344 
 6815000    1.4393799   -3.5621947   -1.9761772   0.25027466   -3.5621947    1.5860176  1196366 
 6816000    1.4402984   -3.5638162    -1.976825   0.24762539   -3.5638162    1.5869912  1196395 
 6817000    1.4397035   -3.5630451   -1.9767439   0.24710053   -3.5630451    1.5863012  1196421 
 6818000    1.4396411   -3.5627052   -1.9765085   0.24614452   -3.5627052    1.5861967  1196448 
 6819000    1.4401523   -3.5639429     -1.97722   0.24673446   -3.5639429    1.5867228  1196476 
 6820000    1.4406297   -3.5642811   -1.9770615   0.24201957   -3.5642811    1.5872195  1196498 
 6821000    1.4410074   -3.5639551   -1.9763644   0.24638166   -3.5639551    1.5875906  1196532 
 6822000    1.4400519   -3.5627211   -1.9762269   0.24810898   -3.5627211    1.5864942  1196565 
 6823000    1.4394447   -3.5620999   -1.9763197   0.25043432   -3.5620999    1.5857802  1196599 
 6824000    1.4408429   -3.5637777   -1.9764811   0.24667875   -3.5637777    1.5872966  1196617 
 6825000    1.4406146   -3.5627104   -1.9757091   0.24831107   -3.5627104    1.5870014  1196650 
 6826000    1.4401221   -3.5628625   -1.9764396   0.24877564   -3.5628625     1.586423  1196677 
 6827000    1.4419562   -3.5646042   -1.9761807   0.24594912   -3.5646042    1.5884235  1196692 
 6828000    1.4401148   -3.5622302    -1.975867   0.25113086   -3.5622302    1.5863632  1196716 
 6829000    1.4407145   -3.5633236   -1.9763395   0.24669426   -3.5633236    1.5869841  1196746 
 6830000    1.4409681   -3.5638049    -1.976564   0.24774219   -3.5638049    1.5872408  1196763 
 6831000    1.4405618   -3.5631078   -1.9763622   0.24748659   -3.5631078    1.5867457  1196799 
 6832000    1.4411554   -3.5644705   -1.9771095   0.24474058   -3.5644705     1.587361  1196828 
 6833000    1.4407751   -3.5645046   -1.9775944   0.24476074   -3.5645046    1.5869102  1196852 
 6834000      1.44109    -3.564644     -1.97742   0.24646319    -3.564644     1.587224  1196877 
 6835000    1.4410017   -3.5647657   -1.9776735   0.24753272   -3.5647657    1.5870922  1196903 
 6836000      1.44142   -3.5650833   -1.9775542   0.24440283   -3.5650833    1.5875291  1196921 
 6837000    1.4402284   -3.5636493   -1.9774658   0.25401933   -3.5636493    1.5861835  1196946 
 6838000    1.4415064   -3.5650763   -1.9775343   0.25085383   -3.5650763     1.587542  1196983 
 6839000    1.4403708   -3.5641643   -1.9779154   0.24729711   -3.5641643    1.5862489  1197015 
 6840000    1.4405495   -3.5645196   -1.9781176   0.25056433   -3.5645196     1.586402  1197048 
 6841000    1.4408285   -3.5644896    -1.977844   0.25282887   -3.5644896    1.5866456  1197096 
 6842000    1.4400744   -3.5632891   -1.9775149   0.24998393   -3.5632891    1.5857741  1197127 
 6843000    1.4410858   -3.5646634     -1.97781   0.25062587   -3.5646634    1.5868534  1197153 
 6844000    1.4409966   -3.5647446   -1.9780172   0.25203313   -3.5647446    1.5867274  1197174 
 6845000    1.4417341   -3.5663132   -1.9788096   0.24385651   -3.5663132    1.5875036  1197201 
 6846000    1.4395625   -3.5650449   -1.9799762   0.24887666   -3.5650449    1.5850687  1197234 
 6847000    1.4404713   -3.5660648   -1.9800391   0.24491968   -3.5660648    1.5860257  1197267 
 6848000    1.4396251   -3.5655557   -1.9804934    0.2462051   -3.5655557    1.5850623  1197291 
 6849000    1.4394907   -3.5654384    -1.980552   0.24777617   -3.5654384    1.5848865  1197312 
 6850000    1.4398854   -3.5655916   -1.9802917   0.24877372   -3.5655916    1.5852999  1197328 
 6851000    1.4404255   -3.5656961   -1.9798321   0.24613847   -3.5656961     1.585864  1197351 
 6852000    1.4399595     -3.56555   -1.9802388   0.24465046     -3.56555    1.5853112  1197381 
 6853000    1.4414065   -3.5675096    -1.980649     0.242775   -3.5675096    1.5868606  1197414 
 6854000    1.4408623   -3.5672046   -1.9809722   0.24343291   -3.5672046    1.5862323  1197436 
 6855000    1.4397662   -3.5665088   -1.9815122   0.24650602   -3.5665088    1.5849965  1197458 
 6856000    1.4406176   -3.5668077   -1.9809031   0.24169138   -3.5668077    1.5859046  1197480 
 6857000    1.4403043   -3.5667122   -1.9811894   0.24823204   -3.5667122    1.5855227  1197508 
 6858000      1.44064   -3.5667064   -1.9808566   0.24783357   -3.5667064    1.5858498  1197540 
 6859000    1.4412485   -3.5677524   -1.9812764   0.24531225   -3.5677524     1.586476  1197573 
 6860000    1.4411484   -3.5668197   -1.9804751   0.24719201   -3.5668197    1.5863446  1197589 
 6861000    1.4403639   -3.5657874    -1.980334   0.25030229   -3.5657874    1.5854533  1197610 
 6862000    1.4413127   -3.5669147   -1.9804595   0.24481496   -3.5669147    1.5864553  1197642 
 6863000    1.4399187   -3.5658595   -1.9809758   0.24971354   -3.5658595    1.5848838  1197670 
 6864000    1.4407263   -3.5668917    -1.981156   0.24441215   -3.5668917    1.5857357  1197698 
 6865000    1.4405826   -3.5667676   -1.9812271   0.24775918   -3.5667676    1.5855404  1197726 
 6866000    1.4413168   -3.5677338   -1.9814238   0.24446167   -3.5677338      1.58631  1197755 
 6867000    1.4398876   -3.5662051    -1.981513    0.2500544   -3.5662051    1.5846921  1197789 
 6868000    1.4404598    -3.567112   -1.9818219   0.24735193    -3.567112    1.5852901  1197813 
 6869000    1.4417727   -3.5683397   -1.9816299   0.25182829   -3.5683397    1.5867098  1197832 
 6870000    1.4408256   -3.5668255   -1.9811977   0.25198922   -3.5668255    1.5856278  1197862 
 6871000    1.4409838   -3.5673021   -1.9815373   0.24776978   -3.5673021    1.5857648  1197890 
 6872000    1.4409648   -3.5674435   -1.9817367   0.24837771   -3.5674435    1.5857068  1197918 
 6873000    1.4416351   -3.5685175    -1.982114   0.24473802   -3.5685175    1.5864035  1197949 
 6874000    1.4400286   -3.5666468   -1.9820456   0.24794746   -3.5666468    1.5846012  1197975 
 6875000    1.4413314   -3.5680564   -1.9820665   0.24586567   -3.5680564    1.5859898  1198009 
 6876000    1.4404872   -3.5669904   -1.9819626   0.24814741   -3.5669904    1.5850278  1198034 
 6877000    1.4416761   -3.5687845   -1.9824803   0.24637614   -3.5687845    1.5863042  1198058 
 6878000    1.4407905   -3.5676295   -1.9823302   0.24455908   -3.5676295    1.5852993  1198081 
 6879000     1.440988   -3.5678067   -1.9823257    0.2492499   -3.5678067    1.5854809  1198108 
 6880000    1.4423425   -3.5684173   -1.9814752   0.24569108   -3.5684173    1.5869421  1198130 
 6881000    1.4418776   -3.5686198   -1.9822276   0.24527251   -3.5686198    1.5863922  1198159 
 6882000    1.4407191   -3.5675183   -1.9824364   0.24925951   -3.5675183    1.5850819  1198186 
 6883000    1.4431679    -3.569641   -1.9819021   0.24222277    -3.569641    1.5877389  1198214 
 6884000    1.4423461   -3.5682766   -1.9814828   0.24700163   -3.5682766    1.5867938  1198245 
 6885000    1.4416329   -3.5684256   -1.9824376   0.24611667   -3.5684256     1.585988  1198261 
 6886000    1.4417234   -3.5683098   -1.9822566    0.2493304   -3.5683098    1.5860532  1198287 
 6887000    1.4408076   -3.5679773   -1.9829686   0.24555086   -3.5679773    1.5850086  1198315 
 6888000    1.4406362   -3.5679142   -1.9831272   0.24813289   -3.5679142     1.584787  1198340 
 6889000    1.4416187    -3.568768   -1.9829386   0.24625421    -3.568768    1.5858294  1198369 
 6890000    1.4423162   -3.5693498   -1.9827968   0.24910945   -3.5693498     1.586553  1198402 
 6891000    1.4420544   -3.5693093   -1.9830721   0.24790336   -3.5693093    1.5862372  1198423 
 6892000    1.4420593   -3.5693787   -1.9831718   0.24692048   -3.5693787    1.5862069  1198450 
 6893000    1.4417259   -3.5689665    -1.983162    0.2468174   -3.5689665    1.5858044  1198477 
 6894000    1.4430679   -3.5703748   -1.9831393   0.24716234   -3.5703748    1.5872355  1198511 
 6895000    1.4414986   -3.5684007   -1.9829323   0.25459056   -3.5684007    1.5854684  1198542 
 6896000     1.441517   -3.5692638   -1.9838149     0.245801   -3.5692638    1.5854489  1198572 
 6897000    1.4422344   -3.5703572   -1.9841563   0.24562033   -3.5703572    1.5862009  1198600 
 6898000    1.4408644    -3.569571   -1.9848993   0.24868475    -3.569571    1.5846717  1198617 
 6899000    1.4415243   -3.5700235   -1.9846564   0.24812392   -3.5700235    1.5853671  1198640 
 6900000    1.4408779   -3.5696459   -1.9850267   0.24912811   -3.5696459    1.5846192  1198668 
 6901000    1.4425517   -3.5714373   -1.9850104   0.24180441   -3.5714373    1.5864268  1198693 
 6902000    1.4416025   -3.5703698   -1.9850212   0.24420268   -3.5703698    1.5853486  1198719 
 6903000    1.4407527   -3.5693717   -1.9850066   0.24709374   -3.5693717    1.5843651  1198756 
 6904000    1.4415902   -3.5701277   -1.9848694   0.24854682   -3.5701277    1.5852583  1198777 
 6905000    1.4415448   -3.5702501   -1.9850827   0.24759211   -3.5702501    1.5851674  1198808 
 6906000    1.4419479   -3.5708959   -1.9853288   0.24254208   -3.5708959     1.585567  1198841 
 6907000    1.4405668   -3.5687217    -1.984713   0.25433758   -3.5687217    1.5840088  1198871 
 6908000    1.4412479   -3.5704147   -1.9856782   0.24453849   -3.5704147    1.5847365  1198887 
 6909000    1.4414177   -3.5703825   -1.9854897   0.24712939   -3.5703825    1.5848929  1198910 
 6910000    1.4416166   -3.5706593   -1.9855703   0.25051173   -3.5706593    1.5850891  1198927 
 6911000    1.4417672   -3.5705628   -1.9853386    0.2478301   -3.5705628    1.5852242  1198950 
 6912000    1.4403722   -3.5686451   -1.9849982   0.25415297   -3.5686451    1.5836468  1198983 
 6913000    1.4430356   -3.5715204   -1.9849836   0.25007125   -3.5715204    1.5865368  1199012 
 6914000    1.4426225   -3.5712128    -1.985162   0.24744067   -3.5712128    1.5860508  1199036 
 6915000    1.4431625   -3.5713203   -1.9847076   0.24598615   -3.5713203    1.5866128  1199060 
 6916000    1.4416705   -3.5700541   -1.9851332   0.24570106   -3.5700541    1.5849209  1199099 
 6917000    1.4412915   -3.5701122   -1.9856437    0.2489761   -3.5701122    1.5844686  1199126 
 6918000     1.442106   -3.5708101   -1.9854924   0.24762475   -3.5708101    1.5853177  1199161 
 6919000    1.4421167    -3.570291   -1.9849959   0.24967815    -3.570291    1.5852951  1199187 
 6920000    1.4431279   -3.5721402    -1.985768   0.24589626   -3.5721402    1.5863723  1199213 
 6921000     1.442062    -3.571129   -1.9859615   0.25325886    -3.571129    1.5851676  1199238 
 6922000    1.4428724   -3.5723328   -1.9863141   0.24607166   -3.5723328    1.5860187  1199268 
 6923000    1.4429594   -3.5714059   -1.9853285   0.24638173   -3.5714059    1.5860774  1199296 
 6924000    1.4427638   -3.5710398   -1.9852092   0.24759185   -3.5710398    1.5858305  1199320 
 6925000    1.4431091   -3.5713114    -1.985141   0.25044852   -3.5713114    1.5861705  1199350 
 6926000    1.4427297   -3.5707196   -1.9849952   0.25069096   -3.5707196    1.5857244  1199372 
 6927000    1.4432757   -3.5715316   -1.9852337   0.25059729   -3.5715316     1.586298  1199392 
 6928000     1.442266   -3.5716008   -1.9864363   0.24899859   -3.5716008    1.5851645  1199410 
 6929000    1.4431695   -3.5718785   -1.9857699   0.24674582   -3.5718785    1.5861086  1199447 
 6930000     1.442569    -3.571768   -1.9863578   0.24648542    -3.571768    1.5854103  1199476 
 6931000    1.4421073   -3.5717252   -1.9868712   0.24454969   -3.5717252     1.584854  1199513 
 6932000    1.4418833   -3.5715478   -1.9869743   0.25027954   -3.5715478    1.5845734  1199539 
 6933000    1.4404864   -3.5704275   -1.9874235   0.25238238   -3.5704275    1.5830039  1199565 
 6934000    1.4424365   -3.5722987   -1.9871913   0.24312466   -3.5722987    1.5851073  1199595 
 6935000    1.4424677   -3.5724357   -1.9873191   0.25013575   -3.5724357    1.5851165  1199614 
 6936000    1.4427029   -3.5721591   -1.9868145    0.2506623   -3.5721591    1.5853446  1199637 
 6937000    1.4426839   -3.5725704   -1.9872823   0.24531013   -3.5725704    1.5852881  1199664 
 6938000    1.4425161   -3.5724337   -1.9873643   0.25190681   -3.5724337    1.5850693  1199690 
 6939000    1.4423344   -3.5723997    -1.987571   0.25048423   -3.5723997    1.5848287  1199721 
 6940000      1.44268   -3.5728736    -1.987706   0.24466531   -3.5728736    1.5851675  1199752 
 6941000    1.4429238   -3.5732294   -1.9878337   0.24660292   -3.5732294    1.5853957  1199782 
 6942000    1.4421836   -3.5724239   -1.9878863   0.25213558   -3.5724239    1.5845375  1199816 
 6943000    1.4419736   -3.5725044    -1.988232   0.25130124   -3.5725044    1.5842724  1199842 
 6944000    1.4428656    -3.573798   -1.9885772    0.2454774    -3.573798    1.5852208  1199866 
 6945000    1.4418055   -3.5728273   -1.9888082    0.2471269   -3.5728273    1.5840191  1199894 
 6946000    1.4437674   -3.5746061    -1.988462   0.24910973   -3.5746061    1.5861442  1199917 
 6947000    1.4416026   -3.5732677   -1.9895375   0.24668311   -3.5732677    1.5837302  1199944 
 6948000     1.441998   -3.5731341   -1.9889999   0.24724701   -3.5731341    1.5841343  1199967 
 6949000    1.4404309   -3.5724147   -1.9900482   0.24840174   -3.5724147    1.5823665  1200002 
 6950000    1.4411204   -3.5734271   -1.9903401    0.2503794   -3.5734271     1.583087  1200030 
 6951000    1.4424928   -3.5740675   -1.9895098   0.24282173   -3.5740675    1.5845576  1200058 
 6952000    1.4425151   -3.5743398   -1.9897946   0.24713173   -3.5743398    1.5845452  1200086 
 6953000    1.4423744   -3.5744185   -1.9900569   0.25153008   -3.5744185    1.5843616  1200108 
 6954000    1.4420436   -3.5736859    -1.989718   0.24964031   -3.5736859    1.5839679  1200131 
 6955000     1.443137   -3.5750403   -1.9898978   0.24644028   -3.5750403    1.5851425  1200151 
 6956000    1.4419128   -3.5737623    -1.989987    0.2470846   -3.5737623    1.5837753  1200168 
 6957000    1.4410087   -3.5731377   -1.9903924   0.25106987   -3.5731377    1.5827453  1200196 
 6958000    1.4432654   -3.5751486   -1.9899707   0.24409423   -3.5751486    1.5851778  1200231 
 6959000    1.4430005   -3.5745653   -1.9897127   0.24760195   -3.5745653    1.5848526  1200257 
 6960000    1.4428678   -3.5748259   -1.9901574   0.24619385   -3.5748259    1.5846685  1200286 
 6961000      1.44199   -3.5739211    -1.990247   0.24940151   -3.5739211    1.5836741  1200309 
 6962000    1.4419969   -3.5742264   -1.9905763   0.25015443   -3.5742264    1.5836501  1200333 
 6963000      1.44222   -3.5743144   -1.9904616   0.25078194   -3.5743144    1.5838528  1200365 
 6964000    1.4423453   -3.5745483   -1.9905935   0.24816234   -3.5745483    1.5839548  1200392 
 6965000    1.4419011   -3.5738409   -1.9903989   0.25227901   -3.5738409    1.5834419  1200411 
 6966000    1.4433701    -3.574676     -1.98965   0.24781102    -3.574676     1.585026  1200433 
 6967000    1.4433422   -3.5750902   -1.9901133   0.25124106   -3.5750902     1.584977  1200447 
 6968000    1.4426538   -3.5743066    -1.990112   0.25250347   -3.5743066    1.5841946  1200467 
 6969000    1.4431851   -3.5752644   -1.9905273   0.25170097   -3.5752644    1.5847371  1200498 
 6970000    1.4426827   -3.5749619   -1.9908121   0.25178432   -3.5749619    1.5841498  1200525 
 6971000    1.4429695    -3.575019   -1.9905953   0.25332415    -3.575019    1.5844238  1200556 
 6972000    1.4437046   -3.5756174   -1.9904168   0.24887908   -3.5756174    1.5852006  1200579 
 6973000    1.4417115    -3.573655   -1.9906811   0.25748852    -3.573655    1.5829739  1200608 
 6974000    1.4436298   -3.5755986    -1.990558    0.2477778   -3.5755986    1.5850406  1200638 
 6975000    1.4423459   -3.5738655   -1.9902782   0.25218678   -3.5738655    1.5835874  1200671 
 6976000    1.4445493   -3.5760997   -1.9901261    0.2484098   -3.5760997    1.5859736  1200696 
 6977000    1.4433838   -3.5752272    -1.990565    0.2490746   -3.5752272    1.5846622  1200720 
 6978000    1.4433488   -3.5753407   -1.9907539   0.24765201   -3.5753407    1.5845868  1200748 
 6979000     1.444211     -3.57625   -1.9907602   0.24373501     -3.57625    1.5854898  1200781 
 6980000    1.4431736   -3.5749997   -1.9906897   0.24911806   -3.5749997      1.58431  1200812 
 6981000    1.4430213   -3.5748443   -1.9907331   0.24869738   -3.5748443    1.5841112  1200836 
 6982000    1.4448166   -3.5757168   -1.9896612   0.24723491   -3.5757168    1.5860556  1200856 
 6983000    1.4444559   -3.5762785    -1.990665   0.24336994   -3.5762785    1.5856135  1200891 
 6984000    1.4435781   -3.5754998   -1.9908816   0.24681066   -3.5754998    1.5846182  1200915 
 6985000    1.4440918    -3.576601    -1.991444   0.24872538    -3.576601     1.585157  1200934 
 6986000    1.4432631   -3.5758253   -1.9916016   0.25383164   -3.5758253    1.5842237  1200952 
 6987000    1.4427068   -3.5760736   -1.9924975   0.24849337   -3.5760736     1.583576  1200980 
 6988000    1.4433611   -3.5763585   -1.9920959   0.24972028   -3.5763585    1.5842626  1201004 
 6989000    1.4432793    -3.575701   -1.9915638   0.25113524    -3.575701    1.5841372  1201031 
 6990000    1.4418616   -3.5753324    -1.992775   0.25036794   -3.5753324    1.5825574  1201049 
 6991000    1.4422867   -3.5769727   -1.9939882   0.24537993   -3.5769727    1.5829845  1201079 
 6992000    1.4426083   -3.5770037    -1.993694   0.25088551   -3.5770037    1.5833097  1201100 
 6993000    1.4435588   -3.5774219   -1.9931164   0.24837698   -3.5774219    1.5843055  1201136 
 6994000     1.443639   -3.5770503   -1.9926951   0.24965675   -3.5770503    1.5843552  1201165 
 6995000    1.4422268   -3.5762223   -1.9934499   0.25040672   -3.5762223    1.5827724  1201190 
 6996000    1.4425338   -3.5773038   -1.9942432   0.24925707   -3.5773038    1.5830606  1201227 
 6997000    1.4436716   -3.5782172   -1.9939515   0.24841155   -3.5782172    1.5842657  1201260 
 6998000    1.4435187   -3.5784106    -1.994347   0.24719254   -3.5784106    1.5840636  1201286 
 6999000     1.442694    -3.577001   -1.9938858   0.25189234    -3.577001    1.5831152  1201319 
 7000000    1.4425066   -3.5773871   -1.9945171   0.24859468   -3.5773871      1.58287  1201349 
 7001000    1.4429367   -3.5779757   -1.9946774   0.24547078   -3.5779757    1.5832984  1201382 
 7002000    1.4431452   -3.5782361   -1.9947538   0.24941762   -3.5782361    1.5834824  1201416 
 7003000     1.442975   -3.5777973   -1.9945438   0.24919915   -3.5777973    1.5832535  1201448 
 7004000    1.4440641   -3.5788386   -1.9944324   0.25132032   -3.5788386    1.5844062  1201480 
 7005000    1.4432375   -3.5780791   -1.9946193    0.2446475   -3.5780791    1.5834598  1201510 
 7006000      1.44248   -3.5769194   -1.9943249   0.25194626   -3.5769194    1.5825945  1201536 
 7007000    1.4444464   -3.5786722   -1.9939506   0.24854864   -3.5786722    1.5847216  1201559 
 7008000    1.4438969   -3.5780385   -1.9939528   0.25091617   -3.5780385    1.5840857  1201584 
 7009000    1.4446715   -3.5785311   -1.9936352   0.24734925   -3.5785311     1.584896  1201614 
 7010000    1.4432797   -3.5770241   -1.9936893   0.25468862   -3.5770241    1.5833348  1201640 
 7011000    1.4446733   -3.5783556   -1.9935249   0.24930768   -3.5783556    1.5848307  1201665 
 7012000    1.4435153   -3.5776242   -1.9940982    0.2511444   -3.5776242     1.583526  1201691 
 7013000    1.4438835    -3.577674   -1.9937849   0.25177087    -3.577674    1.5838891  1201722 
 7014000    1.4456024   -3.5790716     -1.99333   0.24737006   -3.5790716    1.5857417  1201747 
 7015000    1.4457775   -3.5795202   -1.9936155   0.24388414   -3.5795202    1.5859047  1201769 
 7016000     1.444984   -3.5779994   -1.9929902   0.25046551   -3.5779994    1.5850092  1201788 
 7017000    1.4442029   -3.5779337    -1.993809   0.24748225   -3.5779337    1.5841247  1201809 
 7018000     1.444479   -3.5783426   -1.9939426   0.24657565   -3.5783426       1.5844  1201830 
 7019000    1.4441359    -3.577228   -1.9932359   0.25097397    -3.577228     1.583992  1201854 
 7020000    1.4450279    -3.578604   -1.9936613   0.24956691    -3.578604    1.5849427  1201875 
 7021000    1.4437196   -3.5775508    -1.994084   0.24993389   -3.5775508    1.5834668  1201906 
 7022000     1.444622   -3.5782175   -1.9937873   0.25230201   -3.5782175    1.5844302  1201926 
 7023000    1.4451673   -3.5788193   -1.9938292   0.24609615   -3.5788193      1.58499  1201955 
 7024000    1.4452788    -3.579119   -1.9940476   0.24676313    -3.579119    1.5850715  1201986 
 7025000    1.4449284    -3.578706   -1.9940557   0.24989195    -3.578706    1.5846503  1202014 
 7026000    1.4445531   -3.5783705   -1.9941766   0.25185935   -3.5783705    1.5841939  1202048 
 7027000    1.4444678   -3.5784547   -1.9943926   0.25567289   -3.5784547    1.5840621  1202077 
 7028000     1.444349   -3.5789654   -1.9950626   0.25143451   -3.5789654    1.5839028  1202099 
 7029000     1.445357   -3.5794286   -1.9944599   0.25309958   -3.5794286    1.5849687  1202129 
 7030000    1.4458975   -3.5800867   -1.9945622   0.25260419   -3.5800867    1.5855245  1202157 
 7031000     1.444769   -3.5791874   -1.9949215   0.25718335   -3.5791874    1.5842659  1202173 
 7032000    1.4455615   -3.5800788   -1.9949822   0.24895138   -3.5800788    1.5850966  1202202 
 7033000    1.4440916   -3.5792392   -1.9957966   0.25112223   -3.5792392    1.5834427  1202234 
 7034000    1.4443076   -3.5805906   -1.9969373   0.24561202   -3.5805906    1.5836533  1202254 
 7035000    1.4441562   -3.5801527    -1.996705   0.25051513   -3.5801527    1.5834477  1202284 
 7036000     1.443622   -3.5800906    -1.997276   0.25028148   -3.5800906    1.5828146  1202320 
 7037000    1.4439227   -3.5802271   -1.9971118   0.25364726   -3.5802271    1.5831154  1202342 
 7038000    1.4446489    -3.581246   -1.9973634     0.249025    -3.581246    1.5838825  1202364 
 7039000    1.4444322   -3.5812032   -1.9975937   0.24807965   -3.5812032    1.5836094  1202391 
 7040000    1.4431724   -3.5792762    -1.997073   0.25099298   -3.5792762    1.5822032  1202410 
 7041000    1.4451006   -3.5807437   -1.9964568   0.24949427   -3.5807437    1.5842869  1202433 
 7042000    1.4454858   -3.5814246   -1.9967497   0.24601855   -3.5814246    1.5846749  1202459 
 7043000    1.4455993   -3.5808363   -1.9960673   0.25043785   -3.5808363     1.584769  1202482 
 7044000    1.4446816   -3.5797958   -1.9960737   0.25034036   -3.5797958    1.5837221  1202513 
 7045000    1.4438401    -3.579279   -1.9965162   0.25255298    -3.579279    1.5827628  1202541 
 7046000    1.4463903   -3.5811295    -1.995612   0.24962379   -3.5811295    1.5855175  1202572 
 7047000    1.4453478   -3.5807611   -1.9964154   0.25576697   -3.5807611    1.5843458  1202594 
 7048000    1.4444419   -3.5801341   -1.9968182   0.25017614   -3.5801341    1.5833159  1202622 
 7049000    1.4435469   -3.5791149   -1.9968104     0.255452   -3.5791149    1.5823046  1202645 
 7050000    1.4451075   -3.5807701   -1.9967905   0.25041023   -3.5807701    1.5839795  1202672 
 7051000    1.4442158   -3.5790356   -1.9960689   0.25335027   -3.5790356    1.5829667  1202699 
 7052000    1.4456088   -3.5803385   -1.9958898   0.25294994   -3.5803385    1.5844487  1202733 
 7053000    1.4446298   -3.5800785   -1.9967331   0.25426491   -3.5800785    1.5833454  1202756 
 7054000    1.4458925    -3.580917   -1.9962128   0.25185732    -3.580917    1.5847043  1202775 
 7055000    1.4455817   -3.5804838   -1.9961596   0.25066836   -3.5804838    1.5843242  1202805 
 7056000    1.4456459   -3.5807081    -1.996332   0.25049606   -3.5807081    1.5843761  1202819 
 7057000    1.4454463   -3.5806656   -1.9965491   0.25065907   -3.5806656    1.5841165  1202850 
 7058000    1.4457696   -3.5810112   -1.9965668    0.2515681   -3.5810112    1.5844445  1202870 
 7059000    1.4453879   -3.5801755   -1.9961743   0.25275981   -3.5801755    1.5840011  1202889 
 7060000    1.4454003   -3.5799973   -1.9960273   0.25454239   -3.5799973    1.5839699  1202923 
 7061000    1.4448255   -3.5800538   -1.9967414   0.25310142   -3.5800538    1.5833124  1202944 
 7062000    1.4451377   -3.5805443   -1.9969201   0.25074533   -3.5805443    1.5836242  1202967 
 7063000    1.4456057    -3.581489   -1.9973809   0.25182942    -3.581489    1.5841081  1202989 
 7064000    1.4457714   -3.5817319   -1.9974792   0.24929425   -3.5817319    1.5842528  1203017 
 7065000    1.4454164    -3.582153   -1.9983221   0.24860897    -3.582153    1.5838309  1203042 
 7066000    1.4450115   -3.5823337   -1.9989807   0.25300588   -3.5823337     1.583353  1203068 
 7067000    1.4454411   -3.5828548   -1.9990744   0.24925995   -3.5828548    1.5837803  1203101 
 7068000    1.4443397     -3.58143   -1.9988933   0.25012559     -3.58143    1.5825367  1203129 
 7069000    1.4461762   -3.5837173      -1.9992   0.24845069   -3.5837173    1.5845173  1203153 
 7070000    1.4458464   -3.5829866    -1.998861   0.25136896   -3.5829866    1.5841256  1203176 
 7071000    1.4459168   -3.5829646   -1.9987881   0.24906026   -3.5829646    1.5841765  1203196 
 7072000     1.446325   -3.5832663   -1.9986742   0.24847761   -3.5832663    1.5845921  1203220 
 7073000     1.446119   -3.5831317   -1.9988061    0.2511027   -3.5831317    1.5843256  1203251 
 7074000    1.4457807    -3.583126   -1.9992013   0.24858976    -3.583126    1.5839246  1203274 
 7075000    1.4454814   -3.5829262   -1.9993571   0.24845771   -3.5829262    1.5835691  1203295 
 7076000     1.446129   -3.5836247   -1.9993922   0.25096082   -3.5836247    1.5842325  1203330 
 7077000    1.4444832   -3.5823071   -1.9999026   0.25296102   -3.5823071    1.5824046  1203349 
 7078000    1.4449609   -3.5833401   -2.0004398    0.2501255   -3.5833401    1.5829003  1203370 
 7079000    1.4446451   -3.5830921   -2.0005733   0.24977077   -3.5830921    1.5825187  1203397 
 7080000    1.4453527   -3.5835428   -2.0002765   0.25148108   -3.5835428    1.5832662  1203418 
 7081000    1.4455538   -3.5840411   -2.0005821   0.24564822   -3.5840411     1.583459  1203439 
 7082000    1.4441333   -3.5831501   -2.0012682   0.25273356   -3.5831501    1.5818819  1203455 
 7083000    1.4451564   -3.5838947   -2.0009237   0.25087467   -3.5838947     1.582971  1203479 
 7084000    1.4457293    -3.584719   -2.0011613   0.24953426    -3.584719    1.5835577  1203510 
 7085000     1.444777   -3.5831018   -2.0006174    0.2536802   -3.5831018    1.5824844  1203533 
 7086000    1.4446398   -3.5836118   -2.0013118   0.25218624   -3.5836118       1.5823  1203559 
 7087000    1.4452452    -3.583106   -2.0001746   0.25479211    -3.583106    1.5829315  1203583 
 7088000    1.4454414   -3.5842982   -2.0011873   0.25080421   -3.5842982    1.5831109  1203610 
 7089000    1.4453723   -3.5844227   -2.0014243   0.25092483   -3.5844227    1.5829984  1203638 
 7090000    1.4450784   -3.5840251   -2.0013775    0.2489851   -3.5840251    1.5826476  1203660 
 7091000    1.4454503   -3.5840935   -2.0010715   0.24801178   -3.5840935    1.5830219  1203685 
 7092000    1.4459626   -3.5838371   -2.0003041   0.25068883   -3.5838371     1.583533  1203723 
 7093000    1.4450226   -3.5824993   -2.0000417    0.2515242   -3.5824993    1.5824576  1203758 
 7094000    1.4465252   -3.5833228   -1.9992644   0.24916572   -3.5833228    1.5840583  1203792 
 7095000    1.4469983   -3.5845288   -1.9999814   0.25155567   -3.5845288    1.5845475  1203814 
 7096000    1.4468591     -3.58416   -1.9997992   0.25003906     -3.58416    1.5843608  1203840 
 7097000    1.4460179   -3.5833417   -1.9999166   0.25193423   -3.5833417    1.5834252  1203851 
 7098000    1.4456564   -3.5830279   -2.0000209   0.25760388   -3.5830279     1.583007  1203868 
 7099000    1.4467832   -3.5850629   -2.0008575   0.25127707   -3.5850629    1.5842054  1203895 
 7100000    1.4460428   -3.5839587   -2.0005864   0.25197466   -3.5839587    1.5833723  1203912 
 7101000    1.4463626   -3.5837685   -2.0000908   0.25464689   -3.5837685    1.5836777  1203946 
 7102000    1.4465289   -3.5842063   -2.0003886   0.25223072   -3.5842063    1.5838177  1203978 
 7103000    1.4460628    -3.583931   -2.0006552   0.25261392    -3.583931    1.5832758  1204002 
 7104000    1.4455762   -3.5842782   -2.0015614   0.24560986   -3.5842782    1.5827168  1204022 
 7105000    1.4465577   -3.5847795   -2.0010276   0.25029846   -3.5847795    1.5837518  1204052 
 7106000    1.4464139   -3.5844892    -2.000921   0.25036961   -3.5844892    1.5835682  1204072 
 7107000    1.4452942    -3.583724   -2.0014133   0.25194625    -3.583724    1.5823107  1204096 
 7108000    1.4461395   -3.5848571   -2.0016564   0.24754815   -3.5848571    1.5832006  1204123 
 7109000    1.4455867   -3.5855258   -2.0029605   0.25349648   -3.5855258    1.5825652  1204146 
 7110000    1.4467055   -3.5862793   -2.0025234   0.24852602   -3.5862793    1.5837559  1204172 
 7111000    1.4467941   -3.5860441   -2.0022163   0.24822395   -3.5860441    1.5838279  1204191 
 7112000    1.4459201   -3.5849124   -2.0020755   0.25427464   -3.5849124    1.5828369  1204217 
 7113000    1.4472974   -3.5862609   -2.0019584   0.25472658   -3.5862609    1.5843025  1204249 
 7114000    1.4465995   -3.5862221   -2.0027085   0.25083882   -3.5862221    1.5835136  1204268 
 7115000    1.4473923   -3.5869119   -2.0025634   0.25229161   -3.5869119    1.5843485  1204293 
 7116000    1.4465941   -3.5860189   -2.0025849   0.25043008   -3.5860189     1.583434  1204324 
 7117000    1.4464493   -3.5857382   -2.0025073     0.257788   -3.5857382    1.5832309  1204358 
 7118000    1.4462449   -3.5853367   -2.0023625   0.25678141   -3.5853367    1.5829742  1204383 
 7119000    1.4464196   -3.5859469   -2.0028261   0.25497936   -3.5859469    1.5831208  1204417 
 7120000     1.447352   -3.5867187   -2.0026037   0.25499198   -3.5867187     1.584115  1204437 
 7121000    1.4468659   -3.5867654   -2.0032192   0.24859768   -3.5867654    1.5835462  1204465 
 7122000    1.4457017   -3.5859346    -2.003702   0.25201322   -3.5859346    1.5822326  1204495 
 7123000    1.4471439   -3.5870853   -2.0033177    0.2529105   -3.5870853    1.5837676  1204528 
 7124000    1.4464336   -3.5865833   -2.0036207   0.25394096   -3.5865833    1.5829626  1204549 
 7125000    1.4455188   -3.5862695   -2.0043527   0.25229686   -3.5862695    1.5819168  1204583 
 7126000    1.4463824   -3.5870374   -2.0042083   0.24979871   -3.5870374    1.5828291  1204608 
 7127000    1.4454878   -3.5868775   -2.0050735   0.24748096   -3.5868775    1.5818041  1204643 
 7128000    1.4452248   -3.5864484    -2.004965    0.2541585   -3.5864484    1.5814834  1204668 
 7129000    1.4460087   -3.5869587   -2.0046529   0.25225887   -3.5869587    1.5823058  1204695 
 7130000    1.4462906   -3.5870884    -2.004507   0.24726563   -3.5870884    1.5825814  1204720 
 7131000    1.4457971   -3.5862966   -2.0042787   0.25053277   -3.5862966    1.5820178  1204738 
 7132000     1.446744    -3.587561   -2.0045307   0.24924318    -3.587561    1.5830302  1204756 
 7133000    1.4467743   -3.5871651   -2.0041293   0.24967972   -3.5871651    1.5830358  1204777 
 7134000    1.4457368    -3.585506   -2.0036395   0.25496735    -3.585506    1.5818665  1204803 
 7135000    1.4464444   -3.5865189   -2.0039307   0.25169213   -3.5865189    1.5825882  1204843 
 7136000    1.4466711   -3.5867438   -2.0039339   0.25790874   -3.5867438    1.5828099  1204863 
 7137000    1.4477426   -3.5870174   -2.0030732   0.25603226   -3.5870174    1.5839442  1204892 
 7138000    1.4472353   -3.5871747   -2.0038211    0.2531684   -3.5871747    1.5833536  1204919 
 7139000    1.4456282   -3.5858859   -2.0043207   0.25762966   -3.5858859    1.5815652  1204942 
 7140000    1.4474387   -3.5877429   -2.0042377   0.25136813   -3.5877429    1.5835052  1204973 
 7141000    1.4472955   -3.5881205   -2.0048153   0.24957445   -3.5881205    1.5833052  1205006 
 7142000    1.4474552    -3.588235   -2.0047892   0.25013054    -3.588235    1.5834458  1205032 
 7143000    1.4471769    -3.588466   -2.0053589   0.25184108    -3.588466    1.5831071  1205058 
 7144000    1.4465644   -3.5880215   -2.0056159    0.2513046   -3.5880215    1.5824056  1205082 
 7145000    1.4458455   -3.5877787   -2.0061871   0.25283345   -3.5877787    1.5815916  1205103 
 7146000    1.4477916    -3.589245   -2.0055549   0.25306701    -3.589245    1.5836901  1205126 
 7147000    1.4460986   -3.5873898   -2.0055831   0.25402394   -3.5873898    1.5818067  1205150 
 7148000    1.4463669   -3.5880069   -2.0059356   0.25289093   -3.5880069    1.5820713  1205172 
 7149000    1.4459626   -3.5874605   -2.0058654    0.2499586   -3.5874605    1.5815951  1205198 
 7150000    1.4454512   -3.5878645   -2.0068656   0.25373803   -3.5878645    1.5809989  1205226 
 7151000    1.4463444   -3.5882733   -2.0063276   0.25189704   -3.5882733    1.5819457  1205249 
 7152000    1.4483244    -3.590518    -2.006446   0.24710196    -3.590518    1.5840719  1205279 
 7153000    1.4459833   -3.5878011     -2.00632   0.25428843   -3.5878011    1.5814812  1205302 
 7154000    1.4483663   -3.5904494   -2.0063962   0.25040891   -3.5904494    1.5840533  1205328 
 7155000    1.4464626   -3.5885021   -2.0065624    0.2554058   -3.5885021    1.5819397  1205352 
 7156000    1.4470719   -3.5884489   -2.0058809   0.25306381   -3.5884489     1.582568  1205381 
 7157000    1.4474719   -3.5887664   -2.0057859   0.25171878   -3.5887664    1.5829805  1205400 
 7158000     1.446685   -3.5885939   -2.0065028   0.25289772   -3.5885939    1.5820911  1205422 
 7159000    1.4471156   -3.5889964   -2.0064659   0.25352208   -3.5889964    1.5825305  1205446 
 7160000    1.4480095   -3.5900663   -2.0065963   0.24900386   -3.5900663      1.58347  1205475 
 7161000    1.4474507   -3.5897403   -2.0069076   0.25021015   -3.5897403    1.5828327  1205495 
 7162000    1.4463226   -3.5893146   -2.0077432   0.25057998   -3.5893146    1.5815714  1205516 
 7163000    1.4460171   -3.5885746   -2.0073765   0.25392388   -3.5885746    1.5811981  1205546 
 7164000    1.4470174   -3.5897057   -2.0074387   0.25439916   -3.5897057    1.5822669  1205565 
 7165000    1.4467668    -3.588684   -2.0067356   0.25641855    -3.588684    1.5819483  1205599 
 7166000    1.4467503   -3.5889307   -2.0070411   0.25111116   -3.5889307    1.5818895  1205630 
 7167000    1.4462267   -3.5882082   -2.0069213   0.24868319   -3.5882082    1.5812869  1205653 
 7168000    1.4469036   -3.5891357   -2.0071599   0.25428127   -3.5891357    1.5819758  1205692 
 7169000    1.4468505   -3.5893906   -2.0075056   0.25029609   -3.5893906     1.581885  1205717 
 7170000    1.4469222   -3.5892797    -2.007357   0.25172386   -3.5892797    1.5819226  1205748 
 7171000    1.4482081   -3.5905357   -2.0072478   0.25402623   -3.5905357    1.5832879  1205779 
 7172000    1.4479044   -3.5908393   -2.0079175   0.25243865   -3.5908393    1.5829217  1205805 
 7173000    1.4478478    -3.590023   -2.0072039   0.25562558    -3.590023    1.5828191  1205836 
 7174000    1.4476193   -3.5904493   -2.0079074    0.2517111   -3.5904493    1.5825418  1205857 
 7175000    1.4481982   -3.5902914    -2.007147   0.25100954   -3.5902914    1.5831444  1205880 
 7176000    1.4479168   -3.5905336    -2.007731   0.25136152   -3.5905336    1.5828027  1205906 
 7177000    1.4478746   -3.5898178   -2.0071098   0.25226946   -3.5898178     1.582708  1205943 
 7178000     1.449036   -3.5909662   -2.0070215   0.25229808   -3.5909662    1.5839447  1205968 
 7179000    1.4484762   -3.5907239   -2.0074358   0.25015805   -3.5907239    1.5832881  1206002 
 7180000    1.4487798   -3.5912989   -2.0077328    0.2523942   -3.5912989    1.5835661  1206043 
 7181000    1.4478899   -3.5907937   -2.0082304   0.25405289   -3.5907937    1.5825633  1206066 
 7182000     1.446352   -3.5897957   -2.0089606   0.25283563   -3.5897957    1.5808352  1206102 
 7183000    1.4475002   -3.5907046   -2.0086498   0.25226843   -3.5907046    1.5820547  1206129 
 7184000    1.4487608   -3.5918506   -2.0084404   0.25284618   -3.5918506    1.5834102  1206146 
 7185000    1.4483736     -3.59122   -2.0082632    0.2473676     -3.59122    1.5829568  1206169 
 7186000    1.4482264   -3.5907921    -2.008029   0.25335662   -3.5907921    1.5827631  1206194 
 7187000    1.4481799   -3.5909579   -2.0082744   0.24944986   -3.5909579    1.5826835  1206216 
 7188000    1.4473282   -3.5893008   -2.0075665   0.25810886   -3.5893008    1.5817343  1206230 
 7189000    1.4479891   -3.5905654   -2.0081443    0.2549337   -3.5905654    1.5824211  1206257 
 7190000    1.4482506   -3.5906657   -2.0079889   0.25182008   -3.5906657    1.5826767  1206280 
 7191000    1.4475255   -3.5906142   -2.0087652    0.2577354   -3.5906142     1.581849  1206307 
 7192000    1.4483819   -3.5912014   -2.0084468   0.25623196   -3.5912014    1.5827546  1206330 
 7193000    1.4481966   -3.5910349   -2.0085129    0.2558792   -3.5910349     1.582522  1206353 
 7194000    1.4480807   -3.5908786   -2.0085095   0.25131569   -3.5908786    1.5823691  1206373 
 7195000    1.4490233   -3.5913057   -2.0079486   0.25196966   -3.5913057    1.5833571  1206405 
 7196000     1.448341   -3.5905245   -2.0079511   0.25584978   -3.5905245    1.5825735  1206434 
 7197000    1.4479737   -3.5908771   -2.0087443   0.25174814   -3.5908771    1.5821328  1206464 
 7198000    1.4481146   -3.5914791   -2.0092291   0.25306444   -3.5914791      1.58225  1206492 
 7199000    1.4493435   -3.5927073   -2.0091435   0.25256939   -3.5927073    1.5835639  1206514 
 7200000    1.4487384   -3.5922234     -2.00936   0.25283446   -3.5922234    1.5828634  1206544 
 7201000    1.4495451   -3.5926557   -2.0089424   0.25345489   -3.5926557    1.5837133  1206568 
 7202000    1.4484184   -3.5915277   -2.0090743    0.2554507   -3.5915277    1.5824534  1206590 
 7203000    1.4481897   -3.5911971   -2.0090316   0.25809048   -3.5911971    1.5821655  1206619 
 7204000    1.4490264   -3.5916912   -2.0086561   0.25346125   -3.5916912    1.5830351  1206653 
 7205000    1.4493233   -3.5918572   -2.0085359    0.2551718   -3.5918572    1.5833213  1206682 
 7206000    1.4496059   -3.5923812   -2.0087813   0.25039871   -3.5923812    1.5835999  1206705 
 7207000    1.4495767   -3.5919298   -2.0083933   0.25716448   -3.5919298    1.5835365  1206729 
 7208000    1.4488291   -3.5914923   -2.0088132   0.25840203   -3.5914923    1.5826792  1206760 
 7209000    1.4500352   -3.5924813   -2.0085174   0.25249686   -3.5924813    1.5839639  1206785 
 7210000    1.4488229    -3.591335   -2.0087243   0.25782658    -3.591335    1.5826107  1206807 
 7211000    1.4496371   -3.5919374   -2.0084597   0.25803561   -3.5919374    1.5834778  1206824 
 7212000    1.4490999    -3.591184   -2.0083192   0.25640129    -3.591184    1.5828648  1206844 
 7213000    1.4497175   -3.5920517   -2.0085412   0.25149167   -3.5920517    1.5835105  1206866 
 7214000    1.4491988   -3.5920165   -2.0090974   0.25674195   -3.5920165     1.582919  1206885 
 7215000    1.4492365   -3.5920435   -2.0091253   0.25780702   -3.5920435    1.5829182  1206917 
 7216000     1.448272   -3.5914827   -2.0096546   0.25959257   -3.5914827    1.5818281  1206945 
 7217000    1.4499245   -3.5934603   -2.0098681   0.25304648   -3.5934603    1.5835922  1206976 
 7218000    1.4485255   -3.5927416   -2.0107114      0.25031   -3.5927416    1.5820302  1207002 
 7219000    1.4482947    -3.592644   -2.0109039   0.25355701    -3.592644    1.5817401  1207031 
 7220000    1.4487265   -3.5931172   -2.0109383   0.25403849   -3.5931172     1.582179  1207056 
 7221000       1.4472   -3.5925181   -2.0120507   0.25199755   -3.5925181    1.5804674  1207090 
 7222000    1.4474617   -3.5923032   -2.0115854   0.25601294   -3.5923032    1.5807178  1207117 
 7223000    1.4475622     -3.59294   -2.0121609    0.2554098     -3.59294    1.5807791  1207154 
 7224000    1.4488754   -3.5932463   -2.0110619   0.25102025   -3.5932463    1.5821843  1207176 
 7225000    1.4481501   -3.5936044   -2.0122474   0.25545204   -3.5936044     1.581357  1207203 
 7226000    1.4483659   -3.5936159    -2.012056   0.25846355   -3.5936159    1.5815598  1207228 
 7227000    1.4486963   -3.5940806   -2.0121902   0.25634497   -3.5940806    1.5818904  1207251 
 7228000    1.4493016   -3.5950726   -2.0125513   0.25846248   -3.5950726    1.5825213  1207274 
 7229000    1.4484946   -3.5940786   -2.0124791   0.25854581   -3.5940786    1.5815995  1207305 
 7230000    1.4493749   -3.5943439   -2.0118095   0.25599944   -3.5943439    1.5825345  1207325 
 7231000    1.4499351   -3.5949922   -2.0118789    0.2564918   -3.5949922    1.5831133  1207350 
 7232000    1.4495085   -3.5951032   -2.0124884   0.25568995   -3.5951032    1.5826148  1207375 
 7233000    1.4494887   -3.5953021   -2.0127339   0.25289053   -3.5953021    1.5825682  1207394 
 7234000     1.448686   -3.5940593   -2.0124068   0.25557188   -3.5940593    1.5816525  1207424 
 7235000    1.4488438   -3.5941517   -2.0123479   0.25316131   -3.5941517    1.5818039  1207440 
 7236000    1.4490452   -3.5942851   -2.0123059   0.25524702   -3.5942851    1.5819792  1207474 
 7237000    1.4496206   -3.5949953   -2.0124207   0.25615742   -3.5949953    1.5825746  1207499 
 7238000    1.4487648   -3.5942924   -2.0126783   0.25508293   -3.5942924    1.5816141  1207519 
 7239000    1.4486567   -3.5944749   -2.0130102   0.25228848   -3.5944749    1.5814647  1207543 
 7240000     1.447557   -3.5935916   -2.0133615   0.25773188   -3.5935916    1.5802301  1207569 
 7241000    1.4471676   -3.5932046   -2.0134309   0.25569235   -3.5932046    1.5797737  1207593 
 7242000    1.4489363    -3.594983   -2.0133113   0.25036071    -3.594983    1.5816717  1207618 
 7243000    1.4486669   -3.5950038   -2.0136537   0.25362726   -3.5950038    1.5813501  1207639 
 7244000    1.4481131   -3.5937417   -2.0130354   0.25127476   -3.5937417    1.5807064  1207669 
 7245000    1.4501602   -3.5957029   -2.0128013   0.25494458   -3.5957029    1.5829016  1207699 
 7246000    1.4512516   -3.5962854   -2.0122241   0.25530086   -3.5962854    1.5840614  1207723 
 7247000    1.4501923   -3.5951085   -2.0122362   0.25476371   -3.5951085    1.5828723  1207748 
 7248000    1.4491093   -3.5945974   -2.0129347   0.25635186   -3.5945974    1.5816627  1207769 
 7249000      1.44977   -3.5948749   -2.0125251   0.25598662   -3.5948749    1.5823498  1207795 
 7250000    1.4491879    -3.594197   -2.0125153   0.25834884    -3.594197    1.5816817  1207820 
 7251000    1.4496019   -3.5943558   -2.0122602   0.25656648   -3.5943558    1.5820956  1207849 
 7252000    1.4503976   -3.5947704   -2.0118403   0.25330487   -3.5947704      1.58293  1207875 
 7253000    1.4502882    -3.594951   -2.0121693   0.25579348    -3.594951    1.5827817  1207897 
 7254000    1.4508998   -3.5955987   -2.0121875   0.25587195   -3.5955987    1.5834112  1207926 
 7255000     1.450578   -3.5956341   -2.0126108   0.25503024   -3.5956341    1.5830233  1207954 
 7256000    1.4504057   -3.5957672   -2.0129647   0.25529202   -3.5957672    1.5828025  1207979 
 7257000    1.4501248   -3.5957762   -2.0133221   0.25648996   -3.5957762    1.5824541  1208011 
 7258000    1.4519805   -3.5972599   -2.0128214    0.2510126   -3.5972599    1.5844385  1208042 
 7259000    1.4504705   -3.5957321   -2.0129806   0.25706034   -3.5957321    1.5827514  1208072 
 7260000    1.4506622   -3.5958727   -2.0129448   0.25472998   -3.5958727    1.5829279  1208097 
 7261000    1.4503974   -3.5961313   -2.0135238   0.25512571   -3.5961313    1.5826075  1208121 
 7262000    1.4507238   -3.5966846   -2.0137472   0.25171073   -3.5966846    1.5829374  1208141 
 7263000    1.4496818   -3.5952601   -2.0134923   0.25738831   -3.5952601    1.5817677  1208166 
 7264000    1.4499942   -3.5962851   -2.0142158   0.25614407   -3.5962851    1.5820693  1208196 
 7265000    1.4501509   -3.5966816   -2.0144806   0.25348139   -3.5966816    1.5822009  1208226 
 7266000    1.4502641   -3.5969935   -2.0147044   0.25200601   -3.5969935    1.5822891  1208253 
 7267000    1.4503633   -3.5968523   -2.0144838    0.2562373   -3.5968523    1.5823685  1208275 
 7268000    1.4500448   -3.5965343   -2.0145434   0.25932575   -3.5965343    1.5819909  1208298 
 7269000    1.4493231   -3.5962528   -2.0150833   0.25540129   -3.5962528    1.5811695  1208324 
 7270000    1.4501528   -3.5967194   -2.0146879   0.25344954   -3.5967194    1.5820316  1208357 
 7271000    1.4501304   -3.5965709   -2.0146018   0.26086251   -3.5965709    1.5819691  1208386 
 7272000    1.4502061   -3.5960328   -2.0140086   0.25625239   -3.5960328    1.5820243  1208407 
 7273000    1.4502408   -3.5965937   -2.0145566   0.25681909   -3.5965937    1.5820372  1208426 
 7274000    1.4489086   -3.5956181   -2.0150722   0.25807983   -3.5956181    1.5805459  1208455 
 7275000    1.4504126     -3.59787   -2.0157201   0.25149759     -3.59787    1.5821499  1208483 
 7276000    1.4503238   -3.5975947   -2.0155639   0.25391465   -3.5975947    1.5820308  1208500 
 7277000    1.4502946   -3.5972882   -2.0153285   0.25342125   -3.5972882    1.5819597  1208530 
 7278000    1.4517314   -3.5989539   -2.0154662   0.25321515   -3.5989539    1.5834877  1208560 
 7279000    1.4505191   -3.5973499   -2.0152134   0.25564745   -3.5973499    1.5821365  1208582 
 7280000     1.449249   -3.5970079   -2.0162881   0.25642623   -3.5970079    1.5807198  1208606 
 7281000    1.4510979   -3.5986426    -2.015952   0.25789986   -3.5986426    1.5826906  1208641 
 7282000    1.4515428   -3.5983518   -2.0152192   0.25119945   -3.5983518    1.5831326  1208674 
 7283000    1.4510659   -3.5983044   -2.0157325   0.25317006   -3.5983044    1.5825719  1208705 
 7284000    1.4501526   -3.5978288   -2.0162804   0.25818582   -3.5978288    1.5815484  1208726 
 7285000    1.4506468   -3.5980978   -2.0160393   0.25536966   -3.5980978    1.5820585  1208748 
 7286000    1.4493633   -3.5973909   -2.0167623   0.26104727   -3.5973909    1.5806287  1208771 
 7287000    1.4513948   -3.5990147   -2.0161942   0.25535412   -3.5990147    1.5828205  1208789 
 7288000    1.4515214    -3.598509   -2.0155817   0.25602265    -3.598509    1.5829273  1208813 
 7289000     1.451291   -3.5986145   -2.0159595   0.25813299   -3.5986145     1.582655  1208829 
 7290000    1.4508978   -3.5985757   -2.0163744   0.25349498   -3.5985757    1.5822013  1208848 
 7291000    1.4507341   -3.5981246   -2.0161384   0.26038264   -3.5981246    1.5819862  1208876 
 7292000    1.4505805   -3.5982622   -2.0164658   0.25597314   -3.5982622    1.5817964  1208893 
 7293000    1.4503153   -3.5972554   -2.0157939   0.26024017   -3.5972554    1.5814615  1208928 
 7294000    1.4511638   -3.5989494   -2.0165836   0.25720234   -3.5989494    1.5823658  1208944 
 7295000    1.4502108   -3.5973765   -2.0160709    0.2570712   -3.5973765    1.5813057  1208960 
 7296000     1.451332   -3.5991822   -2.0166971   0.25728033   -3.5991822     1.582485  1208993 
 7297000    1.4511014   -3.5988243   -2.0166365   0.25561851   -3.5988243    1.5821878  1209028 
 7298000    1.4519576   -3.5999315   -2.0168377   0.25728624   -3.5999315    1.5830938  1209049 
 7299000    1.4503895   -3.5982596    -2.016895   0.25338987   -3.5982596    1.5813645  1209064 
 7300000    1.4506062   -3.5983167   -2.0167512   0.25672267   -3.5983167    1.5815655  1209091 
 7301000    1.4499792   -3.5973996   -2.0165609   0.25931507   -3.5973996    1.5808387  1209124 
 7302000    1.4498453   -3.5974906   -2.0168254   0.26125863   -3.5974906    1.5806652  1209145 
 7303000    1.4505866   -3.5983469   -2.0169035   0.25677784   -3.5983469    1.5814433  1209168 
 7304000     1.451079   -3.5988201     -2.01687   0.25476771   -3.5988201    1.5819501  1209191 
 7305000    1.4516898   -3.5997224   -2.0171379   0.25452142   -3.5997224    1.5825846  1209215 
 7306000    1.4504267   -3.5981393   -2.0169631   0.26028175   -3.5981393    1.5811762  1209239 
 7307000    1.4515788   -3.5996184   -2.0172281   0.25865392   -3.5996184    1.5823903  1209271 
 7308000    1.4525511   -3.6004471   -2.0170296    0.2533985   -3.6004471    1.5834175  1209296 
 7309000    1.4501225   -3.5975476   -2.0168076   0.25644789   -3.5975476      1.58074  1209319 
 7310000     1.451382   -3.5997053   -2.0176368   0.25871234   -3.5997053    1.5820685  1209353 
 7311000    1.4512527   -3.5992233   -2.0173324   0.25886304   -3.5992233    1.5818909  1209381 
 7312000    1.4513941   -3.5996451   -2.0176301   0.25487227   -3.5996451    1.5820149  1209404 
 7313000    1.4520516   -3.5998089   -2.0171035   0.25350937   -3.5998089    1.5827054  1209424 
 7314000    1.4500864   -3.5979008     -2.01737   0.26083623   -3.5979008    1.5805308  1209449 
 7315000    1.4501029     -3.59852   -2.0180013   0.26062087     -3.59852    1.5805187  1209472 
 7316000    1.4506371   -3.5998846   -2.0188112   0.25772433   -3.5998846    1.5810734  1209493 
 7317000    1.4509573   -3.5998349   -2.0184556   0.25254376   -3.5998349    1.5813793  1209526 
 7318000    1.4508343   -3.5995815    -2.018365   0.25640048   -3.5995815    1.5812165  1209548 
 7319000    1.4515965   -3.6003628   -2.0183392    0.2534975   -3.6003628    1.5820237  1209566 
 7320000    1.4523296   -3.6007934   -2.0180023     0.254574   -3.6007934    1.5827912  1209590 
 7321000    1.4523529   -3.6003813   -2.0175818   0.25795897   -3.6003813    1.5827995  1209603 
 7322000    1.4509317   -3.5992974   -2.0180846   0.25586013   -3.5992974    1.5812128  1209632 
 7323000    1.4509978   -3.5996987   -2.0184518   0.25665649   -3.5996987    1.5812469  1209661 
 7324000    1.4511781   -3.5997456   -2.0183322   0.25906285   -3.5997456    1.5814134  1209684 
 7325000    1.4520186   -3.6002787   -2.0179834   0.25930305   -3.6002787    1.5822953  1209710 
 7326000     1.450701   -3.5991084   -2.0182803   0.25622811   -3.5991084    1.5808281  1209734 
 7327000    1.4520957   -3.6011325   -2.0188225   0.25501124   -3.6011325      1.58231  1209763 
 7328000    1.4515352   -3.6011758   -2.0195146   0.25640209   -3.6011758    1.5816613  1209792 
 7329000    1.4510234   -3.6002858   -2.0192122   0.25675822   -3.6002858    1.5810736  1209815 
 7330000    1.4516354   -3.6014568   -2.0197437   0.25433531   -3.6014568     1.581713  1209836 
 7331000    1.4502012   -3.6005547   -2.0204293   0.25569413   -3.6005547    1.5801254  1209855 
 7332000    1.4506964   -3.6014052   -2.0207624   0.25148935   -3.6014052    1.5806427  1209872 
 7333000    1.4513363   -3.6022071   -2.0209023   0.25470266   -3.6022071    1.5813047  1209899 
 7334000    1.4510423   -3.6014648   -2.0205078   0.25522134   -3.6014648    1.5809569  1209920 
 7335000    1.4506319   -3.6017782   -2.0212972   0.25185891   -3.6017782     1.580481  1209942 
 7336000    1.4506537   -3.6015959   -2.0211289   0.25361312   -3.6015959     1.580467  1209971 
 7337000    1.4505818   -3.6018531   -2.0214919   0.25173708   -3.6018531    1.5803612  1209992 
 7338000    1.4512023   -3.6027618   -2.0217678   0.25078701   -3.6027618    1.5809941  1210025 
 7339000     1.451251   -3.6022701   -2.0212543    0.2527118   -3.6022701    1.5810158  1210049 
 7340000    1.4517938   -3.6031152   -2.0215434   0.25484206   -3.6031152    1.5815718  1210076 
 7341000    1.4507823   -3.6015256   -2.0210923   0.25676156   -3.6015256    1.5804333  1210104 
 7342000    1.4509867   -3.6016869   -2.0210779   0.25523666   -3.6016869     1.580609  1210140 
 7343000    1.4513248   -3.6017552   -2.0208014   0.25576039   -3.6017552    1.5809538  1210158 
 7344000    1.4521524   -3.6023439   -2.0205265   0.25959741   -3.6023439    1.5818174  1210187 
 7345000    1.4511781   -3.6012202   -2.0204994   0.25757469   -3.6012202    1.5807208  1210214 
 7346000    1.4516728   -3.6018933   -2.0206663   0.26314272   -3.6018933     1.581227  1210239 
 7347000    1.4510444   -3.6015743   -2.0210553   0.26084531   -3.6015743     1.580519  1210257 
 7348000    1.4526832   -3.6024212   -2.0201511   0.25883825   -3.6024212    1.5822701  1210283 
 7349000     1.452035    -3.601918   -2.0203893   0.25877726    -3.601918    1.5815287  1210310 
 7350000    1.4520432   -3.6013256   -2.0198219   0.26358279   -3.6013256    1.5815037  1210336 
 7351000    1.4523303   -3.6021309   -2.0203498   0.25935048   -3.6021309    1.5817811  1210363 
 7352000    1.4514209   -3.6019986   -2.0212393   0.25759506   -3.6019986    1.5807593  1210387 
 7353000    1.4509533   -3.6016858   -2.0214645   0.25909574   -3.6016858    1.5802213  1210409 
 7354000    1.4518017   -3.6018217    -2.020713   0.25406047   -3.6018217    1.5811087  1210437 
 7355000    1.4524439   -3.6024647   -2.0206996   0.25637269   -3.6024647     1.581765  1210470 
 7356000    1.4522245   -3.6023374   -2.0208401   0.25640077   -3.6023374    1.5814973  1210492 
 7357000    1.4535432   -3.6031567    -2.020252   0.25566391   -3.6031567    1.5829047  1210514 
 7358000    1.4513338    -3.601578   -2.0210938   0.25436483    -3.601578    1.5804842  1210525 
 7359000    1.4526366   -3.6030826   -2.0211953   0.25251257   -3.6030826    1.5818873  1210537 
 7360000    1.4531243    -3.602913   -2.0205182   0.25522565    -3.602913    1.5823948  1210555 
 7361000    1.4512959   -3.6015408   -2.0211709   0.25804971   -3.6015408    1.5803699  1210581 
 7362000    1.4526325   -3.6030668   -2.0212754   0.25933541   -3.6030668    1.5817914  1210607 
 7363000    1.4534213   -3.6040379   -2.0214203   0.25390994   -3.6040379    1.5826177  1210632 
 7364000    1.4517865   -3.6025251   -2.0217293   0.25946967   -3.6025251    1.5807958  1210664 
 7365000    1.4537723   -3.6041591   -2.0212324   0.25903519   -3.6041591    1.5829266  1210688 
 7366000    1.4535554   -3.6044283    -2.021768    0.2569888   -3.6044283    1.5826603  1210711 
 7367000    1.4521725    -3.603087   -2.0219728   0.25689273    -3.603087    1.5811141  1210742 
 7368000     1.452205   -3.6037404   -2.0226274   0.25711495   -3.6037404     1.581113  1210770 
 7369000    1.4528706   -3.6049339   -2.0231315   0.25794948   -3.6049339    1.5818024  1210797 
 7370000      1.45158   -3.6041798   -2.0238178   0.25672153   -3.6041798     1.580362  1210824 
 7371000    1.4506967   -3.6036346   -2.0242786   0.25734965   -3.6036346     1.579356  1210858 
 7372000    1.4522652   -3.6048856   -2.0238533   0.25606615   -3.6048856    1.5810323  1210882 
 7373000    1.4501931   -3.6025952    -2.023854   0.26109853   -3.6025952    1.5787412  1210909 
 7374000     1.451401   -3.6049439   -2.0249125    0.2560856   -3.6049439    1.5800314  1210928 
 7375000    1.4510168   -3.6049732   -2.0253875   0.25363101   -3.6049732    1.5795857  1210949 
 7376000    1.4514625   -3.6049844   -2.0249382   0.25680707   -3.6049844    1.5800462  1210968 
 7377000    1.4519478   -3.6058261   -2.0252804   0.25320924   -3.6058261    1.5805458  1210990 
 7378000    1.4512929   -3.6058346   -2.0260304   0.25057792   -3.6058346    1.5798041  1211012 
 7379000    1.4509512    -3.605135   -2.0257328   0.25446544    -3.605135    1.5794022  1211035 
 7380000    1.4509399   -3.6054333   -2.0260838   0.25177011   -3.6054333    1.5793495  1211066 
 7381000    1.4504041   -3.6047257   -2.0259842   0.25593841   -3.6047257    1.5787415  1211085 
 7382000    1.4518765    -3.606051   -2.0257525   0.25774357    -3.606051    1.5802985  1211120 
 7383000    1.4509994   -3.6043129   -2.0249848    0.2578577   -3.6043129    1.5793281  1211132 
 7384000    1.4533034   -3.6060525   -2.0242388   0.25746696   -3.6060525    1.5818137  1211149 
 7385000    1.4522662   -3.6051886   -2.0245417   0.25727054   -3.6051886    1.5806469  1211178 
 7386000    1.4520867   -3.6051268   -2.0247131   0.25941846   -3.6051268    1.5804137  1211207 
 7387000    1.4522194    -3.604281   -2.0237606   0.26051388    -3.604281    1.5805203  1211236 
 7388000      1.45251   -3.6051883    -2.024383   0.25697011   -3.6051883    1.5808053  1211260 
 7389000     1.452547   -3.6052402   -2.0244441     0.258691   -3.6052402     1.580796  1211298 
 7390000    1.4512728   -3.6032906   -2.0239061   0.25963798   -3.6032906    1.5793845  1211317 
 7391000    1.4526302   -3.6052357   -2.0244106   0.25461552   -3.6052357    1.5808252  1211345 
 7392000    1.4532307   -3.6057424   -2.0242898    0.2567541   -3.6057424    1.5814526  1211365 
 7393000    1.4528064   -3.6054238   -2.0244591   0.25778602   -3.6054238    1.5809647  1211385 
 7394000    1.4511918   -3.6039874    -2.024811   0.25830934   -3.6039874    1.5791764  1211409 
 7395000    1.4518186   -3.6042367     -2.02442   0.25564989   -3.6042367    1.5798167  1211441 
 7396000    1.4528524   -3.6051619   -2.0242464   0.25960791   -3.6051619    1.5809156  1211461 
 7397000    1.4525342   -3.6051856   -2.0246645   0.25648442   -3.6051856    1.5805211  1211498 
 7398000    1.4523958   -3.6043938   -2.0240663   0.26220606   -3.6043938    1.5803274  1211531 
 7399000    1.4529587   -3.6054901   -2.0245671   0.25636857   -3.6054901     1.580923  1211544 
 7400000    1.4525886   -3.6057826   -2.0253003    0.2541923   -3.6057826    1.5804824  1211573 
 7401000    1.4528856   -3.6061226   -2.0253444   0.25602733   -3.6061226    1.5807782  1211594 
 7402000    1.4530899   -3.6060775   -2.0251057    0.2525423   -3.6060775    1.5809717  1211616 
 7403000    1.4529693    -3.605359   -2.0245563   0.25594463    -3.605359    1.5808027  1211645 
 7404000     1.452991   -3.6054342   -2.0246366   0.26182546   -3.6054342    1.5807977  1211667 
 7405000    1.4528778   -3.6058597   -2.0252178   0.26124547   -3.6058597    1.5806419  1211692 
 7406000     1.453675   -3.6064851   -2.0250111   0.25642672   -3.6064851     1.581474  1211719 
 7407000    1.4534728   -3.6062765   -2.0250657   0.25583015   -3.6062765    1.5812108  1211752 
 7408000    1.4530925    -3.606219   -2.0254519    0.2599375    -3.606219    1.5807672  1211775 
 7409000    1.4524926   -3.6051857   -2.0250946   0.26259649   -3.6051857    1.5800911  1211793 
 7410000    1.4539254   -3.6069718   -2.0253403   0.25490817   -3.6069718    1.5816315  1211807 
 7411000    1.4528317   -3.6064338   -2.0260325    0.2599089   -3.6064338    1.5804013  1211838 
 7412000    1.4526521   -3.6073353   -2.0271451   0.25405795   -3.6073353    1.5801902  1211850 
 7413000    1.4518938   -3.6063606   -2.0270291   0.26114844   -3.6063606    1.5793315  1211876 
 7414000    1.4516602   -3.6062471    -2.027197   0.25922773   -3.6062471    1.5790501  1211897 
 7415000    1.4526822   -3.6077982   -2.0276703    0.2543507   -3.6077982    1.5801278  1211923 
 7416000    1.4524999   -3.6072908   -2.0273965   0.25541975   -3.6072908    1.5798943  1211950 
 7417000     1.452714   -3.6076258   -2.0275195   0.25482626   -3.6076258    1.5801063  1211966 
 7418000    1.4524981   -3.6077026   -2.0278507   0.25962066   -3.6077026    1.5798519  1211981 
 7419000    1.4519719   -3.6060584    -2.026814     0.260871   -3.6060584    1.5792444  1212008 
 7420000     1.452108   -3.6066386    -2.027267   0.25788496   -3.6066386    1.5793716  1212024 
 7421000    1.4525007   -3.6072785   -2.0275097    0.2567128   -3.6072785    1.5797688  1212047 
 7422000    1.4522462   -3.6080014   -2.0285407   0.25590395   -3.6080014    1.5794607  1212071 
 7423000    1.4518611   -3.6069596   -2.0279517   0.25872922   -3.6069596     1.579008  1212097 
 7424000    1.4526165   -3.6080995   -2.0283183   0.25824875   -3.6080995    1.5797813  1212134 
 7425000    1.4518574   -3.6073786   -2.0284451   0.25847594   -3.6073786    1.5789335  1212151 
 7426000    1.4524034   -3.6078928   -2.0284006   0.25791926   -3.6078928    1.5794922  1212178 
 7427000    1.4534714   -3.6092455   -2.0286193    0.2585354   -3.6092455    1.5806263  1212199 
 7428000    1.4521149   -3.6070452   -2.0279241   0.25886238   -3.6070452    1.5791211  1212222 
 7429000    1.4534307   -3.6083753   -2.0278454   0.25777588   -3.6083753    1.5805299  1212239 
 7430000    1.4535022   -3.6086562   -2.0280785   0.25720256   -3.6086562    1.5805777  1212262 
 7431000    1.4541516   -3.6088288   -2.0275777   0.25323116   -3.6088288    1.5812512  1212287 
 7432000    1.4538323   -3.6080175   -2.0271501   0.25810528   -3.6080175    1.5808674  1212315 
 7433000    1.4520686   -3.6073379   -2.0284169   0.25933699   -3.6073379    1.5789211  1212337 
 7434000    1.4525843   -3.6072388   -2.0277883   0.25745157   -3.6072388    1.5794505  1212361 
 7435000    1.4525905   -3.6078326   -2.0284119   0.25557003   -3.6078326    1.5794207  1212389 
 7436000    1.4523985   -3.6076283   -2.0284502   0.26126714   -3.6076283    1.5791782  1212415 
 7437000    1.4541105   -3.6091991   -2.0281843   0.25711904   -3.6091991    1.5810148  1212434 
 7438000     1.452488   -3.6074712   -2.0282557   0.26446876   -3.6074712    1.5792155  1212461 
 7439000    1.4535143   -3.6089355   -2.0286276   0.25718006   -3.6089355    1.5803079  1212479 
 7440000    1.4517595   -3.6076891   -2.0293281   0.26088025   -3.6076891     1.578361  1212509 
 7441000    1.4536074   -3.6091591   -2.0288178   0.25810169   -3.6091591    1.5803413  1212531 
 7442000     1.453107   -3.6083016   -2.0285303   0.25612725   -3.6083016    1.5797712  1212551 
 7443000    1.4523491   -3.6081902   -2.0292703   0.25834156   -3.6081902    1.5789199  1212572 
 7444000    1.4515613   -3.6080105   -2.0299783   0.26026679   -3.6080105    1.5780322  1212596 
 7445000    1.4528147   -3.6085612   -2.0291884   0.25852253   -3.6085612    1.5793728  1212613 
 7446000    1.4534665   -3.6093108   -2.0292595   0.25751846   -3.6093108    1.5800513  1212636 
 7447000     1.452697   -3.6085314   -2.0293465   0.25975627   -3.6085314    1.5791849  1212659 
 7448000    1.4540082   -3.6101655   -2.0295853    0.2563025   -3.6101655    1.5805802  1212682 
 7449000    1.4525734   -3.6089156   -2.0299262   0.25888358   -3.6089156    1.5789893  1212706 
 7450000    1.4530826    -3.609174   -2.0296664   0.26151714    -3.609174    1.5795077  1212733 
 7451000    1.4529183   -3.6090736   -2.0297758   0.25790713   -3.6090736    1.5792978  1212757 
 7452000    1.4545416   -3.6108012    -2.029769   0.25430898   -3.6108012    1.5810323  1212780 
 7453000     1.453727    -3.609068   -2.0289537   0.26072896    -3.609068    1.5801143  1212805 
 7454000    1.4542375   -3.6099732   -2.0293418   0.25654572   -3.6099732    1.5806314  1212834 
 7455000    1.4536888   -3.6100211   -2.0300173   0.25915974   -3.6100211    1.5800037  1212858 
 7456000    1.4531811   -3.6091735   -2.0297567   0.26153959   -3.6091735    1.5794168  1212885 
 7457000    1.4542263   -3.6101486   -2.0296285   0.25755003   -3.6101486    1.5805202  1212910 
 7458000    1.4539078    -3.609235   -2.0290818   0.25923068    -3.609235    1.5801532  1212926 
 7459000    1.4535297   -3.6093673    -2.029655   0.26061248   -3.6093673    1.5797123  1212949 
 7460000    1.4540258   -3.6098313   -2.0296163   0.26079742   -3.6098313     1.580215  1212977 
 7461000     1.452841   -3.6092632   -2.0303632   0.26172283   -3.6092632       1.5789  1212998 
 7462000    1.4531505   -3.6095707   -2.0303603   0.25898959   -3.6095707    1.5792104  1213018 
 7463000    1.4536775   -3.6103135   -2.0305618   0.26273726   -3.6103135    1.5797517  1213042 
 7464000     1.452855   -3.6097774   -2.0309676   0.26042623   -3.6097774    1.5788098  1213079 
 7465000    1.4536322   -3.6104898   -2.0308744   0.25642427   -3.6104898    1.5796153  1213109 
 7466000    1.4535778   -3.6104328   -2.0309091   0.25735302   -3.6104328    1.5795237  1213134 
 7467000    1.4533424   -3.6099325    -2.030705   0.25819614   -3.6099325    1.5792275  1213165 
 7468000    1.4541934   -3.6104018   -2.0302756   0.26032592   -3.6104018    1.5801261  1213185 
 7469000    1.4530737   -3.6089159   -2.0300324   0.26062097   -3.6089159    1.5788835  1213205 
 7470000    1.4540485   -3.6102712   -2.0303637   0.25967932   -3.6102712    1.5799075  1213232 
 7471000    1.4544572   -3.6108715   -2.0305615   0.25955817   -3.6108715    1.5803099  1213264 
 7472000     1.453298    -3.610415   -2.0313997   0.25684961    -3.610415    1.5790153  1213291 
 7473000    1.4543509   -3.6118624   -2.0317252   0.25185936   -3.6118624    1.5801372  1213308 
 7474000    1.4537379   -3.6110952   -2.0316593   0.25612737   -3.6110952    1.5794359  1213335 
 7475000    1.4538212   -3.6105613   -2.0310661   0.26004602   -3.6105613    1.5794952  1213359 
 7476000    1.4545129    -3.611012    -2.030794   0.25981135    -3.611012     1.580218  1213381 
 7477000    1.4546257   -3.6110843   -2.0307789   0.25778873   -3.6110843    1.5803054  1213408 
 7478000    1.4542168   -3.6106927   -2.0308576   0.26136602   -3.6106927    1.5798351  1213428 
 7479000    1.4557565   -3.6127973   -2.0313233   0.25411635   -3.6127973     1.581474  1213454 
 7480000    1.4540232   -3.6102533   -2.0306832   0.26400928   -3.6102533    1.5795701  1213470 
 7481000    1.4543569   -3.6109678   -2.0310624   0.26100567   -3.6109678    1.5799054  1213491 
 7482000    1.4534742   -3.6102233    -2.031299   0.26266361   -3.6102233    1.5789243  1213508 
 7483000    1.4546313   -3.6114278   -2.0312778   0.25825565   -3.6114278      1.58015  1213532 
 7484000    1.4535774   -3.6105168   -2.0315428   0.26031522   -3.6105168     1.578974  1213556 
 7485000    1.4548965   -3.6119659   -2.0315942   0.26087666   -3.6119659    1.5803717  1213583 
 7486000     1.453998   -3.6109471   -2.0315853   0.25847186   -3.6109471    1.5793618  1213609 
 7487000    1.4545284   -3.6115512   -2.0316535   0.25947502   -3.6115512    1.5798977  1213640 
 7488000     1.453489   -3.6103916   -2.0316567   0.25885427   -3.6103916    1.5787349  1213666 
 7489000     1.454915   -3.6116407   -2.0313974   0.25913293   -3.6116407    1.5802433  1213697 
 7490000    1.4537637   -3.6108193   -2.0318654   0.26218013   -3.6108193    1.5789539  1213727 
 7491000    1.4541969   -3.6119777   -2.0325832   0.25624504   -3.6119777    1.5793945  1213750 
 7492000    1.4550384   -3.6132733    -2.032991   0.25324582   -3.6132733    1.5802823  1213770 
 7493000    1.4533855   -3.6116117   -2.0331545   0.26387167   -3.6116117    1.5784572  1213793 
 7494000    1.4541876   -3.6119125   -2.0326153   0.25731396   -3.6119125    1.5792972  1213817 
 7495000    1.4541936   -3.6123259   -2.0330496   0.25733646   -3.6123259    1.5792763  1213838 
 7496000    1.4530972    -3.611359   -2.0333045   0.26077646    -3.611359    1.5780544  1213862 
 7497000    1.4534351   -3.6118217   -2.0334329   0.26112621   -3.6118217    1.5783889  1213887 
 7498000    1.4538935   -3.6122903   -2.0334322   0.26155909   -3.6122903    1.5788581  1213909 
 7499000    1.4551361   -3.6131839    -2.033018    0.2593154   -3.6131839    1.5801659  1213941 
 7500000    1.4544247   -3.6124244   -2.0330701   0.26164686   -3.6124244    1.5793543  1213971 
 7501000    1.4550488    -3.613625   -2.0336112   0.25562394    -3.613625    1.5800137  1213985 
 7502000    1.4540335   -3.6133018   -2.0344178   0.25638223   -3.6133018     1.578884  1214006 
 7503000    1.4549293   -3.6135261   -2.0336942   0.25939453   -3.6135261    1.5798319  1214025 
 7504000    1.4550888   -3.6133178   -2.0333414   0.25703807   -3.6133178    1.5799765  1214047 
 7505000    1.4540924   -3.6127907   -2.0339221   0.26198621   -3.6127907    1.5788686  1214067 
 7506000    1.4531801   -3.6121802   -2.0343191   0.26072102   -3.6121802    1.5778611  1214080 
 7507000    1.4534211   -3.6126794   -2.0345723   0.26085378   -3.6126794    1.5781071  1214092 
 7508000    1.4547634   -3.6136663   -2.0341329    0.2604176   -3.6136663    1.5795334  1214116 
 7509000    1.4527615   -3.6120112   -2.0346878   0.25781561   -3.6120112    1.5773234  1214144 
 7510000     1.454562   -3.6139264    -2.034665   0.25978673   -3.6139264    1.5792613  1214157 
 7511000    1.4533899   -3.6135396   -2.0355768   0.25812998   -3.6135396    1.5779628  1214177 
 7512000    1.4540665   -3.6138552   -2.0351954   0.25566716   -3.6138552    1.5786597  1214206 
 7513000    1.4527919   -3.6130853   -2.0358419   0.25557341   -3.6130853    1.5772435  1214231 
 7514000     1.452825    -3.612248   -2.0350011   0.26120547    -3.612248    1.5772469  1214256 
 7515000    1.4543522   -3.6134721   -2.0345998   0.26159032   -3.6134721    1.5788723  1214281 
 7516000    1.4537517   -3.6129617   -2.0347686   0.25782478   -3.6129617    1.5781931  1214302 
 7517000    1.4533752   -3.6126112   -2.0348475   0.26153718   -3.6126112    1.5777636  1214318 
 7518000     1.453661     -3.61288   -2.0348412   0.26004807     -3.61288    1.5780388  1214345 
 7519000    1.4549076   -3.6139761   -2.0346153   0.25484314   -3.6139761    1.5793608  1214369 
 7520000    1.4539627   -3.6125009   -2.0341918    0.2596945   -3.6125009    1.5783091  1214389 
 7521000     1.454312   -3.6131249   -2.0344755   0.26228276   -3.6131249    1.5786493  1214419 
 7522000    1.4550219   -3.6133596     -2.03398   0.26225102   -3.6133596    1.5793796  1214450 
 7523000    1.4563687   -3.6153375   -2.0345286   0.25645568   -3.6153375     1.580809  1214475 
 7524000    1.4558437    -3.614498   -2.0342928   0.26148491    -3.614498    1.5802052  1214501 
 7525000    1.4552965    -3.614543   -2.0349681   0.25906251    -3.614543    1.5795749  1214529 
 7526000    1.4542073   -3.6136299   -2.0352658   0.26086402   -3.6136299    1.5783641  1214551 
 7527000    1.4566954   -3.6161904   -2.0351635   0.25616705   -3.6161904    1.5810269  1214580 
 7528000    1.4543539    -3.613675   -2.0352259   0.26181555    -3.613675    1.5784491  1214608 
 7529000    1.4542739    -3.613416    -2.035094    0.2594392    -3.613416     1.578322  1214639 
 7530000    1.4547844    -3.614822   -2.0359745   0.25800064    -3.614822    1.5788474  1214661 
 7531000    1.4548748   -3.6150328   -2.0361016   0.26207408   -3.6150328    1.5789312  1214672 
 7532000    1.4533132   -3.6134632   -2.0362603   0.26289504   -3.6134632    1.5772028  1214698 
 7533000    1.4543161    -3.613908    -2.035644   0.26143754    -3.613908    1.5782639  1214719 
 7534000    1.4557862   -3.6152034    -2.035374   0.25971915   -3.6152034    1.5798294  1214742 
 7535000    1.4558293   -3.6154409    -2.035596   0.26077985   -3.6154409    1.5798449  1214766 
 7536000    1.4553052   -3.6140954   -2.0348595   0.26074982   -3.6140954    1.5792359  1214797 
 7537000    1.4555725   -3.6142966    -2.034798   0.26488788   -3.6142966    1.5794986  1214818 
 7538000    1.4558059   -3.6151485   -2.0354214   0.26343606   -3.6151485    1.5797271  1214837 
 7539000    1.4556374   -3.6153959   -2.0358906   0.26121523   -3.6153959    1.5795053  1214867 
 7540000    1.4562423   -3.6152612   -2.0351228   0.25745734   -3.6152612    1.5801383  1214885 
 7541000    1.4547691   -3.6149415   -2.0364355   0.25873808   -3.6149415     1.578506  1214911 
 7542000    1.4551851   -3.6155271   -2.0366023    0.2583581   -3.6155271    1.5789248  1214936 
 7543000     1.455615   -3.6154756   -2.0361168   0.25858127   -3.6154756    1.5793589  1214961 
 7544000    1.4551629   -3.6149147   -2.0360867   0.26052684   -3.6149147     1.578828  1214992 
 7545000    1.4553829   -3.6154752   -2.0364527   0.25931666   -3.6154752    1.5790225  1215026 
 7546000    1.4544145   -3.6144099   -2.0364719   0.26180319   -3.6144099    1.5779381  1215052 
 7547000    1.4555188    -3.615077   -2.0359746   0.26190202    -3.615077    1.5791024  1215078 
 7548000    1.4554425   -3.6150677   -2.0360715   0.25965331   -3.6150677    1.5789962  1215096 
 7549000    1.4562161   -3.6158377   -2.0360386   0.26136393   -3.6158377    1.5797991  1215124 
 7550000    1.4564874   -3.6155765    -2.035513   0.26195077   -3.6155765    1.5800635  1215147 
 7551000    1.4566239   -3.6155281   -2.0353568   0.26319531   -3.6155281    1.5801713  1215178 
 7552000    1.4574624   -3.6165806   -2.0355414   0.26111508   -3.6165806    1.5810392  1215210 
 7553000    1.4554544   -3.6145319   -2.0357099   0.26674949   -3.6145319     1.578822  1215240 
 7554000    1.4555824   -3.6150442   -2.0361249   0.26164443   -3.6150442    1.5789193  1215272 
 7555000    1.4559834   -3.6159284   -2.0365949    0.2593846   -3.6159284    1.5793335  1215288 
 7556000    1.4557278   -3.6160863   -2.0370573   0.26001914   -3.6160863    1.5790289  1215309 
 7557000    1.4552796   -3.6152713   -2.0367584   0.26393154   -3.6152713    1.5785129  1215332 
 7558000    1.4556898   -3.6157878   -2.0368572   0.25900891   -3.6157878    1.5789306  1215353 
 7559000    1.4545998   -3.6155531   -2.0378411   0.26478616   -3.6155531     1.577712  1215381 
 7560000    1.4557181   -3.6171814   -2.0382903   0.25571544   -3.6171814    1.5788911  1215407 
 7561000    1.4559255   -3.6169939   -2.0378999   0.25979008   -3.6169939     1.579094  1215424 
 7562000    1.4544676   -3.6157828   -2.0382961   0.26338282   -3.6157828    1.5774868  1215444 
 7563000      1.45468   -3.6157803   -2.0380943   0.26444662   -3.6157803     1.577686  1215468 
 7564000    1.4552111   -3.6162854   -2.0380545   0.26223108   -3.6162854    1.5782309  1215492 
 7565000    1.4556296   -3.6163919    -2.037741   0.26592454   -3.6163919    1.5786509  1215518 
 7566000    1.4567853   -3.6179838   -2.0381133    0.2608855   -3.6179838    1.5798705  1215544 
 7567000    1.4560181   -3.6168513   -2.0378465   0.25930278   -3.6168513    1.5790048  1215570 
 7568000    1.4560818   -3.6172261    -2.038177    0.2608922   -3.6172261    1.5790491  1215589 
 7569000    1.4562745   -3.6175569   -2.0383287   0.26071806   -3.6175569    1.5792282  1215612 
 7570000    1.4560983   -3.6178147   -2.0388075   0.26016633   -3.6178147    1.5790072  1215635 
 7571000    1.4563114   -3.6173815   -2.0381769   0.26097811   -3.6173815    1.5792045  1215661 
 7572000    1.4551943   -3.6166162   -2.0386567   0.26097269   -3.6166162    1.5779595  1215687 
 7573000     1.455689   -3.6180648   -2.0396026   0.25724993   -3.6180648    1.5784622  1215713 
 7574000    1.4552491   -3.6177948   -2.0398525   0.26124346   -3.6177948    1.5779423  1215746 
 7575000    1.4552064   -3.6174896   -2.0396364   0.26173126   -3.6174896    1.5778532  1215779 
 7576000    1.4560084   -3.6185445   -2.0398542   0.25598263   -3.6185445    1.5786903  1215804 
 7577000    1.4552265   -3.6182035    -2.040383   0.25755951   -3.6182035    1.5778205  1215821 
 7578000    1.4546913   -3.6176134   -2.0404004   0.25928537   -3.6176134     1.577213  1215842 
 7579000    1.4561343   -3.6187728   -2.0400318   0.25561299   -3.6187728    1.5787411  1215870 
 7580000    1.4544767   -3.6177938   -2.0408798   0.26210189   -3.6177938    1.5769141  1215893 
 7581000    1.4553938   -3.6184933    -2.040603   0.25575198   -3.6184933    1.5778903  1215907 
 7582000    1.4549997   -3.6179802   -2.0405484   0.25790905   -3.6179802    1.5774319  1215931 
 7583000    1.4554073   -3.6187042    -2.040859   0.25967911   -3.6187042    1.5778452  1215953 
 7584000    1.4554302   -3.6184462   -2.0406048   0.25984107   -3.6184462    1.5778414  1215975 
 7585000    1.4552309   -3.6184082   -2.0408204   0.25996398   -3.6184082    1.5775878  1216004 
 7586000    1.4547634   -3.6176428   -2.0405877   0.25911666   -3.6176428    1.5770551  1216024 
 7587000    1.4562247    -3.618801   -2.0401878   0.26041157    -3.618801    1.5786132  1216044 
 7588000    1.4551744   -3.6183247   -2.0408683   0.26084571   -3.6183247    1.5774564  1216058 
 7589000    1.4563888   -3.6193801   -2.0406396   0.25929793   -3.6193801    1.5787405  1216083 
 7590000    1.4550762   -3.6185845   -2.0412942   0.26235409   -3.6185845    1.5772903  1216104 
 7591000    1.4555181   -3.6191779   -2.0414344   0.26163169   -3.6191779    1.5777434  1216124 
 7592000     1.455122   -3.6189333   -2.0416543   0.26150315   -3.6189333     1.577279  1216151 
 7593000    1.4563394   -3.6197907   -2.0412231    0.2594613   -3.6197907    1.5785675  1216175 
 7594000    1.4561377   -3.6196854   -2.0413768   0.26112459   -3.6196854    1.5783086  1216206 
 7595000    1.4554661   -3.6197435   -2.0421926   0.25842613   -3.6197435    1.5775509  1216229 
 7596000    1.4556974    -3.619973   -2.0422038   0.26207338    -3.619973    1.5777691  1216254 
 7597000    1.4549713   -3.6188871   -2.0419296   0.26204009   -3.6188871    1.5769575  1216273 
 7598000    1.4548927   -3.6192443   -2.0423979   0.25831115   -3.6192443    1.5768464  1216293 
 7599000    1.4543194   -3.6185985   -2.0423956   0.26526654   -3.6185985     1.576203  1216310 
 7600000    1.4555909   -3.6198697   -2.0423159   0.26152121   -3.6198697    1.5775538  1216331 
 7601000    1.4545792   -3.6197776   -2.0433514   0.26093095   -3.6197776    1.5764262  1216355 
 7602000    1.4550753   -3.6199082   -2.0429702    0.2560167   -3.6199082     1.576938  1216375 
 7603000    1.4547753   -3.6197137   -2.0431267   0.25980963   -3.6197137     1.576587  1216395 
 7604000    1.4553474   -3.6201263   -2.0429414   0.26118421   -3.6201263    1.5771849  1216412 
 7605000    1.4552439   -3.6194851   -2.0424345   0.26504123   -3.6194851    1.5770506  1216429 
 7606000    1.4559126   -3.6203738   -2.0426257   0.25950013   -3.6203738    1.5777482  1216450 
 7607000    1.4551936   -3.6200412    -2.043102   0.26300134   -3.6200412    1.5769391  1216473 
 7608000     1.455607   -3.6203154   -2.0429568   0.26175675   -3.6203154    1.5773586  1216495 
 7609000    1.4548308   -3.6196718   -2.0431737   0.26666518   -3.6196718     1.576498  1216510 
 7610000    1.4555663   -3.6203317   -2.0430743   0.26278332   -3.6203317    1.5772574  1216539 
 7611000    1.4561677   -3.6212828   -2.0433932   0.26011197   -3.6212828    1.5778897  1216554 
 7612000    1.4545612   -3.6195609   -2.0434328   0.26342753   -3.6195609    1.5761282  1216570 
 7613000     1.455761   -3.6203272   -2.0429223   0.26221657   -3.6203272    1.5774049  1216588 
 7614000    1.4549476   -3.6200388   -2.0435542   0.26394904   -3.6200388    1.5764846  1216618 
 7615000    1.4559274   -3.6207408   -2.0432101   0.26135565   -3.6207408    1.5775307  1216630 
 7616000    1.4550762   -3.6204477   -2.0438586   0.26108078   -3.6204477     1.576589  1216645 
 7617000     1.455391   -3.6200117   -2.0431036   0.26322149   -3.6200117    1.5769081  1216662 
 7618000    1.4563532     -3.62054   -2.0426167   0.26235684     -3.62054    1.5779234  1216683 
 7619000    1.4553916   -3.6198146   -2.0429617   0.26290561   -3.6198146    1.5768529  1216705 
 7620000    1.4555223   -3.6195212   -2.0425551   0.26433072   -3.6195212    1.5769661  1216727 
 7621000    1.4569186   -3.6206572   -2.0422121   0.26097771   -3.6206572    1.5784451  1216753 
 7622000    1.4561904   -3.6204577   -2.0428222   0.26383441   -3.6204577    1.5776355  1216769 
 7623000    1.4572374   -3.6211633   -2.0424403   0.25636958   -3.6211633     1.578723  1216805 
 7624000    1.4566358   -3.6206858   -2.0426469   0.25913787   -3.6206858    1.5780389  1216830 
 7625000      1.45485     -3.61907   -2.0429943   0.26363339     -3.61907    1.5760757  1216852 
 7626000     1.456553    -3.620863   -2.0429773   0.25512816    -3.620863    1.5778856  1216879 
 7627000    1.4553956   -3.6198963   -2.0432943   0.26099642   -3.6198963     1.576602  1216902 
 7628000    1.4559557   -3.6208224   -2.0436447   0.25615103   -3.6208224    1.5771777  1216926 
 7629000    1.4565598   -3.6221308   -2.0443182   0.25405718   -3.6221308    1.5778126  1216941 
 7630000    1.4555067   -3.6211908   -2.0445435   0.25959942   -3.6211908    1.5766472  1216960 
 7631000    1.4558096   -3.6214395   -2.0444939   0.25784364   -3.6214395    1.5769455  1216983 
 7632000    1.4554479    -3.621153   -2.0446251   0.26202743    -3.621153    1.5765278  1217003 
 7633000    1.4566521   -3.6220784   -2.0442708   0.25972795   -3.6220784    1.5778076  1217022 
 7634000    1.4566944   -3.6219853   -2.0441526   0.25655984   -3.6219853    1.5778326  1217038 
 7635000    1.4562984   -3.6224146   -2.0450432   0.25975424   -3.6224146    1.5773713  1217063 
 7636000    1.4550393   -3.6210479   -2.0450715   0.26147115   -3.6210479    1.5759764  1217087 
 7637000    1.4558066   -3.6222386   -2.0454635   0.26111013   -3.6222386    1.5767751  1217112 
 7638000    1.4565297   -3.6229449   -2.0454203    0.2570156   -3.6229449    1.5775246  1217138 
 7639000    1.4551324   -3.6211414   -2.0451638   0.26079943   -3.6211414    1.5759776  1217164 
 7640000    1.4554744   -3.6212089   -2.0448946   0.26089949   -3.6212089    1.5763143  1217190 
 7641000     1.456627   -3.6233074   -2.0457745   0.25983146   -3.6233074    1.5775328  1217213 
 7642000    1.4571361   -3.6228594   -2.0447998   0.25665941   -3.6228594    1.5780596  1217232 
 7643000    1.4569157   -3.6223495   -2.0445597    0.2621417   -3.6223495    1.5777898  1217256 
 7644000     1.455996    -3.622236   -2.0454656   0.26174875    -3.622236    1.5767704  1217274 
 7645000    1.4562229   -3.6218945   -2.0449107   0.26179885   -3.6218945    1.5769838  1217299 
 7646000    1.4570056   -3.6231127   -2.0453047   0.26151834   -3.6231127    1.5778081  1217317 
 7647000     1.456901   -3.6231987   -2.0455299   0.25859568   -3.6231987    1.5776688  1217337 
 7648000     1.456922   -3.6232878   -2.0456274   0.26205213   -3.6232878    1.5776605  1217361 
 7649000     1.456463   -3.6228554   -2.0457256   0.26194276   -3.6228554    1.5771297  1217387 
 7650000    1.4575925   -3.6240807   -2.0457512   0.25729261   -3.6240807    1.5783295  1217405 
 7651000    1.4566637   -3.6233419   -2.0460402   0.26067583   -3.6233419    1.5773017  1217422 
 7652000    1.4564649   -3.6226186   -2.0455658   0.26214656   -3.6226186    1.5770527  1217448 
 7653000    1.4571734   -3.6235275   -2.0457412   0.25873833   -3.6235275    1.5777863  1217474 
 7654000    1.4565955   -3.6229453   -2.0458158   0.26375537   -3.6229453    1.5771294  1217498 
 7655000     1.456864    -3.623673   -2.0462749   0.25688378    -3.623673    1.5773981  1217515 
 7656000    1.4565003   -3.6233616   -2.0463948   0.25997842   -3.6233616    1.5769668  1217544 
 7657000    1.4563406   -3.6228449   -2.0460795   0.26310039   -3.6228449    1.5767654  1217566 
 7658000    1.4570453   -3.6234265   -2.0459215   0.26201926   -3.6234265     1.577505  1217584 
 7659000    1.4571877    -3.623256   -2.0456214   0.26078526    -3.623256    1.5776346  1217603 
 7660000    1.4564673   -3.6222154   -2.0453918   0.26595906   -3.6222154    1.5768235  1217627 
 7661000    1.4560332   -3.6216378   -2.0453218   0.26754812   -3.6216378     1.576316  1217656 
 7662000    1.4582369   -3.6244523   -2.0457739   0.26174562   -3.6244523    1.5786784  1217674 
 7663000     1.456041    -3.622533   -2.0462642   0.26337821    -3.622533    1.5762688  1217699 
 7664000    1.4574898   -3.6237212   -2.0459099   0.26388701   -3.6237212    1.5778113  1217719 
 7665000    1.4571409   -3.6236314    -2.046234   0.26370346   -3.6236314    1.5773974  1217747 
 7666000    1.4580315   -3.6251511   -2.0468272   0.25709346   -3.6251511    1.5783239  1217776 
 7667000     1.456065   -3.6226479   -2.0464813   0.26273926   -3.6226479    1.5761666  1217798 
 7668000    1.4574492   -3.6242329    -2.046599   0.25766552   -3.6242329    1.5776339  1217822 
 7669000    1.4572594   -3.6240074   -2.0466048   0.26054692   -3.6240074    1.5774026  1217842 
 7670000    1.4563441   -3.6236128   -2.0472385   0.26146541   -3.6236128    1.5763743  1217871 
 7671000    1.4553631   -3.6229319   -2.0476506   0.26045041   -3.6229319    1.5752813  1217895 
 7672000    1.4556405   -3.6234356   -2.0478785   0.26215146   -3.6234356     1.575557  1217914 
 7673000    1.4562623   -3.6243322   -2.0481357   0.26074434   -3.6243322    1.5761965  1217940 
 7674000     1.455979   -3.6240358   -2.0481655   0.25762039   -3.6240358    1.5758704  1217955 
 7675000    1.4563286   -3.6246217   -2.0484001   0.26229022   -3.6246217    1.5762216  1217976 
 7676000    1.4565877   -3.6245055   -2.0480371   0.25884453   -3.6245055    1.5764684  1218002 
 7677000    1.4563754   -3.6241162   -2.0479165   0.25722887   -3.6241162    1.5761998  1218032 
 7678000    1.4564136    -3.624515   -2.0482933   0.25997264    -3.624515    1.5762217  1218047 
 7679000     1.455806   -3.6238615   -2.0483297   0.26560817   -3.6238615    1.5755318  1218072 
 7680000    1.4566449   -3.6248477    -2.048452   0.26338268   -3.6248477    1.5763957  1218106 
 7681000    1.4563377   -3.6243825   -2.0483439     0.262518   -3.6243825    1.5760386  1218125 
 7682000    1.4559703   -3.6242031   -2.0485854   0.26269582   -3.6242031    1.5756178  1218143 
 7683000    1.4566901   -3.6259061   -2.0495352   0.26125107   -3.6259061    1.5763709  1218163 
 7684000    1.4562739   -3.6248715   -2.0489808   0.26338232   -3.6248715    1.5758907  1218186 
 7685000    1.4571179     -3.62611   -2.0493396   0.25825431     -3.62611    1.5767704  1218212 
 7686000    1.4558769   -3.6248751   -2.0494684   0.26253877   -3.6248751    1.5754067  1218228 
 7687000    1.4565711   -3.6253845   -2.0492511   0.26116172   -3.6253845    1.5761334  1218247 
 7688000    1.4547885   -3.6236866   -2.0495196   0.26494636   -3.6236866     1.574167  1218276 
 7689000    1.4564929   -3.6259318   -2.0499568   0.25894222   -3.6259318     1.575975  1218304 
 7690000     1.456687   -3.6257158   -2.0495644   0.25870067   -3.6257158    1.5761514  1218330 
 7691000    1.4557843   -3.6244471   -2.0492841   0.26239631   -3.6244471     1.575163  1218339 
 7692000    1.4568808   -3.6258371   -2.0495199   0.26210924   -3.6258371    1.5763172  1218364 
 7693000    1.4573274   -3.6259531     -2.04918   0.26126796   -3.6259531    1.5767732  1218385 
 7694000    1.4574586   -3.6261221   -2.0492328   0.25683314   -3.6261221    1.5768892  1218405 
 7695000    1.4561747   -3.6254051   -2.0499308   0.25861426   -3.6254051    1.5754743  1218425 
 7696000    1.4564867   -3.6254907   -2.0497048   0.25936201   -3.6254907    1.5757859  1218445 
 7697000    1.4565661   -3.6259377   -2.0500943   0.25761615   -3.6259377    1.5758434  1218467 
 7698000    1.4568039   -3.6258142   -2.0497342   0.26136478   -3.6258142      1.57608  1218483 
 7699000    1.4570171   -3.6262972   -2.0500151    0.2583349   -3.6262972    1.5762821  1218505 
 7700000    1.4568651   -3.6262583   -2.0501587   0.26041878   -3.6262583    1.5760996  1218519 
 7701000    1.4567378   -3.6254108   -2.0494813   0.26203109   -3.6254108    1.5759295  1218544 
 7702000    1.4565945   -3.6256715   -2.0499202   0.26110739   -3.6256715    1.5757513  1218562 
 7703000     1.457737   -3.6264297    -2.049471   0.26186241   -3.6264297    1.5769587  1218584 
 7704000    1.4574913   -3.6261153   -2.0494469   0.26055213   -3.6261153    1.5766683  1218603 
 7705000    1.4570924   -3.6255836   -2.0493713    0.2654414   -3.6255836    1.5762123  1218622 
 7706000    1.4575723   -3.6264904   -2.0497875   0.26437738   -3.6264904     1.576703  1218644 
 7707000    1.4579303   -3.6268195   -2.0497707   0.26150912   -3.6268195    1.5770488  1218676 
 7708000    1.4573188   -3.6269767   -2.0506204    0.2585865   -3.6269767    1.5763563  1218700 
 7709000    1.4555852   -3.6256273   -2.0511708   0.26373221   -3.6256273    1.5744565  1218719 
 7710000    1.4577556   -3.6277191   -2.0509434   0.26042909   -3.6277191    1.5767757  1218741 
 7711000    1.4578003   -3.6270308    -2.050243   0.25994229   -3.6270308    1.5767878  1218769 
 7712000    1.4573317   -3.6262553   -2.0500002   0.26386314   -3.6262553    1.5762551  1218789 
 7713000    1.4577044   -3.6266569   -2.0500246   0.26545024   -3.6266569    1.5766323  1218809 
 7714000    1.4575178   -3.6262906   -2.0498924    0.2635546   -3.6262906    1.5763982  1218834 
 7715000    1.4571785   -3.6252314   -2.0492273    0.2692594   -3.6252314    1.5760041  1218855 
 7716000    1.4576494   -3.6264047   -2.0499185   0.26128752   -3.6264047    1.5764862  1218876 
 7717000    1.4593649   -3.6284957   -2.0501942   0.26024376   -3.6284957    1.5783015  1218907 
 7718000    1.4583761   -3.6285346   -2.0513349   0.26047378   -3.6285346    1.5771997  1218932 
 7719000    1.4571288   -3.6270528   -2.0512343   0.26294523   -3.6270528    1.5758185  1218957 
 7720000    1.4571774   -3.6265922   -2.0507522   0.25786924   -3.6265922      1.57584  1218981 
 7721000    1.4584465   -3.6280393   -2.0508489    0.2555069   -3.6280393    1.5771904  1218998 
 7722000    1.4577794   -3.6271072   -2.0506654   0.26173681   -3.6271072    1.5764418  1219019 
 7723000    1.4578748   -3.6277581    -2.051235   0.26096048   -3.6277581    1.5765231  1219036 
 7724000    1.4572091   -3.6270605   -2.0512741   0.26052218   -3.6270605    1.5757864  1219049 
 7725000    1.4565961   -3.6266306   -2.0515368   0.26374217   -3.6266306    1.5750938  1219072 
 7726000    1.4570077   -3.6272005   -2.0517004   0.26137069   -3.6272005    1.5755001  1219102 
 7727000    1.4574097   -3.6279654   -2.0520538   0.25963768   -3.6279654    1.5759115  1219120 
 7728000     1.456852   -3.6269803   -2.0516925   0.25979155   -3.6269803    1.5752878  1219136 
 7729000     1.457249   -3.6278214   -2.0521341   0.25941435   -3.6278214    1.5756874  1219159 
 7730000    1.4573378   -3.6283786   -2.0526173   0.25634923   -3.6283786    1.5757613  1219176 
 7731000    1.4561614    -3.627622   -2.0531611    0.2621934    -3.627622     1.574461  1219198 
 7732000     1.456891   -3.6282877   -2.0530675   0.25824427   -3.6282877    1.5752202  1219221 
 7733000    1.4555712   -3.6268545   -2.0530781   0.26404428   -3.6268545    1.5737764  1219234 
 7734000    1.4562811   -3.6273406   -2.0528264   0.26433706   -3.6273406    1.5745142  1219257 
 7735000    1.4580368   -3.6280403    -2.051655    0.2634482   -3.6280403    1.5763853  1219278 
 7736000    1.4573378   -3.6275133   -2.0519083   0.26516012   -3.6275133     1.575605  1219297 
 7737000    1.4582585   -3.6290017   -2.0524284   0.26014772   -3.6290017    1.5765733  1219318 
 7738000    1.4569893   -3.6282642   -2.0531018   0.26669785   -3.6282642    1.5751624  1219348 
 7739000    1.4572276   -3.6287337   -2.0533537   0.25959657   -3.6287337      1.57538  1219379 
 7740000    1.4578839   -3.6287968   -2.0527423    0.2616747   -3.6287968    1.5760545  1219406 
 7741000    1.4565563   -3.6280768   -2.0534769   0.26182753   -3.6280768    1.5745999  1219421 
 7742000    1.4574917   -3.6292736   -2.0536922   0.26007414   -3.6292736    1.5755814  1219444 
 7743000    1.4580305   -3.6295041   -2.0533751   0.26119114   -3.6295041     1.576129  1219471 
 7744000     1.457407   -3.6284932   -2.0530666   0.26156951   -3.6284932    1.5754266  1219493 
 7745000    1.4567575   -3.6273103   -2.0526233     0.269667   -3.6273103     1.574687  1219522 
 7746000    1.4568659   -3.6277861   -2.0530193   0.26022707   -3.6277861    1.5747668  1219551 
 7747000    1.4580835   -3.6288114   -2.0527712   0.26120767   -3.6288114    1.5760402  1219584 
 7748000    1.4568525   -3.6282812   -2.0536038   0.26064736   -3.6282812    1.5746774  1219609 
 7749000    1.4578431   -3.6292786   -2.0535512   0.26279459   -3.6292786    1.5757274  1219625 
 7750000    1.4577776   -3.6291865    -2.053548   0.25985808   -3.6291865    1.5756385  1219639 
 7751000    1.4566865   -3.6279577   -2.0535256   0.26350176   -3.6279577    1.5744321  1219660 
 7752000    1.4568984   -3.6279072    -2.053281   0.26443852   -3.6279072    1.5746262  1219687 
 7753000    1.4579451   -3.6293919   -2.0536666   0.25635185   -3.6293919    1.5757253  1219712 
 7754000    1.4565375   -3.6275013   -2.0533232   0.26163374   -3.6275013    1.5741781  1219732 
 7755000    1.4583344   -3.6299305   -2.0538388   0.26305965   -3.6299305    1.5760917  1219754 
 7756000    1.4582833   -3.6299527   -2.0539653   0.26156127   -3.6299527    1.5759875  1219792 
 7757000    1.4569974   -3.6286916   -2.0541314   0.26117815   -3.6286916    1.5745602  1219821 
 7758000    1.4576652   -3.6287282   -2.0534797   0.26469858   -3.6287282    1.5752485  1219847 
 7759000     1.458141   -3.6296054   -2.0538635   0.26654425   -3.6296054     1.575742  1219863 
 7760000    1.4597298   -3.6315332   -2.0540951   0.26196926   -3.6315332    1.5774382  1219879 
 7761000     1.458056    -3.629642   -2.0540435   0.26533845    -3.629642    1.5755985  1219903 
 7762000    1.4584202   -3.6297573   -2.0537912   0.26303896   -3.6297573    1.5759661  1219923 
 7763000    1.4579494   -3.6292564     -2.05383   0.26298931   -3.6292564    1.5754264  1219947 
 7764000    1.4590273   -3.6298145   -2.0532518   0.26758247   -3.6298145    1.5765627  1219969 
 7765000    1.4580905   -3.6296098   -2.0540917   0.26788915   -3.6296098    1.5755182  1219994 
 7766000    1.4581888   -3.6295307    -2.053936   0.26245917   -3.6295307    1.5755947  1220017 
 7767000    1.4586273   -3.6302295   -2.0541946   0.26410703   -3.6302295    1.5760349  1220043 
 7768000    1.4584197   -3.6310727   -2.0552905   0.25679192   -3.6310727    1.5757822  1220065 
 7769000    1.4582808   -3.6301354   -2.0545434   0.26487879   -3.6301354     1.575592  1220096 
 7770000     1.458043   -3.6306227   -2.0553044   0.26115461   -3.6306227    1.5753183  1220109 
 7771000    1.4586583   -3.6304772   -2.0545212   0.26038219   -3.6304772     1.575956  1220130 
 7772000    1.4582779   -3.6300754    -2.054555   0.26660583   -3.6300754    1.5755205  1220149 
 7773000     1.459545   -3.6311199   -2.0542577   0.25782974   -3.6311199    1.5768623  1220170 
 7774000    1.4574147   -3.6294428   -2.0549117   0.26631751   -3.6294428    1.5745311  1220193 
 7775000    1.4582343   -3.6305445   -2.0551538   0.26270963   -3.6305445    1.5753907  1220213 
 7776000    1.4578731   -3.6297486    -2.054792   0.26005465   -3.6297486    1.5749566  1220247 
 7777000    1.4592765   -3.6313005   -2.0548562   0.26410249   -3.6313005    1.5764443  1220269 
 7778000     1.457334   -3.6295535   -2.0552387   0.26907291   -3.6295535    1.5743149  1220293 
 7779000    1.4578883   -3.6302951   -2.0554215    0.2630735   -3.6302951    1.5748736  1220324 
 7780000    1.4584917   -3.6306972   -2.0551975   0.26371818   -3.6306972    1.5754997  1220344 
 7781000    1.4589607   -3.6313402    -2.055361   0.26346012   -3.6313402    1.5759792  1220365 
 7782000    1.4591706   -3.6312554   -2.0550882   0.26553719   -3.6312554    1.5761672  1220395 
 7783000    1.4588056   -3.6313026   -2.0555632   0.26570214   -3.6313026    1.5757394  1220421 
 7784000    1.4579745   -3.6309407   -2.0561249    0.2646468   -3.6309407    1.5748158  1220441 
 7785000    1.4583611   -3.6318203   -2.0566192   0.26320022   -3.6318203    1.5752011  1220466 
 7786000    1.4590092   -3.6317736   -2.0558983   0.26526046   -3.6317736    1.5758753  1220486 
 7787000    1.4595653    -3.632668   -2.0562218   0.26567173    -3.632668    1.5764463  1220509 
 7788000    1.4584796   -3.6322239   -2.0569748   0.26213079   -3.6322239    1.5752491  1220528 
 7789000    1.4588502     -3.63236   -2.0567365   0.26104212     -3.63236    1.5756235  1220548 
 7790000    1.4586038   -3.6320832   -2.0567503   0.26204178   -3.6320832    1.5753328  1220567 
 7791000    1.4585695   -3.6316726   -2.0564103    0.2620547   -3.6316726    1.5752623  1220593 
 7792000    1.4587063    -3.632039    -2.056656    0.2650018    -3.632039     1.575383  1220614 
 7793000    1.4590317   -3.6318125   -2.0561027   0.26610408   -3.6318125    1.5757099  1220633 
 7794000    1.4600092   -3.6322401   -2.0555005   0.26802389   -3.6322401    1.5767397  1220653 
 7795000    1.4599039   -3.6324034    -2.055802   0.26124111   -3.6324034    1.5766014  1220672 
 7796000    1.4573614   -3.6305661   -2.0567375   0.26674084   -3.6305661    1.5738286  1220693 
 7797000      1.45847     -3.63188   -2.0568774   0.26693322     -3.63188    1.5750025  1220711 
 7798000    1.4595176   -3.6332712   -2.0571761   0.25986403   -3.6332712    1.5760952  1220741 
 7799000    1.4580058   -3.6316932   -2.0572577    0.2632601   -3.6316932    1.5744355  1220762 
 7800000    1.4593399    -3.632378    -2.056538   0.26290507    -3.632378      1.57584  1220790 
 7801000    1.4593342   -3.6322511   -2.0564482   0.26147325   -3.6322511    1.5758029  1220814 
 7802000    1.4604548   -3.6331997   -2.0562139    0.2611962   -3.6331997    1.5769858  1220835 
 7803000    1.4584625    -3.631672   -2.0568568   0.26528205    -3.631672    1.5748152  1220850 
 7804000    1.4594173    -3.633042   -2.0572165   0.25654597    -3.633042    1.5758255  1220866 
 7805000    1.4575587    -3.631369   -2.0575864   0.26379736    -3.631369    1.5737826  1220894 
 7806000    1.4581493   -3.6318855   -2.0574859   0.26562994   -3.6318855    1.5743996  1220910 
 7807000    1.4590133   -3.6326235    -2.057322   0.26431379   -3.6326235    1.5753015  1220934 
 7808000    1.4595241   -3.6327939   -2.0569667   0.26268215   -3.6327939    1.5758272  1220954 
 7809000    1.4593834    -3.632869   -2.0572169   0.26489007    -3.632869     1.575652  1220972 
 7810000    1.4600358   -3.6330031   -2.0566686   0.26316714   -3.6330031    1.5763345  1220989 
 7811000    1.4595183   -3.6324853   -2.0567509   0.26620478   -3.6324853    1.5757345  1221021 
 7812000    1.4591977    -3.632577    -2.057226   0.26652372    -3.632577     1.575351  1221050 
 7813000    1.4581612   -3.6323019    -2.058119    0.2656375   -3.6323019    1.5741829  1221088 
 7814000    1.4597641    -3.634051   -2.0581582   0.26214866    -3.634051    1.5758928  1221104 
 7815000    1.4584014   -3.6325014    -2.058121   0.26572365   -3.6325014    1.5743804  1221136 
 7816000    1.4587387   -3.6338215   -2.0591002   0.26159434   -3.6338215    1.5747213  1221154 
 7817000     1.458647   -3.6338793   -2.0592751   0.26245111   -3.6338793    1.5746042  1221168 
 7818000    1.4584251   -3.6338602   -2.0595329   0.26411666   -3.6338602    1.5743273  1221197 
 7819000    1.4581433   -3.6335912   -2.0595875   0.26343867   -3.6335912    1.5740037  1221212 
 7820000     1.458203   -3.6338332   -2.0597933   0.26483953   -3.6338332    1.5740399  1221234 
 7821000    1.4585695   -3.6344318   -2.0600196   0.26036224   -3.6344318    1.5744123  1221252 
 7822000    1.4585642   -3.6346827   -2.0602955   0.26267822   -3.6346827    1.5743872  1221267 
 7823000    1.4583733   -3.6347826   -2.0606195   0.26216541   -3.6347826    1.5741631  1221281 
 7824000    1.4584562   -3.6341967   -2.0599802    0.2612021   -3.6341967    1.5742165  1221309 
 7825000    1.4585277   -3.6340157   -2.0597452   0.26205517   -3.6340157    1.5742705  1221327 
 7826000    1.4598554   -3.6349489   -2.0592647   0.26169999   -3.6349489    1.5756842  1221342 
 7827000    1.4593346   -3.6343647   -2.0592799   0.25840688   -3.6343647    1.5750847  1221371 
 7828000    1.4598873   -3.6345649   -2.0589146   0.26051557   -3.6345649    1.5756503  1221395 
 7829000    1.4592762   -3.6339111   -2.0589436   0.26207761   -3.6339111    1.5749674  1221413 
 7830000    1.4588823   -3.6336627   -2.0591422   0.26300558   -3.6336627    1.5745205  1221430 
 7831000    1.4597203   -3.6346412    -2.059246   0.26237751   -3.6346412    1.5753952  1221453 
 7832000    1.4603899   -3.6345062   -2.0584115   0.26485628   -3.6345062    1.5760947  1221471 
 7833000    1.4591291   -3.6340194   -2.0593087     0.263446   -3.6340194    1.5747107  1221489 
 7834000    1.4596089   -3.6344227   -2.0592148   0.26182612   -3.6344227    1.5752079  1221505 
 7835000    1.4598927    -3.634708   -2.0592286   0.26489732    -3.634708    1.5754793  1221532 
 7836000    1.4594652   -3.6349708    -2.059976   0.26060551   -3.6349708    1.5749948  1221550 
 7837000     1.458479   -3.6345536   -2.0606514   0.26139545   -3.6345536    1.5739021  1221572 
 7838000    1.4588533   -3.6341591   -2.0598852    0.2655516   -3.6341591    1.5742739  1221597 
 7839000    1.4588275   -3.6342006   -2.0599739   0.26067362   -3.6342006    1.5742267  1221612 
 7840000    1.4597872   -3.6352945   -2.0600528   0.26392116   -3.6352945    1.5752417  1221628 
 7841000    1.4590168   -3.6347158   -2.0603363   0.26273345   -3.6347158    1.5743794  1221652 
 7842000    1.4593532   -3.6351267   -2.0604049   0.26224326   -3.6351267    1.5747218  1221668 
 7843000    1.4584295   -3.6342497   -2.0605504   0.26490113   -3.6342497    1.5736993  1221688 
 7844000     1.458449    -3.634647   -2.0609537    0.2639654    -3.634647    1.5736933  1221709 
 7845000    1.4592669     -3.63555   -2.0610025    0.2622764     -3.63555    1.5745475  1221731 
 7846000    1.4591974   -3.6357675    -2.061322   0.25999084   -3.6357675    1.5744455  1221752 
 7847000    1.4589465   -3.6352927    -2.061145   0.26313208   -3.6352927    1.5741477  1221773 
 7848000    1.4586935   -3.6354702   -2.0616251   0.26884594   -3.6354702    1.5738451  1221796 
 7849000    1.4590054   -3.6356046   -2.0614579   0.26630393   -3.6356046    1.5741467  1221823 
 7850000    1.4595311   -3.6363072   -2.0616345   0.26233098   -3.6363072    1.5746727  1221855 
 7851000    1.4597061   -3.6355849   -2.0607569   0.26394584   -3.6355849     1.574828  1221881 
 7852000    1.4597197   -3.6358115   -2.0610048   0.26676218   -3.6358115    1.5748066  1221909 
 7853000    1.4590811   -3.6357122   -2.0616139   0.26483522   -3.6357122    1.5740983  1221924 
 7854000    1.4595705   -3.6363073   -2.0617144   0.26221096   -3.6363073    1.5745929  1221950 
 7855000    1.4595357   -3.6366529   -2.0621376   0.26476444   -3.6366529    1.5745154  1221981 
 7856000    1.4596025   -3.6360459   -2.0614907   0.26213121   -3.6360459    1.5745551  1222006 
 7857000    1.4595721   -3.6366363   -2.0621384   0.26427019   -3.6366363    1.5744979  1222025 
 7858000    1.4589604   -3.6358836   -2.0620687    0.2651345   -3.6358836    1.5738149  1222043 
 7859000    1.4596598   -3.6365212   -2.0619789   0.26899804   -3.6365212    1.5745423  1222064 
 7860000     1.458904   -3.6357866   -2.0620931   0.27087113   -3.6357866    1.5736936  1222090 
 7861000    1.4597073   -3.6367847    -2.062262    0.2614486   -3.6367847    1.5745226  1222119 
 7862000    1.4583771   -3.6354538   -2.0624007    0.2677795   -3.6354538    1.5730531  1222146 
 7863000      1.45871   -3.6361309   -2.0627446   0.26633652   -3.6361309    1.5733864  1222166 
 7864000    1.4575486     -3.63501   -2.0628955   0.26363431     -3.63501    1.5721144  1222181 
 7865000    1.4585296   -3.6364034   -2.0632541   0.26196948   -3.6364034    1.5731493  1222199 
 7866000    1.4600586   -3.6376305   -2.0628552   0.26072236   -3.6376305    1.5747752  1222217 
 7867000    1.4582289   -3.6358997   -2.0631236   0.26461727   -3.6358997    1.5727761  1222237 
 7868000    1.4590937   -3.6367652   -2.0630808   0.26469271   -3.6367652    1.5736844  1222256 
 7869000    1.4593303   -3.6371397   -2.0632246   0.26468905   -3.6371397    1.5739151  1222275 
 7870000    1.4600696   -3.6367857   -2.0620939   0.26403275   -3.6367857    1.5746918  1222291 
 7871000    1.4606778   -3.6381413   -2.0628284   0.26322581   -3.6381413     1.575313  1222318 
 7872000    1.4599809   -3.6368992   -2.0623649   0.26573871   -3.6368992    1.5745343  1222339 
 7873000    1.4607482   -3.6374546   -2.0621173   0.26227895   -3.6374546    1.5753374  1222358 
 7874000    1.4602403   -3.6373376   -2.0625712   0.26566379   -3.6373376    1.5747664  1222376 
 7875000    1.4603037   -3.6367479   -2.0619337   0.26546376   -3.6367479    1.5748142  1222392 
 7876000    1.4616426   -3.6383135   -2.0620877    0.2629767   -3.6383135    1.5762259  1222417 
 7877000    1.4614709     -3.63806   -2.0620386   0.26697633     -3.63806    1.5760214  1222432 
 7878000     1.460195   -3.6370282   -2.0624098   0.26608434   -3.6370282    1.5746184  1222453 
 7879000    1.4600898   -3.6373037   -2.0628361    0.2621249   -3.6373037    1.5744676  1222482 
 7880000    1.4593594   -3.6364283   -2.0627676   0.26522838   -3.6364283    1.5736607  1222497 
 7881000    1.4596826   -3.6367761   -2.0627914   0.26555366   -3.6367761    1.5739847  1222516 
 7882000    1.4605535   -3.6379184   -2.0630255   0.26246408   -3.6379184    1.5748929  1222540 
 7883000    1.4597283    -3.636992   -2.0630275   0.26743446    -3.636992    1.5739645  1222570 
 7884000    1.4605413   -3.6378298    -2.063017   0.26434193   -3.6378298    1.5748127  1222592 
 7885000    1.4597239   -3.6373355   -2.0634415   0.26863842   -3.6373355    1.5738941  1222621 
 7886000    1.4608819   -3.6382807   -2.0631613   0.26735596   -3.6382807    1.5751194  1222639 
 7887000    1.4594728   -3.6373372   -2.0637577   0.26521963   -3.6373372    1.5735795  1222655 
 7888000    1.4610357   -3.6390434   -2.0638046    0.2619634   -3.6390434    1.5752389  1222675 
 7889000    1.4594519   -3.6369229   -2.0634213    0.2702013   -3.6369229    1.5735017  1222698 
 7890000    1.4602759   -3.6378821   -2.0635177   0.26294402   -3.6378821    1.5743644  1222718 
 7891000    1.4613733   -3.6384034   -2.0628831   0.26621584   -3.6384034    1.5755203  1222739 
 7892000    1.4605296   -3.6372962   -2.0627125   0.26434667   -3.6372962    1.5745837  1222760 
 7893000    1.4607875   -3.6385253   -2.0636906    0.2645028   -3.6385253    1.5748348  1222781 
 7894000     1.460869   -3.6384508    -2.063559   0.26249071   -3.6384508    1.5748917  1222805 
 7895000    1.4607683   -3.6381227   -2.0633833   0.26139663   -3.6381227    1.5747394  1222839 
 7896000    1.4601979   -3.6380942   -2.0639993   0.26422154   -3.6380942    1.5740949  1222862 
 7897000    1.4589645   -3.6361079   -2.0633684   0.26650172   -3.6361079    1.5727395  1222882 
 7898000    1.4608682   -3.6386453   -2.0638742   0.26318023   -3.6386453    1.5747711  1222898 
 7899000    1.4604438   -3.6387217   -2.0644313   0.26574411   -3.6387217    1.5742904  1222916 
 7900000    1.4597822   -3.6386598   -2.0651083   0.26215364   -3.6386598    1.5735515  1222936 
 7901000    1.4592101   -3.6381388   -2.0652297   0.26405877   -3.6381388     1.572909  1222956 
 7902000    1.4591674   -3.6378828   -2.0650506   0.26662892   -3.6378828    1.5728322  1222980 
 7903000    1.4603903    -3.639068   -2.0649447   0.26271216    -3.639068    1.5741233  1223001 
 7904000     1.459136   -3.6377802   -2.0650345   0.26728593   -3.6377802    1.5727457  1223021 
 7905000    1.4596227   -3.6378851   -2.0646508   0.26253993   -3.6378851    1.5732343  1223049 
 7906000    1.4595059   -3.6380607   -2.0649807   0.26797759   -3.6380607      1.57308  1223071 
 7907000     1.459993   -3.6387677   -2.0651871   0.26590494   -3.6387677    1.5735806  1223090 
 7908000    1.4611022    -3.638909   -2.0641522   0.26309596    -3.638909    1.5747568  1223105 
 7909000    1.4618372   -3.6404417    -2.064916   0.26088325   -3.6404417    1.5755257  1223123 
 7910000    1.4619219   -3.6401939   -2.0646026   0.26134056   -3.6401939    1.5755912  1223143 
 7911000    1.4605329   -3.6391031   -2.0650475   0.27072469   -3.6391031    1.5740557  1223173 
 7912000    1.4599636   -3.6385361     -2.06513    0.2686667   -3.6385361    1.5734061  1223201 
 7913000    1.4604336   -3.6396877    -2.065797   0.26771623   -3.6396877    1.5738907  1223218 
 7914000    1.4598851   -3.6388794    -2.065612   0.26640822   -3.6388794    1.5732675  1223243 
 7915000    1.4598127   -3.6390199   -2.0658652   0.27038764   -3.6390199    1.5731547  1223270 
 7916000    1.4606222   -3.6400559   -2.0660379   0.26463372   -3.6400559     1.574018  1223277 
 7917000    1.4588591   -3.6385054   -2.0664092   0.26532605   -3.6385054    1.5720962  1223294 
 7918000    1.4604395    -3.640169   -2.0663954   0.26600794    -3.640169    1.5737736  1223314 
 7919000    1.4592734   -3.6394086   -2.0669199   0.26733578   -3.6394086    1.5724887  1223336 
 7920000    1.4597736   -3.6394106   -2.0664279   0.26472324   -3.6394106    1.5729827  1223371 
 7921000    1.4594981   -3.6390518   -2.0664084   0.26631921   -3.6390518    1.5726434  1223404 
 7922000    1.4598067   -3.6398016   -2.0668526   0.26558416   -3.6398016     1.572949  1223425 
 7923000    1.4602613   -3.6402673   -2.0668542   0.26254865   -3.6402673    1.5734131  1223445 
 7924000    1.4609282   -3.6409413   -2.0668366   0.26502266   -3.6409413    1.5741047  1223466 
 7925000    1.4602512   -3.6403546   -2.0670103   0.26375899   -3.6403546    1.5733443  1223490 
 7926000    1.4600436   -3.6401554   -2.0670707   0.26420756   -3.6401554    1.5730847  1223518 
 7927000    1.4614362   -3.6414896   -2.0669329   0.26105528   -3.6414896    1.5745568  1223540 
 7928000    1.4613385    -3.641473   -2.0670459    0.2617316    -3.641473    1.5744271  1223559 
 7929000    1.4601604    -3.640426   -2.0672978   0.26487055    -3.640426    1.5731282  1223582 
 7930000    1.4606918   -3.6409505   -2.0672768    0.2657274   -3.6409505    1.5736737  1223603 
 7931000    1.4602597    -3.640083    -2.066889   0.26723469    -3.640083     1.573194  1223614 
 7932000    1.4595662   -3.6397692   -2.0673507   0.26404964   -3.6397692    1.5724186  1223636 
 7933000    1.4597389   -3.6397397   -2.0671569   0.26627949   -3.6397397    1.5725828  1223653 
 7934000    1.4608133   -3.6409201   -2.0672107   0.26789918   -3.6409201    1.5737094  1223677 
 7935000    1.4607283   -3.6410336   -2.0674325   0.26616753   -3.6410336    1.5736011  1223690 
 7936000     1.461398   -3.6408651   -2.0665746   0.26324867   -3.6408651    1.5742904  1223715 
 7937000    1.4604947   -3.6402369   -2.0669414   0.26953682   -3.6402369    1.5732955  1223732 
 7938000    1.4593967   -3.6388242   -2.0667411   0.27296685   -3.6388242    1.5720831  1223755 
 7939000    1.4613962   -3.6407135    -2.066497   0.26510026   -3.6407135    1.5742165  1223771 
 7940000    1.4621171   -3.6413818   -2.0664171   0.26848296   -3.6413818    1.5749647  1223793 
 7941000    1.4613738   -3.6405389   -2.0664006   0.26382285   -3.6405389    1.5741383  1223813 
 7942000    1.4607845   -3.6402723   -2.0667882   0.26914737   -3.6402723    1.5734842  1223828 
 7943000      1.46149   -3.6412339   -2.0670271   0.26609725   -3.6412339    1.5742068  1223857 
 7944000    1.4618808   -3.6411601   -2.0665657   0.26735827   -3.6411601    1.5745943  1223883 
 7945000    1.4609838   -3.6403919   -2.0667921    0.2664274   -3.6403919    1.5735998  1223905 
 7946000      1.46162   -3.6405595   -2.0663013   0.27008396   -3.6405595    1.5742582  1223926 
 7947000    1.4610361   -3.6403852   -2.0667752   0.26618488   -3.6403852      1.57361  1223941 
 7948000    1.4620704   -3.6414397   -2.0667531   0.26372716   -3.6414397    1.5746866  1223970 
 7949000     1.461288   -3.6409386   -2.0671165   0.26511968   -3.6409386    1.5738221  1223987 
 7950000    1.4618974   -3.6411816   -2.0667289   0.26292129   -3.6411816    1.5744527  1224007 
 7951000    1.4606676    -3.640012   -2.0669082   0.26985812    -3.640012    1.5731038  1224026 
 7952000    1.4627651   -3.6419332   -2.0665898   0.26348038   -3.6419332    1.5753434  1224041 
 7953000    1.4620967   -3.6419678   -2.0673713   0.26636331   -3.6419678    1.5745966  1224062 
 7954000    1.4622141   -3.6419843   -2.0672869   0.26555248   -3.6419843    1.5746973  1224082 
 7955000    1.4608426   -3.6404037   -2.0672155   0.27176404   -3.6404037    1.5731882  1224107 
 7956000    1.4618326   -3.6417113   -2.0674892   0.26669921   -3.6417113    1.5742221  1224132 
 7957000     1.461768   -3.6416876   -2.0675672   0.26747711   -3.6416876    1.5741204  1224157 
 7958000     1.461705   -3.6417394   -2.0677009   0.26807556   -3.6417394    1.5740385  1224168 
 7959000    1.4627844    -3.642075   -2.0669089   0.27040373    -3.642075    1.5751661  1224195 
 7960000    1.4640528   -3.6437801    -2.067265   0.26448835   -3.6437801    1.5765151  1224208 
 7961000    1.4613519   -3.6423543   -2.0687693   0.26995884   -3.6423543     1.573585  1224225 
 7962000    1.4617321   -3.6425686      -2.0686    0.2685384   -3.6425686    1.5739687  1224245 
 7963000    1.4617003   -3.6426296   -2.0687338   0.26626632   -3.6426296    1.5738958  1224275 
 7964000     1.461202   -3.6426789   -2.0693389   0.26544144   -3.6426789      1.57334  1224290 
 7965000    1.4618513   -3.6430849   -2.0690806    0.2657797   -3.6430849    1.5740044  1224317 
 7966000    1.4616365   -3.6434935   -2.0697602   0.26238677   -3.6434935    1.5737333  1224348 
 7967000    1.4615147   -3.6431054   -2.0695328   0.26804428   -3.6431054    1.5735726  1224371 
 7968000    1.4621698   -3.6441339   -2.0698831   0.26280953   -3.6441339    1.5742509  1224392 
 7969000      1.46044   -3.6425317    -2.070174   0.26903287   -3.6425317    1.5723577  1224416 
 7970000    1.4609241   -3.6422842   -2.0694387   0.26905446   -3.6422842    1.5728455  1224442 
 7971000    1.4615679   -3.6430681   -2.0695642   0.26677316   -3.6430681    1.5735039  1224469 
 7972000    1.4629315   -3.6440209   -2.0690785   0.26778618   -3.6440209    1.5749424  1224492 
 7973000    1.4617852   -3.6430923   -2.0694148    0.2660463   -3.6430923    1.5736775  1224516 
 7974000    1.4619969    -3.644127   -2.0702473   0.26432444    -3.644127    1.5738797  1224536 
 7975000    1.4613249   -3.6434365   -2.0703047   0.26662026   -3.6434365    1.5731318  1224555 
 7976000    1.4614378   -3.6440338    -2.070801   0.26827012   -3.6440338    1.5732328  1224571 
 7977000    1.4601246   -3.6423212   -2.0705329   0.26804321   -3.6423212    1.5717883  1224595 
 7978000    1.4609069   -3.6432735     -2.07067   0.26699117   -3.6432735    1.5726035  1224616 
 7979000    1.4603601   -3.6432819   -2.0712888   0.26844205   -3.6432819    1.5719931  1224633 
 7980000    1.4604413   -3.6429096   -2.0708625   0.26503628   -3.6429096    1.5720471  1224659 
 7981000    1.4616356   -3.6441232   -2.0708124   0.26334537   -3.6441232    1.5733108  1224676 
 7982000    1.4614838   -3.6443465   -2.0712235   0.26822431   -3.6443465     1.573123  1224695 
 7983000    1.4607709   -3.6440847   -2.0717637   0.26705581   -3.6440847     1.572321  1224722 
 7984000    1.4601509   -3.6435975   -2.0719734   0.26568637   -3.6435975    1.5716241  1224745 
 7985000    1.4608073   -3.6446981   -2.0723931   0.26397877   -3.6446981     1.572305  1224765 
 7986000    1.4609649   -3.6440369   -2.0715777   0.26969636   -3.6440369    1.5724592  1224777 
 7987000    1.4614404   -3.6445459   -2.0716082   0.26461367   -3.6445459    1.5729376  1224803 
 7988000    1.4615414   -3.6441886   -2.0711603   0.26115238   -3.6441886    1.5730283  1224817 
 7989000    1.4618895    -3.644785   -2.0714038   0.26616781    -3.644785    1.5733811  1224834 
 7990000    1.4616021   -3.6446329   -2.0715881   0.26414858   -3.6446329    1.5730448  1224855 
 7991000    1.4607579   -3.6445305    -2.072425   0.26193936   -3.6445305    1.5721055  1224879 
 7992000    1.4613277   -3.6448844   -2.0721861   0.26425372   -3.6448844    1.5726982  1224895 
 7993000    1.4617046   -3.6452409   -2.0721706   0.26656886   -3.6452409    1.5730704  1224921 
 7994000    1.4607686    -3.643805   -2.0717637   0.26798175    -3.643805    1.5720413  1224938 
 7995000    1.4611202   -3.6443543   -2.0719628   0.26711453   -3.6443543    1.5723914  1224960 
 7996000    1.4613816   -3.6449901   -2.0723444   0.26487766   -3.6449901    1.5726458  1224981 
 7997000    1.4612233   -3.6441905   -2.0717434   0.27108835   -3.6441905    1.5724471  1225003 
 7998000    1.4617829   -3.6444529   -2.0714357   0.26517971   -3.6444529    1.5730172  1225028 
 7999000    1.4629039   -3.6454843   -2.0712903   0.26260458   -3.6454843     1.574194  1225051 
 8000000    1.4609846   -3.6435806   -2.0714815   0.26872846   -3.6435806    1.5720991  1225074 
Loop time of 19157.4 on 192 procs for 5000000 steps with 1225074 atoms

Performance: 112750.250 tau/day, 260.996 timesteps/s
99.4% CPU use with 192 MPI tasks x 1 OpenMP threads

MPI task timing breakdown:
Section |  min time  |  avg time  |  max time  |%varavg|  %CPU | %total
-----------------------------------------------------------------------
Pair    | 7144.2     | 8894.3     | 9796.6     | 712.9 |  99.3 | 46.43
Bond    | 3.5426     | 3.7645     | 4.1342     |   5.7 | 100.0 |  0.02
Neigh   | 3681.4     | 4254.4     | 4524.7     | 285.2 |  99.6 | 22.21
Comm    | 2043.1     | 3785.9     | 5663.3     |1221.1 |  99.2 | 19.76
Output  | 264.46     | 265.62     | 265.64     |   0.5 |  99.3 |  1.39
Modify  | 1254       | 1436.8     | 2531.9     | 853.7 |  99.4 |  7.50
Other   |            | 516.6      |            |       |       |  2.70

Nlocal:        6380.59 ave        6588 max        6197 min
Histogram: 3 5 13 43 50 40 24 12 1 1
Nghost:        6437.53 ave        6962 max        4897 min
Histogram: 28 4 0 0 0 0 0 5 92 63
Neighs:        197275.0 ave      210183 max      173440 min
Histogram: 9 6 0 4 14 31 39 37 33 19

Total # of neighbors = 37876803
Ave neighs/atom = 30.917971
Ave special neighs/atom = 0.0000000
Neighbor list builds = 505000
Dangerous builds = 450000

write_restart   restart_write.dat
System init for write_restart ...
write_data	data.write
System init for write_data ...
WARNING: Not all mixed pair coeffs generated from mixing. Use write_data with 'pair ij' option to store all pair coeffs. (src/write_data.cpp:312)

Total wall time: 5:19:22
