LAMMPS (24 Dec 2020)
OMP_NUM_THREADS environment is not set. Defaulting to 1 thread. (src/comm.cpp:94)
  using 1 OpenMP thread(s) per MPI task
# Simple rigid body system
# needed variables: startTemp, temp

units		lj
atom_style	full
dimension 	3
boundary	p p f
pair_style	lj/cut/opt 2.5


variable 	sigma		equal 1.0
variable 	epsilon 	equal 1.0


region		box block 0 160 0 160 0 160
create_box 	3 box
Created orthogonal box = (0.0000000 0.0000000 0.0000000) to (160.00000 160.00000 160.00000)
  6 by 4 by 6 MPI processor grid
lattice 	sc 1.0
Lattice spacing in x,y,z = 1.0000000 1.0000000 1.0000000

create_atoms 	1 region box
Created 4096000 atoms
  create_atoms CPU = 0.110 seconds

mass		1 1.0
mass		2 1.0
mass		3 1.0


group		solvent type 1
4096000 atoms in group solvent


velocity 	solvent create ${startTemp} 563435 loop geom
velocity 	solvent create 0.5 563435 loop geom

read_data	data.vac add append
Reading data file ...
  orthogonal box = (0.0000000 0.0000000 0.0000000) to (160.00000 160.00000 320.00000)
  4 by 4 by 9 MPI processor grid
Finding 1-2 1-3 1-4 neighbors ...
  special bond factors lj:    0        0        0       
  special bond factors coul:  0        0        0       
     0 = max # of 1-2 neighbors
     0 = max # of 1-3 neighbors
     0 = max # of 1-4 neighbors
     1 = max # of special neighbors
  special bonds CPU = 0.938 seconds
  read_data CPU = 0.976 seconds

neighbor 	0.4 bin

pair_coeff	1 1 1.0 1.0
pair_coeff	2 2 0.0 0.0
pair_coeff	3 3 0.0 0.0
pair_coeff	2 3 0.0 0.0
pair_coeff	1 2*3 0.0 0.0

pair_modify 	shift yes


balance 	1.05 shift z 10 1.05
Balancing ...
Neighbor list info ...
  update every 1 steps, delay 10 steps, check yes
  max neighbors/atom: 2000, page size: 100000
  master list distance cutoff = 2.9
  ghost atom cutoff = 2.9
  binsize = 1.45, bins = 111 111 221
  1 neighbor lists, perpetual/occasional/extra = 1 0 0
  (1) pair lj/cut/opt, perpetual
      attributes: half, newton on
      pair build: half/bin/newton
      stencil: half/bin/3d/newton
      bin: standard
 rebalancing time: 0.059 seconds
  iteration count = 5
  initial/final maximal load/proc = 57600.000 41600.000
  initial/final imbalance factor  = 2.0250000 1.4625000
  x cuts: 0.0000000 0.25000000 0.50000000 0.75000000 1.0000000
  y cuts: 0.0000000 0.25000000 0.50000000 0.75000000 1.0000000
  z cuts: 0.0000000 0.052083333 0.10416667 0.15972222 0.22569444 0.27430556 0.31944444 0.37500000 0.45486111 1.0000000


####################### WALLS ###########################


region	       low block  EDGE EDGE EDGE EDGE 0 2

region 	       top block  EDGE EDGE EDGE EDGE 159 160


delete_atoms   region low
WARNING: Ignoring 'compress yes' for molecular system (src/delete_atoms.cpp:125)
Deleted 76800 atoms, new total = 4019200

delete_atoms   region top
WARNING: Ignoring 'compress yes' for molecular system (src/delete_atoms.cpp:125)
Deleted 25600 atoms, new total = 3993600


variable       epsilonWall equal 2*${epsilon}
variable       epsilonWall equal 2*1

variable       cutoffTop   equal   0.7147*${sigma}
variable       cutoffTop   equal   0.7147*1

variable       cutoffLow   equal   3*${sigma}
variable       cutoffLow   equal   3*1


fix            topWall all wall/lj93 zhi EDGE                ${epsilonWall} ${sigma} ${cutoffTop} units box
fix            topWall all wall/lj93 zhi EDGE                2 ${sigma} ${cutoffTop} units box
fix            topWall all wall/lj93 zhi EDGE                2 1 ${cutoffTop} units box
fix            topWall all wall/lj93 zhi EDGE                2 1 0.7147 units box

fix            lowWall all wall/lj93 zlo EDGE                ${epsilonWall} ${sigma} ${cutoffLow} units box
fix            lowWall all wall/lj93 zlo EDGE                2 ${sigma} ${cutoffLow} units box
fix            lowWall all wall/lj93 zlo EDGE                2 1 ${cutoffLow} units box
fix            lowWall all wall/lj93 zlo EDGE                2 1 3 units box


###################### COMPUTES ##########################

compute        bin1 solvent chunk/atom bin/1d z upper 1.0



######################	FIXES ############################


fix 		peclet solvent ave/chunk 1000 1 1000 bin1 density/number norm 		 none ave one file density.profile

fix 		2 solvent nve

## Thermostat


region		regthermo block EDGE EDGE EDGE EDGE 0 20

group 		thermo dynamic solvent region regthermo every 1000
dynamic group thermo defined

fix 		3 thermo langevin ${startTemp} ${temp} 10 156453
fix 		3 thermo langevin 0.5 ${temp} 10 156453
fix 		3 thermo langevin 0.5 .5 10 156453



#### Load balancing


fix 		bal all balance 1000 1.05 shift z 10 1.05


############### Diagnostics and computes ###################
#compute 	com cube	  rigid/local	1 mol x y z
#compute 	quat cube	  rigid/local	1 mol quatw quati quatj quatk

thermo 		1000
thermo_style 	custom step temp epair evdwl etotal press pe ke vol

dump		1 all custom 100000 dump.lammpstrj id mol type x y z
dump 		2 all image 10000 image.*.png type type
dump 		3 all movie 1000 movie.avi type type
#dump 		com cube local 1000 dump.*.xyz c_com[*]
#dump		quat cube      local 1000 dump.*.quat c_quat[*]


#restart 	500000 restart.dat
timestep 	0.005
timer 		full
New timer settings: style=full  mode=nosync  timeout=off


run		1000000
Per MPI rank memory allocation (min/avg/max) = 30.97 | 35.01 | 39.70 Mbytes
Step Temp E_pair E_vdwl TotEng Press PotEng KinEng Volume 
       0   0.49997217   -3.3137429   -3.3137429   -2.5637849    8.4475947   -3.3137429   0.74995807      8192000 
    1000    1.4168548   -4.8199484   -4.8199484   -2.6946667    4.0892393   -4.8199484    2.1252817      8192000 
    2000    1.3815818   -4.8910929   -4.8910929   -2.8187208     2.825964   -4.8910929    2.0723721      8192000 
    3000    1.3249008   -4.9026462   -4.9026462   -2.9152956    1.8442205   -4.9026462    1.9873507      8192000 
    4000    1.3034616   -4.9256944   -4.9256944   -2.9705024   0.81298717   -4.9256944    1.9551919      8192000 
    5000    1.2399352   -4.8442959   -4.8442959   -2.9843936   0.13656991   -4.8442959    1.8599023      8192000 
    6000    1.1636089    -4.725696    -4.725696    -2.980283  -0.18143769    -4.725696     1.745413      8192000 
    7000     1.136232   -4.6746601   -4.6746601   -2.9703125  -0.15246361   -4.6746601    1.7043475      8192000 
    8000    1.1520952   -4.6914575   -4.6914575   -2.9633152  0.012990998   -4.6914575    1.7281423      8192000 
    9000      1.16202   -4.7078519   -4.7078519   -2.9648222   0.10329977   -4.7078519    1.7430296      8192000 
   10000    1.1623543   -4.7160165   -4.7160165   -2.9724854   0.13964722   -4.7160165    1.7435311      8192000 
   11000    1.1588836   -4.7188096   -4.7188096   -2.9804846   0.14186064   -4.7188096    1.7383249      8192000 
   12000      1.15863   -4.7232091   -4.7232091   -2.9852646   0.14068691   -4.7232091    1.7379445      8192000 
   13000    1.1635702   -4.7340448   -4.7340448     -2.98869   0.17871659   -4.7340448    1.7453548      8192000 
   14000    1.1668086   -4.7426909   -4.7426909   -2.9924784   0.20982588   -4.7426909    1.7502124      8192000 
   15000    1.1641723   -4.7428739   -4.7428739   -2.9966159   0.20289338   -4.7428739    1.7462579      8192000 
   16000    1.1604462    -4.740897    -4.740897   -3.0002282   0.18534211    -4.740897    1.7406688      8192000 
   17000    1.1584921   -4.7412156   -4.7412156   -3.0034778   0.18436259   -4.7412156    1.7377378      8192000 
   18000     1.160431   -4.7473977   -4.7473977   -3.0067516   0.19787883   -4.7473977    1.7406461      8192000 
   19000    1.1621074   -4.7533814   -4.7533814   -3.0102208   0.21547718   -4.7533814    1.7431606      8192000 
   20000    1.1624952   -4.7574173   -4.7574173   -3.0136749   0.22128948   -4.7574173    1.7437424      8192000 
   21000     1.162154   -4.7599467   -4.7599467   -3.0167161   0.22812472   -4.7599467    1.7432306      8192000 
   22000     1.165506   -4.7692494   -4.7692494   -3.0209908   0.41687916   -4.7692494    1.7482586      8192000 
   23000    1.1667399   -4.7741267   -4.7741267   -3.0240172     1.114643   -4.7741267    1.7501094      8192000 
   24000    1.1657542   -4.7756353   -4.7756353   -3.0270044    1.8224068   -4.7756353    1.7486309      8192000 
   25000    1.1680572   -4.7822201   -4.7822201   -3.0301348    2.4839572   -4.7822201    1.7520853      8192000 
   26000     1.172181   -4.7912882   -4.7912882   -3.0330171    2.1196983   -4.7912882    1.7582711      8192000 
   27000    1.1722542   -4.7937382   -4.7937382   -3.0353573    1.5883383   -4.7937382    1.7583809      8192000 
   28000      1.15962   -4.7770898   -4.7770898   -3.0376603    1.1041296   -4.7770898    1.7394295      8192000 
   29000    1.1164129   -4.7153526   -4.7153526   -3.0407337   0.74721685   -4.7153526    1.6746189      8192000 
   30000    1.0636503   -4.6397459   -4.6397459   -3.0442709   0.46300126   -4.6397459     1.595475      8192000 
   31000    1.0126462   -4.5668437   -4.5668437   -3.0478748   0.23595627   -4.5668437     1.518969      8192000 
   32000    0.9656298   -4.4996951   -4.4996951   -3.0512508  0.068886376   -4.4996951    1.4484443      8192000 
   33000    0.9243603   -4.4416277   -4.4416277   -3.0550876 -0.032605535   -4.4416277    1.3865401      8192000 
   34000    0.8978978   -4.4056976   -4.4056976   -3.0588512 -0.077549027   -4.4056976    1.3468464      8192000 
   35000   0.88425362   -4.3889999   -4.3889999   -3.0626198 -0.082852682   -4.3889999    1.3263801      8192000 
   36000   0.88321094   -4.3917259   -4.3917259   -3.0669098 -0.055327856   -4.3917259    1.3248161      8192000 
   37000   0.89120754   -4.4078968   -4.4078968   -3.0710858 -0.0018578568   -4.4078968     1.336811      8192000 
   38000   0.90265102   -4.4294964   -4.4294964   -3.0755202  0.062718453   -4.4294964    1.3539762      8192000 
   39000   0.91015277    -4.445643    -4.445643   -3.0804142   0.12020605    -4.445643    1.3652288      8192000 
   40000   0.91211669   -4.4536484   -4.4536484   -3.0854737   0.14086075   -4.4536484    1.3681747      8192000 
   41000    0.9108618   -4.4565236   -4.4565236   -3.0902313   0.15237161   -4.4565236    1.3662924      8192000 
   42000   0.91036943   -4.4611704   -4.4611704   -3.0956166   0.16542658   -4.4611704    1.3655538      8192000 
   43000   0.90880093   -4.4642319   -4.4642319   -3.1010308   0.17041021   -4.4642319    1.3632011      8192000 
   44000   0.90387002   -4.4626575   -4.4626575   -3.1068528   0.15613691   -4.4626575    1.3558047      8192000 
   45000   0.89437901   -4.4544669   -4.4544669   -3.1128987   0.12698344   -4.4544669    1.3415682      8192000 
   46000    0.8839277   -4.4448612   -4.4448612     -3.11897  0.087278573   -4.4448612    1.3258912      8192000 
   47000   0.87510757   -4.4373801   -4.4373801   -3.1247191  0.052530508   -4.4373801     1.312661      8192000 
   48000   0.86753082   -4.4315583   -4.4315583   -3.1302624  0.028163655   -4.4315583    1.3012959      8192000 
   49000   0.86122382   -4.4276441   -4.4276441   -3.1358087  0.012696709   -4.4276441    1.2918354      8192000 
   50000   0.85745728   -4.4278765   -4.4278765   -3.1416909 0.0043585252   -4.4278765    1.2861856      8192000 
   51000   0.85782871   -4.4341711   -4.4341711   -3.1474284 0.0092169434   -4.4341711    1.2867427      8192000 
   52000   0.86088066   -4.4442877   -4.4442877    -3.152967  0.030508294   -4.4442877    1.2913207      8192000 
   53000   0.86509772   -4.4559759   -4.4559759   -3.1583296  0.053407595   -4.4559759    1.2976463      8192000 
   54000   0.87002181     -4.46873     -4.46873   -3.1636976  0.077885146     -4.46873    1.3050324      8192000 
   55000   0.87360569   -4.4795685   -4.4795685   -3.1691603   0.10160808   -4.4795685    1.3104082      8192000 
   56000   0.87579058   -4.4882074   -4.4882074   -3.1745218   0.11588737   -4.4882074    1.3136855      8192000 
   57000   0.87571322   -4.4934568   -4.4934568   -3.1798873   0.11930841   -4.4934568    1.3135695      8192000 
   58000   0.87301652   -4.4946998   -4.4946998   -3.1851754    0.1095709   -4.4946998    1.3095245      8192000 
   59000   0.86921511   -4.4939126   -4.4939126   -3.1900902  0.090667161   -4.4939126    1.3038223      8192000 
   60000   0.86389465   -4.4909767   -4.4909767   -3.1951351  0.070711917   -4.4909767    1.2958417      8192000 
   61000    0.8597257   -4.4897362   -4.4897362    -3.200148  0.054551167   -4.4897362    1.2895882      8192000 
   62000   0.85705436   -4.4906112   -4.4906112     -3.20503  0.045334891   -4.4906112    1.2855812      8192000 
   63000   0.85607925   -4.4939795   -4.4939795   -3.2098609  0.045334989   -4.4939795    1.2841186      8192000 
   64000   0.85769895   -4.5013865   -4.5013865   -3.2148384  0.054892868   -4.5013865    1.2865481      8192000 
   65000    0.8619768   -4.5128041   -4.5128041   -3.2198393    0.0757435   -4.5128041    1.2929649      8192000 
   66000   0.86771221   -4.5265792   -4.5265792   -3.2250112   0.10633143   -4.5265792     1.301568      8192000 
   67000   0.87442547   -4.5420792   -4.5420792   -3.2304414   0.13887545   -4.5420792    1.3116379      8192000 
   68000   0.88254866    -4.559793    -4.559793   -3.2359704   0.17783537    -4.559793    1.3238227      8192000 
   69000   0.89127607   -4.5787264   -4.5787264   -3.2418126   0.21984393   -4.5787264    1.3369138      8192000 
   70000   0.90019966   -4.5979292   -4.5979292     -3.24763    0.2730107   -4.5979292    1.3502991      8192000 
   71000   0.91011835   -4.6195029   -4.6195029   -3.2543257   0.33870596   -4.6195029    1.3651772      8192000 
   72000   0.92007137   -4.6419145   -4.6419145   -3.2618078   0.42164043   -4.6419145    1.3801067      8192000 
   73000   0.92806661    -4.662624    -4.662624   -3.2705244   0.50683131    -4.662624    1.3920996      8192000 
   74000   0.93453141   -4.6818977   -4.6818977   -3.2801009   0.58221905   -4.6818977    1.4017968      8192000 
   75000   0.93875467   -4.6981313   -4.6981313   -3.2899996   0.63875524   -4.6981313    1.4081316      8192000 
   76000   0.94008645   -4.7097371   -4.7097371   -3.2996077   0.67065061   -4.7097371    1.4101293      8192000 
   77000   0.93743121   -4.7148446   -4.7148446   -3.3086982   0.67193523   -4.7148446    1.4061465      8192000 
   78000   0.93161672   -4.7150016   -4.7150016   -3.3175769   0.64646047   -4.7150016    1.3974247      8192000 
   79000   0.92305554   -4.7103074   -4.7103074   -3.3257244   0.59143828   -4.7103074     1.384583      8192000 
   80000   0.91033701   -4.6989877   -4.6989877   -3.3334826   0.51314356   -4.6989877    1.3655052      8192000 
   81000   0.89471907    -4.682731    -4.682731   -3.3406528    0.4195605    -4.682731    1.3420783      8192000 
   82000   0.87796016    -4.663841    -4.663841   -3.3469011   0.32282568    -4.663841    1.3169399      8192000 
   83000   0.86009126   -4.6424613   -4.6424613   -3.3523247   0.22885278   -4.6424613    1.2901366      8192000 
   84000    0.8422389   -4.6200133   -4.6200133   -3.3566553   0.14462757   -4.6200133     1.263358      8192000 
   85000   0.82522312   -4.5979827   -4.5979827   -3.3601483  0.071708505   -4.5979827    1.2378344      8192000 
   86000    0.8084124   -4.5761005   -4.5761005   -3.3634822  0.011322111   -4.5761005    1.2126183      8192000 
   87000   0.79308339    -4.555723    -4.555723   -3.3660982 -0.038327896    -4.555723    1.1896248      8192000 
   88000   0.78060042   -4.5394599   -4.5394599   -3.3685596 -0.075342984   -4.5394599    1.1709003      8192000 
   89000   0.77194058   -4.5289321   -4.5289321   -3.3710215 -0.095890264   -4.5289321    1.1579106      8192000 
   90000   0.76916949    -4.526949    -4.526949    -3.373195 -0.099836698    -4.526949    1.1537539      8192000 
   91000   0.77114181    -4.532426    -4.532426   -3.3757136 -0.085323365    -4.532426    1.1567124      8192000 
   92000   0.77666871   -4.5433383   -4.5433383   -3.3783355 -0.057999134   -4.5433383    1.1650028      8192000 
   93000   0.78419247    -4.557576    -4.557576   -3.3812876 -0.025519483    -4.557576    1.1762884      8192000 
   94000   0.79057891   -4.5706739   -4.5706739   -3.3848058 0.0032165518   -4.5706739    1.1858681      8192000 
   95000   0.79560816   -4.5813152   -4.5813152   -3.3879032  0.025956286   -4.5813152    1.1934119      8192000 
   96000   0.79910507   -4.5895639   -4.5895639   -3.3909065  0.045599812   -4.5895639    1.1986573      8192000 
   97000   0.80181625   -4.5964202   -4.5964202   -3.3936961  0.052787587   -4.5964202    1.2027241      8192000 
   98000   0.80114749   -4.5986603   -4.5986603   -3.3969394   0.05471306   -4.5986603    1.2017209      8192000 
   99000   0.79806157    -4.597115    -4.597115   -3.4000229  0.046306178    -4.597115    1.1970921      8192000 
  100000   0.79324358   -4.5929649   -4.5929649   -3.4030999  0.023976746   -4.5929649    1.1898651      8192000 
  101000   0.78785772   -4.5878179   -4.5878179   -3.4060316 0.0012028269   -4.5878179    1.1817863      8192000 
  102000   0.78229161    -4.582703    -4.582703   -3.4092659 -0.017768356    -4.582703    1.1734371      8192000 
  103000   0.77903873   -4.5806288   -4.5806288    -3.412071 -0.027192129   -4.5806288    1.1685578      8192000 
  104000   0.77810628   -4.5820982   -4.5820982   -3.4149391 -0.029102459   -4.5820982    1.1671591      8192000 
  105000    0.7796478   -4.5873762   -4.5873762   -3.4179048 -0.020184141   -4.5873762    1.1694714      8192000 
  106000   0.78323547   -4.5956421   -4.5956421   -3.4207892 -0.00047624482   -4.5956421    1.1748529      8192000 
  107000   0.78794686   -4.6055424   -4.6055424   -3.4236224   0.01985018   -4.6055424      1.18192      8192000 
  108000    0.7917421   -4.6141263   -4.6141263   -3.4265135  0.038122138   -4.6141263    1.1876129      8192000 
  109000   0.79367716   -4.6200763   -4.6200763   -3.4295609  0.049178384   -4.6200763    1.1905154      8192000 
  110000   0.79280154   -4.6217283   -4.6217283   -3.4325263  0.048499195   -4.6217283     1.189202      8192000 
  111000   0.78975286   -4.6195967   -4.6195967   -3.4349677  0.038057862   -4.6195967     1.184629      8192000 
  112000   0.78623216   -4.6168617   -4.6168617   -3.4375137  0.018989881   -4.6168617    1.1793479      8192000 
  113000   0.78106734   -4.6120031   -4.6120031   -3.4404024 0.0028901419   -4.6120031    1.1716007      8192000 
  114000   0.77654509   -4.6080771   -4.6080771   -3.4432597 -0.0097171303   -4.6080771    1.1648173      8192000 
  115000   0.77433622   -4.6075478   -4.6075478   -3.4460438 -0.017841133   -4.6075478     1.161504      8192000 
  116000   0.77457789   -4.6104499   -4.6104499   -3.4485834 -0.016764605   -4.6104499    1.1618665      8192000 
  117000   0.77638068    -4.615632    -4.615632   -3.4510613 -0.005892904    -4.615632    1.1645707      8192000 
  118000   0.77864835   -4.6219551   -4.6219551   -3.4539829 0.0092657648   -4.6219551    1.1679722      8192000 
  119000   0.78191839   -4.6296115   -4.6296115   -3.4567342  0.021469065   -4.6296115    1.1728773      8192000 
  120000   0.78440819   -4.6357679   -4.6357679   -3.4591559  0.034957971   -4.6357679     1.176612      8192000 
  121000   0.78524773   -4.6395484   -4.6395484   -3.4616771  0.041601521   -4.6395484    1.1778713      8192000 
  122000   0.78448239    -4.640992    -4.640992   -3.4642687  0.040365821    -4.640992    1.1767233      8192000 
  123000   0.78163355   -4.6394534   -4.6394534   -3.4670033  0.028962644   -4.6394534      1.17245      8192000 
  124000   0.77806867   -4.6366193   -4.6366193   -3.4695166  0.013235007   -4.6366193    1.1671027      8192000 
  125000   0.77416061   -4.6334502   -4.6334502   -3.4722096 -0.0015108273   -4.6334502    1.1612406      8192000 
  126000    0.7712925   -4.6315884   -4.6315884     -3.47465 -0.0089309856   -4.6315884    1.1569385      8192000 
  127000   0.77045983   -4.6328905   -4.6328905    -3.477201 -0.013670336   -4.6328905    1.1556894      8192000 
  128000   0.77059006   -4.6355138   -4.6355138    -3.479629 -0.0061073381   -4.6355138    1.1558848      8192000 
  129000   0.77188824   -4.6399657   -4.6399657   -3.4821336 0.0020786279   -4.6399657    1.1578321      8192000 
  130000   0.77443805    -4.646321    -4.646321   -3.4846642  0.011006188    -4.646321    1.1616568      8192000 
  131000   0.77677641    -4.652256    -4.652256   -3.4870916  0.025069806    -4.652256    1.1651643      8192000 
  132000   0.77825642   -4.6566513   -4.6566513    -3.489267  0.031855331   -4.6566513    1.1673843      8192000 
  133000   0.77845735   -4.6591626   -4.6591626   -3.4914769  0.035373396   -4.6591626    1.1676857      8192000 
  134000   0.77681382   -4.6592031   -4.6592031   -3.4939826  0.031982039   -4.6592031    1.1652204      8192000 
  135000   0.77388554   -4.6572721   -4.6572721   -3.4964441  0.022435853   -4.6572721     1.160828      8192000 
  136000   0.77107299     -4.65538     -4.65538   -3.4987708 0.0075186526     -4.65538    1.1566092      8192000 
  137000   0.76854867    -4.653704    -4.653704   -3.5008812 -0.0021232598    -4.653704    1.1528227      8192000 
  138000   0.76679592   -4.6533868   -4.6533868   -3.5031932 -0.0076111156   -4.6533868    1.1501936      8192000 
  139000   0.76622084   -4.6549059   -4.6549059   -3.5055749 -0.0061757677   -4.6549059     1.149331      8192000 
  140000   0.76685787   -4.6582142   -4.6582142   -3.5079277 -0.0025218623   -4.6582142    1.1502865      8192000 
  141000   0.76837262   -4.6626275   -4.6626275   -3.5100689 0.0075798114   -4.6626275    1.1525586      8192000 
  142000   0.77048231    -4.667816    -4.667816   -3.5120929  0.017967488    -4.667816    1.1557232      8192000 
  143000   0.77233982   -4.6730026   -4.6730026   -3.5144931  0.027006347   -4.6730026    1.1585094      8192000 
  144000    0.7729765   -4.6764927   -4.6764927   -3.5170283  0.029705001   -4.6764927    1.1594645      8192000 
  145000   0.77258386   -4.6781677   -4.6781677   -3.5192922  0.030012534   -4.6781677    1.1588755      8192000 
  146000   0.77101487   -4.6778835   -4.6778835   -3.5213614  0.026694364   -4.6778835     1.156522      8192000 
  147000   0.76963991   -4.6779659   -4.6779659   -3.5235063  0.021960231   -4.6779659    1.1544596      8192000 
  148000    0.7707026   -4.6816592   -4.6816592   -3.5256056   0.02791378   -4.6816592    1.1560536      8192000 
  149000   0.77558724   -4.6911256   -4.6911256    -3.527745  0.061034405   -4.6911256    1.1633806      8192000 
  150000   0.78546822   -4.7080506   -4.7080506   -3.5298486   0.12810974   -4.7080506     1.178202      8192000 
  151000   0.79726219   -4.7276715   -4.7276715   -3.5317785   0.20419439   -4.7276715     1.195893      8192000 
  152000    0.8084584     -4.74653     -4.74653   -3.5338427   0.27266711     -4.74653    1.2126873      8192000 
  153000   0.81713039   -4.7614806   -4.7614806   -3.5357853   0.31935229   -4.7614806    1.2256953      8192000 
  154000    0.8177858   -4.7645502   -4.7645502   -3.5378718   0.31924301   -4.7645502    1.2266784      8192000 
  155000   0.81120307    -4.756403    -4.756403   -3.5395987   0.27075916    -4.756403    1.2168043      8192000 
  156000   0.79827353   -4.7389037   -4.7389037   -3.5414937   0.19541264   -4.7389037      1.19741      8192000 
  157000   0.78542461    -4.721281    -4.721281   -3.5431444    0.1290765    -4.721281    1.1781366      8192000 
  158000   0.77448321   -4.7071006   -4.7071006   -3.5453761  0.075195402   -4.7071006    1.1617245      8192000 
  159000   0.76572707    -4.695947    -4.695947   -3.5473567  0.028995304    -4.695947    1.1485903      8192000 
  160000   0.75814438   -4.6866885   -4.6866885   -3.5494722 0.00094442896   -4.6866885    1.1372163      8192000 
  161000     0.753828   -4.6822334   -4.6822334   -3.5514917 -0.014006774   -4.6822334    1.1307417      8192000 
  162000   0.75233041   -4.6822524   -4.6822524    -3.553757 -0.017633594   -4.6822524    1.1284953      8192000 
  163000   0.75349426   -4.6859717   -4.6859717   -3.5557306 -0.012737771   -4.6859717    1.1302411      8192000 
  164000   0.75558092   -4.6911601   -4.6911601    -3.557789 0.00028125905   -4.6911601    1.1333711      8192000 
  165000   0.75776059   -4.6964799   -4.6964799   -3.5598393  0.013822815   -4.6964799    1.1366406      8192000 
  166000   0.75977894   -4.7015628   -4.7015628   -3.5618947  0.024851838   -4.7015628    1.1396681      8192000 
  167000   0.76190131   -4.7064458   -4.7064458   -3.5635941  0.034140194   -4.7064458    1.1428517      8192000 
  168000    0.7630951   -4.7101913   -4.7101913    -3.565549  0.041569458   -4.7101913    1.1446424      8192000 
  169000   0.76277974   -4.7119358   -4.7119358   -3.5677665  0.037492553   -4.7119358    1.1441693      8192000 
  170000   0.75918738   -4.7084004   -4.7084004   -3.5696197  0.030788443   -4.7084004    1.1387808      8192000 
  171000   0.75657038   -4.7064064   -4.7064064   -3.5715511  0.016733656   -4.7064064    1.1348553      8192000 
  172000   0.75329636   -4.7031901   -4.7031901   -3.5732458  0.005561745   -4.7031901    1.1299443      8192000 
  173000   0.75018205   -4.7004648   -4.7004648    -3.575192 -0.0070026548   -4.7004648    1.1252728      8192000 
  174000   0.74807398   -4.6991526   -4.6991526   -3.5770419 -0.018829139   -4.6991526    1.1221107      8192000 
  175000   0.74583779   -4.6976869   -4.6976869   -3.5789305 -0.021374456   -4.6976869    1.1187564      8192000 
  176000   0.74600342   -4.6997803   -4.6997803   -3.5807754 -0.019039477   -4.6997803    1.1190048      8192000 
  177000   0.74761935    -4.704168    -4.704168   -3.5827393 -0.011304567    -4.704168    1.1214287      8192000 
  178000   0.74990076   -4.7098085   -4.7098085   -3.5849576 -0.00024044858   -4.7098085    1.1248509      8192000 
  179000   0.75215646   -4.7149665   -4.7149665   -3.5867321  0.013277597   -4.7149665    1.1282344      8192000 
  180000   0.75443645   -4.7200084   -4.7200084    -3.588354  0.020755855   -4.7200084    1.1316544      8192000 
  181000     0.756005   -4.7242181   -4.7242181   -3.5902109  0.025813206   -4.7242181    1.1340072      8192000 
  182000   0.75567685   -4.7253784   -4.7253784   -3.5918634  0.029982936   -4.7253784     1.133515      8192000 
  183000   0.75500069   -4.7261568   -4.7261568   -3.5936561  0.023317958   -4.7261568    1.1325007      8192000 
  184000   0.75237968   -4.7237805   -4.7237805   -3.5952113  0.014554345   -4.7237805    1.1285692      8192000 
  185000   0.74940632   -4.7213711   -4.7213711   -3.5972619  0.001522817   -4.7213711    1.1241092      8192000 
  186000   0.74574285   -4.7178258   -4.7178258   -3.5992118 -0.0071272482   -4.7178258     1.118614      8192000 
  187000   0.74395237    -4.717014    -4.717014   -3.6010857 -0.015516889    -4.717014    1.1159283      8192000 
  188000   0.74255982   -4.7166583   -4.7166583   -3.6028188 -0.018721426   -4.7166583    1.1138395      8192000 
  189000   0.74255198   -4.7182358   -4.7182358   -3.6044081 -0.021393458   -4.7182358    1.1138277      8192000 
  190000   0.74323487   -4.7209321   -4.7209321     -3.60608 -0.016963995   -4.7209321     1.114852      8192000 
  191000   0.74452622   -4.7248488   -4.7248488   -3.6080597 -0.0074826543   -4.7248488    1.1167891      8192000 
  192000    0.7470718   -4.7306123   -4.7306123   -3.6100048  0.002120482   -4.7306123    1.1206074      8192000 
  193000   0.74951024   -4.7359373   -4.7359373   -3.6116723  0.012320634   -4.7359373    1.1242651      8192000 
  194000   0.75062423   -4.7396736   -4.7396736   -3.6137375   0.01900828   -4.7396736    1.1259361      8192000 
  195000   0.75105289   -4.7420431   -4.7420431    -3.615464  0.021822828   -4.7420431    1.1265791      8192000 
  196000   0.75031923    -4.742583    -4.742583   -3.6171044  0.019056104    -4.742583    1.1254786      8192000 
  197000   0.74816293   -4.7409657   -4.7409657   -3.6187216  0.013592772   -4.7409657    1.1222441      8192000 
  198000   0.74601904   -4.7394853   -4.7394853    -3.620457 0.0042069678   -4.7394853    1.1190283      8192000 
  199000   0.74354045   -4.7374186   -4.7374186   -3.6221082 -0.0068297566   -4.7374186    1.1153104      8192000 
  200000   0.74137861   -4.7359946   -4.7359946    -3.623927   -0.0125336   -4.7359946    1.1120676      8192000 
  201000   0.74048942   -4.7364252   -4.7364252   -3.6256914 -0.019354056   -4.7364252    1.1107339      8192000 
  202000   0.73973674   -4.7373763   -4.7373763   -3.6277715 -0.019003508   -4.7373763    1.1096048      8192000 
  203000   0.74018262   -4.7398101   -4.7398101   -3.6295364 -0.015367628   -4.7398101    1.1102737      8192000 
  204000   0.74173973    -4.743749    -4.743749   -3.6311397 -0.0087305936    -4.743749    1.1126093      8192000 
  205000   0.74339973   -4.7480162   -4.7480162   -3.6329168 0.00035256548   -4.7480162    1.1150993      8192000 
  206000   0.74524076    -4.752372    -4.752372   -3.6345111 0.0075373686    -4.752372    1.1178609      8192000 
  207000   0.74650021   -4.7561068   -4.7561068   -3.6363568  0.014504899   -4.7561068      1.11975      8192000 
  208000    0.7466755   -4.7578419   -4.7578419   -3.6378289  0.015972917   -4.7578419     1.120013      8192000 
  209000   0.74616962   -4.7585723   -4.7585723   -3.6393181  0.016361998   -4.7585723    1.1192542      8192000 
  210000   0.74528153    -4.759254    -4.759254    -3.641332 0.0097144017    -4.759254     1.117922      8192000 
  211000   0.74254638   -4.7570394   -4.7570394   -3.6432201  0.004241363   -4.7570394    1.1138193      8192000 
  212000   0.74058444   -4.7557749   -4.7557749   -3.6448985 -0.0061637403   -4.7557749    1.1108764      8192000 
  213000   0.73896898   -4.7550676   -4.7550676   -3.6466144 -0.015360692   -4.7550676    1.1084532      8192000 
  214000   0.73749651   -4.7545296   -4.7545296   -3.6482851 -0.017445514   -4.7545296    1.1062445      8192000 
  215000   0.73778511   -4.7563061   -4.7563061   -3.6496287 -0.017160168   -4.7563061    1.1066774      8192000 
  216000   0.73792267   -4.7584363   -4.7584363   -3.6515526 -0.013900635   -4.7584363    1.1068837      8192000 
  217000   0.73924283   -4.7620462   -4.7620462   -3.6531823 -0.0098148915   -4.7620462     1.108864      8192000 
  218000   0.74044284   -4.7656292   -4.7656292   -3.6549652 0.00044336115   -4.7656292     1.110664      8192000 
  219000   0.74216553   -4.7699557   -4.7699557   -3.6567077  0.005940499   -4.7699557     1.113248      8192000 
  220000   0.74305876    -4.772963    -4.772963   -3.6583751  0.012491108    -4.772963    1.1145879      8192000 
  221000   0.74316851   -4.7747135   -4.7747135    -3.659961  0.014212044   -4.7747135    1.1147525      8192000 
  222000   0.74269708   -4.7758052   -4.7758052   -3.6617599  0.012404893   -4.7758052    1.1140453      8192000 
  223000    0.7420074   -4.7765126   -4.7765126   -3.6635018 0.0067314018   -4.7765126    1.1130108      8192000 
  224000   0.74010385   -4.7752646   -4.7752646   -3.6651091 0.00069632211   -4.7752646    1.1101555      8192000 
  225000   0.73798922   -4.7737039   -4.7737039   -3.6667204 -0.0066600122   -4.7737039    1.1069835      8192000 
  226000   0.73627944   -4.7727349   -4.7727349    -3.668316 -0.010948987   -4.7727349    1.1044189      8192000 
  227000    0.7356409   -4.7734926   -4.7734926   -3.6700315 -0.016235391   -4.7734926    1.1034611      8192000 
  228000   0.73533229   -4.7745722   -4.7745722    -3.671574 -0.015372963   -4.7745722    1.1029982      8192000 
  229000   0.73556596   -4.7766064   -4.7766064   -3.6732578 -0.012390142   -4.7766064    1.1033487      8192000 
  230000   0.73650012   -4.7797417   -4.7797417   -3.6749918 -0.0078174886   -4.7797417    1.1047499      8192000 
  231000   0.73807701   -4.7837026   -4.7837026   -3.6765874 -0.00099344061   -4.7837026    1.1071152      8192000 
  232000   0.73885919   -4.7867014   -4.7867014   -3.6784129 0.0060059494   -4.7867014    1.1082885      8192000 
  233000   0.74018708   -4.7902456   -4.7902456   -3.6799652 0.0086772315   -4.7902456    1.1102803      8192000 
  234000   0.74043127   -4.7923075   -4.7923075   -3.6816609 0.0093435612   -4.7923075    1.1106466      8192000 
  235000   0.73972444   -4.7927142   -4.7927142   -3.6831278  0.009955921   -4.7927142    1.1095864      8192000 
  236000   0.73889462   -4.7930083   -4.7930083   -3.6846666  0.004750438   -4.7930083    1.1083417      8192000 
  237000   0.73692748   -4.7916738   -4.7916738   -3.6862829 -0.00062376927   -4.7916738    1.1053909      8192000 
  238000   0.73554549   -4.7914538   -4.7914538   -3.6881358 -0.0072527905   -4.7914538     1.103318      8192000 
  239000   0.73405901   -4.7911179   -4.7911179   -3.6900297  -0.01023306   -4.7911179    1.1010882      8192000 
  240000   0.73312724   -4.7912856   -4.7912856    -3.691595 -0.014342386   -4.7912856    1.0996906      8192000 
  241000   0.73256552   -4.7921489   -4.7921489   -3.6933009 -0.014782714   -4.7921489     1.098848      8192000 
  242000   0.73346931   -4.7950174   -4.7950174   -3.6948137 -0.012904755   -4.7950174    1.1002037      8192000 
  243000   0.73401621   -4.7972748   -4.7972748   -3.6962508 -0.0057754434   -4.7972748     1.101024      8192000 
  244000   0.73562687   -4.8013454   -4.8013454   -3.6979054 -0.0013356884   -4.8013454      1.10344      8192000 
  245000   0.73673335   -4.8045641   -4.8045641   -3.6994644 0.0045558441   -4.8045641    1.1050997      8192000 
  246000   0.73666607   -4.8060667   -4.8060667   -3.7010679 0.0067834925   -4.8060667    1.1049988      8192000 
  247000   0.73731872   -4.8085139   -4.8085139   -3.7025361 0.0071533215   -4.8085139    1.1059778      8192000 
  248000   0.73720611   -4.8101533   -4.8101533   -3.7043444 0.0050662371   -4.8101533    1.1058089      8192000 
  249000    0.7356928   -4.8096668   -4.8096668   -3.7061278 0.0017481309   -4.8096668    1.1035389      8192000 
  250000   0.73406282    -4.808665    -4.808665   -3.7075711 -0.0025431111    -4.808665    1.1010939      8192000 
  251000   0.73268335   -4.8082737   -4.8082737    -3.709249 -0.0086913875   -4.8082737    1.0990247      8192000 
  252000   0.73158344   -4.8082353   -4.8082353   -3.7108604 -0.011909239   -4.8082353    1.0973749      8192000 
  253000   0.73075535   -4.8086591   -4.8086591   -3.7125264 -0.012170146   -4.8086591    1.0961327      8192000 
  254000   0.73078551   -4.8103172   -4.8103172   -3.7141392 -0.011794438   -4.8103172     1.096178      8192000 
  255000   0.73096608   -4.8121437   -4.8121437   -3.7156948 -0.009982389   -4.8121437    1.0964488      8192000 
  256000   0.73245369   -4.8155967   -4.8155967   -3.7169164 -0.0073140336   -4.8155967    1.0986803      8192000 
  257000   0.73326949   -4.8182383   -4.8182383   -3.7183343 -0.0026952698   -4.8182383     1.099904      8192000 
  258000   0.73418058   -4.8211565   -4.8211565   -3.7198859 0.0036711257   -4.8211565    1.1012706      8192000 
  259000   0.73445961   -4.8232831   -4.8232831    -3.721594 0.0052252459   -4.8232831    1.1016891      8192000 
  260000   0.73441696   -4.8246199   -4.8246199   -3.7229947 0.0070660236   -4.8246199    1.1016252      8192000 
  261000   0.73382965   -4.8253308   -4.8253308   -3.7245866 0.0034054386   -4.8253308    1.1007442      8192000 
  262000   0.73287738    -4.825184    -4.825184   -3.7258682 -0.0013865968    -4.825184    1.0993158      8192000 
  263000   0.73137624   -4.8245648   -4.8245648   -3.7275008 -0.0049114708   -4.8245648    1.0970641      8192000 
  264000   0.73034537   -4.8245293   -4.8245293   -3.7290116 -0.0070090402   -4.8245293    1.0955178      8192000 
  265000   0.72981485   -4.8252284   -4.8252284   -3.7305064 -0.010196558   -4.8252284     1.094722      8192000 
  266000   0.72923275   -4.8260176   -4.8260176   -3.7321688 -0.010188247   -4.8260176    1.0938489      8192000 
  267000   0.72917947   -4.8274557   -4.8274557   -3.7336867 -0.010884527   -4.8274557    1.0937689      8192000 
  268000    0.7296447   -4.8297485   -4.8297485   -3.7352817 -0.0085631271   -4.8297485    1.0944668      8192000 
  269000    0.7298774   -4.8317515   -4.8317515   -3.7369357 -0.006030983   -4.8317515    1.0948158      8192000 
  270000   0.73093522   -4.8348219   -4.8348219   -3.7384193 -0.0048014915   -4.8348219    1.0964026      8192000 
  271000   0.73118079   -4.8365544   -4.8365544   -3.7397835 0.00020291877   -4.8365544    1.0967709      8192000 
  272000   0.73133524   -4.8381344   -4.8381344   -3.7411318 0.0040404658   -4.8381344    1.0970026      8192000 
  273000   0.73142703   -4.8398569   -4.8398569   -3.7427166 0.0029960281   -4.8398569    1.0971403      8192000 
  274000   0.73080863   -4.8404723   -4.8404723   -3.7442596 0.0019858594   -4.8404723    1.0962127      8192000 
  275000   0.73041323   -4.8412884   -4.8412884   -3.7456688 -0.0034333978   -4.8412884    1.0956196      8192000 
  276000   0.72919007   -4.8406988   -4.8406988    -3.746914 -0.0053413687   -4.8406988    1.0937848      8192000 
  277000   0.72808032   -4.8407716   -4.8407716   -3.7486514 -0.0092861798   -4.8407716    1.0921202      8192000 
  278000   0.72775333   -4.8417983   -4.8417983   -3.7501685  -0.01036301   -4.8417983    1.0916297      8192000 
  279000   0.72747131   -4.8431132   -4.8431132   -3.7519065 -0.011692723   -4.8431132    1.0912067      8192000 
  280000   0.72711124   -4.8442103   -4.8442103   -3.7535437  -0.01033154   -4.8442103    1.0906666      8192000 
  281000   0.72775886   -4.8464787   -4.8464787   -3.7548407 -0.0064149995   -4.8464787     1.091638      8192000 
  282000   0.72772631    -4.847917    -4.847917   -3.7563278 -0.0024220898    -4.847917    1.0915892      8192000 
  283000   0.72840846   -4.8506065   -4.8506065    -3.757994 -0.001757377   -4.8506065    1.0926124      8192000 
  284000   0.72878764   -4.8524618   -4.8524618   -3.7592806 -0.00064559444   -4.8524618    1.0931812      8192000 
  285000    0.7288529    -4.854182    -4.854182    -3.760903 0.0016254948    -4.854182    1.0932791      8192000 
  286000    0.7286064   -4.8552411   -4.8552411   -3.7623318 0.0028579666   -4.8552411    1.0929093      8192000 
  287000   0.72830962   -4.8562303   -4.8562303   -3.7637661 -8.2776074e-05   -4.8562303    1.0924642      8192000 
  288000   0.72796945   -4.8571579   -4.8571579    -3.765204 -0.0040797957   -4.8571579    1.0919539      8192000 
  289000   0.72733613   -4.8577268   -4.8577268   -3.7667228 -0.0049367094   -4.8577268    1.0910039      8192000 
  290000   0.72644211   -4.8578043   -4.8578043   -3.7681414 -0.0074140288   -4.8578043    1.0896629      8192000 
  291000   0.72613122   -4.8589779   -4.8589779   -3.7697814 -0.0089147463   -4.8589779    1.0891966      8192000 
  292000   0.72558868   -4.8594999   -4.8594999   -3.7711171 -0.0063136513   -4.8594999    1.0883827      8192000 
  293000   0.72559074   -4.8609844   -4.8609844   -3.7725985 -0.0077346142   -4.8609844    1.0883858      8192000 
  294000   0.72591534   -4.8628781   -4.8628781   -3.7740054 -0.0057080204   -4.8628781    1.0888727      8192000 
  295000   0.72649074   -4.8652868   -4.8652868   -3.7755509 -0.0061729966   -4.8652868    1.0897358      8192000 
  296000   0.72665246   -4.8670957   -4.8670957   -3.7771173 -0.0041523855   -4.8670957    1.0899784      8192000 
  297000   0.72714431   -4.8694071   -4.8694071   -3.7786909 -0.0027081664   -4.8694071    1.0907162      8192000 
  298000   0.72715045   -4.8707271   -4.8707271   -3.7800017 4.6945237e-05   -4.8707271    1.0907254      8192000 
  299000   0.72716153    -4.872138    -4.872138   -3.7813959 0.0010817483    -4.872138     1.090742      8192000 
  300000   0.72689608   -4.8730091   -4.8730091   -3.7826653 0.0002574593   -4.8730091    1.0903438      8192000 
  301000   0.72662076     -4.87411     -4.87411   -3.7841791 -0.0017255662     -4.87411    1.0899309      8192000 
  302000   0.72576748    -4.874391    -4.874391     -3.78574 -0.0029936799    -4.874391    1.0886509      8192000 
  303000   0.72522321   -4.8749762   -4.8749762   -3.7871417 -0.0055772197   -4.8749762    1.0878345      8192000 
  304000   0.72502446   -4.8758364   -4.8758364      -3.7883 -0.002391884   -4.8758364    1.0875364      8192000 
  305000   0.72529977   -4.8777504   -4.8777504    -3.789801 -0.0060535784   -4.8777504    1.0879494      8192000 
  306000   0.72487348   -4.8785563   -4.8785563   -3.7912463 -0.0033551399   -4.8785563    1.0873099      8192000 
  307000   0.72570712   -4.8812484   -4.8812484    -3.792688 -0.0039304959   -4.8812484    1.0885604      8192000 
  308000   0.72565306   -4.8824987   -4.8824987   -3.7940194 -0.0014699373   -4.8824987    1.0884793      8192000 
  309000   0.72596711   -4.8844944   -4.8844944    -3.795544  0.001098857   -4.8844944    1.0889504      8192000 
  310000   0.72657562   -4.8868887   -4.8868887   -3.7970255 0.0034167668   -4.8868887    1.0898632      8192000 
  311000   0.72708776   -4.8891557   -4.8891557   -3.7985243 0.0094227802   -4.8891557    1.0906314      8192000 
  312000   0.72752443   -4.8913388   -4.8913388   -3.8000524  0.012128597   -4.8913388    1.0912864      8192000 
  313000   0.72737847   -4.8926111   -4.8926111   -3.8015437  0.016056441   -4.8926111    1.0910674      8192000 
  314000   0.72779599   -4.8948913   -4.8948913   -3.8031976  0.015853572   -4.8948913    1.0916937      8192000 
  315000    0.7285856   -4.8974407   -4.8974407   -3.8045625  0.018876739   -4.8974407    1.0928781      8192000 
  316000    0.7293216   -4.9002138   -4.9002138   -3.8062316  0.024503094   -4.9002138    1.0939821      8192000 
  317000   0.73030839   -4.9031177   -4.9031177   -3.8076554  0.031343016   -4.9031177    1.0954623      8192000 
  318000   0.73135367   -4.9064072   -4.9064072    -3.809377   0.03840092   -4.9064072    1.0970302      8192000 
  319000   0.73220326   -4.9094524   -4.9094524   -3.8111478  0.048077105   -4.9094524    1.0983046      8192000 
  320000   0.73408041   -4.9139989   -4.9139989   -3.8128785  0.058820362   -4.9139989    1.1011203      8192000 
  321000   0.73671083   -4.9196272   -4.9196272   -3.8145613  0.074822799   -4.9196272     1.105066      8192000 
  322000   0.73946203   -4.9255374   -4.9255374   -3.8163446  0.094168959   -4.9255374    1.1091928      8192000 
  323000   0.74149667     -4.93063     -4.93063   -3.8183853   0.11072665     -4.93063    1.1122447      8192000 
  324000   0.74323898   -4.9353545   -4.9353545   -3.8204963   0.11921437   -4.9353545    1.1148582      8192000 
  325000   0.74366198   -4.9378548   -4.9378548   -3.8223621   0.12419702   -4.9378548    1.1154927      8192000 
  326000   0.74273121   -4.9379513   -4.9379513   -3.8238548   0.12135989   -4.9379513    1.1140965      8192000 
  327000   0.74097886   -4.9371078   -4.9371078   -3.8256398   0.11127905   -4.9371078     1.111468      8192000 
  328000   0.73826858   -4.9346065   -4.9346065   -3.8272039  0.094494483   -4.9346065    1.1074026      8192000 
  329000    0.7350653   -4.9313179   -4.9313179   -3.8287203  0.078064227   -4.9313179    1.1025977      8192000 
  330000   0.73098444    -4.926682    -4.926682   -3.8302056  0.058831717    -4.926682    1.0964764      8192000 
  331000   0.72637556     -4.92131     -4.92131   -3.8317469  0.036315412     -4.92131    1.0895631      8192000 
  332000   0.72168863   -4.9157121   -4.9157121   -3.8331795  0.010951297   -4.9157121    1.0825327      8192000 
  333000   0.71702262   -4.9098067   -4.9098067    -3.834273 -0.012855358   -4.9098067    1.0755337      8192000 
  334000   0.71294244   -4.9047482   -4.9047482   -3.8353348 -0.037591695   -4.9047482    1.0694134      8192000 
  335000   0.70861229   -4.8992014   -4.8992014   -3.8362832  -0.05761796   -4.8992014    1.0629182      8192000 
  336000   0.70509703   -4.8948273   -4.8948273    -3.837182 -0.075799553   -4.8948273    1.0576453      8192000 
  337000   0.70103756   -4.8898418   -4.8898418   -3.8382857 -0.088420396   -4.8898418    1.0515561      8192000 
  338000   0.69867317   -4.8872717   -4.8872717   -3.8392622  -0.10311812   -4.8872717    1.0480095      8192000 
  339000   0.69624765   -4.8845648   -4.8845648   -3.8401936  -0.11077405   -4.8845648    1.0443712      8192000 
  340000   0.69466549   -4.8832255   -4.8832255   -3.8412275  -0.11727268   -4.8832255     1.041998      8192000 
  341000   0.69382873   -4.8829116   -4.8829116   -3.8421688  -0.11837389   -4.8829116    1.0407428      8192000 
  342000   0.69452737   -4.8850791   -4.8850791   -3.8432884  -0.11667224   -4.8850791    1.0417908      8192000 
  343000   0.69572276   -4.8881178   -4.8881178   -3.8445339  -0.11073053   -4.8881178    1.0435839      8192000 
  344000   0.69748724   -4.8918135   -4.8918135   -3.8455829 -0.097820192   -4.8918135    1.0462306      8192000 
  345000   0.70018146   -4.8970498   -4.8970498   -3.8467778  -0.08599955   -4.8970498    1.0502719      8192000 
  346000   0.70343608   -4.9029019   -4.9029019    -3.847748 -0.069583976   -4.9029019    1.0551538      8192000 
  347000    0.7073967   -4.9101386   -4.9101386   -3.8490438 -0.053250228   -4.9101386    1.0610948      8192000 
  348000   0.71126788   -4.9173267   -4.9173267   -3.8504252 -0.032948368   -4.9173267    1.0669016      8192000 
  349000   0.71520211   -4.9246984   -4.9246984   -3.8518955 -0.0078757027   -4.9246984    1.0728029      8192000 
  350000   0.71972477   -4.9328862   -4.9328862   -3.8532993  0.013697551   -4.9328862    1.0795869      8192000 
  351000   0.72316529   -4.9397989   -4.9397989   -3.8550513  0.037285297   -4.9397989    1.0847477      8192000 
  352000   0.72636891   -4.9462847   -4.9462847   -3.8567316  0.057483467   -4.9462847    1.0895531      8192000 
  353000   0.72942016   -4.9525609   -4.9525609   -3.8584309  0.073717922   -4.9525609      1.09413      8192000 
  354000   0.73115006   -4.9571647   -4.9571647   -3.8604399  0.090067278   -4.9571647    1.0967248      8192000 
  355000     0.732921   -4.9615508   -4.9615508   -3.8621695   0.10204471   -4.9615508    1.0993812      8192000 
  356000   0.73350849   -4.9641874   -4.9641874   -3.8639249   0.10927321   -4.9641874    1.1002625      8192000 
  357000   0.73367127   -4.9661749   -4.9661749   -3.8656682   0.10908407   -4.9661749    1.1005066      8192000 
  358000   0.73228291   -4.9657287   -4.9657287   -3.8673046    0.1035087   -4.9657287    1.0984241      8192000 
  359000   0.73043693   -4.9645733   -4.9645733   -3.8689182  0.090539453   -4.9645733    1.0956551      8192000 
  360000   0.72741222   -4.9617179   -4.9617179   -3.8705999  0.076675416   -4.9617179    1.0911181      8192000 
  361000   0.72376022   -4.9577901   -4.9577901     -3.87215  0.058799111   -4.9577901    1.0856401      8192000 
  362000   0.72022107   -4.9537406   -4.9537406   -3.8734092  0.039554985   -4.9537406    1.0803313      8192000 
  363000   0.71595339     -4.94879     -4.94879   -3.8748601  0.017558464     -4.94879    1.0739298      8192000 
  364000   0.71196221   -4.9439895   -4.9439895   -3.8760464 -0.0067622306   -4.9439895     1.067943      8192000 
  365000   0.70783196   -4.9389394   -4.9389394   -3.8771917 -0.029611225   -4.9389394    1.0617477      8192000 
  366000    0.7037549   -4.9336455   -4.9336455   -3.8780134 -0.050085898   -4.9336455    1.0556321      8192000 
  367000   0.70018258   -4.9293531   -4.9293531   -3.8790795  -0.06745045   -4.9293531    1.0502736      8192000 
  368000   0.69715037   -4.9254782   -4.9254782   -3.8797529 -0.082037423   -4.9254782    1.0457253      8192000 
  369000   0.69480192   -4.9228932   -4.9228932   -3.8806906 -0.092964315   -4.9228932    1.0422026      8192000 
  370000   0.69255914   -4.9205765   -4.9205765    -3.881738  -0.10124836   -4.9205765    1.0388385      8192000 
  371000   0.69083988    -4.919155    -4.919155   -3.8828955  -0.10456302    -4.919155    1.0362596      8192000 
  372000   0.69069134   -4.9198361   -4.9198361   -3.8837994  -0.10908801   -4.9198361    1.0360368      8192000 
  373000   0.69066394    -4.920625    -4.920625   -3.8846293   -0.1063676    -4.920625    1.0359957      8192000 
  374000   0.69187222   -4.9236246   -4.9236246   -3.8858166  -0.10010487   -4.9236246    1.0378081      8192000 
  375000   0.69391758   -4.9276768   -4.9276768   -3.8868007 -0.089229601   -4.9276768    1.0408761      8192000 
  376000   0.69635859   -4.9325908   -4.9325908   -3.8880532 -0.076910859   -4.9325908    1.0445376      8192000 
  377000   0.69958634   -4.9386751   -4.9386751   -3.8892958 -0.060478366   -4.9386751    1.0493792      8192000 
  378000   0.70296618   -4.9450105   -4.9450105   -3.8905615 -0.042410377   -4.9450105     1.054449      8192000 
  379000   0.70637035   -4.9513818   -4.9513818   -3.8918265 -0.023099983   -4.9513818    1.0595553      8192000 
  380000   0.71031191   -4.9586818   -4.9586818   -3.8932142 -0.0014760938   -4.9586818    1.0654676      8192000 
  381000   0.71388038   -4.9657527   -4.9657527   -3.8949324   0.02015711   -4.9657527    1.0708203      8192000 
  382000   0.71693556   -4.9719714   -4.9719714   -3.8965684  0.040969699   -4.9719714    1.0754031      8192000 
  383000   0.71972289   -4.9777133   -4.9777133   -3.8981292  0.059276992   -4.9777133    1.0795841      8192000 
  384000   0.72214271   -4.9829397   -4.9829397   -3.8997259  0.074291054   -4.9829397    1.0832138      8192000 
  385000   0.72336558   -4.9864189   -4.9864189   -3.9013708  0.086774628   -4.9864189    1.0850481      8192000 
  386000   0.72495191   -4.9902633   -4.9902633   -3.9028357  0.093236053   -4.9902633    1.0874276      8192000 
  387000   0.72505827   -4.9921965   -4.9921965   -3.9046094  0.097383579   -4.9921965    1.0875871      8192000 
  388000   0.72435876   -4.9929216   -4.9929216   -3.9063837  0.093396174   -4.9929216    1.0865379      8192000 
  389000   0.72275531   -4.9921789   -4.9921789   -3.9080462  0.085856928   -4.9921789    1.0841327      8192000 
  390000   0.72071586   -4.9906082   -4.9906082   -3.9095347  0.073372144   -4.9906082    1.0810735      8192000 
  391000   0.71801134   -4.9878462   -4.9878462   -3.9108295  0.057519283   -4.9878462    1.0770167      8192000 
  392000   0.71456031   -4.9839316   -4.9839316   -3.9120914  0.040217978   -4.9839316    1.0718402      8192000 
  393000    0.7106932    -4.979277    -4.979277   -3.9132375  0.019992954    -4.979277    1.0660395      8192000 
  394000   0.70675133   -4.9744837   -4.9744837    -3.914357 0.00017867653   -4.9744837    1.0601267      8192000 
  395000   0.70312768   -4.9701931   -4.9701931   -3.9155018 -0.022172305   -4.9701931    1.0546913      8192000 
  396000   0.69940473   -4.9658622   -4.9658622   -3.9167554 -0.041019382   -4.9658622    1.0491068      8192000 
  397000   0.69605174   -4.9617815   -4.9617815   -3.9177042  -0.05800636   -4.9617815    1.0440773      8192000 
  398000   0.69314384   -4.9581773   -4.9581773   -3.9184618 -0.074147096   -4.9581773    1.0397155      8192000 
  399000   0.69077369   -4.9556567   -4.9556567   -3.9194964 -0.084193606   -4.9556567    1.0361603      8192000 
  400000    0.6890953   -4.9538871   -4.9538871   -3.9202444 -0.092693501   -4.9538871    1.0336427      8192000 
  401000   0.68731757   -4.9521085   -4.9521085   -3.9211324 -0.095920726   -4.9521085    1.0309761      8192000 
  402000   0.68704518   -4.9527392   -4.9527392   -3.9221716 -0.099242474   -4.9527392    1.0305675      8192000 
  403000   0.68751324   -4.9546569   -4.9546569   -3.9233873 -0.097499721   -4.9546569    1.0312696      8192000 
  404000   0.68826174   -4.9566334   -4.9566334   -3.9242411 -0.090934328   -4.9566334    1.0323924      8192000 
  405000   0.69020583   -4.9607578   -4.9607578   -3.9254493 -0.084024091   -4.9607578    1.0353085      8192000 
  406000   0.69224212   -4.9650084   -4.9650084   -3.9266455 -0.069342429   -4.9650084    1.0383629      8192000 
  407000    0.6952336   -4.9705089   -4.9705089   -3.9276587 -0.054308298   -4.9705089    1.0428501      8192000 
  408000    0.6982807   -4.9763436   -4.9763436   -3.9289228 -0.038933388   -4.9763436    1.0474208      8192000 
  409000   0.70130277   -4.9822374   -4.9822374   -3.9302835  -0.01829979   -4.9822374    1.0519539      8192000 
  410000   0.70482796   -4.9888508   -4.9888508   -3.9316091 0.00095929202   -4.9888508    1.0572417      8192000 
  411000    0.7081456   -4.9953085   -4.9953085   -3.9330904  0.019938465   -4.9953085    1.0622181      8192000 
  412000   0.71093567   -5.0009456   -5.0009456   -3.9345424  0.039410735   -5.0009456    1.0664032      8192000 
  413000    0.7131912    -5.005948    -5.005948   -3.9361614  0.056229816    -5.005948    1.0697865      8192000 
  414000   0.71509141    -5.010492    -5.010492   -3.9378552   0.07126644    -5.010492    1.0726369      8192000 
  415000   0.71635329    -5.013914    -5.013914   -3.9393843  0.077566985    -5.013914    1.0745297      8192000 
  416000   0.71708435   -5.0165996   -5.0165996   -3.9409733  0.083925713   -5.0165996    1.0756263      8192000 
  417000   0.71707722   -5.0181231   -5.0181231   -3.9425075  0.084377136   -5.0181231    1.0756156      8192000 
  418000   0.71614295   -5.0183668   -5.0183668   -3.9441526  0.081123061   -5.0183668    1.0742142      8192000 
  419000     0.714727   -5.0175924   -5.0175924   -3.9455022  0.071211021   -5.0175924    1.0720902      8192000 
  420000   0.71275626   -5.0158927   -5.0158927   -3.9467585  0.057549841   -5.0158927    1.0691341      8192000 
  421000   0.70962219    -5.012665    -5.012665    -3.948232  0.043916464    -5.012665     1.064433      8192000 
  422000   0.70656197   -5.0093618   -5.0093618   -3.9495191   0.02572066   -5.0093618    1.0598427      8192000 
  423000   0.70313944   -5.0051589   -5.0051589     -3.95045 0.0063564204   -5.0051589    1.0547089      8192000 
  424000   0.69994939   -5.0015061   -5.0015061   -3.9515823 -0.011879048   -5.0015061    1.0499238      8192000 
  425000   0.69592455   -4.9965059   -4.9965059   -3.9526193 -0.029188175   -4.9965059    1.0438866      8192000 
  426000   0.69303967   -4.9932148   -4.9932148   -3.9536556 -0.048245589   -4.9932148    1.0395592      8192000 
  427000    0.6901829   -4.9899746   -4.9899746   -3.9547005 -0.062625757   -4.9899746    1.0352741      8192000 
  428000   0.68803501   -4.9876496   -4.9876496   -3.9555973 -0.076062916   -4.9876496    1.0320522      8192000 
  429000   0.68597602   -4.9853999   -4.9853999   -3.9564362 -0.083906268   -4.9853999    1.0289638      8192000 
  430000   0.68447225   -4.9841841   -4.9841841    -3.957476 -0.089029028   -4.9841841    1.0267081      8192000 
  431000    0.6840653   -4.9843565   -4.9843565   -3.9582588 -0.091692444   -4.9843565    1.0260977      8192000 
  432000   0.68377827   -4.9849392   -4.9849392   -3.9592721 -0.090334855   -4.9849392    1.0256671      8192000 
  433000   0.68465647    -4.987385    -4.987385   -3.9604006 -0.086144478    -4.987385    1.0269844      8192000 
  434000   0.68626639   -4.9904125   -4.9904125   -3.9610132 -0.079369154   -4.9904125    1.0293993      8192000 
  435000   0.68835565   -4.9945852   -4.9945852    -3.962052 -0.067149865   -4.9945852    1.0325332      8192000 
  436000   0.69041914   -4.9988927   -4.9988927   -3.9632642 -0.052706841   -4.9988927    1.0356285      8192000 
  437000   0.69334108   -5.0047271   -5.0047271   -3.9647158 -0.037533754   -5.0047271    1.0400114      8192000 
  438000   0.69625833   -5.0102157   -5.0102157   -3.9658285 -0.019660168   -5.0102157    1.0443872      8192000 
  439000   0.69907579    -5.015595    -5.015595   -3.9669815 -0.0017298593    -5.015595    1.0486134      8192000 
  440000    0.7018158   -5.0212318   -5.0212318   -3.9685083  0.017389096   -5.0212318    1.0527234      8192000 
  441000   0.70416857   -5.0263643   -5.0263643   -3.9701117  0.033158168   -5.0263643    1.0562526      8192000 
  442000   0.70688722   -5.0321484   -5.0321484   -3.9718178  0.045976677   -5.0321484    1.0603306      8192000 
  443000   0.70855715   -5.0360829   -5.0360829   -3.9732475  0.058649118   -5.0360829    1.0628355      8192000 
  444000   0.70926714     -5.03868     -5.03868   -3.9747795  0.067279447     -5.03868    1.0639004      8192000 
  445000    0.7098705   -5.0409936   -5.0409936   -3.9761882  0.072411586   -5.0409936    1.0648055      8192000 
  446000   0.70966795    -5.042118    -5.042118   -3.9776164  0.071214133    -5.042118    1.0645017      8192000 
  447000   0.70876485   -5.0420024   -5.0420024   -3.9788553  0.069935067   -5.0420024     1.063147      8192000 
  448000   0.70752714   -5.0414068   -5.0414068   -3.9801164  0.060875749   -5.0414068    1.0612904      8192000 
  449000   0.70582966   -5.0401991   -5.0401991   -3.9814548  0.046959298   -5.0401991    1.0587442      8192000 
  450000   0.70288944   -5.0370248   -5.0370248   -3.9826909  0.034704341   -5.0370248    1.0543339      8192000 
  451000   0.69991313   -5.0336135   -5.0336135   -3.9837441  0.019228142   -5.0336135    1.0498694      8192000 
  452000   0.69689687   -5.0301983   -5.0301983   -3.9848533 -0.00088555777   -5.0301983     1.045345      8192000 
  453000   0.69399084   -5.0268257   -5.0268257   -3.9858397 -0.016430875   -5.0268257     1.040986      8192000 
  454000   0.69083729   -5.0231268   -5.0231268   -3.9868711 -0.033474071   -5.0231268    1.0362557      8192000 
  455000   0.68799208   -5.0198788   -5.0198788    -3.987891  -0.04831774   -5.0198788    1.0319879      8192000 
  456000   0.68556104   -5.0170431   -5.0170431   -3.9887018 -0.061076967   -5.0170431    1.0283413      8192000 
  457000   0.68359379   -5.0149223   -5.0149223   -3.9895319  -0.07334755   -5.0149223    1.0253904      8192000 
  458000   0.68240743   -5.0138157   -5.0138157   -3.9902048 -0.080821859   -5.0138157    1.0236109      8192000 
  459000   0.68114284   -5.0130119   -5.0130119   -3.9912979   -0.0835114   -5.0130119     1.021714      8192000 
  460000   0.68072224   -5.0132839   -5.0132839   -3.9922008 -0.083953691   -5.0132839    1.0210831      8192000 
  461000   0.68122541    -5.014924    -5.014924   -3.9930861 -0.082090624    -5.014924    1.0218379      8192000 
  462000   0.68203835   -5.0171795   -5.0171795   -3.9941223 -0.076034272   -5.0171795    1.0230573      8192000 
  463000   0.68360141    -5.020583    -5.020583   -3.9951811 -0.067875461    -5.020583    1.0254019      8192000 
  464000   0.68537761   -5.0243159   -5.0243159   -3.9962498 -0.056231996   -5.0243159    1.0280662      8192000 
  465000   0.68817323   -5.0294147   -5.0294147   -3.9971551 -0.042621318   -5.0294147    1.0322596      8192000 
  466000   0.69035123   -5.0339306   -5.0339306    -3.998404 -0.026637913   -5.0339306    1.0355266      8192000 
  467000   0.69311802   -5.0395168   -5.0395168     -3.99984 -0.010004722   -5.0395168    1.0396768      8192000 
  468000   0.69596251    -5.044994    -5.044994   -4.0010505 0.0050015383    -5.044994    1.0439435      8192000 
  469000   0.69780028   -5.0492596   -5.0492596   -4.0025594  0.021275979   -5.0492596    1.0467002      8192000 
  470000   0.69990631   -5.0538307   -5.0538307   -4.0039715  0.036464926   -5.0538307    1.0498592      8192000 
  471000   0.70157467   -5.0576003   -5.0576003   -4.0052386  0.048733461   -5.0576003    1.0523617      8192000 
  472000   0.70274194   -5.0609424   -5.0609424   -4.0068297  0.057527821   -5.0609424    1.0541126      8192000 
  473000   0.70345421    -5.063258    -5.063258    -4.008077  0.062858188    -5.063258     1.055181      8192000 
  474000   0.70342105   -5.0648112   -5.0648112   -4.0096799  0.063876686   -5.0648112    1.0551313      8192000 
  475000   0.70302772   -5.0655538   -5.0655538   -4.0110125  0.060990882   -5.0655538    1.0545413      8192000 
  476000   0.70184082   -5.0650312   -5.0650312   -4.0122702  0.053220599   -5.0650312     1.052761      8192000 
  477000   0.70034275   -5.0638865   -5.0638865   -4.0133726  0.044948502   -5.0638865    1.0505139      8192000 
  478000   0.69835139    -5.061815    -5.061815   -4.0142882  0.032377113    -5.061815    1.0475268      8192000 
  479000   0.69555246    -5.058622    -5.058622   -4.0152936  0.018938262    -5.058622    1.0433284      8192000 
  480000   0.69312718   -5.0560357   -5.0560357   -4.0163452 0.0023132962   -5.0560357    1.0396905      8192000 
  481000   0.69023113   -5.0526678   -5.0526678   -4.0173214 -0.013437269   -5.0526678    1.0353464      8192000 
  482000   0.68724879    -5.049387    -5.049387   -4.0185141 -0.027843566    -5.049387    1.0308729      8192000 
  483000   0.68456978   -5.0461792   -5.0461792   -4.0193247 -0.042621765   -5.0461792    1.0268544      8192000 
  484000   0.68276467   -5.0442153   -5.0442153   -4.0200685  -0.05529839   -5.0442153    1.0241468      8192000 
  485000   0.68075339   -5.0419737   -5.0419737   -4.0208438 -0.064078207   -5.0419737    1.0211298      8192000 
  486000   0.67913707    -5.040339    -5.040339   -4.0216336 -0.071519733    -5.040339    1.0187053      8192000 
  487000   0.67818362   -5.0396864   -5.0396864   -4.0224112 -0.075612153   -5.0396864    1.0172752      8192000 
  488000   0.67783387   -5.0399889   -5.0399889   -4.0232384 -0.076332863   -5.0399889    1.0167506      8192000 
  489000   0.67847385   -5.0417735   -5.0417735    -4.024063 -0.074694812   -5.0417735    1.0177105      8192000 
  490000   0.67930791   -5.0441389   -5.0441389   -4.0251773 -0.069966885   -5.0441389    1.0189616      8192000 
  491000   0.68074579    -5.047131    -5.047131   -4.0260126 -0.060823765    -5.047131    1.0211184      8192000 
  492000   0.68251985   -5.0508929   -5.0508929   -4.0271134 -0.052200746   -5.0508929    1.0237795      8192000 
  493000   0.68381023   -5.0538055   -5.0538055   -4.0280905 -0.037841967   -5.0538055    1.0257151      8192000 
  494000   0.68632674   -5.0589181   -5.0589181   -4.0294282 -0.024817765   -5.0589181    1.0294899      8192000 
  495000   0.68855752   -5.0634442   -5.0634442   -4.0306082 -0.0089611795   -5.0634442     1.032836      8192000 
  496000   0.69076993   -5.0681725   -5.0681725   -4.0320179 0.0059549559   -5.0681725    1.0361546      8192000 
  497000   0.69324348   -5.0731597   -5.0731597   -4.0332947  0.018672892   -5.0731597     1.039865      8192000 
  498000   0.69513175   -5.0775482   -5.0775482   -4.0348508  0.031016493   -5.0775482    1.0426974      8192000 
  499000   0.69631412   -5.0805887   -5.0805887   -4.0361177  0.041181116   -5.0805887    1.0444709      8192000 
  500000   0.69738007    -5.083609    -5.083609   -4.0375392  0.048581175    -5.083609    1.0460698      8192000 
  501000   0.69737759    -5.085003    -5.085003   -4.0389368  0.054568838    -5.085003    1.0460661      8192000 
  502000   0.69732752    -5.086223    -5.086223    -4.040232  0.053946215    -5.086223     1.045991      8192000 
  503000    0.6967609   -5.0864629   -5.0864629   -4.0413218  0.050579397   -5.0864629    1.0451411      8192000 
  504000   0.69542364   -5.0856438   -5.0856438   -4.0425086  0.045002791   -5.0856438    1.0431352      8192000 
  505000   0.69394115   -5.0846256   -5.0846256   -4.0437141  0.034524417   -5.0846256    1.0409115      8192000 
  506000   0.69217175   -5.0828557   -5.0828557   -4.0445983  0.022303764   -5.0828557    1.0382574      8192000 
  507000   0.69007924    -5.080956    -5.080956   -4.0458374 0.0091518676    -5.080956    1.0351186      8192000 
  508000   0.68749377   -5.0778481   -5.0778481   -4.0466078 -0.0045258192   -5.0778481    1.0312404      8192000 
  509000   0.68487448   -5.0748381   -5.0748381   -4.0475267 -0.019018539   -5.0748381    1.0273115      8192000 
  510000   0.68271183   -5.0725466   -5.0725466   -4.0484791 -0.033800724   -5.0725466    1.0240675      8192000 
  511000    0.6805478     -5.06993     -5.06993   -4.0491086 -0.044752209     -5.06993    1.0208214      8192000 
  512000   0.67840141   -5.0675534   -5.0675534   -4.0499515 -0.054769673   -5.0675534    1.0176019      8192000 
  513000   0.67711699   -5.0664142   -5.0664142    -4.050739 -0.062370383   -5.0664142    1.0156752      8192000 
  514000   0.67540059   -5.0647244   -5.0647244   -4.0516237 -0.066265062   -5.0647244    1.0131006      8192000 
  515000   0.67521341   -5.0652425   -5.0652425   -4.0524226 -0.069174049   -5.0652425    1.0128199      8192000 
  516000   0.67533405   -5.0664565   -5.0664565   -4.0534557 -0.070902861   -5.0664565    1.0130008      8192000 
  517000   0.67599137   -5.0683228   -5.0683228    -4.054336 -0.067138605   -5.0683228    1.0139868      8192000 
  518000   0.67671556   -5.0703983   -5.0703983   -4.0553252 -0.060700952   -5.0703983    1.0150731      8192000 
  519000   0.67816403   -5.0735012   -5.0735012   -4.0562554 -0.051061671   -5.0735012    1.0172458      8192000 
  520000   0.67988012   -5.0768873   -5.0768873   -4.0570674 -0.040917004   -5.0768873    1.0198199      8192000 
  521000   0.68175214   -5.0809408   -5.0809408   -4.0583129  -0.02993803   -5.0809408     1.022628      8192000 
  522000   0.68348303   -5.0846906   -5.0846906   -4.0594663 -0.015543404   -5.0846906    1.0252243      8192000 
  523000   0.68561369   -5.0890479   -5.0890479   -4.0606276 -0.001400726   -5.0890479    1.0284203      8192000 
  524000   0.68723738   -5.0925924   -5.0925924   -4.0617366  0.012910786   -5.0925924    1.0308558      8192000 
  525000    0.6895354   -5.0971721   -5.0971721   -4.0628692  0.023180646   -5.0971721    1.0343028      8192000 
  526000   0.69067377    -5.100437    -5.100437   -4.0644266  0.033379786    -5.100437    1.0360104      8192000 
  527000   0.69192535   -5.1037323   -5.1037323   -4.0658446  0.039336049   -5.1037323    1.0378878      8192000 
  528000   0.69214504   -5.1054738   -5.1054738   -4.0672565  0.043779005   -5.1054738    1.0382173      8192000 
  529000   0.69211286   -5.1064242   -5.1064242   -4.0682552   0.04713683   -5.1064242     1.038169      8192000 
  530000   0.69174921   -5.1070016   -5.1070016   -4.0693781  0.044904044   -5.1070016    1.0376236      8192000 
  531000   0.69073959   -5.1063768   -5.1063768   -4.0702677   0.04001228   -5.1063768    1.0361091      8192000 
  532000   0.68939377   -5.1055647   -5.1055647   -4.0714743  0.032466403   -5.1055647    1.0340904      8192000 
  533000   0.68790489   -5.1046135   -5.1046135   -4.0727564  0.020683762   -5.1046135    1.0318571      8192000 
  534000   0.68567462   -5.1022588   -5.1022588   -4.0737471  0.009080029   -5.1022588    1.0285117      8192000 
  535000   0.68351061   -5.1000229   -5.1000229   -4.0747573 -0.0025005992   -5.1000229    1.0252657      8192000 
  536000   0.68130606   -5.0973975   -5.0973975   -4.0754386 -0.015558847   -5.0973975    1.0219588      8192000 
  537000   0.67922329   -5.0949801   -5.0949801   -4.0761454 -0.027671669   -5.0949801    1.0188347      8192000 
  538000   0.67739688   -5.0932923   -5.0932923   -4.0771972 -0.041316863   -5.0932923    1.0160951      8192000 
  539000   0.67555121   -5.0911962   -5.0911962   -4.0778696 -0.048591335   -5.0911962    1.0133266      8192000 
  540000    0.6743337    -5.090289    -5.090289   -4.0787887 -0.056806388    -5.090289    1.0115003      8192000 
  541000    0.6733501    -5.089715    -5.089715   -4.0796901 -0.063087553    -5.089715    1.0100249      8192000 
  542000   0.67293593   -5.0898415   -5.0898415   -4.0804378 -0.064559587   -5.0898415    1.0094036      8192000 
  543000   0.67285924   -5.0904887   -5.0904887   -4.0812001 -0.064607259   -5.0904887    1.0092886      8192000 
  544000   0.67290905   -5.0915914   -5.0915914   -4.0822281 -0.062358621   -5.0915914    1.0093633      8192000 
  545000   0.67364711   -5.0936958   -5.0936958   -4.0832254 -0.056239741   -5.0936958    1.0104704      8192000 
  546000   0.67525105   -5.0969874   -5.0969874    -4.084111 -0.048233664   -5.0969874    1.0128763      8192000 
  547000    0.6764904   -5.0997025   -5.0997025   -4.0849672 -0.037213052   -5.0997025    1.0147353      8192000 
  548000   0.67811025   -5.1032041   -5.1032041    -4.086039 -0.026066767   -5.1032041    1.0171651      8192000 
  549000   0.67994682   -5.1069573   -5.1069573   -4.0870373 -0.014041219   -5.1069573      1.01992      8192000 
  550000   0.68194609   -5.1112332   -5.1112332   -4.0883143 -0.0043903304   -5.1112332    1.0229189      8192000 
  551000    0.6838461   -5.1151954   -5.1151954   -4.0894265 0.0093328342   -5.1151954    1.0257689      8192000 
  552000   0.68454744   -5.1175301   -5.1175301   -4.0907092  0.021511525   -5.1175301    1.0268209      8192000 
  553000   0.68611121    -5.121142    -5.121142   -4.0919754    0.0283009    -5.121142    1.0291666      8192000 
  554000   0.68688975   -5.1235561   -5.1235561   -4.0932217  0.033502994   -5.1235561    1.0303344      8192000 
  555000   0.68693509   -5.1247342   -5.1247342   -4.0943318  0.039740495   -5.1247342    1.0304024      8192000 
  556000   0.68714765   -5.1263223   -5.1263223   -4.0956011  0.038605212   -5.1263223    1.0307212      8192000 
  557000   0.68663936   -5.1266743   -5.1266743   -4.0967155  0.036298406   -5.1266743    1.0299588      8192000 
  558000   0.68593482   -5.1267757   -5.1267757   -4.0978737  0.030331804   -5.1267757     1.028902      8192000 
  559000   0.68439489   -5.1254459   -5.1254459   -4.0988538  0.024186914   -5.1254459    1.0265921      8192000 
  560000   0.68329623   -5.1247689   -5.1247689   -4.0998248   0.01259313   -5.1247689    1.0249441      8192000 
  561000   0.68131953   -5.1224819   -5.1224819   -4.1005029  0.004163611   -5.1224819     1.021979      8192000 
  562000   0.67873701   -5.1194781   -5.1194781   -4.1013729 -0.0073591839   -5.1194781    1.0181053      8192000 
  563000   0.67707187   -5.1180156   -5.1180156    -4.102408 -0.019827245   -5.1180156    1.0156075      8192000 
  564000   0.67530996   -5.1162218   -5.1162218   -4.1032571 -0.030209829   -5.1162218    1.0129647      8192000 
  565000   0.67353142   -5.1140399   -5.1140399    -4.103743 -0.038938119   -5.1140399    1.0102969      8192000 
  566000   0.67260185   -5.1135785   -5.1135785    -4.104676 -0.048282458   -5.1135785    1.0089025      8192000 
  567000   0.67124664   -5.1126593   -5.1126593   -4.1057896 -0.053524919   -5.1126593    1.0068697      8192000 
  568000   0.67053462   -5.1123185   -5.1123185   -4.1065168 -0.056969103   -5.1123185    1.0058017      8192000 
  569000   0.67038058   -5.1127545   -5.1127545   -4.1071839 -0.059757304   -5.1127545    1.0055706      8192000 
  570000   0.67057935   -5.1139068   -5.1139068    -4.108038 -0.057390075   -5.1139068    1.0058688      8192000 
  571000   0.67100598   -5.1153988   -5.1153988   -4.1088901 -0.054456756   -5.1153988    1.0065087      8192000 
  572000   0.67146985   -5.1170801   -5.1170801   -4.1098756 -0.047036948   -5.1170801    1.0072045      8192000 
  573000   0.67285299   -5.1200893   -5.1200893   -4.1108101 -0.037910125   -5.1200893    1.0092792      8192000 
  574000   0.67406188   -5.1230518   -5.1230518   -4.1119592 -0.029521707   -5.1230518    1.0110926      8192000 
  575000   0.67577821    -5.126832    -5.126832    -4.113165 -0.019793884    -5.126832    1.0136671      8192000 
  576000   0.67717874   -5.1301716   -5.1301716   -4.1144037 -0.0098834032   -5.1301716    1.0157678      8192000 
  577000   0.67873918   -5.1335615   -5.1335615    -4.115453 0.0023758822   -5.1335615    1.0181085      8192000 
  578000   0.68023523   -5.1369447   -5.1369447   -4.1165921  0.011171581   -5.1369447    1.0203526      8192000 
  579000   0.68119584   -5.1396928   -5.1396928   -4.1178993  0.018371118   -5.1396928    1.0217935      8192000 
  580000   0.68197353   -5.1419393   -5.1419393   -4.1189793  0.025578605   -5.1419393      1.02296      8192000 
  581000   0.68229438   -5.1433693   -5.1433693    -4.119928   0.03043793   -5.1433693    1.0234413      8192000 
  582000   0.68275586   -5.1452525   -5.1452525   -4.1211189  0.029963065   -5.1452525    1.0241335      8192000 
  583000   0.68263647    -5.146167    -5.146167   -4.1222125  0.028472303    -5.146167    1.0239544      8192000 
  584000   0.68180848   -5.1460724   -5.1460724   -4.1233599  0.026236762   -5.1460724    1.0227125      8192000 
  585000   0.68067389   -5.1455991   -5.1455991   -4.1245885  0.019276397   -5.1455991    1.0210106      8192000 
  586000   0.67948186   -5.1449164   -5.1449164   -4.1256938 0.0090213111   -5.1449164    1.0192225      8192000 
  587000   0.67789678   -5.1433988   -5.1433988   -4.1265539 0.0011832065   -5.1433988    1.0168449      8192000 
  588000   0.67575967   -5.1410158   -5.1410158   -4.1273766 -0.0065077302   -5.1410158    1.0136392      8192000 
  589000   0.67442484   -5.1400638   -5.1400638   -4.1284268 -0.017986122   -5.1400638     1.011637      8192000 
  590000   0.67300257   -5.1384732   -5.1384732   -4.1289696 -0.028720659   -5.1384732    1.0095036      8192000 
  591000   0.67097886   -5.1360932   -5.1360932   -4.1296251 -0.035938214   -5.1360932     1.006468      8192000 
  592000   0.66999047   -5.1354326   -5.1354326   -4.1304472 -0.042870867   -5.1354326    1.0049855      8192000 
  593000   0.66894928   -5.1346872   -5.1346872   -4.1312635 -0.049204088   -5.1346872    1.0034237      8192000 
  594000    0.6684525   -5.1346798   -5.1346798   -4.1320013 -0.052236996   -5.1346798    1.0026785      8192000 
  595000   0.66802933   -5.1348954   -5.1348954   -4.1328517 -0.053283289   -5.1348954    1.0020437      8192000 
  596000   0.66779202   -5.1354652   -5.1354652   -4.1337774 -0.053235789   -5.1354652    1.0016878      8192000 
  597000   0.66794517   -5.1366703   -5.1366703   -4.1347528 -0.051448112   -5.1366703    1.0019175      8192000 
  598000   0.66888818   -5.1388085   -5.1388085   -4.1354765 -0.045949201   -5.1388085     1.003332      8192000 
  599000   0.66955424   -5.1407668   -5.1407668   -4.1364357 -0.037084011   -5.1407668    1.0043311      8192000 
  600000   0.67115569   -5.1444162   -5.1444162   -4.1376829  -0.03157488   -5.1444162    1.0067333      8192000 
  601000   0.67237412   -5.1473485   -5.1473485   -4.1387875  -0.02045588   -5.1473485    1.0085609      8192000 
  602000    0.6735459    -5.150233    -5.150233   -4.1399144 -0.010931743    -5.150233    1.0103186      8192000 
  603000   0.67498752   -5.1534455   -5.1534455   -4.1409645 -0.0024147883   -5.1534455     1.012481      8192000 
  604000   0.67611298   -5.1561659   -5.1561659   -4.1419967 0.0066745809   -5.1561659    1.0141692      8192000 
  605000   0.67715662   -5.1587542   -5.1587542   -4.1430195  0.014148133   -5.1587542    1.0157347      8192000 
  606000    0.6775429   -5.1604084   -5.1604084   -4.1440943  0.021225426   -5.1604084    1.0163141      8192000 
  607000   0.67805958   -5.1622573   -5.1622573   -4.1451682  0.025129156   -5.1622573    1.0170891      8192000 
  608000    0.6782554   -5.1637185   -5.1637185   -4.1463357  0.025906321   -5.1637185    1.0173829      8192000 
  609000   0.67816791   -5.1648414   -5.1648414   -4.1475898  0.023034367   -5.1648414    1.0172516      8192000 
  610000   0.67721016   -5.1643187   -5.1643187   -4.1485037  0.021901062   -5.1643187     1.015815      8192000 
  611000   0.67690465   -5.1648074   -5.1648074   -4.1494507  0.014415595   -5.1648074    1.0153567      8192000 
  612000   0.67521988   -5.1633345   -5.1633345   -4.1505049 0.0089717229   -5.1633345    1.0128296      8192000 
  613000   0.67398723   -5.1621768   -5.1621768   -4.1511962 0.00021034225   -5.1621768    1.0109806      8192000 
  614000   0.67258589   -5.1609429   -5.1609429   -4.1520644 -0.010617037   -5.1609429    1.0088786      8192000 
  615000   0.67122662   -5.1598274   -5.1598274   -4.1529877 -0.017624986   -5.1598274    1.0068397      8192000 
  616000   0.66959865   -5.1580366   -5.1580366   -4.1536389 -0.026830958   -5.1580366    1.0043977      8192000 
  617000   0.66787821   -5.1565451   -5.1565451   -4.1547281 -0.033169029   -5.1565451    1.0018171      8192000 
  618000    0.6670029   -5.1559744   -5.1559744   -4.1554703 -0.040382661   -5.1559744    1.0005041      8192000 
  619000   0.66620718   -5.1554305   -5.1554305     -4.15612  -0.04551594   -5.1554305   0.99931052      8192000 
  620000   0.66575067   -5.1554909   -5.1554909   -4.1568652 -0.050517938   -5.1554909   0.99862576      8192000 
  621000   0.66538923   -5.1558541   -5.1558541   -4.1577705 -0.050367898   -5.1558541   0.99808359      8192000 
  622000   0.66539552   -5.1566672   -5.1566672   -4.1585741 -0.049091062   -5.1566672   0.99809303      8192000 
  623000   0.66546541   -5.1575951   -5.1575951   -4.1593973 -0.045695215   -5.1575951   0.99819786      8192000 
  624000   0.66660822   -5.1600711   -5.1600711    -4.160159 -0.041372088   -5.1600711   0.99991208      8192000 
  625000    0.6673527   -5.1622867   -5.1622867    -4.161258 -0.035667823   -5.1622867    1.0010288      8192000 
  626000   0.66857719   -5.1649307   -5.1649307   -4.1620651 -0.027766872   -5.1649307    1.0028655      8192000 
  627000   0.66984164   -5.1678502   -5.1678502    -4.163088 -0.019622485   -5.1678502    1.0047622      8192000 
  628000   0.67066099   -5.1701847   -5.1701847   -4.1641935 -0.0089834891   -5.1701847    1.0059912      8192000 
  629000     0.671716   -5.1727761   -5.1727761   -4.1652023 -0.0013121059   -5.1727761    1.0075738      8192000 
  630000   0.67305554   -5.1756881   -5.1756881   -4.1661051 0.0048950016   -5.1756881    1.0095831      8192000 
  631000    0.6737409   -5.1779822   -5.1779822   -4.1673711  0.010011092   -5.1779822    1.0106111      8192000 
  632000   0.67409319   -5.1795896   -5.1795896   -4.1684501  0.016149553   -5.1795896    1.0111395      8192000 
  633000   0.67447351   -5.1812103   -5.1812103   -4.1695003  0.018602005   -5.1812103      1.01171      8192000 
  634000   0.67444841    -5.182225    -5.182225   -4.1705526  0.020007602    -5.182225    1.0116724      8192000 
  635000   0.67359043   -5.1821527   -5.1821527   -4.1717673  0.018225838   -5.1821527    1.0103854      8192000 
  636000   0.67348868   -5.1829128   -5.1829128     -4.17268  0.014053929   -5.1829128    1.0102328      8192000 
  637000   0.67212079   -5.1819103   -5.1819103   -4.1737294 0.0088560209   -5.1819103    1.0081809      8192000 
  638000   0.67126301   -5.1814704   -5.1814704   -4.1745762 0.0026109538   -5.1814704    1.0068943      8192000 
  639000   0.67051065   -5.1810448   -5.1810448   -4.1752791 -0.0064098835   -5.1810448    1.0057657      8192000 
  640000   0.66891278   -5.1793845   -5.1793845   -4.1760156 -0.013234481   -5.1793845    1.0033689      8192000 
  641000   0.66716755   -5.1775882   -5.1775882   -4.1768371 -0.021335658   -5.1775882    1.0007511      8192000 
  642000   0.66587197    -5.176312    -5.176312   -4.1775043 -0.029102097    -5.176312   0.99880771      8192000 
  643000   0.66487841   -5.1757143   -5.1757143   -4.1783969 -0.035773067   -5.1757143   0.99731737      8192000 
  644000   0.66417831   -5.1754859   -5.1754859   -4.1792187 -0.041502579   -5.1754859   0.99626721      8192000 
  645000   0.66370014   -5.1756118   -5.1756118   -4.1800619 -0.045895175   -5.1756118   0.99554996      8192000 
  646000   0.66323646   -5.1756691   -5.1756691   -4.1808147 -0.048199237   -5.1756691   0.99485444      8192000 
  647000   0.66316546   -5.1764145   -5.1764145   -4.1816665 -0.048363473   -5.1764145   0.99474795      8192000 
  648000   0.66285097   -5.1768638   -5.1768638   -4.1825876 -0.045790768   -5.1768638   0.99427621      8192000 
  649000   0.66343701   -5.1785003   -5.1785003   -4.1833451 -0.042912962   -5.1785003   0.99515527      8192000 
  650000    0.6643259   -5.1806753   -5.1806753   -4.1841867 -0.036304299   -5.1806753    0.9964886      8192000 
  651000   0.66524041   -5.1829227   -5.1829227   -4.1850623 -0.031108101   -5.1829227   0.99786037      8192000 
  652000    0.6658939   -5.1851138   -5.1851138   -4.1862732 -0.024177595   -5.1851138   0.99884061      8192000 
  653000   0.66716509   -5.1879188   -5.1879188   -4.1871714 -0.015504051   -5.1879188    1.0007474      8192000 
  654000   0.66784267   -5.1897778   -5.1897778    -4.188014 -0.0072460476   -5.1897778    1.0017638      8192000 
  655000    0.6691286   -5.1927193   -5.1927193   -4.1890267 -0.00013861051   -5.1927193    1.0036926      8192000 
  656000   0.66946739   -5.1945288   -5.1945288    -4.190328 0.0059123948   -5.1945288    1.0042008      8192000 
  657000   0.67043659   -5.1971224   -5.1971224   -4.1914678  0.010641688   -5.1971224    1.0056546      8192000 
  658000   0.67078836    -5.198466    -5.198466   -4.1922837  0.013576814    -5.198466    1.0061823      8192000 
  659000   0.67062518   -5.1993632   -5.1993632   -4.1934257  0.013571767   -5.1993632    1.0059375      8192000 
  660000   0.67022887   -5.1997665   -5.1997665   -4.1944234  0.014450639   -5.1997665     1.005343      8192000 
  661000   0.67014905    -5.200467    -5.200467   -4.1952436   0.01035968    -5.200467    1.0052233      8192000 
  662000   0.66910702   -5.2000143   -5.2000143   -4.1963541 0.0078475937   -5.2000143    1.0036603      8192000 
  663000   0.66806878   -5.1993592   -5.1993592   -4.1972562 0.00041661322   -5.1993592    1.0021029      8192000 
  664000   0.66720767   -5.1987414   -5.1987414   -4.1979302 -0.0057685294   -5.1987414    1.0008112      8192000 
  665000   0.66616444   -5.1977175   -5.1977175   -4.1984711 -0.013445716   -5.1977175   0.99924641      8192000 
  666000     0.664889    -5.196686    -5.196686   -4.1993528 -0.019213055    -5.196686   0.99733326      8192000 
  667000   0.66368207   -5.1958084   -5.1958084   -4.2002856 -0.026273576   -5.1958084   0.99552286      8192000 
  668000   0.66261595    -5.195271    -5.195271   -4.2013473   -0.0333193    -5.195271   0.99392367      8192000 
  669000    0.6619372   -5.1948022   -5.1948022   -4.2018967 -0.039695596   -5.1948022   0.99290555      8192000 
  670000    0.6611222    -5.194199    -5.194199   -4.2025159 -0.043177397    -5.194199   0.99168305      8192000 
  671000   0.66063448   -5.1943028   -5.1943028   -4.2033514 -0.044333217   -5.1943028   0.99095147      8192000 
  672000   0.66042635   -5.1947457   -5.1947457   -4.2041064 -0.043731849   -5.1947457   0.99063928      8192000 
  673000   0.66030797   -5.1953106   -5.1953106   -4.2048489  -0.04142438   -5.1953106    0.9904617      8192000 
  674000   0.66052605    -5.196671    -5.196671   -4.2058822 -0.038686941    -5.196671   0.99078883      8192000 
  675000   0.66150298   -5.1989976   -5.1989976   -4.2067434 -0.036746365   -5.1989976   0.99225422      8192000 
  676000    0.6620807   -5.2005707   -5.2005707   -4.2074499 -0.029321145   -5.2005707   0.99312081      8192000 
  677000   0.66288855   -5.2026136   -5.2026136    -4.208281 -0.022047187   -5.2026136   0.99433258      8192000 
  678000   0.66413779   -5.2053195   -5.2053195    -4.209113 -0.016822493   -5.2053195   0.99620643      8192000 
  679000   0.66463796   -5.2074055   -5.2074055   -4.2104488 -0.0098286971   -5.2074055    0.9969567      8192000 
  680000   0.66524826   -5.2092313   -5.2092313   -4.2113591 -0.0026401361   -5.2092313   0.99787214      8192000 
  681000   0.66625395   -5.2118255   -5.2118255   -4.2124449 0.0012168325   -5.2118255   0.99938067      8192000 
  682000    0.6666731   -5.2134524   -5.2134524    -4.213443 0.0059660217   -5.2134524    1.0000094      8192000 
  683000   0.66660603   -5.2143718   -5.2143718    -4.214463 0.0095205055   -5.2143718   0.99990879      8192000 
  684000   0.66673337   -5.2157476   -5.2157476   -4.2156478  0.011067103   -5.2157476    1.0000998      8192000 
  685000   0.66667661   -5.2167813   -5.2167813   -4.2167666  0.008384056   -5.2167813    1.0000147      8192000 
  686000   0.66617929   -5.2166864   -5.2166864   -4.2174177 0.0067291447   -5.2166864   0.99926869      8192000 
  687000   0.66558646   -5.2165595   -5.2165595     -4.21818  0.003734508   -5.2165595   0.99837944      8192000 
  688000   0.66512593   -5.2167671   -5.2167671   -4.2190785 -0.0025121357   -5.2167671   0.99768865      8192000 
  689000   0.66422694   -5.2161542   -5.2161542    -4.219814 -0.0094048495   -5.2161542   0.99634016      8192000 
  690000   0.66283602   -5.2147602   -5.2147602   -4.2205064 -0.014053742   -5.2147602   0.99425379      8192000 
  691000   0.66178763   -5.2137679   -5.2137679   -4.2210867 -0.019112853   -5.2137679    0.9926812      8192000 
  692000   0.66095372   -5.2136242   -5.2136242   -4.2221938 -0.026674351   -5.2136242   0.99143033      8192000 
  693000   0.66001106   -5.2128572   -5.2128572   -4.2228408 -0.032492442   -5.2128572   0.99001634      8192000 
  694000   0.65956734   -5.2129093   -5.2129093   -4.2235585  -0.03757335   -5.2129093   0.98935076      8192000 
  695000   0.65840163   -5.2118572   -5.2118572    -4.224255 -0.038423552   -5.2118572    0.9876022      8192000 
  696000   0.65859032    -5.212769    -5.212769   -4.2248837 -0.040536908    -5.212769   0.98788524      8192000 
  697000   0.65845141   -5.2134554   -5.2134554   -4.2257785 -0.041107739   -5.2134554   0.98767687      8192000 
  698000   0.65823917    -5.213813    -5.213813   -4.2264545 -0.039951123    -5.213813    0.9873585      8192000 
  699000   0.65885238   -5.2155185   -5.2155185   -4.2272402 -0.038951393   -5.2155185   0.98827833      8192000 
  700000   0.65925837   -5.2166906   -5.2166906   -4.2278033 -0.032213406   -5.2166906   0.98888731      8192000 
  701000   0.66018837    -5.219018    -5.219018   -4.2287357 -0.027483242    -5.219018   0.99028231      8192000 
  702000   0.66034111   -5.2203083   -5.2203083   -4.2297968 -0.020775095   -5.2203083   0.99051142      8192000 
  703000   0.66140166   -5.2227617   -5.2227617   -4.2306594 -0.015841911   -5.2227617   0.99210224      8192000 
  704000   0.66199685   -5.2247681   -5.2247681   -4.2317731 -0.011715759   -5.2247681   0.99299502      8192000 
  705000   0.66246545   -5.2263209   -5.2263209    -4.232623 -0.0041329132   -5.2263209   0.99369793      8192000 
  706000   0.66323517   -5.2286403   -5.2286403   -4.2337878 -0.00095046757   -5.2286403    0.9948525      8192000 
  707000   0.66362142   -5.2299804   -5.2299804   -4.2345485 0.0035495261   -5.2299804   0.99543188      8192000 
  708000   0.66416032   -5.2313537   -5.2313537   -4.2351135 0.0057482847   -5.2313537   0.99624023      8192000 
  709000   0.66403802   -5.2318722   -5.2318722   -4.2358154   0.00724669   -5.2318722   0.99605678      8192000 
  710000   0.66359789   -5.2321188   -5.2321188   -4.2367222 0.0057524635   -5.2321188   0.99539659      8192000 
  711000   0.66359281   -5.2331497   -5.2331497   -4.2377607 0.0021673058   -5.2331497   0.99538896      8192000 
  712000   0.66289781   -5.2331447   -5.2331447   -4.2387982 -0.00079214544   -5.2331447   0.99434647      8192000 
  713000   0.66183847   -5.2324536   -5.2324536   -4.2396962 -0.0044116777   -5.2324536   0.99275745      8192000 
  714000   0.66132588    -5.232504    -5.232504   -4.2405154 -0.012443775    -5.232504   0.99198857      8192000 
  715000   0.65998625   -5.2314468   -5.2314468   -4.2414677 -0.016494326   -5.2314468   0.98997913      8192000 
  716000   0.65874083   -5.2301681   -5.2301681   -4.2420571 -0.021321956   -5.2301681     0.988111      8192000 
  717000   0.65823831   -5.2301813   -5.2301813    -4.242824 -0.028266604   -5.2301813   0.98735722      8192000 
  718000   0.65774275   -5.2300868   -5.2300868    -4.243473 -0.032776266   -5.2300868   0.98661388      8192000 
  719000   0.65683459   -5.2296153   -5.2296153   -4.2443636 -0.034988624   -5.2296153   0.98525164      8192000 
  720000   0.65649384   -5.2296505   -5.2296505     -4.24491 -0.036705411   -5.2296505   0.98474051      8192000 
  721000   0.65635324   -5.2303998   -5.2303998   -4.2458702 -0.038151491   -5.2303998   0.98452962      8192000 
  722000   0.65604552   -5.2309553   -5.2309553   -4.2468873 -0.038385257   -5.2309553   0.98406804      8192000 
  723000   0.65629702   -5.2320244   -5.2320244   -4.2475791 -0.035433716   -5.2320244   0.98444529      8192000 
  724000   0.65636151   -5.2330426   -5.2330426   -4.2485006  -0.03365033   -5.2330426   0.98454202      8192000 
  725000   0.65719373   -5.2350598   -5.2350598   -4.2492695 -0.030557847   -5.2350598   0.98579034      8192000 
  726000    0.6572502   -5.2360669   -5.2360669   -4.2501918 -0.025666292   -5.2360669   0.98587506      8192000 
  727000   0.65804919    -5.238157    -5.238157   -4.2510834 -0.019649169    -5.238157   0.98707353      8192000 
  728000   0.65889721   -5.2403625   -5.2403625   -4.2520169 -0.014548425   -5.2403625   0.98834557      8192000 
  729000   0.65956996   -5.2422853   -5.2422853   -4.2529306 -0.0087809106   -5.2422853   0.98935469      8192000 
  730000   0.66014828   -5.2440341   -5.2440341    -4.253812 -0.0051629961   -5.2440341   0.99022218      8192000 
  731000    0.6605341   -5.2454484   -5.2454484   -4.2546474 -0.0018794347   -5.2454484    0.9908009      8192000 
  732000   0.66079627   -5.2469353   -5.2469353   -4.2557411 9.7218492e-05   -5.2469353   0.99119416      8192000 
  733000   0.66045957   -5.2474029   -5.2474029   -4.2567138 0.0024721047   -5.2474029    0.9906891      8192000 
  734000   0.66039125   -5.2482947   -5.2482947   -4.2577081 0.0023413452   -5.2482947   0.99058663      8192000 
  735000    0.6604012   -5.2492644   -5.2492644   -4.2586629 -0.0016724591   -5.2492644   0.99060155      8192000 
  736000   0.65948377    -5.248866    -5.248866   -4.2596406 -0.0028161688    -5.248866    0.9892254      8192000 
  737000   0.65918955   -5.2488541   -5.2488541     -4.26007 -0.0063268619   -5.2488541   0.98878408      8192000 
  738000   0.65834327   -5.2480928   -5.2480928   -4.2605782 -0.010152183   -5.2480928   0.98751465      8192000 
  739000    0.6576951   -5.2482252   -5.2482252   -4.2616828 -0.017035725   -5.2482252    0.9865424      8192000 
  740000   0.65670588   -5.2473682   -5.2473682   -4.2623096 -0.020194745   -5.2473682   0.98505858      8192000 
  741000   0.65607385   -5.2473236   -5.2473236    -4.263213 -0.025261385   -5.2473236   0.98411052      8192000 
  742000   0.65526096   -5.2470196   -5.2470196   -4.2641284 -0.030544384   -5.2470196   0.98289119      8192000 
  743000   0.65465372   -5.2469632   -5.2469632   -4.2649829 -0.033110291   -5.2469632   0.98198034      8192000 
  744000   0.65405413   -5.2467488   -5.2467488   -4.2656679 -0.035495357   -5.2467488   0.98108095      8192000 
  745000   0.65376856   -5.2472341   -5.2472341   -4.2665815 -0.037867244   -5.2472341   0.98065259      8192000 
  746000   0.65372779   -5.2480002   -5.2480002   -4.2674088  -0.03712608   -5.2480002   0.98059143      8192000 
  747000   0.65391843   -5.2491536   -5.2491536   -4.2682762 -0.036248028   -5.2491536    0.9808774      8192000 
  748000   0.65416085   -5.2503475   -5.2503475   -4.2691065 -0.034806122   -5.2503475   0.98124103      8192000 
  749000   0.65477395   -5.2519988   -5.2519988   -4.2698381 -0.030995453   -5.2519988   0.98216068      8192000 
  750000   0.65524868   -5.2534456   -5.2534456   -4.2705728 -0.027507988   -5.2534456   0.98287277      8192000 
  751000   0.65531611   -5.2542907   -5.2542907   -4.2713168 -0.021141097   -5.2542907   0.98297392      8192000 
  752000   0.65587937   -5.2559683   -5.2559683   -4.2721495  -0.01584367   -5.2559683   0.98381881      8192000 
  753000   0.65700022   -5.2586268   -5.2586268   -4.2731267 -0.014060861   -5.2586268   0.98550008      8192000 
  754000   0.65705027   -5.2595723   -5.2595723   -4.2739971 -0.0075476525   -5.2595723   0.98557516      8192000 
  755000   0.65747195   -5.2610693   -5.2610693   -4.2748616 -0.0050161546   -5.2610693   0.98620768      8192000 
  756000   0.65812797   -5.2628751   -5.2628751   -4.2756834 -0.0035211518   -5.2628751   0.98719171      8192000 
  757000   0.65791678   -5.2635144   -5.2635144   -4.2766395 -0.0013693308   -5.2635144   0.98687492      8192000 
  758000   0.65768491   -5.2639629   -5.2639629   -4.2774358 -0.0008867836   -5.2639629   0.98652712      8192000 
  759000   0.65727667   -5.2644168   -5.2644168   -4.2785021 -0.004360712   -5.2644168   0.98591476      8192000 
  760000   0.65678274   -5.2645792   -5.2645792   -4.2794053 -0.0041869842   -5.2645792   0.98517386      8192000 
  761000   0.65628551   -5.2646504   -5.2646504   -4.2802224 -0.0083396802   -5.2646504   0.98442802      8192000 
  762000   0.65563758    -5.264343    -5.264343   -4.2808868  -0.01186106    -5.264343   0.98345613      8192000 
  763000   0.65486755   -5.2641663   -5.2641663   -4.2818652 -0.016106068   -5.2641663   0.98230107      8192000 
  764000   0.65442555   -5.2642026   -5.2642026   -4.2825645 -0.021298292   -5.2642026   0.98163808      8192000 
  765000   0.65385065   -5.2640318   -5.2640318   -4.2832561 -0.026856619   -5.2640318   0.98077572      8192000 
  766000   0.65297365   -5.2633593   -5.2633593   -4.2838991 -0.029666927   -5.2633593   0.97946024      8192000 
  767000   0.65235196   -5.2631726   -5.2631726   -4.2846449 -0.031518192   -5.2631726    0.9785277      8192000 
  768000   0.65207507   -5.2634982   -5.2634982   -4.2853859 -0.034284541   -5.2634982   0.97811236      8192000 
  769000   0.65159924   -5.2633702   -5.2633702   -4.2859716 -0.034864554   -5.2633702   0.97739861      8192000 
  770000   0.65126438   -5.2635956   -5.2635956   -4.2866992 -0.034694322   -5.2635956   0.97689632      8192000 
  771000   0.65134585   -5.2644745   -5.2644745   -4.2874559 -0.033887193   -5.2644745   0.97701853      8192000 
  772000   0.65161654   -5.2657653   -5.2657653   -4.2883407 -0.031967214   -5.2657653   0.97742456      8192000 
  773000   0.65228457   -5.2676872   -5.2676872   -4.2892606 -0.030505422   -5.2676872   0.97842661      8192000 
  774000   0.65244043    -5.268777    -5.268777   -4.2901166  -0.02580284    -5.268777    0.9786604      8192000 
  775000   0.65289056   -5.2701878   -5.2701878   -4.2908522 -0.021047742   -5.2701878    0.9793356      8192000 
  776000   0.65326718   -5.2717379   -5.2717379   -4.2918374 -0.018774638   -5.2717379   0.97990053      8192000 
  777000   0.65381734   -5.2734566   -5.2734566   -4.2927308 -0.015744609   -5.2734566   0.98072577      8192000 
  778000   0.65414881    -5.274602    -5.274602    -4.293379 -0.010926757    -5.274602   0.98122297      8192000 
  779000   0.65472618   -5.2763276   -5.2763276   -4.2942386 -0.0084575029   -5.2763276   0.98208903      8192000 
  780000   0.65492512   -5.2774599   -5.2774599   -4.2950725 -0.0058283702   -5.2774599   0.98238744      8192000 
  781000   0.65548871   -5.2789637   -5.2789637   -4.2957309 -0.006270539   -5.2789637   0.98323282      8192000 
  782000   0.65478929    -5.278765    -5.278765   -4.2965814 -0.0033051063    -5.278765   0.98218369      8192000 
  783000   0.65512295   -5.2800957   -5.2800957   -4.2974116 -0.0064568647   -5.2800957   0.98268418      8192000 
  784000   0.65445363   -5.2799336   -5.2799336   -4.2982534 -0.0075509482   -5.2799336   0.98168021      8192000 
  785000   0.65404812   -5.2799599   -5.2799599    -4.298888 -0.010103443   -5.2799599   0.98107194      8192000 
  786000   0.65348581   -5.2800213   -5.2800213   -4.2997928 -0.013380241   -5.2800213   0.98022847      8192000 
  787000   0.65267836   -5.2796128   -5.2796128   -4.3005955 -0.017500683   -5.2796128    0.9790173      8192000 
  788000   0.65236384   -5.2799652   -5.2799652   -4.3014197 -0.022096079   -5.2799652   0.97854551      8192000 
  789000   0.65147798    -5.279513    -5.279513   -4.3022963 -0.024644757    -5.279513   0.97721672      8192000 
  790000   0.65092241   -5.2793683   -5.2793683   -4.3029849 -0.027931901   -5.2793683   0.97638337      8192000 
  791000   0.65035482   -5.2793659   -5.2793659   -4.3038339 -0.030785844   -5.2793659   0.97553199      8192000 
  792000    0.6499721   -5.2792446   -5.2792446   -4.3042867 -0.033536246   -5.2792446    0.9749579      8192000 
  793000   0.64969296   -5.2796699   -5.2796699   -4.3051307 -0.032677626   -5.2796699   0.97453919      8192000 
  794000   0.64953777   -5.2802124   -5.2802124    -4.305906 -0.033802465   -5.2802124   0.97430641      8192000 
  795000   0.64975535   -5.2812796   -5.2812796   -4.3066468 -0.034061654   -5.2812796   0.97463278      8192000 
  796000   0.64984049   -5.2820941   -5.2820941   -4.3073336 -0.030469904   -5.2820941   0.97476048      8192000 
  797000   0.65030804   -5.2836176   -5.2836176   -4.3081558 -0.029773765   -5.2836176   0.97546181      8192000 
  798000   0.65068552   -5.2849563   -5.2849563   -4.3089282 -0.026730368   -5.2849563   0.97602804      8192000 
  799000   0.65097878   -5.2860852   -5.2860852   -4.3096173 -0.022466484   -5.2860852   0.97646792      8192000 
  800000   0.65152674    -5.287454    -5.287454   -4.3101641 -0.017789138    -5.287454   0.97728986      8192000 
  801000    0.6517063    -5.288517    -5.288517   -4.3109578  -0.01301864    -5.288517    0.9775592      8192000 
  802000   0.65238802   -5.2905624   -5.2905624   -4.3119807 -0.013224548   -5.2905624   0.97858178      8192000 
  803000   0.65181165   -5.2906446   -5.2906446   -4.3129274 -0.0088597182   -5.2906446   0.97771723      8192000 
  804000   0.65224295   -5.2921671   -5.2921671   -4.3138029 -0.0072113556   -5.2921671   0.97836419      8192000 
  805000    0.6523541   -5.2933623   -5.2933623   -4.3148314 -0.0082818162   -5.2933623    0.9785309      8192000 
  806000   0.65202421   -5.2937148   -5.2937148   -4.3156787 -0.0060747171   -5.2937148   0.97803608      8192000 
  807000   0.65192058   -5.2942313   -5.2942313   -4.3163506 -0.0076617068   -5.2942313   0.97788063      8192000 
  808000   0.65183219   -5.2946707   -5.2946707   -4.3169226 -0.010090956   -5.2946707   0.97774805      8192000 
  809000   0.65136176   -5.2947987   -5.2947987   -4.3177563 -0.013172901   -5.2947987    0.9770424      8192000 
  810000   0.65100188   -5.2949667   -5.2949667   -4.3184641 -0.015679833   -5.2949667   0.97650258      8192000 
  811000    0.6504037   -5.2947021   -5.2947021   -4.3190968 -0.017438106   -5.2947021    0.9756053      8192000 
  812000   0.64971842   -5.2946401   -5.2946401   -4.3200628 -0.021960978   -5.2946401   0.97457739      8192000 
  813000    0.6494145   -5.2947748   -5.2947748   -4.3206533 -0.025022846   -5.2947748   0.97412151      8192000 
  814000   0.64862789   -5.2942314   -5.2942314   -4.3212898 -0.026615754   -5.2942314   0.97294159      8192000 
  815000    0.6486457   -5.2949465   -5.2949465   -4.3219782 -0.030143227   -5.2949465    0.9729683      8192000 
  816000   0.64843803   -5.2954784   -5.2954784   -4.3228216 -0.032559315   -5.2954784    0.9726568      8192000 
  817000   0.64789716   -5.2953045   -5.2953045    -4.323459 -0.031970743   -5.2953045    0.9718455      8192000 
  818000   0.64785286   -5.2962656   -5.2962656   -4.3244866 -0.032342506   -5.2962656   0.97177905      8192000 
  819000   0.64786037   -5.2970048   -5.2970048   -4.3252145 -0.031030536   -5.2970048    0.9717903      8192000 
  820000   0.64780658   -5.2974344   -5.2974344   -4.3257248 -0.027637062   -5.2974344   0.97170962      8192000 
  821000   0.64843957   -5.2988529   -5.2988529   -4.3261937 -0.027159217   -5.2988529   0.97265911      8192000 
  822000   0.64861366   -5.3001542   -5.3001542    -4.327234 -0.024385546   -5.3001542   0.97292025      8192000 
  823000   0.64903335    -5.301713    -5.301713   -4.3281632 -0.021020798    -5.301713   0.97354978      8192000 
  824000   0.64914442   -5.3028276   -5.3028276   -4.3291112  -0.01752916   -5.3028276   0.97371639      8192000 
  825000    0.6495654   -5.3042931   -5.3042931   -4.3299452 -0.015213241   -5.3042931   0.97434785      8192000 
  826000   0.64979306    -5.305346    -5.305346   -4.3306567 -0.013819521    -5.305346   0.97468935      8192000 
  827000    0.6500036   -5.3063497   -5.3063497   -4.3313445 -0.012235616   -5.3063497   0.97500515      8192000 
  828000    0.6499744   -5.3074158   -5.3074158   -4.3324544 -0.011570292   -5.3074158   0.97496136      8192000 
  829000   0.64997104   -5.3080738   -5.3080738   -4.3331175 -0.0097878256   -5.3080738   0.97495631      8192000 
  830000   0.64965829   -5.3083883   -5.3083883   -4.3339011 -0.0096739918   -5.3083883   0.97448719      8192000 
  831000   0.64951155   -5.3089373   -5.3089373   -4.3346703 -0.011825844   -5.3089373   0.97426708      8192000 
  832000   0.64932494   -5.3094218   -5.3094218   -4.3354346 -0.014995807   -5.3094218   0.97398716      8192000 
  833000   0.64848778   -5.3089084   -5.3089084    -4.336177 -0.015806354   -5.3089084   0.97273143      8192000 
  834000   0.64797377   -5.3088134   -5.3088134    -4.336853 -0.018181557   -5.3088134   0.97196042      8192000 
  835000   0.64774035   -5.3092865   -5.3092865   -4.3376762 -0.020971066   -5.3092865   0.97161029      8192000 
  836000    0.6471401   -5.3091008   -5.3091008   -4.3383909 -0.023153581   -5.3091008    0.9707099      8192000 
  837000   0.64658465   -5.3089429   -5.3089429   -4.3390661 -0.026309618   -5.3089429   0.96987673      8192000 
  838000   0.64630849   -5.3092142   -5.3092142   -4.3397517 -0.029349762   -5.3092142   0.96946249      8192000 
  839000    0.6459675   -5.3096022   -5.3096022   -4.3406512 -0.030971927   -5.3096022   0.96895101      8192000 
  840000   0.64586435   -5.3101194   -5.3101194   -4.3413232 -0.032271031   -5.3101194   0.96879628      8192000 
  841000   0.64595127   -5.3111411   -5.3111411   -4.3422144  -0.03250697   -5.3111411   0.96892666      8192000 
  842000   0.64596404   -5.3116589   -5.3116589    -4.342713 -0.031522409   -5.3116589   0.96894582      8192000 
  843000   0.64585462   -5.3120941   -5.3120941   -4.3433125 -0.029432093   -5.3120941   0.96878168      8192000 
  844000   0.64606151   -5.3130846   -5.3130846   -4.3439926 -0.027720468   -5.3130846   0.96909202      8192000 
  845000   0.64646768   -5.3146252   -5.3146252   -4.3449239 -0.025096611   -5.3146252   0.96970128      8192000 
  846000   0.64666606   -5.3156995   -5.3156995   -4.3457007  -0.02188027   -5.3156995   0.96999885      8192000 
  847000   0.64694364   -5.3168719   -5.3168719   -4.3464567 -0.021020184   -5.3168719   0.97041521      8192000 
  848000   0.64719078   -5.3180821   -5.3180821   -4.3472962 -0.017955422   -5.3180821   0.97078592      8192000 
  849000   0.64749254    -5.319576    -5.319576   -4.3483374 -0.016472358    -5.319576   0.97123857      8192000 
  850000   0.64735418   -5.3202196   -5.3202196   -4.3491885 -0.013893843   -5.3202196   0.97103103      8192000 
  851000   0.64726929   -5.3209885   -5.3209885   -4.3500848 -0.012133573   -5.3209885   0.97090369      8192000 
  852000   0.64745041   -5.3220714   -5.3220714    -4.350896 -0.011732483   -5.3220714   0.97117537      8192000 
  853000   0.64751275   -5.3230977   -5.3230977   -4.3518288  -0.01237325   -5.3230977   0.97126888      8192000 
  854000   0.64712404   -5.3231748   -5.3231748    -4.352489 -0.013555962   -5.3231748   0.97068582      8192000 
  855000   0.64674602    -5.323342    -5.323342   -4.3532232 -0.014435663    -5.323342   0.97011878      8192000 
  856000   0.64629936   -5.3234231   -5.3234231   -4.3539743  -0.01527225   -5.3234231    0.9694488      8192000 
  857000   0.64634808   -5.3240659   -5.3240659    -4.354544 -0.019078053   -5.3240659   0.96952188      8192000 
  858000   0.64554108    -5.323496    -5.323496   -4.3551846  -0.01960425    -5.323496   0.96831137      8192000 
  859000   0.64537176   -5.3239955   -5.3239955   -4.3559381 -0.024634342   -5.3239955    0.9680574      8192000 
  860000   0.64476339   -5.3238494   -5.3238494   -4.3567046 -0.024978163   -5.3238494   0.96714484      8192000 
  861000   0.64431489    -5.324122    -5.324122   -4.3576499 -0.028281205    -5.324122    0.9664721      8192000 
  862000   0.64409107   -5.3244212   -5.3244212   -4.3582849 -0.029550992   -5.3244212   0.96613636      8192000 
  863000   0.64383839   -5.3245718   -5.3245718   -4.3588145 -0.029205993   -5.3245718   0.96575734      8192000 
  864000   0.64362974   -5.3249764   -5.3249764    -4.359532 -0.029010515   -5.3249764   0.96544436      8192000 
  865000   0.64336748   -5.3252436   -5.3252436   -4.3601926 -0.028140907   -5.3252436   0.96505099      8192000 
  866000   0.64402669   -5.3267637   -5.3267637   -4.3607239 -0.029465649   -5.3267637   0.96603979      8192000 
  867000   0.64404472   -5.3276874   -5.3276874   -4.3616205 -0.028042992   -5.3276874   0.96606684      8192000 
  868000   0.64404574   -5.3283034   -5.3283034    -4.362235 -0.024347856   -5.3283034   0.96606837      8192000 
  869000   0.64453897   -5.3297673   -5.3297673   -4.3629591 -0.024170975   -5.3297673   0.96680821      8192000 
  870000   0.64423542   -5.3301379   -5.3301379    -4.363785 -0.019737097   -5.3301379   0.96635288      8192000 
  871000   0.64489128   -5.3321335   -5.3321335   -4.3647968 -0.020298167   -5.3321335   0.96733668      8192000 
  872000   0.64507381   -5.3331468   -5.3331468   -4.3655364   -0.0171749   -5.3331468   0.96761048      8192000 
  873000   0.64506448   -5.3340026   -5.3340026   -4.3664061 -0.015411305   -5.3340026   0.96759648      8192000 
  874000   0.64494631   -5.3345163   -5.3345163    -4.367097 -0.013581128   -5.3345163   0.96741922      8192000 
  875000   0.64534882   -5.3358308   -5.3358308   -4.3678078 -0.014735636   -5.3358308   0.96802299      8192000 
  876000   0.64515356   -5.3363012   -5.3363012   -4.3685711 -0.012996565   -5.3363012    0.9677301      8192000 
  877000    0.6449879   -5.3367146   -5.3367146   -4.3692329 -0.013470155   -5.3367146    0.9674816      8192000 
  878000   0.64508683   -5.3378858   -5.3378858   -4.3702558 -0.015373928   -5.3378858      0.96763      8192000 
  879000   0.64420076   -5.3372962   -5.3372962   -4.3709953 -0.015820998   -5.3372962   0.96630089      8192000 
  880000   0.64416499   -5.3378766   -5.3378766   -4.3716293 -0.018454503   -5.3378766   0.96624724      8192000 
  881000   0.64375383   -5.3380927   -5.3380927   -4.3724622 -0.021175603   -5.3380927    0.9656305      8192000 
  882000   0.64323239    -5.338104    -5.338104   -4.3732556 -0.022797358    -5.338104   0.96484835      8192000 
  883000   0.64269445   -5.3380217   -5.3380217   -4.3739802 -0.024144488   -5.3380217   0.96404143      8192000 
  884000   0.64253097   -5.3386705   -5.3386705   -4.3748742 -0.028029439   -5.3386705   0.96379621      8192000 
  885000   0.64213481   -5.3386817   -5.3386817   -4.3754798 -0.028764974   -5.3386817   0.96320197      8192000 
  886000   0.64193375   -5.3388664   -5.3388664    -4.375966 -0.029363202   -5.3388664   0.96290038      8192000 
  887000   0.64204293   -5.3398701   -5.3398701   -4.3768059 -0.031079719   -5.3398701   0.96306415      8192000 
  888000   0.64180911   -5.3400835   -5.3400835   -4.3773701 -0.030026803   -5.3400835   0.96271343      8192000 
  889000   0.64198507   -5.3409142   -5.3409142   -4.3779369 -0.029104707   -5.3409142   0.96297736      8192000 
  890000   0.64192406   -5.3416082   -5.3416082   -4.3787224 -0.029671792   -5.3416082   0.96288586      8192000 
  891000   0.64178712   -5.3421837   -5.3421837   -4.3795033 -0.026498054   -5.3421837   0.96268044      8192000 
  892000   0.64225152   -5.3433401   -5.3433401   -4.3799631 -0.024554721   -5.3433401   0.96337705      8192000 
  893000   0.64238665   -5.3443576   -5.3443576   -4.3807778 -0.022541353   -5.3443576   0.96357974      8192000 
  894000   0.64266638   -5.3454582   -5.3454582   -4.3814589 -0.020783894   -5.3454582   0.96399933      8192000 
  895000   0.64284376   -5.3464275   -5.3464275   -4.3821621 -0.019546481   -5.3464275    0.9642654      8192000 
  896000   0.64265481   -5.3471035   -5.3471035   -4.3831215 -0.017316518   -5.3471035   0.96398198      8192000 
  897000    0.6427795    -5.348139    -5.348139     -4.38397 -0.017023632    -5.348139   0.96416901      8192000 
  898000     0.642718   -5.3489213   -5.3489213   -4.3848445 -0.017295355   -5.3489213   0.96407675      8192000 
  899000   0.64233015   -5.3489333   -5.3489333   -4.3854383  -0.01594821   -5.3489333   0.96349498      8192000 
  900000   0.64215047   -5.3495854   -5.3495854   -4.3863599 -0.015705735   -5.3495854   0.96322547      8192000 
  901000   0.64234343   -5.3507902   -5.3507902   -4.3872753 -0.018140533   -5.3507902   0.96351491      8192000 
  902000   0.64184742   -5.3506651   -5.3506651   -4.3878942 -0.018991574   -5.3506651   0.96277089      8192000 
  903000   0.64183481   -5.3512314   -5.3512314   -4.3884794 -0.019678698   -5.3512314   0.96275197      8192000 
  904000    0.6413404   -5.3512114   -5.3512114   -4.3892011 -0.022022656   -5.3512114   0.96201035      8192000 
  905000   0.64140088   -5.3517465   -5.3517465   -4.3896454 -0.024032176   -5.3517465   0.96210107      8192000 
  906000   0.64132094   -5.3520951   -5.3520951    -4.390114 -0.026567922   -5.3520951   0.96198118      8192000 
  907000   0.64052504   -5.3518164   -5.3518164   -4.3910291 -0.026393943   -5.3518164   0.96078733      8192000 
  908000   0.64056154   -5.3527411   -5.3527411    -4.391899 -0.027716204   -5.3527411   0.96084207      8192000 
  909000   0.64016823   -5.3528715   -5.3528715   -4.3926194 -0.029183991   -5.3528715   0.96025211      8192000 
  910000   0.63995074   -5.3531285   -5.3531285   -4.3932026   -0.0279619   -5.3531285   0.95992587      8192000 
  911000   0.64002616   -5.3537517   -5.3537517   -4.3937127 -0.028465711   -5.3537517     0.960039      8192000 
  912000   0.64018606   -5.3546511   -5.3546511   -4.3943722 -0.028700918   -5.3546511   0.96027886      8192000 
  913000     0.639987   -5.3550449   -5.3550449   -4.3950647 -0.026540733   -5.3550449   0.95998026      8192000 
  914000   0.64012041   -5.3560419   -5.3560419   -4.3958616 -0.026698033   -5.3560419   0.96018037      8192000 
  915000   0.64040949   -5.3572483   -5.3572483   -4.3966343  -0.02560681   -5.3572483     0.960614      8192000 
  916000   0.64017436   -5.3576524   -5.3576524   -4.3973911 -0.023103327   -5.3576524   0.96026131      8192000 
  917000   0.64042018   -5.3587315   -5.3587315   -4.3981015 -0.021058141   -5.3587315   0.96063003      8192000 
  918000    0.6404874   -5.3595053   -5.3595053   -4.3987745 -0.020570436   -5.3595053   0.96073086      8192000 
  919000    0.6407402   -5.3605255   -5.3605255   -4.3994155 -0.019757448   -5.3605255   0.96111007      8192000 
  920000   0.64105379   -5.3615457   -5.3615457   -4.3999652 -0.019017322   -5.3615457   0.96158044      8192000 
  921000   0.64057124   -5.3614867   -5.3614867   -4.4006301 -0.017043239   -5.3614867   0.96085662      8192000 
  922000   0.64101109   -5.3627934   -5.3627934    -4.401277 -0.019553104   -5.3627934    0.9615164      8192000 
  923000   0.64099749   -5.3634328   -5.3634328   -4.4019368 -0.019174684   -5.3634328     0.961496      8192000 
  924000   0.64032356   -5.3632833   -5.3632833   -4.4027982 -0.017515915   -5.3632833   0.96048509      8192000 
  925000   0.64021817   -5.3637654   -5.3637654   -4.4034384 -0.020590176   -5.3637654   0.96032701      8192000 
  926000   0.63964067   -5.3637583   -5.3637583   -4.4042976 -0.020692795   -5.3637583   0.95946076      8192000 
  927000   0.63986525   -5.3647269   -5.3647269   -4.4049293 -0.023054815   -5.3647269   0.95979763      8192000 
  928000   0.63931083   -5.3646509   -5.3646509   -4.4056848 -0.022499358   -5.3646509   0.95896601      8192000 
  929000   0.63925518   -5.3653654   -5.3653654   -4.4064829 -0.025059799   -5.3653654   0.95888253      8192000 
  930000   0.63883554   -5.3654987   -5.3654987   -4.4072456 -0.026026752   -5.3654987   0.95825307      8192000 
  931000    0.6388391   -5.3663825   -5.3663825   -4.4081241 -0.027787263   -5.3663825   0.95825841      8192000 
  932000   0.63846675   -5.3665079   -5.3665079    -4.408808 -0.027998266   -5.3665079   0.95769989      8192000 
  933000   0.63841908   -5.3669263   -5.3669263   -4.4092979 -0.028108687   -5.3669263   0.95762838      8192000 
  934000   0.63831347   -5.3673084   -5.3673084   -4.4098384 -0.026885405   -5.3673084   0.95746996      8192000 
  935000   0.63816479    -5.367867    -5.367867   -4.4106201 -0.026580338    -5.367867   0.95724695      8192000 
  936000   0.63808384   -5.3685498   -5.3685498   -4.4114243 -0.026570844   -5.3685498   0.95712552      8192000 
  937000   0.63836692   -5.3698015   -5.3698015   -4.4122513 -0.025793822   -5.3698015   0.95755014      8192000 
  938000   0.63863355   -5.3709706   -5.3709706   -4.4130205 -0.025867042   -5.3709706   0.95795009      8192000 
  939000   0.63825644   -5.3712104   -5.3712104   -4.4138259 -0.023200974   -5.3712104   0.95738442      8192000 
  940000   0.63857926   -5.3723216   -5.3723216    -4.414453 -0.022940511   -5.3723216   0.95786865      8192000 
  941000   0.63851169   -5.3729223   -5.3729223    -4.415155 -0.021927503   -5.3729223    0.9577673      8192000 
  942000   0.63813616   -5.3731206   -5.3731206   -4.4159166 -0.019700014   -5.3731206     0.957204      8192000 
  943000   0.63884458   -5.3750133   -5.3750133   -4.4167467 -0.019672011   -5.3750133   0.95826664      8192000 
  944000   0.63836458   -5.3750621   -5.3750621   -4.4175155 -0.020458136   -5.3750621   0.95754664      8192000 
  945000   0.63853035   -5.3759973   -5.3759973    -4.418202 -0.019785509   -5.3759973   0.95779528      8192000 
  946000   0.63835628   -5.3764306   -5.3764306   -4.4188964 -0.019545825   -5.3764306   0.95753418      8192000 
  947000   0.63836596   -5.3771607   -5.3771607    -4.419612 -0.020438021   -5.3771607    0.9575487      8192000 
  948000   0.63821359   -5.3775202   -5.3775202   -4.4202001 -0.021497322   -5.3775202   0.95732015      8192000 
  949000   0.63780286   -5.3777089   -5.3777089   -4.4210049 -0.022550772   -5.3777089   0.95670406      8192000 
  950000   0.63747595   -5.3776754   -5.3776754   -4.4214617 -0.022630898   -5.3776754   0.95621368      8192000 
  951000   0.63707847   -5.3778303   -5.3778303   -4.4222128  -0.02520328   -5.3778303   0.95561746      8192000 
  952000   0.63712326   -5.3785719   -5.3785719   -4.4228872 -0.025887922   -5.3785719   0.95568465      8192000 
  953000    0.6368503   -5.3790023   -5.3790023   -4.4237271 -0.028200591   -5.3790023   0.95527521      8192000 
  954000   0.63686556   -5.3793498   -5.3793498   -4.4240517 -0.027711001   -5.3793498   0.95529809      8192000 
  955000   0.63602186   -5.3787084   -5.3787084   -4.4246758 -0.026778853   -5.3787084   0.95403256      8192000 
  956000   0.63619488   -5.3797107   -5.3797107   -4.4254186 -0.028677337   -5.3797107   0.95429209      8192000 
  957000   0.63608433   -5.3802101   -5.3802101   -4.4260838 -0.028613946   -5.3802101   0.95412626      8192000 
  958000   0.63603807   -5.3807916   -5.3807916   -4.4267347 -0.028106102   -5.3807916   0.95405686      8192000 
  959000    0.6359159   -5.3812884   -5.3812884   -4.4274148 -0.026904265   -5.3812884   0.95387362      8192000 
  960000   0.63615667   -5.3824188   -5.3824188    -4.428184 -0.028099351   -5.3824188   0.95423476      8192000 
  961000   0.63624884   -5.3831069   -5.3831069   -4.4287338 -0.026222979   -5.3831069   0.95437302      8192000 
  962000   0.63647359   -5.3842351   -5.3842351   -4.4295249  -0.02592304   -5.3842351   0.95471014      8192000 
  963000   0.63627107   -5.3846194   -5.3846194    -4.430213 -0.023655062   -5.3846194   0.95440636      8192000 
  964000   0.63643003    -5.385773    -5.385773   -4.4311282  -0.02281181    -5.385773   0.95464481      8192000 
  965000   0.63616362    -5.386081    -5.386081   -4.4318358  -0.02198462    -5.386081   0.95424519      8192000 
  966000   0.63636604   -5.3868925   -5.3868925   -4.4323437 -0.019693425   -5.3868925   0.95454882      8192000 
  967000   0.63636288   -5.3876623   -5.3876623   -4.4331182 -0.019494693   -5.3876623   0.95454408      8192000 
  968000   0.63663899   -5.3887907   -5.3887907   -4.4338325 -0.021542525   -5.3887907   0.95495824      8192000 
  969000   0.63613815   -5.3888029   -5.3888029   -4.4345959  -0.01999669   -5.3888029   0.95420698      8192000 
  970000    0.6365172   -5.3901641   -5.3901641   -4.4353886  -0.02214851   -5.3901641   0.95477556      8192000 
  971000   0.63604387   -5.3903051   -5.3903051   -4.4362395 -0.022162162   -5.3903051   0.95406557      8192000 
  972000   0.63580559   -5.3906107   -5.3906107   -4.4369025 -0.022144654   -5.3906107   0.95370815      8192000 
  973000   0.63549346   -5.3906893   -5.3906893   -4.4374494 -0.024622861   -5.3906893   0.95323995      8192000 
  974000   0.63501184   -5.3905343   -5.3905343   -4.4380168 -0.024602988   -5.3905343   0.95251751      8192000 
  975000   0.63480371   -5.3907937   -5.3907937   -4.4385884 -0.024383378   -5.3907937   0.95220533      8192000 
  976000   0.63527445   -5.3921105   -5.3921105    -4.439199 -0.027893544   -5.3921105   0.95291144      8192000 
  977000   0.63485626   -5.3922757   -5.3922757   -4.4399916 -0.028542974   -5.3922757   0.95228416      8192000 
  978000   0.63452423   -5.3925065   -5.3925065   -4.4407204 -0.028863838   -5.3925065    0.9517861      8192000 
  979000   0.63403643   -5.3923904   -5.3923904    -4.441336 -0.029054863   -5.3923904    0.9510544      8192000 
  980000   0.63397223    -5.393186    -5.393186   -4.4422279 -0.028746372    -5.393186   0.95095811      8192000 
  981000   0.63421047    -5.394114    -5.394114   -4.4427985 -0.030178472    -5.394114   0.95131546      8192000 
  982000   0.63378034   -5.3941365   -5.3941365   -4.4434662 -0.027915112   -5.3941365   0.95067028      8192000 
  983000   0.63405497   -5.3953905   -5.3953905   -4.4443083 -0.028519203   -5.3953905   0.95108222      8192000 
  984000   0.63385259   -5.3956487   -5.3956487     -4.44487 -0.026287712   -5.3956487   0.95077864      8192000 
  985000   0.63422145   -5.3968002   -5.3968002   -4.4454683  -0.02604303   -5.3968002   0.95133193      8192000 
  986000   0.63424856   -5.3976262   -5.3976262   -4.4462536 -0.024784567   -5.3976262    0.9513726      8192000 
  987000    0.6345519   -5.3987685   -5.3987685   -4.4469409   -0.0238341   -5.3987685   0.95182761      8192000 
  988000    0.6345683   -5.3991935   -5.3991935   -4.4473413 -0.022825527   -5.3991935   0.95185222      8192000 
  989000    0.6344777     -5.39999     -5.39999   -4.4482737 -0.021619289     -5.39999   0.95171631      8192000 
  990000   0.63436477   -5.4004001   -5.4004001   -4.4488532 -0.020804386   -5.4004001   0.95154691      8192000 
  991000   0.63437896   -5.4009145   -5.4009145   -4.4493463 -0.021699401   -5.4009145    0.9515682      8192000 
  992000   0.63445239   -5.4017221   -5.4017221   -4.4500438 -0.021612641   -5.4017221   0.95167835      8192000 
  993000   0.63440759   -5.4023275   -5.4023275   -4.4507164 -0.022299483   -5.4023275   0.95161114      8192000 
  994000   0.63387427   -5.4022083   -5.4022083   -4.4513971 -0.022777254   -5.4022083   0.95081117      8192000 
  995000   0.63373048   -5.4026191   -5.4026191   -4.4520237 -0.024507117   -5.4026191   0.95059548      8192000 
  996000   0.63339126    -5.402645    -5.402645   -4.4525584 -0.024927794    -5.402645   0.95008665      8192000 
  997000   0.63325678   -5.4031576   -5.4031576   -4.4532727 -0.024868952   -5.4031576   0.94988494      8192000 
  998000   0.63281916   -5.4033233   -5.4033233   -4.4540948   -0.0261495   -5.4033233   0.94922851      8192000 
  999000    0.6329854   -5.4040958   -5.4040958   -4.4546179 -0.029454716   -5.4040958   0.94947786      8192000 
 1000000   0.63247144   -5.4042688   -5.4042688   -4.4555619 -0.030283412   -5.4042688   0.94870693      8192000 
Loop time of 25066.9 on 144 procs for 1000000 steps with 3993600 atoms

Performance: 17233.849 tau/day, 39.893 timesteps/s
99.5% CPU use with 144 MPI tasks x 1 OpenMP threads

MPI task timing breakdown:
Section |  min time  |  avg time  |  max time  |%varavg|  %CPU | %total
-----------------------------------------------------------------------
Pair    | 8923.3     | 11438      | 13396      |1012.8 |  99.5 | 45.63
Bond    | 0.80547    | 0.91969    | 1.013      |   4.2 | 100.0 |  0.00
Neigh   | 3708.3     | 4607.9     | 5360.7     | 515.8 |  99.6 | 18.38
Comm    | 4562.6     | 7781.7     | 11066      |1736.7 |  99.4 | 31.04
Output  | 51.357     | 51.82      | 51.827     |   0.5 |  98.1 |  0.21
Modify  | 468.68     | 675.52     | 1721.9     |1378.8 |  99.2 |  2.69
Other   |            | 510.9      |            |       |       |  2.04

Nlocal:        27733.3 ave       28513 max       26304 min
Histogram: 3 5 14 5 1 3 42 42 20 9
Nghost:        17781.7 ave       20116 max       12815 min
Histogram: 16 0 16 0 0 0 0 64 0 48
Neighs:    1.15199e+06 ave 1.36927e+06 max      836638 min
Histogram: 12 4 0 0 36 28 11 13 23 17

Total # of neighbors = 1.6588664e+08
Ave neighs/atom = 41.538122
Ave special neighs/atom = 0.0000000
Neighbor list builds = 100000
Dangerous builds = 98998

write_restart	restart.005
System init for write_restart ...
write_data 	data.lj
System init for write_data ...
WARNING: Not all mixed pair coeffs generated from mixing. Use write_data with 'pair ij' option to store all pair coeffs. (src/write_data.cpp:312)
Total wall time: 6:57:56
