LAMMPS (24 Dec 2020)
OMP_NUM_THREADS environment is not set. Defaulting to 1 thread. (src/comm.cpp:94)
  using 1 OpenMP thread(s) per MPI task
# Simple rigid body system
# needed variables:

#variable	startTemp equal 0.5
#variable 	temp 	  equal 0.8

units		lj
atom_style	full
dimension 	3
boundary	p p f
pair_style	lj/smooth/linear 2.0

variable 	sigma		equal 1.0
variable 	epsilon 	equal 1.0

region		box block 0 80 0 80 0 160
create_box 	3 box
Created orthogonal box = (0.0000000 0.0000000 0.0000000) to (80.000000 80.000000 160.00000)
  6 by 4 by 8 MPI processor grid



lattice 	sc 0.66
Lattice spacing in x,y,z = 1.1485556 1.1485556 1.1485556
region		fluid block EDGE EDGE EDGE EDGE 2 100 units box
create_atoms 	1 region fluid
Created 421400 atoms
  create_atoms CPU = 0.141 seconds

lattice 	sc 0.045
Lattice spacing in x,y,z = 2.8114422 2.8114422 2.8114422
region		gas block EDGE EDGE EDGE EDGE 101 158 units box
create_atoms    1 region gas
Created 17661 atoms
  create_atoms CPU = 0.005 seconds

group		solvent type 1
439061 atoms in group solvent

mass		1 1.0
mass		2 1.0
mass		3 1.0



neighbor 	0.4 bin

pair_coeff	1 1 1.0 1.0
pair_coeff	2 2 0.0 0.0
pair_coeff	3 3 0.0 0.0
pair_coeff	2 3 0.0 0.0
pair_coeff	1 2*3 0.0 0.0

pair_modify 	shift yes

delete_atoms	overlap 0.5 solvent solvent
System init for delete_atoms ...
Neighbor list info ...
  update every 1 steps, delay 10 steps, check yes
  max neighbors/atom: 2000, page size: 100000
  master list distance cutoff = 2.4
  ghost atom cutoff = 2.4
  binsize = 1.2, bins = 67 67 134
  2 neighbor lists, perpetual/occasional/extra = 1 1 0
  (1) command delete_atoms, occasional
      attributes: full, newton on
      pair build: full/bin
      stencil: full/bin/3d
      bin: standard
  (2) pair lj/smooth/linear, perpetual
      attributes: half, newton on
      pair build: half/bin/newton
      stencil: half/bin/3d/newton
      bin: standard
WARNING: Ignoring 'compress yes' for molecular system (src/delete_atoms.cpp:125)
Deleted 0 atoms, new total = 439061

velocity 	solvent create ${startTemp} 563435 loop geom
velocity 	solvent create .40 563435 loop geom

balance 	1.05 shift z 10 1.05
Balancing ...
Neighbor list info ...
  update every 1 steps, delay 10 steps, check yes
  max neighbors/atom: 2000, page size: 100000
  master list distance cutoff = 2.4
  ghost atom cutoff = 2.4
  binsize = 1.2, bins = 67 67 134
  1 neighbor lists, perpetual/occasional/extra = 1 0 0
  (1) pair lj/smooth/linear, perpetual
      attributes: half, newton on
      pair build: half/bin/newton
      stencil: half/bin/3d/newton
      bin: standard
 rebalancing time: 0.007 seconds
  iteration count = 5
  initial/final maximal load/proc = 3888.0000 2808.0000
  initial/final imbalance factor  = 1.7002102 1.2279296
  x cuts: 0.0000000 0.16666667 0.33333333 0.50000000 0.66666667 0.83333333 1.0000000
  y cuts: 0.0000000 0.25000000 0.50000000 0.75000000 1.0000000
  z cuts: 0.0000000 0.089843750 0.17578125 0.25390625 0.33593750 0.41406250 0.50390625 0.58203125 1.0000000


####################### WALLS ###########################


variable       epsilonWall equal 2*${epsilon}
variable       epsilonWall equal 2*1

variable       cutoffTop   equal   0.7147*${sigma}
variable       cutoffTop   equal   0.7147*1

variable       cutoffLow   equal   3*${sigma}
variable       cutoffLow   equal   3*1


fix            topWall all wall/lj93 zhi EDGE                ${epsilonWall} ${sigma} ${cutoffTop} units box
fix            topWall all wall/lj93 zhi EDGE                2 ${sigma} ${cutoffTop} units box
fix            topWall all wall/lj93 zhi EDGE                2 1 ${cutoffTop} units box
fix            topWall all wall/lj93 zhi EDGE                2 1 0.7147 units box

fix            lowWall all wall/lj93 zlo EDGE                ${epsilonWall} ${sigma} ${cutoffLow} units box
fix            lowWall all wall/lj93 zlo EDGE                2 ${sigma} ${cutoffLow} units box
fix            lowWall all wall/lj93 zlo EDGE                2 1 ${cutoffLow} units box
fix            lowWall all wall/lj93 zlo EDGE                2 1 3 units box


###################### COMPUTES ##########################

compute        bin1 solvent chunk/atom bin/1d z upper 1.0


######################	FIXES ############################


fix 		peclet solvent ave/chunk 1000 1 1000 bin1 density/number norm 		 none ave one file density.profile

fix 		 temp solvent ave/chunk 1000 1 1000 bin1 temp norm 		 none ave one file temp.profile

fix 		2 solvent nve


## Thermostat


region		regthermo block EDGE EDGE EDGE EDGE 0 20 units box

group 		thermo dynamic solvent region regthermo every 1000
dynamic group thermo defined

fix 		3 thermo langevin ${startTemp} ${temp} 10 156453
fix 		3 thermo langevin .40 ${temp} 10 156453
fix 		3 thermo langevin .40 .40 10 156453



#### Load balancing


fix 		bal all balance 1000 1.05 shift z 10 1.05


############### Diagnostics and computes ###################
#compute 	com cube	  rigid/local	1 mol x y z
#compute 	quat cube	  rigid/local	1 mol quatw quati quatj quatk

thermo 		1000
thermo_style 	custom step temp epair evdwl etotal press pe ke atoms

dump		1 all custom 100000 dump.lammpstrj id mol type x y z
dump 		2 all image 10000 image.*.png type type
dump 		3 all movie 1000 movie.avi type type

#dump 		com cube local 1000 dump.*.xyz c_com[*]
#dump		quat cube      local 1000 dump.*.quat c_quat[*]


restart 	1000000 restart.dat
timestep 	0.005
timer 		full
New timer settings: style=full  mode=nosync  timeout=off

run		5000000
Per MPI rank memory allocation (min/avg/max) = 9.917 | 9.995 | 10.07 Mbytes
Step Temp E_pair E_vdwl TotEng Press PotEng KinEng Atoms 
       0          0.4   0.22342731   0.22342731   0.82342594    4.4034146   0.22342731   0.59999863   439061 
    1000    1.5523423   -2.0167125   -2.0167125   0.31179557    2.0193615   -2.0167125    2.3285081   439061 
    2000    1.4637913   -2.0810865   -2.0810865   0.11459551    1.1667161   -2.0810865     2.195682   439061 
    3000     1.307176   -2.0262593   -2.0262593  -0.06549976    0.8401952   -2.0262593    1.9607596   439061 
    4000    1.2178113   -2.0310227   -2.0310227  -0.20430997   0.66836794   -2.0310227    1.8267127   439061 
    5000    1.1637683   -2.0325722   -2.0325722  -0.28692369   0.52822627   -2.0325722    1.7456485   439061 
    6000    1.1282159   -2.0234351   -2.0234351    -0.331115   0.42943224   -2.0234351      1.69232   439061 
    7000     1.103197   -2.0124166   -2.0124166  -0.35762485   0.42663769   -2.0124166    1.6547918   439061 
    8000    1.0887268   -2.0084449   -2.0084449  -0.37535848   0.46258006   -2.0084449    1.6330865   439061 
    9000    1.0807968   -2.0130853   -2.0130853  -0.39189371   0.48817023   -2.0130853    1.6211916   439061 
   10000    1.0773788   -2.0238965   -2.0238965  -0.40783197   0.50896596   -2.0238965    1.6160645   439061 
   11000    1.0757422   -2.0352151   -2.0352151  -0.42160549   0.52733555   -2.0352151    1.6136096   439061 
   12000    1.0736898   -2.0441028   -2.0441028  -0.43357174   0.53665264   -2.0441028     1.610531   439061 
   13000    1.0678505   -2.0465521   -2.0465521  -0.44478004     0.527476   -2.0465521    1.6017721   439061 
   14000    1.0523521   -2.0327614   -2.0327614  -0.45423689   0.48076317   -2.0327614    1.5785245   439061 
   15000    1.0348198   -2.0151933   -2.0151933  -0.46296707   0.43519446   -2.0151933    1.5522262   439061 
   16000    1.0170159   -1.9981837   -1.9981837  -0.47266339    0.4003745   -1.9981837    1.5255203   439061 
   17000    1.0038411    -1.986474    -1.986474  -0.48071585   0.39380357    -1.986474    1.5057582   439061 
   18000   0.99825363   -1.9925845   -1.9925845  -0.49520742   0.44748439   -1.9925845     1.497377   439061 
   19000    0.9832146   -2.0015018   -2.0015018  -0.52668326   0.52304948   -2.0015018    1.4748185   439061 
   20000   0.96564992   -2.0109977   -2.0109977  -0.56252612   0.49610104   -2.0109977    1.4484716   439061 
   21000   0.94789879   -2.0123483   -2.0123483  -0.59050331   0.46143981   -2.0123483    1.4218449   439061 
   22000   0.93666015   -2.0184632   -2.0184632  -0.61347615   0.45085337   -2.0184632     1.404987   439061 
   23000   0.92701705   -2.0265325   -2.0265325  -0.63601012   0.45010185   -2.0265325    1.3905224   439061 
   24000    0.9172009   -2.0339554   -2.0339554  -0.65815723   0.45037221   -2.0339554    1.3757982   439061 
   25000   0.90911804   -2.0426852   -2.0426852  -0.67901123   0.44393699   -2.0426852     1.363674   439061 
   26000   0.89864487   -2.0476368   -2.0476368  -0.69967253   0.43024079   -2.0476368    1.3479642   439061 
   27000   0.89111816   -2.0550347   -2.0550347  -0.71836047   0.40731912   -2.0550347    1.3366742   439061 
   28000   0.88057276    -2.055097    -2.055097  -0.73424086   0.38821988    -2.055097    1.3208561   439061 
   29000   0.87045685   -2.0546949   -2.0546949  -0.74901257   0.36705461   -2.0546949    1.3056823   439061 
   30000   0.85921036   -2.0521088   -2.0521088  -0.76329619   0.35004698   -2.0521088    1.2888126   439061 
   31000   0.85044827   -2.0523532   -2.0523532  -0.77668372   0.31953888   -2.0523532    1.2756695   439061 
   32000   0.83985285   -2.0490198   -2.0490198  -0.78924343   0.30805998   -2.0490198    1.2597764   439061 
   33000   0.83029722   -2.0463641   -2.0463641  -0.80092109   0.29640755   -2.0463641     1.245443   439061 
   34000   0.82193616   -2.0452738   -2.0452738  -0.81237236   0.28080711   -2.0452738    1.2329014   439061 
   35000   0.81816966    -2.049763    -2.049763  -0.82251133   0.27322395    -2.049763    1.2272517   439061 
   36000   0.81430175   -2.0535054   -2.0535054   -0.8320556   0.26396721   -2.0535054    1.2214498   439061 
   37000   0.80995802    -2.056347    -2.056347  -0.84141271   0.27173536    -2.056347    1.2149343   439061 
   38000   0.80627304   -2.0605112   -2.0605112  -0.85110436   0.26030141   -2.0605112    1.2094068   439061 
   39000   0.80201219   -2.0631573   -2.0631573  -0.86014171   0.26176389   -2.0631573    1.2030156   439061 
   40000   0.80117258   -2.0701294   -2.0701294  -0.86837328   0.25504658   -2.0701294    1.2017561   439061 
   41000   0.79799374   -2.0739942   -2.0739942  -0.87700633   0.25208738   -2.0739942    1.1969879   439061 
   42000   0.79638244   -2.0789287   -2.0789287  -0.88435777   0.24875116   -2.0789287    1.1945709   439061 
   43000   0.79249657   -2.0803249   -2.0803249  -0.89158272   0.24204192   -2.0803249    1.1887421   439061 
   44000   0.78969019   -2.0834135   -2.0834135  -0.89888089   0.23283846   -2.0834135    1.1845326   439061 
   45000   0.78546133   -2.0840895   -2.0840895  -0.90590021    0.2281323   -2.0840895    1.1781893   439061 
   46000   0.78049838   -2.0840709   -2.0840709  -0.91332604   0.22486739   -2.0840709    1.1707449   439061 
   47000    0.7771978    -2.086946    -2.086946  -0.92115192    0.2187393    -2.086946     1.165794   439061 
   48000   0.77755915    -2.094454    -2.094454  -0.92811793   0.22742145    -2.094454    1.1663361   439061 
   49000   0.77654078   -2.1025119   -2.1025119  -0.93770341   0.25854911   -2.1025119    1.1648085   439061 
   50000     0.773737   -2.1123116   -2.1123116  -0.95170878   0.27595438   -2.1123116    1.1606029   439061 
   51000   0.76966344   -2.1194351   -2.1194351  -0.96494257   0.27220604   -2.1194351    1.1544925   439061 
   52000   0.76576894   -2.1254466   -2.1254466  -0.97679579   0.25897594   -2.1254466    1.1486508   439061 
   53000   0.76216434   -2.1307069   -2.1307069  -0.98746297   0.24919989   -2.1307069    1.1432439   439061 
   54000   0.75787043   -2.1349443   -2.1349443   -0.9981412   0.24912892   -2.1349443    1.1368031   439061 
   55000    0.7552091   -2.1405479   -2.1405479   -1.0077368   0.25209487   -2.1405479    1.1328111   439061 
   56000   0.75199804   -2.1450991   -2.1450991   -1.0171046   0.24674577   -2.1450991    1.1279945   439061 
   57000   0.74832662   -2.1499336   -2.1499336   -1.0274463   0.23757422   -2.1499336    1.1224874   439061 
   58000   0.74537573   -2.1549512   -2.1549512   -1.0368902   0.23658559   -2.1549512    1.1180611   439061 
   59000   0.74346276    -2.161199    -2.161199   -1.0460074   0.23065087    -2.161199    1.1151916   439061 
   60000   0.73917673   -2.1643477   -2.1643477   -1.0555851   0.22958449   -2.1643477    1.1087626   439061 
   61000   0.73601936   -2.1684541   -2.1684541   -1.0644275   0.22154579   -2.1684541    1.1040265   439061 
   62000   0.73222411   -2.1715045   -2.1715045   -1.0731708   0.21119952   -2.1715045    1.0983337   439061 
   63000    0.7284955   -2.1738065   -2.1738065   -1.0810657   0.20885767   -2.1738065    1.0927408   439061 
   64000   0.72357922   -2.1742674   -2.1742674   -1.0889011   0.20191032   -2.1742674    1.0853664   439061 
   65000   0.72058218   -2.1773234   -2.1773234   -1.0964526   0.19457004   -2.1773234    1.0808708   439061 
   66000   0.71653223   -2.1778217   -2.1778217   -1.1030258    0.1900034   -2.1778217    1.0747959   439061 
   67000   0.71321457   -2.1806524   -2.1806524    -1.110833   0.18666068   -2.1806524    1.0698194   439061 
   68000   0.71030151   -2.1829857   -2.1829857   -1.1175359   0.17887051   -2.1829857    1.0654498   439061 
   69000   0.70694962   -2.1843323   -2.1843323   -1.1239103   0.17416459   -2.1843323     1.060422   439061 
   70000   0.70544509   -2.1885949   -2.1885949   -1.1304297   0.17622341   -2.1885949    1.0581652   439061 
   71000    0.7037982     -2.19269     -2.19269   -1.1369951   0.17425809     -2.19269    1.0556949   439061 
   72000   0.70270513   -2.1970829   -2.1970829   -1.1430276   0.16915307   -2.1970829    1.0540553   439061 
   73000   0.70257445   -2.2030387   -2.2030387   -1.1491795   0.17240122   -2.2030387    1.0538593   439061 
   74000   0.69935156   -2.2045655   -2.2045655   -1.1555405   0.17088909   -2.2045655     1.049025   439061 
   75000    0.6972122   -2.2075787   -2.2075787   -1.1617628   0.16623247   -2.2075787    1.0458159   439061 
   76000   0.69554868   -2.2106574   -2.2106574   -1.1673367   0.16177875   -2.2106574    1.0433206   439061 
   77000   0.69374727   -2.2139736   -2.2139736   -1.1733551   0.15890172   -2.2139736    1.0406185   439061 
   78000   0.69342622   -2.2185325   -2.2185325   -1.1783955   0.15631506   -2.2185325     1.040137   439061 
   79000   0.69141574   -2.2215678   -2.2215678   -1.1844465   0.15307001   -2.2215678    1.0371212   439061 
   80000   0.68933422   -2.2241666   -2.2241666   -1.1901676   0.15330981   -2.2241666     1.033999   439061 
   81000   0.68816952   -2.2274371   -2.2274371   -1.1951852   0.14942434   -2.2274371    1.0322519   439061 
   82000   0.68709984    -2.230939    -2.230939   -1.2002916    0.1593893    -2.230939    1.0306474   439061 
   83000   0.68722079   -2.2378644   -2.2378644   -1.2070356   0.15776822   -2.2378644    1.0308288   439061 
   84000   0.68641992    -2.242872    -2.242872   -1.2132445   0.16963112    -2.242872    1.0296275   439061 
   85000    0.6868133   -2.2506699   -2.2506699   -1.2204523   0.17621064   -2.2506699    1.0302176   439061 
   86000   0.68586517   -2.2562209   -2.2562209   -1.2274255   0.17762448   -2.2562209    1.0287954   439061 
   87000   0.68447332   -2.2613746   -2.2613746   -1.2346669   0.17545697   -2.2613746    1.0267076   439061 
   88000   0.68237843   -2.2655309   -2.2655309   -1.2419656   0.16918631   -2.2655309    1.0235653   439061 
   89000   0.68082902   -2.2692983   -2.2692983   -1.2480571   0.16862913   -2.2692983    1.0212412   439061 
   90000   0.67898178   -2.2725189   -2.2725189   -1.2540485   0.16887769   -2.2725189    1.0184704   439061 
   91000   0.67796977   -2.2775966   -2.2775966   -1.2606443   0.16691015   -2.2775966    1.0169523   439061 
   92000   0.67701695   -2.2824226   -2.2824226   -1.2668995   0.16563342   -2.2824226    1.0155231   439061 
   93000    0.6740493   -2.2841419   -2.2841419   -1.2730702   0.16181679   -2.2841419    1.0110716   439061 
   94000   0.67225292   -2.2870199   -2.2870199   -1.2786428   0.16224414   -2.2870199    1.0083771   439061 
   95000   0.67024111    -2.289583    -2.289583   -1.2842237   0.15846232    -2.289583    1.0053594   439061 
   96000   0.66874675   -2.2936486   -2.2936486   -1.2905308   0.15651894   -2.2936486    1.0031178   439061 
   97000   0.66587628   -2.2951148   -2.2951148   -1.2963027   0.15516699   -2.2951148   0.99881214   439061 
   98000   0.66524542   -2.2994288   -2.2994288    -1.301563   0.15329099   -2.2994288   0.99786586   439061 
   99000   0.66368107   -2.3021054   -2.3021054    -1.306586   0.15052711   -2.3021054   0.99551934   439061 
  100000   0.66127545   -2.3040886   -2.3040886   -1.3121777   0.14675431   -2.3040886   0.99191092   439061 
  101000   0.65847319   -2.3046827   -2.3046827   -1.3169751   0.14129217   -2.3046827   0.98770754   439061 
  102000   0.65660455   -2.3068589   -2.3068589   -1.3219544    0.1396659   -2.3068589   0.98490459   439061 
  103000   0.65590802   -2.3099877   -2.3099877   -1.3261279   0.13615145   -2.3099877    0.9838598   439061 
  104000   0.65338859   -2.3107935   -2.3107935   -1.3307128   0.13891598   -2.3107935   0.98008065   439061 
  105000   0.65264894   -2.3141732   -2.3141732    -1.335202   0.13453875   -2.3141732   0.97897118   439061 
  106000   0.65026261   -2.3148155   -2.3148155   -1.3394238   0.13142047   -2.3148155    0.9753917   439061 
  107000   0.64804225   -2.3160562   -2.3160562    -1.343995   0.12965395   -2.3160562   0.97206116   439061 
  108000   0.64687258   -2.3190293   -2.3190293   -1.3487226   0.12959182   -2.3190293   0.97030665   439061 
  109000   0.64629649    -2.322752    -2.322752   -1.3533094   0.12988175    -2.322752   0.96944253   439061 
  110000   0.64541726    -2.325237    -2.325237   -1.3571133   0.12499346    -2.325237   0.96812368   439061 
  111000   0.64410642    -2.327131    -2.327131   -1.3609735   0.12808784    -2.327131   0.96615744   439061 
  112000    0.6427467   -2.3292055   -2.3292055   -1.3650877   0.12160503   -2.3292055   0.96411785   439061 
  113000   0.64244472   -2.3322669   -2.3322669    -1.368602   0.12025347   -2.3322669   0.96366488   439061 
  114000   0.64178205   -2.3365282   -2.3365282   -1.3738573   0.11865535   -2.3365282   0.96267088   439061 
  115000   0.64091383   -2.3390937   -2.3390937   -1.3777252   0.12492558   -2.3390937   0.96136855   439061 
  116000   0.63934977   -2.3413635   -2.3413635    -1.382341   0.11897261   -2.3413635   0.95902247   439061 
  117000    0.6386049   -2.3437205   -2.3437205   -1.3858154   0.11602284   -2.3437205   0.95790517   439061 
  118000   0.63757378   -2.3459967   -2.3459967   -1.3896382   0.11420763   -2.3459967   0.95635849   439061 
  119000   0.63675136   -2.3492818   -2.3492818   -1.3941569   0.11900831   -2.3492818   0.95512487   439061 
  120000   0.63675022   -2.3522658   -2.3522658   -1.3971426   0.12345386   -2.3522658   0.95512315   439061 
  121000   0.63656923   -2.3554506   -2.3554506   -1.4005989   0.12474466   -2.3554506   0.95485167   439061 
  122000    0.6367781    -2.359514    -2.359514   -1.4043491   0.12910827    -2.359514   0.95516497   439061 
  123000   0.63587821   -2.3631243   -2.3631243   -1.4093092   0.13127605   -2.3631243   0.95381514   439061 
  124000   0.63490327   -2.3661524   -2.3661524   -1.4137997   0.13456698   -2.3661524   0.95235274   439061 
  125000   0.63456712   -2.3704493   -2.3704493   -1.4186008   0.13318089   -2.3704493   0.95184852   439061 
  126000   0.63401328   -2.3738482   -2.3738482   -1.4228305   0.13178935   -2.3738482   0.95101775   439061 
  127000   0.63315876    -2.376714    -2.376714    -1.426978   0.12913155    -2.376714   0.94973598   439061 
  128000   0.63327695   -2.3812701   -2.3812701   -1.4313569   0.12886944   -2.3812701   0.94991326   439061 
  129000   0.63124294   -2.3823727   -2.3823727   -1.4355105   0.12731423   -2.3823727   0.94686225   439061 
  130000   0.62963446   -2.3841318   -2.3841318   -1.4396822   0.12383868   -2.3841318   0.94444953   439061 
  131000   0.62842851   -2.3857192   -2.3857192   -1.4430786   0.12241679   -2.3857192   0.94264062   439061 
  132000   0.62815329   -2.3897089   -2.3897089   -1.4474811   0.12424846   -2.3897089   0.94222779   439061 
  133000    0.6269269   -2.3919807   -2.3919807   -1.4515925    0.1246018   -2.3919807   0.94038821   439061 
  134000   0.62610291   -2.3954846   -2.3954846   -1.4563323    0.1225213   -2.3954846   0.93915222   439061 
  135000   0.62483435   -2.3978889   -2.3978889   -1.4606395   0.11905845   -2.3978889    0.9372494   439061 
  136000   0.62305619   -2.3993503   -2.3993503   -1.4647682     0.123361   -2.3993503   0.93458216   439061 
  137000   0.62204188   -2.4016066   -2.4016066    -1.468546   0.12203159   -2.4016066   0.93306069   439061 
  138000   0.62190331   -2.4053625   -2.4053625   -1.4725097   0.11697536   -2.4053625   0.93285284   439061 
  139000   0.62012325   -2.4066248   -2.4066248    -1.476442   0.11501863   -2.4066248   0.93018276   439061 
  140000   0.61927985    -2.408984    -2.408984   -1.4800664   0.11295488    -2.408984   0.92891766   439061 
  141000   0.61711651   -2.4093125   -2.4093125   -1.4836399   0.11129104   -2.4093125   0.92567265   439061 
  142000   0.61760981   -2.4136333   -2.4136333   -1.4872207   0.10770893   -2.4136333    0.9264126   439061 
  143000   0.61556827   -2.4138869   -2.4138869   -1.4905366   0.11499941   -2.4138869   0.92335031   439061 
  144000   0.61594767   -2.4185355   -2.4185355   -1.4946161   0.11024331   -2.4185355    0.9239194   439061 
  145000   0.61324124   -2.4190538   -2.4190538   -1.4991941   0.11232296   -2.4190538   0.91985976   439061 
  146000   0.61313046   -2.4228306   -2.4228306    -1.503137   0.10715282   -2.4228306    0.9196936   439061 
  147000    0.6121235   -2.4243314   -2.4243314   -1.5061483   0.10519168   -2.4243314   0.91818315   439061 
  148000   0.61013013   -2.4248418   -2.4248418   -1.5096487   0.10645576   -2.4248418   0.91519311   439061 
  149000   0.61020438   -2.4282187   -2.4282187   -1.5129142   0.10472777   -2.4282187   0.91530449   439061 
  150000   0.60807818    -2.428723    -2.428723   -1.5166078    0.1048509    -2.428723   0.91211519   439061 
  151000   0.60880565   -2.4337212   -2.4337212   -1.5205148  0.099006757   -2.4337212   0.91320639   439061 
  152000   0.60709659   -2.4341886   -2.4341886   -1.5235458   0.10164283   -2.4341886    0.9106428   439061 
  153000   0.60627776   -2.4364752   -2.4364752   -1.5270606  0.099783796   -2.4364752   0.90941457   439061 
  154000   0.60628987    -2.440693    -2.440693   -1.5312603  0.094021633    -2.440693   0.90943274   439061 
  155000   0.60526161   -2.4429585   -2.4429585   -1.5350681   0.10064387   -2.4429585   0.90789035   439061 
  156000   0.60483833   -2.4458098   -2.4458098   -1.5385543  0.097817711   -2.4458098   0.90725543   439061 
  157000   0.60430865   -2.4483534   -2.4483534   -1.5418925   0.10048391   -2.4483534   0.90646091   439061 
  158000    0.6035333   -2.4505691   -2.4505691   -1.5452712  0.099003643   -2.4505691   0.90529789   439061 
  159000   0.60241308   -2.4521173   -2.4521173   -1.5484998  0.097766436   -2.4521173   0.90361756   439061 
  160000    0.6021339   -2.4546868   -2.4546868    -1.551488  0.098466125   -2.4546868    0.9031988   439061 
  161000   0.60170358   -2.4573879   -2.4573879   -1.5548345   0.10096453   -2.4573879   0.90255331   439061 
  162000   0.60182039   -2.4619862   -2.4619862   -1.5592576  0.097206781   -2.4619862   0.90272853   439061 
  163000   0.60128797   -2.4639155   -2.4639155   -1.5619856   0.10016459   -2.4639155    0.9019299   439061 
  164000   0.60161207    -2.468608    -2.468608    -1.566192   0.10250962    -2.468608   0.90241604   439061 
  165000   0.60152856   -2.4721372   -2.4721372   -1.5698464   0.10515585   -2.4721372   0.90229078   439061 
  166000   0.60076472   -2.4750785   -2.4750785   -1.5739335   0.10362001   -2.4750785   0.90114503   439061 
  167000   0.60005819    -2.477404    -2.477404   -1.5773188   0.10199884    -2.477404   0.90008523   439061 
  168000   0.59998861   -2.4798177   -2.4798177   -1.5798369   0.10145982   -2.4798177   0.89998086   439061 
  169000   0.59858447   -2.4801888   -2.4801888   -1.5823141  0.099430434   -2.4801888   0.89787465   439061 
  170000   0.59768868   -2.4820063   -2.4820063   -1.5854753    0.1040337   -2.4820063   0.89653097   439061 
  171000   0.59685904     -2.48422     -2.48422   -1.5889334  0.097294541     -2.48422   0.89528653   439061 
  172000   0.59503307   -2.4847455   -2.4847455   -1.5921979  0.096377138   -2.4847455   0.89254757   439061 
  173000   0.59473411   -2.4870112   -2.4870112   -1.5949121  0.096022044   -2.4870112   0.89209913   439061 
  174000   0.59430184   -2.4900684   -2.4900684   -1.5986177  0.096001268   -2.4900684   0.89145072   439061 
  175000   0.59418384   -2.4925932   -2.4925932   -1.6013195  0.097015544   -2.4925932   0.89127374   439061 
  176000   0.59369192   -2.4946832   -2.4946832   -1.6041473  0.096553419   -2.4946832   0.89053585   439061 
  177000   0.59304566    -2.496326    -2.496326   -1.6067595  0.098353269    -2.496326   0.88956647   439061 
  178000   0.59232586    -2.498385    -2.498385   -1.6098982  0.099058968    -2.498385   0.88848676   439061 
  179000   0.59198556   -2.5003995   -2.5003995   -1.6124232  0.091289893   -2.5003995   0.88797632   439061 
  180000   0.59087851   -2.5021745   -2.5021745   -1.6158588  0.091438019   -2.5021745   0.88631575   439061 
  181000   0.58942877   -2.5031862   -2.5031862    -1.619045  0.090492984   -2.5031862   0.88414114   439061 
  182000   0.58776868   -2.5033181   -2.5033181   -1.6216671   0.09081719   -2.5033181   0.88165101   439061 
  183000   0.58812238   -2.5075513   -2.5075513   -1.6253697  0.093290762   -2.5075513   0.88218156   439061 
  184000   0.58652953   -2.5080449   -2.5080449   -1.6282526  0.088760104   -2.5080449   0.87979229   439061 
  185000     0.586201   -2.5104351   -2.5104351   -1.6311356  0.085763935   -2.5104351    0.8792995   439061 
  186000   0.58531027   -2.5126049   -2.5126049   -1.6346415  0.085986278   -2.5126049   0.87796341   439061 
  187000   0.58503757    -2.515474    -2.515474   -1.6379197  0.085511548    -2.515474   0.87755435   439061 
  188000   0.58494143   -2.5181218   -2.5181218   -1.6407117  0.086689748   -2.5181218   0.87741015   439061 
  189000   0.58383059   -2.5196144   -2.5196144   -1.6438705  0.088320128   -2.5196144    0.8757439   439061 
  190000   0.58278529   -2.5211653   -2.5211653   -1.6469893  0.083974572   -2.5211653   0.87417595   439061 
  191000   0.58197979   -2.5224378   -2.5224378   -1.6494701  0.082496952   -2.5224378    0.8729677   439061 
  192000   0.58144592   -2.5239411   -2.5239411   -1.6517743  0.083358537   -2.5239411   0.87216689   439061 
  193000    0.5812636    -2.525922    -2.525922   -1.6540286  0.081891547    -2.525922   0.87189342   439061 
  194000   0.58079102   -2.5289068   -2.5289068   -1.6577222   0.08488707   -2.5289068   0.87118454   439061 
  195000   0.58037852   -2.5313049   -2.5313049   -1.6607391  0.081504577   -2.5313049   0.87056579   439061 
  196000   0.57998786   -2.5335283   -2.5335283   -1.6635485   0.08373097   -2.5335283   0.86997981   439061 
  197000   0.57946962   -2.5351217   -2.5351217   -1.6659193  0.082756414   -2.5351217   0.86920245   439061 
  198000   0.57911082   -2.5376539   -2.5376539   -1.6689896  0.082450755   -2.5376539   0.86866425   439061 
  199000    0.5765368     -2.53719     -2.53719   -1.6723868  0.083306206     -2.53719   0.86480323   439061 
  200000   0.57845904   -2.5418511   -2.5418511   -1.6741645  0.083396063   -2.5418511   0.86768658   439061 
  201000     0.577775   -2.5435723   -2.5435723   -1.6769118  0.081239521   -2.5435723   0.86666053   439061 
  202000   0.57673137   -2.5448774   -2.5448774   -1.6797823  0.077663618   -2.5448774   0.86509508   439061 
  203000   0.57697314   -2.5475932   -2.5475932   -1.6821355  0.076835925   -2.5475932   0.86545774   439061 
  204000   0.57632284   -2.5490961   -2.5490961   -1.6846138  0.078967294   -2.5490961   0.86448228   439061 
  205000   0.57652254   -2.5521322   -2.5521322   -1.6873504  0.080938055   -2.5521322   0.86478183   439061 
  206000   0.57574205   -2.5540934   -2.5540934   -1.6904823   0.08501842   -2.5540934   0.86361111   439061 
  207000   0.57502702   -2.5566921   -2.5566921   -1.6941535  0.083000795   -2.5566921   0.86253857   439061 
  208000   0.57517322   -2.5597985   -2.5597985   -1.6970407  0.084873284   -2.5597985   0.86275787   439061 
  209000    0.5737943    -2.560755    -2.560755   -1.7000656  0.085330241    -2.560755   0.86068949   439061 
  210000   0.57427876   -2.5644352   -2.5644352    -1.703019  0.082259506   -2.5644352   0.86141617   439061 
  211000   0.57353569   -2.5655567   -2.5655567   -1.7052552  0.081619906   -2.5655567   0.86030157   439061 
  212000   0.57231379   -2.5670626   -2.5670626   -1.7085939   0.07932324   -2.5670626   0.85846873   439061 
  213000   0.57172068   -2.5689526   -2.5689526   -1.7113735  0.080045709   -2.5689526   0.85757906   439061 
  214000   0.57074427   -2.5700709   -2.5700709   -1.7139564  0.084883383   -2.5700709   0.85611445   439061 
  215000   0.57034376   -2.5723934   -2.5723934   -1.7168797  0.081962726   -2.5723934   0.85551369   439061 
  216000   0.56993907   -2.5744964   -2.5744964   -1.7195897   0.08316925   -2.5744964   0.85490665   439061 
  217000   0.56937848   -2.5765661   -2.5765661   -1.7225004  0.082868811   -2.5765661   0.85406577   439061 
  218000   0.56932758   -2.5798343   -2.5798343   -1.7258449  0.082455853   -2.5798343   0.85398942   439061 
  219000   0.56918345   -2.5815602   -2.5815602   -1.7277869  0.078546445   -2.5815602   0.85377323   439061 
  220000   0.56835521   -2.5832814   -2.5832814   -1.7307505  0.078067445   -2.5832814   0.85253087   439061 
  221000   0.56719289   -2.5842561   -2.5842561   -1.7334687  0.080650068   -2.5842561    0.8507874   439061 
  222000   0.56622056   -2.5855687   -2.5855687   -1.7362398   0.08118401   -2.5855687   0.84932891   439061 
  223000   0.56667643   -2.5895094   -2.5895094   -1.7394967  0.077210827   -2.5895094   0.85001271   439061 
  224000   0.56507205    -2.589693    -2.589693   -1.7420869  0.078993971    -2.589693   0.84760614   439061 
  225000   0.56640199    -2.593555    -2.593555    -1.743954  0.074943261    -2.593555   0.84960105   439061 
  226000   0.56592116   -2.5953823   -2.5953823   -1.7465025  0.074828235   -2.5953823    0.8488798   439061 
  227000    0.5656847   -2.5976891   -2.5976891   -1.7491639   0.07786733   -2.5976891   0.84852512   439061 
  228000   0.56381025   -2.5980671   -2.5980671   -1.7523536  0.078003808   -2.5980671   0.84571345   439061 
  229000   0.56300994   -2.5992857   -2.5992857   -1.7547727  0.078555184   -2.5992857   0.84451298   439061 
  230000   0.56287724    -2.601557    -2.601557    -1.757243  0.071081685    -2.601557   0.84431393   439061 
  231000   0.56164067    -2.601842    -2.601842   -1.7593829  0.075655457    -2.601842   0.84245909   439061 
  232000   0.56187994   -2.6040018   -2.6040018   -1.7611838  0.074798917   -2.6040018   0.84281798   439061 
  233000   0.56123259   -2.6063644   -2.6063644   -1.7645174   0.07084063   -2.6063644   0.84184697   439061 
  234000   0.56119863   -2.6094442   -2.6094442   -1.7676481  0.073105022   -2.6094442   0.84179603   439061 
  235000   0.55985993   -2.6099905   -2.6099905   -1.7702026  0.071750686   -2.6099905   0.83978798   439061 
  236000   0.56044256   -2.6128664   -2.6128664   -1.7722045  0.072271438   -2.6128664   0.84066192   439061 
  237000   0.55948247   -2.6139648   -2.6139648    -1.774743  0.073253619   -2.6139648   0.83922179   439061 
  238000   0.55951919   -2.6165405   -2.6165405   -1.7772636  0.075645401   -2.6165405   0.83927688   439061 
  239000   0.55935974   -2.6193887   -2.6193887    -1.780351  0.069405729   -2.6193887    0.8390377   439061 
  240000   0.55855538   -2.6207543   -2.6207543   -1.7829231  0.070044278   -2.6207543   0.83783115   439061 
  241000   0.55772203   -2.6214672   -2.6214672    -1.784886  0.068107381   -2.6214672   0.83658115   439061 
  242000   0.55737679    -2.622904    -2.622904   -1.7868407  0.069647722    -2.622904   0.83606328   439061 
  243000   0.55728749   -2.6253652   -2.6253652   -1.7894358  0.065725699   -2.6253652   0.83592934   439061 
  244000    0.5571154   -2.6281363   -2.6281363   -1.7924651  0.068813157   -2.6281363    0.8356712   439061 
  245000   0.55636583    -2.629326    -2.629326   -1.7947792  0.068806081    -2.629326   0.83454684   439061 
  246000   0.55645198   -2.6318066   -2.6318066   -1.7971306  0.071123169   -2.6318066   0.83467608   439061 
  247000   0.55487004   -2.6318606   -2.6318606   -1.7995575  0.071070464   -2.6318606   0.83230317   439061 
  248000   0.55628461   -2.6362222   -2.6362222   -1.8017972  0.072024458   -2.6362222   0.83442502   439061 
  249000   0.55548535   -2.6380649   -2.6380649   -1.8048387  0.067496131   -2.6380649   0.83322612   439061 
  250000   0.55602332   -2.6407088   -2.6407088   -1.8066758  0.068349624   -2.6407088   0.83403309   439061 
  251000   0.55472672   -2.6420887   -2.6420887   -1.8100006  0.066705542   -2.6420887   0.83208819   439061 
  252000   0.55356543   -2.6427049   -2.6427049   -1.8123587  0.070049605   -2.6427049   0.83034625   439061 
  253000   0.55403471   -2.6457615   -2.6457615   -1.8147113  0.068307766   -2.6457615   0.83105017   439061 
  254000   0.55353179    -2.647197    -2.647197   -1.8169012   0.06839267    -2.647197   0.83029579   439061 
  255000   0.55299673    -2.648703    -2.648703   -1.8192098   0.06888788    -2.648703   0.82949321   439061 
  256000   0.55310349    -2.651529    -2.651529   -1.8218757  0.066574407    -2.651529   0.82965335   439061 
  257000   0.55152601    -2.651877    -2.651877   -1.8245898  0.069793485    -2.651877   0.82728713   439061 
  258000   0.55188664   -2.6550033   -2.6550033   -1.8271752  0.069366103   -2.6550033   0.82782808   439061 
  259000   0.55219307   -2.6574571   -2.6574571   -1.8291693  0.068700189   -2.6574571   0.82828772   439061 
  260000   0.55147438   -2.6579317   -2.6579317    -1.830722  0.072438185   -2.6579317   0.82720968   439061 
  261000   0.55065336   -2.6592531   -2.6592531   -1.8332749  0.071933356   -2.6592531   0.82597816   439061 
  262000   0.54996363   -2.6616498   -2.6616498   -1.8367062  0.066264194   -2.6616498   0.82494357   439061 
  263000   0.54987551   -2.6631148   -2.6631148   -1.8383034  0.065687109   -2.6631148   0.82481138   439061 
  264000   0.54903435   -2.6650889   -2.6650889   -1.8415392   0.06722385   -2.6650889   0.82354965   439061 
  265000   0.54881307   -2.6681526   -2.6681526   -1.8449349  0.060377971   -2.6681526   0.82321773   439061 
  266000   0.54783483   -2.6685664   -2.6685664    -1.846816  0.069124169   -2.6685664   0.82175038   439061 
  267000   0.54807196     -2.67037     -2.67037   -1.8482639   0.06491965     -2.67037   0.82210607   439061 
  268000   0.54853929   -2.6734043   -2.6734043   -1.8505972  0.066293113   -2.6734043   0.82280706   439061 
  269000   0.54805411   -2.6744964   -2.6744964   -1.8524171  0.066983548   -2.6744964    0.8220793   439061 
  270000   0.54697742   -2.6750903   -2.6750903    -1.854626  0.066217061   -2.6750903   0.82046427   439061 
  271000   0.54644618   -2.6770655   -2.6770655   -1.8573981  0.065879937   -2.6770655   0.81966741   439061 
  272000    0.5467712   -2.6796784   -2.6796784   -1.8595235  0.065276706   -2.6796784   0.82015494   439061 
  273000   0.54662102   -2.6816677   -2.6816677    -1.861738  0.061160483   -2.6816677   0.81992966   439061 
  274000   0.54610897   -2.6825644   -2.6825644   -1.8634028   0.06633071   -2.6825644   0.81916159   439061 
  275000   0.54536983   -2.6837865   -2.6837865   -1.8657336  0.063005723   -2.6837865   0.81805288   439061 
  276000   0.54495962   -2.6845888   -2.6845888   -1.8671512  0.065317471   -2.6845888   0.81743757   439061 
  277000   0.54544268   -2.6877301   -2.6877301    -1.869568  0.063335264   -2.6877301   0.81816215   439061 
  278000   0.54485622    -2.688878    -2.688878   -1.8715955  0.062383687    -2.688878   0.81728246   439061 
  279000   0.54303287    -2.688615    -2.688615   -1.8740676  0.062871203    -2.688615   0.81454745   439061 
  280000   0.54313721   -2.6914242   -2.6914242   -1.8767202  0.061939841   -2.6914242   0.81470396   439061 
  281000   0.54348505    -2.693531    -2.693531   -1.8783052  0.061945535    -2.693531   0.81522572   439061 
  282000   0.54313291   -2.6953289   -2.6953289   -1.8806314   0.06357875   -2.6953289    0.8146975   439061 
  283000   0.54288484   -2.6978904   -2.6978904    -1.883565  0.063786372   -2.6978904    0.8143254   439061 
  284000   0.54214004   -2.6997183   -2.6997183     -1.88651  0.061940388   -2.6997183   0.81320822   439061 
  285000   0.54157257   -2.7012796   -2.7012796   -1.8889226  0.060619862   -2.7012796   0.81235701   439061 
  286000   0.54129911    -2.702351    -2.702351   -1.8904042  0.062524396    -2.702351   0.81194681   439061 
  287000   0.54022893   -2.7026916   -2.7026916     -1.89235  0.063052219   -2.7026916   0.81034155   439061 
  288000    0.5408732   -2.7046498   -2.7046498   -1.8933418  0.062967319   -2.7046498   0.81130796   439061 
  289000   0.53959901   -2.7061521   -2.7061521   -1.8967555  0.060215236   -2.7061521   0.80939667   439061 
  290000   0.53927199   -2.7081472   -2.7081472   -1.8992411  0.058264079   -2.7081472   0.80890614   439061 
  291000    0.5396142   -2.7110657   -2.7110657   -1.9016462  0.059750542   -2.7110657   0.80941946   439061 
  292000   0.53894916   -2.7114727   -2.7114727   -1.9030508  0.058306907   -2.7114727    0.8084219   439061 
  293000   0.53824168   -2.7117305   -2.7117305   -1.9043698  0.059195829   -2.7117305   0.80736068   439061 
  294000   0.53838663   -2.7143515   -2.7143515   -1.9067734  0.059003421   -2.7143515   0.80757811   439061 
  295000   0.53790055   -2.7157163   -2.7157163   -1.9088673   0.06542085   -2.7157163   0.80684899   439061 
  296000   0.53801704   -2.7189573   -2.7189573   -1.9119336  0.061913216   -2.7189573   0.80702372   439061 
  297000   0.53881358    -2.722444    -2.722444   -1.9142255  0.063595509    -2.722444   0.80821853   439061 
  298000   0.53784964   -2.7231364   -2.7231364   -1.9163637  0.063690413   -2.7231364   0.80677263   439061 
  299000   0.53865965   -2.7263378   -2.7263378   -1.9183502  0.063419734   -2.7263378   0.80798764   439061 
  300000   0.53638541   -2.7253335   -2.7253335   -1.9207572  0.063383959   -2.7253335   0.80457628   439061 
  301000   0.53698993    -2.728092    -2.728092    -1.922609  0.057775059    -2.728092   0.80548307   439061 
  302000   0.53696215   -2.7301225   -2.7301225   -1.9246811   0.05491931   -2.7301225   0.80544139   439061 
  303000   0.53567422   -2.7299419   -2.7299419   -1.9264324  0.060147159   -2.7299419   0.80350951   439061 
  304000   0.53561538   -2.7320626   -2.7320626   -1.9286413  0.056524279   -2.7320626   0.80342124   439061 
  305000   0.53577126   -2.7349885   -2.7349885   -1.9313334  0.055947062   -2.7349885   0.80365506   439061 
  306000   0.53560524   -2.7367714   -2.7367714   -1.9333653  0.055845388   -2.7367714   0.80340602   439061 
  307000    0.5346003   -2.7368304   -2.7368304   -1.9349318  0.056767231   -2.7368304   0.80189863   439061 
  308000    0.5351256   -2.7390847   -2.7390847   -1.9363981  0.058936068   -2.7390847   0.80268657   439061 
  309000   0.53471456   -2.7412764   -2.7412764   -1.9392063  0.060035713   -2.7412764   0.80207002   439061 
  310000   0.53458706   -2.7424006   -2.7424006   -1.9405218  0.059260171   -2.7424006   0.80187876   439061 
  311000   0.53444893   -2.7442275   -2.7442275   -1.9425559  0.059258146   -2.7442275   0.80167157   439061 
  312000   0.53450744   -2.7462278   -2.7462278   -1.9444685  0.059062716   -2.7462278   0.80175933   439061 
  313000   0.53389953   -2.7478452   -2.7478452   -1.9469977  0.059383289   -2.7478452   0.80084747   439061 
  314000   0.53286278   -2.7485414   -2.7485414    -1.949249  0.057504129   -2.7485414   0.79929235   439061 
  315000    0.5325788   -2.7497179   -2.7497179   -1.9508515  0.058703904   -2.7497179   0.79886638   439061 
  316000   0.53200128   -2.7519135   -2.7519135   -1.9539134  0.057706224   -2.7519135    0.7980001   439061 
  317000   0.53211291   -2.7540569   -2.7540569   -1.9558894  0.057559515   -2.7540569   0.79816755   439061 
  318000   0.53203703   -2.7554182   -2.7554182   -1.9573644  0.056850254   -2.7554182   0.79805373   439061 
  319000   0.53165701   -2.7573447   -2.7573447    -1.959861   0.05491224   -2.7573447    0.7974837   439061 
  320000   0.53195413   -2.7600703   -2.7600703   -1.9621409  0.057276235   -2.7600703   0.79792938   439061 
  321000   0.53059198   -2.7606994   -2.7606994   -1.9648132  0.057344216   -2.7606994   0.79588616   439061 
  322000   0.52998305   -2.7613465   -2.7613465   -1.9663737  0.055502697   -2.7613465   0.79497277   439061 
  323000   0.53031847   -2.7633819   -2.7633819    -1.967906  0.054325506   -2.7633819   0.79547589   439061 
  324000   0.52911008   -2.7639276   -2.7639276   -1.9702643  0.052022505   -2.7639276   0.79366331   439061 
  325000   0.52946395   -2.7672175   -2.7672175   -1.9730234  0.052016562   -2.7672175   0.79419412   439061 
  326000   0.52914431   -2.7677894   -2.7677894   -1.9740747  0.055512837   -2.7677894   0.79371466   439061 
  327000   0.52911473   -2.7695636   -2.7695636   -1.9758933  0.055852542   -2.7695636   0.79367029   439061 
  328000   0.52880194   -2.7710052   -2.7710052   -1.9778041  0.054359037   -2.7710052    0.7932011   439061 
  329000   0.52855391   -2.7736985   -2.7736985   -1.9808694  0.050967719   -2.7736985   0.79282906   439061 
  330000   0.52800225   -2.7746373   -2.7746373   -1.9826357  0.054631939   -2.7746373   0.79200157   439061 
  331000   0.52811944    -2.777322    -2.777322   -1.9851447  0.051983037    -2.777322   0.79217736   439061 
  332000   0.52740227   -2.7778947   -2.7778947   -1.9867931  0.055216473   -2.7778947    0.7911016   439061 
  333000   0.52791896   -2.7804376   -2.7804376    -1.988561  0.050011597   -2.7804376   0.79187663   439061 
  334000   0.52713926   -2.7820297   -2.7820297   -1.9913227  0.052999463   -2.7820297   0.79070709   439061 
  335000   0.52735626   -2.7836648   -2.7836648   -1.9926322  0.053477315   -2.7836648   0.79103258   439061 
  336000   0.52656415   -2.7847784   -2.7847784    -1.994934  0.055500269   -2.7847784   0.78984442   439061 
  337000   0.52655951   -2.7866422   -2.7866422   -1.9968048  0.055647034   -2.7866422   0.78983746   439061 
  338000   0.52603151   -2.7871911   -2.7871911   -1.9981457  0.055325774   -2.7871911   0.78904547   439061 
  339000   0.52629497   -2.7900366   -2.7900366   -2.0005959  0.053066475   -2.7900366   0.78944065   439061 
  340000   0.52573741   -2.7913629   -2.7913629   -2.0027586  0.055785524   -2.7913629   0.78860432   439061 
  341000   0.52569252   -2.7933257   -2.7933257   -2.0047887  0.055311969   -2.7933257   0.78853698   439061 
  342000    0.5250184   -2.7945455   -2.7945455   -2.0070196  0.057447602   -2.7945455   0.78752581   439061 
  343000    0.5252325   -2.7965001   -2.7965001   -2.0086532  0.056400647   -2.7965001   0.78784695   439061 
  344000   0.52550747   -2.7988526   -2.7988526   -2.0105932  0.054992105   -2.7988526   0.78825941   439061 
  345000    0.5239245   -2.7979638   -2.7979638   -2.0120788  0.054603913   -2.7979638   0.78588496   439061 
  346000    0.5241977   -2.8008157   -2.8008157   -2.0145209  0.051229724   -2.8008157   0.78629476   439061 
  347000   0.52303554   -2.8011807   -2.8011807   -2.0166292  0.053247591   -2.8011807   0.78455153   439061 
  348000   0.52308259    -2.802614    -2.802614   -2.0179919  0.050372943    -2.802614    0.7846221   439061 
  349000   0.52228131    -2.803173    -2.803173   -2.0197528  0.050321794    -2.803173   0.78342018   439061 
  350000   0.52165331   -2.8044281   -2.8044281   -2.0219499  0.051392121   -2.8044281   0.78247818   439061 
  351000   0.52266573    -2.807648    -2.807648   -2.0236512  0.050704758    -2.807648   0.78399681   439061 
  352000   0.52274223   -2.8097142   -2.8097142   -2.0256026  0.054912206   -2.8097142   0.78411156   439061 
  353000   0.52323586   -2.8124892   -2.8124892   -2.0276372  0.050936839   -2.8124892     0.784852   439061 
  354000    0.5222135   -2.8132258   -2.8132258   -2.0299073  0.054316535   -2.8132258   0.78331847   439061 
  355000   0.52316583   -2.8167532   -2.8167532   -2.0320062  0.050265389   -2.8167532   0.78474696   439061 
  356000   0.52218772   -2.8165997   -2.8165997   -2.0333199  0.052787668   -2.8165997    0.7832798   439061 
  357000   0.52199148   -2.8185371   -2.8185371   -2.0355517  0.052063608   -2.8185371   0.78298543   439061 
  358000   0.52148422   -2.8193281   -2.8193281   -2.0371035  0.050208084   -2.8193281   0.78222455   439061 
  359000   0.52061828   -2.8194753   -2.8194753   -2.0385496  0.052632365   -2.8194753   0.78092564   439061 
  360000   0.52040101   -2.8211881   -2.8211881   -2.0405883  0.051146813   -2.8211881   0.78059974   439061 
  361000   0.51962641   -2.8226101   -2.8226101   -2.0431722  0.048664033   -2.8226101   0.77943784   439061 
  362000   0.51994245   -2.8249386   -2.8249386   -2.0450267  0.051420853   -2.8249386    0.7799119   439061 
  363000   0.52003204   -2.8267506   -2.8267506   -2.0467043   0.05242593   -2.8267506   0.78004628   439061 
  364000   0.51992986   -2.8285757   -2.8285757   -2.0486826  0.050713223   -2.8285757   0.77989302   439061 
  365000   0.51962045   -2.8299402   -2.8299402   -2.0505113  0.052056472   -2.8299402   0.77942891   439061 
  366000   0.51894948   -2.8309737   -2.8309737   -2.0525513  0.051579438   -2.8309737   0.77842244   439061 
  367000   0.51856394   -2.8327158   -2.8327158   -2.0548717  0.050525903   -2.8327158   0.77784414   439061 
  368000   0.51759121   -2.8328085   -2.8328085   -2.0564235  0.054359858   -2.8328085   0.77638505   439061 
  369000   0.51780805   -2.8351545   -2.8351545   -2.0584442  0.050643638   -2.8351545   0.77671031   439061 
  370000   0.51790399   -2.8370913   -2.8370913   -2.0602371   0.05213027   -2.8370913   0.77685421   439061 
  371000   0.51743086   -2.8376907   -2.8376907   -2.0615462  0.047725433   -2.8376907   0.77614452   439061 
  372000   0.51748145   -2.8395099   -2.8395099   -2.0632895  0.049091908   -2.8395099    0.7762204   439061 
  373000   0.51760911   -2.8416214   -2.8416214   -2.0652095  0.049471977   -2.8416214    0.7764119   439061 
  374000   0.51727891   -2.8429918   -2.8429918   -2.0670752  0.053912442   -2.8429918    0.7759166   439061 
  375000   0.51688876   -2.8451339   -2.8451339   -2.0698026  0.048017597   -2.8451339   0.77533138   439061 
  376000   0.51695049   -2.8464481   -2.8464481   -2.0710241  0.048521994   -2.8464481   0.77542397   439061 
  377000   0.51711177   -2.8480337   -2.8480337   -2.0723678  0.048221916   -2.8480337   0.77566588   439061 
  378000   0.51694829     -2.84925     -2.84925   -2.0738294  0.048701746     -2.84925   0.77542067   439061 
  379000    0.5161394   -2.8500589   -2.8500589   -2.0758515   0.04772944   -2.8500589   0.77420733   439061 
  380000   0.51616889   -2.8523499   -2.8523499   -2.0780984  0.048496816   -2.8523499   0.77425158   439061 
  381000   0.51679607    -2.854338    -2.854338   -2.0791457  0.049202424    -2.854338   0.77519234   439061 
  382000   0.51566474   -2.8550693   -2.8550693    -2.081574  0.047555583   -2.8550693   0.77349535   439061 
  383000   0.51575919   -2.8566516   -2.8566516   -2.0830146    0.0487565   -2.8566516   0.77363702   439061 
  384000   0.51590375   -2.8592698   -2.8592698   -2.0854159  0.047805259   -2.8592698   0.77385387   439061 
  385000   0.51562001   -2.8596644   -2.8596644   -2.0862362  0.050523305   -2.8596644   0.77342826   439061 
  386000   0.51487738   -2.8606555   -2.8606555   -2.0883412  0.049166307   -2.8606555   0.77231432   439061 
  387000   0.51472847   -2.8623664   -2.8623664   -2.0902755  0.047318521   -2.8623664   0.77209095   439061 
  388000   0.51440304   -2.8639133   -2.8639133   -2.0923105  0.047745935   -2.8639133    0.7716028   439061 
  389000   0.51407426   -2.8651663   -2.8651663   -2.0940567  0.047120571   -2.8651663   0.77110963   439061 
  390000   0.51382426   -2.8662653   -2.8662653   -2.0955306  0.048536593   -2.8662653   0.77073463   439061 
  391000   0.51367185   -2.8681237   -2.8681237   -2.0976176  0.049814879   -2.8681237   0.77050602   439061 
  392000   0.51355338   -2.8701769   -2.8701769   -2.0998486  0.047965322   -2.8701769   0.77032832   439061 
  393000   0.51408362   -2.8724575   -2.8724575   -2.1013338  0.048788751   -2.8724575   0.77112368   439061 
  394000   0.51355806   -2.8738759   -2.8738759   -2.1035405  0.048521712   -2.8738759   0.77033533   439061 
  395000   0.51267954   -2.8746821   -2.8746821   -2.1056646  0.049057099   -2.8746821   0.76901756   439061 
  396000   0.51328941   -2.8771441   -2.8771441   -2.1072118   0.04430822   -2.8771441   0.76993237   439061 
  397000   0.51220861    -2.877574    -2.877574   -2.1092628  0.046288757    -2.877574   0.76831117   439061 
  398000   0.51214744   -2.8786621   -2.8786621   -2.1104427  0.050372864   -2.8786621    0.7682194   439061 
  399000   0.51270576   -2.8811241   -2.8811241   -2.1120672  0.049878023   -2.8811241   0.76905689   439061 
  400000   0.51201174   -2.8814542   -2.8814542   -2.1134384  0.049004228   -2.8814542   0.76801586   439061 
  401000   0.51266363   -2.8838599   -2.8838599   -2.1148662  0.050503631   -2.8838599    0.7689937   439061 
  402000   0.51233056    -2.885171    -2.885171   -2.1166769   0.05061626    -2.885171   0.76849409   439061 
  403000   0.51299163   -2.8873014   -2.8873014   -2.1178157  0.048162255   -2.8873014   0.76948569   439061 
  404000   0.51277525   -2.8890541   -2.8890541   -2.1198929  0.049992586   -2.8890541   0.76916113   439061 
  405000   0.51185862   -2.8899033   -2.8899033   -2.1221171  0.045873012   -2.8899033   0.76778618   439061 
  406000   0.51081898   -2.8908604   -2.8908604   -2.1246336  0.049483537   -2.8908604   0.76622673   439061 
  407000   0.51018017   -2.8918428   -2.8918428   -2.1265742  0.042431582   -2.8918428   0.76526852   439061 
  408000   0.51058857    -2.893806    -2.893806   -2.1279249  0.043271324    -2.893806   0.76588112   439061 
  409000   0.50950533   -2.8949275   -2.8949275   -2.1306713  0.042383148   -2.8949275   0.76425626   439061 
  410000   0.50901692   -2.8950205   -2.8950205   -2.1314968  0.045656883   -2.8950205   0.76352364   439061 
  411000   0.50962491   -2.8974579   -2.8974579   -2.1330222  0.043736592   -2.8974579   0.76443563   439061 
  412000   0.51023535    -2.899432    -2.899432   -2.1340807  0.043834015    -2.899432   0.76535129   439061 
  413000   0.51025976   -2.9011421   -2.9011421   -2.1357542  0.041801988   -2.9011421   0.76538789   439061 
  414000   0.50925441   -2.9007912   -2.9007912   -2.1369114   0.04974415   -2.9007912   0.76387988   439061 
  415000   0.50937979   -2.9023741   -2.9023741   -2.1383062  0.049174494   -2.9023741   0.76406794   439061 
  416000   0.50979397    -2.905051    -2.905051   -2.1403618  0.046281997    -2.905051   0.76468921   439061 
  417000   0.50938818    -2.906047    -2.906047   -2.1419665  0.047240922    -2.906047   0.76408053   439061 
  418000   0.50852943   -2.9075768   -2.9075768   -2.1447844  0.042144073   -2.9075768   0.76279241   439061 
  419000    0.5080446   -2.9085682   -2.9085682    -2.146503  0.041687071   -2.9085682   0.76206517   439061 
  420000   0.50720819   -2.9091147   -2.9091147   -2.1483042  0.042134918   -2.9091147   0.76081055   439061 
  421000   0.50768172   -2.9110455   -2.9110455   -2.1495246      0.04285   -2.9110455   0.76152084   439061 
  422000   0.50815626    -2.913605    -2.913605   -2.1513723  0.041622206    -2.913605   0.76223265   439061 
  423000   0.50748576   -2.9138398   -2.9138398   -2.1526129  0.050512246   -2.9138398    0.7612269   439061 
  424000   0.50805514   -2.9165969   -2.9165969   -2.1545159  0.047384416   -2.9165969   0.76208097   439061 
  425000   0.50797554   -2.9180408   -2.9180408   -2.1560792  0.046574728   -2.9180408   0.76196158   439061 
  426000   0.50727438     -2.91835     -2.91835   -2.1574402  0.047078806     -2.91835   0.76090983   439061 
  427000   0.50675178    -2.919019    -2.919019   -2.1588931  0.046748351    -2.919019   0.76012593   439061 
  428000   0.50666505   -2.9209605   -2.9209605   -2.1609647  0.037510812   -2.9209605   0.75999585   439061 
  429000   0.50702392   -2.9228374   -2.9228374   -2.1623033  0.043093431   -2.9228374   0.76053415   439061 
  430000   0.50650787   -2.9238434   -2.9238434   -2.1640833  0.039276737   -2.9238434   0.75976008   439061 
  431000    0.5057551   -2.9245258   -2.9245258   -2.1658949  0.039445666   -2.9245258   0.75863092   439061 
  432000   0.50603565   -2.9261778   -2.9261778    -2.167126  0.042384997   -2.9261778   0.75905174   439061 
  433000   0.50616336   -2.9285816   -2.9285816   -2.1693383  0.044108668   -2.9285816   0.75924331   439061 
  434000   0.50563067   -2.9298336   -2.9298336   -2.1713893  0.046916385   -2.9298336   0.75844427   439061 
  435000   0.50431101   -2.9297937   -2.9297937   -2.1733289  0.047972241   -2.9297937   0.75646479   439061 
  436000   0.50483535   -2.9332258   -2.9332258   -2.1759745  0.047629748   -2.9332258    0.7572513   439061 
  437000   0.50443464   -2.9337527   -2.9337527   -2.1771024  0.046556255   -2.9337527   0.75665024   439061 
  438000   0.50452298   -2.9356049   -2.9356049   -2.1788222   0.04492942   -2.9356049   0.75678274   439061 
  439000   0.50447538   -2.9369741   -2.9369741   -2.1802628  0.039937976   -2.9369741   0.75671135   439061 
  440000   0.50354222   -2.9372614   -2.9372614   -2.1819498  0.039486797   -2.9372614    0.7553116   439061 
  441000   0.50428263   -2.9390278   -2.9390278   -2.1826056  0.038889807   -2.9390278   0.75642222   439061 
  442000   0.50502513   -2.9411444   -2.9411444   -2.1836084  0.041674355   -2.9411444   0.75753597   439061 
  443000   0.50330227   -2.9403297   -2.9403297   -2.1853781  0.042889331   -2.9403297   0.75495168   439061 
  444000   0.50342827   -2.9427825   -2.9427825   -2.1876419  0.043703311   -2.9427825   0.75514068   439061 
  445000   0.50428486   -2.9459657   -2.9459657   -2.1895402  0.039830222   -2.9459657   0.75642557   439061 
  446000   0.50327918   -2.9464062   -2.9464062   -2.1914892  0.042748585   -2.9464062   0.75491705   439061 
  447000   0.50355279   -2.9492577   -2.9492577   -2.1939302   0.04217885   -2.9492577   0.75532747   439061 
  448000   0.50314822   -2.9503703   -2.9503703   -2.1956497   0.04520512   -2.9503703   0.75472061   439061 
  449000   0.50272139   -2.9505399   -2.9505399   -2.1964595  0.044328439   -2.9505399   0.75408037   439061 
  450000   0.50311672   -2.9523546   -2.9523546   -2.1976812  0.045418188   -2.9523546   0.75467336   439061 
  451000   0.50293402   -2.9537139   -2.9537139   -2.1993146  0.041740137   -2.9537139   0.75439931   439061 
  452000   0.50318177   -2.9554431   -2.9554431   -2.2006722   0.04107334   -2.9554431   0.75477094   439061 
  453000   0.50178277   -2.9556865   -2.9556865   -2.2030141  0.041749169   -2.9556865   0.75267244   439061 
  454000   0.50125689   -2.9569526   -2.9569526    -2.205069  0.039502845   -2.9569526   0.75188362   439061 
  455000   0.50076468   -2.9568192   -2.9568192   -2.2056739  0.040406503   -2.9568192   0.75114531   439061 
  456000   0.50147882   -2.9612103   -2.9612103   -2.2089938  0.035281068   -2.9612103   0.75221652   439061 
  457000    0.5012505   -2.9611707   -2.9611707   -2.2092967  0.043081792   -2.9611707   0.75187404   439061 
  458000   0.50152275   -2.9636483   -2.9636483   -2.2113659  0.042518581   -2.9636483   0.75228242   439061 
  459000   0.50031794   -2.9640418   -2.9640418   -2.2135666  0.044090139   -2.9640418   0.75047521   439061 
  460000   0.50102412   -2.9667294   -2.9667294   -2.2151949  0.044580509   -2.9667294   0.75153447   439061 
  461000    0.5009127   -2.9691546   -2.9691546   -2.2177873  0.038683443   -2.9691546   0.75136734   439061 
  462000    0.5009648   -2.9707617   -2.9707617   -2.2193162  0.040400701   -2.9707617   0.75144549   439061 
  463000   0.50029656   -2.9718561   -2.9718561    -2.221413  0.037928254   -2.9718561   0.75044314   439061 
  464000   0.50013437   -2.9736551   -2.9736551   -2.2234552  0.038456135   -2.9736551   0.75019985   439061 
  465000   0.49936877   -2.9742162   -2.9742162   -2.2251647   0.03881138   -2.9742162   0.74905145   439061 
  466000   0.49977553   -2.9766734   -2.9766734   -2.2270118  0.039601998   -2.9766734   0.74966158   439061 
  467000   0.49993105   -2.9777583   -2.9777583   -2.2278634  0.040913828   -2.9777583   0.74989487   439061 
  468000   0.49966033   -2.9788389   -2.9788389   -2.2293501  0.041908302   -2.9788389   0.74948878   439061 
  469000     0.499441   -2.9806841   -2.9806841   -2.2315243  0.042347177   -2.9806841   0.74915979   439061 
  470000   0.49994458   -2.9827922   -2.9827922   -2.2328771  0.042491976   -2.9827922   0.74991516   439061 
  471000   0.49847919   -2.9822651   -2.9822651    -2.234548  0.039875776   -2.9822651   0.74771708   439061 
  472000   0.49836099   -2.9847359   -2.9847359   -2.2371962  0.036640945   -2.9847359   0.74753978   439061 
  473000    0.4980503   -2.9854497   -2.9854497   -2.2383759  0.036423627   -2.9854497   0.74707375   439061 
  474000   0.49723844   -2.9861841   -2.9861841   -2.2403281  0.037293144   -2.9861841   0.74585597   439061 
  475000   0.49705954   -2.9873503   -2.9873503   -2.2417627  0.039323389   -2.9873503   0.74558762   439061 
  476000   0.49731334   -2.9885026   -2.9885026   -2.2425343  0.037085119   -2.9885026   0.74596831   439061 
  477000   0.49757344   -2.9909264   -2.9909264   -2.2445679  0.037579125   -2.9909264   0.74635845   439061 
  478000   0.49779375   -2.9925762   -2.9925762   -2.2458873  0.040800686   -2.9925762   0.74668892   439061 
  479000   0.49724722   -2.9941775   -2.9941775   -2.2483084  0.038487955   -2.9941775   0.74586913   439061 
  480000   0.49746279   -2.9967705   -2.9967705   -2.2505781   0.03711038   -2.9967705   0.74619248   439061 
  481000   0.49771043   -2.9974886   -2.9974886   -2.2509247  0.037502433   -2.9974886   0.74656394   439061 
  482000   0.49685066   -2.9977949   -2.9977949   -2.2525206  0.036994985   -2.9977949   0.74527429   439061 
  483000   0.49673031    -2.999525    -2.999525   -2.2544313  0.033856858    -2.999525   0.74509377   439061 
  484000    0.4968255    -3.001075    -3.001075   -2.2558385  0.035440888    -3.001075   0.74523655   439061 
  485000   0.49595483   -3.0016136   -3.0016136    -2.257683  0.034085497   -3.0016136   0.74393056   439061 
  486000   0.49621492    -3.003234    -3.003234   -2.2589133   0.03665718    -3.003234   0.74432068   439061 
  487000   0.49503482   -3.0031129   -3.0031129   -2.2605624  0.040447243   -3.0031129   0.74255053   439061 
  488000   0.49649342   -3.0061757   -3.0061757   -2.2614373  0.037124005   -3.0061757   0.74473843   439061 
  489000   0.49599976   -3.0071785   -3.0071785   -2.2631805  0.038967285   -3.0071785   0.74399795   439061 
  490000   0.49609504   -3.0084158   -3.0084158   -2.2642749  0.037083178   -3.0084158   0.74414086   439061 
  491000   0.49567336   -3.0092768   -3.0092768   -2.2657685  0.039721075   -3.0092768   0.74350835   439061 
  492000     0.496212   -3.0121214   -3.0121214   -2.2678051  0.035485852   -3.0121214    0.7443163   439061 
  493000   0.49485873   -3.0115258   -3.0115258   -2.2692394  0.033206108   -3.0115258   0.74228641   439061 
  494000   0.49461861   -3.0125833   -3.0125833   -2.2706571  0.040220736   -3.0125833   0.74192622   439061 
  495000   0.49549402   -3.0155357   -3.0155357   -2.2722964  0.034513663   -3.0155357   0.74323933   439061 
  496000   0.49525418   -3.0161097   -3.0161097   -2.2732301  0.039180616   -3.0161097   0.74287958   439061 
  497000   0.49562646   -3.0187334   -3.0187334   -2.2752954  0.036034451   -3.0187334   0.74343799   439061 
  498000   0.49501367   -3.0189226   -3.0189226   -2.2764037    0.0398473   -3.0189226   0.74251882   439061 
  499000   0.49490696   -3.0204067   -3.0204067    -2.278048  0.035872499   -3.0204067   0.74235876   439061 
  500000   0.49487501   -3.0230676   -3.0230676   -2.2807568  0.037344583   -3.0230676   0.74231082   439061 
  501000   0.49473965   -3.0236613   -3.0236613   -2.2815536  0.035904266   -3.0236613   0.74210778   439061 
  502000   0.49485211   -3.0249239   -3.0249239   -2.2826474  0.039255034   -3.0249239   0.74227647   439061 
  503000   0.49383267   -3.0254511   -3.0254511   -2.2847038  0.039182903   -3.0254511   0.74074731   439061 
  504000   0.49416482   -3.0268601   -3.0268601   -2.2856145  0.037868295   -3.0268601   0.74124554   439061 
  505000   0.49439476   -3.0296831   -3.0296831   -2.2880927  0.034853577   -3.0296831   0.74159045   439061 
  506000   0.49446464   -3.0307297   -3.0307297   -2.2890345  0.035874394   -3.0307297   0.74169527   439061 
  507000   0.49368071   -3.0303925   -3.0303925   -2.2898731  0.041640812   -3.0303925   0.74051938   439061 
  508000   0.49378877   -3.0323697   -3.0323697   -2.2916883  0.034713714   -3.0323697   0.74068147   439061 
  509000   0.49280527   -3.0325781   -3.0325781   -2.2933719  0.037264805   -3.0325781   0.73920622   439061 
  510000    0.4931084   -3.0351543   -3.0351543   -2.2954933  0.033474374   -3.0351543   0.73966092   439061 
  511000   0.49282435   -3.0357063   -3.0357063   -2.2964714  0.032476165   -3.0357063   0.73923484   439061 
  512000   0.49305524   -3.0374178   -3.0374178   -2.2978367  0.033748019   -3.0374178   0.73958118   439061 
  513000   0.49313394   -3.0392087   -3.0392087   -2.2995095  0.034598983   -3.0392087   0.73969923   439061 
  514000   0.49276212   -3.0402054   -3.0402054   -2.3010639  0.035153528   -3.0402054    0.7391415   439061 
  515000   0.49309052   -3.0426605   -3.0426605   -2.3030264  0.038546451   -3.0426605    0.7396341   439061 
  516000   0.49324736   -3.0444057   -3.0444057   -2.3045364  0.035367351   -3.0444057   0.73986936   439061 
  517000   0.49278224   -3.0450889   -3.0450889   -2.3059172  0.037943122   -3.0450889   0.73917167   439061 
  518000   0.49256961   -3.0463221   -3.0463221   -2.3074694  0.033690968   -3.0463221   0.73885273   439061 
  519000   0.49190084   -3.0477549   -3.0477549   -2.3099053  0.035974808   -3.0477549   0.73784958   439061 
  520000   0.49101168   -3.0479234   -3.0479234   -2.3114075  0.034660447   -3.0479234   0.73651585   439061 
  521000   0.49182532    -3.049885    -3.049885   -2.3121487  0.034871237    -3.049885    0.7377363   439061 
  522000   0.49195198   -3.0509121   -3.0509121   -2.3129858  0.038737477   -3.0509121   0.73792629   439061 
  523000   0.49119563   -3.0510487   -3.0510487   -2.3142569  0.033772636   -3.0510487   0.73679176   439061 
  524000   0.49177227   -3.0525415   -3.0525415   -2.3148847  0.036216197   -3.0525415   0.73765673   439061 
  525000   0.49144306   -3.0532579   -3.0532579    -2.316095  0.031679351   -3.0532579    0.7371629   439061 
  526000   0.49043799   -3.0543433   -3.0543433    -2.318688  0.032238735   -3.0543433   0.73565531   439061 
  527000   0.49062809   -3.0565578   -3.0565578   -2.3206173  0.033867518   -3.0565578   0.73594047   439061 
  528000   0.49122808   -3.0583665   -3.0583665    -2.321526  0.034334779   -3.0583665   0.73684045   439061 
  529000   0.49101767   -3.0598102   -3.0598102   -2.3232853  0.037630393   -3.0598102   0.73652482   439061 
  530000   0.49147183   -3.0621535   -3.0621535   -2.3249475  0.035417622   -3.0621535   0.73720607   439061 
  531000   0.49070941   -3.0624846   -3.0624846   -2.3264221  0.037554038   -3.0624846   0.73606244   439061 
  532000   0.49062767   -3.0646133   -3.0646133   -2.3286735  0.032021864   -3.0646133   0.73593982   439061 
  533000   0.48971022   -3.0647722   -3.0647722   -2.3302085  0.034474046   -3.0647722   0.73456366   439061 
  534000   0.48931325   -3.0664669   -3.0664669   -2.3324987  0.031840094   -3.0664669   0.73396821   439061 
  535000   0.48928956   -3.0672545   -3.0672545   -2.3333218  0.030284537   -3.0672545   0.73393267   439061 
  536000   0.48947763   -3.0689937   -3.0689937   -2.3347789  0.032207673   -3.0689937   0.73421478   439061 
  537000    0.4888627   -3.0705237   -3.0705237   -2.3372313  0.030943928   -3.0705237   0.73329238   439061 
  538000    0.4890964   -3.0723417   -3.0723417   -2.3386987  0.035778342   -3.0723417   0.73364293   439061 
  539000   0.48951021   -3.0738719   -3.0738719   -2.3396083  0.035644319   -3.0738719   0.73426365   439061 
  540000   0.49050338   -3.0764753   -3.0764753   -2.3407219  0.036197328   -3.0764753   0.73575339   439061 
  541000   0.48947263   -3.0765788   -3.0765788   -2.3423715  0.038492526   -3.0765788   0.73420727   439061 
  542000   0.48918409   -3.0787182   -3.0787182   -2.3449437  0.033472363   -3.0787182   0.73377446   439061 
  543000   0.48892829   -3.0795216   -3.0795216   -2.3461308  0.032007781   -3.0795216   0.73339076   439061 
  544000   0.48836785   -3.0797862   -3.0797862   -2.3472361  0.033020712   -3.0797862   0.73255011   439061 
  545000   0.48787193    -3.080658    -3.080658   -2.3488518  0.033469802    -3.080658   0.73180623   439061 
  546000    0.4885427   -3.0832523   -3.0832523   -2.3504399  0.033121357   -3.0832523   0.73281238   439061 
  547000    0.4881455   -3.0844414   -3.0844414   -2.3522248  0.031535823   -3.0844414   0.73221658   439061 
  548000   0.48827723   -3.0863669   -3.0863669   -2.3539527  0.029819583   -3.0863669   0.73241417   439061 
  549000   0.48774118   -3.0868223   -3.0868223   -2.3552122  0.036112016   -3.0868223    0.7316101   439061 
  550000   0.48762399   -3.0887719   -3.0887719   -2.3573376  0.035289513   -3.0887719   0.73143433   439061 
  551000   0.48776885   -3.0905764   -3.0905764   -2.3589248  0.035825863   -3.0905764   0.73165161   439061 
  552000   0.48833026   -3.0927379   -3.0927379   -2.3602442  0.032260142   -3.0927379   0.73249372   439061 
  553000   0.48845779   -3.0947077   -3.0947077   -2.3620227  0.028203117   -3.0947077   0.73268502   439061 
  554000   0.48714714   -3.0940864   -3.0940864   -2.3633674  0.035945234   -3.0940864   0.73071904   439061 
  555000   0.48783948   -3.0965633   -3.0965633   -2.3648058  0.031524512   -3.0965633   0.73175755   439061 
  556000    0.4875529   -3.0979739   -3.0979739   -2.3666462  0.030719046   -3.0979739   0.73132768   439061 
  557000   0.48762815   -3.0999449   -3.0999449   -2.3685043  0.030209626   -3.0999449   0.73144056   439061 
  558000   0.48741451    -3.100245    -3.100245   -2.3691249  0.033070868    -3.100245   0.73112011   439061 
  559000    0.4868963   -3.1009148   -3.1009148    -2.370572  0.034358609   -3.1009148   0.73034278   439061 
  560000   0.48722146   -3.1024318   -3.1024318   -2.3716013  0.037364898   -3.1024318   0.73083052   439061 
  561000   0.48753846    -3.104212    -3.104212    -2.372906  0.035518055    -3.104212   0.73130603   439061 
  562000   0.48848491   -3.1073402   -3.1073402   -2.3746146  0.034491469   -3.1073402   0.73272569   439061 
  563000   0.48835219   -3.1089141   -3.1089141   -2.3763875  0.032327721   -3.1089141   0.73252662   439061 
  564000   0.48700348   -3.1092049   -3.1092049   -2.3787014  0.034554627   -3.1092049   0.73050356   439061 
  565000   0.48759247   -3.1115556   -3.1115556   -2.3801686  0.033403765   -3.1115556   0.73138704   439061 
  566000   0.48667435   -3.1113176   -3.1113176   -2.3813077  0.037374842   -3.1113176   0.73000986   439061 
  567000   0.48656144   -3.1123247   -3.1123247   -2.3824842  0.031374597   -3.1123247   0.72984049   439061 
  568000   0.48612505   -3.1135174   -3.1135174   -2.3843315  0.033467645   -3.1135174   0.72918591   439061 
  569000   0.48603881   -3.1149406   -3.1149406    -2.385884  0.030597309   -3.1149406   0.72905656   439061 
  570000   0.48555326   -3.1163055   -3.1163055   -2.3879772    0.0324375   -3.1163055   0.72832824   439061 
  571000   0.48453539   -3.1167755   -3.1167755   -2.3899741  0.030546031   -3.1167755   0.72680144   439061 
  572000   0.48509244   -3.1189165   -3.1189165   -2.3912794  0.032957152   -3.1189165   0.72763701   439061 
  573000   0.48515737   -3.1200813   -3.1200813   -2.3923469  0.034446426   -3.1200813    0.7277344   439061 
  574000   0.48607572   -3.1230904   -3.1230904   -2.3939784  0.031179672   -3.1230904   0.72911192   439061 
  575000   0.48486208   -3.1233339   -3.1233339   -2.3960425  0.033683996   -3.1233339   0.72729146   439061 
  576000   0.48426631   -3.1247358   -3.1247358    -2.398338  0.032261172   -3.1247358   0.72639782   439061 
  577000    0.4838778   -3.1254577   -3.1254577   -2.3996427  0.032007872   -3.1254577   0.72581504   439061 
  578000   0.48367337   -3.1265887   -3.1265887   -2.4010803  0.028695552   -3.1265887    0.7255084   439061 
  579000    0.4843023   -3.1285482   -3.1285482   -2.4020964  0.029321902   -3.1285482   0.72645179   439061 
  580000   0.48396594   -3.1293785   -3.1293785   -2.4034312   0.02942881   -3.1293785   0.72594726   439061 
  581000    0.4839539   -3.1300028   -3.1300028   -2.4040736  0.030413477   -3.1300028   0.72592919   439061 
  582000   0.48370446   -3.1311925   -3.1311925   -2.4056374  0.027778488   -3.1311925   0.72555503   439061 
  583000   0.48388201   -3.1336357   -3.1336357   -2.4078143  0.028528847   -3.1336357   0.72582137   439061 
  584000   0.48292285   -3.1327986   -3.1327986   -2.4084159  0.030971771   -3.1327986   0.72438263   439061 
  585000   0.48369638   -3.1359376   -3.1359376   -2.4103947  0.031124033   -3.1359376   0.72554291   439061 
  586000   0.48383197   -3.1372827   -3.1372827   -2.4115364  0.030575226   -3.1372827    0.7257463   439061 
  587000   0.48330763    -3.138081    -3.138081   -2.4131212  0.031796241    -3.138081   0.72495979   439061 
  588000   0.48290134   -3.1396769   -3.1396769   -2.4153265  0.030194058   -3.1396769   0.72435036   439061 
  589000   0.48257304   -3.1401171   -3.1401171   -2.4162591  0.029789469   -3.1401171   0.72385792   439061 
  590000   0.48222739    -3.141841    -3.141841   -2.4185015  0.027657254    -3.141841   0.72333943   439061 
  591000   0.48329256   -3.1444224   -3.1444224   -2.4194852  0.028625411   -3.1444224   0.72493719   439061 
  592000   0.48236534   -3.1442966   -3.1442966   -2.4207503  0.030336362   -3.1442966   0.72354636   439061 
  593000   0.48301042   -3.1469583   -3.1469583   -2.4224443  0.029163798   -3.1469583   0.72451398   439061 
  594000   0.48258227   -3.1471221   -3.1471221   -2.4232504  0.030059348   -3.1471221   0.72387176   439061 
  595000   0.48201921   -3.1475583   -3.1475583   -2.4245312  0.030973768   -3.1475583   0.72302717   439061 
  596000   0.48295379    -3.149815    -3.149815    -2.425386   0.02794699    -3.149815   0.72442904   439061 
  597000   0.48194349   -3.1500344   -3.1500344   -2.4271209  0.032450819   -3.1500344   0.72291359   439061 
  598000   0.48158884   -3.1503432   -3.1503432   -2.4279615  0.028221062   -3.1503432   0.72238161   439061 
  599000   0.48306491   -3.1533419   -3.1533419   -2.4287461  0.026155575   -3.1533419   0.72459572   439061 
  600000    0.4818984   -3.1533544   -3.1533544   -2.4305084    0.0293995   -3.1533544   0.72284595   439061 
  601000   0.48132538   -3.1541368   -3.1541368   -2.4321504  0.029603593   -3.1541368   0.72198643   439061 
  602000    0.4818062   -3.1558265   -3.1558265   -2.4331189  0.028999139   -3.1558265   0.72270765   439061 
  603000   0.48056061   -3.1565747   -3.1565747   -2.4357355  0.029883028   -3.1565747   0.72083928   439061 
  604000   0.48107954   -3.1579434   -3.1579434   -2.4363257  0.030318849   -3.1579434   0.72161767   439061 
  605000   0.48047626   -3.1582379   -3.1582379   -2.4375251  0.030496593   -3.1582379   0.72071275   439061 
  606000   0.48087777    -3.160167    -3.160167    -2.438852  0.028336899    -3.160167   0.72131501   439061 
  607000   0.48077487   -3.1614789   -3.1614789   -2.4403182  0.030174426   -3.1614789   0.72116066   439061 
  608000   0.48023673   -3.1618539   -3.1618539   -2.4415004  0.029432245   -3.1618539   0.72035346   439061 
  609000   0.48001736     -3.16348     -3.16348   -2.4434556   0.02620322     -3.16348   0.72002439   439061 
  610000   0.48005452   -3.1652041   -3.1652041   -2.4451239  0.027588222   -3.1652041   0.72008014   439061 
  611000   0.48034107   -3.1665688   -3.1665688   -2.4460588  0.028013023   -3.1665688   0.72050996   439061 
  612000   0.47896158   -3.1670422   -3.1670422   -2.4486014  0.030700427   -3.1670422   0.71844073   439061 
  613000   0.47904994   -3.1676226   -3.1676226   -2.4490493   0.03276584   -3.1676226   0.71857327   439061 
  614000   0.47943052   -3.1700303   -3.1700303   -2.4508862  0.028201649   -3.1700303   0.71914414   439061 
  615000   0.47962845   -3.1712498   -3.1712498   -2.4518088  0.025614726   -3.1712498   0.71944104   439061 
  616000   0.47907334   -3.1720433   -3.1720433   -2.4534349  0.026517176   -3.1720433   0.71860837   439061 
  617000   0.47915938   -3.1731573   -3.1731573   -2.4544198  0.028996515   -3.1731573   0.71873743   439061 
  618000   0.47888834   -3.1739221   -3.1739221   -2.4555912  0.025218373   -3.1739221   0.71833087   439061 
  619000   0.47814461   -3.1736983   -3.1736983    -2.456483  0.025116976   -3.1736983   0.71721529   439061 
  620000   0.47864396   -3.1764275   -3.1764275   -2.4584632  0.026315153   -3.1764275    0.7179643   439061 
  621000    0.4778231   -3.1756576   -3.1756576   -2.4589246  0.026714405   -3.1756576   0.71673302   439061 
  622000   0.47869135   -3.1784739   -3.1784739   -2.4604385  0.028964824   -3.1784739   0.71803539   439061 
  623000   0.47893071   -3.1797233   -3.1797233   -2.4613288  0.029338646   -3.1797233   0.71839443   439061 
  624000   0.47857643   -3.1805333   -3.1805333   -2.4626703  0.030058551   -3.1805333   0.71786301   439061 
  625000   0.47891478   -3.1818206   -3.1818206   -2.4634501  0.028679484   -3.1818206   0.71837054   439061 
  626000   0.47857217   -3.1830954   -3.1830954   -2.4652387  0.030301243   -3.1830954   0.71785662   439061 
  627000   0.47876787   -3.1851902   -3.1851902     -2.46704  0.027553679   -3.1851902   0.71815017   439061 
  628000   0.47728433   -3.1840072   -3.1840072   -2.4680823  0.028305288   -3.1840072   0.71592486   439061 
  629000    0.4773008   -3.1849028   -3.1849028   -2.4689532  0.027795478   -3.1849028   0.71594957   439061 
  630000   0.47783388   -3.1871701   -3.1871701   -2.4704209  0.025513225   -3.1871701   0.71674919   439061 
  631000   0.47708375   -3.1878086   -3.1878086   -2.4721846  0.027426014   -3.1878086   0.71562399   439061 
  632000   0.47736223   -3.1895108   -3.1895108   -2.4734691  0.028433996   -3.1895108   0.71604171   439061 
  633000    0.4776341   -3.1915885   -3.1915885    -2.475139  0.028101439   -3.1915885   0.71644952   439061 
  634000   0.47719225   -3.1921075   -3.1921075   -2.4763207  0.033510041   -3.1921075   0.71578675   439061 
  635000   0.47663824   -3.1943065   -3.1943065   -2.4793508  0.027673128   -3.1943065   0.71495574   439061 
  636000   0.47722105   -3.1964949   -3.1964949   -2.4806649  0.027306349   -3.1964949   0.71582994   439061 
  637000   0.47633545   -3.1968675   -3.1968675    -2.482366  0.028647257   -3.1968675   0.71450155   439061 
  638000   0.47628518   -3.1980088   -3.1980088   -2.4835827  0.028449305   -3.1980088   0.71442614   439061 
  639000   0.47667732    -3.200084    -3.200084   -2.4850696  0.027348509    -3.200084   0.71501435   439061 
  640000    0.4765639   -3.2013219   -3.2013219   -2.4864777  0.025520117   -3.2013219   0.71484422   439061 
  641000   0.47590764   -3.2010412   -3.2010412   -2.4871814  0.026189013   -3.2010412   0.71385983   439061 
  642000   0.47654268   -3.2030642   -3.2030642   -2.4882518  0.023722219   -3.2030642   0.71481239   439061 
  643000   0.47566052   -3.2035272   -3.2035272    -2.490038  0.028123747   -3.2035272   0.71348915   439061 
  644000   0.47609364   -3.2053583   -3.2053583   -2.4912195  0.023730764   -3.2053583   0.71413884   439061 
  645000   0.47595724   -3.2069528   -3.2069528   -2.4930186  0.022940859   -3.2069528   0.71393423   439061 
  646000   0.47646916   -3.2088293   -3.2088293   -2.4941272  0.024776769   -3.2088293   0.71470211   439061 
  647000   0.47469836   -3.2082194   -3.2082194   -2.4961734   0.03046361   -3.2082194   0.71204593   439061 
  648000   0.47615892   -3.2115544   -3.2115544   -2.4973176  0.023787431   -3.2115544   0.71423676   439061 
  649000   0.47616319   -3.2123932   -3.2123932     -2.49815  0.024620808   -3.2123932   0.71424316   439061 
  650000   0.47650274   -3.2140941   -3.2140941   -2.4993416  0.026219477   -3.2140941   0.71475249   439061 
  651000   0.47499022   -3.2146009   -3.2146009   -2.5021172  0.024319338   -3.2146009   0.71248371   439061 
  652000   0.47459182   -3.2151519   -3.2151519   -2.5032658  0.026140852   -3.2151519   0.71188611   439061 
  653000   0.47421382    -3.216143    -3.216143   -2.5048239  0.025485253    -3.216143   0.71131912   439061 
  654000   0.47477185   -3.2178018   -3.2178018   -2.5056456  0.024981579   -3.2178018   0.71215615   439061 
  655000   0.47559079    -3.220949    -3.220949   -2.5075644  0.022383085    -3.220949   0.71338457   439061 
  656000   0.47448371   -3.2209482   -3.2209482   -2.5092242  0.024011956   -3.2209482   0.71172395   439061 
  657000   0.47477467   -3.2225422   -3.2225422   -2.5103818  0.024661309   -3.2225422   0.71216038   439061 
  658000   0.47454144   -3.2240938   -3.2240938   -2.5122833  0.022902883   -3.2240938   0.71181053   439061 
  659000   0.47427046   -3.2247167   -3.2247167   -2.5133127  0.025481976   -3.2247167   0.71140407   439061 
  660000   0.47393009   -3.2265317   -3.2265317   -2.5156382  0.022693674   -3.2265317   0.71089352   439061 
  661000    0.4740562    -3.227138    -3.227138   -2.5160553  0.021021082    -3.227138   0.71108268   439061 
  662000   0.47381595   -3.2275793   -3.2275793    -2.516857  0.022281169   -3.2275793   0.71072231   439061 
  663000   0.47469106   -3.2305765   -3.2305765   -2.5185415  0.019404477   -3.2305765   0.71203496   439061 
  664000   0.47401161   -3.2310042   -3.2310042   -2.5199884  0.020416799   -3.2310042    0.7110158   439061 
  665000   0.47303794   -3.2310107   -3.2310107   -2.5214554  0.022002888   -3.2310107   0.70955529   439061 
  666000   0.47310885   -3.2336181   -3.2336181   -2.5239564  0.021792991   -3.2336181   0.70966166   439061 
  667000   0.47373164   -3.2357476   -3.2357476   -2.5251518  0.020498335   -3.2357476   0.71059584   439061 
  668000   0.47358779    -3.236341    -3.236341   -2.5259609  0.021811313    -3.236341   0.71038007   439061 
  669000   0.47377413   -3.2386017   -3.2386017   -2.5279421  0.020229293   -3.2386017   0.71065957   439061 
  670000    0.4734866   -3.2397318   -3.2397318   -2.5295035  0.017679421   -3.2397318   0.71022828   439061 
  671000   0.47297963   -3.2411692   -3.2411692   -2.5317014  0.013055667   -3.2411692   0.70946783   439061 
  672000    0.4735504   -3.2429677   -3.2429677   -2.5326437  0.012301622   -3.2429677   0.71032398   439061 
  673000   0.47250792   -3.2420438   -3.2420438   -2.5332835  0.016078055   -3.2420438   0.70876026   439061 
  674000   0.47299792   -3.2446905   -3.2446905   -2.5351952  0.011506882   -3.2446905   0.70949527   439061 
  675000   0.47287566   -3.2458413   -3.2458413   -2.5365294  0.013409205   -3.2458413   0.70931188   439061 
  676000   0.47271115   -3.2466511   -3.2466511    -2.537586  0.013856952   -3.2466511   0.70906511   439061 
  677000   0.47323011   -3.2488276   -3.2488276    -2.538984  0.016255308   -3.2488276   0.70984354   439061 
  678000   0.47342308    -3.249642    -3.249642   -2.5395089  0.016709382    -3.249642     0.710133   439061 
  679000   0.47334096   -3.2520031   -3.2520031   -2.5419933  0.013045336   -3.2520031   0.71000983   439061 
  680000   0.47339843   -3.2538922   -3.2538922   -2.5437961  0.011700546   -3.2538922   0.71009603   439061 
  681000   0.47269254   -3.2552539   -3.2552539   -2.5462167  0.014122651   -3.2552539    0.7090372   439061 
  682000    0.4722388   -3.2564783   -3.2564783   -2.5481217  0.014579008   -3.2564783   0.70835659   439061 
  683000   0.47213384   -3.2578932   -3.2578932   -2.5496941  0.013871523   -3.2578932   0.70819914   439061 
  684000   0.47219773   -3.2588673   -3.2588673   -2.5505723  0.011150623   -3.2588673   0.70829498   439061 
  685000   0.47192932   -3.2599264   -3.2599264    -2.552034 0.0093210039   -3.2599264   0.70789236   439061 
  686000   0.47204542   -3.2612695   -3.2612695    -2.553203  0.011224362   -3.2612695   0.70806651   439061 
  687000   0.47149571   -3.2618208   -3.2618208   -2.5545788 0.0054053194   -3.2618208   0.70724195   439061 
  688000   0.47174728   -3.2635815   -3.2635815   -2.5559622 0.0081450531   -3.2635815   0.70761931   439061 
  689000   0.47212559   -3.2655189   -3.2655189   -2.5573321 0.0063919705   -3.2655189   0.70818677   439061 
  690000   0.47108425   -3.2652481   -3.2652481   -2.5586233 0.0071670863   -3.2652481   0.70662477   439061 
  691000   0.47238615   -3.2686043   -3.2686043   -2.5600267 0.0036890173   -3.2686043   0.70857761   439061 
  692000   0.47119408   -3.2681557   -3.2681557   -2.5613662 0.0084290326   -3.2681557   0.70678951   439061 
  693000   0.47172018   -3.2700513   -3.2700513   -2.5624726 0.0099823143   -3.2700513   0.70757866   439061 
  694000   0.47187394   -3.2719166   -3.2719166   -2.5641073 0.0075745028   -3.2719166    0.7078093   439061 
  695000   0.47098752   -3.2724976   -3.2724976   -2.5660179 0.0082845095   -3.2724976   0.70647966   439061 
  696000   0.47115815     -3.27408     -3.27408   -2.5673444 0.0058566505     -3.27408   0.70673562   439061 
  697000   0.47137556   -3.2752487   -3.2752487    -2.568187 0.0068376667   -3.2752487   0.70706172   439061 
  698000   0.47103792   -3.2773529   -3.2773529   -2.5707976 0.0051645231   -3.2773529   0.70655526   439061 
  699000   0.47125849   -3.2794332   -3.2794332   -2.5725471 0.0049305736   -3.2794332   0.70688612   439061 
  700000   0.47099614   -3.2806908   -3.2806908   -2.5741982 0.0029974281   -3.2806908    0.7064926   439061 
  701000   0.47148048   -3.2822795   -3.2822795   -2.5750604 0.0075215957   -3.2822795    0.7072191   439061 
  702000   0.47053642    -3.282701    -3.282701    -2.576898 0.0060275593    -3.282701   0.70580302   439061 
  703000   0.47086426   -3.2843603   -3.2843603   -2.5780655 0.0037785494   -3.2843603   0.70629479   439061 
  704000    0.4698366   -3.2846492   -3.2846492   -2.5798959 0.0052019014   -3.2846492    0.7047533   439061 
  705000   0.47076079   -3.2881096   -3.2881096     -2.58197 0.0022881237   -3.2881096   0.70613957   439061 
  706000   0.47011779    -3.287908    -3.287908   -2.5827329 0.00014681141    -3.287908   0.70517509   439061 
  707000   0.47027217   -3.2893559   -3.2893559   -2.5839493 0.0021568894   -3.2893559   0.70540665   439061 
  708000    0.4698938   -3.2900156   -3.2900156   -2.5851765 0.0063349605   -3.2900156   0.70483909   439061 
  709000   0.47011703   -3.2912852   -3.2912852   -2.5861113 0.0025547726   -3.2912852   0.70517395   439061 
  710000   0.47030339   -3.2936041   -3.2936041   -2.5881507 0.0040060344   -3.2936041   0.70545348   439061 
  711000   0.46960354   -3.2944746   -3.2944746   -2.5900708 0.0070969786   -3.2944746   0.70440371   439061 
  712000    0.4693009   -3.2960094   -3.2960094   -2.5920596 0.0042109066   -3.2960094   0.70394975   439061 
  713000   0.46971951   -3.2975974   -3.2975974   -2.5930197 0.0040295738   -3.2975974   0.70457765   439061 
  714000   0.46920622   -3.2977847   -3.2977847    -2.593977 0.0044682192   -3.2977847   0.70380773   439061 
  715000   0.47001499   -3.2998267   -3.2998267   -2.5948058 0.0022783392   -3.2998267   0.70502088   439061 
  716000   0.46949527    -3.300281    -3.300281   -2.5960397 0.0035594684    -3.300281    0.7042413   439061 
  717000   0.46926118   -3.3006042   -3.3006042    -2.596714 0.0034136013   -3.3006042   0.70389017   439061 
  718000   0.47018853   -3.3029439   -3.3029439   -2.5976628 0.00064876331   -3.3029439   0.70528119   439061 
  719000   0.46923684   -3.3029979   -3.3029979   -2.5991443 0.0024579546   -3.3029979   0.70385365   439061 
  720000    0.4676757    -3.302567    -3.302567   -2.6010551 0.0039332813    -3.302567   0.70151195   439061 
  721000   0.46851872   -3.3053881   -3.3053881   -2.6026116 0.0024513639   -3.3053881   0.70277648   439061 
  722000    0.4688436    -3.307855    -3.307855   -2.6045912 -0.00050665712    -3.307855    0.7032638   439061 
  723000   0.46860875   -3.3091152   -3.3091152   -2.6062036  0.001997815   -3.3091152   0.70291152   439061 
  724000   0.46779119   -3.3103643   -3.3103643   -2.6086791 0.0026993538   -3.3103643   0.70168519   439061 
  725000   0.46852183   -3.3116009   -3.3116009   -2.6088197 0.0038842119   -3.3116009   0.70278114   439061 
  726000    0.4688049   -3.3127929   -3.3127929   -2.6095872 0.0050328769   -3.3127929   0.70320574   439061 
  727000   0.46863587   -3.3134854   -3.3134854   -2.6105332 0.0081832397   -3.3134854   0.70295221   439061 
  728000   0.46859033   -3.3151089   -3.3151089    -2.612225 0.0038984815   -3.3151089    0.7028839   439061 
  729000    0.4670191   -3.3149328   -3.3149328   -2.6144057 0.0021494113   -3.3149328   0.70052706   439061 
  730000   0.46767123   -3.3173346   -3.3173346   -2.6158294 -0.0038559506   -3.3173346   0.70150525   439061 
  731000   0.46627134   -3.3164482   -3.3164482   -2.6170428 -0.0014376174   -3.3164482   0.69940541   439061 
  732000   0.46761087   -3.3202774   -3.3202774   -2.6188627 -0.005001974   -3.3202774   0.70141471   439061 
  733000   0.46724824   -3.3212179   -3.3212179   -2.6203471 -0.001248647   -3.3212179   0.70087076   439061 
  734000   0.46777935   -3.3225493   -3.3225493   -2.6208818 0.0020294082   -3.3225493   0.70166743   439061 
  735000   0.46708834   -3.3231222   -3.3231222   -2.6224913 0.0033318093   -3.3231222   0.70063092   439061 
  736000   0.46730226   -3.3245095   -3.3245095   -2.6235577 0.0064962103   -3.3245095   0.70095179   439061 
  737000   0.46728738    -3.326455    -3.326455   -2.6255255 0.0017033309    -3.326455   0.70092948   439061 
  738000   0.46669529   -3.3268247   -3.3268247   -2.6267834 0.0048230027   -3.3268247   0.70004133   439061 
  739000   0.46622589   -3.3271256   -3.3271256   -2.6277883 0.0053906836   -3.3271256   0.69933725   439061 
  740000   0.46554383   -3.3274194   -3.3274194   -2.6291053 0.0023132112   -3.3274194   0.69831415   439061 
  741000   0.46532923   -3.3280352   -3.3280352    -2.630043 -0.0033171044   -3.3280352   0.69799225   439061 
  742000    0.4654883   -3.3292298   -3.3292298   -2.6309989 -0.0025563481   -3.3292298   0.69823086   439061 
  743000   0.46483018   -3.3308173   -3.3308173   -2.6335736 -4.8052658e-05   -3.3308173   0.69724368   439061 
  744000   0.46444778   -3.3317516   -3.3317516   -2.6350815 0.0017627091   -3.3317516   0.69667008   439061 
  745000   0.46500719   -3.3337249   -3.3337249   -2.6362157 0.00081632583   -3.3337249    0.6975092   439061 
  746000   0.46638148   -3.3369482   -3.3369482   -2.6373776 0.0022669191   -3.3369482   0.69957063   439061 
  747000   0.46583484   -3.3379902   -3.3379902   -2.6392395 0.0014155732   -3.3379902   0.69875066   439061 
  748000   0.46485666   -3.3382221   -3.3382221   -2.6409387 0.0024073487   -3.3382221    0.6972834   439061 
  749000   0.46539359    -3.339841    -3.339841   -2.6417522 0.0010400478    -3.339841    0.6980888   439061 
  750000   0.46581774   -3.3410466   -3.3410466   -2.6423216 0.0021694049   -3.3410466   0.69872502   439061 
  751000   0.46520174    -3.341888    -3.341888   -2.6440869 -0.0033900684    -3.341888   0.69780102   439061 
  752000   0.46457673   -3.3413265   -3.3413265    -2.644463 0.00015004133   -3.3413265   0.69686351   439061 
  753000   0.46443635   -3.3425129   -3.3425129     -2.64586 -0.0032837342   -3.3425129   0.69665293   439061 
  754000   0.46375171   -3.3430633   -3.3430633   -2.6474373 -0.0055723149   -3.3430633   0.69562598   439061 
  755000   0.46307921   -3.3433688   -3.3433688   -2.6487516 -9.5649141e-05   -3.3433688   0.69461723   439061 
  756000   0.46426146   -3.3458647   -3.3458647    -2.649474 -0.0021796708   -3.3458647   0.69639061   439061 
  757000   0.46429019   -3.3473501   -3.3473501   -2.6509164 -0.0011490806   -3.3473501    0.6964337   439061 
  758000   0.46480266   -3.3495576   -3.3495576   -2.6523552 0.00026491802   -3.3495576    0.6972024   439061 
  759000   0.46425461   -3.3504498   -3.3504498   -2.6540695 0.00056639508   -3.3504498   0.69638033   439061 
  760000   0.46451128   -3.3514868   -3.3514868   -2.6547215 0.0027300124   -3.3514868   0.69676534   439061 
  761000   0.46480251   -3.3537878   -3.3537878   -2.6565856 -0.00012577395   -3.3537878   0.69720218   439061 
  762000   0.46371453   -3.3540639   -3.3540639   -2.6584937 0.0013484232   -3.3540639   0.69557022   439061 
  763000   0.46296515   -3.3543396   -3.3543396   -2.6598934 -0.0017195503   -3.3543396   0.69444614   439061 
  764000   0.46331289   -3.3566178   -3.3566178   -2.6616501 -0.0048798928   -3.3566178   0.69496775   439061 
  765000   0.46351466   -3.3577795   -3.3577795   -2.6625091 -0.0052057764   -3.3577795    0.6952704   439061 
  766000   0.46252439   -3.3576785   -3.3576785   -2.6638935 -0.0024331299   -3.3576785     0.693785   439061 
  767000   0.46321194   -3.3595893   -3.3595893    -2.664773 -0.0028960281   -3.3595893   0.69481633   439061 
  768000   0.46311814   -3.3601126   -3.3601126    -2.665437 -0.0014619023   -3.3601126   0.69467563   439061 
  769000   0.46270843   -3.3610626   -3.3610626   -2.6670015 0.0011788281   -3.3610626   0.69406107   439061 
  770000   0.46296932   -3.3628363   -3.3628363   -2.6683839 -0.00079913694   -3.3628363    0.6944524   439061 
  771000   0.46250525   -3.3629584   -3.3629584   -2.6692021 0.0027070433   -3.3629584   0.69375629   439061 
  772000   0.46222159   -3.3642346   -3.3642346   -2.6709038 -0.00084534235   -3.3642346   0.69333081   439061 
  773000   0.46236296   -3.3656457   -3.3656457   -2.6721029 -0.0019123298   -3.3656457   0.69354286   439061 
  774000   0.46215503   -3.3665114   -3.3665114   -2.6732805 -0.0024871147   -3.3665114   0.69323096   439061 
  775000   0.46249313   -3.3682013   -3.3682013   -2.6744631 -0.0011410812   -3.3682013   0.69373811   439061 
  776000   0.46253799   -3.3695961   -3.3695961   -2.6757907 -0.0034022582   -3.3695961   0.69380541   439061 
  777000   0.46205331   -3.3695399   -3.3695399   -2.6764615 -0.00056738535   -3.3695399   0.69307839   439061 
  778000   0.46235079   -3.3711002   -3.3711002   -2.6775756 -0.001692203   -3.3711002    0.6935246   439061 
  779000   0.46363444   -3.3741331   -3.3741331    -2.678683 -0.0011189859   -3.3741331   0.69545007   439061 
  780000    0.4627275   -3.3742889   -3.3742889   -2.6801992 -0.0017131786   -3.3742889   0.69408967   439061 
  781000   0.46193412   -3.3744043   -3.3744043   -2.6815047 0.0024261271   -3.3744043    0.6928996   439061 
  782000   0.46228688   -3.3757161   -3.3757161   -2.6822874 -0.00053396437   -3.3757161   0.69342874   439061 
  783000   0.46245829   -3.3773167   -3.3773167   -2.6836308 -0.00032154888   -3.3773167   0.69368586   439061 
  784000   0.46304527   -3.3790349   -3.3790349   -2.6844686 -4.0782475e-05   -3.3790349   0.69456632   439061 
  785000   0.46179292    -3.378371    -3.378371   -2.6856832 0.0011842637    -3.378371    0.6926878   439061 
  786000   0.46099746   -3.3786593   -3.3786593   -2.6871647 0.00087483876   -3.3786593   0.69149462   439061 
  787000   0.46116223   -3.3803073   -3.3803073   -2.6885655 0.0020482515   -3.3803073   0.69174177   439061 
  788000   0.46166525   -3.3827115   -3.3827115   -2.6902152 -0.0047676896   -3.3827115    0.6924963   439061 
  789000   0.46072136   -3.3829033   -3.3829033   -2.6918229 -0.0024084762   -3.3829033   0.69108046   439061 
  790000   0.46141049   -3.3848069   -3.3848069   -2.6926927 -0.0014793514   -3.3848069   0.69211415   439061 
  791000   0.46049742   -3.3840527   -3.3840527   -2.6933081 0.0023464823   -3.3840527   0.69074456   439061 
  792000    0.4611842   -3.3859372   -3.3859372   -2.6941625 0.0035895893   -3.3859372   0.69177472   439061 
  793000   0.46166269   -3.3880539   -3.3880539   -2.6955614 -0.0014741829   -3.3880539   0.69249246   439061 
  794000   0.46095608   -3.3884255   -3.3884255    -2.696993 -0.0021831326   -3.3884255   0.69143255   439061 
  795000   0.46034382   -3.3895945   -3.3895945   -2.6990804 -0.0031496989   -3.3895945   0.69051415   439061 
  796000   0.46055376   -3.3919601   -3.3919601   -2.7011311 -0.0056765324   -3.3919601   0.69082906   439061 
  797000   0.45982955   -3.3917561   -3.3917561   -2.7020133 -0.003776156   -3.3917561   0.68974275   439061 
  798000   0.46047322   -3.3937812   -3.3937812   -2.7030729 -0.0029718292   -3.3937812   0.69070825   439061 
  799000   0.46024873   -3.3945754   -3.3945754   -2.7042039 -0.0021792269   -3.3945754   0.69037153   439061 
  800000   0.45962224   -3.3951018   -3.3951018     -2.70567 -0.00079732314   -3.3951018   0.68943179   439061 
  801000   0.46036551   -3.3980141   -3.3980141   -2.7074674 -0.00089123285   -3.3980141   0.69054669   439061 
  802000   0.45984402   -3.3984974   -3.3984974   -2.7087329 0.00020394534   -3.3984974   0.68976446   439061 
  803000   0.45963295   -3.3994224   -3.3994224   -2.7099745 -0.00030476918   -3.3994224   0.68944785   439061 
  804000   0.45905679   -3.3995753   -3.3995753   -2.7109917 -0.0010637454   -3.3995753   0.68858361   439061 
  805000    0.4589843   -3.4009796   -3.4009796   -2.7125048 -0.00039370473   -3.4009796   0.68847488   439061 
  806000   0.45955714    -3.403031    -3.403031   -2.7136969 -0.0070480173    -3.403031   0.68933414   439061 
  807000    0.4583312   -3.4029175   -3.4029175   -2.7154223 -0.0012707714   -3.4029175   0.68749524   439061 
  808000   0.45880122    -3.404684    -3.404684   -2.7164838 -0.0068162583    -3.404684   0.68820026   439061 
  809000   0.45785114   -3.4039305   -3.4039305   -2.7171553 -0.0041049277   -3.4039305   0.68677514   439061 
  810000   0.45860468   -3.4060817   -3.4060817   -2.7181763 -0.0036735763   -3.4060817   0.68790545   439061 
  811000   0.45837708     -3.40714     -3.40714    -2.719576 0.00042733355     -3.40714   0.68756405   439061 
  812000   0.45821592   -3.4079581   -3.4079581   -2.7206358 -0.00048958127   -3.4079581   0.68732232   439061 
  813000   0.45853015   -3.4097852   -3.4097852   -2.7219916 0.00067164284   -3.4097852   0.68779366   439061 
  814000   0.45876848   -3.4110545   -3.4110545   -2.7229034 -0.0012921595   -3.4110545   0.68815115   439061 
  815000   0.45826439   -3.4116763   -3.4116763   -2.7242813 -0.0017588487   -3.4116763   0.68739502   439061 
  816000   0.45772581   -3.4127162   -3.4127162   -2.7261291 -0.003483218   -3.4127162   0.68658714   439061 
  817000   0.45749289   -3.4134871   -3.4134871   -2.7272493 -0.0049383498   -3.4134871   0.68623777   439061 
  818000   0.45736864   -3.4146674   -3.4146674    -2.728616 -0.0057451898   -3.4146674   0.68605139   439061 
  819000   0.45747424   -3.4159802   -3.4159802   -2.7297704 -0.0055333904   -3.4159802    0.6862098   439061 
  820000   0.45750625   -3.4165785   -3.4165785   -2.7303207 -0.0048143068   -3.4165785   0.68625781   439061 
  821000   0.45780697   -3.4186337   -3.4186337   -2.7319248 -0.0017958136   -3.4186337   0.68670889   439061 
  822000    0.4576878   -3.4194016   -3.4194016   -2.7328714 0.00080416812   -3.4194016   0.68653013   439061 
  823000   0.45824915   -3.4210955   -3.4210955   -2.7337233 0.0042030892   -3.4210955   0.68737217   439061 
  824000   0.45823194    -3.422236    -3.422236   -2.7348897 0.00093485576    -3.422236   0.68734635   439061 
  825000   0.45730371   -3.4208423   -3.4208423   -2.7348883 -6.9254801e-05   -3.4208423     0.685954   439061 
  826000   0.45757965    -3.423393    -3.423393   -2.7370251 -0.0071228121    -3.423393   0.68636791   439061 
  827000   0.45592454   -3.4225556   -3.4225556   -2.7386703 -0.0073154982   -3.4225556   0.68388526   439061 
  828000   0.45603389   -3.4245258   -3.4245258   -2.7404765 -0.009787744   -3.4245258   0.68404928   439061 
  829000   0.45643904   -3.4259642   -3.4259642   -2.7413072 -0.0094606384   -3.4259642     0.684657   439061 
  830000   0.45639216   -3.4269902   -3.4269902   -2.7424035 -0.0067782815   -3.4269902   0.68458668   439061 
  831000   0.45659259   -3.4284735   -3.4284735   -2.7435862 -0.0030708043   -3.4284735   0.68488732   439061 
  832000   0.45685492   -3.4296907   -3.4296907   -2.7444099 -0.0010080428   -3.4296907   0.68528082   439061 
  833000   0.45648382   -3.4306932   -3.4306932    -2.745969 0.00065241653   -3.4306932   0.68472417   439061 
  834000   0.45716973   -3.4320967   -3.4320967   -2.7463436 -0.0001989276   -3.4320967   0.68575304   439061 
  835000   0.45669181   -3.4323275   -3.4323275   -2.7472913 -0.00049625906   -3.4323275   0.68503615   439061 
  836000   0.45717764   -3.4337822   -3.4337822   -2.7480173 -0.0038539742   -3.4337822   0.68576491   439061 
  837000   0.45553688   -3.4330547   -3.4330547    -2.749751 -0.0071978781   -3.4330547   0.68330376   439061 
  838000     0.455888   -3.4342447   -3.4342447   -2.7504143 -0.0075112197   -3.4342447   0.68383044   439061 
  839000   0.45532516   -3.4348381   -3.4348381   -2.7518519 -0.0088637709   -3.4348381   0.68298619   439061 
  840000   0.45589531   -3.4364653   -3.4364653   -2.7526239 -0.010603374   -3.4364653   0.68384141   439061 
  841000   0.45630821   -3.4384468   -3.4384468    -2.753986 -0.0087367079   -3.4384468   0.68446076   439061 
  842000   0.45556585   -3.4395417   -3.4395417   -2.7561945 -0.0076679477   -3.4395417   0.68334721   439061 
  843000   0.45587972   -3.4400898   -3.4400898   -2.7562717 -0.00047222508   -3.4400898   0.68381803   439061 
  844000   0.45646669   -3.4422762   -3.4422762   -2.7575777 -0.00092921592   -3.4422762   0.68469847   439061 
  845000   0.45687106   -3.4436342   -3.4436342   -2.7583292 2.1807759e-05   -3.4436342   0.68530503   439061 
  846000   0.45529761   -3.4423923   -3.4423923   -2.7594474  0.002133276   -3.4423923   0.68294487   439061 
  847000   0.45529877   -3.4441172   -3.4441172   -2.7611706 -0.0043990548   -3.4441172    0.6829466   439061 
  848000   0.45548501   -3.4454975   -3.4454975   -2.7622715 -0.0065904675   -3.4454975   0.68322596   439061 
  849000   0.45472439   -3.4456175   -3.4456175   -2.7635325 -0.0081855085   -3.4456175   0.68208503   439061 
  850000   0.45492204   -3.4470064   -3.4470064   -2.7646249 -0.0057406933   -3.4470064    0.6823815   439061 
  851000   0.45501122   -3.4479142   -3.4479142   -2.7653989 -0.006776372   -3.4479142   0.68251528   439061 
  852000   0.45386258   -3.4472086   -3.4472086   -2.7664163 -0.0014438987   -3.4472086   0.68079232   439061 
  853000   0.45518554   -3.4508121   -3.4508121   -2.7680354 -0.0035979225   -3.4508121   0.68277676   439061 
  854000   0.45502462    -3.451607    -3.451607   -2.7690716 -0.0024900191    -3.451607   0.68253538   439061 
  855000    0.4545089   -3.4521974   -3.4521974   -2.7704356 -0.001293321   -3.4521974    0.6817618   439061 
  856000   0.45484349   -3.4534591   -3.4534591   -2.7711954 -0.00072713991   -3.4534591   0.68226368   439061 
  857000   0.45520589   -3.4553387   -3.4553387   -2.7725314 -0.0018838213   -3.4553387   0.68280728   439061 
  858000   0.45454237   -3.4560256   -3.4560256   -2.7742136 -0.0026258848   -3.4560256     0.681812   439061 
  859000   0.45540915   -3.4586463   -3.4586463   -2.7755342 -0.0059661496   -3.4586463   0.68311217   439061 
  860000   0.45419395   -3.4578208   -3.4578208   -2.7765314 -0.0050219802   -3.4578208   0.68128937   439061 
  861000   0.45442259   -3.4590244   -3.4590244   -2.7773921 -0.0092596323   -3.4590244   0.68163233   439061 
  862000    0.4543149   -3.4598891   -3.4598891   -2.7784183 -0.0089426269   -3.4598891    0.6814708   439061 
  863000   0.45342988   -3.4608589   -3.4608589   -2.7807157 -0.0099473251   -3.4608589   0.68014328   439061 
  864000   0.45346986   -3.4612924   -3.4612924   -2.7810892 -0.0031886248   -3.4612924   0.68020324   439061 
  865000   0.45340882   -3.4624503   -3.4624503   -2.7823387 -0.0051631537   -3.4624503   0.68011168   439061 
  866000   0.45401497   -3.4646485   -3.4646485   -2.7836276 -0.0072439741   -3.4646485   0.68102091   439061 
  867000   0.45395489   -3.4659401   -3.4659401   -2.7850093 -0.0036120391   -3.4659401   0.68093078   439061 
  868000   0.45366094   -3.4668181   -3.4668181   -2.7863283 -0.0038027896   -3.4668181   0.68048986   439061 
  869000   0.45378534   -3.4673674   -3.4673674   -2.7866909 -0.00096097333   -3.4673674   0.68067646   439061 
  870000   0.45428173   -3.4687039   -3.4687039   -2.7872829 -0.0030447181   -3.4687039   0.68142104   439061 
  871000   0.45395671    -3.469609    -3.469609   -2.7886755 -0.0055854151    -3.469609   0.68093352   439061 
  872000   0.45360404   -3.4701857   -3.4701857   -2.7897812 -0.0056353276   -3.4701857   0.68040452   439061 
  873000   0.45339622   -3.4713267   -3.4713267   -2.7912339 -0.0077249044   -3.4713267   0.68009278   439061 
  874000   0.45381434   -3.4732142   -3.4732142   -2.7924943 -0.0097694084   -3.4732142   0.68071996   439061 
  875000   0.45299964   -3.4729379   -3.4729379     -2.79344 -0.007625243   -3.4729379   0.67949791   439061 
  876000   0.45223683   -3.4735163   -3.4735163   -2.7951626 -0.0030998232   -3.4735163    0.6783537   439061 
  877000   0.45321087   -3.4756061   -3.4756061   -2.7957913 -0.0051710052   -3.4756061   0.67981476   439061 
  878000   0.45318566   -3.4762525   -3.4762525   -2.7964756  -0.00472766   -3.4762525   0.67977694   439061 
  879000   0.45351252   -3.4780305   -3.4780305   -2.7977632 -0.0048107437   -3.4780305   0.68026724   439061 
  880000   0.45261192   -3.4781189   -3.4781189   -2.7992026 -0.0048833733   -3.4781189   0.67891633   439061 
  881000   0.45249166   -3.4796185   -3.4796185   -2.8008825 -0.0072411396   -3.4796185   0.67873594   439061 
  882000   0.45212598   -3.4807246   -3.4807246   -2.8025372 -0.0081040693   -3.4807246   0.67818743   439061 
  883000   0.45214223   -3.4809086   -3.4809086   -2.8026968 -0.006470892   -3.4809086    0.6782118   439061 
  884000   0.45213604   -3.4821367   -3.4821367   -2.8039341 -0.0065057477   -3.4821367   0.67820251   439061 
  885000   0.45140928   -3.4822825   -3.4822825   -2.8051701 -0.0055208203   -3.4822825   0.67711238   439061 
  886000   0.45180048   -3.4842418   -3.4842418   -2.8065426 -0.0078851063   -3.4842418   0.67769917   439061 
  887000   0.45248055   -3.4858419   -3.4858419   -2.8071226 -0.006418117   -3.4858419   0.67871927   439061 
  888000   0.45201577   -3.4859869   -3.4859869   -2.8079648 -0.0062909712   -3.4859869   0.67802212   439061 
  889000   0.45133404   -3.4864445   -3.4864445   -2.8094449 -0.0037989311   -3.4864445   0.67699952   439061 
  890000   0.45165705   -3.4873169   -3.4873169   -2.8098328 -0.004853281   -3.4873169   0.67748403   439061 
  891000   0.45153772   -3.4879701   -3.4879701    -2.810665 -0.0030334735   -3.4879701   0.67730503   439061 
  892000   0.45150077   -3.4893051   -3.4893051   -2.8120555 -0.0061735538   -3.4893051   0.67724961   439061 
  893000   0.45143331   -3.4901044   -3.4901044    -2.812956 -0.0082710253   -3.4901044   0.67714843   439061 
  894000   0.45092659   -3.4911008   -3.4911008   -2.8147124 -0.0055750068   -3.4911008   0.67638834   439061 
  895000   0.45114166   -3.4918977   -3.4918977   -2.8151867 -0.0084406355   -3.4918977   0.67671095   439061 
  896000    0.4507417   -3.4921858   -3.4921858   -2.8160748 -0.007161931   -3.4921858   0.67611102   439061 
  897000   0.45120687   -3.4944243   -3.4944243   -2.8176155 -0.0065808743   -3.4944243   0.67680877   439061 
  898000   0.45136436    -3.495405    -3.495405     -2.81836 -0.0075264726    -3.495405     0.677045   439061 
  899000   0.45055314   -3.4954104   -3.4954104   -2.8195822 -0.0070911983   -3.4954104   0.67582817   439061 
  900000   0.45134395   -3.4974073   -3.4974073    -2.820393 -0.0081865485   -3.4974073   0.67701438   439061 
  901000   0.45041271    -3.497045    -3.497045   -2.8214274 -0.0056400954    -3.497045   0.67561753   439061 
  902000   0.45008887   -3.4985542   -3.4985542   -2.8234224 -0.0062220945   -3.4985542   0.67513177   439061 
  903000   0.45011088   -3.4993852   -3.4993852   -2.8242204 -0.0055644705   -3.4993852   0.67516478   439061 
  904000   0.45000469   -3.5001001   -3.5001001   -2.8250946 -0.0061560026   -3.5001001    0.6750055   439061 
  905000   0.45012891   -3.5023176   -3.5023176   -2.8271258 -0.007031156   -3.5023176   0.67519182   439061 
  906000   0.44994793   -3.5029506   -3.5029506   -2.8280303 -0.0061894872   -3.5029506   0.67492036   439061 
  907000   0.45014502   -3.5045511   -3.5045511   -2.8293351 -0.007163462   -3.5045511   0.67521599   439061 
  908000   0.44973413   -3.5051995   -3.5051995   -2.8305998 -0.0061164832   -3.5051995   0.67459966   439061 
  909000   0.44946886    -3.505565    -3.505565   -2.8313633 -0.0053875595    -3.505565   0.67420175   439061 
  910000   0.44912122   -3.5060212   -3.5060212   -2.8323409 -0.0077220146   -3.5060212   0.67368029   439061 
  911000    0.4501518   -3.5086083   -3.5086083   -2.8333822 -0.0092160509   -3.5086083   0.67522616   439061 
  912000   0.44952383   -3.5084579   -3.5084579   -2.8341737 -0.0062307401   -3.5084579   0.67428421   439061 
  913000   0.44934635   -3.5101342   -3.5101342   -2.8361162  -0.01069809   -3.5101342   0.67401799   439061 
  914000    0.4485736   -3.5095953   -3.5095953   -2.8367365 -0.0055209474   -3.5095953   0.67285887   439061 
  915000   0.44893406   -3.5117626   -3.5117626    -2.838363 -0.0099668719   -3.5117626   0.67339956   439061 
  916000   0.44901254   -3.5128912   -3.5128912   -2.8393739 -0.0075064645   -3.5128912   0.67351728   439061 
  917000   0.44921887     -3.51386     -3.51386   -2.8400333 -0.0079283658     -3.51386   0.67382676   439061 
  918000   0.44876237   -3.5143715   -3.5143715   -2.8412295 -0.0054156772   -3.5143715   0.67314203   439061 
  919000   0.44857679    -3.515498    -3.515498   -2.8426343 -0.0088717975    -3.515498   0.67286366   439061 
  920000   0.44841327   -3.5154008   -3.5154008   -2.8427825 -0.0063200882   -3.5154008   0.67261838   439061 
  921000   0.44780994   -3.5169351   -3.5169351   -2.8452218 -0.0062619749   -3.5169351   0.67171337   439061 
  922000   0.44800596   -3.5180865   -3.5180865   -2.8460791 -0.0085955301   -3.5180865   0.67200741   439061 
  923000   0.44850447   -3.5188734   -3.5188734   -2.8461182 -0.0092560503   -3.5188734   0.67275517   439061 
  924000   0.44691619    -3.518385    -3.518385   -2.8480123 -0.0075723819    -3.518385   0.67037275   439061 
  925000   0.44811504   -3.5209208   -3.5209208   -2.8487498 -0.011176287   -3.5209208   0.67217103   439061 
  926000    0.4482237   -3.5224598   -3.5224598   -2.8501257 -0.012757854   -3.5224598   0.67233402   439061 
  927000   0.44753129   -3.5219855   -3.5219855   -2.8506901 -0.0078615705   -3.5219855   0.67129541   439061 
  928000   0.44799037   -3.5233977   -3.5233977   -2.8514136 -0.0092802093   -3.5233977   0.67198402   439061 
  929000   0.44857889   -3.5250248   -3.5250248    -2.852158 -0.0077522079   -3.5250248    0.6728668   439061 
  930000   0.44840368   -3.5258161   -3.5258161   -2.8532121 -0.0074302469   -3.5258161   0.67260399   439061 
  931000   0.44776752   -3.5260306   -3.5260306   -2.8543808 -0.0072788762   -3.5260306   0.67164976   439061 
  932000   0.44740862   -3.5270485   -3.5270485   -2.8559371 -0.010347068   -3.5270485    0.6711114   439061 
  933000   0.44700847   -3.5275066   -3.5275066   -2.8569954 -0.0093523381   -3.5275066   0.67051118   439061 
  934000   0.44607652   -3.5278273   -3.5278273   -2.8587141 -0.010244219   -3.5278273   0.66911325   439061 
  935000   0.44591043   -3.5288154   -3.5288154   -2.8599513  -0.01273725   -3.5288154   0.66886412   439061 
  936000   0.44608508   -3.5299982   -3.5299982   -2.8608721 -0.011859176   -3.5299982   0.66912609   439061 
  937000   0.44689569    -3.532305    -3.532305    -2.861963 -0.010473934    -3.532305   0.67034201   439061 
  938000   0.44754341   -3.5330974   -3.5330974   -2.8617838 -0.0064157865   -3.5330974   0.67131359   439061 
  939000    0.4477973   -3.5345683   -3.5345683   -2.8628739 -0.0077790347   -3.5345683   0.67169442   439061 
  940000     0.447319   -3.5343971   -3.5343971   -2.8634201 -0.0037276955   -3.5343971   0.67097697   439061 
  941000   0.44765904   -3.5353876   -3.5353876   -2.8639006 -0.0053997368   -3.5353876   0.67148703   439061 
  942000   0.44731502   -3.5362743   -3.5362743   -2.8653033 -0.0076271453   -3.5362743     0.670971   439061 
  943000   0.44607432   -3.5363748   -3.5363748   -2.8672648 -0.010898483   -3.5363748   0.66910995   439061 
  944000   0.44628936   -3.5374516   -3.5374516   -2.8680191 -0.014792065   -3.5374516   0.66943251   439061 
  945000   0.44659803   -3.5391393   -3.5391393   -2.8692437 -0.014825696   -3.5391393   0.66989552   439061 
  946000   0.44589968    -3.539545    -3.539545    -2.870697 -0.013303793    -3.539545     0.668848   439061 
  947000   0.44644592    -3.541637    -3.541637   -2.8719697 -0.013580257    -3.541637   0.66966736   439061 
  948000   0.44629987   -3.5416538   -3.5416538   -2.8722056 -0.0081989355   -3.5416538   0.66944829   439061 
  949000   0.44604092   -3.5425858   -3.5425858    -2.873526 -0.0062761326   -3.5425858   0.66905986   439061 
  950000   0.44537805   -3.5424695   -3.5424695    -2.874404 -0.0032101829   -3.5424695   0.66806555   439061 
  951000   0.44632935   -3.5447089   -3.5447089   -2.8752164 -0.010796888   -3.5447089   0.66949249   439061 
  952000   0.44475727    -3.543482    -3.543482   -2.8763476 -0.0057401691    -3.543482   0.66713438   439061 
  953000   0.44459327   -3.5446684   -3.5446684   -2.8777801 -0.013552294   -3.5446684   0.66688839   439061 
  954000   0.44524756   -3.5457945   -3.5457945   -2.8779247 -0.013607125   -3.5457945   0.66786981   439061 
  955000   0.44553346    -3.547321    -3.547321   -2.8790223 -0.010667475    -3.547321   0.66829867   439061 
  956000   0.44537792   -3.5485783   -3.5485783    -2.880513 -0.011209049   -3.5485783   0.66806536   439061 
  957000   0.44516701    -3.548776    -3.548776    -2.881027 -0.0087071645    -3.548776   0.66774899   439061 
  958000   0.44499018   -3.5498282   -3.5498282   -2.8823445 -0.010450585   -3.5498282   0.66748376   439061 
  959000   0.44503475   -3.5504017   -3.5504017   -2.8828511 -0.0063301752   -3.5504017   0.66755061   439061 
  960000    0.4453113   -3.5512671   -3.5512671   -2.8833017 -0.0081504675   -3.5512671   0.66796542   439061 
  961000   0.44497469   -3.5517891   -3.5517891   -2.8843286 -0.011041597   -3.5517891   0.66746051   439061 
  962000   0.44474806   -3.5529321   -3.5529321   -2.8858115 -0.012304582   -3.5529321   0.66712057   439061 
  963000    0.4454162   -3.5551307   -3.5551307   -2.8870079 -0.014398436   -3.5551307   0.66812278   439061 
  964000   0.44393314   -3.5538208   -3.5538208   -2.8879227 -0.011928293   -3.5538208   0.66589819   439061 
  965000     0.443843   -3.5553108   -3.5553108   -2.8895479 -0.011501541   -3.5553108   0.66576298   439061 
  966000   0.44445166   -3.5570957   -3.5570957   -2.8904197 -0.0087873972   -3.5570957   0.66667598   439061 
  967000   0.44449632   -3.5587772   -3.5587772   -2.8920342 -0.012361605   -3.5587772   0.66674296   439061 
  968000   0.44400051   -3.5589867   -3.5589867   -2.8929874 -0.0096078533   -3.5589867   0.66599924   439061 
  969000   0.44382738   -3.5599864   -3.5599864   -2.8942469 -0.011323604   -3.5599864   0.66573955   439061 
  970000   0.44373897   -3.5602477   -3.5602477   -2.8946408 -0.010920909   -3.5602477   0.66560693   439061 
  971000   0.44368911   -3.5609124   -3.5609124   -2.8953802 -0.012660776   -3.5609124   0.66553215   439061 
  972000   0.44307785    -3.561017    -3.561017   -2.8964018 -0.010090662    -3.561017   0.66461526   439061 
  973000   0.44325124   -3.5620363   -3.5620363   -2.8971609 -0.012633192   -3.5620363   0.66487535   439061 
  974000   0.44265021   -3.5618123   -3.5618123   -2.8978385 -0.011196403   -3.5618123    0.6639738   439061 
  975000   0.44272525   -3.5628634   -3.5628634   -2.8987771 -0.014486282   -3.5628634   0.66408636   439061 
  976000    0.4430219   -3.5640916   -3.5640916   -2.8995603 -0.013868353   -3.5640916   0.66453134   439061 
  977000   0.44230016   -3.5646511   -3.5646511   -2.9012023  -0.01205461   -3.5646511   0.66344872   439061 
  978000   0.44279063   -3.5655364   -3.5655364   -2.9013519 -0.0058621305   -3.5655364   0.66418444   439061 
  979000   0.44318546   -3.5670164   -3.5670164   -2.9022397 -0.0082412185   -3.5670164   0.66477667   439061 
  980000    0.4422338   -3.5672437   -3.5672437   -2.9038945 -0.0080078709   -3.5672437   0.66334919   439061 
  981000   0.44256523   -3.5692167   -3.5692167   -2.9053704 -0.0095374357   -3.5692167   0.66384634   439061 
  982000   0.44170935   -3.5695955   -3.5695955    -2.907033 -0.0098064938   -3.5695955   0.66256252   439061 
  983000   0.44191293   -3.5709094   -3.5709094   -2.9080415 -0.013685566   -3.5709094   0.66286789   439061 
  984000   0.44280364   -3.5724384   -3.5724384   -2.9082345  -0.01604862   -3.5724384   0.66420395   439061 
  985000    0.4420065   -3.5715789   -3.5715789   -2.9085707 -0.015212698   -3.5715789   0.66300824   439061 
  986000   0.44266045    -3.573464    -3.573464   -2.9094749  -0.01645419    -3.573464   0.66398916   439061 
  987000   0.44156033   -3.5727433   -3.5727433   -2.9104043 -0.011002049   -3.5727433   0.66233898   439061 
  988000   0.44182639   -3.5740017   -3.5740017   -2.9112636   -0.0114096   -3.5740017   0.66273808   439061 
  989000   0.44196689    -3.575757    -3.575757   -2.9128082 -0.011128895    -3.575757   0.66294882   439061 
  990000     0.442523   -3.5772153   -3.5772153   -2.9134323 -0.0088757827   -3.5772153   0.66378299   439061 
  991000   0.44213775   -3.5775289   -3.5775289   -2.9143238 -0.012144969   -3.5775289   0.66320511   439061 
  992000   0.44125581   -3.5766199   -3.5766199   -2.9147377 -0.0070762237   -3.5766199   0.66188221   439061 
  993000   0.44188023   -3.5791145   -3.5791145   -2.9162957 -0.012044796   -3.5791145   0.66281884   439061 
  994000   0.44133262   -3.5793524   -3.5793524    -2.917355 -0.013305976   -3.5793524   0.66199742   439061 
  995000   0.44148317   -3.5799052   -3.5799052    -2.917682 -0.015698166   -3.5799052   0.66222325   439061 
  996000   0.44130966   -3.5811534   -3.5811534   -2.9191904 -0.014527953   -3.5811534   0.66196298   439061 
  997000   0.44050214   -3.5812585   -3.5812585   -2.9205068 -0.012521083   -3.5812585    0.6607517   439061 
  998000   0.44105418   -3.5829831   -3.5829831   -2.9214033 -0.013662349   -3.5829831   0.66157977   439061 
  999000   0.44135848   -3.5840073   -3.5840073   -2.9219711 -0.012857469   -3.5840073   0.66203621   439061 
 1000000   0.44190211   -3.5855802   -3.5855802   -2.9227286 -0.011438324   -3.5855802   0.66285165   439061 
 1001000   0.44183682   -3.5864881   -3.5864881   -2.9237343 -0.011806551   -3.5864881   0.66275372   439061 
 1002000    0.4417082   -3.5873935   -3.5873935   -2.9248327 -0.012157657   -3.5873935    0.6625608   439061 
 1003000   0.44187758   -3.5885289   -3.5885289    -2.925714 -0.014301425   -3.5885289   0.66281485   439061 
 1004000      0.44091    -3.588351    -3.588351   -2.9269875 -0.015422755    -3.588351   0.66136349   439061 
 1005000    0.4411579    -3.589607    -3.589607   -2.9278717  -0.01692965    -3.589607   0.66173535   439061 
 1006000   0.43992896   -3.5886523   -3.5886523   -2.9287603 -0.012926462   -3.5886523   0.65989194   439061 
 1007000   0.44066403   -3.5900672   -3.5900672   -2.9290727 -0.013225727   -3.5900672   0.66099454   439061 
 1008000   0.44115265   -3.5927552   -3.5927552   -2.9310277 -0.015149171   -3.5927552   0.66172747   439061 
 1009000   0.44025055   -3.5926332   -3.5926332   -2.9322589 -0.013802021   -3.5926332   0.66037432   439061 
 1010000   0.44055072   -3.5945089   -3.5945089   -2.9336843 -0.014537442   -3.5945089   0.66082458   439061 
 1011000   0.44069009   -3.5957671   -3.5957671   -2.9347334 -0.012874996   -3.5957671   0.66103363   439061 
 1012000   0.43994611   -3.5949605   -3.5949605   -2.9350429 -0.0099401701   -3.5949605   0.65991766   439061 
 1013000   0.44047499   -3.5965618   -3.5965618   -2.9358508 -0.011371083   -3.5965618   0.66071098   439061 
 1014000   0.43986819   -3.5970623   -3.5970623   -2.9372615 -0.013767025   -3.5970623   0.65980078   439061 
 1015000   0.43973975   -3.5976115   -3.5976115   -2.9380033 -0.015944865   -3.5976115   0.65960812   439061 
 1016000   0.43990547    -3.598136    -3.598136   -2.9382793  -0.01431174    -3.598136    0.6598567   439061 
 1017000   0.43885061   -3.5975461   -3.5975461   -2.9392717 -0.014665011   -3.5975461   0.65827442   439061 
 1018000   0.43898805   -3.5980707   -3.5980707   -2.9395901  -0.01185508   -3.5980707   0.65848058   439061 
 1019000   0.44031279   -3.6013359   -3.6013359   -2.9408682 -0.018479077   -3.6013359   0.66046768   439061 
 1020000   0.43956299   -3.6007047   -3.6007047   -2.9413617 -0.011406597   -3.6007047   0.65934298   439061 
 1021000    0.4394094   -3.6019409   -3.6019409   -2.9428283 -0.013405686   -3.6019409    0.6591126   439061 
 1022000   0.43929714   -3.6019718   -3.6019718   -2.9430276 -0.010966216   -3.6019718   0.65894421   439061 
 1023000   0.43987189   -3.6040703   -3.6040703   -2.9442639 -0.013378802   -3.6040703   0.65980633   439061 
 1024000   0.44012594   -3.6057996   -3.6057996   -2.9456122 -0.016404103   -3.6057996   0.66018741   439061 
 1025000   0.43925006   -3.6055801   -3.6055801   -2.9467065 -0.012619382   -3.6055801   0.65887359   439061 
 1026000   0.43868417   -3.6052901   -3.6052901   -2.9472653 -0.013367669   -3.6052901   0.65802476   439061 
 1027000   0.43833594   -3.6061959   -3.6061959   -2.9486935 -0.010521924   -3.6061959   0.65750241   439061 
 1028000   0.43899648   -3.6077613   -3.6077613   -2.9492681 -0.016132746   -3.6077613   0.65849323   439061 
 1029000   0.43879069   -3.6079715   -3.6079715   -2.9497869 -0.015335643   -3.6079715   0.65818454   439061 
 1030000   0.43918622   -3.6096092   -3.6096092   -2.9508314 -0.016927338   -3.6096092   0.65877783   439061 
 1031000   0.43854018   -3.6100683   -3.6100683   -2.9522595 -0.017167509   -3.6100683   0.65780877   439061 
 1032000   0.43919448   -3.6112908   -3.6112908   -2.9525006 -0.015704413   -3.6112908   0.65879022   439061 
 1033000   0.43904919   -3.6123294   -3.6123294   -2.9537571 -0.015823106   -3.6123294   0.65857229   439061 
 1034000   0.43818062   -3.6121357   -3.6121357   -2.9548663 -0.0098353634   -3.6121357   0.65726943   439061 
 1035000   0.43779266   -3.6132026   -3.6132026   -2.9565151 -0.012032606   -3.6132026    0.6566875   439061 
 1036000    0.4381408   -3.6140567   -3.6140567    -2.956847 -0.013686552   -3.6140567    0.6572097   439061 
 1037000   0.43790779   -3.6148227   -3.6148227   -2.9579625 -0.0095963104   -3.6148227   0.65686019   439061 
 1038000   0.43834025   -3.6159036   -3.6159036   -2.9583947 -0.014591622   -3.6159036   0.65750888   439061 
 1039000   0.43835626   -3.6174394   -3.6174394   -2.9599065 -0.014155038   -3.6174394    0.6575329   439061 
 1040000   0.43751177   -3.6182783   -3.6182783   -2.9620122 -0.017799613   -3.6182783   0.65626616   439061 
 1041000   0.43700431   -3.6179367   -3.6179367   -2.9624317 -0.015521469   -3.6179367   0.65550498   439061 
 1042000   0.43749603   -3.6194452   -3.6194452   -2.9632027  -0.01683449   -3.6194452   0.65624255   439061 
 1043000   0.43746593   -3.6198429   -3.6198429   -2.9636455 -0.015175376   -3.6198429   0.65619741   439061 
 1044000   0.43735615   -3.6207179   -3.6207179   -2.9646852 -0.012719323   -3.6207179   0.65603274   439061 
 1045000   0.43735633   -3.6216252   -3.6216252   -2.9655922 -0.011518871   -3.6216252   0.65603299   439061 
 1046000   0.43740659   -3.6223481   -3.6223481   -2.9662397 -0.012324653   -3.6223481   0.65610838   439061 
 1047000   0.43731316   -3.6235851   -3.6235851   -2.9676169 -0.014618032   -3.6235851   0.65596825   439061 
 1048000   0.43761327   -3.6242307   -3.6242307   -2.9678122  -0.01746288   -3.6242307   0.65641842   439061 
 1049000    0.4373827   -3.6248068   -3.6248068   -2.9687343 -0.017439305   -3.6248068   0.65607255   439061 
 1050000   0.43792142   -3.6257028   -3.6257028   -2.9688221 -0.016324588   -3.6257028   0.65688063   439061 
 1051000   0.43726631   -3.6253116   -3.6253116   -2.9694137 -0.017164472   -3.6253116   0.65589797   439061 
 1052000   0.43719658    -3.626817    -3.626817   -2.9710236  -0.01742254    -3.626817   0.65579337   439061 
 1053000   0.43688708    -3.626799    -3.626799   -2.9714699 -0.014221622    -3.626799   0.65532913   439061 
 1054000     0.437408   -3.6282211   -3.6282211   -2.9721106 -0.014802409   -3.6282211    0.6561105   439061 
 1055000   0.43684306   -3.6281937   -3.6281937   -2.9729306  -0.01319092   -3.6281937    0.6552631   439061 
 1056000   0.43729648   -3.6303831   -3.6303831   -2.9744399 -0.015247963   -3.6303831   0.65594322   439061 
 1057000   0.43658409   -3.6301968   -3.6301968   -2.9753222 -0.015965208   -3.6301968   0.65487465   439061 
 1058000    0.4366284   -3.6310811   -3.6310811     -2.97614   -0.0191439   -3.6310811   0.65494111   439061 
 1059000   0.43635296    -3.631035    -3.631035   -2.9765071 -0.017204006    -3.631035   0.65452794   439061 
 1060000   0.43597883   -3.6312778   -3.6312778    -2.977311 -0.017165869   -3.6312778   0.65396676   439061 
 1061000   0.43568578   -3.6319501   -3.6319501   -2.9784229 -0.015345519   -3.6319501   0.65352719   439061 
 1062000   0.43590529   -3.6329203   -3.6329203   -2.9790639  -0.01532218   -3.6329203   0.65385645   439061 
 1063000   0.43574458    -3.634608    -3.634608   -2.9809926 -0.016880675    -3.634608   0.65361538   439061 
 1064000   0.43535564   -3.6350663   -3.6350663   -2.9820343  -0.01707974   -3.6350663   0.65303197   439061 
 1065000   0.43593063   -3.6361123   -3.6361123   -2.9822179 -0.017602666   -3.6361123   0.65389446   439061 
 1066000   0.43566531   -3.6364488   -3.6364488   -2.9829523 -0.013285726   -3.6364488   0.65349647   439061 
 1067000   0.43546912   -3.6364936   -3.6364936   -2.9832914 -0.015243406   -3.6364936   0.65320219   439061 
 1068000   0.43624561   -3.6379436   -3.6379436   -2.9835766 -0.016002649   -3.6379436   0.65436693   439061 
 1069000   0.43580878   -3.6385277   -3.6385277   -2.9848161 -0.015027379   -3.6385277   0.65371168   439061 
 1070000   0.43608473   -3.6399758   -3.6399758   -2.9858502 -0.016600286   -3.6399758    0.6541256   439061 
 1071000   0.43625688   -3.6406213   -3.6406213   -2.9862375 -0.014537569   -3.6406213   0.65438383   439061 
 1072000   0.43546312   -3.6410664   -3.6410664   -2.9878732 -0.019024215   -3.6410664    0.6531932   439061 
 1073000   0.43590928   -3.6426381   -3.6426381   -2.9887757 -0.020187422   -3.6426381   0.65386244   439061 
 1074000   0.43515374   -3.6423982   -3.6423982   -2.9896691 -0.018832555   -3.6423982   0.65272912   439061 
 1075000   0.43522258   -3.6438042   -3.6438042   -2.9909718 -0.015758397   -3.6438042   0.65283239   439061 
 1076000   0.43563447   -3.6451242   -3.6451242   -2.9916739 -0.017942585   -3.6451242   0.65345022   439061 
 1077000   0.43508672   -3.6452069   -3.6452069   -2.9925783 -0.015717889   -3.6452069    0.6526286   439061 
 1078000   0.43545396   -3.6465943   -3.6465943   -2.9934149 -0.014452397   -3.6465943   0.65317946   439061 
 1079000   0.43536656   -3.6473042   -3.6473042   -2.9942558 -0.015450585   -3.6473042   0.65304835   439061 
 1080000   0.43484027   -3.6467581   -3.6467581   -2.9944992 -0.015998985   -3.6467581   0.65225892   439061 
 1081000   0.43533747   -3.6482447   -3.6482447     -2.99524 -0.013638189   -3.6482447   0.65300471   439061 
 1082000   0.43451257   -3.6486416   -3.6486416   -2.9968742 -0.016794989   -3.6486416   0.65176737   439061 
 1083000   0.43500952   -3.6495302   -3.6495302   -2.9970174 -0.016001779   -3.6495302   0.65251279   439061 
 1084000   0.43504937    -3.650089    -3.650089   -2.9975165 -0.016719478    -3.650089   0.65257257   439061 
 1085000   0.43468435   -3.6507971   -3.6507971   -2.9987721 -0.015796995   -3.6507971   0.65202504   439061 
 1086000   0.43444821   -3.6510915   -3.6510915   -2.9994207 -0.017064041   -3.6510915   0.65167084   439061 
 1087000   0.43497678   -3.6526964   -3.6526964   -3.0002327 -0.017379428   -3.6526964   0.65246369   439061 
 1088000   0.43433838   -3.6527832   -3.6527832   -3.0012771 -0.014303955   -3.6527832   0.65150609   439061 
 1089000   0.43408771   -3.6533898   -3.6533898   -3.0022598 -0.016001449   -3.6533898   0.65113008   439061 
 1090000   0.43439136   -3.6549768   -3.6549768   -3.0033912 -0.017459321   -3.6549768   0.65158555   439061 
 1091000   0.43426601    -3.655173    -3.655173   -3.0037755  -0.01336756    -3.655173   0.65139754   439061 
 1092000   0.43502238   -3.6567245   -3.6567245   -3.0041924 -0.018875734   -3.6567245   0.65253208   439061 
 1093000   0.43461228    -3.656356    -3.656356   -3.0044391 -0.017144572    -3.656356   0.65191693   439061 
 1094000   0.43401709   -3.6570543   -3.6570543   -3.0060302 -0.016252766   -3.6570543   0.65102415   439061 
 1095000   0.43413405   -3.6579377   -3.6579377   -3.0067381  -0.01731332   -3.6579377   0.65119959   439061 
 1096000   0.43457221   -3.6595317   -3.6595317   -3.0076749 -0.019929988   -3.6595317   0.65185683   439061 
 1097000   0.43452401   -3.6608431   -3.6608431   -3.0090586 -0.018510037   -3.6608431   0.65178454   439061 
 1098000   0.43443577   -3.6618941   -3.6618941   -3.0102419 -0.020558617   -3.6618941   0.65165217   439061 
 1099000   0.43400582   -3.6617135   -3.6617135   -3.0107062 -0.016163715   -3.6617135   0.65100724   439061 
 1100000   0.43375782   -3.6622629   -3.6622629   -3.0116277 -0.014616051   -3.6622629   0.65063525   439061 
 1101000   0.43356993   -3.6632353   -3.6632353   -3.0128819 -0.017174956   -3.6632353   0.65035342   439061 
 1102000   0.43345782   -3.6628719   -3.6628719   -3.0126866 -0.014384474   -3.6628719   0.65018525   439061 
 1103000   0.43315416   -3.6627534   -3.6627534   -3.0130237 -0.013733348   -3.6627534   0.64972976   439061 
 1104000   0.43291755   -3.6632088   -3.6632088    -3.013834 -0.015126293   -3.6632088   0.64937484   439061 
 1105000   0.43325577   -3.6651212   -3.6651212   -3.0152391 -0.020920143   -3.6651212   0.64988217   439061 
 1106000   0.43364424   -3.6653817   -3.6653817   -3.0149168  -0.01780455   -3.6653817   0.65046488   439061 
 1107000   0.43371738   -3.6655102   -3.6655102   -3.0149357 -0.017002711   -3.6655102    0.6505746   439061 
 1108000   0.43327242   -3.6661217   -3.6661217   -3.0162146 -0.015883299   -3.6661217   0.64990714   439061 
 1109000    0.4332239   -3.6670529   -3.6670529   -3.0172185 -0.017749266   -3.6670529   0.64983436   439061 
 1110000   0.43346269   -3.6676413   -3.6676413   -3.0174488 -0.018070166   -3.6676413   0.65019256   439061 
 1111000   0.43317148   -3.6680725   -3.6680725   -3.0183167 -0.019471702   -3.6680725   0.64975574   439061 
 1112000   0.43307254   -3.6687741   -3.6687741   -3.0191668 -0.020333329   -3.6687741   0.64960733   439061 
 1113000   0.43330579   -3.6699318   -3.6699318   -3.0199746  -0.02029229   -3.6699318   0.64995721   439061 
 1114000   0.43236893    -3.669284    -3.669284   -3.0207321 -0.015893534    -3.669284   0.64855193   439061 
 1115000   0.43276338   -3.6702605   -3.6702605   -3.0211169 -0.014874105   -3.6702605   0.64914359   439061 
 1116000   0.43319854   -3.6717605   -3.6717605   -3.0219642 -0.016012426   -3.6717605   0.64979634   439061 
 1117000   0.43368191   -3.6728954   -3.6728954    -3.022374 -0.017249773   -3.6728954   0.65052139   439061 
 1118000   0.43284124   -3.6724774   -3.6724774    -3.023217 -0.014464236   -3.6724774   0.64926039   439061 
 1119000   0.43343651   -3.6742553   -3.6742553   -3.0241021 -0.018500215   -3.6742553   0.65015329   439061 
 1120000   0.43259723   -3.6748627   -3.6748627   -3.0259683 -0.018746494   -3.6748627   0.64889437   439061 
 1121000   0.43250001   -3.6751179   -3.6751179   -3.0263694 -0.020258991   -3.6751179   0.64874854   439061 
 1122000   0.43203376   -3.6754199   -3.6754199   -3.0273708 -0.017459381   -3.6754199   0.64804916   439061 
 1123000   0.43210059   -3.6764388   -3.6764388   -3.0282894 -0.019371146   -3.6764388    0.6481494   439061 
 1124000    0.4322872   -3.6774768   -3.6774768   -3.0290475 -0.017241147   -3.6774768   0.64842932   439061 
 1125000   0.43229819   -3.6774286   -3.6774286   -3.0289828 -0.015006042   -3.6774286   0.64844581   439061 
 1126000     0.432571   -3.6791638   -3.6791638   -3.0303087 -0.018843799   -3.6791638   0.64885503   439061 
 1127000   0.43265819   -3.6795292   -3.6795292   -3.0305434 -0.018036194   -3.6795292   0.64898581   439061 
 1128000   0.43225489   -3.6793139   -3.6793139    -3.030933  -0.01699175   -3.6793139   0.64838086   439061 
 1129000   0.43141442   -3.6794645   -3.6794645   -3.0323444 -0.016316517   -3.6794645   0.64712015   439061 
 1130000   0.43150072   -3.6804956   -3.6804956    -3.033246 -0.019046233   -3.6804956   0.64724961   439061 
 1131000   0.43178859   -3.6819567   -3.6819567   -3.0342753 -0.019645777   -3.6819567   0.64768141   439061 
 1132000   0.43217616   -3.6828256   -3.6828256   -3.0345628 -0.019248187   -3.6828256   0.64826276   439061 
 1133000   0.43140294    -3.682816    -3.682816    -3.035713 -0.014995604    -3.682816   0.64710293   439061 
 1134000   0.43119492   -3.6836886   -3.6836886   -3.0368977   -0.0171092   -3.6836886    0.6467909   439061 
 1135000   0.43159297   -3.6847605   -3.6847605   -3.0373725 -0.017549201   -3.6847605   0.64738798   439061 
 1136000   0.43111768    -3.684755    -3.684755   -3.0380799 -0.016983715    -3.684755   0.64667504   439061 
 1137000   0.43155466   -3.6857263   -3.6857263   -3.0383958 -0.018924566   -3.6857263   0.64733052   439061 
 1138000   0.43049016   -3.6863998   -3.6863998    -3.040666 -0.019811683   -3.6863998   0.64573377   439061 
 1139000   0.43029511   -3.6868655   -3.6868655   -3.0414243 -0.019867019   -3.6868655   0.64544119   439061 
 1140000   0.43118466   -3.6880786   -3.6880786   -3.0413031 -0.019918199   -3.6880786   0.64677552   439061 
 1141000   0.43151852   -3.6891411   -3.6891411   -3.0418648 -0.020400097   -3.6891411   0.64727631   439061 
 1142000   0.43093404   -3.6890593   -3.6890593   -3.0426597 -0.015712631   -3.6890593   0.64639959   439061 
 1143000   0.43172868   -3.6904505   -3.6904505   -3.0428589 -0.014786126   -3.6904505   0.64759155   439061 
 1144000   0.43096918   -3.6897379   -3.6897379   -3.0432856  -0.01493403   -3.6897379    0.6464523   439061 
 1145000   0.43122427   -3.6908256   -3.6908256   -3.0439907 -0.016513494   -3.6908256   0.64683494   439061 
 1146000   0.43130398   -3.6919374   -3.6919374    -3.044983 -0.020823184   -3.6919374   0.64695449   439061 
 1147000   0.43072643    -3.691436    -3.691436   -3.0453478 -0.020536251    -3.691436   0.64608818   439061 
 1148000   0.43045961    -3.692046    -3.692046    -3.046358 -0.021403117    -3.692046   0.64568795   439061 
 1149000   0.43132833   -3.6939165   -3.6939165   -3.0469255 -0.021371569   -3.6939165   0.64699102   439061 
 1150000   0.43024135   -3.6927804   -3.6927804   -3.0474198 -0.016040062   -3.6927804   0.64536056   439061 
 1151000   0.43046465   -3.6946917   -3.6946917   -3.0489962  -0.01718662   -3.6946917    0.6456955   439061 
 1152000   0.43036445   -3.6955013   -3.6955013   -3.0499561 -0.019178577   -3.6955013    0.6455452   439061 
 1153000   0.43066746   -3.6967192   -3.6967192   -3.0507194 -0.016772385   -3.6967192   0.64599972   439061 
 1154000   0.43080252   -3.6974861   -3.6974861   -3.0512838 -0.018458765   -3.6974861    0.6462023   439061 
 1155000   0.43091209   -3.6991703   -3.6991703   -3.0528037 -0.015905178   -3.6991703   0.64636666   439061 
 1156000   0.42993134    -3.698337    -3.698337   -3.0534414 -0.016897517    -3.698337   0.64489555   439061 
 1157000   0.43017479   -3.6992105   -3.6992105   -3.0539498 -0.018382194   -3.6992105   0.64526072   439061 
 1158000   0.43076953   -3.7009499   -3.7009499   -3.0547971  -0.02037176   -3.7009499   0.64615282   439061 
 1159000   0.43059349   -3.7008173   -3.7008173   -3.0549286 -0.019431536   -3.7008173   0.64588876   439061 
 1160000   0.43087164   -3.7024505   -3.7024505   -3.0561445 -0.020455767   -3.7024505   0.64630599   439061 
 1161000   0.42963576   -3.7016083   -3.7016083   -3.0571562 -0.015533715   -3.7016083   0.64445217   439061 
 1162000   0.43056566    -3.704398    -3.704398   -3.0585509 -0.019409565    -3.704398   0.64584701   439061 
 1163000   0.42993762   -3.7037707   -3.7037707   -3.0588657 -0.014736514   -3.7037707   0.64490496   439061 
 1164000   0.43072036   -3.7055633   -3.7055633   -3.0594842 -0.018904546   -3.7055633   0.64607907   439061 
 1165000   0.43005382   -3.7059642   -3.7059642   -3.0608849 -0.018868699   -3.7059642   0.64507927   439061 
 1166000   0.43015688   -3.7068803   -3.7068803   -3.0616464 -0.021507686   -3.7068803   0.64523385   439061 
 1167000   0.42997819   -3.7075115   -3.7075115   -3.0625457 -0.021497583   -3.7075115   0.64496582   439061 
 1168000   0.43021624   -3.7081648   -3.7081648   -3.0628419 -0.020368318   -3.7081648   0.64532289   439061 
 1169000   0.42990117   -3.7087037   -3.7087037   -3.0638534 -0.016110111   -3.7087037   0.64485028   439061 
 1170000   0.43002294    -3.710269    -3.710269    -3.065236 -0.020843815    -3.710269   0.64503294   439061 
 1171000   0.43010188   -3.7107249   -3.7107249   -3.0655735 -0.019533174   -3.7107249   0.64515136   439061 
 1172000   0.42982727   -3.7108657   -3.7108657   -3.0661262 -0.020441684   -3.7108657   0.64473944   439061 
 1173000   0.42989691   -3.7107982   -3.7107982   -3.0659543 -0.017022032   -3.7107982    0.6448439   439061 
 1174000   0.43061002   -3.7122969   -3.7122969   -3.0663833 -0.018954879   -3.7122969   0.64591356   439061 
 1175000    0.4294598   -3.7113528   -3.7113528   -3.0671646  -0.01384852   -3.7113528   0.64418823   439061 
 1176000   0.42959365   -3.7126473   -3.7126473   -3.0682583  -0.01631092   -3.7126473   0.64438901   439061 
 1177000   0.43047355   -3.7142074   -3.7142074   -3.0684985 -0.018619579   -3.7142074   0.64570885   439061 
 1178000   0.42934987   -3.7145603   -3.7145603   -3.0705369 -0.017078606   -3.7145603   0.64402334   439061 
 1179000   0.42946551   -3.7154163   -3.7154163   -3.0712195 -0.018119497   -3.7154163    0.6441968   439061 
 1180000   0.42856883    -3.715507    -3.715507   -3.0726552 -0.019999089    -3.715507   0.64285178   439061 
 1181000   0.42990269   -3.7180989   -3.7180989   -3.0732463 -0.023930635   -3.7180989   0.64485256   439061 
 1182000   0.42977334   -3.7184524   -3.7184524   -3.0737938 -0.021384323   -3.7184524   0.64465854   439061 
 1183000   0.43036139    -3.719341    -3.719341   -3.0738003 -0.019725448    -3.719341   0.64554062   439061 
 1184000   0.42950819    -3.718859    -3.718859   -3.0745982 -0.018959473    -3.718859   0.64426082   439061 
 1185000   0.42966265   -3.7202162   -3.7202162   -3.0757237 -0.017760811   -3.7202162   0.64449251   439061 
 1186000   0.42951554   -3.7213448   -3.7213448    -3.077073 -0.020564686   -3.7213448   0.64427184   439061 
 1187000   0.42944028   -3.7210641   -3.7210641   -3.0769051 -0.019970156   -3.7210641   0.64415896   439061 
 1188000   0.43039231   -3.7227061   -3.7227061   -3.0771191 -0.019022934   -3.7227061   0.64558699   439061 
 1189000   0.42964418   -3.7219663   -3.7219663   -3.0775015 -0.021941147   -3.7219663    0.6444648   439061 
 1190000   0.42931036   -3.7221898   -3.7221898   -3.0782257 -0.016349861   -3.7221898   0.64396408   439061 
 1191000   0.42942244   -3.7227651   -3.7227651   -3.0786329 -0.018253817   -3.7227651    0.6441322   439061 
 1192000   0.42981614   -3.7244381   -3.7244381   -3.0797154 -0.017175253   -3.7244381   0.64472274   439061 
 1193000   0.42929246   -3.7252509   -3.7252509   -3.0813137  -0.01781718   -3.7252509   0.64393722   439061 
 1194000    0.4290002   -3.7261463   -3.7261463   -3.0826475 -0.018865724   -3.7261463   0.64349884   439061 
 1195000   0.42902582   -3.7268546   -3.7268546   -3.0833173 -0.015194779   -3.7268546   0.64353727   439061 
 1196000   0.42900722   -3.7273414   -3.7273414    -3.083832 -0.014167913   -3.7273414   0.64350937   439061 
 1197000   0.42942023   -3.7284355   -3.7284355   -3.0843067 -0.014522376   -3.7284355   0.64412887   439061 
 1198000   0.42888144   -3.7282237   -3.7282237    -3.084903 -0.015443994   -3.7282237    0.6433207   439061 
 1199000   0.42902657   -3.7294165   -3.7294165   -3.0858781 -0.020423197   -3.7294165   0.64353839   439061 
 1200000   0.42834581    -3.729761    -3.729761   -3.0872437  -0.02085898    -3.729761   0.64251725   439061 
 1201000   0.42888781   -3.7300599   -3.7300599   -3.0867297 -0.017662823   -3.7300599   0.64333025   439061 
 1202000   0.42876656   -3.7307579   -3.7307579   -3.0876096 -0.018423081   -3.7307579   0.64314838   439061 
 1203000   0.42834782    -3.731528    -3.731528   -3.0890078 -0.019960025    -3.731528   0.64252027   439061 
 1204000   0.42816985   -3.7319773   -3.7319773    -3.089724 -0.015153486   -3.7319773   0.64225331   439061 
 1205000   0.42786799   -3.7329668   -3.7329668   -3.0911662 -0.018591932   -3.7329668   0.64180052   439061 
 1206000   0.42829142   -3.7342674   -3.7342674   -3.0918317 -0.018837319   -3.7342674   0.64243567   439061 
 1207000   0.42813759   -3.7353428   -3.7353428   -3.0931379 -0.016358533   -3.7353428   0.64220492   439061 
 1208000   0.42897632    -3.737841    -3.737841    -3.094378  -0.02149645    -3.737841   0.64346301   439061 
 1209000   0.42822634   -3.7370379   -3.7370379   -3.0946999 -0.016646893   -3.7370379   0.64233804   439061 
 1210000   0.42794754   -3.7377153   -3.7377153   -3.0957955  -0.01732576   -3.7377153   0.64191985   439061 
 1211000   0.42769502   -3.7378315   -3.7378315   -3.0962905 -0.014857573   -3.7378315   0.64154106   439061 
 1212000   0.42734905    -3.737383    -3.737383   -3.0963608 -0.016365256    -3.737383   0.64102212   439061 
 1213000   0.42840965   -3.7391488   -3.7391488   -3.0965358 -0.018892738   -3.7391488   0.64261302   439061 
 1214000   0.42892572   -3.7409367   -3.7409367   -3.0975496 -0.022218144   -3.7409367   0.64338711   439061 
 1215000   0.42786607   -3.7405055   -3.7405055   -3.0987078 -0.020553521   -3.7405055   0.64179765   439061 
 1216000   0.42776044   -3.7407322   -3.7407322    -3.099093 -0.017833686   -3.7407322   0.64163919   439061 
 1217000   0.42781156   -3.7416355   -3.7416355   -3.0999197 -0.014708431   -3.7416355   0.64171588   439061 
 1218000   0.42883221   -3.7440743   -3.7440743   -3.1008274  -0.01737242   -3.7440743   0.64324684   439061 
 1219000   0.42821785   -3.7438125   -3.7438125   -3.1014872 -0.017106087   -3.7438125   0.64232531   439061 
 1220000   0.42812627   -3.7441453   -3.7441453   -3.1019573 -0.015990323   -3.7441453   0.64218795   439061 
 1221000   0.42815065   -3.7446545   -3.7446545     -3.10243 -0.018412771   -3.7446545   0.64222451   439061 
 1222000   0.42835918    -3.745193    -3.745193   -3.1026557  -0.01868683    -3.745193    0.6425373   439061 
 1223000   0.42821358    -3.745835    -3.745835   -3.1035161 -0.019741092    -3.745835    0.6423189   439061 
 1224000   0.42738713   -3.7451121   -3.7451121   -3.1040328 -0.019766278   -3.7451121   0.64107924   439061 
 1225000   0.42751353   -3.7468393   -3.7468393   -3.1055705 -0.020147416   -3.7468393   0.64126883   439061 
 1226000   0.42819257   -3.7483701   -3.7483701   -3.1060827 -0.019998791   -3.7483701   0.64228739   439061 
 1227000   0.42793862   -3.7482463   -3.7482463   -3.1063398 -0.016689241   -3.7482463   0.64190647   439061 
 1228000   0.42691371   -3.7477008   -3.7477008   -3.1073317 -0.012580457   -3.7477008    0.6403691   439061 
 1229000   0.42834904    -3.750285    -3.750285   -3.1077629 -0.018767576    -3.750285    0.6425221   439061 
 1230000   0.42771329   -3.7504344   -3.7504344    -3.108866 -0.019147703   -3.7504344   0.64156847   439061 
 1231000   0.42724314   -3.7509024   -3.7509024   -3.1100391  -0.02072594   -3.7509024   0.64086325   439061 
 1232000   0.42671751   -3.7506784   -3.7506784   -3.1106036  -0.01987256   -3.7506784    0.6400748   439061 
 1233000     0.427871   -3.7533013   -3.7533013   -3.1114963 -0.022709971   -3.7533013   0.64180503   439061 
 1234000   0.42765053   -3.7528227   -3.7528227   -3.1113484 -0.020323045   -3.7528227   0.64147433   439061 
 1235000   0.42740028   -3.7536824   -3.7536824   -3.1125834 -0.018731504   -3.7536824   0.64109896   439061 
 1236000   0.42751506   -3.7541865   -3.7541865   -3.1129154 -0.018802538   -3.7541865   0.64127113   439061 
 1237000   0.42816456   -3.7556007   -3.7556007   -3.1133553 -0.016924888   -3.7556007   0.64224537   439061 
 1238000   0.42739223   -3.7550736   -3.7550736   -3.1139867 -0.016452686   -3.7550736   0.64108688   439061 
 1239000   0.42758579   -3.7565963   -3.7565963   -3.1152191 -0.018760561   -3.7565963   0.64137722   439061 
 1240000   0.42736087   -3.7564632   -3.7564632   -3.1154234  -0.01801575   -3.7564632   0.64103984   439061 
 1241000   0.42707575   -3.7565863   -3.7565863   -3.1159742 -0.019298736   -3.7565863   0.64061216   439061 
 1242000   0.42717337   -3.7567029   -3.7567029   -3.1159443 -0.018884955   -3.7567029   0.64075859   439061 
 1243000   0.42677168   -3.7573945   -3.7573945   -3.1172384 -0.020011678   -3.7573945   0.64015606   439061 
 1244000   0.42677236   -3.7590673   -3.7590673   -3.1189102 -0.021857114   -3.7590673   0.64015708   439061 
 1245000   0.42704485   -3.7599665   -3.7599665   -3.1194007 -0.020765909   -3.7599665   0.64056582   439061 
 1246000   0.42592385   -3.7592586   -3.7592586   -3.1203743  -0.01706787   -3.7592586   0.63888432   439061 
 1247000   0.42638577   -3.7606451   -3.7606451   -3.1210679  -0.01691946   -3.7606451    0.6395772   439061 
 1248000   0.42661118   -3.7616266   -3.7616266   -3.1217113 -0.019099971   -3.7616266   0.63991532   439061 
 1249000   0.42673623   -3.7624617   -3.7624617   -3.1223588  -0.01909879   -3.7624617   0.64010289   439061 
 1250000   0.42645735   -3.7623459   -3.7623459   -3.1226613 -0.018576517   -3.7623459   0.63968457   439061 
 1251000   0.42646214   -3.7626377   -3.7626377    -3.122946 -0.021036878   -3.7626377   0.63969175   439061 
 1252000   0.42701366   -3.7646103   -3.7646103   -3.1240912 -0.022177933   -3.7646103   0.64051903   439061 
 1253000   0.42657372   -3.7649785   -3.7649785   -3.1251194 -0.022062674   -3.7649785   0.63985912   439061 
 1254000   0.42626707   -3.7651137   -3.7651137   -3.1257145 -0.018958017   -3.7651137   0.63939915   439061 
 1255000   0.42631916   -3.7656897   -3.7656897   -3.1262125 -0.019097347   -3.7656897   0.63947728   439061 
 1256000   0.42640391   -3.7664938   -3.7664938   -3.1268894 -0.017951468   -3.7664938   0.63960441   439061 
 1257000   0.42637387   -3.7668561   -3.7668561   -3.1272967 -0.017216531   -3.7668561   0.63955935   439061 
 1258000   0.42670051   -3.7679663   -3.7679663    -3.127917 -0.019791032   -3.7679663   0.64004931   439061 
 1259000   0.42603409   -3.7682438   -3.7682438   -3.1291941  -0.01940172   -3.7682438   0.63904969   439061 
 1260000   0.42570614   -3.7680637   -3.7680637    -3.129506 -0.019862099   -3.7680637   0.63855775   439061 
 1261000   0.42579211   -3.7687409   -3.7687409   -3.1300542 -0.021290536   -3.7687409   0.63868671   439061 
 1262000   0.42571541   -3.7698256   -3.7698256   -3.1312539 -0.023993692   -3.7698256   0.63857166   439061 
 1263000   0.42598227   -3.7711895   -3.7711895   -3.1322175 -0.022990496   -3.7711895   0.63897196   439061 
 1264000   0.42579933   -3.7713883   -3.7713883   -3.1326908 -0.021304451   -3.7713883   0.63869754   439061 
 1265000   0.42606421   -3.7729085   -3.7729085   -3.1338136 -0.020197377   -3.7729085   0.63909486   439061 
 1266000   0.42576581   -3.7730848   -3.7730848   -3.1344375   -0.0179586   -3.7730848   0.63864726   439061 
 1267000   0.42543458   -3.7739935   -3.7739935   -3.1358431 -0.020482157   -3.7739935   0.63815041   439061 
 1268000   0.42559712   -3.7749182   -3.7749182    -3.136524 -0.021261663   -3.7749182   0.63839423   439061 
 1269000   0.42522211   -3.7742146   -3.7742146   -3.1363829 -0.019669999   -3.7742146   0.63783172   439061 
 1270000   0.42503291   -3.7741017   -3.7741017   -3.1365538 -0.021657579   -3.7741017   0.63754791   439061 
 1271000   0.42529169    -3.775402    -3.775402   -3.1374659 -0.024037453    -3.775402   0.63793609   439061 
 1272000    0.4254791   -3.7759555   -3.7759555   -3.1377383 -0.022882237   -3.7759555    0.6382172   439061 
 1273000   0.42490928   -3.7759724   -3.7759724     -3.13861 -0.022941405   -3.7759724   0.63736247   439061 
 1274000   0.42620924   -3.7778744   -3.7778744    -3.138562 -0.023759553   -3.7778744   0.63931241   439061 
 1275000   0.42526828   -3.7775897   -3.7775897   -3.1396888 -0.021209065   -3.7775897   0.63790097   439061 
 1276000     0.425086   -3.7783983   -3.7783983   -3.1407708  -0.02082193   -3.7783983   0.63762754   439061 
 1277000   0.42553517   -3.7794631   -3.7794631   -3.1411618 -0.024385369   -3.7794631    0.6383013   439061 
 1278000   0.42531888   -3.7799037   -3.7799037   -3.1419268 -0.022523856   -3.7799037   0.63797687   439061 
 1279000   0.42458695   -3.7787745   -3.7787745   -3.1418956 -0.021431552   -3.7787745   0.63687898   439061 
 1280000   0.42510962   -3.7802847   -3.7802847   -3.1426217 -0.023565594   -3.7802847   0.63766298   439061 
 1281000    0.4249294   -3.7808085   -3.7808085   -3.1434159  -0.02421109   -3.7808085   0.63739265   439061 
 1282000   0.42530952   -3.7820156   -3.7820156   -3.1440527  -0.02393983   -3.7820156   0.63796283   439061 
 1283000   0.42501028   -3.7825462   -3.7825462   -3.1450323 -0.023311216   -3.7825462   0.63751396   439061 
 1284000   0.42383367   -3.7823613   -3.7823613   -3.1466122 -0.020370993   -3.7823613   0.63574906   439061 
 1285000    0.4246474   -3.7846916   -3.7846916    -3.147722 -0.023377694   -3.7846916   0.63696965   439061 
 1286000   0.42466115   -3.7847797   -3.7847797   -3.1477894 -0.019367663   -3.7847797   0.63699028   439061 
 1287000    0.4247906    -3.785843    -3.785843   -3.1486586 -0.023611326    -3.785843   0.63718445   439061 
 1288000   0.42429775   -3.7854235   -3.7854235   -3.1489784 -0.022886785   -3.7854235   0.63644518   439061 
 1289000   0.42439386   -3.7861658   -3.7861658   -3.1495765  -0.02516836   -3.7861658   0.63658933   439061 
 1290000   0.42440166   -3.7857771   -3.7857771    -3.149176 -0.021368468   -3.7857771   0.63660105   439061 
 1291000   0.42375472   -3.7862588   -3.7862588   -3.1506282 -0.023154805   -3.7862588   0.63563063   439061 
 1292000   0.42447989   -3.7876715   -3.7876715   -3.1509531  -0.02228272   -3.7876715   0.63671838   439061 
 1293000    0.4249082   -3.7889767   -3.7889767   -3.1516158 -0.023620042   -3.7889767   0.63736085   439061 
 1294000   0.42342316   -3.7872388   -3.7872388   -3.1521055 -0.018807887   -3.7872388   0.63513329   439061 
 1295000   0.42453436   -3.7893161   -3.7893161   -3.1525161 -0.022237277   -3.7893161   0.63680009   439061 
 1296000   0.42409925   -3.7899377   -3.7899377   -3.1537903 -0.022830724   -3.7899377   0.63614742   439061 
 1297000   0.42335622   -3.7891067   -3.7891067   -3.1540738 -0.023346934   -3.7891067   0.63503288   439061 
 1298000   0.42364364   -3.7898764   -3.7898764   -3.1544124 -0.023056368   -3.7898764   0.63546402   439061 
 1299000   0.42436064   -3.7917571   -3.7917571   -3.1552176 -0.023070244   -3.7917571   0.63653951   439061 
 1300000     0.423609   -3.7913455   -3.7913455   -3.1559334 -0.019842769   -3.7913455   0.63541205   439061 
 1301000   0.42394668   -3.7932079   -3.7932079   -3.1572893 -0.022847908   -3.7932079   0.63591858   439061 
 1302000   0.42367024    -3.793185    -3.793185   -3.1576811 -0.022381788    -3.793185   0.63550391   439061 
 1303000   0.42364164   -3.7940098   -3.7940098   -3.1585488 -0.020398803   -3.7940098   0.63546101   439061 
 1304000   0.42372105   -3.7951622   -3.7951622   -3.1595821 -0.023781967   -3.7951622   0.63558012   439061 
 1305000   0.42351384   -3.7952247   -3.7952247   -3.1599554 -0.025748861   -3.7952247   0.63526932   439061 
 1306000   0.42293606   -3.7950952   -3.7950952   -3.1606926 -0.025393336   -3.7950952   0.63440265   439061 
 1307000   0.42321504   -3.7963833   -3.7963833   -3.1615622 -0.025747639   -3.7963833   0.63482112   439061 
 1308000   0.42284919   -3.7969978   -3.7969978   -3.1627254 -0.024605293   -3.7969978   0.63427234   439061 
 1309000   0.42338654   -3.7986217   -3.7986217   -3.1635433 -0.022753016   -3.7986217   0.63507837   439061 
 1310000   0.42328878   -3.7982166   -3.7982166   -3.1632849 -0.021981922   -3.7982166   0.63493172   439061 
 1311000   0.42370008   -3.7998649   -3.7998649   -3.1643163 -0.023494258   -3.7998649   0.63554867   439061 
 1312000   0.42319961   -3.7992573   -3.7992573   -3.1644593 -0.023571099   -3.7992573   0.63479796   439061 
 1313000   0.42288815   -3.7997776   -3.7997776   -3.1654468 -0.023484389   -3.7997776   0.63433077   439061 
 1314000   0.42193001   -3.7989259   -3.7989259   -3.1660323 -0.025402793   -3.7989259   0.63289358   439061 
 1315000   0.42260314   -3.8009829   -3.8009829   -3.1670796 -0.025965885   -3.8009829   0.63390327   439061 
 1316000   0.42316803   -3.8022163   -3.8022163   -3.1674657 -0.025935964   -3.8022163    0.6347506   439061 
 1317000   0.42189731   -3.8018398   -3.8018398   -3.1689953 -0.023167202   -3.8018398   0.63284453   439061 
 1318000   0.42252985   -3.8033479   -3.8033479   -3.1695546 -0.021357913   -3.8033479   0.63379333   439061 
 1319000   0.42290888   -3.8043986   -3.8043986   -3.1700368 -0.022717276   -3.8043986   0.63436188   439061 
 1320000   0.42274956   -3.8043103   -3.8043103   -3.1701874 -0.021334034   -3.8043103    0.6341229   439061 
 1321000   0.42278769   -3.8046603   -3.8046603   -3.1704802 -0.023524514   -3.8046603    0.6341801   439061 
 1322000   0.42259028     -3.80507     -3.80507    -3.171186 -0.024872654     -3.80507   0.63388398   439061 
 1323000   0.42239147   -3.8050348   -3.8050348   -3.1714491 -0.023849844   -3.8050348   0.63358576   439061 
 1324000   0.42231809    -3.805504    -3.805504   -3.1720283 -0.027405805    -3.805504    0.6334757   439061 
 1325000   0.42274514   -3.8069008   -3.8069008   -3.1727846 -0.025224831   -3.8069008   0.63411626   439061 
 1326000   0.42319965   -3.8075668   -3.8075668   -3.1727688 -0.022707119   -3.8075668   0.63479802   439061 
 1327000   0.42262092   -3.8072472   -3.8072472   -3.1733173 -0.021965487   -3.8072472   0.63392994   439061 
 1328000   0.42239748   -3.8082579   -3.8082579   -3.1746631 -0.021542866   -3.8082579   0.63359477   439061 
 1329000   0.42203274   -3.8082763   -3.8082763   -3.1752286 -0.021943368   -3.8082763   0.63304766   439061 
 1330000    0.4224185   -3.8085012   -3.8085012   -3.1748749 -0.022779251   -3.8085012   0.63362631   439061 
 1331000   0.42155802    -3.808951    -3.808951   -3.1766154 -0.024645045    -3.808951   0.63233559   439061 
 1332000   0.42201205   -3.8097334   -3.8097334   -3.1767168 -0.027876883   -3.8097334   0.63301664   439061 
 1333000   0.42272637   -3.8108911   -3.8108911    -3.176803 -0.025684084   -3.8108911   0.63408811   439061 
 1334000   0.42266215   -3.8113837   -3.8113837    -3.177392 -0.023526195   -3.8113837   0.63399179   439061 
 1335000   0.42231753   -3.8118417   -3.8118417   -3.1783669 -0.023598207   -3.8118417   0.63347485   439061 
 1336000   0.42254284   -3.8133905   -3.8133905   -3.1795777 -0.025400606   -3.8133905   0.63381282   439061 
 1337000    0.4222168   -3.8135512   -3.8135512   -3.1802274 -0.022836084   -3.8135512   0.63332376   439061 
 1338000   0.42220997   -3.8137318   -3.8137318   -3.1804183 -0.023705103   -3.8137318   0.63331351   439061 
 1339000   0.42191822   -3.8138317   -3.8138317   -3.1809558 -0.023342399   -3.8138317   0.63287589   439061 
 1340000   0.42254001   -3.8148418   -3.8148418   -3.1810332 -0.025293487   -3.8148418   0.63380857   439061 
 1341000   0.42241368   -3.8156294   -3.8156294   -3.1820103 -0.026498752   -3.8156294   0.63361908   439061 
 1342000   0.42197834   -3.8159799   -3.8159799   -3.1830139 -0.026544518   -3.8159799   0.63296607   439061 
 1343000   0.42138404   -3.8160388   -3.8160388   -3.1839642  -0.02757479   -3.8160388   0.63207463   439061 
 1344000   0.42210981   -3.8166542   -3.8166542    -3.183491  -0.02451497   -3.8166542   0.63316327   439061 
 1345000   0.42244426   -3.8175821   -3.8175821   -3.1839172 -0.023387684   -3.8175821   0.63366494   439061 
 1346000   0.42278461   -3.8193647   -3.8193647   -3.1851892 -0.027278107   -3.8193647   0.63417548   439061 
 1347000   0.42207332   -3.8187839   -3.8187839   -3.1856754 -0.025146336   -3.8187839   0.63310854   439061 
 1348000   0.42172623   -3.8191663   -3.8191663   -3.1865784  -0.02328425   -3.8191663    0.6325879   439061 
 1349000   0.42234768   -3.8205883   -3.8205883   -3.1870682 -0.023897796   -3.8205883   0.63352008   439061 
 1350000   0.42194499   -3.8211642   -3.8211642   -3.1882481 -0.027030851   -3.8211642   0.63291604   439061 
 1351000   0.42190798   -3.8219658   -3.8219658   -3.1891053 -0.026782145   -3.8219658   0.63286053   439061 
 1352000   0.42190359   -3.8227152   -3.8227152   -3.1898613 -0.025489134   -3.8227152   0.63285394   439061 
 1353000   0.42202071   -3.8227618   -3.8227618   -3.1897321  -0.02457245   -3.8227618   0.63302962   439061 
 1354000   0.42190793   -3.8228463   -3.8228463   -3.1899859 -0.023822624   -3.8228463   0.63286045   439061 
 1355000   0.42164724   -3.8230057   -3.8230057   -3.1905362 -0.023971263   -3.8230057   0.63246941   439061 
 1356000   0.42199624   -3.8243868   -3.8243868   -3.1913939 -0.027198148   -3.8243868   0.63299291   439061 
 1357000   0.42179731   -3.8244092   -3.8244092   -3.1917147 -0.025922041   -3.8244092   0.63269452   439061 
 1358000    0.4216118   -3.8247519   -3.8247519   -3.1923357 -0.025761322   -3.8247519   0.63241625   439061 
 1359000   0.42209284   -3.8261016   -3.8261016   -3.1929638  -0.02496902   -3.8261016   0.63313781   439061 
 1360000   0.42201527   -3.8262603   -3.8262603   -3.1932388  -0.02469858   -3.8262603   0.63302147   439061 
 1361000   0.42125731   -3.8263082   -3.8263082   -3.1944237 -0.024561014   -3.8263082   0.63188452   439061 
 1362000   0.42172356   -3.8273929   -3.8273929    -3.194809 -0.026746792   -3.8273929    0.6325839   439061 
 1363000   0.42214926    -3.828488    -3.828488   -3.1952655 -0.024887828    -3.828488   0.63322245   439061 
 1364000   0.42177299   -3.8285204   -3.8285204   -3.1958624 -0.025917093   -3.8285204   0.63265805   439061 
 1365000   0.42241115   -3.8297031   -3.8297031   -3.1960878 -0.027315391   -3.8297031   0.63361528   439061 
 1366000   0.42186356    -3.830302    -3.830302   -3.1975081 -0.026068327    -3.830302    0.6327939   439061 
 1367000   0.42114605   -3.8292845   -3.8292845   -3.1975668  -0.02303864   -3.8292845   0.63171764   439061 
 1368000   0.42106884   -3.8307222   -3.8307222   -3.1991204 -0.025635019   -3.8307222   0.63160182   439061 
 1369000   0.42137204   -3.8317401   -3.8317401   -3.1996835 -0.027111784   -3.8317401   0.63205663   439061 
 1370000   0.42126146   -3.8316377   -3.8316377    -3.199747 -0.024892179   -3.8316377   0.63189074   439061 
 1371000   0.42197532   -3.8326941   -3.8326941   -3.1997326 -0.028597496   -3.8326941   0.63296154   439061 
 1372000   0.42124524   -3.8324094   -3.8324094    -3.200543 -0.024938359   -3.8324094   0.63186643   439061 
 1373000   0.42152756   -3.8333658   -3.8333658   -3.2010759 -0.026073994   -3.8333658    0.6322899   439061 
 1374000   0.42127962   -3.8334859   -3.8334859   -3.2015679 -0.026429613   -3.8334859   0.63191799   439061 
 1375000   0.42168216   -3.8345306   -3.8345306   -3.2020088  -0.02609917   -3.8345306    0.6325218   439061 
 1376000   0.42153701     -3.83468     -3.83468   -3.2023759 -0.027617291     -3.83468   0.63230407   439061 
 1377000   0.42191126   -3.8350459   -3.8350459   -3.2021804 -0.025734334   -3.8350459   0.63286545   439061 
 1378000    0.4219987   -3.8354045   -3.8354045   -3.2024079 -0.026292417   -3.8354045   0.63299661   439061 
 1379000   0.42046083   -3.8345797   -3.8345797   -3.2038899 -0.025781701   -3.8345797    0.6306898   439061 
 1380000   0.42077257   -3.8353442   -3.8353442   -3.2041868 -0.025769918   -3.8353442   0.63115742   439061 
 1381000   0.42117869   -3.8372471   -3.8372471   -3.2054805 -0.027585973   -3.8372471    0.6317666   439061 
 1382000   0.42138094   -3.8387758   -3.8387758   -3.2067058 -0.028220783   -3.8387758   0.63206997   439061 
 1383000   0.42113595   -3.8388394   -3.8388394   -3.2071369 -0.024979918   -3.8388394   0.63170248   439061 
 1384000   0.42105693   -3.8398608   -3.8398608   -3.2082768 -0.024249606   -3.8398608   0.63158396   439061 
 1385000   0.42210834   -3.8408682   -3.8408682   -3.2077071 -0.026088718   -3.8408682   0.63316106   439061 
 1386000   0.42196464   -3.8417999   -3.8417999   -3.2088544 -0.027836703   -3.8417999   0.63294551   439061 
 1387000   0.42137658    -3.841732    -3.841732   -3.2096686 -0.028863241    -3.841732   0.63206344   439061 
 1388000   0.42094346   -3.8415307   -3.8415307   -3.2101169 -0.025670076   -3.8415307   0.63141375   439061 
 1389000    0.4208346   -3.8418585   -3.8418585   -3.2106081 -0.026986061   -3.8418585   0.63125046   439061 
 1390000   0.42060891   -3.8419019   -3.8419019     -3.21099 -0.026541239   -3.8419019   0.63091193   439061 
 1391000   0.42120162   -3.8429254   -3.8429254   -3.2111244  -0.02721341   -3.8429254   0.63180099   439061 
 1392000   0.42089542   -3.8426493   -3.8426493   -3.2113076 -0.025026276   -3.8426493   0.63134169   439061 
 1393000   0.42054705   -3.8438533   -3.8438533   -3.2130342 -0.025306798   -3.8438533   0.63081914   439061 
 1394000   0.41988205   -3.8437069   -3.8437069   -3.2138853 -0.027555756   -3.8437069   0.62982165   439061 
 1395000   0.42061677   -3.8458134   -3.8458134   -3.2148896 -0.030698727   -3.8458134   0.63092372   439061 
 1396000   0.42069112   -3.8460362   -3.8460362    -3.215001 -0.029381318   -3.8460362   0.63103524   439061 
 1397000   0.41980698   -3.8448336   -3.8448336   -3.2151245 -0.023372458   -3.8448336   0.62970904   439061 
 1398000   0.42112494   -3.8471796   -3.8471796   -3.2154936 -0.027387997   -3.8471796   0.63168597   439061 
 1399000   0.42120566   -3.8476707   -3.8476707   -3.2158637 -0.027315997   -3.8476707   0.63180704   439061 
 1400000    0.4215439   -3.8484137   -3.8484137   -3.2160993 -0.028396554   -3.8484137   0.63231441   439061 
 1401000   0.42154513   -3.8484197   -3.8484197   -3.2161035 -0.025829106   -3.8484197   0.63231626   439061 
 1402000   0.42134899   -3.8484772   -3.8484772   -3.2164551 -0.028530266   -3.8484772   0.63202205   439061 
 1403000   0.42054634   -3.8477453   -3.8477453   -3.2169272 -0.027153747   -3.8477453   0.63081808   439061 
 1404000   0.42088659   -3.8494292   -3.8494292   -3.2181008 -0.030091797   -3.8494292   0.63132845   439061 
 1405000   0.42079133   -3.8496159   -3.8496159   -3.2184303 -0.027199073   -3.8496159   0.63118556   439061 
 1406000    0.4209739   -3.8507275   -3.8507275    -3.219268 -0.025256045   -3.8507275   0.63145942   439061 
 1407000   0.42045206   -3.8506865   -3.8506865   -3.2200099  -0.02464576   -3.8506865   0.63067666   439061 
 1408000   0.42114236   -3.8526902   -3.8526902   -3.2209781 -0.029116677   -3.8526902    0.6317121   439061 
 1409000   0.42147059   -3.8533257   -3.8533257   -3.2211212 -0.025647074   -3.8533257   0.63220444   439061 
 1410000    0.4207684   -3.8523865   -3.8523865   -3.2212353 -0.026820916   -3.8523865   0.63115116   439061 
 1411000   0.42035747   -3.8524349   -3.8524349   -3.2219001 -0.025808292   -3.8524349   0.63053476   439061 
 1412000   0.42040357   -3.8532751   -3.8532751   -3.2226712 -0.027978414   -3.8532751   0.63060391   439061 
 1413000   0.42029165   -3.8534293   -3.8534293   -3.2229933 -0.027161878   -3.8534293   0.63043604   439061 
 1414000   0.42094236   -3.8551829   -3.8551829   -3.2237708 -0.029482021   -3.8551829    0.6314121   439061 
 1415000   0.42114258   -3.8555633   -3.8555633   -3.2238508  -0.02552689   -3.8555633   0.63171244   439061 
 1416000     0.419999   -3.8547342   -3.8547342   -3.2247371 -0.024039625   -3.8547342   0.62999706   439061 
 1417000   0.42072211   -3.8570818   -3.8570818   -3.2260001 -0.028769473   -3.8570818   0.63108173   439061 
 1418000   0.42046688   -3.8567663   -3.8567663   -3.2260674 -0.026533961   -3.8567663   0.63069889   439061 
 1419000   0.42086555   -3.8577527   -3.8577527   -3.2264558 -0.028465272   -3.8577527   0.63129689   439061 
 1420000   0.42064222   -3.8571218   -3.8571218   -3.2261599 -0.023914148   -3.8571218   0.63096189   439061 
 1421000   0.42017454   -3.8575464   -3.8575464   -3.2272861 -0.027865603   -3.8575464   0.63026038   439061 
 1422000   0.42034062   -3.8589435   -3.8589435    -3.228434  -0.02763637   -3.8589435   0.63050949   439061 
 1423000   0.41971798   -3.8584295   -3.8584295   -3.2288539 -0.025513975   -3.8584295   0.62957554   439061 
 1424000   0.42093184   -3.8607727   -3.8607727   -3.2293764 -0.028619537   -3.8607727   0.63139632   439061 
 1425000    0.4203095   -3.8615476   -3.8615476   -3.2310848 -0.027951928   -3.8615476   0.63046281   439061 
 1426000    0.4196298   -3.8604138   -3.8604138   -3.2309706 -0.023457153   -3.8604138   0.62944327   439061 
 1427000   0.42065633   -3.8624269   -3.8624269   -3.2314438 -0.025869495   -3.8624269   0.63098305   439061 
 1428000   0.42010028   -3.8621956   -3.8621956   -3.2320466 -0.025573252   -3.8621956   0.63014898   439061 
 1429000   0.42030062     -3.86298     -3.86298   -3.2325305 -0.026742542     -3.86298   0.63044949   439061 
 1430000    0.4195945   -3.8632465   -3.8632465   -3.2338562 -0.028199853   -3.8632465   0.62939032   439061 
 1431000   0.42020886   -3.8635837   -3.8635837   -3.2332718 -0.026386476   -3.8635837   0.63031185   439061 
 1432000   0.42073195   -3.8644874   -3.8644874   -3.2333909 -0.029790534   -3.8644874   0.63109649   439061 
 1433000   0.42064245   -3.8652223   -3.8652223   -3.2342601 -0.028194863   -3.8652223   0.63096223   439061 
 1434000   0.42074858   -3.8657336   -3.8657336   -3.2346121 -0.027880368   -3.8657336   0.63112143   439061 
 1435000   0.42157396   -3.8674368   -3.8674368   -3.2350773 -0.025930058   -3.8674368    0.6323595   439061 
 1436000   0.42055222   -3.8671491   -3.8671491   -3.2363222 -0.024055689   -3.8671491   0.63082689   439061 
 1437000   0.42137243   -3.8682384   -3.8682384   -3.2361812 -0.024692771   -3.8682384   0.63205721   439061 
 1438000   0.42100353    -3.868538    -3.868538   -3.2370341 -0.023828281    -3.868538   0.63150385   439061 
 1439000   0.42068499   -3.8682846   -3.8682846   -3.2372585  -0.02417216   -3.8682846   0.63102605   439061 
 1440000   0.42043729   -3.8690458   -3.8690458   -3.2383913 -0.025328227   -3.8690458    0.6306545   439061 
 1441000   0.42115758   -3.8706932   -3.8706932   -3.2389583 -0.028899368   -3.8706932   0.63173493   439061 
 1442000   0.41987994   -3.8700633   -3.8700633   -3.2402449 -0.029745583   -3.8700633   0.62981848   439061 
 1443000   0.42114515   -3.8720379   -3.8720379   -3.2403216 -0.027463734   -3.8720379   0.63171629   439061 
 1444000   0.42037518   -3.8712531   -3.8712531   -3.2406917 -0.020852106   -3.8712531   0.63056134   439061 
 1445000   0.42098512   -3.8727456   -3.8727456   -3.2412693 -0.026120603   -3.8727456   0.63147625   439061 
 1446000   0.42019002   -3.8724761   -3.8724761   -3.2421925 -0.025629053   -3.8724761    0.6302836   439061 
 1447000   0.42152891   -3.8748672   -3.8748672   -3.2425753 -0.027060974   -3.8748672   0.63229192   439061 
 1448000    0.4213699   -3.8745027   -3.8745027   -3.2424493 -0.026462482   -3.8745027   0.63205342   439061 
 1449000   0.42131338   -3.8750436   -3.8750436   -3.2430749 -0.029667008   -3.8750436   0.63196863   439061 
 1450000   0.42050312   -3.8743972   -3.8743972    -3.243644 -0.027110953   -3.8743972   0.63075324   439061 
 1451000   0.42106404   -3.8761521   -3.8761521   -3.2445574 -0.025561322   -3.8761521   0.63159462   439061 
 1452000    0.4208938   -3.8768189   -3.8768189   -3.2454796 -0.026213714   -3.8768189   0.63133926   439061 
 1453000   0.42152904   -3.8779847   -3.8779847   -3.2456926  -0.02592697   -3.8779847   0.63229212   439061 
 1454000   0.42087466    -3.878011    -3.878011   -3.2467004 -0.022450954    -3.878011   0.63131055   439061 
 1455000   0.42133944   -3.8780162   -3.8780162   -3.2460085  -0.02339033   -3.8780162   0.63200772   439061 
 1456000   0.42108127   -3.8784386   -3.8784386   -3.2468181 -0.028597958   -3.8784386   0.63162047   439061 
 1457000   0.42034016   -3.8784669   -3.8784669   -3.2479581 -0.027695112   -3.8784669   0.63050881   439061 
 1458000   0.42034357   -3.8790338   -3.8790338   -3.2485198 -0.030472323   -3.8790338   0.63051393   439061 
 1459000   0.41967973   -3.8787809   -3.8787809   -3.2492627 -0.028982314   -3.8787809   0.62951816   439061 
 1460000   0.42050488   -3.8812291   -3.8812291   -3.2504732 -0.029864989   -3.8812291   0.63075589   439061 
 1461000   0.42111769   -3.8822707   -3.8822707   -3.2505956 -0.025974852   -3.8822707   0.63167509   439061 
 1462000     0.421063   -3.8830312   -3.8830312   -3.2514382 -0.026607471   -3.8830312   0.63159306   439061 
 1463000   0.42029663   -3.8823817   -3.8823817   -3.2519382 -0.025210527   -3.8823817   0.63044351   439061 
 1464000   0.42076466   -3.8830853   -3.8830853   -3.2519398 -0.024410245   -3.8830853   0.63114556   439061 
 1465000   0.42094234   -3.8840867   -3.8840867   -3.2526746 -0.027947133   -3.8840867   0.63141208   439061 
 1466000   0.42070784   -3.8833426   -3.8833426   -3.2522823 -0.027248197   -3.8833426   0.63106032   439061 
 1467000   0.42041874   -3.8836479   -3.8836479   -3.2530212 -0.029242836   -3.8836479   0.63062667   439061 
 1468000   0.42079984   -3.8845807   -3.8845807   -3.2533824 -0.028559607   -3.8845807   0.63119832   439061 
 1469000   0.42089043   -3.8852185   -3.8852185   -3.2538843 -0.029053193   -3.8852185   0.63133421   439061 
 1470000   0.42041337   -3.8856496   -3.8856496    -3.255031 -0.027615677   -3.8856496   0.63061862   439061 
 1471000    0.4206227     -3.88643     -3.88643   -3.2554974 -0.024643043     -3.88643   0.63093261   439061 
 1472000   0.42125705   -3.8876937   -3.8876937   -3.2558095 -0.025635512   -3.8876937   0.63188413   439061 
 1473000   0.42090663    -3.888332    -3.888332   -3.2569735 -0.028973825    -3.888332   0.63135851   439061 
 1474000   0.42027787   -3.8879188   -3.8879188   -3.2575034 -0.026624227   -3.8879188   0.63041537   439061 
 1475000   0.41999265   -3.8882995   -3.8882995    -3.258312 -0.029444955   -3.8882995   0.62998754   439061 
 1476000   0.41995858   -3.8887011   -3.8887011   -3.2587646 -0.029190698   -3.8887011   0.62993644   439061 
 1477000   0.42061679   -3.8904577   -3.8904577   -3.2595339 -0.028546305   -3.8904577   0.63092375   439061 
 1478000   0.42021725     -3.88992     -3.88992   -3.2595956 -0.025345338     -3.88992   0.63032444   439061 
 1479000    0.4203118   -3.8900327   -3.8900327   -3.2595665 -0.026356051   -3.8900327   0.63046626   439061 
 1480000   0.42004859   -3.8915819   -3.8915819   -3.2615104 -0.029083753   -3.8915819   0.63007145   439061 
 1481000   0.42024249   -3.8919499   -3.8919499   -3.2615876 -0.029669657   -3.8919499    0.6303623   439061 
 1482000   0.41981665   -3.8924208   -3.8924208   -3.2626973 -0.029371285   -3.8924208   0.62972354   439061 
 1483000   0.41973996   -3.8927417   -3.8927417   -3.2631332 -0.028603262   -3.8927417    0.6296085   439061 
 1484000   0.42021947   -3.8933193   -3.8933193   -3.2629915 -0.026264876   -3.8933193   0.63032777   439061 
 1485000   0.42057424   -3.8945398   -3.8945398   -3.2636799 -0.027443248   -3.8945398   0.63085993   439061 
 1486000   0.41994363   -3.8934277   -3.8934277   -3.2635137 -0.025485102   -3.8934277   0.62991401   439061 
 1487000   0.42005875   -3.8947334   -3.8947334   -3.2646467 -0.026904844   -3.8947334    0.6300867   439061 
 1488000   0.41941182   -3.8948743   -3.8948743    -3.265758 -0.029239869   -3.8948743   0.62911629   439061 
 1489000   0.41960276   -3.8953731   -3.8953731   -3.2659704 -0.030426878   -3.8953731    0.6294027   439061 
 1490000   0.42014948   -3.8965384   -3.8965384   -3.2663156 -0.029747896   -3.8965384   0.63022278   439061 
 1491000   0.41996894   -3.8974033   -3.8974033   -3.2674514 -0.029710089   -3.8974033   0.62995197   439061 
 1492000   0.41972421   -3.8974097   -3.8974097   -3.2678248 -0.030955723   -3.8974097   0.62958488   439061 
 1493000   0.41947995   -3.8973974   -3.8973974   -3.2681789 -0.025623424   -3.8973974   0.62921849   439061 
 1494000   0.42037583   -3.8994799   -3.8994799   -3.2689176  -0.02547678   -3.8994799   0.63056231   439061 
 1495000   0.42069789   -3.9003237   -3.9003237   -3.2692783 -0.026228426   -3.9003237    0.6310454   439061 
 1496000   0.41956635   -3.8985944   -3.8985944   -3.2692463 -0.025016177   -3.8985944    0.6293481   439061 
 1497000   0.41977547   -3.8987179   -3.8987179   -3.2690561 -0.026774894   -3.8987179   0.62966177   439061 
 1498000   0.42075634   -3.8998728   -3.8998728   -3.2687397 -0.028417349   -3.8998728   0.63113308   439061 
 1499000   0.41985589      -3.9002      -3.9002   -3.2704176 -0.030248429      -3.9002    0.6297824   439061 
 1500000   0.42036106    -3.901978    -3.901978   -3.2714379 -0.031811535    -3.901978   0.63054015   439061 
 1501000   0.41950064    -3.901542    -3.901542   -3.2722925 -0.026737476    -3.901542   0.62924953   439061 
 1502000   0.41910819   -3.9020393   -3.9020393   -3.2733785 -0.024498124   -3.9020393   0.62866086   439061 
 1503000   0.42011262   -3.9038854   -3.9038854   -3.2737179 -0.025447007   -3.9038854   0.63016749   439061 
 1504000   0.41929025   -3.9034783   -3.9034783   -3.2745444 -0.025966398   -3.9034783   0.62893394   439061 
 1505000   0.41946433   -3.9045635   -3.9045635   -3.2753684 -0.028539891   -3.9045635   0.62919506   439061 
 1506000   0.41961959    -3.904771    -3.904771   -3.2753431 -0.029972692    -3.904771   0.62942794   439061 
 1507000   0.41999558   -3.9052431   -3.9052431   -3.2752512 -0.030905245   -3.9052431   0.62999194   439061 
 1508000   0.41982375    -3.905135    -3.905135   -3.2754008 -0.030653036    -3.905135   0.62973419   439061 
 1509000   0.42027196   -3.9068228   -3.9068228   -3.2764163 -0.031790413   -3.9068228    0.6304065   439061 
 1510000    0.4190446     -3.90533     -3.90533   -3.2767645 -0.028503506     -3.90533   0.62856547   439061 
 1511000   0.41955412    -3.907072    -3.907072   -3.2777422 -0.029554338    -3.907072   0.62932975   439061 
 1512000   0.42037255   -3.9080908   -3.9080908   -3.2775334 -0.026905838   -3.9080908   0.63055739   439061 
 1513000   0.41992687   -3.9083002   -3.9083002   -3.2784113 -0.025183691   -3.9083002   0.62988887   439061 
 1514000    0.4186877   -3.9082914   -3.9082914   -3.2802612 -0.026221757   -3.9082914   0.62803012   439061 
 1515000   0.41887724   -3.9088167   -3.9088167   -3.2805023  -0.02684223   -3.9088167   0.62831443   439061 
 1516000   0.41931206   -3.9106495   -3.9106495   -3.2816828  -0.02998972   -3.9106495   0.62896666   439061 
 1517000   0.41929967   -3.9105139   -3.9105139   -3.2815658 -0.025875704   -3.9105139   0.62894807   439061 
 1518000    0.4194389   -3.9111418   -3.9111418   -3.2819848 -0.028555919   -3.9111418   0.62915692   439061 
 1519000   0.41934065   -3.9104814   -3.9104814   -3.2814718 -0.027600863   -3.9104814   0.62900955   439061 
 1520000   0.41929291   -3.9117306   -3.9117306   -3.2827927 -0.029271731   -3.9117306   0.62893793   439061 
 1521000   0.41876735   -3.9108756   -3.9108756    -3.282726 -0.027332268   -3.9108756    0.6281496   439061 
 1522000    0.4195889   -3.9125051   -3.9125051   -3.2831232 -0.030622544   -3.9125051   0.62938192   439061 
 1523000   0.42043928   -3.9141988   -3.9141988   -3.2835413 -0.029302046   -3.9141988   0.63065748   439061 
 1524000   0.41973322   -3.9132968   -3.9132968   -3.2836984 -0.024677919   -3.9132968    0.6295984   439061 
 1525000   0.41926506    -3.913416    -3.913416   -3.2845198 -0.025374737    -3.913416   0.62889616   439061 
 1526000    0.4199652    -3.914883    -3.914883   -3.2849366 -0.027942475    -3.914883   0.62994636   439061 
 1527000   0.42024078   -3.9161141   -3.9161141   -3.2857544 -0.030708633   -3.9161141   0.63035973   439061 
 1528000   0.41957271   -3.9154649   -3.9154649   -3.2861073 -0.031194512   -3.9154649   0.62935763   439061 
 1529000   0.41917309   -3.9151185   -3.9151185   -3.2863603 -0.030636205   -3.9151185    0.6287582   439061 
 1530000   0.41973947   -3.9165533   -3.9165533   -3.2869455 -0.032175778   -3.9165533   0.62960777   439061 
 1531000    0.4186569   -3.9154914   -3.9154914   -3.2875074  -0.02758635   -3.9154914   0.62798392   439061 
 1532000    0.4196028   -3.9165275   -3.9165275   -3.2871247 -0.022506163   -3.9165275   0.62940276   439061 
 1533000   0.41979203   -3.9173063   -3.9173063   -3.2876197 -0.023989055   -3.9173063   0.62968661   439061 
 1534000    0.4199349   -3.9186198   -3.9186198   -3.2887189 -0.027522285   -3.9186198   0.62990092   439061 
 1535000    0.4194888   -3.9182471   -3.9182471   -3.2890154 -0.024665848   -3.9182471   0.62923177   439061 
 1536000   0.41974569   -3.9199977   -3.9199977   -3.2903806 -0.030451152   -3.9199977    0.6296171   439061 
 1537000   0.41832857   -3.9191904   -3.9191904   -3.2916989 -0.031157205   -3.9191904   0.62749143   439061 
 1538000   0.41892808   -3.9205596   -3.9205596   -3.2921689 -0.031657024   -3.9205596   0.62839069   439061 
 1539000   0.41948575   -3.9220056   -3.9220056   -3.2927784 -0.029420945   -3.9220056   0.62922719   439061 
 1540000   0.42001176   -3.9235879   -3.9235879   -3.2935717 -0.027785329   -3.9235879   0.63001621   439061 
 1541000   0.41907681   -3.9233345   -3.9233345   -3.2947207 -0.026908956   -3.9233345   0.62861379   439061 
 1542000   0.41895779   -3.9237262   -3.9237262    -3.295291 -0.025821134   -3.9237262   0.62843525   439061 
 1543000   0.41932276    -3.924451    -3.924451   -3.2954683 -0.025271741    -3.924451    0.6289827   439061 
 1544000   0.41887317   -3.9239586   -3.9239586   -3.2956503 -0.029274706   -3.9239586   0.62830832   439061 
 1545000   0.41844721   -3.9245036   -3.9245036   -3.2968342 -0.034190372   -3.9245036   0.62766938   439061 
 1546000   0.41877244      -3.9248      -3.9248   -3.2966428  -0.03040456      -3.9248   0.62815723   439061 
 1547000   0.41887708   -3.9256124   -3.9256124   -3.2972982 -0.027498423   -3.9256124   0.62831419   439061 
 1548000   0.41953003   -3.9269583   -3.9269583   -3.2976647 -0.029488575   -3.9269583   0.62929361   439061 
 1549000   0.41911078    -3.926983    -3.926983   -3.2983183 -0.026854853    -3.926983   0.62866474   439061 
 1550000   0.41915386   -3.9279858   -3.9279858   -3.2992564 -0.027830044   -3.9279858   0.62872936   439061 
 1551000   0.41898779   -3.9280408   -3.9280408   -3.2995605 -0.030334177   -3.9280408   0.62848026   439061 
 1552000   0.41888903   -3.9276325   -3.9276325   -3.2993003 -0.026923992   -3.9276325   0.62833212   439061 
 1553000   0.42011506    -3.929479    -3.929479   -3.2993078 -0.030515994    -3.929479   0.63017116   439061 
 1554000   0.41995947   -3.9289284   -3.9289284   -3.2989906 -0.029386962   -3.9289284   0.62993777   439061 
 1555000   0.41957819   -3.9285111   -3.9285111   -3.2991452 -0.026764497   -3.9285111   0.62936585   439061 
 1556000   0.41982303   -3.9296087   -3.9296087   -3.2998756 -0.029191384   -3.9296087   0.62973311   439061 
 1557000   0.41961097   -3.9310334   -3.9310334   -3.3016184   -0.0302586   -3.9310334   0.62941501   439061 
 1558000   0.41927003   -3.9308151   -3.9308151   -3.3019115  -0.02723426   -3.9308151   0.62890361   439061 
 1559000   0.41938006   -3.9317931   -3.9317931   -3.3027244 -0.028246386   -3.9317931   0.62906865   439061 
 1560000   0.41927143   -3.9325757   -3.9325757     -3.30367 -0.025772783   -3.9325757   0.62890571   439061 
 1561000   0.42018036   -3.9340413   -3.9340413   -3.3037722 -0.028847166   -3.9340413   0.63026911   439061 
 1562000   0.41942235   -3.9333444   -3.9333444   -3.3042124 -0.028460096   -3.9333444   0.62913209   439061 
 1563000   0.41924594   -3.9337215   -3.9337215   -3.3048541 -0.030190214   -3.9337215   0.62886748   439061 
 1564000    0.4194502   -3.9334258   -3.9334258   -3.3042519  -0.03050036   -3.9334258   0.62917386   439061 
 1565000   0.41795053   -3.9326671   -3.9326671   -3.3057428 -0.027727667   -3.9326671   0.62692437   439061 
 1566000   0.41891766   -3.9348279   -3.9348279   -3.3064528 -0.029909763   -3.9348279   0.62837506   439061 
 1567000   0.41857242   -3.9351057   -3.9351057   -3.3072485 -0.030126773   -3.9351057   0.62785721   439061 
 1568000     0.419006   -3.9366972   -3.9366972   -3.3081896 -0.028204716   -3.9366972   0.62850757   439061 
 1569000   0.41903943   -3.9372961   -3.9372961   -3.3087383 -0.027961639   -3.9372961   0.62855772   439061 
 1570000   0.41953105   -3.9382211   -3.9382211   -3.3089259 -0.029770001   -3.9382211   0.62929514   439061 
 1571000   0.41907718   -3.9379536   -3.9379536   -3.3093393 -0.025908059   -3.9379536   0.62861434   439061 
 1572000   0.41917881   -3.9387624   -3.9387624   -3.3099956 -0.029522264   -3.9387624   0.62876679   439061 
 1573000   0.41833636   -3.9376389   -3.9376389   -3.3101358 -0.029843626   -3.9376389   0.62750312   439061 
 1574000   0.41903191   -3.9387679   -3.9387679   -3.3102215 -0.030472739   -3.9387679   0.62854643   439061 
 1575000   0.41885472   -3.9387715   -3.9387715   -3.3104908 -0.029688036   -3.9387715   0.62828065   439061 
 1576000   0.41839498   -3.9391509   -3.9391509   -3.3115598 -0.030133082   -3.9391509   0.62759104   439061 
 1577000   0.41860606   -3.9398598   -3.9398598   -3.3119522 -0.027398884   -3.9398598   0.62790766   439061 
 1578000   0.41896633   -3.9403393   -3.9403393   -3.3118913  -0.02833049   -3.9403393   0.62844807   439061 
 1579000   0.41925967   -3.9416246   -3.9416246   -3.3127365 -0.029045382   -3.9416246   0.62888807   439061 
 1580000   0.41951057    -3.942227    -3.942227   -3.3129626 -0.029933445    -3.942227   0.62926442   439061 
 1581000   0.41868133   -3.9417876   -3.9417876    -3.313767 -0.029425811   -3.9417876   0.62802056   439061 
 1582000   0.41898886   -3.9421081   -3.9421081   -3.3136263 -0.029652118   -3.9421081   0.62848185   439061 
 1583000   0.41901741   -3.9420034   -3.9420034   -3.3134787 -0.026904362   -3.9420034   0.62852468   439061 
 1584000    0.4179056   -3.9418995   -3.9418995   -3.3150425 -0.026856115   -3.9418995   0.62685697   439061 
 1585000    0.4188076   -3.9436468   -3.9436468   -3.3154368 -0.029471461   -3.9436468   0.62820996   439061 
 1586000   0.41904627   -3.9437079   -3.9437079   -3.3151399  -0.02587177   -3.9437079   0.62856797   439061 
 1587000   0.41867367    -3.945299    -3.945299   -3.3172899 -0.029101088    -3.945299   0.62800907   439061 
 1588000   0.41824688   -3.9447376   -3.9447376   -3.3173687 -0.029430487   -3.9447376   0.62736889   439061 
 1589000   0.41922667   -3.9465124   -3.9465124   -3.3176738 -0.031809024   -3.9465124   0.62883858   439061 
 1590000   0.41860738   -3.9457896   -3.9457896   -3.3178799 -0.029062797   -3.9457896   0.62790964   439061 
 1591000    0.4184126   -3.9464867   -3.9464867   -3.3188692 -0.031666137   -3.9464867   0.62761746   439061 
 1592000   0.41775138   -3.9466455   -3.9466455   -3.3200198 -0.031356529   -3.9466455   0.62662565   439061 
 1593000   0.41856131   -3.9474306   -3.9474306   -3.3195901 -0.032354233   -3.9474306   0.62784053   439061 
 1594000   0.41908808   -3.9482007   -3.9482007     -3.31957 -0.031773207   -3.9482007   0.62863069   439061 
 1595000   0.41878723   -3.9487512   -3.9487512   -3.3205718 -0.031150435   -3.9487512   0.62817942   439061 
 1596000   0.41858991   -3.9487305   -3.9487305   -3.3208471 -0.029812399   -3.9487305   0.62788344   439061 
 1597000   0.41860612   -3.9495584   -3.9495584   -3.3216506 -0.031783766   -3.9495584   0.62790775   439061 
 1598000   0.41890223   -3.9499992   -3.9499992   -3.3216473 -0.030772897   -3.9499992   0.62835191   439061 
 1599000   0.41826608   -3.9502368   -3.9502368   -3.3228391   -0.0291935   -3.9502368    0.6273977   439061 
 1600000   0.41861552   -3.9516072   -3.9516072   -3.3236854 -0.034345643   -3.9516072   0.62792185   439061 
 1601000   0.41889868   -3.9522058   -3.9522058   -3.3238592 -0.031429289   -3.9522058   0.62834659   439061 
 1602000   0.41857382   -3.9520667   -3.9520667   -3.3242074 -0.031579008   -3.9520667    0.6278593   439061 
 1603000   0.41876822    -3.952435    -3.952435   -3.3242841  -0.03275565    -3.952435    0.6281509   439061 
 1604000   0.41814118   -3.9520383   -3.9520383    -3.324828 -0.028388282   -3.9520383   0.62721034   439061 
 1605000   0.41811106   -3.9532263   -3.9532263   -3.3260612 -0.029670965   -3.9532263   0.62716516   439061 
 1606000   0.41840696   -3.9540061   -3.9540061   -3.3263971 -0.031650318   -3.9540061   0.62760901   439061 
 1607000   0.41822608   -3.9542725   -3.9542725   -3.3269348  -0.02948749   -3.9542725    0.6273377   439061 
 1608000   0.41847231   -3.9545998   -3.9545998   -3.3268928 -0.029201454   -3.9545998   0.62770704   439061 
 1609000   0.41832797   -3.9553357   -3.9553357   -3.3278452 -0.032653917   -3.9553357   0.62749053   439061 
 1610000   0.41813022   -3.9551262   -3.9551262   -3.3279323 -0.029008458   -3.9551262    0.6271939   439061 
 1611000   0.41831455   -3.9557255   -3.9557255   -3.3282551   -0.0293453   -3.9557255    0.6274704   439061 
 1612000   0.41921677   -3.9579187   -3.9579187   -3.3290949 -0.030256558   -3.9579187   0.62882373   439061 
 1613000   0.41894301   -3.9580546   -3.9580546   -3.3296416 -0.030022353   -3.9580546   0.62841309   439061 
 1614000   0.41808486   -3.9575991   -3.9575991   -3.3304732  -0.03234437   -3.9575991   0.62712586   439061 
 1615000   0.41822415   -3.9586299   -3.9586299   -3.3312951 -0.031173038   -3.9586299    0.6273348   439061 
 1616000   0.41818791   -3.9583733   -3.9583733   -3.3310928   -0.0292118   -3.9583733   0.62728043   439061 
 1617000   0.41851913   -3.9592767   -3.9592767   -3.3314994 -0.030459317   -3.9592767   0.62777727   439061 
 1618000   0.41864043   -3.9597974   -3.9597974   -3.3318382 -0.029397282   -3.9597974   0.62795921   439061 
 1619000   0.41876102   -3.9596884   -3.9596884   -3.3315483 -0.031105472   -3.9596884   0.62814009   439061 
 1620000   0.41847259   -3.9607632   -3.9607632   -3.3330558 -0.031639187   -3.9607632   0.62770745   439061 
 1621000   0.41773897   -3.9596967   -3.9596967   -3.3330897 -0.031502895   -3.9596967   0.62660702   439061 
 1622000   0.41852575   -3.9608391   -3.9608391   -3.3330519 -0.033599977   -3.9608391   0.62778719   439061 
 1623000   0.41813575   -3.9608933   -3.9608933   -3.3336911 -0.030273763   -3.9608933    0.6272022   439061 
 1624000   0.41839294   -3.9624648   -3.9624648   -3.3348768 -0.032489727   -3.9624648   0.62758798   439061 
 1625000   0.41808658   -3.9622063   -3.9622063   -3.3350779 -0.031308707   -3.9622063   0.62712843   439061 
 1626000   0.41840947   -3.9631102   -3.9631102   -3.3354974 -0.027904301   -3.9631102   0.62761278   439061 
 1627000   0.41863644   -3.9641366   -3.9641366   -3.3361834 -0.030892005   -3.9641366   0.62795323   439061 
 1628000   0.41737747   -3.9629374   -3.9629374   -3.3368726  -0.03012599   -3.9629374   0.62606477   439061 
 1629000   0.41768479   -3.9635933   -3.9635933   -3.3370676 -0.031104371   -3.9635933   0.62652575   439061 
 1630000   0.41788306    -3.964363    -3.964363   -3.3375399 -0.032071161    -3.964363   0.62682316   439061 
 1631000   0.41826931   -3.9656992   -3.9656992   -3.3382967 -0.034969922   -3.9656992   0.62740254   439061 
 1632000   0.41794851   -3.9659884   -3.9659884    -3.339067 -0.036095014   -3.9659884   0.62692134   439061 
 1633000   0.41754318   -3.9655605   -3.9655605   -3.3392472 -0.030856521   -3.9655605   0.62631334   439061 
 1634000   0.41736818   -3.9655849   -3.9655849    -3.339534 -0.031539857   -3.9655849   0.62605085   439061 
 1635000   0.41744122   -3.9662174   -3.9662174   -3.3400571 -0.029565937   -3.9662174    0.6261604   439061 
 1636000   0.41719337   -3.9662453   -3.9662453   -3.3404567  -0.02762681   -3.9662453   0.62578863   439061 
 1637000   0.41718514   -3.9667871   -3.9667871   -3.3410108  -0.03270329   -3.9667871   0.62577629   439061 
 1638000   0.41739218   -3.9675557   -3.9675557   -3.3414689 -0.032338852   -3.9675557   0.62608684   439061 
 1639000   0.41728843    -3.967813    -3.967813   -3.3418817 -0.031687797    -3.967813   0.62593122   439061 
 1640000   0.41747167   -3.9682597   -3.9682597   -3.3420536 -0.033702431   -3.9682597   0.62620608   439061 
 1641000   0.41792747   -3.9694071   -3.9694071   -3.3425173 -0.030579507   -3.9694071   0.62688977   439061 
 1642000   0.41856932   -3.9708942   -3.9708942   -3.3430417 -0.033405938   -3.9708942   0.62785254   439061 
 1643000   0.41783441   -3.9698176   -3.9698176   -3.3430674 -0.031159376   -3.9698176   0.62675019   439061 
 1644000    0.4173653   -3.9704137   -3.9704137   -3.3443672 -0.031123111   -3.9704137   0.62604653   439061 
 1645000   0.41752998   -3.9713966   -3.9713966    -3.345103 -0.034809131   -3.9713966   0.62629355   439061 
 1646000   0.41715459   -3.9712114   -3.9712114   -3.3454809  -0.03457337   -3.9712114   0.62573047   439061 
 1647000   0.41623623   -3.9706861   -3.9706861   -3.3463332 -0.029836012   -3.9706861   0.62435293   439061 
 1648000   0.41696383   -3.9721153   -3.9721153   -3.3466709 -0.030632685   -3.9721153   0.62544432   439061 
 1649000   0.41688567   -3.9723723   -3.9723723   -3.3470452 -0.029138022   -3.9723723   0.62532708   439061 
 1650000   0.41650437   -3.9727509   -3.9727509   -3.3479957 -0.031004767   -3.9727509   0.62475514   439061 
 1651000   0.41661092   -3.9736195   -3.9736195   -3.3487045 -0.031451435   -3.9736195   0.62491495   439061 
 1652000   0.41630769   -3.9730267   -3.9730267   -3.3485665 -0.030771334   -3.9730267   0.62446012   439061 
 1653000   0.41754816   -3.9749773   -3.9749773   -3.3486565 -0.036635379   -3.9749773   0.62632081   439061 
 1654000   0.41664465     -3.97409     -3.97409   -3.3491244 -0.034772518     -3.97409   0.62496555   439061 
 1655000   0.41661917    -3.974555    -3.974555   -3.3496276 -0.036288728    -3.974555   0.62492734   439061 
 1656000   0.41781917   -3.9761814   -3.9761814   -3.3494541 -0.035805422   -3.9761814   0.62672732   439061 
 1657000    0.4171001   -3.9744599   -3.9744599   -3.3488112 -0.030076133   -3.9744599   0.62564873   439061 
 1658000   0.41731236   -3.9751137   -3.9751137   -3.3491466 -0.032023639   -3.9751137   0.62596711   439061 
 1659000   0.41690733   -3.9760378   -3.9760378   -3.3506782 -0.033167537   -3.9760378   0.62535957   439061 
 1660000   0.41679769   -3.9766645   -3.9766645   -3.3514694 -0.034649272   -3.9766645    0.6251951   439061 
 1661000   0.41675166   -3.9765077   -3.9765077   -3.3513816 -0.032967551   -3.9765077   0.62512607   439061 
 1662000   0.41676695   -3.9769177   -3.9769177   -3.3517687  -0.03170766   -3.9769177     0.625149   439061 
 1663000   0.41704024   -3.9779325   -3.9779325   -3.3523736 -0.033587164   -3.9779325   0.62555894   439061 
 1664000     0.416948   -3.9782272   -3.9782272   -3.3528066 -0.032896989   -3.9782272   0.62542058   439061 
 1665000   0.41786496   -3.9793526   -3.9793526   -3.3525566 -0.031985542   -3.9793526   0.62679601   439061 
 1666000   0.41755127   -3.9793162   -3.9793162   -3.3529908 -0.032726378   -3.9793162   0.62632547   439061 
 1667000   0.41709158   -3.9799519   -3.9799519    -3.354316 -0.035157178   -3.9799519   0.62563595   439061 
 1668000   0.41672447   -3.9796694   -3.9796694   -3.3545841 -0.032802205   -3.9796694   0.62508529   439061 
 1669000   0.41681505   -3.9802743   -3.9802743   -3.3550531 -0.036331577   -3.9802743   0.62522116   439061 
 1670000   0.41714192   -3.9816068   -3.9816068   -3.3558954 -0.035910052   -3.9816068   0.62571145   439061 
 1671000   0.41718287   -3.9819238   -3.9819238   -3.3561509 -0.035781157   -3.9819238   0.62577288   439061 
 1672000   0.41754288   -3.9826633   -3.9826633   -3.3563504 -0.032066511   -3.9826633    0.6263129   439061 
 1673000   0.41742506   -3.9830425   -3.9830425   -3.3569063 -0.029951945   -3.9830425   0.62613616   439061 
 1674000   0.41717708   -3.9836093   -3.9836093   -3.3578451 -0.035414237   -3.9836093   0.62576419   439061 
 1675000   0.41722191   -3.9834191   -3.9834191   -3.3575877 -0.035090332   -3.9834191   0.62583144   439061 
 1676000   0.41689136   -3.9836772   -3.9836772   -3.3583416 -0.033584158   -3.9836772   0.62533562   439061 
 1677000   0.41744968   -3.9845393   -3.9845393   -3.3583662 -0.037481198   -3.9845393   0.62617309   439061 
 1678000   0.41661646   -3.9842973   -3.9842973    -3.359374 -0.034292277   -3.9842973   0.62492326   439061 
 1679000   0.41690798   -3.9847049   -3.9847049   -3.3593444 -0.034757813   -3.9847049   0.62536055   439061 
 1680000   0.41775025   -3.9858782   -3.9858782   -3.3592543 -0.031923695   -3.9858782   0.62662395   439061 
 1681000   0.41788613   -3.9867079   -3.9867079   -3.3598802 -0.030240104   -3.9867079   0.62682776   439061 
 1682000   0.41709938   -3.9857596   -3.9857596   -3.3601119 -0.027180092   -3.9857596   0.62564765   439061 
 1683000     0.416862   -3.9861866   -3.9861866   -3.3608951 -0.030102489   -3.9861866   0.62529158   439061 
 1684000   0.41721243   -3.9880669   -3.9880669   -3.3622497 -0.034859721   -3.9880669   0.62581722   439061 
 1685000   0.41750254   -3.9888687   -3.9888687   -3.3626163 -0.036474936   -3.9888687   0.62625238   439061 
 1686000   0.41730316   -3.9883558   -3.9883558   -3.3624025 -0.034164033   -3.9883558   0.62595331   439061 
 1687000   0.41797466   -3.9895769   -3.9895769   -3.3626163 -0.035194797   -3.9895769   0.62696056   439061 
 1688000   0.41733645   -3.9894443   -3.9894443    -3.363441 -0.032446451   -3.9894443   0.62600324   439061 
 1689000   0.41665363   -3.9889348   -3.9889348   -3.3639558 -0.031452405   -3.9889348   0.62497903   439061 
 1690000   0.41763492   -3.9906483   -3.9906483   -3.3641974 -0.033292597   -3.9906483   0.62645096   439061 
 1691000   0.41652936   -3.9888025   -3.9888025   -3.3640099 -0.029049989   -3.9888025   0.62479262   439061 
 1692000   0.41700879   -3.9899567   -3.9899567    -3.364445 -0.030966392   -3.9899567   0.62551176   439061 
 1693000   0.41749787   -3.9910749   -3.9910749   -3.3648296 -0.034909688   -3.9910749   0.62624538   439061 
 1694000   0.41737806   -3.9911245   -3.9911245   -3.3650588  -0.03535706   -3.9911245   0.62606567   439061 
 1695000   0.41657987   -3.9913456   -3.9913456   -3.3664772 -0.036089305   -3.9913456   0.62486839   439061 
 1696000   0.41678521   -3.9929959   -3.9929959   -3.3678195 -0.034161282   -3.9929959   0.62517639   439061 
 1697000   0.41664433   -3.9934967   -3.9934967   -3.3685316 -0.032618133   -3.9934967   0.62496507   439061 
 1698000   0.41681674   -3.9937851   -3.9937851   -3.3685614  -0.03108838   -3.9937851   0.62522368   439061 
 1699000   0.41696055   -3.9948998   -3.9948998   -3.3694604 -0.031501075   -3.9948998    0.6254394   439061 
 1700000   0.41593833   -3.9942715   -3.9942715   -3.3703655 -0.035335889   -3.9942715   0.62390607   439061 
 1701000   0.41671428   -3.9959645   -3.9959645   -3.3708945 -0.034959005   -3.9959645      0.62507   439061 
 1702000   0.41615471   -3.9949345   -3.9949345   -3.3707038 -0.037335496   -3.9949345   0.62423064   439061 
 1703000   0.41705296   -3.9970563   -3.9970563   -3.3714783 -0.040557782   -3.9970563   0.62557802   439061 
 1704000   0.41792703   -3.9984931   -3.9984931    -3.371604 -0.034796573   -3.9984931   0.62688912   439061 
 1705000   0.41731463   -3.9981741   -3.9981741   -3.3722036 -0.034289712   -3.9981741   0.62597052   439061 
 1706000   0.41705021    -3.998544    -3.998544   -3.3729701 -0.034474649    -3.998544   0.62557389   439061 
 1707000   0.41755436   -3.9996032   -3.9996032   -3.3732731 -0.031766592   -3.9996032   0.62633012   439061 
 1708000   0.41700701   -3.9994335   -3.9994335   -3.3739244 -0.033867825   -3.9994335   0.62550909   439061 
 1709000   0.41713368   -3.9996515   -3.9996515   -3.3739524   -0.0371665   -3.9996515   0.62569909   439061 
 1710000   0.41755161   -4.0001267   -4.0001267   -3.3738007  -0.03674095   -4.0001267   0.62632599   439061 
 1711000   0.41737718   -3.9998079   -3.9998079   -3.3737436 -0.039330286   -3.9998079   0.62606435   439061 
 1712000   0.41676008   -3.9999497   -3.9999497    -3.374811 -0.036588758   -3.9999497    0.6251387   439061 
 1713000   0.41757683   -4.0017828   -4.0017828    -3.375419 -0.037441887   -4.0017828   0.62636382   439061 
 1714000   0.41665799   -4.0014262   -4.0014262   -3.3764406 -0.032936573   -4.0014262   0.62498556   439061 
 1715000   0.41735142   -4.0030545   -4.0030545   -3.3770288 -0.030254359   -4.0030545    0.6260257   439061 
 1716000   0.41690514   -4.0030354   -4.0030354   -3.3776792 -0.034374902   -4.0030354   0.62535629   439061 
 1717000   0.41718877   -4.0041538   -4.0041538   -3.3783721  -0.03749396   -4.0041538   0.62578174   439061 
 1718000   0.41598882   -4.0026194   -4.0026194   -3.3786376 -0.036370891   -4.0026194   0.62398181   439061 
 1719000   0.41680411   -4.0037896   -4.0037896   -3.3785848  -0.03886145   -4.0037896   0.62520474   439061 
 1720000   0.41687716   -4.0038272   -4.0038272   -3.3785129 -0.037755469   -4.0038272   0.62531431   439061 
 1721000   0.41763266   -4.0055509   -4.0055509   -3.3791033 -0.036771712   -4.0055509   0.62644756   439061 
 1722000   0.41764381   -4.0060773   -4.0060773    -3.379613 -0.036140714   -4.0060773   0.62646429   439061 
 1723000   0.41685017   -4.0061999   -4.0061999   -3.3809261 -0.034606916   -4.0061999   0.62527383   439061 
 1724000   0.41709913   -4.0068573   -4.0068573   -3.3812101 -0.036081642   -4.0068573   0.62564728   439061 
 1725000   0.41652679   -4.0062021   -4.0062021   -3.3814133 -0.036087787   -4.0062021   0.62478876   439061 
 1726000   0.41714078   -4.0069738   -4.0069738    -3.381264 -0.036495484   -4.0069738   0.62570974   439061 
 1727000   0.41759035   -4.0074873   -4.0074873   -3.3811032 -0.038639079   -4.0074873    0.6263841   439061 
 1728000   0.41759362   -4.0083964   -4.0083964   -3.3820074 -0.037964119   -4.0083964     0.626389   439061 
 1729000   0.41706237   -4.0081649   -4.0081649   -3.3825728 -0.036834012   -4.0081649   0.62559213   439061 
 1730000   0.41719797   -4.0085248   -4.0085248   -3.3827293 -0.035014271   -4.0085248   0.62579553   439061 
 1731000   0.41794399   -4.0101589   -4.0101589   -3.3832443  -0.03672847   -4.0101589   0.62691456   439061 
 1732000   0.41765297    -4.010232    -4.010232    -3.383754 -0.037763388    -4.010232   0.62647804   439061 
 1733000   0.41684447   -4.0093402   -4.0093402    -3.384075 -0.037461099   -4.0093402   0.62526528   439061 
 1734000   0.41773809   -4.0105594   -4.0105594   -3.3839537 -0.037682047   -4.0105594   0.62660571   439061 
 1735000   0.41756801   -4.0110676   -4.0110676    -3.384717 -0.040148481   -4.0110676   0.62635059   439061 
 1736000   0.41822418   -4.0116322   -4.0116322   -3.3842973 -0.038921728   -4.0116322   0.62733484   439061 
 1737000    0.4177689   -4.0116166   -4.0116166   -3.3849647 -0.036601585   -4.0116166   0.62665192   439061 
 1738000   0.41785118   -4.0121979   -4.0121979   -3.3854225 -0.036954118   -4.0121979   0.62677534   439061 
 1739000     0.417763   -4.0129023   -4.0129023   -3.3862592 -0.038111442   -4.0129023   0.62664307   439061 
 1740000   0.41803487   -4.0142721   -4.0142721   -3.3872213 -0.038174844   -4.0142721   0.62705088   439061 
 1741000   0.41664373   -4.0130335   -4.0130335   -3.3880693 -0.037952055   -4.0130335   0.62496418   439061 
 1742000   0.41741021   -4.0142825   -4.0142825   -3.3881686  -0.03789147   -4.0142825    0.6261139   439061 
 1743000   0.41826005   -4.0155986   -4.0155986     -3.38821 -0.036648825   -4.0155986   0.62738865   439061 
 1744000   0.41786247   -4.0159076   -4.0159076   -3.3891153  -0.03752677   -4.0159076   0.62679228   439061 
 1745000   0.41774938   -4.0161189   -4.0161189   -3.3894963 -0.037915413   -4.0161189   0.62662265   439061 
 1746000   0.41791937   -4.0167999   -4.0167999   -3.3899222  -0.03920345   -4.0167999   0.62687762   439061 
 1747000   0.41731103   -4.0162442   -4.0162442    -3.390279 -0.039111856   -4.0162442   0.62596512   439061 
 1748000   0.41688654   -4.0170547   -4.0170547   -3.3917263 -0.040532548   -4.0170547   0.62532839   439061 
 1749000   0.41781487   -4.0191256   -4.0191256   -3.3924047 -0.041246955   -4.0191256   0.62672087   439061 
 1750000   0.41782218   -4.0189975   -4.0189975   -3.3922656 -0.040242317   -4.0189975   0.62673184   439061 
 1751000   0.41662642   -4.0174611   -4.0174611   -3.3925229 -0.033517295   -4.0174611   0.62493821   439061 
 1752000   0.41781759   -4.0203573   -4.0203573   -3.3936324 -0.040442135   -4.0203573   0.62672496   439061 
 1753000   0.41608642   -4.0186688   -4.0186688   -3.3945405 -0.037949643   -4.0186688   0.62412821   439061 
 1754000   0.41691025   -4.0195594   -4.0195594   -3.3941955 -0.041816655   -4.0195594   0.62536395   439061 
 1755000   0.41694546   -4.0197168   -4.0197168      -3.3943 -0.040320888   -4.0197168   0.62541677   439061 
 1756000   0.41713528   -4.0201156   -4.0201156   -3.3944141 -0.039331352   -4.0201156   0.62570149   439061 
 1757000   0.41719672   -4.0207154   -4.0207154   -3.3949218 -0.038688931   -4.0207154   0.62579365   439061 
 1758000   0.41754703   -4.0217511   -4.0217511    -3.395432 -0.038637903   -4.0217511   0.62631912   439061 
 1759000   0.41705229    -4.021236    -4.021236    -3.395659 -0.040689927    -4.021236   0.62557701   439061 
 1760000   0.41761926   -4.0232759   -4.0232759   -3.3968484  -0.04221118   -4.0232759   0.62642747   439061 
 1761000   0.41760259   -4.0236308   -4.0236308   -3.3972283 -0.044129572   -4.0236308   0.62640246   439061 
 1762000   0.41738236   -4.0235585   -4.0235585   -3.3974864 -0.042079869   -4.0235585   0.62607212   439061 
 1763000   0.41777226   -4.0242579   -4.0242579    -3.397601 -0.038335052   -4.0242579   0.62665696   439061 
 1764000   0.41792136   -4.0246306   -4.0246306     -3.39775 -0.040257029   -4.0246306    0.6268806   439061 
 1765000   0.41773485   -4.0241729   -4.0241729    -3.397572 -0.036537105   -4.0241729   0.62660085   439061 
 1766000   0.41731263    -4.023503    -4.023503   -3.3975355 -0.039182419    -4.023503   0.62596753   439061 
 1767000   0.41752363   -4.0251282   -4.0251282   -3.3988442 -0.043737627   -4.0251282   0.62628402   439061 
 1768000   0.41790917   -4.0254541   -4.0254541   -3.3985918 -0.043575597   -4.0254541   0.62686232   439061 
 1769000   0.41668656   -4.0247509   -4.0247509   -3.3997225 -0.041620481   -4.0247509   0.62502842   439061 
 1770000   0.41684098   -4.0258026   -4.0258026   -3.4005426 -0.039240064   -4.0258026   0.62526005   439061 
 1771000   0.41728219   -4.0269883   -4.0269883   -3.4010664 -0.038949109   -4.0269883   0.62592186   439061 
 1772000   0.41757172   -4.0285535   -4.0285535   -3.4021974 -0.042024261   -4.0285535   0.62635615   439061 
 1773000   0.41783716   -4.0292009   -4.0292009   -3.4024466  -0.03962134   -4.0292009   0.62675432   439061 
 1774000   0.41637674   -4.0279148   -4.0279148   -3.4033511 -0.039627999   -4.0279148   0.62456369   439061 
 1775000   0.41736043   -4.0298389   -4.0298389   -3.4037997 -0.042459536   -4.0298389   0.62603922   439061 
 1776000   0.41652285   -4.0289321   -4.0289321   -3.4041492 -0.039347234   -4.0289321   0.62478285   439061 
 1777000   0.41641005   -4.0292713   -4.0292713   -3.4046576 -0.042029148   -4.0292713   0.62461365   439061 
 1778000   0.41689149   -4.0300334   -4.0300334   -3.4046976 -0.041620743   -4.0300334   0.62533581   439061 
 1779000   0.41728955   -4.0310651   -4.0310651   -3.4051323 -0.041030286   -4.0310651    0.6259329   439061 
 1780000   0.41666343   -4.0304534   -4.0304534   -3.4054597 -0.039852917   -4.0304534   0.62499372   439061 
 1781000   0.41675581    -4.031763    -4.031763   -3.4066307 -0.042026628    -4.031763    0.6251323   439061 
 1782000   0.41739417    -4.033375    -4.033375   -3.4072852 -0.044478398    -4.033375   0.62608982   439061 
 1783000   0.41650852   -4.0324103   -4.0324103    -3.407649 -0.043740371   -4.0324103   0.62476135   439061 
 1784000   0.41724443   -4.0332338   -4.0332338   -3.4073686 -0.040758166   -4.0332338   0.62586521   439061 
 1785000   0.41663469    -4.032974    -4.032974   -3.4080234 -0.040451915    -4.032974   0.62495061   439061 
 1786000   0.41726052   -4.0344494   -4.0344494   -3.4085601 -0.044207994   -4.0344494   0.62588935   439061 
 1787000   0.41670158   -4.0338331   -4.0338331   -3.4087822  -0.04191772   -4.0338331   0.62505094   439061 
 1788000   0.41736056   -4.0355812   -4.0355812   -3.4095418 -0.044409727   -4.0355812   0.62603941   439061 
 1789000   0.41673348   -4.0349789   -4.0349789   -3.4098801 -0.043193565   -4.0349789   0.62509879   439061 
 1790000   0.41708582   -4.0361094   -4.0361094   -3.4104821 -0.043998109   -4.0361094   0.62562731   439061 
 1791000    0.4166283   -4.0352411   -4.0352411   -3.4103001 -0.040557282   -4.0352411   0.62494103   439061 
 1792000   0.41640095   -4.0361836   -4.0361836   -3.4115836  -0.04215162   -4.0361836       0.6246   439061 
 1793000   0.41678522    -4.037025    -4.037025   -3.4118486 -0.042050512    -4.037025   0.62517641   439061 
 1794000   0.41646567   -4.0366899   -4.0366899   -3.4119928 -0.042445484   -4.0366899   0.62469709   439061 
 1795000   0.41674884   -4.0375181   -4.0375181   -3.4123962 -0.045044995   -4.0375181   0.62512184   439061 
 1796000      0.41718   -4.0384196   -4.0384196    -3.412651 -0.045879057   -4.0384196   0.62576858   439061 
 1797000   0.41717339   -4.0382134   -4.0382134   -3.4124547  -0.04594314   -4.0382134   0.62575866   439061 
 1798000    0.4172184    -4.038512    -4.038512   -3.4126858 -0.042567053    -4.038512   0.62582617   439061 
 1799000   0.41620932   -4.0380351   -4.0380351   -3.4137225 -0.040393192   -4.0380351   0.62431256   439061 
 1800000   0.41608907   -4.0394099   -4.0394099   -3.4152777 -0.044389752   -4.0394099   0.62413218   439061 
 1801000   0.41672555   -4.0401514   -4.0401514   -3.4150645 -0.045547321   -4.0401514    0.6250869   439061 
 1802000   0.41648177   -4.0401463   -4.0401463   -3.4154251 -0.044421745   -4.0401463   0.62472123   439061 
 1803000    0.4158439   -4.0394412   -4.0394412   -3.4156768 -0.043927735   -4.0394412   0.62376442   439061 
 1804000   0.41602157   -4.0404895   -4.0404895   -3.4164585 -0.044725379   -4.0404895   0.62403093   439061 
 1805000   0.41630363   -4.0410554   -4.0410554   -3.4166013 -0.043896737   -4.0410554   0.62445403   439061 
 1806000   0.41650284   -4.0413047   -4.0413047   -3.4165518 -0.046352916   -4.0413047   0.62475284   439061 
 1807000   0.41626688   -4.0413235   -4.0413235   -3.4169246 -0.042320017   -4.0413235    0.6243989   439061 
 1808000   0.41620409   -4.0420606   -4.0420606   -3.4177559 -0.044160377   -4.0420606   0.62430471   439061 
 1809000   0.41634381   -4.0432182   -4.0432182   -3.4187039 -0.045611021   -4.0432182   0.62451429   439061 
 1810000   0.41553693   -4.0432501   -4.0432501   -3.4199461 -0.045636318   -4.0432501   0.62330397   439061 
 1811000   0.41604288   -4.0433167   -4.0433167   -3.4192538 -0.044229128   -4.0433167    0.6240629   439061 
 1812000   0.41608653   -4.0428804   -4.0428804    -3.418752 -0.039195624   -4.0428804   0.62412838   439061 
 1813000   0.41549474   -4.0426301   -4.0426301   -3.4193894 -0.040435867   -4.0426301    0.6232407   439061 
 1814000   0.41589152   -4.0439138   -4.0439138    -3.420078 -0.044667216   -4.0439138   0.62383586   439061 
 1815000   0.41602435   -4.0450835   -4.0450835   -3.4210484 -0.048321694   -4.0450835    0.6240351   439061 
 1816000   0.41592171   -4.0443062   -4.0443062    -3.420425 -0.045062961   -4.0443062   0.62388114   439061 
 1817000   0.41628097   -4.0452406   -4.0452406   -3.4208205 -0.045707143   -4.0452406   0.62442003   439061 
 1818000   0.41622595    -4.045533    -4.045533   -3.4211955 -0.043748264    -4.045533    0.6243375   439061 
 1819000   0.41586442   -4.0456446   -4.0456446   -3.4218494 -0.043543043   -4.0456446    0.6237952   439061 
 1820000   0.41645311   -4.0462355   -4.0462355   -3.4215572  -0.04598716   -4.0462355   0.62467825   439061 
 1821000   0.41600399   -4.0462261   -4.0462261   -3.4222215 -0.045075504   -4.0462261   0.62400456   439061 
 1822000    0.4161854   -4.0473718   -4.0473718   -3.4230951  -0.04781084   -4.0473718   0.62427668   439061 
 1823000   0.41567265   -4.0469793   -4.0469793   -3.4234718  -0.04593765   -4.0469793   0.62350755   439061 
 1824000   0.41623864   -4.0474389   -4.0474389   -3.4230824 -0.043143359   -4.0474389   0.62435653   439061 
 1825000   0.41665646   -4.0480984   -4.0480984   -3.4231151 -0.044595797   -4.0480984   0.62498326   439061 
 1826000   0.41669003   -4.0485223   -4.0485223   -3.4234887 -0.045411503   -4.0485223   0.62503362   439061 
 1827000   0.41657338   -4.0490961   -4.0490961   -3.4242374 -0.046329503   -4.0490961   0.62485865   439061 
 1828000   0.41630088     -4.04965     -4.04965   -3.4252001  -0.04724067     -4.04965    0.6244499   439061 
 1829000   0.41556119   -4.0485104   -4.0485104     -3.42517 -0.045977996   -4.0485104   0.62334037   439061 
 1830000   0.41571076   -4.0494027   -4.0494027    -3.425838 -0.043591414   -4.0494027   0.62356472   439061 
 1831000   0.41606991   -4.0506033   -4.0506033   -3.4264998 -0.046029669   -4.0506033   0.62410344   439061 
 1832000    0.4158954   -4.0511158   -4.0511158   -3.4272741   -0.0459151   -4.0511158   0.62384168   439061 
 1833000   0.41654043   -4.0518909   -4.0518909   -3.4270817 -0.044963418   -4.0518909   0.62480922   439061 
 1834000   0.41598516   -4.0515898   -4.0515898   -3.4276135 -0.043342821   -4.0515898   0.62397632   439061 
 1835000    0.4164669   -4.0528079   -4.0528079   -3.4281089 -0.047158977   -4.0528079   0.62469893   439061 
 1836000    0.4157484   -4.0516817   -4.0516817   -3.4280605  -0.04658201   -4.0516817   0.62362118   439061 
 1837000   0.41604062   -4.0519713   -4.0519713   -3.4279118 -0.047078487   -4.0519713   0.62405951   439061 
 1838000   0.41505773   -4.0521233   -4.0521233   -3.4295381 -0.048590694   -4.0521233   0.62258518   439061 
 1839000   0.41503266   -4.0529809   -4.0529809   -3.4304333 -0.048968832   -4.0529809   0.62254757   439061 
 1840000   0.41593222   -4.0542408   -4.0542408   -3.4303439 -0.047892172   -4.0542408    0.6238969   439061 
 1841000    0.4156189   -4.0539014   -4.0539014   -3.4304745 -0.045423096   -4.0539014   0.62342692   439061 
 1842000   0.41616895   -4.0554114   -4.0554114   -3.4311594 -0.044739282   -4.0554114     0.624252   439061 
 1843000   0.41524464   -4.0538264   -4.0538264   -3.4309609 -0.039195733   -4.0538264   0.62286554   439061 
 1844000   0.41582971   -4.0545035   -4.0545035   -3.4307604 -0.045827598   -4.0545035   0.62374314   439061 
 1845000    0.4150742   -4.0539631   -4.0539631   -3.4313532 -0.046716286   -4.0539631   0.62260988   439061 
 1846000   0.41516801   -4.0549452   -4.0549452   -3.4321946 -0.051706816   -4.0549452   0.62275059   439061 
 1847000   0.41517156   -4.0550698   -4.0550698   -3.4323138 -0.047750761   -4.0550698   0.62275592   439061 
 1848000   0.41582413      -4.0563      -4.0563   -3.4325652 -0.045164417      -4.0563   0.62373477   439061 
 1849000   0.41601806   -4.0574335   -4.0574335   -3.4334079 -0.043493436   -4.0574335   0.62402567   439061 
 1850000   0.41671728   -4.0587477   -4.0587477   -3.4336732 -0.045553711   -4.0587477   0.62507449   439061 
 1851000   0.41613568    -4.058421    -4.058421   -3.4342189  -0.04455703    -4.058421    0.6242021   439061 
 1852000   0.41503307   -4.0567724   -4.0567724   -3.4342242 -0.046502086   -4.0567724   0.62254818   439061 
 1853000    0.4154252    -4.057274    -4.057274   -3.4341376 -0.050975697    -4.057274   0.62313639   439061 
 1854000    0.4160404   -4.0582084   -4.0582084   -3.4341492 -0.050546645   -4.0582084   0.62405918   439061 
 1855000   0.41597054   -4.0579198   -4.0579198   -3.4339654 -0.048490953   -4.0579198   0.62395439   439061 
 1856000   0.41562227   -4.0584137   -4.0584137   -3.4349817 -0.046716964   -4.0584137   0.62343199   439061 
 1857000   0.41545065   -4.0592796   -4.0592796    -3.436105 -0.046051936   -4.0592796   0.62317456   439061 
 1858000   0.41601235   -4.0610377   -4.0610377   -3.4370206  -0.04575424   -4.0610377    0.6240171   439061 
 1859000   0.41550465   -4.0614317   -4.0614317   -3.4381762 -0.045071647   -4.0614317   0.62325555   439061 
 1860000   0.41572918   -4.0614413   -4.0614413   -3.4378489 -0.046902784   -4.0614413   0.62359235   439061 
 1861000    0.4151774    -4.061328    -4.061328   -3.4385633 -0.049352332    -4.061328   0.62276468   439061 
 1862000   0.41523226    -4.061116    -4.061116    -3.438269 -0.049971803    -4.061116   0.62284697   439061 
 1863000   0.41566196   -4.0613721   -4.0613721   -3.4378806 -0.050206413   -4.0613721   0.62349151   439061 
 1864000   0.41568047   -4.0613075   -4.0613075   -3.4377882 -0.048701334   -4.0613075   0.62351928   439061 
 1865000   0.41545747   -4.0621672   -4.0621672   -3.4389824 -0.048353846   -4.0621672   0.62318479   439061 
 1866000   0.41539396   -4.0634731   -4.0634731   -3.4403836 -0.047220622   -4.0634731   0.62308952   439061 
 1867000    0.4161055   -4.0641303   -4.0641303   -3.4399735 -0.046063117   -4.0641303   0.62415682   439061 
 1868000   0.41581423   -4.0646846   -4.0646846   -3.4409646 -0.047384752   -4.0646846   0.62371992   439061 
 1869000   0.41539305   -4.0646929   -4.0646929   -3.4416047 -0.049929567   -4.0646929   0.62308815   439061 
 1870000   0.41498165   -4.0649691   -4.0649691    -3.442498 -0.049787752   -4.0649691   0.62247106   439061 
 1871000   0.41461037    -4.063967    -4.063967   -3.4420528 -0.049773596    -4.063967   0.62191415   439061 
 1872000   0.41430202   -4.0638847   -4.0638847   -3.4424331 -0.048364503   -4.0638847   0.62145162   439061 
 1873000   0.41498948   -4.0655973   -4.0655973   -3.4431145 -0.048821061   -4.0655973   0.62248281   439061 
 1874000   0.41499772   -4.0662872   -4.0662872    -3.443792  -0.04859545   -4.0662872   0.62249516   439061 
 1875000   0.41509175   -4.0669703   -4.0669703   -3.4443341 -0.046951339   -4.0669703    0.6226362   439061 
 1876000   0.41543382   -4.0668955   -4.0668955   -3.4437462 -0.046660095   -4.0668955   0.62314931   439061 
 1877000   0.41522854   -4.0659757   -4.0659757   -3.4431343 -0.045304075   -4.0659757   0.62284139   439061 
 1878000   0.41533606   -4.0668462   -4.0668462   -3.4438435 -0.051582475   -4.0668462   0.62300268   439061 
 1879000    0.4148776   -4.0666757   -4.0666757   -3.4443607 -0.051441007   -4.0666757   0.62231499   439061 
 1880000   0.41474836   -4.0668832   -4.0668832   -3.4447621 -0.053187142   -4.0668832   0.62212112   439061 
 1881000   0.41472806   -4.0663839   -4.0663839   -3.4442932 -0.049189932   -4.0663839   0.62209068   439061 
 1882000   0.41429228   -4.0668362   -4.0668362   -3.4453992 -0.046268145   -4.0668362     0.621437   439061 
 1883000   0.41484733   -4.0679935   -4.0679935    -3.445724  -0.04411375   -4.0679935   0.62226958   439061 
 1884000   0.41447961   -4.0683585   -4.0683585   -3.4466405 -0.042522243   -4.0683585   0.62171799   439061 
 1885000   0.41516055   -4.0689237   -4.0689237   -3.4461843 -0.046748528   -4.0689237   0.62273941   439061 
 1886000   0.41489654   -4.0697422   -4.0697422   -3.4473988 -0.049681525   -4.0697422   0.62234339   439061 
 1887000   0.41491757   -4.0703948   -4.0703948   -3.4480199 -0.055463524   -4.0703948   0.62237493   439061 
 1888000   0.41474944   -4.0707805   -4.0707805   -3.4486578 -0.055889891   -4.0707805   0.62212274   439061 
 1889000   0.41501219   -4.0712366   -4.0712366   -3.4487197 -0.052608317   -4.0712366   0.62251687   439061 
 1890000   0.41541922   -4.0726816   -4.0726816   -3.4495542 -0.050223036   -4.0726816   0.62312741   439061 
 1891000   0.41516274   -4.0722772   -4.0722772   -3.4495345 -0.047488544   -4.0722772   0.62274269   439061 
 1892000    0.4148166   -4.0722565   -4.0722565    -3.450033 -0.045716939   -4.0722565   0.62222349   439061 
 1893000   0.41443197   -4.0727432   -4.0727432   -3.4510966 -0.049963588   -4.0727432   0.62164654   439061 
 1894000   0.41322011   -4.0718806   -4.0718806   -3.4520518 -0.053710734   -4.0718806   0.61982876   439061 
 1895000   0.41394275    -4.073376    -4.073376   -3.4524633  -0.05535643    -4.073376   0.62091272   439061 
 1896000    0.4140981   -4.0733562   -4.0733562   -3.4522104 -0.053284506   -4.0733562   0.62114573   439061 
 1897000   0.41397812   -4.0734131   -4.0734131   -3.4524474 -0.049753135   -4.0734131   0.62096576   439061 
 1898000   0.41491682   -4.0752113   -4.0752113   -3.4528375   -0.0500739   -4.0752113   0.62237381   439061 
 1899000   0.41520738   -4.0756351   -4.0756351   -3.4528255 -0.048716467   -4.0756351   0.62280964   439061 
 1900000   0.41408363   -4.0742524   -4.0742524   -3.4531284 -0.049299826   -4.0742524   0.62112403   439061 
 1901000   0.41432137   -4.0743333   -4.0743333   -3.4528526 -0.049028493   -4.0743333   0.62148064   439061 
 1902000   0.41363325   -4.0738121   -4.0738121   -3.4533636 -0.052033578   -4.0738121   0.62044846   439061 
 1903000   0.41401964   -4.0744036   -4.0744036   -3.4533756 -0.056277215   -4.0744036   0.62102804   439061 
 1904000   0.41417217   -4.0754028   -4.0754028   -3.4541459 -0.055160821   -4.0754028   0.62125684   439061 
 1905000   0.41421668    -4.075763    -4.075763   -3.4544394 -0.052302265    -4.075763    0.6213236   439061 
 1906000   0.41388004   -4.0763231   -4.0763231   -3.4555045 -0.051474639   -4.0763231   0.62081864   439061 
 1907000   0.41400596   -4.0766214   -4.0766214   -3.4556139 -0.046640779   -4.0766214   0.62100753   439061 
 1908000   0.41380727   -4.0767766   -4.0767766   -3.4560671 -0.048886328   -4.0767766   0.62070949   439061 
 1909000   0.41419586   -4.0777795   -4.0777795   -3.4564871 -0.052973495   -4.0777795   0.62129238   439061 
 1910000   0.41398935   -4.0776282   -4.0776282   -3.4566456 -0.053683897   -4.0776282   0.62098261   439061 
 1911000   0.41321034   -4.0767246   -4.0767246   -3.4569105 -0.054345982   -4.0767246    0.6198141   439061 
 1912000   0.41351901   -4.0775666   -4.0775666   -3.4572895  -0.05449196   -4.0775666   0.62027711   439061 
 1913000    0.4138364   -4.0778858   -4.0778858   -3.4571326 -0.050199717   -4.0778858   0.62075319   439061 
 1914000   0.41349593   -4.0784922   -4.0784922   -3.4582497 -0.048950138   -4.0784922   0.62024249   439061 
 1915000   0.41391043   -4.0797442   -4.0797442     -3.45888 -0.051745483   -4.0797442   0.62086423   439061 
 1916000   0.41374059   -4.0803953   -4.0803953   -3.4597858  -0.04986236   -4.0803953   0.62060947   439061 
 1917000   0.41349344   -4.0801985   -4.0801985   -3.4599598 -0.051621793   -4.0801985   0.62023875   439061 
 1918000   0.41369275   -4.0806434   -4.0806434   -3.4601057 -0.053457403   -4.0806434   0.62053772   439061 
 1919000   0.41355912   -4.0803821   -4.0803821   -3.4600448 -0.055114922   -4.0803821   0.62033727   439061 
 1920000   0.41320818   -4.0796443   -4.0796443   -3.4598335 -0.053058281   -4.0796443   0.61981086   439061 
 1921000    0.4137784   -4.0807401   -4.0807401   -3.4600739 -0.053826807   -4.0807401   0.62066619   439061 
 1922000   0.41353724   -4.0800161   -4.0800161   -3.4597116 -0.050337182   -4.0800161   0.62030444   439061 
 1923000   0.41398398   -4.0808524   -4.0808524   -3.4598778  -0.05014281   -4.0808524   0.62097455   439061 
 1924000   0.41380568   -4.0816975   -4.0816975   -3.4609904 -0.051772432   -4.0816975   0.62070711   439061 
 1925000   0.41420363   -4.0830654   -4.0830654   -3.4617613 -0.053830323   -4.0830654   0.62130403   439061 
 1926000     0.413631   -4.0818368   -4.0818368   -3.4613917 -0.056446077   -4.0818368   0.62044509   439061 
 1927000   0.41329136   -4.0814067   -4.0814067   -3.4614711 -0.052299135   -4.0814067   0.61993563   439061 
 1928000   0.41310923   -4.0812569   -4.0812569   -3.4615944 -0.052791121   -4.0812569   0.61966244   439061 
 1929000   0.41289089   -4.0818225   -4.0818225   -3.4624876 -0.055081255   -4.0818225   0.61933492   439061 
 1930000   0.41361834   -4.0821498   -4.0821498   -3.4617237 -0.052448919   -4.0821498   0.62042609   439061 
 1931000   0.41373649   -4.0832196   -4.0832196   -3.4626163 -0.054796115   -4.0832196   0.62060332   439061 
 1932000    0.4132131   -4.0828114   -4.0828114   -3.4629932 -0.052951595   -4.0828114   0.61981823   439061 
 1933000   0.41420006   -4.0844603   -4.0844603   -3.4631616 -0.053679773   -4.0844603   0.62129868   439061 
 1934000   0.41356109   -4.0845187   -4.0845187   -3.4641784 -0.053728138   -4.0845187   0.62034022   439061 
 1935000   0.41289102   -4.0844332   -4.0844332    -3.465098  -0.05403274   -4.0844332   0.61933511   439061 
 1936000   0.41276393   -4.0849451   -4.0849451   -3.4658006  -0.05300718   -4.0849451   0.61914449   439061 
 1937000   0.41304058   -4.0842421   -4.0842421   -3.4646827 -0.050221611   -4.0842421   0.61955945   439061 
 1938000    0.4129227   -4.0849142   -4.0849142   -3.4655316 -0.052361408   -4.0849142   0.61938263   439061 
 1939000   0.41276582    -4.084814    -4.084814   -3.4656666 -0.052924259    -4.084814   0.61914732   439061 
 1940000   0.41260747   -4.0852078   -4.0852078    -3.466298 -0.054996807   -4.0852078   0.61890979   439061 
 1941000   0.41301276   -4.0861887   -4.0861887   -3.4666709 -0.058000555   -4.0861887   0.61951773   439061 
 1942000   0.41330521    -4.086758    -4.086758   -3.4668016 -0.056431973    -4.086758    0.6199564   439061 
 1943000   0.41264567   -4.0859094   -4.0859094   -3.4669423 -0.052838252   -4.0859094    0.6189671   439061 
 1944000   0.41215429    -4.085641    -4.085641    -3.467411 -0.050219172    -4.085641   0.61823003   439061 
 1945000   0.41304755   -4.0880683   -4.0880683   -3.4684984 -0.055891962   -4.0880683   0.61956991   439061 
 1946000   0.41262179   -4.0872384   -4.0872384   -3.4683072 -0.053554011   -4.0872384   0.61893127   439061 
 1947000   0.41198803   -4.0867177   -4.0867177   -3.4687371 -0.054342855   -4.0867177   0.61798063   439061 
 1948000    0.4126199   -4.0871485   -4.0871485     -3.46822 -0.057169287   -4.0871485   0.61892845   439061 
 1949000   0.41244975   -4.0875104   -4.0875104   -3.4688372 -0.052701187   -4.0875104   0.61867322   439061 
 1950000   0.41252707   -4.0880823   -4.0880823   -3.4692931 -0.054782089   -4.0880823   0.61878919   439061 
 1951000   0.41245973   -4.0888051   -4.0888051   -3.4701169 -0.055588322   -4.0888051   0.61868818   439061 
 1952000    0.4125089   -4.0898831   -4.0898831   -3.4711212 -0.055780844   -4.0898831   0.61876194   439061 
 1953000   0.41231309   -4.0891553   -4.0891553    -3.470687 -0.056330894   -4.0891553   0.61846822   439061 
 1954000   0.41206303   -4.0888281   -4.0888281    -3.470735 -0.053700994   -4.0888281   0.61809314   439061 
 1955000   0.41109156   -4.0886816   -4.0886816   -3.4720457 -0.056021391   -4.0886816   0.61663593   439061 
 1956000   0.41165756    -4.089487    -4.089487   -3.4720021 -0.059647399    -4.089487   0.61748493   439061 
 1957000   0.41233795   -4.0900562   -4.0900562   -3.4715506 -0.053282417   -4.0900562   0.61850552   439061 
 1958000    0.4119534   -4.0895976   -4.0895976   -3.4716689  -0.05484437   -4.0895976   0.61792869   439061 
 1959000   0.41238909   -4.0908471   -4.0908471   -3.4722648 -0.055010247   -4.0908471   0.61858223   439061 
 1960000   0.41232401   -4.0910678   -4.0910678   -3.4725832 -0.052322179   -4.0910678   0.61848461   439061 
 1961000   0.41216356   -4.0913759   -4.0913759    -3.473132 -0.055047643   -4.0913759   0.61824393   439061 
 1962000   0.41237508   -4.0918824   -4.0918824   -3.4733212 -0.056861328   -4.0918824   0.61856121   439061 
 1963000   0.41189075   -4.0910705   -4.0910705   -3.4732358 -0.054367363   -4.0910705   0.61783473   439061 
 1964000     0.411502   -4.0909309   -4.0909309   -3.4736793 -0.055014289   -4.0909309   0.61725159   439061 
 1965000   0.41209644   -4.0917762   -4.0917762   -3.4736329  -0.05531319   -4.0917762   0.61814325   439061 
 1966000   0.41166514   -4.0915205   -4.0915205   -3.4740242 -0.054534406   -4.0915205   0.61749631   439061 
 1967000    0.4109619   -4.0911085   -4.0911085   -3.4746671  -0.05502656   -4.0911085   0.61644144   439061 
 1968000   0.41096227   -4.0914272   -4.0914272   -3.4749852 -0.054498263   -4.0914272     0.616442   439061 
 1969000   0.41233291   -4.0937877   -4.0937877   -3.4752897 -0.060833748   -4.0937877   0.61849796   439061 
 1970000   0.41091218   -4.0923467   -4.0923467   -3.4759799 -0.056375897   -4.0923467   0.61636686   439061 
 1971000   0.41192549   -4.0941279   -4.0941279    -3.476241 -0.058848253   -4.0941279   0.61788684   439061 
 1972000   0.41221148   -4.0944653   -4.0944653   -3.4761495 -0.056076498   -4.0944653   0.61831581   439061 
 1973000   0.41194855   -4.0941489   -4.0941489   -3.4762275 -0.052343003   -4.0941489   0.61792141   439061 
 1974000   0.41103641    -4.093982    -4.093982   -3.4774288 -0.053380871    -4.093982   0.61655321   439061 
 1975000   0.41138683   -4.0948968   -4.0948968    -3.477818 -0.058105471   -4.0948968   0.61707883   439061 
 1976000   0.41155325   -4.0949115   -4.0949115    -3.477583 -0.059468676   -4.0949115   0.61732846   439061 
 1977000    0.4110174   -4.0942317   -4.0942317    -3.477707  -0.05917825   -4.0942317    0.6165247   439061 
 1978000   0.41106865   -4.0952447   -4.0952447   -3.4786431 -0.059541343   -4.0952447   0.61660157   439061 
 1979000   0.41085666   -4.0956866   -4.0956866    -3.479403 -0.057307183   -4.0956866   0.61628358   439061 
 1980000   0.41152759   -4.0968905   -4.0968905   -3.4796006 -0.057093617   -4.0968905   0.61728997   439061 
 1981000   0.41084142   -4.0955777   -4.0955777   -3.4793169 -0.054271156   -4.0955777   0.61626073   439061 
 1982000    0.4112301   -4.0961025   -4.0961025   -3.4792587 -0.056051646   -4.0961025   0.61684375   439061 
 1983000   0.41053667   -4.0956747   -4.0956747   -3.4798711 -0.055788106   -4.0956747    0.6158036   439061 
 1984000   0.41063075   -4.0955271   -4.0955271   -3.4795824 -0.060878158   -4.0955271   0.61594473   439061 
 1985000   0.41116991    -4.097309    -4.097309   -3.4805555 -0.061334775    -4.097309   0.61675346   439061 
 1986000   0.41082738   -4.0961329   -4.0961329   -3.4798932 -0.059564177   -4.0961329   0.61623966   439061 
 1987000   0.41018622   -4.0960539   -4.0960539    -3.480776   -0.0564412   -4.0960539   0.61527792   439061 
 1988000   0.41081029   -4.0975983   -4.0975983   -3.4813843 -0.056073322   -4.0975983   0.61621403   439061 
 1989000   0.41026826   -4.0973566   -4.0973566   -3.4819556  -0.05510023   -4.0973566   0.61540098   439061 
 1990000   0.41093032   -4.0995812   -4.0995812   -3.4831871  -0.05927855   -4.0995812   0.61639408   439061 
 1991000   0.41066422   -4.0995753   -4.0995753   -3.4835804 -0.058024963   -4.0995753   0.61599492   439061 
 1992000   0.41021563   -4.0990962   -4.0990962   -3.4837742  -0.05835031   -4.0990962   0.61532205   439061 
 1993000   0.40983675   -4.0984547   -4.0984547    -3.483701  -0.05896206   -4.0984547   0.61475372   439061 
 1994000   0.41025608   -4.0987818   -4.0987818   -3.4833991 -0.057974053   -4.0987818   0.61538272   439061 
 1995000   0.41096955   -4.0995768   -4.0995768   -3.4831239 -0.059858779   -4.0995768   0.61645292   439061 
 1996000   0.41108281   -4.0996447   -4.0996447   -3.4830219 -0.057265353   -4.0996447   0.61662281   439061 
 1997000   0.40971342   -4.0987085   -4.0987085   -3.4841398 -0.053199955   -4.0987085   0.61456873   439061 
 1998000   0.41047161   -4.1001282   -4.1001282   -3.4844222 -0.060765421   -4.1001282   0.61570602   439061 
 1999000   0.41052901    -4.100385    -4.100385   -3.4845929 -0.057436616    -4.100385   0.61579212   439061 
 2000000   0.40987673   -4.0999149   -4.0999149   -3.4851013 -0.058103535   -4.0999149   0.61481369   439061 
 2001000   0.41035173   -4.1006224   -4.1006224   -3.4850962 -0.060164292   -4.1006224    0.6155262   439061 
 2002000   0.41055012   -4.1010061   -4.1010061   -3.4851823 -0.058485283   -4.1010061   0.61582378   439061 
 2003000   0.41023513    -4.101456    -4.101456   -3.4861047 -0.060883278    -4.101456   0.61535129   439061 
 2004000   0.41031391   -4.1016822   -4.1016822   -3.4862127 -0.059686293   -4.1016822   0.61546947   439061 
 2005000   0.41033181   -4.1014456   -4.1014456   -3.4859493  -0.05741064   -4.1014456   0.61549632   439061 
 2006000   0.41026221   -4.1018427   -4.1018427   -3.4864508 -0.059936254   -4.1018427   0.61539191   439061 
 2007000   0.41017727   -4.1014842   -4.1014842   -3.4862197 -0.056910541   -4.1014842   0.61526451   439061 
 2008000   0.40944593   -4.1009245   -4.1009245   -3.4867571 -0.057348471   -4.1009245   0.61416749   439061 
 2009000   0.40975388    -4.101599    -4.101599   -3.4869696 -0.058829997    -4.101599   0.61462942   439061 
 2010000   0.40955557   -4.1015049   -4.1015049   -3.4871729 -0.057128382   -4.1015049   0.61433196   439061 
 2011000   0.40985067   -4.1020384   -4.1020384   -3.4872638 -0.060519642   -4.1020384    0.6147746   439061 
 2012000   0.41015509   -4.1028664   -4.1028664   -3.4876352 -0.061007904   -4.1028664   0.61523123   439061 
 2013000    0.4103645   -4.1032005   -4.1032005   -3.4876552 -0.058998569   -4.1032005   0.61554535   439061 
 2014000   0.41033084   -4.1036722   -4.1036722   -3.4881773 -0.061270648   -4.1036722   0.61549486   439061 
 2015000   0.40986272   -4.1030037   -4.1030037    -3.488211 -0.057143136   -4.1030037   0.61479268   439061 
 2016000   0.41008388   -4.1036779   -4.1036779   -3.4885535 -0.058556328   -4.1036779   0.61512442   439061 
 2017000   0.40940281   -4.1039389   -4.1039389   -3.4898361  -0.06251523   -4.1039389   0.61410282   439061 
 2018000   0.40992492   -4.1051006   -4.1051006   -3.4902146  -0.06049831   -4.1051006   0.61488597   439061 
 2019000   0.40979349   -4.1049375   -4.1049375   -3.4902486 -0.059448314   -4.1049375   0.61468884   439061 
 2020000   0.40953228   -4.1044788   -4.1044788   -3.4901818  -0.05938662   -4.1044788   0.61429702   439061 
 2021000   0.40976702   -4.1057048   -4.1057048   -3.4910557 -0.060763227   -4.1057048   0.61464914   439061 
 2022000   0.40945392   -4.1052179   -4.1052179   -3.4910384 -0.060608485   -4.1052179   0.61417948   439061 
 2023000   0.40995016   -4.1057524   -4.1057524   -3.4908286 -0.061795001   -4.1057524   0.61492384   439061 
 2024000    0.4095786   -4.1051299   -4.1051299   -3.4907635 -0.058882116   -4.1051299   0.61436649   439061 
 2025000    0.4098453   -4.1061139   -4.1061139   -3.4913474 -0.060716746   -4.1061139   0.61476655   439061 
 2026000   0.40967199   -4.1058405   -4.1058405   -3.4913339 -0.060707904   -4.1058405   0.61450659   439061 
 2027000   0.40897736   -4.1049315   -4.1049315   -3.4914669 -0.058413433   -4.1049315   0.61346464   439061 
 2028000   0.40968302   -4.1068016   -4.1068016   -3.4922784 -0.062102234   -4.1068016   0.61452313   439061 
 2029000    0.4097074   -4.1058365   -4.1058365   -3.4912768 -0.059727796   -4.1058365   0.61455969   439061 
 2030000   0.40818808    -4.104833    -4.104833   -3.4925522 -0.058667395    -4.104833   0.61228072   439061 
 2031000    0.4089131   -4.1056897   -4.1056897   -3.4923214 -0.059244862   -4.1056897   0.61336825   439061 
 2032000      0.40996   -4.1075075   -4.1075075   -3.4925689 -0.060655672   -4.1075075    0.6149386   439061 
 2033000    0.4089553   -4.1063637   -4.1063637   -3.4929321 -0.061649666   -4.1063637   0.61343155   439061 
 2034000   0.40852764   -4.1071653   -4.1071653   -3.4943752 -0.058961523   -4.1071653   0.61279007   439061 
 2035000   0.40912654   -4.1080211   -4.1080211   -3.4943327 -0.061054377   -4.1080211   0.61368841   439061 
 2036000   0.40951808   -4.1085997   -4.1085997    -3.494324 -0.061139183   -4.1085997   0.61427572   439061 
 2037000   0.40871628   -4.1078441   -4.1078441   -3.4947711 -0.058559599   -4.1078441   0.61307303   439061 
 2038000   0.40916215   -4.1084226   -4.1084226   -3.4946807 -0.061867468   -4.1084226   0.61374182   439061 
 2039000   0.40883496    -4.107909    -4.107909   -3.4946579 -0.059256043    -4.107909   0.61325105   439061 
 2040000    0.4088712   -4.1077622   -4.1077622   -3.4944568 -0.060916425   -4.1077622    0.6133054   439061 
 2041000   0.40880197   -4.1081537   -4.1081537   -3.4949521 -0.062053995   -4.1081537   0.61320156   439061 
 2042000   0.40892062   -4.1087077   -4.1087077   -3.4953282 -0.060511718   -4.1087077   0.61337953   439061 
 2043000    0.4092058   -4.1089487   -4.1089487   -3.4951414 -0.057897448   -4.1089487    0.6138073   439061 
 2044000   0.40935227   -4.1093569   -4.1093569   -3.4953299 -0.058156882   -4.1093569     0.614027   439061 
 2045000   0.40888361     -4.10965     -4.10965   -3.4963259 -0.060236177     -4.10965   0.61332402   439061 
 2046000   0.40849949   -4.1084236   -4.1084236   -3.4956757 -0.059240743   -4.1084236   0.61274784   439061 
 2047000   0.40965481   -4.1107207   -4.1107207   -3.4962399  -0.06141356   -4.1107207   0.61448081   439061 
 2048000   0.40880181    -4.110083    -4.110083   -3.4968817 -0.064184248    -4.110083   0.61320132   439061 
 2049000   0.40893069     -4.11015     -4.11015   -3.4967554 -0.062866536     -4.11015   0.61339464   439061 
 2050000   0.40927498   -4.1110078   -4.1110078   -3.4970967 -0.060739342   -4.1110078   0.61391107   439061 
 2051000   0.40959792   -4.1117662   -4.1117662   -3.4973707 -0.062125589   -4.1117662   0.61439547   439061 
 2052000   0.40853204   -4.1112258   -4.1112258   -3.4984291 -0.059966293   -4.1112258   0.61279666   439061 
 2053000   0.40904488   -4.1114257   -4.1114257   -3.4978598 -0.060993641   -4.1114257   0.61356592   439061 
 2054000   0.40866744   -4.1118027   -4.1118027    -3.498803 -0.062796353   -4.1118027   0.61299976   439061 
 2055000   0.40790414   -4.1101836   -4.1101836   -3.4983288 -0.060782179   -4.1101836   0.61185482   439061 
 2056000   0.40867144   -4.1110685   -4.1110685   -3.4980628 -0.062506888   -4.1110685   0.61300576   439061 
 2057000   0.40786682   -4.1102817   -4.1102817   -3.4984828 -0.060602734   -4.1102817   0.61179883   439061 
 2058000   0.40886948   -4.1122129   -4.1122129   -3.4989101 -0.063502089   -4.1122129   0.61330283   439061 
 2059000   0.40823397   -4.1118875   -4.1118875   -3.4995379 -0.061483752   -4.1118875   0.61234957   439061 
 2060000   0.40900015   -4.1133638   -4.1133638    -3.499865 -0.060882023   -4.1133638   0.61349883   439061 
 2061000   0.40887437   -4.1140553   -4.1140553   -3.5007452 -0.059001059   -4.1140553   0.61331016   439061 
 2062000   0.40817034   -4.1129107   -4.1129107   -3.5006566 -0.059773687   -4.1129107   0.61225412   439061 
 2063000   0.40850512   -4.1139809   -4.1139809   -3.5012246 -0.063404474   -4.1139809   0.61275629   439061 
 2064000   0.40845863   -4.1139485   -4.1139485    -3.501262  -0.06607766   -4.1139485   0.61268655   439061 
 2065000   0.40735093   -4.1124921   -4.1124921   -3.5014671 -0.064320951   -4.1124921   0.61102501   439061 
 2066000   0.40874644    -4.114478    -4.114478   -3.5013597 -0.066489761    -4.114478   0.61311827   439061 
 2067000   0.40849134    -4.114702    -4.114702   -3.5019664 -0.064397555    -4.114702   0.61273562   439061 
 2068000   0.40786267   -4.1140391   -4.1140391   -3.5022465 -0.059294408   -4.1140391   0.61179262   439061 
 2069000   0.40829232   -4.1145794   -4.1145794   -3.5021423 -0.057035177   -4.1145794   0.61243709   439061 
 2070000   0.40837829   -4.1153428   -4.1153428   -3.5027767  -0.06131695   -4.1153428   0.61256604   439061 
 2071000   0.40810971   -4.1149745   -4.1149745   -3.5028113 -0.062085515   -4.1149745   0.61216317   439061 
 2072000    0.4075411   -4.1145669   -4.1145669   -3.5032566 -0.061434936   -4.1145669   0.61131026   439061 
 2073000   0.40854115    -4.115819    -4.115819   -3.5030087  -0.06480899    -4.115819   0.61281033   439061 
 2074000   0.40826084   -4.1154236   -4.1154236   -3.5030338 -0.063437597   -4.1154236   0.61238987   439061 
 2075000   0.40802718   -4.1152106   -4.1152106   -3.5031712 -0.061459344   -4.1152106   0.61203938   439061 
 2076000   0.40865269   -4.1160583   -4.1160583   -3.5030806 -0.061391849   -4.1160583   0.61297764   439061 
 2077000   0.40821378   -4.1160646   -4.1160646   -3.5037453 -0.060756754   -4.1160646   0.61231927   439061 
 2078000   0.40751667      -4.1152      -4.1152   -3.5039264 -0.062608573      -4.1152   0.61127361   439061 
 2079000    0.4078932    -4.116513    -4.116513   -3.5046746 -0.063470614    -4.116513   0.61183841   439061 
 2080000   0.40822184   -4.1167196   -4.1167196   -3.5043883 -0.062525376   -4.1167196   0.61233137   439061 
 2081000    0.4079916   -4.1161794   -4.1161794   -3.5041934 -0.063793017   -4.1161794     0.611986   439061 
 2082000   0.40760698   -4.1162042   -4.1162042   -3.5047952   -0.0607446   -4.1162042   0.61140908   439061 
 2083000   0.40768516   -4.1169886   -4.1169886   -3.5054623 -0.065076825   -4.1169886   0.61152635   439061 
 2084000   0.40788512   -4.1170301   -4.1170301   -3.5052039 -0.062261077   -4.1170301   0.61182628   439061 
 2085000   0.40768053   -4.1164911   -4.1164911   -3.5049717 -0.060977593   -4.1164911    0.6115194   439061 
 2086000   0.40815253   -4.1170438   -4.1170438   -3.5048164 -0.062694548   -4.1170438    0.6122274   439061 
 2087000   0.40790091    -4.117799    -4.117799   -3.5059491 -0.063574395    -4.117799   0.61184997   439061 
 2088000   0.40699681   -4.1171949   -4.1171949    -3.506701 -0.065075331   -4.1171949   0.61049383   439061 
 2089000   0.40690618   -4.1175653   -4.1175653   -3.5072074 -0.064217659   -4.1175653   0.61035788   439061 
 2090000   0.40789584   -4.1188369   -4.1188369   -3.5069946 -0.063503223   -4.1188369   0.61184236   439061 
 2091000   0.40764323   -4.1184278   -4.1184278   -3.5069644  -0.06193673   -4.1184278   0.61146345   439061 
 2092000    0.4083392   -4.1191692   -4.1191692   -3.5066618 -0.062338766   -4.1191692   0.61250741   439061 
 2093000   0.40757578   -4.1179979   -4.1179979   -3.5066356 -0.063025719   -4.1179979   0.61136229   439061 
 2094000   0.40758815   -4.1181778   -4.1181778   -3.5067969 -0.065338408   -4.1181778   0.61138084   439061 
 2095000   0.40809505   -4.1191073   -4.1191073   -3.5069661 -0.068078434   -4.1191073   0.61214119   439061 
 2096000   0.40709737   -4.1174062   -4.1174062   -3.5067615 -0.066391425   -4.1174062   0.61064466   439061 
 2097000   0.40771323   -4.1178825   -4.1178825   -3.5063141 -0.061455836   -4.1178825   0.61156845   439061 
 2098000   0.40799505   -4.1183624   -4.1183624   -3.5063712 -0.059172943   -4.1183624   0.61199118   439061 
 2099000   0.40894557    -4.119645    -4.119645    -3.506228 -0.063803434    -4.119645   0.61341695   439061 
 2100000    0.4082621   -4.1199111   -4.1199111   -3.5075193 -0.063712426   -4.1199111   0.61239176   439061 
 2101000   0.40799611   -4.1195603   -4.1195603   -3.5075676 -0.066949771   -4.1195603   0.61199277   439061 
 2102000   0.40740762   -4.1193818   -4.1193818   -3.5082718 -0.066203433   -4.1193818   0.61111003   439061 
 2103000   0.40793754   -4.1201195   -4.1201195   -3.5082146 -0.068990484   -4.1201195   0.61190492   439061 
 2104000   0.40707122   -4.1195279   -4.1195279   -3.5089224 -0.065995658   -4.1195279   0.61060544   439061 
 2105000   0.40721546   -4.1198146   -4.1198146   -3.5089928 -0.062075362   -4.1198146    0.6108218   439061 
 2106000   0.40765853   -4.1199486   -4.1199486   -3.5084621 -0.063379804   -4.1199486   0.61148641   439061 
 2107000   0.40735873   -4.1201984   -4.1201984   -3.5091617 -0.063474589   -4.1201984    0.6110367   439061 
 2108000   0.40794384   -4.1213159   -4.1213159   -3.5094016 -0.066854355   -4.1213159   0.61191437   439061 
 2109000   0.40730043   -4.1200048   -4.1200048   -3.5090555 -0.065735918   -4.1200048   0.61094925   439061 
 2110000   0.40737842   -4.1208186   -4.1208186   -3.5097523 -0.065640502   -4.1208186   0.61106624   439061 
 2111000   0.40716533   -4.1204474   -4.1204474   -3.5097008 -0.065913109   -4.1204474    0.6107466   439061 
 2112000   0.40760384   -4.1201107   -4.1201107   -3.5087064 -0.065802431   -4.1201107   0.61140437   439061 
 2113000    0.4072265   -4.1198278   -4.1198278   -3.5089894 -0.062451601   -4.1198278   0.61083836   439061 
 2114000    0.4063996   -4.1193861   -4.1193861   -3.5097881 -0.063816532   -4.1193861   0.60959801   439061 
 2115000   0.40658577   -4.1205463   -4.1205463   -3.5106691 -0.063213038   -4.1205463   0.60987727   439061 
 2116000   0.40685888   -4.1213873   -4.1213873   -3.5111004 -0.064519573   -4.1213873   0.61028693   439061 
 2117000   0.40725475   -4.1226152   -4.1226152   -3.5117345 -0.068407112   -4.1226152   0.61088074   439061 
 2118000   0.40675759   -4.1222492   -4.1222492   -3.5121143 -0.066438734   -4.1222492     0.610135   439061 
 2119000   0.40668698   -4.1223582   -4.1223582   -3.5123291 -0.068068581   -4.1223582   0.61002908   439061 
 2120000   0.40614591   -4.1221879   -4.1221879   -3.5129704 -0.067305677   -4.1221879   0.60921747   439061 
 2121000   0.40713011   -4.1230518   -4.1230518    -3.512358 -0.066633985   -4.1230518   0.61069377   439061 
 2122000   0.40664093   -4.1211247   -4.1211247   -3.5111647 -0.062659507   -4.1211247   0.60996001   439061 
 2123000   0.40768838    -4.123061    -4.123061   -3.5115299 -0.066133705    -4.123061   0.61153118   439061 
 2124000   0.40638249   -4.1212728   -4.1212728   -3.5117004 -0.065321378   -4.1212728   0.60957234   439061 
 2125000   0.40684477   -4.1219991   -4.1219991   -3.5117333 -0.065277335   -4.1219991   0.61026576   439061 
 2126000   0.40641974   -4.1226978   -4.1226978   -3.5130696 -0.067891858   -4.1226978   0.60962823   439061 
 2127000    0.4064875   -4.1227434   -4.1227434   -3.5130136 -0.068642786   -4.1227434   0.60972987   439061 
 2128000   0.40654383   -4.1234778   -4.1234778   -3.5136635 -0.066856625   -4.1234778   0.60981436   439061 
 2129000   0.40623494   -4.1229613   -4.1229613   -3.5136102 -0.065127674   -4.1229613   0.60935102   439061 
 2130000    0.4063845   -4.1237326   -4.1237326   -3.5141572 -0.066946338   -4.1237326   0.60957537   439061 
 2131000   0.40594515   -4.1232431   -4.1232431   -3.5143267 -0.064056253   -4.1232431   0.60891634   439061 
 2132000   0.40614151   -4.1232314   -4.1232314   -3.5140205 -0.066634432   -4.1232314   0.60921088   439061 
 2133000   0.40593168   -4.1230568   -4.1230568   -3.5141606 -0.065319814   -4.1230568   0.60889613   439061 
 2134000   0.40576769   -4.1227527   -4.1227527   -3.5141026 -0.066932722   -4.1227527   0.60865015   439061 
 2135000   0.40581395   -4.1229951   -4.1229951   -3.5142755 -0.068167311   -4.1229951   0.60871955   439061 
 2136000   0.40525846   -4.1224087   -4.1224087   -3.5145224 -0.065973257   -4.1224087   0.60788631   439061 
 2137000   0.40669514   -4.1240942   -4.1240942   -3.5140529 -0.066967644   -4.1240942   0.61004131   439061 
 2138000   0.40635714   -4.1240993   -4.1240993    -3.514565 -0.066601015   -4.1240993   0.60953432   439061 
 2139000   0.40601046   -4.1240279   -4.1240279   -3.5150136 -0.064157821   -4.1240279    0.6090143   439061 
 2140000   0.40593992   -4.1241687   -4.1241687   -3.5152602 -0.066457998   -4.1241687   0.60890849   439061 
 2141000   0.40610638   -4.1247659   -4.1247659   -3.5156077 -0.069083274   -4.1247659   0.60915818   439061 
 2142000   0.40610592   -4.1246407   -4.1246407   -3.5154832 -0.069899483   -4.1246407   0.60915749   439061 
 2143000   0.40678046   -4.1252496   -4.1252496   -3.5150803 -0.070836472   -4.1252496    0.6101693   439061 
 2144000   0.40598149   -4.1247395   -4.1247395   -3.5157687 -0.068515325   -4.1247395   0.60897085   439061 
 2145000   0.40536604   -4.1244149   -4.1244149   -3.5163672 -0.067010538   -4.1244149   0.60804767   439061 
 2146000   0.40576986   -4.1257373   -4.1257373   -3.5170839 -0.067567715   -4.1257373   0.60865341   439061 
 2147000   0.40479568   -4.1245062   -4.1245062   -3.5173141 -0.067173885   -4.1245062   0.60719213   439061 
 2148000   0.40489047   -4.1253903   -4.1253903    -3.518056  -0.06963041   -4.1253903   0.60733432   439061 
 2149000   0.40531677   -4.1258497   -4.1258497   -3.5178759  -0.06644159   -4.1258497   0.60797377   439061 
 2150000   0.40525958    -4.126479    -4.126479   -3.5185911 -0.070529576    -4.126479   0.60788798   439061 
 2151000   0.40530244   -4.1263182   -4.1263182   -3.5183659 -0.068907677   -4.1263182   0.60795227   439061 
 2152000   0.40503687   -4.1257625   -4.1257625   -3.5182086 -0.065696538   -4.1257625   0.60755392   439061 
 2153000   0.40523774   -4.1267476   -4.1267476   -3.5188924 -0.072123412   -4.1267476   0.60785522   439061 
 2154000   0.40498542    -4.125723    -4.125723   -3.5182462 -0.070096104    -4.125723   0.60747675   439061 
 2155000   0.40475745   -4.1250786   -4.1250786   -3.5179438 -0.069177407   -4.1250786   0.60713479   439061 
 2156000    0.4053173   -4.1260792   -4.1260792   -3.5181046 -0.069463452   -4.1260792   0.60797457   439061 
 2157000   0.40493141   -4.1261713   -4.1261713   -3.5187756 -0.067123303   -4.1261713   0.60739573   439061 
 2158000   0.40520787   -4.1270715   -4.1270715   -3.5192611 -0.071223372   -4.1270715   0.60781042   439061 
 2159000   0.40531313   -4.1267927   -4.1267927   -3.5188244 -0.068671546   -4.1267927   0.60796831   439061 
 2160000   0.40535502   -4.1265906   -4.1265906   -3.5185595   -0.0691714   -4.1265906   0.60803114   439061 
 2161000   0.40570033   -4.1268114   -4.1268114   -3.5182623 -0.071977825   -4.1268114   0.60854911   439061 
 2162000   0.40625924   -4.1270022   -4.1270022   -3.5176147 -0.072092464   -4.1270022   0.60938747   439061 
 2163000   0.40591042   -4.1270526   -4.1270526   -3.5181883 -0.073198211   -4.1270526   0.60886425   439061 
 2164000   0.40430006   -4.1255266   -4.1255266   -3.5190778 -0.069061713   -4.1255266   0.60644871   439061 
 2165000   0.40584632   -4.1277958   -4.1277958   -3.5190277 -0.071346794   -4.1277958   0.60876809   439061 
 2166000   0.40540824   -4.1276001   -4.1276001   -3.5194891 -0.071601828   -4.1276001   0.60811098   439061 
 2167000   0.40519504   -4.1269108   -4.1269108   -3.5191196 -0.066186757   -4.1269108   0.60779117   439061 
 2168000   0.40531772    -4.127208    -4.127208   -3.5192329 -0.068762482    -4.127208   0.60797519   439061 
 2169000   0.40563135   -4.1278227   -4.1278227   -3.5193771 -0.071382719   -4.1278227   0.60844564   439061 
 2170000   0.40440027   -4.1267746   -4.1267746   -3.5201756 -0.069978756   -4.1267746   0.60659903   439061 
 2171000   0.40452117   -4.1264902   -4.1264902   -3.5197098 -0.070652167   -4.1264902   0.60678037   439061 
 2172000   0.40525442   -4.1272634   -4.1272634   -3.5193831 -0.069817798   -4.1272634   0.60788025   439061 
 2173000   0.40516813   -4.1276272   -4.1276272   -3.5198764 -0.069202117   -4.1276272   0.60775081   439061 
 2174000   0.40482451   -4.1270684   -4.1270684    -3.519833 -0.069130329   -4.1270684   0.60723538   439061 
 2175000   0.40563763   -4.1285954   -4.1285954   -3.5201403 -0.069896407   -4.1285954   0.60845507   439061 
 2176000   0.40505076    -4.128634    -4.128634   -3.5210592 -0.072340005    -4.128634   0.60757476   439061 
 2177000   0.40481195   -4.1283283   -4.1283283   -3.5211117 -0.072172934   -4.1283283   0.60721654   439061 
 2178000   0.40504859   -4.1284486   -4.1284486   -3.5208771  -0.07083104   -4.1284486    0.6075715   439061 
 2179000   0.40545172    -4.128208    -4.128208   -3.5200318 -0.070899994    -4.128208    0.6081762   439061 
 2180000   0.40484668   -4.1279859   -4.1279859   -3.5207173 -0.068324112   -4.1279859   0.60726864   439061 
 2181000    0.4045792   -4.1269981   -4.1269981   -3.5201306 -0.069001796   -4.1269981   0.60686741   439061 
 2182000   0.40563792    -4.128672    -4.128672   -3.5202165 -0.072183783    -4.128672   0.60845549   439061 
 2183000   0.40538759   -4.1289706   -4.1289706   -3.5208906 -0.073967833   -4.1289706      0.60808   439061 
 2184000   0.40490264   -4.1287136   -4.1287136    -3.521361 -0.074395498   -4.1287136   0.60735258   439061 
 2185000   0.40446719   -4.1278961   -4.1278961   -3.5211967 -0.070113202   -4.1278961   0.60669941   439061 
 2186000   0.40482657   -4.1279918   -4.1279918   -3.5207533 -0.068249443   -4.1279918   0.60723847   439061 
 2187000   0.40530911   -4.1293978   -4.1293978   -3.5214356 -0.072307527   -4.1293978   0.60796227   439061 
 2188000   0.40465028     -4.12939     -4.12939   -3.5224159 -0.070491652     -4.12939   0.60697403   439061 
 2189000   0.40449309   -4.1286454   -4.1286454   -3.5219071 -0.068772213   -4.1286454   0.60673826   439061 
 2190000   0.40464113    -4.129483    -4.129483   -3.5225227 -0.073680398    -4.129483   0.60696031   439061 
 2191000   0.40411067   -4.1295923   -4.1295923   -3.5234277 -0.071802632   -4.1295923   0.60616462   439061 
 2192000   0.40410897   -4.1289184   -4.1289184   -3.5227563 -0.070300818   -4.1289184   0.60616207   439061 
 2193000     0.404333   -4.1300787   -4.1300787   -3.5235806 -0.073701704   -4.1300787   0.60649812   439061 
 2194000   0.40411474   -4.1301811   -4.1301811   -3.5240103   -0.0728512   -4.1301811   0.60617073   439061 
 2195000   0.40433897   -4.1294406   -4.1294406   -3.5229335  -0.06965795   -4.1294406   0.60650707   439061 
 2196000   0.40458212   -4.1301564   -4.1301564   -3.5232846 -0.068240999   -4.1301564   0.60687179   439061 
 2197000   0.40474761   -4.1305314   -4.1305314   -3.5234113 -0.073006765   -4.1305314   0.60712003   439061 
 2198000   0.40434572   -4.1306067   -4.1306067   -3.5240895 -0.072007624   -4.1306067    0.6065172   439061 
 2199000   0.40386513   -4.1302817   -4.1302817   -3.5244854 -0.074467757   -4.1302817   0.60579632   439061 
 2200000   0.40449475   -4.1307998   -4.1307998   -3.5240591 -0.073885043   -4.1307998   0.60674074   439061 
 2201000   0.40393652   -4.1301819   -4.1301819   -3.5242785 -0.069625576   -4.1301819    0.6059034   439061 
 2202000    0.4045095   -4.1310305   -4.1310305   -3.5242677 -0.071875674   -4.1310305   0.60676286   439061 
 2203000   0.40488259   -4.1320684   -4.1320684   -3.5247459 -0.073260239   -4.1320684    0.6073225   439061 
 2204000   0.40423198   -4.1314205   -4.1314205   -3.5250739 -0.070128572   -4.1314205   0.60634659   439061 
 2205000   0.40418778   -4.1316315   -4.1316315   -3.5253512 -0.073052139   -4.1316315    0.6062803   439061 
 2206000   0.40384175   -4.1311794   -4.1311794   -3.5254182  -0.07150796   -4.1311794   0.60576125   439061 
 2207000   0.40347718   -4.1313456   -4.1313456   -3.5261312 -0.074038996   -4.1313456    0.6052144   439061 
 2208000   0.40374997   -4.1315061   -4.1315061   -3.5258825 -0.074940002   -4.1315061   0.60562358   439061 
 2209000   0.40371743   -4.1314581   -4.1314581   -3.5258833  -0.07045014   -4.1314581   0.60557476   439061 
 2210000   0.40403641   -4.1316253   -4.1316253   -3.5255721 -0.073441195   -4.1316253   0.60605323   439061 
 2211000    0.4044838    -4.132597    -4.132597   -3.5258726 -0.073270182    -4.132597   0.60672432   439061 
 2212000   0.40393658   -4.1312535   -4.1312535     -3.52535  -0.07070548   -4.1312535   0.60590348   439061 
 2213000    0.4033484   -4.1307477   -4.1307477   -3.5257265 -0.071871831   -4.1307477   0.60502122   439061 
 2214000    0.4041595    -4.132513    -4.132513   -3.5262751  -0.07438374    -4.132513   0.60623787   439061 
 2215000   0.40399025   -4.1320082   -4.1320082   -3.5260242 -0.073720994   -4.1320082     0.605984   439061 
 2216000   0.40402552    -4.131853    -4.131853   -3.5258161 -0.070928875    -4.131853    0.6060369   439061 
 2217000   0.40383503   -4.1315709   -4.1315709   -3.5258197 -0.069270053   -4.1315709   0.60575117   439061 
 2218000   0.40441817   -4.1329482   -4.1329482   -3.5263223 -0.072721546   -4.1329482   0.60662587   439061 
 2219000   0.40402566   -4.1322355   -4.1322355   -3.5261984 -0.072624315   -4.1322355    0.6060371   439061 
 2220000   0.40353621   -4.1319826   -4.1319826   -3.5266796 -0.075036012   -4.1319826   0.60530294   439061 
 2221000   0.40321157   -4.1318052   -4.1318052   -3.5269893 -0.076792876   -4.1318052   0.60481597   439061 
 2222000   0.40331782   -4.1330569   -4.1330569   -3.5280816 -0.077185557   -4.1330569   0.60497535   439061 
 2223000   0.40324275   -4.1327082   -4.1327082   -3.5278454  -0.07449065   -4.1327082   0.60486275   439061 
 2224000   0.40378356   -4.1334773   -4.1334773   -3.5278033  -0.06989422   -4.1334773   0.60567396   439061 
 2225000   0.40392045   -4.1345515   -4.1345515   -3.5286722 -0.071986464   -4.1345515   0.60587929   439061 
 2226000   0.40367399   -4.1332776   -4.1332776    -3.527768 -0.070200925   -4.1332776    0.6055096   439061 
 2227000   0.40384054   -4.1330758   -4.1330758   -3.5273163 -0.070807274   -4.1330758   0.60575942   439061 
 2228000   0.40389385   -4.1330904   -4.1330904    -3.527251 -0.078309308   -4.1330904   0.60583939   439061 
 2229000   0.40375965   -4.1326262   -4.1326262   -3.5269881 -0.076721593   -4.1326262    0.6056381   439061 
 2230000   0.40377786   -4.1326097   -4.1326097   -3.5269443 -0.074844105   -4.1326097   0.60566541   439061 
 2231000   0.40345907   -4.1324577   -4.1324577   -3.5272704 -0.076353739   -4.1324577   0.60518723   439061 
 2232000   0.40345652   -4.1332731   -4.1332731   -3.5280897 -0.070868391   -4.1332731   0.60518339   439061 
 2233000   0.40392374   -4.1326319   -4.1326319   -3.5267477 -0.068238124   -4.1326319   0.60588423   439061 
 2234000   0.40441672   -4.1337428   -4.1337428   -3.5271191 -0.070989538   -4.1337428    0.6066237   439061 
 2235000   0.40409002   -4.1339081   -4.1339081   -3.5277745 -0.071356483   -4.1339081   0.60613365   439061 
 2236000   0.40293481   -4.1328744   -4.1328744   -3.5284736 -0.079377058   -4.1328744   0.60440084   439061 
 2237000   0.40292349   -4.1328236   -4.1328236   -3.5284397 -0.075940639   -4.1328236   0.60438385   439061 
 2238000   0.40270905   -4.1320191   -4.1320191   -3.5279569 -0.075598769   -4.1320191    0.6040622   439061 
 2239000   0.40338437   -4.1332311   -4.1332311   -3.5281559 -0.073308618   -4.1332311   0.60507517   439061 
 2240000   0.40340994    -4.133542    -4.133542   -3.5284284 -0.067442642    -4.133542   0.60511353   439061 
 2241000    0.4030271   -4.1335845   -4.1335845   -3.5290453 -0.069413804   -4.1335845   0.60453928   439061 
 2242000   0.40329834   -4.1343967   -4.1343967   -3.5294506 -0.072259181   -4.1343967   0.60494613   439061 
 2243000   0.40331695   -4.1342168   -4.1342168   -3.5292427 -0.074204703   -4.1342168   0.60497404   439061 
 2244000   0.40283652   -4.1336287   -4.1336287   -3.5293753 -0.081011923   -4.1336287    0.6042534   439061 
 2245000   0.40238225   -4.1332245   -4.1332245   -3.5296525 -0.077246117   -4.1332245     0.603572   439061 
 2246000    0.4028398    -4.133771    -4.133771   -3.5295127 -0.076297277    -4.133771   0.60425832   439061 
 2247000   0.40272577   -4.1339221   -4.1339221   -3.5298348 -0.071447903   -4.1339221   0.60408728   439061 
 2248000   0.40318267    -4.134435    -4.134435   -3.5296624 -0.069455375    -4.134435   0.60477262   439061 
 2249000    0.4034852   -4.1351128   -4.1351128   -3.5298863 -0.071679511   -4.1351128   0.60522643   439061 
 2250000   0.40332575   -4.1348747   -4.1348747   -3.5298874  -0.07239219   -4.1348747   0.60498725   439061 
 2251000   0.40311024   -4.1346485   -4.1346485   -3.5299845 -0.078336491   -4.1346485   0.60466398   439061 
 2252000   0.40334355   -4.1346377   -4.1346377   -3.5296238 -0.079442702   -4.1346377   0.60501394   439061 
 2253000   0.40312615   -4.1342868   -4.1342868    -3.529599 -0.076152465   -4.1342868   0.60468785   439061 
 2254000   0.40318707   -4.1344451   -4.1344451   -3.5296659 -0.077341568   -4.1344451   0.60477923   439061 
 2255000    0.4031076   -4.1347865   -4.1347865   -3.5301265 -0.074005214   -4.1347865   0.60466002   439061 
 2256000    0.4034811   -4.1351536   -4.1351536   -3.5299333 -0.070666077   -4.1351536   0.60522027   439061 
 2257000   0.40418479   -4.1366131   -4.1366131   -3.5303373 -0.073012197   -4.1366131   0.60627581   439061 
 2258000   0.40282572   -4.1354269   -4.1354269   -3.5311897 -0.072680579   -4.1354269    0.6042372   439061 
 2259000   0.40198425   -4.1340812   -4.1340812   -3.5311061 -0.073663941   -4.1340812   0.60297501   439061 
 2260000   0.40312208    -4.135154    -4.135154   -3.5304723  -0.07698988    -4.135154   0.60468174   439061 
 2261000   0.40329044   -4.1357232   -4.1357232   -3.5307889  -0.07664332   -4.1357232   0.60493429   439061 
 2262000    0.4028761    -4.134776    -4.134776   -3.5304632 -0.075532229    -4.134776   0.60431277   439061 
 2263000   0.40288108   -4.1354326   -4.1354326   -3.5311124 -0.072741446   -4.1354326   0.60432024   439061 
 2264000   0.40331659   -4.1365217   -4.1365217   -3.5315482 -0.074584219   -4.1365217   0.60497351   439061 
 2265000   0.40282947   -4.1354654   -4.1354654   -3.5312225 -0.072812692   -4.1354654   0.60424282   439061 
 2266000   0.40295942   -4.1352925   -4.1352925   -3.5308548 -0.072231875   -4.1352925   0.60443775   439061 
 2267000   0.40284884   -4.1353901   -4.1353901   -3.5311182 -0.075610445   -4.1353901   0.60427189   439061 
 2268000   0.40303393   -4.1353812   -4.1353812   -3.5308317 -0.077772097   -4.1353812   0.60454952   439061 
 2269000   0.40264533   -4.1345933   -4.1345933   -3.5306267 -0.074849019   -4.1345933   0.60396662   439061 
 2270000   0.40301493   -4.1363987   -4.1363987   -3.5318776  -0.07706012   -4.1363987   0.60452102   439061 
 2271000   0.40212221   -4.1356284   -4.1356284   -3.5324465 -0.074844954   -4.1356284   0.60318195   439061 
 2272000   0.40287138   -4.1366821   -4.1366821   -3.5323764 -0.074141139   -4.1366821   0.60430569   439061 
 2273000   0.40268402   -4.1367903   -4.1367903   -3.5327657 -0.072565364   -4.1367903   0.60402465   439061 
 2274000   0.40247251   -4.1364837   -4.1364837   -3.5327763 -0.073249332   -4.1364837   0.60370739   439061 
 2275000    0.4022927   -4.1368608   -4.1368608   -3.5334232 -0.075115505   -4.1368608   0.60343767   439061 
 2276000   0.40272307   -4.1372485   -4.1372485   -3.5331653 -0.077309694   -4.1372485   0.60408322   439061 
 2277000   0.40206406   -4.1363779   -4.1363779   -3.5332832 -0.077671829   -4.1363779   0.60309471   439061 
 2278000   0.40232117   -4.1376095   -4.1376095   -3.5341292 -0.077673171   -4.1376095   0.60348037   439061 
 2279000   0.40272909   -4.1369894   -4.1369894   -3.5328971 -0.076487867   -4.1369894   0.60409226   439061 
 2280000   0.40305999   -4.1371488   -4.1371488   -3.5325602  -0.07292534   -4.1371488   0.60458861   439061 
 2281000   0.40220192   -4.1360134   -4.1360134   -3.5327119 -0.071071694   -4.1360134    0.6033015   439061 
 2282000   0.40273397   -4.1366066   -4.1366066   -3.5325071  -0.07580432   -4.1366066   0.60409958   439061 
 2283000   0.40295483   -4.1366678   -4.1366678    -3.532237 -0.075979371   -4.1366678   0.60443087   439061 
 2284000   0.40245462   -4.1361501   -4.1361501   -3.5324695 -0.078365468   -4.1361501   0.60368056   439061 
 2285000   0.40209014   -4.1363445   -4.1363445   -3.5332107   -0.0776059   -4.1363445   0.60313383   439061 
 2286000   0.40220055   -4.1373345   -4.1373345    -3.534035 -0.075805824   -4.1373345   0.60329946   439061 
 2287000   0.40206604   -4.1372061   -4.1372061   -3.5341084 -0.074244112   -4.1372061   0.60309769   439061 
 2288000   0.40243768   -4.1376594   -4.1376594   -3.5340043 -0.071188821   -4.1376594   0.60365515   439061 
 2289000   0.40240651   -4.1374076   -4.1374076   -3.5337992 -0.071713899   -4.1374076   0.60360839   439061 
 2290000   0.40213696   -4.1373035   -4.1373035   -3.5340994 -0.076456506   -4.1373035   0.60320406   439061 
 2291000   0.40143753   -4.1360763   -4.1360763   -3.5339214 -0.074992409   -4.1360763   0.60215493   439061 
 2292000    0.4019417   -4.1360483   -4.1360483   -3.5331372 -0.079463188   -4.1360483   0.60291117   439061 
 2293000   0.40249505   -4.1369559   -4.1369559   -3.5332147 -0.078906916   -4.1369559    0.6037412   439061 
 2294000   0.40171755    -4.136687    -4.136687    -3.534112 -0.077265534    -4.136687   0.60257495   439061 
 2295000   0.40267989   -4.1379975   -4.1379975    -3.533979 -0.074232975   -4.1379975   0.60401846   439061 
 2296000   0.40278544   -4.1383927   -4.1383927   -3.5342159 -0.072608011   -4.1383927   0.60417678   439061 
 2297000   0.40252717    -4.138879    -4.138879   -3.5350897 -0.077552983    -4.138879   0.60378938   439061 
 2298000    0.4024789   -4.1392251   -4.1392251   -3.5355081 -0.079049963   -4.1392251   0.60371697   439061 
 2299000   0.40253489    -4.139048    -4.139048    -3.535247 -0.080410935    -4.139048   0.60380096   439061 
 2300000    0.4010554   -4.1364298   -4.1364298    -3.534848 -0.077037852   -4.1364298   0.60158173   439061 
 2301000   0.40216204   -4.1376937   -4.1376937   -3.5344521 -0.078731604   -4.1376937   0.60324169   439061 
 2302000   0.40167536   -4.1375041   -4.1375041   -3.5349924 -0.077228263   -4.1375041   0.60251166   439061 
 2303000   0.40280728   -4.1390366   -4.1390366    -3.534827 -0.077175781   -4.1390366   0.60420954   439061 
 2304000   0.40223272   -4.1387061   -4.1387061   -3.5353584 -0.076579956   -4.1387061    0.6033477   439061 
 2305000   0.40221303   -4.1384882   -4.1384882     -3.53517 -0.075555195   -4.1384882   0.60331817   439061 
 2306000     0.402276   -4.1374755   -4.1374755   -3.5340628 -0.072409828   -4.1374755   0.60341262   439061 
 2307000   0.40260129   -4.1383347   -4.1383347   -3.5344342 -0.078709787   -4.1383347   0.60390055   439061 
 2308000   0.40166329   -4.1378494   -4.1378494   -3.5353558 -0.080249065   -4.1378494   0.60249356   439061 
 2309000   0.40187526   -4.1386387   -4.1386387   -3.5358272 -0.079554577   -4.1386387   0.60281152   439061 
 2310000   0.40212135   -4.1381452   -4.1381452   -3.5349645 -0.079081639   -4.1381452   0.60318065   439061 
 2311000   0.40120349   -4.1369834   -4.1369834   -3.5351795 -0.073750045   -4.1369834   0.60180387   439061 
 2312000   0.40258852   -4.1383977   -4.1383977   -3.5345163 -0.074770979   -4.1383977    0.6038814   439061 
 2313000   0.40260138   -4.1390789   -4.1390789   -3.5351782 -0.078681008   -4.1390789   0.60390069   439061 
 2314000   0.40186385   -4.1379157   -4.1379157   -3.5351214 -0.075825493   -4.1379157    0.6027944   439061 
 2315000   0.40216416   -4.1383651   -4.1383651   -3.5351202 -0.079299499   -4.1383651   0.60324487   439061 
 2316000    0.4017633   -4.1380399   -4.1380399   -3.5353963 -0.079168788   -4.1380399   0.60264357   439061 
 2317000   0.40192955   -4.1379443   -4.1379443   -3.5350514 -0.076285326   -4.1379443   0.60289295   439061 
 2318000   0.40252332   -4.1388361   -4.1388361   -3.5350525 -0.077442616   -4.1388361    0.6037836   439061 
 2319000    0.4020353   -4.1388127   -4.1388127   -3.5357612 -0.075337826   -4.1388127   0.60305158   439061 
 2320000   0.40229942   -4.1393138   -4.1393138    -3.535866 -0.077843089   -4.1393138   0.60344775   439061 
 2321000   0.40124827   -4.1377675   -4.1377675   -3.5358964 -0.072631565   -4.1377675   0.60187104   439061 
 2322000   0.40224203   -4.1389812   -4.1389812   -3.5356196 -0.078162579   -4.1389812   0.60336168   439061 
 2323000   0.40132222   -4.1378394   -4.1378394   -3.5358575 -0.076562718   -4.1378394   0.60198196   439061 
 2324000   0.40240946    -4.139472    -4.139472   -3.5358592 -0.078884196    -4.139472   0.60361281   439061 
 2325000   0.40178413   -4.1391925   -4.1391925   -3.5365177 -0.079687267   -4.1391925   0.60267482   439061 
 2326000   0.40197918    -4.139213    -4.139213   -3.5362456 -0.077300894    -4.139213    0.6029674   439061 
 2327000   0.40234703   -4.1391331   -4.1391331   -3.5356139 -0.075324338   -4.1391331   0.60351917   439061 
 2328000   0.40216789   -4.1380943   -4.1380943   -3.5348438 -0.074769598   -4.1380943   0.60325046   439061 
 2329000   0.40269316     -4.13859     -4.13859   -3.5345516 -0.074789865     -4.13859   0.60403837   439061 
 2330000   0.40235685   -4.1391778   -4.1391778   -3.5356439   -0.0787305   -4.1391778   0.60353391   439061 
 2331000   0.40156369   -4.1389569   -4.1389569   -3.5366128 -0.083013051   -4.1389569   0.60234416   439061 
 2332000   0.40211149   -4.1388733   -4.1388733   -3.5357075 -0.077980276   -4.1388733   0.60316586   439061 
 2333000   0.40170419    -4.138526    -4.138526   -3.5359711 -0.078097737    -4.138526   0.60255491   439061 
 2334000   0.40208389   -4.1394995   -4.1394995    -3.536375 -0.076904838   -4.1394995   0.60312446   439061 
 2335000   0.40225603   -4.1388251   -4.1388251   -3.5354424 -0.073387819   -4.1388251   0.60338268   439061 
 2336000   0.40166045   -4.1380316   -4.1380316   -3.5355423 -0.075735163   -4.1380316    0.6024893   439061 
 2337000   0.40200164   -4.1393085   -4.1393085   -3.5363074 -0.078019624   -4.1393085   0.60300108   439061 
 2338000   0.40139962   -4.1387743   -4.1387743   -3.5366762 -0.078803279   -4.1387743   0.60209806   439061 
 2339000   0.40197337    -4.140002    -4.140002   -3.5370434 -0.079920597    -4.140002   0.60295868   439061 
 2340000    0.4013634   -4.1386678   -4.1386678   -3.5366241 -0.075989933   -4.1386678   0.60204373   439061 
 2341000   0.40193518   -4.1394688   -4.1394688   -3.5365674 -0.075646917   -4.1394688    0.6029014   439061 
 2342000   0.40211616   -4.1405015   -4.1405015   -3.5373286 -0.076236878   -4.1405015   0.60317287   439061 
 2343000   0.40181216   -4.1392569   -4.1392569   -3.5365401 -0.076211288   -4.1392569   0.60271687   439061 
 2344000   0.40109037   -4.1384498   -4.1384498   -3.5368157  -0.07628753   -4.1384498   0.60163418   439061 
 2345000   0.40160866   -4.1392684   -4.1392684   -3.5368568 -0.080068806   -4.1392684   0.60241161   439061 
 2346000   0.40159797   -4.1390297   -4.1390297   -3.5366341 -0.081025714   -4.1390297   0.60239558   439061 
 2347000   0.40170671   -4.1389336   -4.1389336   -3.5363749 -0.076662764   -4.1389336    0.6025587   439061 
 2348000   0.40266918   -4.1407065   -4.1407065   -3.5367041 -0.077293222   -4.1407065    0.6040024   439061 
 2349000   0.40207344    -4.139679    -4.139679   -3.5365702 -0.076480852    -4.139679   0.60310878   439061 
 2350000   0.40167153   -4.1396427   -4.1396427   -3.5371368 -0.074459148   -4.1396427   0.60250592   439061 
 2351000   0.40102666   -4.1390848   -4.1390848   -3.5375462 -0.076083091   -4.1390848   0.60153862   439061 
 2352000   0.40126826   -4.1394201   -4.1394201   -3.5375191  -0.07684058   -4.1394201   0.60190103   439061 
 2353000   0.40230941   -4.1399022   -4.1399022   -3.5364395 -0.077325983   -4.1399022   0.60346274   439061 
 2354000   0.40179995   -4.1396865   -4.1396865    -3.536988 -0.078938754   -4.1396865   0.60269855   439061 
 2355000    0.4014057   -4.1383931   -4.1383931    -3.536286 -0.075934822   -4.1383931   0.60210719   439061 
 2356000   0.40207572   -4.1389394   -4.1389394   -3.5358272 -0.077137474   -4.1389394    0.6031122   439061 
 2357000   0.40182661    -4.139531    -4.139531   -3.5367925 -0.077838609    -4.139531   0.60273855   439061 
 2358000   0.40277147   -4.1403385   -4.1403385   -3.5361827 -0.078260394   -4.1403385   0.60415584   439061 
 2359000   0.40224644    -4.140252    -4.140252   -3.5368837 -0.078057671    -4.140252   0.60336829   439061 
 2360000   0.40117404   -4.1387738   -4.1387738   -3.5370141 -0.078024466   -4.1387738   0.60175968   439061 
 2361000   0.40208199   -4.1399003   -4.1399003   -3.5367787  -0.07805781   -4.1399003   0.60312161   439061 
 2362000   0.40209324   -4.1401358   -4.1401358   -3.5369973 -0.079644068   -4.1401358   0.60313849   439061 
 2363000   0.40222925   -4.1397072   -4.1397072   -3.5363647 -0.078875843   -4.1397072    0.6033425   439061 
 2364000   0.40167892    -4.138861    -4.138861    -3.536344  -0.07470577    -4.138861     0.602517   439061 
 2365000   0.40251872    -4.139868    -4.139868   -3.5360913 -0.080294645    -4.139868    0.6037767   439061 
 2366000   0.40175599   -4.1389336   -4.1389336    -3.536301 -0.077207735   -4.1389336   0.60263261   439061 
 2367000   0.40153964    -4.138373    -4.138373   -3.5360649 -0.074136435    -4.138373   0.60230808   439061 
 2368000   0.40187628    -4.138647    -4.138647    -3.535834  -0.07643871    -4.138647   0.60281304   439061 
 2369000   0.40206535   -4.1392065   -4.1392065   -3.5361099 -0.075890357   -4.1392065   0.60309665   439061 
 2370000   0.40173331   -4.1386629   -4.1386629   -3.5360643 -0.076894618   -4.1386629   0.60259859   439061 
 2371000   0.40155703   -4.1389739   -4.1389739   -3.5366397 -0.078917954   -4.1389739   0.60233418   439061 
 2372000   0.40207792   -4.1402282   -4.1402282   -3.5371127 -0.079546256   -4.1402282   0.60311551   439061 
 2373000   0.40144352   -4.1387579   -4.1387579    -3.536594 -0.077098883   -4.1387579   0.60216391   439061 
 2374000    0.4022057   -4.1399457   -4.1399457   -3.5366386 -0.075597294   -4.1399457   0.60330717   439061 
 2375000    0.4017928   -4.1386637   -4.1386637   -3.5359758 -0.075359362   -4.1386637   0.60268783   439061 
 2376000   0.40142552   -4.1389071   -4.1389071   -3.5367702 -0.076163891   -4.1389071    0.6021369   439061 
 2377000   0.40111117   -4.1393412   -4.1393412   -3.5376758 -0.079795109   -4.1393412   0.60166538   439061 
 2378000   0.40168141   -4.1396948   -4.1396948    -3.537174 -0.081620005   -4.1396948   0.60252074   439061 
 2379000   0.40195269    -4.140185    -4.140185   -3.5372574 -0.080227962    -4.140185   0.60292767   439061 
 2380000   0.40157298   -4.1396456   -4.1396456   -3.5372875 -0.076339724   -4.1396456    0.6023581   439061 
 2381000   0.40191073   -4.1400021   -4.1400021   -3.5371373 -0.078016935   -4.1400021   0.60286472   439061 
 2382000   0.40217881     -4.14006     -4.14006   -3.5367931 -0.075347121     -4.14006   0.60326684   439061 
 2383000   0.40229508   -4.1402495   -4.1402495   -3.5368083 -0.077377654   -4.1402495   0.60344124   439061 
 2384000   0.40118449   -4.1391409   -4.1391409   -3.5373656 -0.077348728   -4.1391409   0.60177537   439061 
 2385000    0.4017517   -4.1399912   -4.1399912   -3.5373651 -0.080728468   -4.1399912   0.60262617   439061 
 2386000   0.40146601   -4.1399552   -4.1399552   -3.5377576 -0.082097734   -4.1399552   0.60219764   439061 
 2387000   0.40161051   -4.1409548   -4.1409548   -3.5385404 -0.080446945   -4.1409548    0.6024144   439061 
 2388000   0.40064867   -4.1402674   -4.1402674   -3.5392958 -0.075554163   -4.1402674   0.60097164   439061 
 2389000    0.4013574   -4.1406294   -4.1406294   -3.5385946 -0.074845926   -4.1406294   0.60203473   439061 
 2390000   0.40138303   -4.1402452   -4.1402452    -3.538172 -0.071897629   -4.1402452   0.60207317   439061 
 2391000    0.4016989   -4.1405815   -4.1405815   -3.5380345 -0.078734486   -4.1405815   0.60254697   439061 
 2392000   0.40048997   -4.1385106   -4.1385106    -3.537777 -0.077019209   -4.1385106   0.60073359   439061 
 2393000   0.40108867   -4.1393626   -4.1393626    -3.537731 -0.082839727   -4.1393626   0.60163163   439061 
 2394000   0.40099747   -4.1393509   -4.1393509   -3.5378561 -0.081443447   -4.1393509   0.60149483   439061 
 2395000   0.40108469   -4.1391824   -4.1391824   -3.5375567 -0.078468423   -4.1391824   0.60162567   439061 
 2396000   0.40199977   -4.1407009   -4.1407009   -3.5377026 -0.077016025   -4.1407009   0.60299829   439061 
 2397000   0.40185559   -4.1406722   -4.1406722   -3.5378902 -0.075981858   -4.1406722   0.60278201   439061 
 2398000   0.40111012    -4.140079    -4.140079   -3.5384152  -0.07767416    -4.140079   0.60166381   439061 
 2399000   0.40147036   -4.1406039   -4.1406039   -3.5383998 -0.080075713   -4.1406039   0.60220417   439061 
 2400000   0.40068291   -4.1402764   -4.1402764   -3.5392534 -0.081337302   -4.1402764     0.601023   439061 
 2401000   0.40069515   -4.1404449   -4.1404449   -3.5394036 -0.083243483   -4.1404449   0.60104136   439061 
 2402000   0.40039899   -4.1398404   -4.1398404   -3.5392433 -0.081098598   -4.1398404   0.60059711   439061 
 2403000   0.40176573   -4.1415332   -4.1415332   -3.5388859 -0.080631754   -4.1415332   0.60264722   439061 
 2404000   0.40154494   -4.1407794   -4.1407794   -3.5384634 -0.074680001   -4.1407794   0.60231604   439061 
 2405000   0.40121217   -4.1410982   -4.1410982   -3.5392813 -0.075360604   -4.1410982   0.60181688   439061 
 2406000   0.40163616   -4.1408237   -4.1408237   -3.5383709 -0.075074413   -4.1408237   0.60245286   439061 
 2407000   0.40128735   -4.1407187   -4.1407187    -3.538789 -0.078555153   -4.1407187   0.60192965   439061 
 2408000   0.40119307    -4.140417    -4.140417   -3.5386287 -0.081725615    -4.140417   0.60178824   439061 
 2409000   0.40159654   -4.1403185   -4.1403185   -3.5379251 -0.082360417   -4.1403185   0.60239343   439061 
 2410000   0.40087385   -4.1391793   -4.1391793   -3.5378699 -0.078523161   -4.1391793   0.60130941   439061 
 2411000   0.40111739   -4.1396136   -4.1396136   -3.5379389 -0.076508338   -4.1396136   0.60167472   439061 
 2412000   0.40136156   -4.1399471   -4.1399471   -3.5379061 -0.076339328   -4.1399471   0.60204097   439061 
 2413000   0.40218878   -4.1412707   -4.1412707   -3.5379889 -0.078159038   -4.1412707    0.6032818   439061 
 2414000     0.401711   -4.1404911   -4.1404911    -3.537926 -0.077517767   -4.1404911   0.60256512   439061 
 2415000   0.40166425   -4.1402831   -4.1402831   -3.5377881 -0.079723724   -4.1402831     0.602495   439061 
 2416000   0.40123236   -4.1399154   -4.1399154   -3.5380682  -0.08087724   -4.1399154   0.60184717   439061 
 2417000   0.40166445   -4.1396635   -4.1396635   -3.5371682 -0.080211745   -4.1396635    0.6024953   439061 
 2418000    0.4016038   -4.1397487   -4.1397487   -3.5373443 -0.077362457   -4.1397487   0.60240434   439061 
 2419000   0.40180736   -4.1399181   -4.1399181   -3.5372085 -0.074995474   -4.1399181   0.60270967   439061 
 2420000   0.40239487   -4.1410383   -4.1410383   -3.5374474 -0.078907776   -4.1410383   0.60359093   439061 
 2421000   0.40153585    -4.140352    -4.140352   -3.5380496 -0.075806648    -4.140352   0.60230241   439061 
 2422000   0.40132816   -4.1403047   -4.1403047   -3.5383138 -0.079445331   -4.1403047   0.60199087   439061 
 2423000   0.40172371    -4.141177    -4.141177   -3.5385928 -0.081989303    -4.141177    0.6025842   439061 
 2424000   0.40155312   -4.1401644   -4.1401644   -3.5378361 -0.080050165   -4.1401644    0.6023283   439061 
 2425000   0.40168826   -4.1405952   -4.1405952   -3.5380642 -0.078257624   -4.1405952   0.60253102   439061 
 2426000   0.40142166   -4.1400332   -4.1400332   -3.5379021  -0.07554044   -4.1400332   0.60213112   439061 
 2427000   0.40153653   -4.1410697   -4.1410697   -3.5387663 -0.076073697   -4.1410697   0.60230342   439061 
 2428000   0.40122603   -4.1410013   -4.1410013   -3.5391636 -0.078199302   -4.1410013   0.60183767   439061 
 2429000   0.40153659   -4.1419539   -4.1419539   -3.5396504 -0.081115024   -4.1419539   0.60230351   439061 
 2430000   0.40069985    -4.140955    -4.140955   -3.5399066 -0.078385682    -4.140955   0.60104841   439061 
 2431000   0.40042241   -4.1406714   -4.1406714   -3.5400392 -0.078930136   -4.1406714   0.60063224   439061 
 2432000   0.40130027   -4.1414556   -4.1414556   -3.5395066 -0.076727872   -4.1414556   0.60194904   439061 
 2433000   0.40090532   -4.1410369   -4.1410369   -3.5396803 -0.077003742   -4.1410369   0.60135661   439061 
 2434000    0.4015061   -4.1413119   -4.1413119   -3.5390541 -0.080125744   -4.1413119   0.60225778   439061 
 2435000   0.40167097   -4.1412306   -4.1412306   -3.5387256 -0.077526747   -4.1412306   0.60250508   439061 
 2436000   0.40123362   -4.1408611   -4.1408611   -3.5390121  -0.08193181   -4.1408611   0.60184905   439061 
 2437000   0.40165166   -4.1407047   -4.1407047   -3.5382286 -0.078881447   -4.1407047   0.60247612   439061 
 2438000   0.40231439   -4.1415023   -4.1415023   -3.5380321 -0.080681136   -4.1415023   0.60347021   439061 
 2439000   0.40206453   -4.1409148   -4.1409148   -3.5378194 -0.079831449   -4.1409148   0.60309542   439061 
 2440000   0.40258228    -4.141751    -4.141751   -3.5378789  -0.07791612    -4.141751   0.60387204   439061 
 2441000   0.40148027   -4.1401548   -4.1401548   -3.5379357 -0.077288377   -4.1401548   0.60221904   439061 
 2442000   0.40234038   -4.1413534   -4.1413534   -3.5378443 -0.077966233   -4.1413534    0.6035092   439061 
 2443000   0.40212581   -4.1413492   -4.1413492   -3.5381618 -0.076944148   -4.1413492   0.60318735   439061 
 2444000   0.40134271   -4.1406635   -4.1406635   -3.5386508 -0.080626398   -4.1406635   0.60201269   439061 
 2445000   0.40146884   -4.1412601   -4.1412601   -3.5390582 -0.078702819   -4.1412601   0.60220189   439061 
 2446000   0.40133338   -4.1402387   -4.1402387     -3.53824 -0.076619869   -4.1402387    0.6019987   439061 
 2447000   0.40179151   -4.1410458   -4.1410458   -3.5383599 -0.078983113   -4.1410458   0.60268589   439061 
 2448000   0.40218418   -4.1414603   -4.1414603   -3.5381854 -0.076023603   -4.1414603    0.6032749   439061 
 2449000   0.40236034   -4.1419505   -4.1419505   -3.5384113 -0.079809408   -4.1419505   0.60353914   439061 
 2450000   0.40103717   -4.1406407   -4.1406407   -3.5390863  -0.07829115   -4.1406407   0.60155438   439061 
 2451000   0.40176813   -4.1414677   -4.1414677   -3.5388168 -0.078685572   -4.1414677   0.60265082   439061 
 2452000   0.40177558   -4.1411727   -4.1411727   -3.5385107 -0.079574531   -4.1411727     0.602662   439061 
 2453000   0.40183287   -4.1411379   -4.1411379     -3.53839 -0.076679596   -4.1411379   0.60274794   439061 
 2454000   0.40206283   -4.1417908   -4.1417908   -3.5386979 -0.079193576   -4.1417908   0.60309287   439061 
 2455000   0.40220912    -4.143164    -4.143164   -3.5398517 -0.081391085    -4.143164    0.6033123   439061 
 2456000   0.40071303   -4.1411196   -4.1411196   -3.5400514 -0.078146288   -4.1411196   0.60106818   439061 
 2457000   0.40130576    -4.142113    -4.142113   -3.5401557 -0.077473665    -4.142113   0.60195728   439061 
 2458000   0.40225192   -4.1438414   -4.1438414   -3.5404649 -0.082040957   -4.1438414   0.60337651   439061 
 2459000   0.40192255   -4.1434302   -4.1434302   -3.5405477 -0.082724976   -4.1434302   0.60288246   439061 
 2460000   0.40147841   -4.1421174   -4.1421174   -3.5399012 -0.077984569   -4.1421174   0.60221625   439061 
 2461000    0.4018809   -4.1420977   -4.1420977   -3.5392777 -0.080640635   -4.1420977   0.60281998   439061 
 2462000   0.40083573   -4.1407219   -4.1407219   -3.5394696 -0.079505343   -4.1407219   0.60125223   439061 
 2463000   0.40119976   -4.1417497   -4.1417497   -3.5399514 -0.080658984   -4.1417497   0.60179827   439061 
 2464000   0.40133225   -4.1419867   -4.1419867   -3.5399897  -0.07982697   -4.1419867   0.60199701   439061 
 2465000    0.4010263   -4.1423202   -4.1423202   -3.5407821 -0.076178115   -4.1423202   0.60153808   439061 
 2466000   0.40150223   -4.1423017   -4.1423017   -3.5400497 -0.076185748   -4.1423017   0.60225197   439061 
 2467000   0.40161595   -4.1427713   -4.1427713   -3.5403487 -0.078754018   -4.1427713   0.60242255   439061 
 2468000   0.40123602   -4.1422273   -4.1422273   -3.5403747 -0.078331116   -4.1422273   0.60185266   439061 
 2469000   0.40093395   -4.1419537   -4.1419537   -3.5405542 -0.078182777   -4.1419537   0.60139956   439061 
 2470000   0.40152729   -4.1429617   -4.1429617   -3.5406721 -0.083139124   -4.1429617   0.60228957   439061 
 2471000   0.40110404   -4.1428367   -4.1428367    -3.541182 -0.082544456   -4.1428367   0.60165469   439061 
 2472000   0.40109559   -4.1424119   -4.1424119   -3.5407698 -0.081371702   -4.1424119   0.60164201   439061 
 2473000   0.40172619   -4.1432559   -4.1432559    -3.540668 -0.080375097   -4.1432559   0.60258791   439061 
 2474000   0.40223167   -4.1436856   -4.1436856   -3.5403395 -0.078711744   -4.1436856   0.60334613   439061 
 2475000   0.40132912   -4.1433058   -4.1433058   -3.5413135 -0.079605053   -4.1433058    0.6019923   439061 
 2476000   0.40205122   -4.1434325   -4.1434325   -3.5403571 -0.080026886   -4.1434325   0.60307545   439061 
 2477000   0.40171639   -4.1430052   -4.1430052    -3.540432 -0.079649893   -4.1430052   0.60257321   439061 
 2478000   0.40105083   -4.1420836   -4.1420836   -3.5405087 -0.083246173   -4.1420836   0.60157488   439061 
 2479000   0.40050644    -4.141713    -4.141713   -3.5409548  -0.08405247    -4.141713   0.60075829   439061 
 2480000   0.40106785   -4.1425101   -4.1425101   -3.5409096  -0.08147548   -4.1425101   0.60160041   439061 
 2481000   0.40104689   -4.1418934   -4.1418934   -3.5403245  -0.07864203   -4.1418934   0.60156896   439061 
 2482000   0.40162541   -4.1435022   -4.1435022   -3.5410654 -0.078419902   -4.1435022   0.60243674   439061 
 2483000   0.40153176   -4.1440205   -4.1440205   -3.5417242 -0.080437144   -4.1440205   0.60229627   439061 
 2484000   0.40093905    -4.143156    -4.143156   -3.5417488 -0.080704672    -4.143156    0.6014072   439061 
 2485000   0.40171841   -4.1438726   -4.1438726   -3.5412964 -0.082514055   -4.1438726   0.60257624   439061 
 2486000   0.40117396   -4.1432491   -4.1432491   -3.5414895 -0.082848357   -4.1432491   0.60175957   439061 
 2487000   0.40066448   -4.1419478   -4.1419478   -3.5409525 -0.081081161   -4.1419478   0.60099535   439061 
 2488000   0.40101783   -4.1415932   -4.1415932   -3.5400678 -0.077193261   -4.1415932   0.60152537   439061 
 2489000   0.40223585   -4.1427302   -4.1427302   -3.5393778 -0.079564855   -4.1427302    0.6033524   439061 
 2490000   0.40213855   -4.1432486   -4.1432486   -3.5400422 -0.082328527   -4.1432486   0.60320644   439061 
 2491000   0.40132641   -4.1418916   -4.1418916   -3.5399033 -0.079400728   -4.1418916   0.60198824   439061 
 2492000    0.4009389   -4.1419497   -4.1419497   -3.5405427 -0.081037825   -4.1419497   0.60140698   439061 
 2493000   0.40105628   -4.1428023   -4.1428023   -3.5412192 -0.080765299   -4.1428023   0.60158306   439061 
 2494000   0.40154198    -4.142536    -4.142536   -3.5402244 -0.077535434    -4.142536   0.60231159   439061 
 2495000    0.4014587   -4.1417955   -4.1417955   -3.5396088 -0.078923333   -4.1417955   0.60218668   439061 
 2496000   0.40179093   -4.1422245   -4.1422245   -3.5395395 -0.078642587   -4.1422245   0.60268502   439061 
 2497000   0.40057828     -4.14137     -4.14137   -3.5405039 -0.080830847     -4.14137   0.60086606   439061 
 2498000   0.40162496   -4.1428555   -4.1428555   -3.5404194 -0.080093985   -4.1428555   0.60243607   439061 
 2499000   0.40125062   -4.1422217   -4.1422217   -3.5403471 -0.079265124   -4.1422217   0.60187456   439061 
 2500000   0.40204961   -4.1427967   -4.1427967   -3.5397237 -0.080131534   -4.1427967   0.60307305   439061 
 2501000   0.40225589   -4.1433358   -4.1433358   -3.5399533  -0.07824968   -4.1433358   0.60338246   439061 
 2502000   0.40151969   -4.1422306   -4.1422306   -3.5399525 -0.079006856   -4.1422306   0.60227816   439061 
 2503000   0.40154567   -4.1427956   -4.1427956   -3.5404785 -0.079908297   -4.1427956   0.60231713   439061 
 2504000   0.40112451   -4.1421666   -4.1421666   -3.5404812 -0.079624696   -4.1421666    0.6016854   439061 
 2505000   0.40091045   -4.1420306   -4.1420306   -3.5406663 -0.081138292   -4.1420306   0.60136431   439061 
 2506000   0.40160865   -4.1431654   -4.1431654   -3.5407538 -0.081067302   -4.1431654   0.60241161   439061 
 2507000   0.40128407   -4.1423653   -4.1423653   -3.5404405 -0.080211011   -4.1423653   0.60192474   439061 
 2508000   0.40182962   -4.1432185   -4.1432185   -3.5404754 -0.078629261   -4.1432185   0.60274306   439061 
 2509000   0.40259012   -4.1447507   -4.1447507   -3.5408669 -0.080934012   -4.1447507    0.6038838   439061 
 2510000   0.40101727    -4.142444    -4.142444   -3.5409195  -0.07992511    -4.142444   0.60152453   439061 
 2511000   0.40205257   -4.1436891   -4.1436891   -3.5406116 -0.079585794   -4.1436891   0.60307749   439061 
 2512000   0.40107233   -4.1424782   -4.1424782   -3.5408711 -0.081147647   -4.1424782   0.60160713   439061 
 2513000   0.40157093   -4.1436478   -4.1436478   -3.5412927 -0.082816266   -4.1436478   0.60235502   439061 
 2514000   0.40127501   -4.1436061   -4.1436061   -3.5416949  -0.07783632   -4.1436061   0.60191115   439061 
 2515000   0.40187902   -4.1451854   -4.1451854   -3.5423682 -0.082396009   -4.1451854   0.60281715   439061 
 2516000   0.40118451   -4.1444058   -4.1444058   -3.5426304 -0.078907459   -4.1444058   0.60177539   439061 
 2517000   0.40129344   -4.1442369   -4.1442369   -3.5422981 -0.077841871   -4.1442369   0.60193878   439061 
 2518000   0.40111501   -4.1435046   -4.1435046   -3.5418335 -0.081059643   -4.1435046   0.60167114   439061 
 2519000   0.40106804   -4.1432364   -4.1432364   -3.5416357 -0.079718279   -4.1432364   0.60160069   439061 
 2520000   0.40071284   -4.1430217   -4.1430217   -3.5419538 -0.083333072   -4.1430217   0.60106789   439061 
 2521000    0.4010925    -4.143188    -4.143188   -3.5415506 -0.084531302    -4.143188   0.60163738   439061 
 2522000   0.40156861    -4.143164    -4.143164   -3.5408124 -0.077376429    -4.143164   0.60235154   439061 
 2523000   0.40127387   -4.1426066   -4.1426066   -3.5406972 -0.081454912   -4.1426066   0.60190943   439061 
 2524000   0.40190995   -4.1437898   -4.1437898   -3.5409262 -0.078548636   -4.1437898   0.60286355   439061 
 2525000   0.40177659   -4.1438399   -4.1438399   -3.5411764 -0.080380079   -4.1438399   0.60266351   439061 
 2526000   0.40114583   -4.1437964   -4.1437964    -3.542079 -0.082630186   -4.1437964   0.60171737   439061 
 2527000   0.40067037   -4.1431791   -4.1431791   -3.5421749 -0.080316588   -4.1431791   0.60100419   439061 
 2528000   0.40064654   -4.1428412   -4.1428412   -3.5418727 -0.080789169   -4.1428412   0.60096844   439061 
 2529000   0.40146903   -4.1437636   -4.1437636   -3.5415615 -0.082578825   -4.1437636   0.60220218   439061 
 2530000   0.40115411   -4.1437403   -4.1437403   -3.5420105 -0.079851212   -4.1437403    0.6017298   439061 
 2531000   0.40066281   -4.1426443   -4.1426443   -3.5416515 -0.076060501   -4.1426443   0.60099285   439061 
 2532000   0.40119232   -4.1442068   -4.1442068   -3.5424197 -0.078076984   -4.1442068    0.6017871   439061 
 2533000   0.40094365   -4.1440495   -4.1440495   -3.5426354 -0.080512587   -4.1440495    0.6014141   439061 
 2534000   0.40066649   -4.1434169   -4.1434169   -3.5424185 -0.080533479   -4.1434169   0.60099836   439061 
 2535000   0.40045886   -4.1433504   -4.1433504   -3.5426635 -0.082328667   -4.1433504   0.60068692   439061 
 2536000   0.40033058    -4.143046    -4.143046   -3.5425515 -0.080090515    -4.143046    0.6004945   439061 
 2537000   0.40089924   -4.1437369   -4.1437369   -3.5423894 -0.080764991   -4.1437369   0.60134749   439061 
 2538000   0.40073989   -4.1436474   -4.1436474   -3.5425389 -0.079233608   -4.1436474   0.60110846   439061 
 2539000   0.40117819   -4.1448283   -4.1448283   -3.5430624  -0.08190137   -4.1448283   0.60176592   439061 
 2540000   0.40164289   -4.1448236   -4.1448236   -3.5423606 -0.080266551   -4.1448236   0.60246297   439061 
 2541000   0.40125452   -4.1441719   -4.1441719   -3.5422914 -0.079780167   -4.1441719   0.60188042   439061 
 2542000   0.40134789   -4.1444665   -4.1444665    -3.542446  -0.08114114   -4.1444665   0.60202046   439061 
 2543000   0.40088024   -4.1434419   -4.1434419   -3.5421229  -0.08162178   -4.1434419   0.60131899   439061 
 2544000   0.40158199   -4.1441913   -4.1441913   -3.5418197 -0.083078618   -4.1441913   0.60237161   439061 
 2545000   0.40036958   -4.1423505   -4.1423505   -3.5417975 -0.080261986   -4.1423505     0.600553   439061 
 2546000   0.40109665   -4.1441484   -4.1441484   -3.5425048 -0.080850235   -4.1441484   0.60164361   439061 
 2547000   0.40143086    -4.144677    -4.144677   -3.5425321 -0.079126093    -4.144677   0.60214491   439061 
 2548000   0.40127763   -4.1450023   -4.1450023   -3.5430873 -0.081961813   -4.1450023   0.60191507   439061 
 2549000   0.40152107   -4.1448472   -4.1448472    -3.542567 -0.077922092   -4.1448472   0.60228023   439061 
 2550000   0.40093713   -4.1440789   -4.1440789   -3.5426745 -0.078975865   -4.1440789   0.60140432   439061 
 2551000   0.40051185   -4.1439417   -4.1439417   -3.5431753 -0.083863768   -4.1439417    0.6007664   439061 
 2552000   0.40075623   -4.1447038   -4.1447038   -3.5435708 -0.083723956   -4.1447038   0.60113298   439061 
 2553000   0.40101016   -4.1451818   -4.1451818   -3.5436679 -0.085045867   -4.1451818   0.60151387   439061 
 2554000   0.40119419   -4.1452577   -4.1452577   -3.5434678 -0.080488054   -4.1452577   0.60178991   439061 
 2555000   0.40138491   -4.1453182   -4.1453182   -3.5432422 -0.078772241   -4.1453182   0.60207599   439061 
 2556000    0.4008896   -4.1449285   -4.1449285   -3.5435954 -0.077471738   -4.1449285   0.60133303   439061 
 2557000   0.40023371   -4.1439583   -4.1439583   -3.5436091 -0.079546527   -4.1439583    0.6003492   439061 
 2558000   0.40009681   -4.1445031   -4.1445031   -3.5443592 -0.085192086   -4.1445031   0.60014385   439061 
 2559000    0.4008798   -4.1451144   -4.1451144   -3.5437961 -0.085880406   -4.1451144   0.60131833   439061 
 2560000   0.40084355   -4.1446153   -4.1446153   -3.5433513 -0.084033439   -4.1446153   0.60126396   439061 
 2561000   0.40049001   -4.1443636   -4.1443636     -3.54363 -0.081566605   -4.1443636   0.60073364   439061 
 2562000   0.40120184   -4.1454153   -4.1454153   -3.5436139 -0.081524059   -4.1454153   0.60180139   439061 
 2563000   0.40102657   -4.1447728   -4.1447728   -3.5432343 -0.076278537   -4.1447728   0.60153848   439061 
 2564000   0.40093568   -4.1447811   -4.1447811   -3.5433789 -0.079300546   -4.1447811   0.60140215   439061 
 2565000   0.40038588   -4.1437305   -4.1437305    -3.543153 -0.079941506   -4.1437305   0.60057745   439061 
 2566000   0.40005474   -4.1433717   -4.1433717    -3.543291 -0.080770281   -4.1433717   0.60008074   439061 
 2567000   0.39996523   -4.1430045   -4.1430045    -3.543058 -0.082667045   -4.1430045   0.59994648   439061 
 2568000   0.40095608   -4.1443714   -4.1443714   -3.5429386 -0.081938629   -4.1443714   0.60143275   439061 
 2569000   0.40063902   -4.1440308   -4.1440308   -3.5430737 -0.080125633   -4.1440308   0.60095717   439061 
 2570000   0.40070709   -4.1448324   -4.1448324   -3.5437732 -0.079098466   -4.1448324   0.60105927   439061 
 2571000   0.40132334   -4.1451675   -4.1451675   -3.5431838  -0.07854235   -4.1451675   0.60198364   439061 
 2572000   0.40123604   -4.1448606   -4.1448606   -3.5430079  -0.07992506   -4.1448606   0.60185269   439061 
 2573000    0.4009611    -4.144768    -4.144768   -3.5433277 -0.081341895    -4.144768   0.60144028   439061 
 2574000   0.40050094   -4.1439888   -4.1439888   -3.5432387 -0.083772194   -4.1439888   0.60075005   439061 
 2575000   0.40009957   -4.1440566   -4.1440566   -3.5439086 -0.082923046   -4.1440566   0.60014799   439061 
 2576000   0.40025129   -4.1451098   -4.1451098   -3.5447343   -0.0849417   -4.1451098   0.60037557   439061 
 2577000   0.40024123   -4.1452597   -4.1452597   -3.5448992  -0.08146478   -4.1452597   0.60036047   439061 
 2578000   0.40105461   -4.1467788   -4.1467788   -3.5451983 -0.081255562   -4.1467788   0.60158055   439061 
 2579000   0.40065329   -4.1455922   -4.1455922   -3.5446136  -0.07753945   -4.1455922   0.60097857   439061 
 2580000    0.3999383   -4.1442527   -4.1442527   -3.5443466 -0.077083014   -4.1442527   0.59990609   439061 
 2581000    0.4008892   -4.1453802   -4.1453802   -3.5440477 -0.082973508   -4.1453802   0.60133244   439061 
 2582000   0.40032353   -4.1446768   -4.1446768   -3.5441929 -0.085432196   -4.1446768   0.60048393   439061 
 2583000   0.39998084   -4.1443133   -4.1443133   -3.5443434  -0.08501678   -4.1443133    0.5999699   439061 
 2584000   0.40027122   -4.1443637   -4.1443637   -3.5439583 -0.082405308   -4.1443637   0.60040546   439061 
 2585000   0.40068895   -4.1443286   -4.1443286   -3.5432965 -0.082548051   -4.1443286   0.60103205   439061 
 2586000   0.40018516   -4.1438326   -4.1438326   -3.5435562 -0.077496123   -4.1438326   0.60027638   439061 
 2587000   0.40043106    -4.144569    -4.144569   -3.5439238 -0.077092712    -4.144569   0.60064522   439061 
 2588000   0.39994871   -4.1442005   -4.1442005   -3.5442788 -0.078707907   -4.1442005    0.5999217   439061 
 2589000   0.40017093   -4.1444877   -4.1444877   -3.5442326 -0.081157147   -4.1444877   0.60025504   439061 
 2590000   0.40056154   -4.1446345   -4.1446345   -3.5437935 -0.084060732   -4.1446345   0.60084094   439061 
 2591000   0.40009603   -4.1445623   -4.1445623   -3.5444197 -0.085280216   -4.1445623   0.60014267   439061 
 2592000   0.40024247   -4.1439538   -4.1439538   -3.5435915 -0.081375743   -4.1439538   0.60036234   439061 
 2593000   0.40081704   -4.1447796   -4.1447796   -3.5435554 -0.084437193   -4.1447796   0.60122419   439061 
 2594000   0.40050197   -4.1443545   -4.1443545   -3.5436029 -0.079280508   -4.1443545   0.60075159   439061 
 2595000   0.40112207   -4.1456628   -4.1456628   -3.5439811  -0.07975293   -4.1456628   0.60168173   439061 
 2596000   0.40065182   -4.1444902   -4.1444902   -3.5435138  -0.08075491   -4.1444902   0.60097636   439061 
 2597000   0.40000244   -4.1443613   -4.1443613   -3.5443591 -0.081381504   -4.1443613   0.60000229   439061 
 2598000   0.40008737   -4.1446954   -4.1446954   -3.5445657 -0.084969901   -4.1446954   0.60012969   439061 
 2599000   0.40006163   -4.1449663   -4.1449663   -3.5448752 -0.085479285   -4.1449663   0.60009108   439061 
 2600000   0.40025424   -4.1450868   -4.1450868   -3.5447068 -0.082146692   -4.1450868      0.60038   439061 
 2601000   0.40027575   -4.1444475   -4.1444475   -3.5440352 -0.081307685   -4.1444475   0.60041226   439061 
 2602000   0.40195186   -4.1467918   -4.1467918   -3.5438654 -0.080749034   -4.1467918   0.60292641   439061 
 2603000   0.40062156   -4.1444962   -4.1444962   -3.5435652 -0.079939163   -4.1444962   0.60093097   439061 
 2604000   0.40063323   -4.1442135   -4.1442135    -3.543265  -0.08214395   -4.1442135   0.60094848   439061 
 2605000   0.40010269   -4.1441375   -4.1441375   -3.5439848 -0.081768674   -4.1441375   0.60015267   439061 
 2606000   0.39997376   -4.1435334   -4.1435334   -3.5435741 -0.084196918   -4.1435334   0.59995927   439061 
 2607000   0.39967219   -4.1435948   -4.1435948   -3.5440879 -0.079377759   -4.1435948   0.59950692   439061 
 2608000   0.40053879   -4.1448917   -4.1448917   -3.5440849 -0.080383118   -4.1448917   0.60080682   439061 
 2609000      0.40047   -4.1452789   -4.1452789   -3.5445752 -0.081540004   -4.1452789   0.60070364   439061 
 2610000   0.39993985   -4.1445808   -4.1445808   -3.5446723 -0.075629433   -4.1445808   0.59990841   439061 
 2611000   0.40000847    -4.144233    -4.144233   -3.5442217 -0.079042376    -4.144233   0.60001133   439061 
 2612000   0.39978121   -4.1441118   -4.1441118   -3.5444414 -0.079472392   -4.1441118   0.59967045   439061 
 2613000   0.40020771   -4.1447552   -4.1447552    -3.544445 -0.081753403   -4.1447552   0.60031019   439061 
 2614000   0.40033932   -4.1443323   -4.1443323   -3.5438247 -0.082791513   -4.1443323   0.60050761   439061 
 2615000   0.40048087   -4.1448109   -4.1448109   -3.5440909 -0.081627452   -4.1448109   0.60071994   439061 
 2616000   0.40094271   -4.1454486   -4.1454486   -3.5440359 -0.081378596   -4.1454486    0.6014127   439061 
 2617000   0.40021309   -4.1449944   -4.1449944   -3.5446761 -0.081022424   -4.1449944   0.60031827   439061 
 2618000   0.40049564    -4.145539    -4.145539   -3.5447969 -0.079212075    -4.145539   0.60074209   439061 
 2619000   0.40069618   -4.1466995   -4.1466995   -3.5456566 -0.082227849   -4.1466995    0.6010429   439061 
 2620000   0.40070998   -4.1458388   -4.1458388   -3.5447752 -0.079531427   -4.1458388    0.6010636   439061 
 2621000   0.40093229    -4.145408    -4.145408   -3.5440109 -0.080324101    -4.145408   0.60139707   439061 
 2622000   0.40035592   -4.1445289   -4.1445289   -3.5439964 -0.080489621   -4.1445289    0.6005325   439061 
 2623000   0.40027618   -4.1454091   -4.1454091   -3.5449962 -0.084390272   -4.1454091    0.6004129   439061 
 2624000   0.40074764   -4.1456585   -4.1456585   -3.5445384 -0.081903255   -4.1456585   0.60112009   439061 
 2625000   0.40049134   -4.1449928   -4.1449928   -3.5442571  -0.08196793   -4.1449928   0.60073565   439061 
 2626000   0.40079606   -4.1460478   -4.1460478   -3.5448551 -0.081215998   -4.1460478   0.60119272   439061 
 2627000   0.40091103   -4.1455467   -4.1455467   -3.5441815 -0.077367282   -4.1455467   0.60136517   439061 
 2628000   0.40087586   -4.1448046   -4.1448046   -3.5434922 -0.080818676   -4.1448046   0.60131243   439061 
 2629000   0.40052216    -4.144913    -4.144913   -3.5441312 -0.081548859    -4.144913   0.60078188   439061 
 2630000   0.40111691   -4.1456914   -4.1456914   -3.5440174  -0.08520161   -4.1456914   0.60167399   439061 
 2631000   0.39980737   -4.1441725   -4.1441725   -3.5444628 -0.083016284   -4.1441725   0.59970969   439061 
 2632000   0.40074937   -4.1458468   -4.1458468   -3.5447242 -0.081786033   -4.1458468   0.60112269   439061 
 2633000   0.40097102   -4.1462483   -4.1462483   -3.5447931  -0.08216544   -4.1462483   0.60145516   439061 
 2634000   0.40047824   -4.1456213   -4.1456213   -3.5449053 -0.079668935   -4.1456213   0.60071599   439061 
 2635000   0.40006226   -4.1454337   -4.1454337   -3.5453417 -0.078693146   -4.1454337   0.60009203   439061 
 2636000   0.40062614   -4.1463089   -4.1463089    -3.545371 -0.082624843   -4.1463089   0.60093784   439061 
 2637000   0.40057997   -4.1460605   -4.1460605   -3.5451919 -0.083076322   -4.1460605   0.60086859   439061 
 2638000   0.40036607   -4.1455287   -4.1455287    -3.544981 -0.083423549   -4.1455287   0.60054773   439061 
 2639000   0.40094779   -4.1458137   -4.1458137   -3.5443933  -0.08326122   -4.1458137   0.60142032   439061 
 2640000    0.4007042   -4.1451456   -4.1451456   -3.5440907 -0.081481284   -4.1451456   0.60105493   439061 
 2641000   0.40081121   -4.1453403   -4.1453403   -3.5441248 -0.081234559   -4.1453403   0.60121544   439061 
 2642000   0.40043234   -4.1458333   -4.1458333   -3.5451861 -0.083723596   -4.1458333   0.60064714   439061 
 2643000   0.40089188   -4.1461161   -4.1461161   -3.5447796 -0.083884454   -4.1461161   0.60133645   439061 
 2644000   0.40056709   -4.1455466   -4.1455466   -3.5446974 -0.081655814   -4.1455466   0.60084927   439061 
 2645000   0.40048753   -4.1456448   -4.1456448   -3.5449148 -0.081236846   -4.1456448   0.60072993   439061 
 2646000   0.40107914   -4.1462024   -4.1462024   -3.5445851 -0.082361109   -4.1462024   0.60161734   439061 
 2647000   0.40092067   -4.1461999   -4.1461999   -3.5448202 -0.082838627   -4.1461999   0.60137964   439061 
 2648000   0.39969253   -4.1441594   -4.1441594   -3.5446219 -0.078052259   -4.1441594   0.59953742   439061 
 2649000   0.40035819   -4.1452953   -4.1452953   -3.5447594 -0.083661672   -4.1452953   0.60053592   439061 
 2650000   0.39984171   -4.1444771   -4.1444771   -3.5447159 -0.080573612   -4.1444771    0.5997612   439061 
 2651000   0.40015955   -4.1445693   -4.1445693   -3.5443314 -0.080005404   -4.1445693   0.60023795   439061 
 2652000   0.39987596   -4.1448536   -4.1448536   -3.5450411 -0.081338508   -4.1448536   0.59981257   439061 
 2653000   0.39993078   -4.1444034   -4.1444034   -3.5445086 -0.079474149   -4.1444034   0.59989481   439061 
 2654000   0.40019726   -4.1454168   -4.1454168   -3.5451223 -0.080342742   -4.1454168   0.60029453   439061 
 2655000   0.40100051   -4.1465726   -4.1465726   -3.5450732 -0.081921994   -4.1465726   0.60149939   439061 
 2656000   0.40038811   -4.1457973   -4.1457973   -3.5452165 -0.082197737   -4.1457973    0.6005808   439061 
 2657000   0.40049765     -4.14602     -4.14602   -3.5452749  -0.08433472     -4.14602   0.60074511   439061 
 2658000   0.40055607   -4.1455012   -4.1455012   -3.5446685 -0.083671236   -4.1455012   0.60083273   439061 
 2659000   0.40054343   -4.1463794   -4.1463794   -3.5455657 -0.086358306   -4.1463794   0.60081378   439061 
 2660000   0.40025275   -4.1452623   -4.1452623   -3.5448846 -0.082782378   -4.1452623   0.60037776   439061 
 2661000   0.40093465   -4.1462661   -4.1462661   -3.5448655 -0.082504707   -4.1462661   0.60140061   439061 
 2662000   0.40029748   -4.1452931   -4.1452931   -3.5448482 -0.078879515   -4.1452931   0.60044485   439061 
 2663000    0.4001128   -4.1449061   -4.1449061   -3.5447383 -0.079207368   -4.1449061   0.60016784   439061 
 2664000   0.40013299   -4.1456287   -4.1456287   -3.5454306  -0.08115987   -4.1456287   0.60019812   439061 
 2665000   0.40046365   -4.1456812   -4.1456812   -3.5449871  -0.08097341   -4.1456812    0.6006941   439061 
 2666000   0.40093515   -4.1467548   -4.1467548   -3.5453535 -0.085825981   -4.1467548   0.60140135   439061 
 2667000    0.4002453    -4.145108    -4.145108   -3.5447414 -0.082021713    -4.145108   0.60036658   439061 
 2668000   0.40056941   -4.1454105   -4.1454105   -3.5445578 -0.084379243   -4.1454105   0.60085275   439061 
 2669000   0.39981086   -4.1447969   -4.1447969    -3.545082 -0.079998293   -4.1447969   0.59971492   439061 
 2670000   0.40088296   -4.1468793   -4.1468793   -3.5455562 -0.083021051   -4.1468793   0.60132308   439061 
 2671000   0.40047939   -4.1458937   -4.1458937    -3.545176  -0.08099571   -4.1458937   0.60071772   439061 
 2672000   0.40069622   -4.1458402   -4.1458402   -3.5447972 -0.078598161   -4.1458402   0.60104296   439061 
 2673000   0.40018456   -4.1456424   -4.1456424   -3.5453669  -0.08171418   -4.1456424   0.60027547   439061 
 2674000   0.40067708   -4.1456955   -4.1456955   -3.5446813 -0.083303884   -4.1456955   0.60101424   439061 
 2675000   0.40080692   -4.1454316   -4.1454316   -3.5442226 -0.082066986   -4.1454316   0.60120901   439061 
 2676000   0.40001324   -4.1449362   -4.1449362   -3.5449177 -0.082918081   -4.1449362    0.6000185   439061 
 2677000   0.40107823   -4.1466843   -4.1466843   -3.5450684 -0.083788294   -4.1466843   0.60161598   439061 
 2678000   0.40097699   -4.1473118   -4.1473118   -3.5458477 -0.084879561   -4.1473118   0.60146412   439061 
 2679000   0.40099782   -4.1469779   -4.1469779   -3.5454825 -0.082541916   -4.1469779   0.60149536   439061 
 2680000   0.40091583   -4.1465847   -4.1465847   -3.5452124 -0.078898538   -4.1465847   0.60137237   439061 
 2681000   0.40072396   -4.1460236   -4.1460236    -3.544939 -0.080451272   -4.1460236   0.60108458   439061 
 2682000   0.40037534   -4.1463245   -4.1463245   -3.5457629 -0.083123086   -4.1463245   0.60056165   439061 
 2683000   0.40049051    -4.145914    -4.145914   -3.5451796 -0.085585704    -4.145914   0.60073439   439061 
 2684000   0.40033538   -4.1458293   -4.1458293   -3.5453276 -0.085903074   -4.1458293    0.6005017   439061 
 2685000   0.40022225    -4.146011    -4.146011    -3.545679 -0.082918443    -4.146011   0.60033201   439061 
 2686000   0.40026011   -4.1457169   -4.1457169   -3.5453281 -0.081524584   -4.1457169   0.60038879   439061 
 2687000   0.40074818   -4.1461553   -4.1461553   -3.5450344 -0.079708313   -4.1461553   0.60112091   439061 
 2688000   0.40075599   -4.1456368   -4.1456368   -3.5445042 -0.077732248   -4.1456368   0.60113261   439061 
 2689000   0.40103117   -4.1467149   -4.1467149   -3.5451695 -0.084039005   -4.1467149   0.60154539   439061 
 2690000   0.40055303   -4.1452334   -4.1452334   -3.5444052 -0.082189517   -4.1452334   0.60082818   439061 
 2691000   0.40085628    -4.145786    -4.145786   -3.5445029 -0.083601374    -4.145786   0.60128305   439061 
 2692000   0.40052379    -4.145635    -4.145635   -3.5448507 -0.084397842    -4.145635   0.60078432   439061 
 2693000   0.40070844   -4.1459723   -4.1459723    -3.544911  -0.08318226   -4.1459723   0.60106129   439061 
 2694000   0.40020561   -4.1457864   -4.1457864   -3.5454794 -0.082023273   -4.1457864   0.60030705   439061 
 2695000   0.40063352   -4.1464653   -4.1464653   -3.5455164 -0.080659649   -4.1464653   0.60094892   439061 
 2696000   0.40105399   -4.1467646   -4.1467646    -3.545185 -0.082997639   -4.1467646   0.60157961   439061 
 2697000   0.40049087   -4.1457902   -4.1457902   -3.5450552 -0.080547453   -4.1457902   0.60073493   439061 
 2698000   0.40040772   -4.1457021   -4.1457021   -3.5450919  -0.08235594   -4.1457021   0.60061021   439061 
 2699000   0.40039976   -4.1461413   -4.1461413    -3.545543 -0.083787848   -4.1461413   0.60059827   439061 
 2700000   0.40059749    -4.145843    -4.145843   -3.5449481 -0.081543622    -4.145843   0.60089487   439061 
 2701000   0.40111315   -4.1457618   -4.1457618   -3.5440934 -0.082979591   -4.1457618   0.60166835   439061 
 2702000   0.40086051   -4.1457227   -4.1457227   -3.5444333 -0.080803665   -4.1457227    0.6012894   439061 
 2703000   0.40092147   -4.1459996   -4.1459996   -3.5446188 -0.082243073   -4.1459996   0.60138083   439061 
 2704000   0.40070399   -4.1459986   -4.1459986    -3.544944 -0.084065339   -4.1459986   0.60105461   439061 
 2705000   0.40100658   -4.1466881   -4.1466881   -3.5451796 -0.083049862   -4.1466881    0.6015085   439061 
 2706000    0.4003566   -4.1457979   -4.1457979   -3.5452644 -0.082396738   -4.1457979   0.60053353   439061 
 2707000   0.40047389   -4.1454408   -4.1454408   -3.5447314 -0.080350636   -4.1454408   0.60070947   439061 
 2708000   0.40055036   -4.1461621   -4.1461621   -3.5453379 -0.080516056   -4.1461621   0.60082417   439061 
 2709000   0.40030562   -4.1461209   -4.1461209   -3.5456639 -0.082027913   -4.1461209   0.60045707   439061 
 2710000   0.40061203   -4.1463826   -4.1463826   -3.5454659 -0.080553991   -4.1463826   0.60091668   439061 
 2711000   0.40048085   -4.1465667   -4.1465667   -3.5458468 -0.083623744   -4.1465667   0.60071991   439061 
 2712000    0.4001224   -4.1461004   -4.1461004   -3.5459182  -0.08348489   -4.1461004   0.60018223   439061 
 2713000   0.40008957   -4.1454758   -4.1454758   -3.5453428 -0.077079343   -4.1454758   0.60013299   439061 
 2714000   0.39992412   -4.1459002   -4.1459002   -3.5460154 -0.081550898   -4.1459002   0.59988482   439061 
 2715000   0.40089961   -4.1463575   -4.1463575   -3.5450095 -0.080140018   -4.1463575   0.60134804   439061 
 2716000   0.40020996    -4.145775    -4.145775   -3.5454615  -0.08152319    -4.145775   0.60031358   439061 
 2717000   0.40034025   -4.1450953   -4.1450953   -3.5445863 -0.081248873   -4.1450953   0.60050901   439061 
 2718000   0.40109755   -4.1463862   -4.1463862   -3.5447413 -0.083154916   -4.1463862   0.60164496   439061 
 2719000   0.39977074   -4.1442953   -4.1442953   -3.5446405 -0.081865408   -4.1442953   0.59965474   439061 
 2720000   0.40077375    -4.144935    -4.144935   -3.5437758  -0.08060968    -4.144935   0.60115926   439061 
 2721000   0.40103027   -4.1457934   -4.1457934   -3.5442494  -0.08058329   -4.1457934   0.60154404   439061 
 2722000   0.40061789   -4.1450153   -4.1450153   -3.5440898 -0.082189833   -4.1450153   0.60092547   439061 
 2723000   0.39998953   -4.1450725   -4.1450725   -3.5450896 -0.076864281   -4.1450725   0.59998292   439061 
 2724000   0.40093504   -4.1456996   -4.1456996   -3.5442985 -0.079381414   -4.1456996    0.6014012   439061 
 2725000   0.40041699   -4.1457823   -4.1457823   -3.5451582 -0.081416104   -4.1457823   0.60062412   439061 
 2726000   0.40059812   -4.1458564   -4.1458564   -3.5449606 -0.083034597   -4.1458564   0.60089581   439061 
 2727000   0.40040947   -4.1455856   -4.1455856   -3.5449728 -0.085408234   -4.1455856   0.60061283   439061 
 2728000   0.40017297   -4.1449112   -4.1449112   -3.5446531   -0.0805559   -4.1449112   0.60025808   439061 
 2729000   0.40107435   -4.1467801   -4.1467801     -3.54517 -0.082787498   -4.1467801   0.60161016   439061 
 2730000   0.40034754    -4.145841    -4.145841   -3.5453211 -0.080116997    -4.145841   0.60051995   439061 
 2731000   0.40074084   -4.1459919   -4.1459919    -3.544882  -0.07846513   -4.1459919   0.60110989   439061 
 2732000   0.40054962   -4.1463558   -4.1463558   -3.5455327 -0.083652498   -4.1463558   0.60082306   439061 
 2733000   0.40114299   -4.1469722   -4.1469722    -3.545259 -0.086029741   -4.1469722   0.60171311   439061 
 2734000   0.40042394   -4.1452806   -4.1452806    -3.544646 -0.083960684   -4.1452806   0.60063455   439061 
 2735000   0.40012647   -4.1453394   -4.1453394   -3.5451511   -0.0828347   -4.1453394   0.60018834   439061 
 2736000   0.39989392   -4.1450066   -4.1450066   -3.5451671 -0.081437524   -4.1450066   0.59983951   439061 
 2737000   0.39978754   -4.1448595   -4.1448595   -3.5451795 -0.080597913   -4.1448595   0.59967995   439061 
 2738000   0.40039851   -4.1458705   -4.1458705   -3.5452741 -0.078240919   -4.1458705    0.6005964   439061 
 2739000   0.40047283   -4.1462822   -4.1462822   -3.5455743 -0.081041654   -4.1462822   0.60070787   439061 
 2740000   0.40081319   -4.1468616   -4.1468616   -3.5456432 -0.081882489   -4.1468616   0.60121842   439061 
 2741000   0.39996914   -4.1461232   -4.1461232   -3.5461709 -0.083024006   -4.1461232   0.59995234   439061 
 2742000   0.40042849   -4.1469745   -4.1469745   -3.5463332 -0.085979666   -4.1469745   0.60064137   439061 
 2743000   0.40035257   -4.1464837   -4.1464837   -3.5459562 -0.084041023   -4.1464837   0.60052748   439061 
 2744000   0.40041017   -4.1461642   -4.1461642   -3.5455503 -0.083802146   -4.1461642   0.60061389   439061 
 2745000   0.40040867   -4.1466636   -4.1466636    -3.546052 -0.081295644   -4.1466636   0.60061164   439061 
 2746000   0.40031739    -4.145943    -4.145943   -3.5454682 -0.079300631    -4.145943   0.60047471   439061 
 2747000   0.40042491   -4.1458678   -4.1458678   -3.5452318  -0.07828874   -4.1458678     0.600636   439061 
 2748000   0.40072092   -4.1460543   -4.1460543   -3.5449743 -0.080435399   -4.1460543   0.60108001   439061 
 2749000   0.39994729   -4.1448681   -4.1448681   -3.5449485   -0.0815443   -4.1448681   0.59991957   439061 
 2750000   0.40004655   -4.1446553   -4.1446553   -3.5445869 -0.082842002   -4.1446553   0.60006845   439061 
 2751000   0.39966328   -4.1441371   -4.1441371   -3.5446435 -0.082984025   -4.1441371   0.59949355   439061 
 2752000    0.4001397   -4.1441692   -4.1441692    -3.543961 -0.079364812   -4.1441692   0.60020819   439061 
 2753000   0.40073169    -4.145829    -4.145829   -3.5447329   -0.0837088    -4.145829   0.60109616   439061 
 2754000    0.4003158   -4.1454605   -4.1454605   -3.5449882 -0.083021625   -4.1454605   0.60047234   439061 
 2755000   0.40127929   -4.1469874   -4.1469874   -3.5450698  -0.07909197   -4.1469874   0.60191756   439061 
 2756000   0.40089985   -4.1470871   -4.1470871   -3.5457387 -0.082257441   -4.1470871   0.60134841   439061 
 2757000   0.40063555   -4.1473004   -4.1473004   -3.5463484 -0.083366484   -4.1473004   0.60095196   439061 
 2758000   0.40000549    -4.145756    -4.145756   -3.5457492 -0.081253157    -4.145756   0.60000686   439061 
 2759000    0.3995491   -4.1451725   -4.1451725   -3.5458502 -0.080937967   -4.1451725   0.59932228   439061 
 2760000   0.40033282   -4.1460899   -4.1460899    -3.545592 -0.082419311   -4.1460899   0.60049786   439061 
 2761000   0.40027885   -4.1459175   -4.1459175   -3.5455006 -0.082710223   -4.1459175    0.6004169   439061 
 2762000   0.40060183   -4.1465136   -4.1465136   -3.5456123 -0.082051229   -4.1465136   0.60090137   439061 
 2763000   0.40093174   -4.1457917   -4.1457917   -3.5443955 -0.081462344   -4.1457917   0.60139624   439061 
 2764000   0.40057292   -4.1460101   -4.1460101   -3.5451521 -0.081398796   -4.1460101   0.60085801   439061 
 2765000   0.40022961    -4.146329    -4.146329    -3.545986 -0.084017904    -4.146329   0.60034305   439061 
 2766000   0.39977087   -4.1459706   -4.1459706   -3.5463157 -0.083405502   -4.1459706   0.59965494   439061 
 2767000   0.40049587   -4.1467548   -4.1467548   -3.5460124 -0.082820095   -4.1467548   0.60074243   439061 
 2768000   0.40016144   -4.1458827   -4.1458827   -3.5456419 -0.080182925   -4.1458827   0.60024079   439061 
 2769000   0.40047664   -4.1461066   -4.1461066    -3.545393 -0.081269889   -4.1461066   0.60071359   439061 
 2770000   0.40070266   -4.1468194   -4.1468194   -3.5457668 -0.081149264   -4.1468194   0.60105262   439061 
 2771000   0.40040349   -4.1456429   -4.1456429   -3.5450391 -0.082175758   -4.1456429   0.60060387   439061 
 2772000   0.40067313    -4.146228    -4.146228   -3.5452197 -0.081370419    -4.146228   0.60100833   439061 
 2773000   0.40031569   -4.1462739   -4.1462739   -3.5458017 -0.084324037   -4.1462739   0.60047216   439061 
 2774000   0.39972828   -4.1453761   -4.1453761    -3.545785 -0.081188138   -4.1453761   0.59959105   439061 
 2775000   0.40058472   -4.1463677   -4.1463677    -3.545492 -0.080411073   -4.1463677   0.60087571   439061 
 2776000   0.40038174   -4.1463873   -4.1463873    -3.545816 -0.080049794   -4.1463873   0.60057124   439061 
 2777000   0.39984525   -4.1462591   -4.1462591   -3.5464925 -0.082078444   -4.1462591   0.59976651   439061 
 2778000   0.40060503   -4.1471198   -4.1471198   -3.5462136 -0.083171792   -4.1471198   0.60090618   439061 
 2779000   0.40066386   -4.1467836   -4.1467836   -3.5457892 -0.082854566   -4.1467836   0.60099442   439061 
 2780000   0.40072787   -4.1463321   -4.1463321   -3.5452417 -0.082465169   -4.1463321   0.60109043   439061 
 2781000   0.39991023   -4.1458554   -4.1458554   -3.5459914 -0.082531756   -4.1458554   0.59986398   439061 
 2782000   0.40118903   -4.1474946   -4.1474946   -3.5457124 -0.085301543   -4.1474946   0.60178218   439061 
 2783000   0.40038714    -4.145713    -4.145713   -3.5451337 -0.082690323    -4.145713   0.60057935   439061 
 2784000   0.40025712   -4.1456346   -4.1456346   -3.5452502 -0.081716607   -4.1456346   0.60038432   439061 
 2785000   0.40076509   -4.1468541   -4.1468541   -3.5457078 -0.084044711   -4.1468541   0.60114627   439061 
 2786000   0.40113033   -4.1476725   -4.1476725   -3.5459784 -0.084589351   -4.1476725   0.60169412   439061 
 2787000   0.40051654   -4.1469663   -4.1469663   -3.5461929 -0.081255544   -4.1469663   0.60077344   439061 
 2788000    0.4010306   -4.1467271   -4.1467271   -3.5451825 -0.081410234   -4.1467271   0.60154454   439061 
 2789000   0.40045216   -4.1455252   -4.1455252   -3.5448483 -0.079334286   -4.1455252   0.60067687   439061 
 2790000   0.40001523   -4.1451084   -4.1451084   -3.5450869 -0.081992601   -4.1451084   0.60002147   439061 
 2791000   0.40072354   -4.1457701   -4.1457701   -3.5446862 -0.084920793   -4.1457701   0.60108394   439061 
 2792000   0.40118111   -4.1460661   -4.1460661   -3.5442958 -0.083792286   -4.1460661   0.60177029   439061 
 2793000   0.40081832   -4.1456623   -4.1456623   -3.5444361 -0.082811572   -4.1456623   0.60122612   439061 
 2794000   0.40121207   -4.1456928   -4.1456928   -3.5438761 -0.080248985   -4.1456928   0.60181673   439061 
 2795000   0.40091935   -4.1457865   -4.1457865   -3.5444088 -0.078339239   -4.1457865   0.60137765   439061 
 2796000    0.4003118   -4.1458944   -4.1458944   -3.5454281 -0.082897371   -4.1458944   0.60046633   439061 
 2797000    0.4010223   -4.1468735   -4.1468735   -3.5453414 -0.082741422   -4.1468735   0.60153208   439061 
 2798000   0.40010096   -4.1458057   -4.1458057   -3.5456556 -0.081001993   -4.1458057   0.60015007   439061 
 2799000   0.40062972   -4.1458516   -4.1458516   -3.5449084 -0.084330753   -4.1458516   0.60094321   439061 
 2800000   0.40065213   -4.1456256   -4.1456256   -3.5446487   -0.0807491   -4.1456256   0.60097682   439061 
 2801000     0.400742   -4.1451105   -4.1451105   -3.5439988 -0.082223395   -4.1451105   0.60111163   439061 
 2802000   0.40007016    -4.144771    -4.144771   -3.5446672 -0.081845664    -4.144771   0.60010387   439061 
 2803000   0.40060978   -4.1452988   -4.1452988   -3.5443855 -0.080172467   -4.1452988    0.6009133   439061 
 2804000   0.40078237   -4.1459101   -4.1459101   -3.5447379  -0.08248693   -4.1459101   0.60117219   439061 
 2805000   0.40040392   -4.1461008   -4.1461008   -3.5454963 -0.082588318   -4.1461008   0.60060451   439061 
 2806000   0.40064396   -4.1463716   -4.1463716    -3.545407 -0.081001583   -4.1463716   0.60096457   439061 
 2807000   0.40049571   -4.1458674   -4.1458674   -3.5451252 -0.082891239   -4.1458674    0.6007422   439061 
 2808000     0.400365   -4.1452088   -4.1452088   -3.5446627 -0.080659652   -4.1452088   0.60054614   439061 
 2809000   0.40072293   -4.1468227   -4.1468227   -3.5457397 -0.083105338   -4.1468227   0.60108303   439061 
 2810000     0.399755   -4.1452331   -4.1452331    -3.545602 -0.081697455   -4.1452331   0.59963113   439061 
 2811000   0.40011656    -4.146107    -4.146107   -3.5459336 -0.082113119    -4.146107   0.60017347   439061 
 2812000   0.40070433   -4.1467264   -4.1467264   -3.5456713 -0.080783205   -4.1467264   0.60105513   439061 
 2813000   0.40026413   -4.1455502   -4.1455502   -3.5451554 -0.079393688   -4.1455502   0.60039482   439061 
 2814000   0.40051689   -4.1464299   -4.1464299   -3.5456559 -0.081170065   -4.1464299   0.60077397   439061 
 2815000   0.39969323   -4.1458257   -4.1458257   -3.5462873 -0.081380724   -4.1458257   0.59953848   439061 
 2816000   0.39998591   -4.1457904   -4.1457904   -3.5458129 -0.081853293   -4.1457904   0.59997749   439061 
 2817000   0.40056404   -4.1463133   -4.1463133   -3.5454686 -0.083978155   -4.1463133   0.60084469   439061 
 2818000   0.40012315   -4.1449932   -4.1449932   -3.5448098 -0.080043655   -4.1449932   0.60018336   439061 
 2819000   0.40017468   -4.1451794   -4.1451794   -3.5449188  -0.07906185   -4.1451794   0.60026065   439061 
 2820000   0.40017373   -4.1452835   -4.1452835   -3.5450243  -0.08117068   -4.1452835   0.60025923   439061 
 2821000   0.40036957   -4.1457577   -4.1457577   -3.5452047 -0.080770603   -4.1457577   0.60055298   439061 
 2822000   0.40000215   -4.1456599   -4.1456599    -3.545658 -0.081907932   -4.1456599   0.60000186   439061 
 2823000   0.39999332   -4.1457967   -4.1457967   -3.5458081  -0.08375644   -4.1457967   0.59998862   439061 
 2824000   0.39972224   -4.1463293   -4.1463293   -3.5467473 -0.081254145   -4.1463293     0.599582   439061 
 2825000   0.39977117   -4.1461244   -4.1461244   -3.5464691 -0.081914789   -4.1461244   0.59965539   439061 
 2826000   0.40023464   -4.1468308   -4.1468308   -3.5464802  -0.08038577   -4.1468308   0.60035059   439061 
 2827000   0.40070518   -4.1467801   -4.1467801   -3.5457237 -0.081676999   -4.1467801    0.6010564   439061 
 2828000    0.4004505   -4.1457463   -4.1457463   -3.5450719 -0.080096866   -4.1457463   0.60067438   439061 
 2829000   0.40030051   -4.1452179   -4.1452179   -3.5447685 -0.079537126   -4.1452179    0.6004494   439061 
 2830000    0.4003604   -4.1453463   -4.1453463    -3.544807 -0.086335428   -4.1453463   0.60053924   439061 
 2831000   0.40035294   -4.1457607   -4.1457607   -3.5452327 -0.085098194   -4.1457607   0.60052804   439061 
 2832000   0.40040166    -4.145638    -4.145638   -3.5450369 -0.082858291    -4.145638   0.60060112   439061 
 2833000   0.40034288   -4.1453595   -4.1453595   -3.5448466 -0.079856766   -4.1453595   0.60051295   439061 
 2834000   0.40068342   -4.1463286   -4.1463286   -3.5453048 -0.079026903   -4.1463286   0.60102377   439061 
 2835000   0.40077324   -4.1458588   -4.1458588   -3.5447003  -0.07626822   -4.1458588   0.60115849   439061 
 2836000   0.40086952   -4.1462305   -4.1462305   -3.5449276 -0.079331219   -4.1462305   0.60130291   439061 
 2837000   0.40071298   -4.1465982   -4.1465982   -3.5455301 -0.084130819   -4.1465982   0.60106811   439061 
 2838000   0.40045392   -4.1460477   -4.1460477   -3.5453682 -0.086102898   -4.1460477   0.60067951   439061 
 2839000   0.40039974   -4.1457985   -4.1457985   -3.5452002 -0.085090865   -4.1457985   0.60059825   439061 
 2840000   0.40103343   -4.1467173   -4.1467173   -3.5451685 -0.084209378   -4.1467173   0.60154878   439061 
 2841000   0.40089615   -4.1464923   -4.1464923   -3.5451495 -0.082305745   -4.1464923   0.60134286   439061 
 2842000   0.40063517   -4.1462761   -4.1462761   -3.5453247 -0.080190216   -4.1462761   0.60095139   439061 
 2843000   0.40104268   -4.1471188   -4.1471188   -3.5455561 -0.079491313   -4.1471188   0.60156264   439061 
 2844000   0.40101412    -4.147215    -4.147215   -3.5456952 -0.082571702    -4.147215    0.6015198   439061 
 2845000   0.40025702   -4.1459826   -4.1459826   -3.5455985 -0.081085379   -4.1459826   0.60038416   439061 
 2846000   0.40058261   -4.1460858   -4.1460858   -3.5452132 -0.082601711   -4.1460858   0.60087254   439061 
 2847000    0.4002501   -4.1452339   -4.1452339   -3.5448602 -0.083435469   -4.1452339   0.60037378   439061 
 2848000   0.39980346    -4.145053    -4.145053   -3.5453492  -0.08133398    -4.145053   0.59970382   439061 
 2849000   0.40085626   -4.1464381   -4.1464381    -3.545155 -0.082902616   -4.1464381   0.60128302   439061 
 2850000   0.40026467   -4.1458104   -4.1458104   -3.5454147 -0.080847258   -4.1458104   0.60039564   439061 
 2851000    0.4012025   -4.1479055   -4.1479055   -3.5461031  -0.08281362   -4.1479055   0.60180238   439061 
 2852000   0.40088504   -4.1468636   -4.1468636   -3.5455375 -0.080662204   -4.1468636   0.60132618   439061 
 2853000   0.40007274   -4.1462312   -4.1462312   -3.5461235 -0.082464772   -4.1462312   0.60010774   439061 
 2854000   0.40026152   -4.1464559   -4.1464559    -3.546065 -0.081233306   -4.1464559   0.60039091   439061 
 2855000   0.39997046   -4.1451568   -4.1451568   -3.5452025 -0.082921388   -4.1451568   0.59995432   439061 
 2856000   0.40024524   -4.1461383   -4.1461383   -3.5457718 -0.082230843   -4.1461383   0.60036649   439061 
 2857000   0.40090189   -4.1466439   -4.1466439   -3.5452924 -0.082559411   -4.1466439   0.60135147   439061 
 2858000   0.40050778    -4.146519    -4.146519   -3.5457587 -0.082927177    -4.146519    0.6007603   439061 
 2859000   0.40022496    -4.146227    -4.146227    -3.545891  -0.07987154    -4.146227   0.60033607   439061 
 2860000   0.39977042   -4.1454605   -4.1454605   -3.5458062 -0.078988419   -4.1454605   0.59965427   439061 
 2861000   0.40016544   -4.1457526   -4.1457526   -3.5455058  -0.08048078   -4.1457526   0.60024679   439061 
 2862000   0.40034017   -4.1457026   -4.1457026   -3.5451937 -0.082717594   -4.1457026   0.60050889   439061 
 2863000   0.40049851   -4.1468447   -4.1468447   -3.5460983 -0.085245293   -4.1468447    0.6007464   439061 
 2864000   0.40045119    -4.146885    -4.146885   -3.5462095 -0.085242419    -4.146885   0.60067542   439061 
 2865000    0.4002813   -4.1464469   -4.1464469   -3.5460263 -0.081407162   -4.1464469   0.60042058   439061 
 2866000   0.39999848   -4.1463658   -4.1463658   -3.5463694 -0.081184833   -4.1463658   0.59999635   439061 
 2867000   0.40100309   -4.1473117   -4.1473117   -3.5458084 -0.082485038   -4.1473117   0.60150326   439061 
 2868000   0.40056247   -4.1464765   -4.1464765   -3.5456342 -0.080094026   -4.1464765   0.60084234   439061 
 2869000   0.40022373   -4.1466167   -4.1466167   -3.5462825 -0.083279337   -4.1466167   0.60033422   439061 
 2870000   0.40025291   -4.1467443   -4.1467443   -3.5463663 -0.083952901   -4.1467443   0.60037799   439061 
 2871000    0.4008162   -4.1471571   -4.1471571   -3.5459342  -0.08369117   -4.1471571   0.60122293   439061 
 2872000   0.39946211   -4.1457646   -4.1457646   -3.5465728 -0.082887895   -4.1457646    0.5991918   439061 
 2873000   0.39995478    -4.146231    -4.146231   -3.5463002 -0.081892847    -4.146231    0.5999308   439061 
 2874000   0.40085828    -4.148038    -4.148038   -3.5467519 -0.083030046    -4.148038   0.60128605   439061 
 2875000    0.4004852   -4.1473712   -4.1473712   -3.5466447 -0.082689182   -4.1473712   0.60072643   439061 
 2876000   0.40049009   -4.1471511   -4.1471511   -3.5464173 -0.080584695   -4.1471511   0.60073376   439061 
 2877000    0.4003557   -4.1476914   -4.1476914   -3.5471592 -0.084092442   -4.1476914   0.60053219   439061 
 2878000   0.40050505   -4.1469345   -4.1469345   -3.5461783 -0.082128599   -4.1469345    0.6007562   439061 
 2879000   0.40014825   -4.1465993   -4.1465993   -3.5463783 -0.083128241   -4.1465993     0.600221   439061 
 2880000   0.40004229   -4.1467265   -4.1467265   -3.5466645 -0.086291809   -4.1467265   0.60006207   439061 
 2881000   0.40089653   -4.1473703   -4.1473703   -3.5460269 -0.084261246   -4.1473703   0.60134342   439061 
 2882000    0.4001693   -4.1459592   -4.1459592   -3.5457066 -0.080021675   -4.1459592   0.60025258   439061 
 2883000   0.40048391   -4.1464024   -4.1464024   -3.5456779 -0.079450551   -4.1464024    0.6007245   439061 
 2884000   0.40079742    -4.147159    -4.147159   -3.5459642 -0.078663589    -4.147159   0.60119476   439061 
 2885000   0.40009072   -4.1459847   -4.1459847   -3.5458499 -0.081636036   -4.1459847   0.60013471   439061 
 2886000    0.3997126   -4.1465066   -4.1465066    -3.546939 -0.081471886   -4.1465066   0.59956753   439061 
 2887000   0.39999874   -4.1466737   -4.1466737   -3.5466769  -0.08409852   -4.1466737   0.59999674   439061 
 2888000   0.39979598   -4.1459596   -4.1459596    -3.546267 -0.083532286   -4.1459596    0.5996926   439061 
 2889000   0.39953344   -4.1451355   -4.1451355   -3.5458367 -0.079063144   -4.1451355    0.5992988   439061 
 2890000   0.40015861   -4.1455791   -4.1455791   -3.5453426 -0.078632915   -4.1455791   0.60023655   439061 
 2891000   0.40017591    -4.146224    -4.146224   -3.5459615 -0.079906245    -4.146224    0.6002625   439061 
 2892000   0.40102064   -4.1471494   -4.1471494   -3.5456198 -0.082701452   -4.1471494   0.60152958   439061 
 2893000   0.40053835   -4.1467881   -4.1467881   -3.5459819 -0.082490318   -4.1467881   0.60080616   439061 
 2894000   0.40010711   -4.1467817   -4.1467817   -3.5466224 -0.085152784   -4.1467817    0.6001593   439061 
 2895000   0.39984494   -4.1461334   -4.1461334   -3.5463674 -0.083377078   -4.1461334   0.59976604   439061 
 2896000   0.39963176   -4.1462884   -4.1462884   -3.5468421 -0.081813205   -4.1462884   0.59944627   439061 
 2897000   0.40018086   -4.1469869   -4.1469869   -3.5467169 -0.080871303   -4.1469869   0.60026993   439061 
 2898000   0.40062529    -4.147133    -4.147133   -3.5461965 -0.082161017    -4.147133   0.60093657   439061 
 2899000   0.40016994   -4.1464482   -4.1464482   -3.5461947 -0.080294493   -4.1464482   0.60025354   439061 
 2900000   0.39965546   -4.1461873   -4.1461873   -3.5467054 -0.080955155   -4.1461873   0.59948183   439061 
 2901000    0.3989946   -4.1458812   -4.1458812   -3.5473907 -0.082672298   -4.1458812   0.59849053   439061 
 2902000   0.39918641   -4.1455827   -4.1455827   -3.5468044  -0.08397658   -4.1455827   0.59877825   439061 
 2903000   0.40057522   -4.1467934   -4.1467934   -3.5459319 -0.083230597   -4.1467934   0.60086146   439061 
 2904000   0.40084069   -4.1470568   -4.1470568   -3.5457971 -0.081403374   -4.1470568   0.60125966   439061 
 2905000   0.40027389   -4.1472458   -4.1472458   -3.5468363 -0.080927291   -4.1472458   0.60040947   439061 
 2906000   0.39984612   -4.1473737   -4.1473737   -3.5476059   -0.0807351   -4.1473737   0.59976781   439061 
 2907000   0.39946194   -4.1467055   -4.1467055   -3.5475139 -0.081121438   -4.1467055   0.59919155   439061 
 2908000   0.39933948   -4.1467274   -4.1467274   -3.5477195  -0.08319471   -4.1467274   0.59900785   439061 
 2909000   0.39969034   -4.1473495   -4.1473495   -3.5478153 -0.084495695   -4.1473495   0.59953415   439061 
 2910000   0.39993619   -4.1469866   -4.1469866   -3.5470837 -0.082975489   -4.1469866   0.59990292   439061 
 2911000   0.39927372   -4.1468339   -4.1468339   -3.5479246  -0.08443906   -4.1468339   0.59890922   439061 
 2912000   0.40023002    -4.148172    -4.148172   -3.5478284  -0.08353301    -4.148172   0.60034366   439061 
 2913000   0.39981256    -4.148204    -4.148204   -3.5484865 -0.084835506    -4.148204   0.59971747   439061 
 2914000   0.39902627   -4.1477839   -4.1477839   -3.5492458 -0.083707323   -4.1477839   0.59853804   439061 
 2915000   0.39991271   -4.1482951   -4.1482951   -3.5484274 -0.083233114   -4.1482951    0.5998677   439061 
 2916000   0.39948655   -4.1474428   -4.1474428   -3.5482143 -0.084314181   -4.1474428   0.59922846   439061 
 2917000   0.39975294   -4.1484292   -4.1484292   -3.5488012 -0.084926636   -4.1484292   0.59962805   439061 
 2918000   0.39956301   -4.1478341   -4.1478341   -3.5484909 -0.086831232   -4.1478341   0.59934315   439061 
 2919000    0.3997214   -4.1484074   -4.1484074   -3.5488267 -0.085505152   -4.1484074   0.59958073   439061 
 2920000   0.39842792   -4.1468989   -4.1468989   -3.5492584 -0.080799323   -4.1468989   0.59764052   439061 
 2921000   0.39973282    -4.148827    -4.148827   -3.5492291 -0.083582496    -4.148827   0.59959787   439061 
 2922000   0.39972662   -4.1482073   -4.1482073   -3.5486187 -0.081859313   -4.1482073   0.59958856   439061 
 2923000   0.39932034   -4.1481913   -4.1481913   -3.5492121 -0.082232857   -4.1481913   0.59897915   439061 
 2924000   0.39881011   -4.1484442   -4.1484442   -3.5502304  -0.08370724   -4.1484442    0.5982138   439061 
 2925000   0.39871649   -4.1473978   -4.1473978   -3.5493244 -0.083422473   -4.1473978   0.59807337   439061 
 2926000   0.39950878   -4.1474954   -4.1474954   -3.5482336 -0.082934228   -4.1474954    0.5992618   439061 
 2927000   0.39983694   -4.1478953   -4.1478953   -3.5481413 -0.083688325   -4.1478953   0.59975404   439061 
 2928000   0.39947286    -4.147775    -4.147775   -3.5485671 -0.084470327    -4.147775   0.59920792   439061 
 2929000   0.39996241   -4.1480564   -4.1480564   -3.5481141 -0.084191207   -4.1480564   0.59994225   439061 
 2930000   0.39991898   -4.1475603   -4.1475603   -3.5476832 -0.083239957   -4.1475603    0.5998771   439061 
 2931000   0.39938075    -4.147291    -4.147291   -3.5482212 -0.082306643    -4.147291   0.59906975   439061 
 2932000   0.40007228   -4.1486423   -4.1486423   -3.5485352 -0.084595085   -4.1486423   0.60010706   439061 
 2933000   0.39916901   -4.1464875   -4.1464875   -3.5477354 -0.079691209   -4.1464875   0.59875215   439061 
 2934000   0.39962371   -4.1473408   -4.1473408   -3.5479066 -0.082348407   -4.1473408    0.5994342   439061 
 2935000   0.40009493   -4.1487564   -4.1487564   -3.5486154 -0.083827838   -4.1487564   0.60014103   439061 
 2936000   0.39981559   -4.1477536   -4.1477536   -3.5480315 -0.083162472   -4.1477536   0.59972201   439061 
 2937000   0.39986886   -4.1477742   -4.1477742   -3.5479723 -0.083996329   -4.1477742   0.59980193   439061 
 2938000   0.39960314   -4.1475639   -4.1475639   -3.5481606 -0.083442719   -4.1475639   0.59940335   439061 
 2939000    0.3993616   -4.1468587   -4.1468587   -3.5478177 -0.083213447   -4.1468587   0.59904103   439061 
 2940000   0.40027895   -4.1480277   -4.1480277   -3.5476106 -0.082926326   -4.1480277   0.60041706   439061 
 2941000   0.40026079   -4.1472796   -4.1472796   -3.5468898 -0.080717699   -4.1472796   0.60038982   439061 
 2942000   0.40006145   -4.1471216   -4.1471216   -3.5470308 -0.082038876   -4.1471216   0.60009081   439061 
 2943000   0.40014691   -4.1477855   -4.1477855   -3.5475665 -0.084293442   -4.1477855     0.600219   439061 
 2944000   0.39977734   -4.1475223   -4.1475223   -3.5478577 -0.084953606   -4.1475223   0.59966464   439061 
 2945000   0.40047323   -4.1485388   -4.1485388   -3.5478303 -0.084702599   -4.1485388   0.60070847   439061 
 2946000   0.40031558   -4.1485374   -4.1485374   -3.5480654 -0.081311468   -4.1485374     0.600472   439061 
 2947000    0.4000236   -4.1483022   -4.1483022   -3.5482682  -0.08373162   -4.1483022   0.60003403   439061 
 2948000   0.40025179   -4.1486161   -4.1486161   -3.5482398 -0.081161166   -4.1486161   0.60037631   439061 
 2949000   0.39984732   -4.1484125   -4.1484125   -3.5486429 -0.083234298   -4.1484125   0.59976961   439061 
 2950000   0.39959682   -4.1480984   -4.1480984   -3.5487046  -0.08462308   -4.1480984   0.59939387   439061 
 2951000    0.3998464   -4.1480815   -4.1480815   -3.5483132 -0.085906239   -4.1480815   0.59976824   439061 
 2952000   0.39950214   -4.1478255   -4.1478255   -3.5485737 -0.086485803   -4.1478255   0.59925185   439061 
 2953000   0.39976846   -4.1480061   -4.1480061   -3.5483548 -0.083399826   -4.1480061   0.59965132   439061 
 2954000   0.39899462   -4.1475618   -4.1475618   -3.5490712 -0.081110606   -4.1475618   0.59849057   439061 
 2955000   0.39974428   -4.1483334   -4.1483334   -3.5487184 -0.080567306   -4.1483334   0.59961505   439061 
 2956000   0.40014233   -4.1486606   -4.1486606   -3.5484485 -0.080986493   -4.1486606   0.60021213   439061 
 2957000   0.40026766   -4.1488204   -4.1488204   -3.5484203 -0.086663797   -4.1488204   0.60040012   439061 
 2958000    0.4003007   -4.1488822   -4.1488822   -3.5484325 -0.088241294   -4.1488822   0.60044969   439061 
 2959000   0.39944593   -4.1469006   -4.1469006    -3.547733 -0.083089392   -4.1469006   0.59916752   439061 
 2960000   0.39910182   -4.1474962   -4.1474962   -3.5488449 -0.084188374   -4.1474962   0.59865137   439061 
 2961000   0.39981499   -4.1476792   -4.1476792   -3.5479581 -0.080707022   -4.1476792   0.59972112   439061 
 2962000   0.40054336   -4.1481547   -4.1481547    -3.547341 -0.081297521   -4.1481547   0.60081368   439061 
 2963000   0.39975317     -4.14761     -4.14761   -3.5479816 -0.083256953     -4.14761   0.59962839   439061 
 2964000   0.39914906   -4.1478186   -4.1478186   -3.5490964 -0.082249987   -4.1478186   0.59872222   439061 
 2965000   0.39976763    -4.147946    -4.147946   -3.5482959 -0.085707705    -4.147946   0.59965007   439061 
 2966000   0.39949198   -4.1468969   -4.1468969   -3.5476603 -0.080953822   -4.1468969   0.59923661   439061 
 2967000   0.40009711   -4.1482819   -4.1482819   -3.5481376 -0.083590808   -4.1482819   0.60014429   439061 
 2968000   0.39949541   -4.1476153   -4.1476153   -3.5483735 -0.081981773   -4.1476153   0.59924175   439061 
 2969000   0.40031345   -4.1482174   -4.1482174   -3.5477486  -0.08337957   -4.1482174    0.6004688   439061 
 2970000   0.39959561   -4.1475172   -4.1475172   -3.5481251  -0.08152785   -4.1475172   0.59939205   439061 
 2971000   0.39967999    -4.147176    -4.147176   -3.5476574 -0.083118397    -4.147176   0.59951862   439061 
 2972000   0.39992394   -4.1478463   -4.1478463   -3.5479618 -0.085179434   -4.1478463   0.59988455   439061 
 2973000   0.39950838   -4.1472273   -4.1472273   -3.5479661 -0.084297603   -4.1472273    0.5992612   439061 
 2974000    0.4003808   -4.1478817   -4.1478817   -3.5473119 -0.082102303   -4.1478817   0.60056984   439061 
 2975000   0.40069012   -4.1482297   -4.1482297   -3.5471959 -0.082986866   -4.1482297    0.6010338   439061 
 2976000   0.40009357   -4.1487936   -4.1487936   -3.5486546 -0.084041329   -4.1487936   0.60013898   439061 
 2977000   0.40030176   -4.1492344   -4.1492344   -3.5487831 -0.085135775   -4.1492344   0.60045127   439061 
 2978000   0.39951248   -4.1480913   -4.1480913   -3.5488239  -0.08291796   -4.1480913   0.59926736   439061 
 2979000   0.40016443   -4.1484911   -4.1484911   -3.5482458  -0.08167075   -4.1484911   0.60024527   439061 
 2980000   0.39949247   -4.1474997   -4.1474997   -3.5482624 -0.081968765   -4.1474997   0.59923734   439061 
 2981000   0.39968913   -4.1475725   -4.1475725   -3.5480402 -0.084028796   -4.1475725   0.59953233   439061 
 2982000   0.39913036   -4.1466945   -4.1466945   -3.5480003 -0.081600581   -4.1466945   0.59869418   439061 
 2983000   0.39996634   -4.1483986   -4.1483986   -3.5484504 -0.084807512   -4.1483986   0.59994814   439061 
 2984000   0.39994572   -4.1477693   -4.1477693   -3.5478521 -0.082318567   -4.1477693   0.59991721   439061 
 2985000   0.39999753   -4.1479955   -4.1479955   -3.5480005 -0.079942657   -4.1479955   0.59999492   439061 
 2986000   0.40024757   -4.1477859   -4.1477859    -3.547416  -0.08163209   -4.1477859   0.60036998   439061 
 2987000   0.40000831   -4.1481571   -4.1481571    -3.548146 -0.083719521   -4.1481571    0.6000111   439061 
 2988000   0.39945921   -4.1471307   -4.1471307   -3.5479432 -0.082777739   -4.1471307   0.59918745   439061 
 2989000   0.39990088   -4.1478893   -4.1478893   -3.5480394 -0.086875961   -4.1478893   0.59984995   439061 
 2990000   0.40042575   -4.1481224   -4.1481224   -3.5474851 -0.084655419   -4.1481224   0.60063725   439061 
 2991000   0.40041493   -4.1484284   -4.1484284   -3.5478074 -0.084208659   -4.1484284   0.60062103   439061 
 2992000   0.39953674   -4.1476866   -4.1476866   -3.5483829 -0.083884779   -4.1476866   0.59930375   439061 
 2993000   0.40025371    -4.148429    -4.148429   -3.5480498 -0.082151265    -4.148429    0.6003792   439061 
 2994000    0.4003182   -4.1482711   -4.1482711   -3.5477951 -0.083090743   -4.1482711   0.60047594   439061 
 2995000   0.39942743   -4.1475356   -4.1475356   -3.5483958 -0.082578796   -4.1475356   0.59913979   439061 
 2996000   0.39943065   -4.1480045   -4.1480045   -3.5488599 -0.083349617   -4.1480045   0.59914461   439061 
 2997000   0.39976814   -4.1485476   -4.1485476   -3.5488968 -0.086835163   -4.1485476   0.59965084   439061 
 2998000   0.39999866   -4.1485228   -4.1485228   -3.5485261 -0.085877578   -4.1485228   0.59999663   439061 
 2999000   0.40073684   -4.1490631   -4.1490631   -3.5479592 -0.083799149   -4.1490631   0.60110389   439061 
 3000000   0.39992072   -4.1477532   -4.1477532   -3.5478735 -0.083298323   -4.1477532   0.59987972   439061 
 3001000   0.40026789    -4.149224    -4.149224   -3.5488235 -0.085902782    -4.149224   0.60040047   439061 
 3002000   0.40056226    -4.148852    -4.148852     -3.54801 -0.086956579    -4.148852   0.60084202   439061 
 3003000   0.40012384   -4.1481026   -4.1481026   -3.5479182 -0.084529733   -4.1481026    0.6001844   439061 
 3004000   0.40015497   -4.1487987   -4.1487987   -3.5485676  -0.08438384   -4.1487987   0.60023109   439061 
 3005000   0.39985479   -4.1477935   -4.1477935   -3.5480127 -0.083402851   -4.1477935   0.59978082   439061 
 3006000   0.39981335   -4.1479288   -4.1479288   -3.5482101 -0.082914147   -4.1479288   0.59971866   439061 
 3007000   0.39983336   -4.1484851   -4.1484851   -3.5487364 -0.086073732   -4.1484851   0.59974868   439061 
 3008000   0.40005808   -4.1480763   -4.1480763   -3.5479905 -0.084855733   -4.1480763   0.60008575   439061 
 3009000   0.40030002   -4.1484602   -4.1484602   -3.5480115  -0.08269365   -4.1484602   0.60044866   439061 
 3010000   0.39995971   -4.1483671   -4.1483671   -3.5484289 -0.083236072   -4.1483671    0.5999382   439061 
 3011000   0.39976847   -4.1479707   -4.1479707   -3.5483194 -0.081781672   -4.1479707   0.59965134   439061 
 3012000   0.40025512   -4.1490888   -4.1490888   -3.5487075 -0.086215331   -4.1490888   0.60038132   439061 
 3013000   0.39947379   -4.1491033   -4.1491033    -3.549894 -0.088764331   -4.1491033   0.59920932   439061 
 3014000   0.39991992   -4.1488652   -4.1488652   -3.5489866 -0.083964552   -4.1488652   0.59987852   439061 
 3015000   0.40001169   -4.1485285   -4.1485285   -3.5485123 -0.082645856   -4.1485285   0.60001617   439061 
 3016000    0.3996065   -4.1476828   -4.1476828   -3.5482744 -0.081499502   -4.1476828   0.59940838   439061 
 3017000   0.40044371   -4.1493776   -4.1493776   -3.5487134 -0.083230397   -4.1493776   0.60066419   439061 
 3018000   0.39869639   -4.1474357   -4.1474357   -3.5493925 -0.082806843   -4.1474357   0.59804322   439061 
 3019000   0.39919648   -4.1484526   -4.1484526   -3.5496593 -0.084356739   -4.1484526   0.59879336   439061 
 3020000   0.39952353   -4.1490902   -4.1490902   -3.5498063 -0.087692847   -4.1490902   0.59928393   439061 
 3021000   0.39976061   -4.1493572   -4.1493572   -3.5497176  -0.08640616   -4.1493572   0.59963955   439061 
 3022000   0.39971144     -4.14946     -4.14946   -3.5498942 -0.083529341     -4.14946    0.5995658   439061 
 3023000   0.39999214   -4.1488776   -4.1488776   -3.5488908 -0.084108717   -4.1488776   0.59998684   439061 
 3024000     0.399406   -4.1479681   -4.1479681   -3.5488605 -0.080941823   -4.1479681   0.59910763   439061 
 3025000   0.39950137   -4.1479936   -4.1479936   -3.5487429 -0.083104242   -4.1479936   0.59925069   439061 
 3026000   0.39909762   -4.1480543   -4.1480543   -3.5494092 -0.087062409   -4.1480543   0.59864506   439061 
 3027000   0.39921275   -4.1488139   -4.1488139   -3.5499962 -0.087440951   -4.1488139   0.59881776   439061 
 3028000   0.39895915   -4.1480674   -4.1480674     -3.54963 -0.083084778   -4.1480674   0.59843736   439061 
 3029000   0.39902647   -4.1486087   -4.1486087   -3.5500704 -0.081400883   -4.1486087   0.59853834   439061 
 3030000     0.399878   -4.1491562   -4.1491562   -3.5493406 -0.079919527   -4.1491562   0.59981563   439061 
 3031000   0.39953719   -4.1491261   -4.1491261   -3.5498217 -0.082135016   -4.1491261   0.59930442   439061 
 3032000   0.40027641   -4.1502723   -4.1502723   -3.5498591 -0.086414328   -4.1502723   0.60041324   439061 
 3033000   0.39948648   -4.1490082   -4.1490082   -3.5497798 -0.086467672   -4.1490082   0.59922835   439061 
 3034000   0.39920041   -4.1486621   -4.1486621   -3.5498628 -0.089186149   -4.1486621   0.59879926   439061 
 3035000   0.39934324   -4.1482161   -4.1482161   -3.5492026 -0.084886545   -4.1482161    0.5990135   439061 
 3036000   0.39909887   -4.1481014   -4.1481014   -3.5494545 -0.083171129   -4.1481014   0.59864694   439061 
 3037000   0.39968769   -4.1488357   -4.1488357   -3.5493055 -0.081943599   -4.1488357   0.59953017   439061 
 3038000     0.399514   -4.1488077   -4.1488077    -3.549538 -0.079492559   -4.1488077   0.59926964   439061 
 3039000   0.40019023   -4.1500974   -4.1500974   -3.5498135 -0.083434151   -4.1500974   0.60028398   439061 
 3040000   0.39949203     -4.15005     -4.15005   -3.5508133 -0.086078732     -4.15005   0.59923667   439061 
 3041000   0.39946229   -4.1493703   -4.1493703   -3.5501782 -0.088020426   -4.1493703   0.59919207   439061 
 3042000   0.39957394    -4.149064    -4.149064   -3.5497045 -0.085027424    -4.149064   0.59935955   439061 
 3043000   0.39896292   -4.1483729   -4.1483729   -3.5499299   -0.0858836   -4.1483729   0.59844302   439061 
 3044000   0.39943004   -4.1489859   -4.1489859   -3.5498422 -0.085457368   -4.1489859    0.5991437   439061 
 3045000   0.39925074   -4.1485091   -4.1485091   -3.5496344 -0.078713986   -4.1485091   0.59887475   439061 
 3046000   0.39946423   -4.1485089   -4.1485089   -3.5493139 -0.081885608   -4.1485089   0.59919499   439061 
 3047000   0.39906061   -4.1473647   -4.1473647   -3.5487752 -0.077958023   -4.1473647   0.59858956   439061 
 3048000   0.39918685   -4.1481586   -4.1481586   -3.5493796 -0.084162025   -4.1481586   0.59877892   439061 
 3049000   0.39970924   -4.1485538   -4.1485538   -3.5489914 -0.088848244   -4.1485538   0.59956249   439061 
 3050000   0.39966368   -4.1484725   -4.1484725   -3.5489783 -0.086664168   -4.1484725   0.59949415   439061 
 3051000   0.39975488   -4.1478882   -4.1478882   -3.5482572 -0.085459199   -4.1478882   0.59963096   439061 
 3052000   0.39971532    -4.148264    -4.148264   -3.5486924 -0.080208277    -4.148264   0.59957161   439061 
 3053000   0.39918461   -4.1481268   -4.1481268   -3.5493513 -0.079818445   -4.1481268   0.59877556   439061 
 3054000   0.39958639   -4.1489865   -4.1489865   -3.5496083 -0.083763237   -4.1489865   0.59937823   439061 
 3055000   0.40020259   -4.1493558   -4.1493558   -3.5490533 -0.083986878   -4.1493558   0.60030251   439061 
 3056000   0.39976936   -4.1488089   -4.1488089   -3.5491562 -0.083564944   -4.1488089   0.59965267   439061 
 3057000   0.39946666   -4.1478935   -4.1478935   -3.5486949 -0.085217301   -4.1478935   0.59919862   439061 
 3058000   0.39969259   -4.1488494   -4.1488494   -3.5493119 -0.086751474   -4.1488494   0.59953752   439061 
 3059000   0.39988235   -4.1483425   -4.1483425   -3.5485203 -0.085474519   -4.1483425   0.59982216   439061 
 3060000   0.39985917   -4.1485783   -4.1485783   -3.5487909 -0.084640714   -4.1485783   0.59978739   439061 
 3061000   0.39961543   -4.1481022   -4.1481022   -3.5486804 -0.081688412   -4.1481022   0.59942178   439061 
 3062000   0.39970724   -4.1484073   -4.1484073   -3.5488478 -0.082422808   -4.1484073   0.59955949   439061 
 3063000   0.39965374   -4.1485608   -4.1485608   -3.5490815  -0.08459622   -4.1485608   0.59947924   439061 
 3064000   0.39871434    -4.147727    -4.147727   -3.5496569 -0.083261127    -4.147727   0.59807015   439061 
 3065000   0.39912854   -4.1483026   -4.1483026   -3.5496111 -0.084321413   -4.1483026   0.59869145   439061 
 3066000   0.39911229   -4.1476874   -4.1476874   -3.5490203 -0.081861453   -4.1476874   0.59866707   439061 
 3067000   0.39926261    -4.147527    -4.147527   -3.5486344 -0.079366497    -4.147527   0.59889254   439061 
 3068000   0.39936822   -4.1479108   -4.1479108   -3.5488598 -0.083021276   -4.1479108   0.59905097   439061 
 3069000   0.40047186    -4.149552    -4.149552   -3.5488456 -0.088377591    -4.149552   0.60070642   439061 
 3070000   0.39901489   -4.1468972   -4.1468972   -3.5483762 -0.083412673   -4.1468972   0.59852097   439061 
 3071000     0.399623   -4.1474112   -4.1474112   -3.5479781 -0.084984881   -4.1474112   0.59943313   439061 
 3072000   0.39974814   -4.1478331   -4.1478331   -3.5482123  -0.08460365   -4.1478331   0.59962084   439061 
 3073000   0.40057743   -4.1481188   -4.1481188    -3.547254  -0.08393059   -4.1481188   0.60086477   439061 
 3074000   0.39971354    -4.146668    -4.146668   -3.5470991  -0.08074163    -4.146668   0.59956894   439061 
 3075000   0.39922679   -4.1462587   -4.1462587   -3.5474199 -0.078031117   -4.1462587   0.59883881   439061 
 3076000   0.39929064   -4.1474437   -4.1474437   -3.5485091 -0.084370382   -4.1474437    0.5989346   439061 
 3077000   0.39971387   -4.1481665   -4.1481665    -3.548597 -0.087423973   -4.1481665   0.59956944   439061 
 3078000   0.39949295   -4.1471987   -4.1471987   -3.5479606 -0.082728098   -4.1471987   0.59923806   439061 
 3079000   0.39998824   -4.1481594   -4.1481594   -3.5481784 -0.084639052   -4.1481594   0.59998099   439061 
 3080000   0.39993228   -4.1483129   -4.1483129   -3.5484159 -0.082422183   -4.1483129   0.59989705   439061 
 3081000   0.39991906   -4.1482025   -4.1482025   -3.5483252 -0.081581074   -4.1482025   0.59987722   439061 
 3082000   0.39982271   -4.1477675   -4.1477675   -3.5480348 -0.081827789   -4.1477675   0.59973269   439061 
 3083000   0.39943328   -4.1463333   -4.1463333   -3.5471848 -0.079204531   -4.1463333   0.59914856   439061 
 3084000    0.4007326   -4.1486403   -4.1486403   -3.5475427 -0.086899539   -4.1486403   0.60109752   439061 
 3085000   0.39974223   -4.1464189   -4.1464189   -3.5468069 -0.082143725   -4.1464189   0.59961199   439061 
 3086000   0.39944431   -4.1470415   -4.1470415   -3.5478764 -0.084103578   -4.1470415    0.5991651   439061 
 3087000   0.39940778   -4.1471319   -4.1471319   -3.5480216 -0.084361303   -4.1471319    0.5991103   439061 
 3088000   0.40008827   -4.1483317   -4.1483317   -3.5482007  -0.08330391   -4.1483317   0.60013104   439061 
 3089000   0.39928553   -4.1474879   -4.1474879    -3.548561 -0.080347367   -4.1474879   0.59892692   439061 
 3090000   0.39991377   -4.1480932   -4.1480932   -3.5482239 -0.081903133   -4.1480932   0.59986929   439061 
 3091000   0.39983905    -4.147932    -4.147932   -3.5481748 -0.080394487    -4.147932    0.5997572   439061 
 3092000   0.39917407   -4.1472016   -4.1472016   -3.5484418 -0.083880926   -4.1472016   0.59875975   439061 
 3093000   0.39896052   -4.1467897   -4.1467897   -3.5483503 -0.083248705   -4.1467897   0.59843942   439061 
 3094000   0.39966533   -4.1481119   -4.1481119   -3.5486153 -0.087841496   -4.1481119   0.59949663   439061 
 3095000   0.39844205   -4.1471386   -4.1471386   -3.5494769 -0.086908749   -4.1471386   0.59766171   439061 
 3096000   0.39987511   -4.1490776   -4.1490776   -3.5492663 -0.085692067   -4.1490776   0.59981131   439061 
 3097000   0.39971344   -4.1494307   -4.1494307   -3.5498619 -0.085232267   -4.1494307   0.59956879   439061 
 3098000   0.39995219   -4.1491996   -4.1491996   -3.5492727 -0.083024813   -4.1491996   0.59992692   439061 
 3099000   0.39932066   -4.1491672   -4.1491672   -3.5501876 -0.081684281   -4.1491672   0.59897963   439061 
 3100000   0.39925834   -4.1487049   -4.1487049   -3.5498188 -0.081692665   -4.1487049   0.59888615   439061 
 3101000   0.39916283   -4.1485687   -4.1485687   -3.5498258 -0.085359895   -4.1485687   0.59874288   439061 
 3102000   0.39903442    -4.147931    -4.147931   -3.5493808 -0.085764314    -4.147931   0.59855027   439061 
 3103000   0.39978072   -4.1478532   -4.1478532   -3.5481835 -0.086895961   -4.1478532   0.59966971   439061 
 3104000   0.40039407   -4.1487492   -4.1487492   -3.5481594 -0.086109958   -4.1487492   0.60058973   439061 
 3105000    0.3997191   -4.1472377   -4.1472377   -3.5476604 -0.083662816   -4.1472377   0.59957729   439061 
 3106000   0.40108582   -4.1487369   -4.1487369   -3.5471095 -0.083179491   -4.1487369   0.60162736   439061 
 3107000    0.4001825    -4.147628    -4.147628   -3.5473556 -0.080246784    -4.147628   0.60027239   439061 
 3108000   0.40038547   -4.1481215   -4.1481215   -3.5475447  -0.08481957   -4.1481215   0.60057683   439061 
 3109000   0.40002078   -4.1481093   -4.1481093   -3.5480795 -0.084249242   -4.1481093    0.6000298   439061 
 3110000   0.39993203   -4.1476598   -4.1476598   -3.5477632 -0.085903137   -4.1476598   0.59989668   439061 
 3111000   0.39961324   -4.1472788   -4.1472788   -3.5478603 -0.083516538   -4.1472788   0.59941849   439061 
 3112000   0.39985556    -4.148506    -4.148506    -3.548724 -0.085588511    -4.148506   0.59978197   439061 
 3113000   0.39971907   -4.1480169   -4.1480169   -3.5484397 -0.084887903   -4.1480169   0.59957724   439061 
 3114000   0.39942113   -4.1480522   -4.1480522   -3.5489219 -0.081066708   -4.1480522   0.59913033   439061 
 3115000   0.39922508   -4.1481448   -4.1481448   -3.5493086 -0.081140036   -4.1481448   0.59883626   439061 
 3116000   0.39924345   -4.1477924   -4.1477924   -3.5489286  -0.08210192   -4.1477924   0.59886382   439061 
 3117000   0.39970044   -4.1488196   -4.1488196   -3.5492703 -0.084418683   -4.1488196   0.59954929   439061 
 3118000   0.39938184   -4.1483155   -4.1483155   -3.5492441 -0.086148056   -4.1483155   0.59907139   439061 
 3119000   0.39970531   -4.1485891   -4.1485891   -3.5490325 -0.084591129   -4.1485891    0.5995566   439061 
 3120000   0.39961489   -4.1487721   -4.1487721   -3.5493511 -0.085298296   -4.1487721   0.59942097   439061 
 3121000   0.39932578   -4.1477237   -4.1477237   -3.5487364 -0.083336305   -4.1477237    0.5989873   439061 
 3122000   0.39976814   -4.1483292   -4.1483292   -3.5486784 -0.083412278   -4.1483292   0.59965085   439061 
 3123000   0.39901401   -4.1482741   -4.1482741   -3.5497545 -0.084339224   -4.1482741   0.59851965   439061 
 3124000   0.39941754   -4.1483033   -4.1483033   -3.5491784 -0.083698726   -4.1483033   0.59912494   439061 
 3125000   0.39916852   -4.1481141   -4.1481141   -3.5493627 -0.081889642   -4.1481141   0.59875142   439061 
 3126000   0.39895752   -4.1486596   -4.1486596   -3.5502247 -0.084155877   -4.1486596   0.59843492   439061 
 3127000   0.39944645   -4.1479948   -4.1479948   -3.5488265 -0.083738272   -4.1479948   0.59916831   439061 
 3128000   0.39984434   -4.1485266   -4.1485266   -3.5487614 -0.082808378   -4.1485266   0.59976514   439061 
 3129000   0.40011153   -4.1486313   -4.1486313   -3.5484654 -0.085955436   -4.1486313   0.60016593   439061 
 3130000    0.3996747   -4.1481111   -4.1481111   -3.5486004 -0.083249896   -4.1481111   0.59951068   439061 
 3131000   0.39977877   -4.1487881   -4.1487881   -3.5491214 -0.086466052   -4.1487881   0.59966678   439061 
 3132000   0.39940564   -4.1483077   -4.1483077   -3.5492006 -0.085831456   -4.1483077   0.59910709   439061 
 3133000   0.39984356   -4.1483041   -4.1483041   -3.5485402 -0.081302265   -4.1483041   0.59976397   439061 
 3134000    0.3995484   -4.1490679   -4.1490679   -3.5497467 -0.083827259   -4.1490679   0.59932124   439061 
 3135000   0.40064654   -4.1489586   -4.1489586   -3.5479902 -0.082182847   -4.1489586   0.60096844   439061 
 3136000   0.40013084   -4.1485489   -4.1485489    -3.548354 -0.080384488   -4.1485489    0.6001949   439061 
 3137000   0.39952837   -4.1471583   -4.1471583   -3.5478671  -0.08444369   -4.1471583    0.5992912   439061 
 3138000   0.39980723   -4.1477894   -4.1477894     -3.54808 -0.085606185   -4.1477894   0.59970947   439061 
 3139000   0.39992476   -4.1483106   -4.1483106   -3.5484249 -0.086644019   -4.1483106   0.59988577   439061 
 3140000   0.39971367   -4.1478067   -4.1478067   -3.5482376 -0.085156442   -4.1478067   0.59956914   439061 
 3141000   0.39984552   -4.1482069   -4.1482069     -3.54844 -0.081828496   -4.1482069   0.59976691   439061 
 3142000   0.39992922   -4.1481217   -4.1481217   -3.5482292  -0.07999867   -4.1481217   0.59989246   439061 
 3143000    0.4003126   -4.1484469   -4.1484469   -3.5479794 -0.081302496   -4.1484469   0.60046754   439061 
 3144000   0.39983898   -4.1478788   -4.1478788   -3.5481217 -0.080747296   -4.1478788   0.59975711   439061 
 3145000   0.39901178   -4.1463411   -4.1463411   -3.5478248 -0.082098752   -4.1463411   0.59851631   439061 
 3146000   0.39997515   -4.1483835   -4.1483835   -3.5484221  -0.08626667   -4.1483835   0.59996136   439061 
 3147000   0.39961778   -4.1476045   -4.1476045   -3.5481792 -0.084066217   -4.1476045    0.5994253   439061 
 3148000   0.40013732   -4.1484247   -4.1484247   -3.5482201 -0.083281227   -4.1484247   0.60020461   439061 
 3149000   0.40013207    -4.148521    -4.148521   -3.5483243 -0.080724989    -4.148521   0.60019674   439061 
 3150000   0.40102172   -4.1496154   -4.1496154   -3.5480842 -0.083220136   -4.1496154   0.60153121   439061 
 3151000   0.40005485   -4.1477024   -4.1477024   -3.5476215 -0.079270984   -4.1477024   0.60008091   439061 
 3152000   0.39998087   -4.1476366   -4.1476366   -3.5476666 -0.082912338   -4.1476366   0.59996994   439061 
 3153000   0.39959096    -4.146871    -4.146871   -3.5474859 -0.083756576    -4.146871   0.59938507   439061 
 3154000   0.39952206   -4.1471291   -4.1471291   -3.5478473 -0.084491344   -4.1471291   0.59928172   439061 
 3155000   0.40043349   -4.1476453   -4.1476453   -3.5469964 -0.083612884   -4.1476453   0.60064887   439061 
 3156000   0.40045719   -4.1473322   -4.1473322   -3.5466478 -0.081053907   -4.1473322   0.60068442   439061 
 3157000   0.40094226   -4.1479915   -4.1479915   -3.5465795 -0.079446469   -4.1479915   0.60141201   439061 
 3158000   0.40093431   -4.1484591   -4.1484591   -3.5470591 -0.080327771   -4.1484591   0.60140009   439061 
 3159000    0.3999481   -4.1474516   -4.1474516   -3.5475308 -0.082780393   -4.1474516   0.59992079   439061 
 3160000   0.39980229   -4.1478412   -4.1478412   -3.5481391 -0.084036671   -4.1478412   0.59970207   439061 
 3161000   0.39951393   -4.1468725   -4.1468725    -3.547603 -0.085415603   -4.1468725   0.59926953   439061 
 3162000   0.40019589   -4.1472822   -4.1472822   -3.5469897 -0.083982223   -4.1472822   0.60029246   439061 
 3163000   0.40056865   -4.1474862   -4.1474862   -3.5466346 -0.081330406   -4.1474862   0.60085161   439061 
 3164000    0.3999989    -4.147785    -4.147785    -3.547788 -0.082189712    -4.147785   0.59999698   439061 
 3165000   0.40031927   -4.1487602   -4.1487602   -3.5482827 -0.082397953   -4.1487602   0.60047753   439061 
 3166000   0.39991776   -4.1482498   -4.1482498   -3.5483745  -0.08275937   -4.1482498   0.59987527   439061 
 3167000   0.39996414    -4.148598    -4.148598   -3.5486532 -0.087511248    -4.148598   0.59994485   439061 
 3168000   0.39877946   -4.1467011   -4.1467011   -3.5485333  -0.08096532   -4.1467011   0.59816783   439061 
 3169000   0.39977193   -4.1479451   -4.1479451   -3.5482885 -0.085893468   -4.1479451   0.59965653   439061 
 3170000   0.39949233   -4.1488926   -4.1488926   -3.5496554 -0.086550566   -4.1488926   0.59923713   439061 
 3171000   0.39965655   -4.1488664   -4.1488664    -3.549383  -0.08223176   -4.1488664   0.59948346   439061 
 3172000   0.39989371   -4.1499295   -4.1499295   -3.5500903 -0.084541601   -4.1499295    0.5998392   439061 
 3173000   0.39964619   -4.1492121   -4.1492121   -3.5497442  -0.08078288   -4.1492121   0.59946792   439061 
 3174000   0.40022072   -4.1490147   -4.1490147    -3.548685  -0.08010606   -4.1490147   0.60032972   439061 
 3175000   0.39953589   -4.1488766   -4.1488766   -3.5495742 -0.083826948   -4.1488766   0.59930248   439061 
 3176000   0.39933384   -4.1484651   -4.1484651   -3.5494657 -0.085056965   -4.1484651    0.5989994   439061 
 3177000   0.39957127    -4.148227    -4.148227   -3.5488714 -0.085342749    -4.148227   0.59935554   439061 
 3178000   0.39917311   -4.1477935   -4.1477935   -3.5490352 -0.085525411   -4.1477935    0.5987583   439061 
 3179000   0.39956012   -4.1486014   -4.1486014   -3.5492625 -0.085724788   -4.1486014   0.59933882   439061 
 3180000   0.39979876   -4.1486798   -4.1486798    -3.548983 -0.084421579   -4.1486798   0.59969678   439061 
 3181000   0.40003312   -4.1489697   -4.1489697   -3.5489214 -0.080862503   -4.1489697   0.60004832   439061 
 3182000   0.39967941    -4.147949    -4.147949   -3.5484313 -0.081760426    -4.147949   0.59951774   439061 
 3183000   0.39967085   -4.1478324   -4.1478324   -3.5483275 -0.081908445   -4.1478324   0.59950491   439061 
 3184000   0.40029078   -4.1481069   -4.1481069   -3.5476721 -0.083672019   -4.1481069   0.60043481   439061 
 3185000   0.40033044   -4.1483129   -4.1483129   -3.5478186 -0.087148197   -4.1483129    0.6004943   439061 
 3186000    0.3999219   -4.1478203   -4.1478203   -3.5479388 -0.086767157   -4.1478203   0.59988149   439061 
 3187000    0.3998651   -4.1472731   -4.1472731   -3.5474768 -0.082814354   -4.1472731   0.59979628   439061 
 3188000   0.39961648   -4.1475202   -4.1475202   -3.5480968 -0.081807285   -4.1475202   0.59942335   439061 
 3189000   0.39990646    -4.148361    -4.148361   -3.5485027  -0.08339401    -4.148361   0.59985832   439061 
 3190000   0.40015517   -4.1489592   -4.1489592   -3.5487278 -0.085410258   -4.1489592   0.60023138   439061 
 3191000   0.39975789   -4.1480185   -4.1480185   -3.5483831 -0.083455593   -4.1480185   0.59963547   439061 
 3192000   0.39906114   -4.1480973   -4.1480973    -3.549507 -0.083396207   -4.1480973   0.59859034   439061 
 3193000   0.39848282   -4.1482615   -4.1482615   -3.5505387 -0.086267064   -4.1482615   0.59772287   439061 
 3194000    0.3995012   -4.1490337   -4.1490337   -3.5497833  -0.08512125   -4.1490337   0.59925044   439061 
 3195000   0.39975183   -4.1486043   -4.1486043   -3.5489779 -0.081907683   -4.1486043   0.59962639   439061 
 3196000    0.3996512   -4.1489086   -4.1489086   -3.5494332 -0.083668235   -4.1489086   0.59947544   439061 
 3197000   0.39968878   -4.1490852   -4.1490852   -3.5495534 -0.082152302   -4.1490852    0.5995318   439061 
 3198000   0.39964212   -4.1488406   -4.1488406   -3.5493788 -0.084004328   -4.1488406   0.59946182   439061 
 3199000   0.39908297   -4.1479783   -4.1479783   -3.5493552 -0.081902748   -4.1479783   0.59862308   439061 
 3200000   0.39973381   -4.1490538   -4.1490538   -3.5494544 -0.085086543   -4.1490538   0.59959935   439061 
 3201000   0.39878642   -4.1476171   -4.1476171   -3.5494388  -0.08259719   -4.1476171   0.59817827   439061 
 3202000   0.39913461   -4.1488977   -4.1488977   -3.5501971 -0.084812012   -4.1488977   0.59870055   439061 
 3203000   0.39970365   -4.1493675   -4.1493675   -3.5498134 -0.086151462   -4.1493675   0.59955411   439061 
 3204000   0.39873758   -4.1476166   -4.1476166   -3.5495116 -0.080385805   -4.1476166     0.598105   439061 
 3205000   0.39960288   -4.1489833   -4.1489833   -3.5495803 -0.081864738   -4.1489833   0.59940296   439061 
 3206000   0.39913496   -4.1489674   -4.1489674   -3.5502663 -0.082940229   -4.1489674   0.59870108   439061 
 3207000   0.39907073   -4.1489466   -4.1489466   -3.5503419 -0.084897093   -4.1489466   0.59860473   439061 
 3208000   0.39947682   -4.1489627   -4.1489627   -3.5497488 -0.082850071   -4.1489627   0.59921387   439061 
 3209000   0.39960876   -4.1485854   -4.1485854   -3.5491736 -0.084066487   -4.1485854   0.59941177   439061 
 3210000   0.39956986   -4.1489862   -4.1489862   -3.5496328 -0.085427354   -4.1489862   0.59935342   439061 
 3211000   0.39939144   -4.1482206   -4.1482206   -3.5491348 -0.082120712   -4.1482206   0.59908579   439061 
 3212000   0.39947408   -4.1484748   -4.1484748   -3.5492651 -0.083164769   -4.1484748   0.59920975   439061 
 3213000   0.39964057   -4.1488237   -4.1488237   -3.5493642 -0.084883209   -4.1488237   0.59945948   439061 
 3214000   0.39961168   -4.1483127   -4.1483127   -3.5488966 -0.079872134   -4.1483127   0.59941615   439061 
 3215000   0.39977374   -4.1492577   -4.1492577   -3.5495985 -0.086376604   -4.1492577   0.59965924   439061 
 3216000    0.3997142   -4.1493686   -4.1493686   -3.5497987 -0.085771186   -4.1493686   0.59956993   439061 
 3217000   0.39945288   -4.1485017   -4.1485017   -3.5493238 -0.083733688   -4.1485017   0.59917796   439061 
 3218000   0.40001461   -4.1490076   -4.1490076   -3.5489871 -0.085566157   -4.1490076   0.60002055   439061 
 3219000   0.40000806   -4.1485219   -4.1485219   -3.5485112 -0.082841998   -4.1485219   0.60001073   439061 
 3220000   0.39962353   -4.1475579   -4.1475579    -3.548124 -0.081674195   -4.1475579   0.59943393   439061 
 3221000   0.39964108   -4.1480392   -4.1480392   -3.5485789 -0.083561744   -4.1480392   0.59946025   439061 
 3222000   0.39932751   -4.1482636   -4.1482636   -3.5492737 -0.086776623   -4.1482636    0.5989899   439061 
 3223000   0.39955012   -4.1485523   -4.1485523   -3.5492285 -0.085122878   -4.1485523   0.59932381   439061 
 3224000   0.39960887   -4.1477988   -4.1477988   -3.5483868 -0.082587748   -4.1477988   0.59941194   439061 
 3225000   0.39971847   -4.1489418   -4.1489418   -3.5493655 -0.083758746   -4.1489418   0.59957634   439061 
 3226000   0.39969298   -4.1491129   -4.1491129   -3.5495748 -0.084665723   -4.1491129   0.59953811   439061 
 3227000    0.3989542   -4.1489646   -4.1489646   -3.5505347 -0.086016973   -4.1489646   0.59842994   439061 
 3228000   0.40006447    -4.149633    -4.149633   -3.5495376 -0.085145251    -4.149633   0.60009534   439061 
 3229000   0.39981485   -4.1495938   -4.1495938   -3.5498728 -0.084577065   -4.1495938   0.59972091   439061 
 3230000   0.39920597   -4.1489924   -4.1489924   -3.5501848 -0.084789999   -4.1489924    0.5988076   439061 
 3231000   0.39980516   -4.1493855   -4.1493855   -3.5496791 -0.083819183   -4.1493855   0.59970638   439061 
 3232000   0.39914174   -4.1485996   -4.1485996   -3.5498884 -0.082425119   -4.1485996   0.59871125   439061 
 3233000   0.39887285   -4.1482239   -4.1482239    -3.549916 -0.083563262   -4.1482239   0.59830791   439061 
 3234000   0.39995235   -4.1498155   -4.1498155   -3.5498884 -0.085187763   -4.1498155   0.59992715   439061 
 3235000     0.399227   -4.1493628   -4.1493628   -3.5505237  -0.08540938   -4.1493628   0.59883914   439061 
 3236000   0.39888607   -4.1490227   -4.1490227    -3.550695 -0.085006142   -4.1490227   0.59832774   439061 
 3237000   0.39957513   -4.1496797   -4.1496797   -3.5503183 -0.085423801   -4.1496797   0.59936133   439061 
 3238000    0.3991011   -4.1491522   -4.1491522   -3.5505019 -0.082105758   -4.1491522   0.59865028   439061 
 3239000   0.39901937   -4.1496476   -4.1496476   -3.5511199 -0.082229402   -4.1496476   0.59852769   439061 
 3240000   0.40000979   -4.1505041   -4.1505041   -3.5504908 -0.084637164   -4.1505041   0.60001332   439061 
 3241000   0.39943992   -4.1499313   -4.1499313   -3.5507728 -0.085216188   -4.1499313   0.59915852   439061 
 3242000   0.39879474   -4.1490807   -4.1490807   -3.5508899 -0.084977253   -4.1490807   0.59819074   439061 
 3243000   0.39875537   -4.1493663   -4.1493663   -3.5512347 -0.085016664   -4.1493663   0.59813169   439061 
 3244000   0.39853304   -4.1492299   -4.1492299   -3.5514317 -0.085005822   -4.1492299    0.5977982   439061 
 3245000   0.39911916   -4.1506372   -4.1506372   -3.5519598 -0.086086347   -4.1506372   0.59867738   439061 
 3246000   0.39916771   -4.1501567   -4.1501567   -3.5514065 -0.084150674   -4.1501567    0.5987502   439061 
 3247000   0.39896765   -4.1489978   -4.1489978   -3.5505477 -0.082618729   -4.1489978   0.59845012   439061 
 3248000   0.39986139   -4.1509101   -4.1509101   -3.5511194 -0.085455194   -4.1509101   0.59979072   439061 
 3249000   0.39907119   -4.1499309   -4.1499309   -3.5513255 -0.085352216   -4.1499309   0.59860542   439061 
 3250000   0.39899648   -4.1500235   -4.1500235   -3.5515301 -0.086220602   -4.1500235   0.59849335   439061 
 3251000   0.39850199   -4.1487952   -4.1487952   -3.5510435   -0.0835716   -4.1487952   0.59775162   439061 
 3252000   0.39941824   -4.1497674   -4.1497674   -3.5506414 -0.083540279   -4.1497674   0.59912599   439061 
 3253000   0.39916537   -4.1498876   -4.1498876   -3.5511409 -0.085064813   -4.1498876    0.5987467   439061 
 3254000   0.39884185   -4.1494173   -4.1494173   -3.5511558 -0.082760672   -4.1494173   0.59826142   439061 
 3255000    0.3987321   -4.1494315   -4.1494315   -3.5513347 -0.084967965   -4.1494315   0.59809679   439061 
 3256000   0.39861526    -4.149088    -4.149088   -3.5511665  -0.08521099    -4.149088   0.59792153   439061 
 3257000   0.39911795   -4.1498194   -4.1498194   -3.5511439 -0.085301136   -4.1498194   0.59867556   439061 
 3258000   0.39867775   -4.1497015   -4.1497015   -3.5516862 -0.084947567   -4.1497015   0.59801527   439061 
 3259000   0.39888635   -4.1495247   -4.1495247   -3.5511966  -0.08524493   -4.1495247   0.59832817   439061 
 3260000   0.39955032   -4.1502537   -4.1502537   -3.5509296 -0.084425485   -4.1502537   0.59932411   439061 
 3261000   0.39927691   -4.1500282   -4.1500282   -3.5511142 -0.085550611   -4.1500282     0.598914   439061 
 3262000   0.39904883   -4.1501992   -4.1501992   -3.5516273 -0.086901714   -4.1501992   0.59857187   439061 
 3263000   0.39888395   -4.1492742   -4.1492742   -3.5509496 -0.082979583   -4.1492742   0.59832457   439061 
 3264000   0.39872111   -4.1492428   -4.1492428   -3.5511625 -0.083334797   -4.1492428   0.59808031   439061 
 3265000   0.39873732   -4.1493797   -4.1493797    -3.551275  -0.08417112   -4.1493797   0.59810462   439061 
 3266000   0.39803999   -4.1478554   -4.1478554   -3.5507968 -0.079492914   -4.1478554   0.59705862   439061 
 3267000     0.398754    -4.149206    -4.149206   -3.5510764 -0.085778437    -4.149206   0.59812964   439061 
 3268000   0.39895639   -4.1491975   -4.1491975   -3.5507642 -0.086218379   -4.1491975   0.59843322   439061 
 3269000   0.39947434   -4.1498893   -4.1498893   -3.5506792 -0.085166096   -4.1498893   0.59921014   439061 
 3270000    0.3995528   -4.1498763   -4.1498763   -3.5505484 -0.084891695   -4.1498763   0.59932783   439061 
 3271000   0.39884856   -4.1488337   -4.1488337   -3.5505622 -0.082341883   -4.1488337   0.59827148   439061 
 3272000   0.39962739   -4.1501559   -4.1501559   -3.5507162 -0.087331071   -4.1501559   0.59943972   439061 
 3273000    0.3988738   -4.1494096   -4.1494096   -3.5511002 -0.087079041   -4.1494096   0.59830933   439061 
 3274000   0.39910494   -4.1491777   -4.1491777   -3.5505217 -0.086496313   -4.1491777   0.59865605   439061 
 3275000   0.39879657   -4.1491494   -4.1491494   -3.5509559 -0.083860154   -4.1491494    0.5981935   439061 
 3276000   0.39884874   -4.1483958   -4.1483958   -3.5501241 -0.083056596   -4.1483958   0.59827175   439061 
 3277000   0.39916285   -4.1486641   -4.1486641   -3.5499212 -0.083888088   -4.1486641   0.59874292   439061 
 3278000   0.39973732   -4.1494939   -4.1494939   -3.5498892 -0.085499177   -4.1494939   0.59960461   439061 
 3279000   0.39980636   -4.1493852   -4.1493852    -3.549677 -0.088109551   -4.1493852   0.59970818   439061 
 3280000   0.39860912   -4.1485617   -4.1485617   -3.5506494  -0.08488393   -4.1485617   0.59791232   439061 
 3281000   0.39861896   -4.1478184   -4.1478184   -3.5498913 -0.083441713   -4.1478184   0.59792707   439061 
 3282000   0.39939701    -4.148782    -4.148782   -3.5496878 -0.082675933    -4.148782   0.59909415   439061 
 3283000    0.3998091   -4.1491081   -4.1491081   -3.5493958 -0.080644073   -4.1491081   0.59971229   439061 
 3284000   0.39934458   -4.1488921   -4.1488921   -3.5498766 -0.082395906   -4.1488921    0.5990155   439061 
 3285000   0.39925095   -4.1481364   -4.1481364   -3.5492613 -0.081813536   -4.1481364   0.59887505   439061 
 3286000   0.39957661   -4.1482366   -4.1482366   -3.5488731 -0.085117225   -4.1482366   0.59936354   439061 
 3287000   0.39883319   -4.1476891   -4.1476891   -3.5494407 -0.085913265   -4.1476891   0.59824842   439061 
 3288000   0.39982031   -4.1489457   -4.1489457   -3.5492167 -0.086424215   -4.1489457   0.59972909   439061 
 3289000     0.399691   -4.1489549   -4.1489549   -3.5494198 -0.085240512   -4.1489549   0.59953513   439061 
 3290000   0.39937552   -4.1483063   -4.1483063   -3.5492444 -0.082632668   -4.1483063   0.59906192   439061 
 3291000   0.40057699   -4.1489617   -4.1489617   -3.5480976 -0.081407414   -4.1489617   0.60086412   439061 
 3292000   0.39924409   -4.1476654   -4.1476654   -3.5488006 -0.080835281   -4.1476654   0.59886476   439061 
 3293000   0.39997668   -4.1485139   -4.1485139   -3.5485503  -0.08361788   -4.1485139   0.59996365   439061 
 3294000   0.39967984   -4.1480938   -4.1480938   -3.5485754 -0.083455872   -4.1480938    0.5995184   439061 
 3295000   0.39983299   -4.1482555   -4.1482555   -3.5485074 -0.086403611   -4.1482555   0.59974812   439061 
 3296000   0.40025675   -4.1484243   -4.1484243   -3.5480405 -0.085625123   -4.1484243   0.60038376   439061 
 3297000   0.39966538   -4.1478535   -4.1478535   -3.5483568  -0.08398585   -4.1478535    0.5994967   439061 
 3298000   0.39995352   -4.1481982   -4.1481982   -3.5482693  -0.08294739   -4.1481982   0.59992891   439061 
 3299000    0.4000605   -4.1490792   -4.1490792   -3.5489898 -0.082648618   -4.1490792   0.60008938   439061 
 3300000   0.40002026   -4.1490836   -4.1490836   -3.5490546 -0.082807945   -4.1490836   0.60002903   439061 
 3301000   0.39938716   -4.1480738   -4.1480738   -3.5489944 -0.084593588   -4.1480738   0.59907938   439061 
 3302000   0.39950501   -4.1475114   -4.1475114   -3.5482553 -0.081286451   -4.1475114   0.59925615   439061 
 3303000     0.400211   -4.1485869   -4.1485869   -3.5482718 -0.087051679   -4.1485869   0.60031513   439061 
 3304000   0.39939584   -4.1477677   -4.1477677   -3.5486753 -0.085908222   -4.1477677    0.5990924   439061 
 3305000   0.40023214   -4.1486368   -4.1486368   -3.5482899 -0.085163842   -4.1486368   0.60034684   439061 
 3306000   0.39977829    -4.147944    -4.147944   -3.5482779 -0.082563696    -4.147944   0.59966606   439061 
 3307000   0.39951501   -4.1479445   -4.1479445   -3.5486733 -0.080689019   -4.1479445   0.59927115   439061 
 3308000   0.39929428   -4.1477836   -4.1477836   -3.5488435 -0.079887951   -4.1477836   0.59894006   439061 
 3309000   0.39929032    -4.148202    -4.148202   -3.5492679 -0.082898861    -4.148202   0.59893412   439061 
 3310000    0.3994134   -4.1480178   -4.1480178   -3.5488991  -0.08410897   -4.1480178   0.59911873   439061 
 3311000   0.39904146   -4.1478151   -4.1478151   -3.5492543   -0.0843864   -4.1478151   0.59856083   439061 
 3312000   0.39916871   -4.1479713   -4.1479713   -3.5492196 -0.083191941   -4.1479713    0.5987517   439061 
 3313000   0.39983367   -4.1488145   -4.1488145   -3.5490654  -0.08655537   -4.1488145   0.59974914   439061 
 3314000   0.39973689   -4.1493624   -4.1493624   -3.5497584 -0.086231332   -4.1493624   0.59960397   439061 
 3315000   0.39959991    -4.148645    -4.148645   -3.5492465 -0.082367958    -4.148645   0.59939851   439061 
 3316000   0.39950785   -4.1477771   -4.1477771   -3.5485167 -0.081441086   -4.1477771   0.59926042   439061 
 3317000   0.39955138   -4.1479321   -4.1479321   -3.5486063 -0.082200081   -4.1479321   0.59932571   439061 
 3318000   0.40001394   -4.1488403   -4.1488403   -3.5488208 -0.088674376   -4.1488403   0.60001954   439061 
 3319000   0.39992706   -4.1475493   -4.1475493   -3.5476601 -0.082968543   -4.1475493   0.59988923   439061 
 3320000   0.39942294   -4.1469105   -4.1469105   -3.5477775 -0.082775024   -4.1469105   0.59913305   439061 
 3321000   0.39952711   -4.1477273   -4.1477273    -3.548438 -0.085137746   -4.1477273   0.59928931   439061 
 3322000   0.40032298   -4.1488549   -4.1488549   -3.5483717 -0.083787832   -4.1488549   0.60048311   439061 
 3323000   0.39968296   -4.1481229   -4.1481229   -3.5485999 -0.083428331   -4.1481229   0.59952307   439061 
 3324000   0.40038272   -4.1491345   -4.1491345   -3.5485618  -0.08548403   -4.1491345   0.60057272   439061 
 3325000   0.39979681   -4.1483178   -4.1483178    -3.548624 -0.083909996   -4.1483178   0.59969385   439061 
 3326000   0.39989204   -4.1478902   -4.1478902   -3.5480535 -0.084206666   -4.1478902    0.5998367   439061 
 3327000   0.39983741   -4.1478629   -4.1478629   -3.5481081 -0.082454284   -4.1478629   0.59975476   439061 
 3328000   0.39947357   -4.1470784   -4.1470784   -3.5478694 -0.082442015   -4.1470784     0.599209   439061 
 3329000   0.40016372   -4.1478301   -4.1478301   -3.5475858 -0.081843596   -4.1478301   0.60024422   439061 
 3330000   0.40065706   -4.1484605   -4.1484605   -3.5474763 -0.083105914   -4.1484605   0.60098422   439061 
 3331000   0.40018095   -4.1481231   -4.1481231   -3.5478531 -0.083497946   -4.1481231   0.60027005   439061 
 3332000   0.39981292   -4.1476325   -4.1476325   -3.5479145 -0.082897214   -4.1476325   0.59971801   439061 
 3333000   0.39964472   -4.1473466   -4.1473466   -3.5478809 -0.082860523   -4.1473466   0.59946572   439061 
 3334000   0.39925712   -4.1463255   -4.1463255   -3.5474412 -0.080896141   -4.1463255   0.59888431   439061 
 3335000   0.40026548   -4.1482027   -4.1482027   -3.5478058 -0.082950456   -4.1482027   0.60039685   439061 
 3336000    0.3989221   -4.1470773   -4.1470773   -3.5486955  -0.08223381   -4.1470773   0.59838178   439061 
 3337000   0.39930897   -4.1473122   -4.1473122   -3.5483501 -0.079832572   -4.1473122    0.5989621   439061 
 3338000   0.39982393   -4.1480076   -4.1480076   -3.5482731  -0.08121932   -4.1480076   0.59973452   439061 
 3339000   0.39946093   -4.1475815   -4.1475815   -3.5483915 -0.082039564   -4.1475815   0.59919003   439061 
 3340000   0.39991066    -4.148458    -4.148458   -3.5485933 -0.082734653    -4.148458   0.59986462   439061 
 3341000   0.39997084   -4.1479066   -4.1479066   -3.5479517 -0.083428364   -4.1479066   0.59995489   439061 
 3342000   0.39965513   -4.1479698   -4.1479698   -3.5484885  -0.08444884   -4.1479698   0.59948133   439061 
 3343000   0.39933864   -4.1482197   -4.1482197   -3.5492131 -0.084438784   -4.1482197    0.5990066   439061 
 3344000   0.40013999   -4.1490556   -4.1490556    -3.548847 -0.084069143   -4.1490556   0.60020862   439061 
 3345000   0.39962602   -4.1482588   -4.1482588   -3.5488211 -0.082338199   -4.1482588   0.59943767   439061 
 3346000   0.39954735   -4.1476398   -4.1476398   -3.5483202 -0.080282473   -4.1476398   0.59931966   439061 
 3347000   0.39979932   -4.1476965   -4.1476965   -3.5479989 -0.078908615   -4.1476965   0.59969761   439061 
 3348000   0.40013984   -4.1479606   -4.1479606   -3.5477523  -0.08529495   -4.1479606    0.6002084   439061 
 3349000   0.40012136   -4.1472074   -4.1472074   -3.5470268 -0.082937707   -4.1472074   0.60018067   439061 
 3350000   0.40018448   -4.1470193   -4.1470193   -3.5467439 -0.081551611   -4.1470193   0.60027535   439061 
 3351000   0.40093561   -4.1480605   -4.1480605   -3.5466584 -0.087577307   -4.1480605   0.60140204   439061 
 3352000   0.40003476   -4.1470582   -4.1470582   -3.5470075 -0.082419996   -4.1470582   0.60005078   439061 
 3353000   0.40057687   -4.1482884   -4.1482884   -3.5474245 -0.083339874   -4.1482884   0.60086394   439061 
 3354000   0.40009315   -4.1471412   -4.1471412   -3.5470029 -0.078926787   -4.1471412   0.60013836   439061 
 3355000   0.40008218   -4.1467731   -4.1467731   -3.5466512 -0.077866003   -4.1467731    0.6001219   439061 
 3356000   0.40042846    -4.148334    -4.148334   -3.5476927 -0.082801564    -4.148334   0.60064132   439061 
 3357000   0.39996865   -4.1474353   -4.1474353   -3.5474837 -0.083805053   -4.1474353   0.59995161   439061 
 3358000   0.39944669   -4.1469978   -4.1469978   -3.5478292 -0.082994797   -4.1469978   0.59916868   439061 
 3359000   0.39991354   -4.1471309   -4.1471309    -3.547262 -0.082980069   -4.1471309   0.59986894   439061 
 3360000   0.40000175   -4.1473629   -4.1473629   -3.5473616 -0.083643963   -4.1473629   0.60000126   439061 
 3361000   0.40015908   -4.1480439   -4.1480439   -3.5478067 -0.081366682   -4.1480439   0.60023725   439061 
 3362000     0.399971    -4.147435    -4.147435   -3.5474799 -0.080420253    -4.147435   0.59995513   439061 
 3363000   0.40039223   -4.1476963   -4.1476963   -3.5471093 -0.081008509   -4.1476963   0.60058697   439061 
 3364000   0.40023641   -4.1480141   -4.1480141   -3.5476609  -0.08258995   -4.1480141   0.60035325   439061 
 3365000   0.40007629   -4.1474023   -4.1474023   -3.5472892 -0.083638002   -4.1474023   0.60011307   439061 
 3366000   0.40080569   -4.1486672   -4.1486672     -3.54746 -0.085216676   -4.1486672   0.60120716   439061 
 3367000   0.40081659    -4.147902    -4.147902   -3.5466785 -0.084437234    -4.147902   0.60122351   439061 
 3368000     0.400863   -4.1477985   -4.1477985   -3.5465054 -0.083133226   -4.1477985   0.60129313   439061 
 3369000   0.40009906   -4.1473221   -4.1473221   -3.5471749 -0.080596927   -4.1473221   0.60014722   439061 
 3370000   0.40035943   -4.1477412   -4.1477412   -3.5472034 -0.084574264   -4.1477412   0.60053778   439061 
 3371000   0.40047551   -4.1474926   -4.1474926   -3.5467807 -0.080176737   -4.1474926    0.6007119   439061 
 3372000   0.39980714   -4.1467197   -4.1467197   -3.5470103 -0.079595312   -4.1467197   0.59970935   439061 
 3373000    0.4008298   -4.1482497   -4.1482497   -3.5470064 -0.084834792   -4.1482497   0.60124333   439061 
 3374000   0.40045697   -4.1479652   -4.1479652   -3.5472811 -0.083136824   -4.1479652   0.60068409   439061 
 3375000   0.39951686   -4.1468322   -4.1468322   -3.5475583 -0.086517272   -4.1468322   0.59927393   439061 
 3376000   0.39988237   -4.1480102   -4.1480102   -3.5481881 -0.087450251   -4.1480102   0.59982219   439061 
 3377000   0.40015256   -4.1479935   -4.1479935    -3.547766 -0.082748251   -4.1479935   0.60022748   439061 
 3378000   0.39985718   -4.1479397   -4.1479397   -3.5481553 -0.081521182   -4.1479397    0.5997844   439061 
 3379000   0.40061044   -4.1488763   -4.1488763    -3.547962 -0.080779705   -4.1488763    0.6009143   439061 
 3380000   0.39948759   -4.1474573   -4.1474573   -3.5482273 -0.079599546   -4.1474573   0.59923003   439061 
 3381000   0.40013466   -4.1472238   -4.1472238   -3.5470232  -0.08119926   -4.1472238   0.60020063   439061 
 3382000    0.3999088   -4.1467012   -4.1467012   -3.5468393 -0.082738557   -4.1467012   0.59986184   439061 
 3383000   0.39986296   -4.1464457   -4.1464457   -3.5466526 -0.086085761   -4.1464457   0.59979308   439061 
 3384000   0.40017293   -4.1469486   -4.1469486   -3.5466905 -0.085935783   -4.1469486   0.60025803   439061 
 3385000   0.40002879   -4.1461192   -4.1461192   -3.5460774 -0.080816146   -4.1461192   0.60004182   439061 
 3386000   0.40097678   -4.1481115   -4.1481115   -3.5466477 -0.082895693   -4.1481115    0.6014638   439061 
 3387000   0.40014108   -4.1477008   -4.1477008   -3.5474906 -0.079232677   -4.1477008   0.60021026   439061 
 3388000   0.40083775   -4.1486397   -4.1486397   -3.5473844 -0.082376139   -4.1486397   0.60125526   439061 
 3389000   0.40045681   -4.1484557   -4.1484557   -3.5477719 -0.083598488   -4.1484557   0.60068385   439061 
 3390000   0.39960333   -4.1478034   -4.1478034   -3.5483997 -0.084995565   -4.1478034   0.59940363   439061 
 3391000   0.39994657   -4.1479048   -4.1479048   -3.5479863 -0.087169937   -4.1479048    0.5999185   439061 
 3392000    0.3999092   -4.1476857   -4.1476857   -3.5478233 -0.081707719   -4.1476857   0.59986244   439061 
 3393000   0.39989324   -4.1476961   -4.1476961   -3.5478576 -0.083518056   -4.1476961   0.59983849   439061 
 3394000    0.3991978   -4.1473184   -4.1473184    -3.548523 -0.079849449   -4.1473184   0.59879534   439061 
 3395000   0.39974872   -4.1481783   -4.1481783   -3.5485566 -0.081475192   -4.1481783   0.59962171   439061 
 3396000   0.40000254   -4.1479858   -4.1479858   -3.5479834 -0.080437377   -4.1479858   0.60000244   439061 
 3397000   0.40004321   -4.1482304   -4.1482304    -3.548167  -0.08333076   -4.1482304   0.60006344   439061 
 3398000   0.39975949    -4.147476    -4.147476   -3.5478381 -0.084642823    -4.147476   0.59963787   439061 
 3399000   0.39998654   -4.1484915   -4.1484915   -3.5485131 -0.087328792   -4.1484915   0.59997844   439061 
 3400000   0.39959948   -4.1473654   -4.1473654   -3.5479675 -0.083946367   -4.1473654   0.59939786   439061 
 3401000   0.39999822   -4.1477721   -4.1477721   -3.5477762 -0.083965254   -4.1477721   0.59999596   439061 
 3402000   0.39968809   -4.1468778   -4.1468778    -3.547347 -0.079080208   -4.1468778   0.59953077   439061 
 3403000   0.39997342   -4.1478184   -4.1478184   -3.5478596 -0.080516104   -4.1478184   0.59995877   439061 
 3404000    0.4005248   -4.1485434   -4.1485434   -3.5477576 -0.082763378   -4.1485434   0.60078583   439061 
 3405000   0.39965915   -4.1474868   -4.1474868   -3.5479995 -0.080452149   -4.1474868   0.59948737   439061 
 3406000   0.39968301   -4.1480854   -4.1480854   -3.5485622 -0.086169125   -4.1480854   0.59952315   439061 
 3407000   0.39941651   -4.1476145   -4.1476145   -3.5484911 -0.086390402   -4.1476145   0.59912339   439061 
 3408000   0.39995117   -4.1480612   -4.1480612   -3.5481358 -0.083109803   -4.1480612   0.59992539   439061 
 3409000   0.39992195   -4.1481305   -4.1481305    -3.548249  -0.08382684   -4.1481305   0.59988156   439061 
 3410000   0.40025198   -4.1481934   -4.1481934   -3.5478168  -0.08041291   -4.1481934    0.6003766   439061 
 3411000   0.40033523   -4.1480946   -4.1480946   -3.5475932  -0.07997898   -4.1480946   0.60050148   439061 
 3412000   0.40027605   -4.1479178   -4.1479178   -3.5475051 -0.084266017   -4.1479178   0.60041271   439061 
 3413000   0.40036758   -4.1473318   -4.1473318   -3.5467818 -0.084815013   -4.1473318      0.60055   439061 
 3414000    0.4001237   -4.1471943   -4.1471943   -3.5470101 -0.085538126   -4.1471943   0.60018419   439061 
 3415000   0.39969123   -4.1475818   -4.1475818   -3.5480463 -0.088360689   -4.1475818   0.59953548   439061 
 3416000   0.39955712   -4.1465958   -4.1465958   -3.5472615 -0.082387328   -4.1465958   0.59933432   439061 
 3417000   0.40044893   -4.1481212   -4.1481212   -3.5474491 -0.081355753   -4.1481212   0.60067203   439061 
 3418000   0.40030556   -4.1479659   -4.1479659   -3.5475089  -0.07920878   -4.1479659   0.60045698   439061 
 3419000    0.4003722   -4.1483372   -4.1483372   -3.5477803  -0.08190779   -4.1483372   0.60055693   439061 
 3420000   0.39967722    -4.148052    -4.148052   -3.5485375 -0.083762539    -4.148052   0.59951447   439061 
 3421000   0.39966429    -4.147401    -4.147401    -3.547906  -0.08434117    -4.147401   0.59949508   439061 
 3422000   0.39956527   -4.1476231   -4.1476231   -3.5482766 -0.085735003   -4.1476231   0.59934654   439061 
 3423000   0.39980042   -4.1480827   -4.1480827   -3.5483835  -0.08595238   -4.1480827   0.59969926   439061 
 3424000   0.40027982   -4.1484315   -4.1484315   -3.5480131 -0.084098951   -4.1484315   0.60041837   439061 
 3425000   0.40064507   -4.1488509   -4.1488509   -3.5478846 -0.081523125   -4.1488509   0.60096624   439061 
 3426000   0.39995706   -4.1481915   -4.1481915   -3.5482573 -0.080142308   -4.1481915   0.59993422   439061 
 3427000   0.40055092   -4.1487985   -4.1487985   -3.5479735 -0.082453001   -4.1487985   0.60082501   439061 
 3428000     0.400265   -4.1485673   -4.1485673   -3.5481712 -0.085424131   -4.1485673   0.60039613   439061 
 3429000   0.39978597   -4.1477459   -4.1477459   -3.5480683 -0.085890291   -4.1477459    0.5996776   439061 
 3430000   0.39956251   -4.1472605   -4.1472605   -3.5479181 -0.085145564   -4.1472605   0.59934241   439061 
 3431000   0.40009626   -4.1478126   -4.1478126   -3.5476696 -0.086875267   -4.1478126   0.60014303   439061 
 3432000    0.4000231   -4.1480378   -4.1480378   -3.5480045 -0.081640146   -4.1480378   0.60003329   439061 
 3433000   0.40001007   -4.1484932   -4.1484932   -3.5484794 -0.080243604   -4.1484932   0.60001374   439061 
 3434000   0.40020611   -4.1484842   -4.1484842   -3.5481764  -0.08158567   -4.1484842    0.6003078   439061 
 3435000    0.4000913   -4.1481468   -4.1481468   -3.5480112 -0.080570406   -4.1481468   0.60013559   439061 
 3436000   0.40058557   -4.1482707   -4.1482707   -3.5473938 -0.085356067   -4.1482707   0.60087698   439061 
 3437000   0.40002219   -4.1477855   -4.1477855   -3.5477536 -0.084563659   -4.1477855   0.60003192   439061 
 3438000   0.40005615   -4.1483489   -4.1483489   -3.5482661 -0.085958476   -4.1483489   0.60008285   439061 
 3439000   0.39990598   -4.1475014   -4.1475014   -3.5476438 -0.085195801   -4.1475014    0.5998576   439061 
 3440000   0.40037042   -4.1481628   -4.1481628   -3.5476085  -0.08094354   -4.1481628   0.60055427   439061 
 3441000   0.40059713   -4.1481595   -4.1481595   -3.5472651 -0.081467884   -4.1481595   0.60089433   439061 
 3442000    0.4008086   -4.1491018   -4.1491018   -3.5478903 -0.084142904   -4.1491018   0.60121153   439061 
 3443000   0.40048937   -4.1484806   -4.1484806    -3.547748 -0.081826738   -4.1484806   0.60073269   439061 
 3444000   0.39992201   -4.1484867   -4.1484867   -3.5486051 -0.086807737   -4.1484867   0.59988164   439061 
 3445000   0.39979832   -4.1476392   -4.1476392   -3.5479431 -0.084074961   -4.1476392   0.59969611   439061 
 3446000   0.40023504   -4.1482629   -4.1482629   -3.5479117 -0.082052354   -4.1482629   0.60035119   439061 
 3447000   0.40039212   -4.1479237   -4.1479237   -3.5473369 -0.084796785   -4.1479237   0.60058681   439061 
 3448000   0.40107493   -4.1479783   -4.1479783   -3.5463673 -0.083508043   -4.1479783   0.60161103   439061 
 3449000   0.40034917     -4.14709     -4.14709   -3.5465676 -0.079496081     -4.14709   0.60052239   439061 
 3450000   0.40066033   -4.1474803   -4.1474803   -3.5464912 -0.081026309   -4.1474803   0.60098912   439061 
 3451000   0.40156283   -4.1490517   -4.1490517   -3.5467088 -0.085510911   -4.1490517   0.60234287   439061 
 3452000   0.40058213    -4.147447    -4.147447   -3.5465751  -0.08317067    -4.147447   0.60087183   439061 
 3453000    0.3998001   -4.1466673   -4.1466673   -3.5469686 -0.082362858   -4.1466673   0.59969878   439061 
 3454000   0.40036372   -4.1476278   -4.1476278   -3.5470836  -0.08128703   -4.1476278   0.60054421   439061 
 3455000   0.39984073   -4.1465361   -4.1465361   -3.5467764  -0.07825244   -4.1465361   0.59975973   439061 
 3456000   0.40023439   -4.1468588   -4.1468588   -3.5465086  -0.08234633   -4.1468588   0.60035022   439061 
 3457000   0.40023743   -4.1466756   -4.1466756   -3.5463209 -0.082659927   -4.1466756   0.60035478   439061 
 3458000   0.39981824    -4.147042    -4.147042    -3.547316 -0.085406776    -4.147042   0.59972599   439061 
 3459000   0.40030396   -4.1475378   -4.1475378   -3.5470832 -0.086019202   -4.1475378   0.60045457   439061 
 3460000     0.400601   -4.1483269   -4.1483269   -3.5474268 -0.083896863   -4.1483269   0.60090013   439061 
 3461000    0.3988596    -4.146433    -4.146433    -3.548145 -0.080435594    -4.146433   0.59828803   439061 
 3462000   0.40041138   -4.1493308   -4.1493308   -3.5487151 -0.083589393   -4.1493308   0.60061571   439061 
 3463000   0.40021378   -4.1489337   -4.1489337   -3.5486143 -0.081427852   -4.1489337   0.60031931   439061 
 3464000    0.3999026   -4.1477726   -4.1477726   -3.5479201  -0.08257745   -4.1477726   0.59985254   439061 
 3465000   0.39957743   -4.1474504   -4.1474504   -3.5480856 -0.081243096   -4.1474504   0.59936478   439061 
 3466000   0.39943117    -4.147422    -4.147422   -3.5482766 -0.085376193    -4.147422    0.5991454   439061 
 3467000   0.39909507   -4.1468921   -4.1468921   -3.5482509 -0.084008737   -4.1468921   0.59864124   439061 
 3468000   0.39962925   -4.1472472   -4.1472472   -3.5478047 -0.081282574   -4.1472472   0.59944251   439061 
 3469000   0.40003614   -4.1482323   -4.1482323   -3.5481794 -0.084331889   -4.1482323   0.60005284   439061 
 3470000   0.40045237   -4.1480917   -4.1480917   -3.5474145 -0.079263422   -4.1480917   0.60067719   439061 
 3471000   0.40071263   -4.1484355   -4.1484355   -3.5473679 -0.081622013   -4.1484355   0.60106757   439061 
 3472000   0.40020746    -4.147482    -4.147482   -3.5471721 -0.083500065    -4.147482   0.60030982   439061 
 3473000   0.39957691   -4.1475634   -4.1475634   -3.5481994 -0.083561498   -4.1475634   0.59936401   439061 
 3474000   0.39932764   -4.1469306   -4.1469306   -3.5479405 -0.087768869   -4.1469306    0.5989901   439061 
 3475000   0.40008712   -4.1474481   -4.1474481   -3.5473188 -0.084376241   -4.1474481   0.60012931   439061 
 3476000   0.40033318   -4.1476956   -4.1476956   -3.5471972 -0.081356935   -4.1476956    0.6004984   439061 
 3477000   0.40002429   -4.1475147   -4.1475147   -3.5474796 -0.080447601   -4.1475147   0.60003507   439061 
 3478000   0.40010672   -4.1473977   -4.1473977    -3.547239 -0.078043034   -4.1473977   0.60015871   439061 
 3479000   0.40017281   -4.1478278   -4.1478278   -3.5475699 -0.080822019   -4.1478278   0.60025786   439061 
 3480000   0.40004869   -4.1480704   -4.1480704   -3.5479988 -0.085118435   -4.1480704   0.60007167   439061 
 3481000   0.40037193   -4.1486666   -4.1486666   -3.5481101 -0.089680689   -4.1486666   0.60055652   439061 
 3482000   0.39912674   -4.1462891   -4.1462891   -3.5476003 -0.082139374   -4.1462891   0.59868875   439061 
 3483000   0.40083123   -4.1479653   -4.1479653   -3.5467198 -0.082698359   -4.1479653   0.60124548   439061 
 3484000   0.40036088   -4.1480182   -4.1480182   -3.5474782 -0.081341551   -4.1480182   0.60053995   439061 
 3485000   0.40023401   -4.1478449   -4.1478449   -3.5474953 -0.080726887   -4.1478449   0.60034965   439061 
 3486000   0.40023366   -4.1484253   -4.1484253   -3.5480762 -0.082797467   -4.1484253   0.60034913   439061 
 3487000   0.39941167   -4.1473726   -4.1473726   -3.5482565 -0.083249228   -4.1473726   0.59911613   439061 
 3488000   0.39970229   -4.1476589   -4.1476589   -3.5481068 -0.086632194   -4.1476589   0.59955206   439061 
 3489000   0.39951253   -4.1468085   -4.1468085   -3.5475411 -0.083728288   -4.1468085   0.59926743   439061 
 3490000   0.39994745   -4.1471358   -4.1471358    -3.547216 -0.084170505   -4.1471358   0.59991982   439061 
 3491000   0.39994405   -4.1475201   -4.1475201   -3.5476054 -0.081792514   -4.1475201   0.59991471   439061 
 3492000   0.40030233   -4.1476938   -4.1476938   -3.5472417 -0.081104648   -4.1476938   0.60045213   439061 
 3493000   0.39986277   -4.1484843   -4.1484843   -3.5486915 -0.083704033   -4.1484843   0.59979279   439061 
 3494000   0.39990026   -4.1481298   -4.1481298   -3.5482807 -0.082518493   -4.1481298   0.59984903   439061 
 3495000   0.39964964   -4.1475409   -4.1475409   -3.5480678 -0.083638996   -4.1475409    0.5994731   439061 
 3496000   0.39946238   -4.1474473   -4.1474473   -3.5482551 -0.082947849   -4.1474473    0.5991922   439061 
 3497000   0.40036228   -4.1478194   -4.1478194   -3.5472773 -0.082268933   -4.1478194   0.60054205   439061 
 3498000    0.4003421   -4.1469971   -4.1469971   -3.5464853 -0.082133255   -4.1469971   0.60051179   439061 
 3499000   0.40087004   -4.1482632   -4.1482632   -3.5469595 -0.082950694   -4.1482632   0.60130368   439061 
 3500000   0.40059511   -4.1476665   -4.1476665   -3.5467753 -0.086120077   -4.1476665   0.60089129   439061 
 3501000   0.39967487   -4.1460999   -4.1460999   -3.5465889 -0.083092175   -4.1460999   0.59951093   439061 
 3502000    0.4002034   -4.1473859   -4.1473859   -3.5470821 -0.086147948   -4.1473859   0.60030373   439061 
 3503000   0.39953883   -4.1471301   -4.1471301   -3.5478232 -0.084734009   -4.1471301   0.59930688   439061 
 3504000   0.39922484   -4.1460955   -4.1460955   -3.5472596  -0.08124705   -4.1460955   0.59883589   439061 
 3505000   0.39997808   -4.1476441   -4.1476441   -3.5476783 -0.084338628   -4.1476441   0.59996575   439061 
 3506000   0.39983307   -4.1476591   -4.1476591   -3.5479109 -0.081879304   -4.1476591   0.59974824   439061 
 3507000    0.3999629   -4.1486775   -4.1486775   -3.5487345  -0.08506278   -4.1486775   0.59994298   439061 
 3508000   0.39984063   -4.1473564   -4.1473564   -3.5475968 -0.081325755   -4.1473564   0.59975958   439061 
 3509000   0.40057841    -4.147989    -4.147989   -3.5471228 -0.082410608    -4.147989   0.60086624   439061 
 3510000   0.39963092    -4.147432    -4.147432    -3.547987 -0.085795975    -4.147432   0.59944502   439061 
 3511000   0.40004491   -4.1475168   -4.1475168   -3.5474508  -0.08308624   -4.1475168     0.600066   439061 
 3512000   0.40003153   -4.1471671   -4.1471671   -3.5471212 -0.084804882   -4.1471671   0.60004592   439061 
 3513000   0.40012932   -4.1471939   -4.1471939   -3.5470013 -0.084951763   -4.1471939   0.60019262   439061 
 3514000   0.40008337   -4.1473431   -4.1473431   -3.5472194 -0.083010836   -4.1473431   0.60012369   439061 
 3515000   0.39976098    -4.146563    -4.146563   -3.5469229 -0.082064567    -4.146563    0.5996401   439061 
 3516000   0.39963629    -4.146244    -4.146244   -3.5467909 -0.079627872    -4.146244   0.59945307   439061 
 3517000   0.40022227   -4.1473008   -4.1473008   -3.5469688 -0.082190247   -4.1473008   0.60033204   439061 
 3518000    0.4006999   -4.1477077   -4.1477077   -3.5466592 -0.083393597   -4.1477077   0.60104848   439061 
 3519000   0.40021374   -4.1457688   -4.1457688   -3.5454496 -0.080232298   -4.1457688   0.60031924   439061 
 3520000   0.40065231   -4.1462354   -4.1462354   -3.5452583 -0.082850964   -4.1462354    0.6009771   439061 
 3521000   0.40014414   -4.1458361   -4.1458361   -3.5456212 -0.084121295   -4.1458361   0.60021484   439061 
 3522000   0.40034911   -4.1461014   -4.1461014   -3.5455791 -0.081826846   -4.1461014   0.60052229   439061 
 3523000   0.40054977   -4.1462403   -4.1462403    -3.545417 -0.081923987   -4.1462403   0.60082328   439061 
 3524000   0.40038426   -4.1464826   -4.1464826   -3.5459076  -0.08222554   -4.1464826   0.60057503   439061 
 3525000   0.40089263   -4.1468876   -4.1468876     -3.54555 -0.081286685   -4.1468876   0.60133758   439061 
 3526000     0.400443   -4.1475226   -4.1475226   -3.5468595 -0.083894468   -4.1475226   0.60066313   439061 
 3527000   0.40054058   -4.1480242   -4.1480242   -3.5472147 -0.086149763   -4.1480242    0.6008095   439061 
 3528000   0.40022372   -4.1479147   -4.1479147   -3.5475804 -0.084450824   -4.1479147   0.60033422   439061 
 3529000   0.40039984   -4.1477375   -4.1477375   -3.5471392 -0.083164726   -4.1477375   0.60059839   439061 
 3530000   0.39962153   -4.1466925   -4.1466925   -3.5472615 -0.080778707   -4.1466925   0.59943093   439061 
 3531000   0.39911503   -4.1466313   -4.1466313   -3.5479601 -0.082342666   -4.1466313   0.59867118   439061 
 3532000   0.39996627   -4.1475992   -4.1475992   -3.5476511 -0.083429464   -4.1475992   0.59994803   439061 
 3533000   0.39980867   -4.1470564   -4.1470564   -3.5473447 -0.082100407   -4.1470564   0.59971165   439061 
 3534000   0.40057644   -4.1475596   -4.1475596   -3.5466963 -0.083356466   -4.1475596   0.60086328   439061 
 3535000   0.39999448   -4.1467017   -4.1467017   -3.5467113 -0.083358398   -4.1467017   0.59999035   439061 
 3536000   0.40039485   -4.1467828   -4.1467828   -3.5461919 -0.083038096   -4.1467828   0.60059091   439061 
 3537000   0.40000652   -4.1464445   -4.1464445   -3.5464361 -0.082875048   -4.1464445   0.60000842   439061 
 3538000   0.39897856   -4.1456814   -4.1456814   -3.5472149 -0.082689929   -4.1456814   0.59846648   439061 
 3539000   0.39954161   -4.1465617   -4.1465617   -3.5472506 -0.082164926   -4.1465617   0.59931105   439061 
 3540000   0.39949969   -4.1465516   -4.1465516   -3.5473034 -0.081227452   -4.1465516   0.59924818   439061 
 3541000   0.40000802   -4.1472531   -4.1472531   -3.5472424 -0.079873447   -4.1472531   0.60001066   439061 
 3542000   0.40108362   -4.1483691   -4.1483691    -3.546745 -0.081801835   -4.1483691   0.60162405   439061 
 3543000    0.4002953   -4.1468576   -4.1468576    -3.546416 -0.083644895   -4.1468576   0.60044158   439061 
 3544000   0.39933558    -4.146031    -4.146031    -3.547029 -0.082976181    -4.146031   0.59900201   439061 
 3545000   0.39969779   -4.1462151   -4.1462151   -3.5466698 -0.082754687   -4.1462151   0.59954532   439061 
 3546000   0.39985237   -4.1466159   -4.1466159   -3.5468387  -0.08570918   -4.1466159   0.59977719   439061 
 3547000   0.39982269   -4.1469544   -4.1469544   -3.5472217 -0.082890717   -4.1469544   0.59973267   439061 
 3548000   0.39940594   -4.1461425   -4.1461425   -3.5470349 -0.080563565   -4.1461425   0.59910755   439061 
 3549000   0.40026203   -4.1479015   -4.1479015   -3.5475098 -0.080483026   -4.1479015   0.60039168   439061 
 3550000   0.40056855    -4.146627    -4.146627   -3.5457756 -0.077985358    -4.146627   0.60085146   439061 
 3551000   0.40065413   -4.1468986   -4.1468986   -3.5459188 -0.079835316   -4.1468986   0.60097982   439061 
 3552000   0.40061272   -4.1467745   -4.1467745   -3.5458568 -0.084356263   -4.1467745   0.60091771   439061 
 3553000   0.40054824   -4.1466046   -4.1466046   -3.5457836 -0.088323582   -4.1466046   0.60082099   439061 
 3554000   0.40007154   -4.1453065   -4.1453065   -3.5452005 -0.083822657   -4.1453065   0.60010594   439061 
 3555000   0.40018323   -4.1456611   -4.1456611   -3.5453876 -0.081761327   -4.1456611   0.60027348   439061 
 3556000   0.40033888   -4.1460397   -4.1460397   -3.5455327 -0.081076887   -4.1460397   0.60050695   439061 
 3557000   0.40100915   -4.1475485   -4.1475485   -3.5460361 -0.080891066   -4.1475485   0.60151236   439061 
 3558000   0.40033477   -4.1465351   -4.1465351   -3.5460343 -0.079073179   -4.1465351   0.60050079   439061 
 3559000   0.40048652   -4.1467072   -4.1467072   -3.5459788 -0.083535175   -4.1467072   0.60072841   439061 
 3560000   0.40043541   -4.1459862   -4.1459862   -3.5453345  -0.08284034   -4.1459862   0.60065174   439061 
 3561000    0.4009545   -4.1473171   -4.1473171   -3.5458867 -0.086918436   -4.1473171   0.60143038   439061 
 3562000   0.39982915   -4.1460196   -4.1460196   -3.5462773 -0.086333401   -4.1460196   0.59974236   439061 
 3563000   0.40046918    -4.146776    -4.146776   -3.5460735  -0.08115551    -4.146776   0.60070241   439061 
 3564000   0.40105287    -4.146889    -4.146889    -3.545311 -0.077661193    -4.146889   0.60157793   439061 
 3565000   0.40020879   -4.1460337   -4.1460337   -3.5457219 -0.078062298   -4.1460337   0.60031182   439061 
 3566000   0.40019487   -4.1468865   -4.1468865   -3.5465956 -0.082767964   -4.1468865   0.60029093   439061 
 3567000   0.40055535   -4.1479948   -4.1479948   -3.5471632 -0.086359511   -4.1479948   0.60083165   439061 
 3568000   0.40025958   -4.1466441   -4.1466441   -3.5462561 -0.086016166   -4.1466441     0.600388   439061 
 3569000   0.40009043   -4.1463321   -4.1463321   -3.5461979 -0.084592819   -4.1463321   0.60013428   439061 
 3570000   0.40082962   -4.1477894   -4.1477894   -3.5465464 -0.082323596   -4.1477894   0.60124307   439061 
 3571000    0.4005819   -4.1473689   -4.1473689   -3.5464974 -0.081074329   -4.1473689   0.60087148   439061 
 3572000   0.40011646   -4.1472021   -4.1472021   -3.5470288 -0.077533174   -4.1472021   0.60017332   439061 
 3573000   0.40069071   -4.1465254   -4.1465254   -3.5454907 -0.079034069   -4.1465254    0.6010347   439061 
 3574000   0.40019014   -4.1461743   -4.1461743   -3.5458905 -0.082355155   -4.1461743   0.60028385   439061 
 3575000   0.40024395   -4.1463406   -4.1463406    -3.545976 -0.086611448   -4.1463406   0.60036455   439061 
 3576000   0.39938325   -4.1454388   -4.1454388   -3.5463653 -0.083665776   -4.1454388   0.59907351   439061 
 3577000   0.40089102   -4.1471813   -4.1471813   -3.5458461 -0.085173578   -4.1471813   0.60133516   439061 
 3578000    0.4013523   -4.1475218   -4.1475218   -3.5454947 -0.082935221   -4.1475218   0.60202708   439061 
 3579000   0.40110023   -4.1473857   -4.1473857   -3.5457368 -0.079054603   -4.1473857   0.60164898   439061 
 3580000   0.40035189   -4.1469079   -4.1469079   -3.5463814 -0.078333132   -4.1469079   0.60052646   439061 
 3581000   0.40014557   -4.1461308   -4.1461308   -3.5459139 -0.079171484   -4.1461308   0.60021699   439061 
 3582000   0.40002352   -4.1459061   -4.1459061   -3.5458722 -0.083000071   -4.1459061   0.60003391   439061 
 3583000   0.39995789   -4.1453106   -4.1453106   -3.5453751 -0.084012396   -4.1453106   0.59993547   439061 
 3584000   0.39944682   -4.1445323   -4.1445323   -3.5453634  -0.08181113   -4.1445323   0.59916887   439061 
 3585000   0.40058936    -4.146139    -4.146139   -3.5452563 -0.083265387    -4.146139   0.60088267   439061 
 3586000   0.39993157   -4.1456726   -4.1456726   -3.5457767 -0.078997793   -4.1456726   0.59989599   439061 
 3587000   0.40047176   -4.1473474   -4.1473474   -3.5466412 -0.077839437   -4.1473474   0.60070627   439061 
 3588000   0.40014781   -4.1466595   -4.1466595   -3.5464392 -0.077750061   -4.1466595   0.60022035   439061 
 3589000   0.40094003   -4.1480045   -4.1480045   -3.5465958 -0.082558794   -4.1480045   0.60140868   439061 
 3590000   0.40021204   -4.1467108   -4.1467108   -3.5463942 -0.084091904   -4.1467108   0.60031669   439061 
 3591000   0.39996179   -4.1467204   -4.1467204    -3.546779 -0.085852796   -4.1467204   0.59994132   439061 
 3592000   0.40002921   -4.1463298   -4.1463298   -3.5462873 -0.085389896   -4.1463298   0.60004246   439061 
 3593000   0.40040205   -4.1464299   -4.1464299   -3.5458282 -0.081012658   -4.1464299   0.60060171   439061 
 3594000   0.40041062   -4.1465834   -4.1465834   -3.5459688 -0.080626861   -4.1465834   0.60061456   439061 
 3595000   0.40057895   -4.1471179   -4.1471179   -3.5462508 -0.078106784   -4.1471179   0.60086705   439061 
 3596000   0.40080798   -4.1479447   -4.1479447   -3.5467341 -0.079910418   -4.1479447    0.6012106   439061 
 3597000   0.39955762   -4.1464178   -4.1464178   -3.5470827 -0.080887733   -4.1464178   0.59933506   439061 
 3598000   0.40028059   -4.1471181   -4.1471181   -3.5466986 -0.085478854   -4.1471181   0.60041951   439061 
 3599000   0.40022825   -4.1472431   -4.1472431   -3.5469021 -0.088018481   -4.1472431   0.60034101   439061 
 3600000   0.39933422   -4.1461805   -4.1461805   -3.5471805  -0.08439229   -4.1461805   0.59899997   439061 
 3601000   0.39971305   -4.1463285   -4.1463285   -3.5467602  -0.08253416   -4.1463285   0.59956821   439061 
 3602000      0.40019   -4.1476876   -4.1476876    -3.547404 -0.081948836   -4.1476876   0.60028363   439061 
 3603000   0.40058784   -4.1480261   -4.1480261   -3.5471457 -0.081055557   -4.1480261   0.60088039   439061 
 3604000   0.40060517   -4.1474134   -4.1474134    -3.546507 -0.080643667   -4.1474134   0.60090638   439061 
 3605000   0.40084344   -4.1481752   -4.1481752   -3.5469115 -0.082171193   -4.1481752   0.60126379   439061 
 3606000   0.39999559   -4.1468677   -4.1468677   -3.5468756 -0.085348944   -4.1468677   0.59999202   439061 
 3607000   0.39979626   -4.1463979   -4.1463979   -3.5467049 -0.086567416   -4.1463979   0.59969302   439061 
 3608000   0.39977487   -4.1464331   -4.1464331   -3.5467721 -0.085897684   -4.1464331   0.59966095   439061 
 3609000   0.40083198   -4.1468503   -4.1468503   -3.5456037 -0.083954455   -4.1468503    0.6012466   439061 
 3610000   0.40009844   -4.1471032   -4.1471032   -3.5469569 -0.080952834   -4.1471032    0.6001463   439061 
 3611000   0.39999994   -4.1467968   -4.1467968   -3.5467982 -0.078452261   -4.1467968   0.59999855   439061 
 3612000   0.39977414   -4.1465613   -4.1465613   -3.5469014 -0.079271401   -4.1465613   0.59965984   439061 
 3613000   0.40057134   -4.1472748   -4.1472748   -3.5464192  -0.08249858   -4.1472748   0.60085564   439061 
 3614000   0.39940075   -4.1458615   -4.1458615   -3.5467617 -0.082560886   -4.1458615   0.59909977   439061 
 3615000   0.39951867    -4.146101    -4.146101   -3.5468244 -0.084747602    -4.146101   0.59927664   439061 
 3616000   0.39969618   -4.1461099   -4.1461099    -3.546567 -0.084251749   -4.1461099    0.5995429   439061 
 3617000   0.39972888   -4.1463103   -4.1463103   -3.5467184 -0.081005062   -4.1463103   0.59959195   439061 
 3618000   0.40011347   -4.1470287   -4.1470287   -3.5468598 -0.081869607   -4.1470287   0.60016884   439061 
 3619000   0.40028643   -4.1472434   -4.1472434   -3.5468151 -0.080809678   -4.1472434   0.60042828   439061 
 3620000   0.40088698   -4.1484038   -4.1484038   -3.5470747 -0.081975197   -4.1484038   0.60132911   439061 
 3621000   0.40024768   -4.1473528   -4.1473528   -3.5469826 -0.085166799   -4.1473528   0.60037015   439061 
 3622000   0.40065992   -4.1478275   -4.1478275    -3.546839 -0.083586609   -4.1478275   0.60098851   439061 
 3623000   0.40045973   -4.1468877   -4.1468877   -3.5461994 -0.085039413   -4.1468877   0.60068822   439061 
 3624000   0.39960166   -4.1458023   -4.1458023   -3.5464012 -0.082377821   -4.1458023   0.59940112   439061 
 3625000   0.40033592   -4.1468749   -4.1468749   -3.5463724 -0.080146533   -4.1468749   0.60050251   439061 
 3626000   0.40052374   -4.1469519   -4.1469519   -3.5461676 -0.083713521   -4.1469519   0.60078425   439061 
 3627000   0.40005154   -4.1471752   -4.1471752   -3.5470993  -0.07988546   -4.1471752   0.60007594   439061 
 3628000   0.40028121   -4.1478116   -4.1478116   -3.5473911 -0.083081243   -4.1478116   0.60042044   439061 
 3629000    0.3996253    -4.146854    -4.146854   -3.5474174 -0.085166226    -4.146854   0.59943659   439061 
 3630000   0.40014089   -4.1480564   -4.1480564   -3.5478464   -0.0845489   -4.1480564   0.60020997   439061 
 3631000   0.39945773   -4.1466073   -4.1466073   -3.5474221 -0.082988724   -4.1466073   0.59918523   439061 
 3632000   0.40016825   -4.1478833   -4.1478833   -3.5476323 -0.083913928   -4.1478833     0.600251   439061 
 3633000   0.40002821   -4.1475228   -4.1475228   -3.5474818   -0.0810731   -4.1475228   0.60004095   439061 
 3634000   0.40028297   -4.1475118   -4.1475118   -3.5470887 -0.081895818   -4.1475118   0.60042308   439061 
 3635000     0.399718   -4.1466365   -4.1466365   -3.5470609 -0.081066072   -4.1466365   0.59957563   439061 
 3636000   0.39995207   -4.1472366   -4.1472366   -3.5473099 -0.082303569   -4.1472366   0.59992674   439061 
 3637000   0.40007606   -4.1474591   -4.1474591   -3.5473464 -0.084645179   -4.1474591   0.60011272   439061 
 3638000   0.39982802   -4.1473957   -4.1473957   -3.5476551 -0.084621217   -4.1473957   0.59974066   439061 
 3639000   0.39993717   -4.1474945   -4.1474945   -3.5475901 -0.083019781   -4.1474945   0.59990439   439061 
 3640000   0.40038217   -4.1482605   -4.1482605   -3.5476887 -0.085738414   -4.1482605   0.60057189   439061 
 3641000   0.40012703   -4.1480619   -4.1480619   -3.5478728 -0.083110782   -4.1480619   0.60018917   439061 
 3642000    0.3996767   -4.1480479   -4.1480479   -3.5485343 -0.082676389   -4.1480479   0.59951369   439061 
 3643000   0.40045082   -4.1487346   -4.1487346   -3.5480598 -0.083954278   -4.1487346   0.60067486   439061 
 3644000   0.40047532   -4.1485745   -4.1485745   -3.5478629 -0.083367509   -4.1485745   0.60071162   439061 
 3645000   0.39998627   -4.1480098   -4.1480098   -3.5480318 -0.082753282   -4.1480098   0.59997804   439061 
 3646000   0.40032223    -4.148642    -4.148642     -3.54816 -0.088709122    -4.148642   0.60048198   439061 
 3647000   0.40029001   -4.1478492   -4.1478492   -3.5474155 -0.085278398   -4.1478492   0.60043365   439061 
 3648000    0.4005014   -4.1480677   -4.1480677    -3.547317 -0.086283754   -4.1480677   0.60075073   439061 
 3649000   0.39989382   -4.1469833   -4.1469833    -3.547144 -0.083089787   -4.1469833   0.59983936   439061 
 3650000   0.40014226   -4.1468187   -4.1468187   -3.5466067 -0.081142226   -4.1468187   0.60021202   439061 
 3651000   0.39991018   -4.1467927   -4.1467927   -3.5469288 -0.081430086   -4.1467927    0.5998639   439061 
 3652000   0.40081117   -4.1480997   -4.1480997   -3.5468843 -0.084748574   -4.1480997   0.60121539   439061 
 3653000   0.39997422   -4.1468486   -4.1468486   -3.5468887 -0.082466683   -4.1468486   0.59995997   439061 
 3654000   0.40086353   -4.1472343   -4.1472343   -3.5459403 -0.083476201   -4.1472343   0.60129393   439061 
 3655000    0.4006069   -4.1473511   -4.1473511   -3.5464421 -0.086173731   -4.1473511   0.60090898   439061 
 3656000    0.4003357   -4.1476915   -4.1476915   -3.5471893 -0.085043916   -4.1476915   0.60050218   439061 
 3657000   0.39989199    -4.147686    -4.147686   -3.5478494  -0.08497094    -4.147686   0.59983662   439061 
 3658000   0.39980044   -4.1465985   -4.1465985   -3.5468992 -0.080288248   -4.1465985   0.59969929   439061 
 3659000   0.40080857    -4.148001    -4.148001   -3.5467896 -0.080206425    -4.148001   0.60121149   439061 
 3660000   0.40079685   -4.1478255   -4.1478255   -3.5466316 -0.082327457   -4.1478255    0.6011939   439061 
 3661000   0.40067661   -4.1476087   -4.1476087   -3.5465952 -0.084132945   -4.1476087   0.60101354   439061 
 3662000   0.40031405   -4.1476186   -4.1476186   -3.5471489 -0.086537507   -4.1476186    0.6004697   439061 
 3663000   0.40007151   -4.1470931   -4.1470931   -3.5469872 -0.085853192   -4.1470931    0.6001059   439061 
 3664000   0.40034727   -4.1476356   -4.1476356    -3.547116 -0.085268918   -4.1476356   0.60051954   439061 
 3665000   0.39966663    -4.147545    -4.147545   -3.5480465 -0.080681167    -4.147545   0.59949858   439061 
 3666000   0.40061387   -4.1482922   -4.1482922   -3.5473727 -0.081928196   -4.1482922   0.60091943   439061 
 3667000   0.40081704   -4.1481649   -4.1481649   -3.5469407  -0.08060241   -4.1481649   0.60122419   439061 
 3668000   0.39992277   -4.1477501   -4.1477501   -3.5478674 -0.084336531   -4.1477501   0.59988279   439061 
 3669000   0.39976985   -4.1472637   -4.1472637   -3.5476102 -0.086919321   -4.1472637   0.59965341   439061 
 3670000   0.39933321   -4.1466415   -4.1466415    -3.547643 -0.084188319   -4.1466415   0.59899845   439061 
 3671000   0.40031735   -4.1475273   -4.1475273   -3.5470527 -0.086011034   -4.1475273   0.60047466   439061 
 3672000   0.39999405   -4.1472659   -4.1472659   -3.5472762 -0.082312903   -4.1472659    0.5999897   439061 
 3673000   0.39970898   -4.1473936   -4.1473936   -3.5478315 -0.079569657   -4.1473936    0.5995621   439061 
 3674000    0.3999094   -4.1482668   -4.1482668   -3.5484041 -0.083260569   -4.1482668   0.59986273   439061 
 3675000   0.40040057   -4.1481771   -4.1481771   -3.5475776 -0.082598199   -4.1481771   0.60059949   439061 
 3676000   0.39926532   -4.1467518   -4.1467518   -3.5478552 -0.081040299   -4.1467518   0.59889661   439061 
 3677000   0.39980304   -4.1466151   -4.1466151   -3.5469119 -0.084399238   -4.1466151    0.5997032   439061 
 3678000   0.40057622     -4.14711     -4.14711   -3.5462471 -0.084842771     -4.14711   0.60086296   439061 
 3679000   0.40031154   -4.1471082   -4.1471082   -3.5466422  -0.08670813   -4.1471082   0.60046594   439061 
 3680000   0.40000612   -4.1470967   -4.1470967   -3.5470889 -0.083105933   -4.1470967   0.60000782   439061 
 3681000   0.39994798    -4.147068    -4.147068   -3.5471474 -0.082743799    -4.147068   0.59992061   439061 
 3682000   0.39980772   -4.1471121   -4.1471121   -3.5474019 -0.079583606   -4.1471121   0.59971021   439061 
 3683000   0.40027255   -4.1478172   -4.1478172   -3.5474097 -0.083107208   -4.1478172   0.60040746   439061 
 3684000   0.39965908   -4.1471797   -4.1471797   -3.5476924 -0.082619569   -4.1471797   0.59948726   439061 
 3685000    0.4005392   -4.1474679   -4.1474679   -3.5466605 -0.082365526   -4.1474679   0.60080743   439061 
 3686000   0.40061453   -4.1474052   -4.1474052   -3.5464847 -0.086135298   -4.1474052   0.60092043   439061 
 3687000   0.40011373   -4.1468497   -4.1468497   -3.5466805 -0.085153314   -4.1468497   0.60016924   439061 
 3688000    0.4000011   -4.1468512   -4.1468512   -3.5468509 -0.082960444   -4.1468512   0.60000029   439061 
 3689000   0.40019888   -4.1472248   -4.1472248   -3.5469278  -0.08241779   -4.1472248   0.60029695   439061 
 3690000   0.40013817   -4.1479673   -4.1479673   -3.5477614 -0.081719024   -4.1479673   0.60020589   439061 
 3691000   0.40011956   -4.1478446   -4.1478446   -3.5476667 -0.083695313   -4.1478446   0.60017797   439061 
 3692000   0.39980552   -4.1481181   -4.1481181   -3.5484112 -0.081325613   -4.1481181   0.59970691   439061 
 3693000   0.39903831   -4.1468535   -4.1468535   -3.5482974 -0.083642987   -4.1468535    0.5985561   439061 
 3694000   0.40018196   -4.1484525   -4.1484525   -3.5481809 -0.086433628   -4.1484525   0.60027157   439061 
 3695000   0.40007295    -4.147814    -4.147814   -3.5477059 -0.083922417    -4.147814   0.60010805   439061 
 3696000   0.39947488   -4.1465489   -4.1465489    -3.547338 -0.083327692   -4.1465489   0.59921095   439061 
 3697000   0.40037489   -4.1477624   -4.1477624   -3.5472014 -0.081786032   -4.1477624   0.60056096   439061 
 3698000   0.40029384   -4.1478218   -4.1478218   -3.5473824 -0.084567448   -4.1478218    0.6004394   439061 
 3699000   0.39995637   -4.1473989   -4.1473989   -3.5474657 -0.081152417   -4.1473989   0.59993319   439061 
 3700000   0.40008161   -4.1478993   -4.1478993   -3.5477783 -0.081933309   -4.1478993   0.60012104   439061 
 3701000   0.40015449    -4.148155    -4.148155   -3.5479246 -0.086520207    -4.148155   0.60023037   439061 
 3702000   0.40026646   -4.1486228   -4.1486228   -3.5482245 -0.086750318   -4.1486228   0.60039832   439061 
 3703000   0.39994988   -4.1473623   -4.1473623   -3.5474389 -0.084296463   -4.1473623   0.59992346   439061 
 3704000    0.4001843   -4.1470201   -4.1470201    -3.546745 -0.082644609   -4.1470201   0.60027509   439061 
 3705000   0.40072713   -4.1475992   -4.1475992   -3.5465098 -0.082080815   -4.1475992   0.60108933   439061 
 3706000   0.40058549   -4.1473022   -4.1473022   -3.5464253 -0.084907444   -4.1473022   0.60087687   439061 
 3707000   0.40033776   -4.1468826   -4.1468826   -3.5463773 -0.082719301   -4.1468826   0.60050527   439061 
 3708000   0.40057673   -4.1468237   -4.1468237     -3.54596 -0.082466654   -4.1468237   0.60086372   439061 
 3709000   0.40055682   -4.1474081   -4.1474081   -3.5465743 -0.083558479   -4.1474081   0.60083386   439061 
 3710000   0.40000685   -4.1472835   -4.1472835   -3.5472746  -0.08400962   -4.1472835   0.60000891   439061 
 3711000   0.40038185    -4.147902    -4.147902   -3.5473306 -0.084199614    -4.147902   0.60057141   439061 
 3712000   0.40061234    -4.147593    -4.147593   -3.5466758 -0.081709585    -4.147593   0.60091714   439061 
 3713000   0.40037949   -4.1479103   -4.1479103   -3.5473425 -0.082921533   -4.1479103   0.60056787   439061 
 3714000   0.40073808   -4.1476644   -4.1476644   -3.5465587 -0.084574074   -4.1476644   0.60110574   439061 
 3715000   0.39999884   -4.1466499   -4.1466499    -3.546653 -0.082809172   -4.1466499   0.59999689   439061 
 3716000   0.40048031    -4.146829    -4.146829   -3.5461099 -0.083736787    -4.146829   0.60071909   439061 
 3717000   0.39999911   -4.1462758   -4.1462758   -3.5462785 -0.084370436   -4.1462758    0.5999973   439061 
 3718000   0.39967536   -4.1456146   -4.1456146    -3.546103 -0.080738893   -4.1456146   0.59951167   439061 
 3719000   0.40155033   -4.1480503   -4.1480503   -3.5457261 -0.085121749   -4.1480503   0.60232413   439061 
 3720000   0.40071461   -4.1473324   -4.1473324   -3.5462618 -0.081596737   -4.1473324   0.60107054   439061 
 3721000   0.40065586   -4.1471392   -4.1471392   -3.5461568 -0.081307955   -4.1471392   0.60098242   439061 
 3722000    0.4008392   -4.1469453   -4.1469453   -3.5456878 -0.080688308   -4.1469453   0.60125743   439061 
 3723000    0.4007702   -4.1467944   -4.1467944   -3.5456405 -0.082824529   -4.1467944   0.60115394   439061 
 3724000   0.40062526   -4.1471597   -4.1471597   -3.5462232 -0.085546067   -4.1471597   0.60093651   439061 
 3725000   0.40011697   -4.1461807   -4.1461807   -3.5460066  -0.08467649   -4.1461807   0.60017409   439061 
 3726000    0.4008877   -4.1469955   -4.1469955   -3.5456654 -0.083382634   -4.1469955   0.60133018   439061 
 3727000    0.4005748   -4.1471589   -4.1471589   -3.5462981  -0.08262115   -4.1471589   0.60086083   439061 
 3728000   0.40037684   -4.1468757   -4.1468757   -3.5463118 -0.079928543   -4.1468757   0.60056389   439061 
 3729000    0.4005366   -4.1475067   -4.1475067   -3.5467031 -0.081751704   -4.1475067   0.60080352   439061 
 3730000   0.40029674   -4.1473919   -4.1473919   -3.5469481 -0.081611112   -4.1473919   0.60044374   439061 
 3731000   0.40107343   -4.1477611   -4.1477611   -3.5461524 -0.082304591   -4.1477611   0.60160877   439061 
 3732000   0.39983656    -4.145695    -4.145695   -3.5459416 -0.083237942    -4.145695   0.59975347   439061 
 3733000   0.40072791   -4.1474358   -4.1474358   -3.5463453 -0.085294203   -4.1474358   0.60109049   439061 
 3734000   0.39997847   -4.1459108   -4.1459108   -3.5459444 -0.080918474   -4.1459108   0.59996634   439061 
 3735000   0.40048698   -4.1474472   -4.1474472   -3.5467181 -0.085655844   -4.1474472    0.6007291   439061 
 3736000   0.40056255   -4.1467938   -4.1467938   -3.5459514 -0.078817139   -4.1467938   0.60084245   439061 
 3737000   0.40109489   -4.1476216   -4.1476216   -3.5459806 -0.080880837   -4.1476216   0.60164096   439061 
 3738000   0.40054581   -4.1476594   -4.1476594   -3.5468421 -0.081626662   -4.1476594   0.60081735   439061 
 3739000   0.39996338   -4.1469042   -4.1469042   -3.5469605 -0.082380876   -4.1469042    0.5999437   439061 
 3740000   0.40016276   -4.1463627   -4.1463627   -3.5461199 -0.083684012   -4.1463627   0.60024277   439061 
 3741000    0.4000615   -4.1468659   -4.1468659    -3.546775 -0.085048946   -4.1468659   0.60009088   439061 
 3742000   0.40030185    -4.147616    -4.147616   -3.5471646 -0.085117469    -4.147616   0.60045141   439061 
 3743000    0.4005765   -4.1473894   -4.1473894   -3.5465261 -0.082420067   -4.1473894   0.60086338   439061 
 3744000   0.40089433   -4.1482231   -4.1482231    -3.546883 -0.082521707   -4.1482231   0.60134013   439061 
 3745000   0.40072183   -4.1475183   -4.1475183    -3.546437 -0.080693959   -4.1475183   0.60108138   439061 
 3746000   0.39991372   -4.1468262   -4.1468262    -3.546957  -0.08268783   -4.1468262   0.59986921   439061 
 3747000   0.39999995   -4.1464783   -4.1464783   -3.5464797  -0.08227708   -4.1464783   0.59999856   439061 
 3748000   0.40010247   -4.1462435   -4.1462435   -3.5460912 -0.083833688   -4.1462435   0.60015234   439061 
 3749000    0.4003324   -4.1462396   -4.1462396   -3.5457424 -0.081816942   -4.1462396   0.60049724   439061 
 3750000   0.39991411   -4.1456507   -4.1456507   -3.5457809  -0.08122893   -4.1456507    0.5998698   439061 
 3751000   0.39994848   -4.1462195   -4.1462195   -3.5462981 -0.081343345   -4.1462195   0.59992135   439061 
 3752000   0.39999307   -4.1466926   -4.1466926   -3.5467044  -0.08126888   -4.1466926   0.59998823   439061 
 3753000    0.4000179   -4.1470769   -4.1470769   -3.5470515 -0.081931112   -4.1470769   0.60002548   439061 
 3754000   0.39996756   -4.1473945   -4.1473945   -3.5474446  -0.08121488   -4.1473945   0.59994998   439061 
 3755000   0.39991467   -4.1474822   -4.1474822   -3.5476115 -0.083123549   -4.1474822   0.59987064   439061 
 3756000   0.39973852   -4.1474438   -4.1474438   -3.5478374 -0.083699568   -4.1474438   0.59960641   439061 
 3757000    0.3998747   -4.1474752   -4.1474752   -3.5476645 -0.082383389   -4.1474752   0.59981069   439061 
 3758000   0.40018942   -4.1479176   -4.1479176   -3.5476349 -0.084021039   -4.1479176   0.60028277   439061 
 3759000    0.4003537   -4.1477987   -4.1477987   -3.5472695 -0.083020591   -4.1477987   0.60052918   439061 
 3760000   0.40003405   -4.1469843   -4.1469843   -3.5469346 -0.080770785   -4.1469843   0.60004971   439061 
 3761000   0.40034906   -4.1481356   -4.1481356   -3.5476134 -0.085306039   -4.1481356   0.60052222   439061 
 3762000    0.4001306   -4.1470274   -4.1470274   -3.5468328 -0.083533312   -4.1470274   0.60019453   439061 
 3763000   0.40020116   -4.1469512   -4.1469512   -3.5466509 -0.081765674   -4.1469512   0.60030038   439061 
 3764000   0.40010206   -4.1465098   -4.1465098   -3.5463581 -0.081083946   -4.1465098   0.60015172   439061 
 3765000   0.40063917   -4.1474832   -4.1474832   -3.5465258 -0.082652146   -4.1474832   0.60095738   439061 
 3766000   0.40094552   -4.1470137   -4.1470137   -3.5455968 -0.083812362   -4.1470137   0.60141691   439061 
 3767000   0.40054095   -4.1470073   -4.1470073   -3.5461973 -0.083181132   -4.1470073   0.60081005   439061 
 3768000   0.40045145    -4.147129    -4.147129   -3.5464532 -0.085444835    -4.147129   0.60067581   439061 
 3769000   0.39988357   -4.1467446   -4.1467446   -3.5469206 -0.085251865   -4.1467446   0.59982399   439061 
 3770000   0.39991392    -4.147599    -4.147599   -3.5477295 -0.084753337    -4.147599   0.59986951   439061 
 3771000   0.39944597   -4.1464454   -4.1464454   -3.5472778 -0.079711777   -4.1464454   0.59916759   439061 
 3772000   0.40038597   -4.1486942   -4.1486942   -3.5481166 -0.083319199   -4.1486942   0.60057759   439061 
 3773000   0.39982038   -4.1477482   -4.1477482    -3.548019 -0.083147456   -4.1477482    0.5997292   439061 
 3774000   0.39990522   -4.1470401   -4.1470401   -3.5471837 -0.082078336   -4.1470401   0.59985647   439061 
 3775000   0.39990756   -4.1467096   -4.1467096   -3.5468497 -0.082000578   -4.1467096   0.59985997   439061 
 3776000   0.39969272   -4.1468424   -4.1468424   -3.5473047  -0.08625205   -4.1468424   0.59953771   439061 
 3777000   0.39957855    -4.145905    -4.145905   -3.5465385 -0.082143577    -4.145905   0.59936646   439061 
 3778000   0.39941532   -4.1461828   -4.1461828   -3.5470612 -0.082862025   -4.1461828   0.59912161   439061 
 3779000   0.39981924    -4.146678    -4.146678   -3.5469505 -0.081504796    -4.146678    0.5997275   439061 
 3780000   0.39999469   -4.1470165   -4.1470165   -3.5470258 -0.078823655   -4.1470165   0.59999067   439061 
 3781000   0.39997857   -4.1472354   -4.1472354   -3.5472689 -0.082713013   -4.1472354   0.59996649   439061 
 3782000   0.40042566   -4.1469775   -4.1469775   -3.5463404  -0.08177967   -4.1469775   0.60063712   439061 
 3783000    0.3999815   -4.1464867   -4.1464867   -3.5465159 -0.083610508   -4.1464867   0.59997088   439061 
 3784000    0.4000398   -4.1468853   -4.1468853    -3.546827  -0.08510126   -4.1468853   0.60005834   439061 
 3785000   0.39921253   -4.1460964   -4.1460964    -3.547279 -0.085455992   -4.1460964   0.59881743   439061 
 3786000    0.3998514   -4.1470288   -4.1470288    -3.547253 -0.084021072   -4.1470288   0.59977574   439061 
 3787000   0.40026539   -4.1473751   -4.1473751   -3.5469784 -0.081894246   -4.1473751   0.60039672   439061 
 3788000   0.39962138   -4.1474581   -4.1474581   -3.5480274 -0.080263041   -4.1474581    0.5994307   439061 
 3789000   0.40021366   -4.1481173   -4.1481173   -3.5477982  -0.08322918   -4.1481173   0.60031912   439061 
 3790000   0.39981609   -4.1470587   -4.1470587   -3.5473359 -0.082516263   -4.1470587   0.59972277   439061 
 3791000   0.40033592   -4.1475866   -4.1475866   -3.5470841 -0.085613398   -4.1475866   0.60050251   439061 
 3792000   0.39978477    -4.146338    -4.146338   -3.5466622  -0.08386677    -4.146338   0.59967579   439061 
 3793000   0.40009262   -4.1465186   -4.1465186    -3.546381 -0.081822929   -4.1465186   0.60013756   439061 
 3794000   0.39953369   -4.1457892   -4.1457892   -3.5464901 -0.079862169   -4.1457892   0.59929917   439061 
 3795000   0.40015611   -4.1475301   -4.1475301   -3.5472973 -0.081027887   -4.1475301    0.6002328   439061 
 3796000   0.40017289   -4.1474014   -4.1474014   -3.5471435 -0.080580659   -4.1474014   0.60025797   439061 
 3797000   0.40022394   -4.1478518   -4.1478518   -3.5475172 -0.084670029   -4.1478518   0.60033455   439061 
 3798000   0.40012442   -4.1475567   -4.1475567   -3.5473715 -0.081984701   -4.1475567   0.60018526   439061 
 3799000   0.40042794   -4.1475497   -4.1475497   -3.5469091 -0.083838715   -4.1475497   0.60064054   439061 
 3800000   0.40020481   -4.1473754   -4.1473754   -3.5470696 -0.083717822   -4.1473754   0.60030585   439061 
 3801000   0.40058556   -4.1473913   -4.1473913   -3.5465143 -0.082896355   -4.1473913   0.60087697   439061 
 3802000   0.39987215   -4.1460325   -4.1460325   -3.5462256 -0.081411854   -4.1460325   0.59980686   439061 
 3803000   0.39972843   -4.1465975   -4.1465975   -3.5470062 -0.082248201   -4.1465975   0.59959129   439061 
 3804000   0.40051074   -4.1474911   -4.1474911   -3.5467264 -0.083321738   -4.1474911   0.60076474   439061 
 3805000    0.4001049   -4.1475214   -4.1475214   -3.5473654 -0.082942385   -4.1475214   0.60015598   439061 
 3806000   0.40029416   -4.1474248   -4.1474248   -3.5469849 -0.083700892   -4.1474248   0.60043987   439061 
 3807000    0.4000796   -4.1477519   -4.1477519   -3.5476338 -0.082492497   -4.1477519   0.60011803   439061 
 3808000   0.40004025    -4.147573    -4.147573    -3.547514 -0.081329029    -4.147573   0.60005901   439061 
 3809000   0.39990058   -4.1472033   -4.1472033   -3.5473538 -0.082412501   -4.1472033    0.5998495   439061 
 3810000   0.40024529    -4.147531    -4.147531   -3.5471645 -0.082794326    -4.147531   0.60036656   439061 
 3811000   0.40054405   -4.1471442   -4.1471442   -3.5463295 -0.081258781   -4.1471442   0.60081471   439061 
 3812000   0.40036053    -4.147063    -4.147063   -3.5465235 -0.084115232    -4.147063   0.60053942   439061 
 3813000   0.40004302   -4.1461609   -4.1461609   -3.5460977 -0.081430757   -4.1461609   0.60006317   439061 
 3814000      0.40068   -4.1472679   -4.1472679   -3.5462492 -0.083462297   -4.1472679   0.60101862   439061 
 3815000   0.39997336   -4.1470638   -4.1470638   -3.5471051 -0.084725992   -4.1470638   0.59995867   439061 
 3816000   0.39973952   -4.1468854   -4.1468854   -3.5472775 -0.080981409   -4.1468854   0.59960792   439061 
 3817000   0.40043552   -4.1481964   -4.1481964   -3.5475444 -0.084957161   -4.1481964   0.60065191   439061 
 3818000   0.39946186   -4.1469856   -4.1469856   -3.5477942 -0.081104932   -4.1469856   0.59919143   439061 
 3819000   0.40114462   -4.1486103   -4.1486103   -3.5468947 -0.082908963   -4.1486103   0.60171556   439061 
 3820000   0.40052662    -4.147788    -4.147788   -3.5469994 -0.081250412    -4.147788   0.60078856   439061 
 3821000   0.40025021   -4.1468824   -4.1468824   -3.5465084 -0.083380319   -4.1468824   0.60037395   439061 
 3822000   0.40018335   -4.1459915   -4.1459915   -3.5457178 -0.082386626   -4.1459915   0.60027366   439061 
 3823000   0.40053416   -4.1466976   -4.1466976   -3.5458978 -0.083927724   -4.1466976   0.60079987   439061 
 3824000   0.40012244   -4.1455897   -4.1455897   -3.5454075 -0.082212224   -4.1455897   0.60018229   439061 
 3825000   0.40050818   -4.1465435   -4.1465435   -3.5457826 -0.082243036   -4.1465435    0.6007609   439061 
 3826000   0.40033457   -4.1461157   -4.1461157   -3.5456152 -0.080988437   -4.1461157   0.60050049   439061 
 3827000   0.40089515   -4.1468067   -4.1468067   -3.5454653 -0.082394806   -4.1468067   0.60134136   439061 
 3828000   0.40099775   -4.1467158   -4.1467158   -3.5452206 -0.080632844   -4.1467158   0.60149526   439061 
 3829000   0.40066642   -4.1462193   -4.1462193    -3.545221 -0.082628151   -4.1462193   0.60099826   439061 
 3830000   0.40004517   -4.1452898   -4.1452898   -3.5452235 -0.081488807   -4.1452898   0.60006638   439061 
 3831000   0.40059079   -4.1461406   -4.1461406   -3.5452558 -0.083587694   -4.1461406   0.60088482   439061 
 3832000   0.39978765   -4.1460142   -4.1460142   -3.5463341 -0.083396253   -4.1460142    0.5996801   439061 
 3833000   0.40034762   -4.1471232   -4.1471232   -3.5466031 -0.086248304   -4.1471232   0.60052006   439061 
 3834000   0.40050588   -4.1462096   -4.1462096   -3.5454521 -0.077767049   -4.1462096   0.60075744   439061 
 3835000   0.40100031   -4.1467612   -4.1467612   -3.5452621 -0.080459234   -4.1467612    0.6014991   439061 
 3836000   0.40056121    -4.146501    -4.146501   -3.5456606 -0.080418456    -4.146501   0.60084044   439061 
 3837000   0.40110714    -4.146983    -4.146983   -3.5453237 -0.083157714    -4.146983   0.60165933   439061 
 3838000   0.40063492   -4.1465795   -4.1465795   -3.5456284 -0.085750873   -4.1465795   0.60095101   439061 
 3839000   0.40003821   -4.1453975   -4.1453975   -3.5453416 -0.083641408   -4.1453975   0.60005594   439061 
 3840000   0.40060748     -4.14652     -4.14652   -3.5456101  -0.08136967     -4.14652   0.60090985   439061 
 3841000   0.40051781   -4.1471327   -4.1471327   -3.5463574 -0.081884008   -4.1471327   0.60077535   439061 
 3842000   0.40063445   -4.1481003   -4.1481003     -3.54715 -0.080954909   -4.1481003   0.60095031   439061 
 3843000   0.40080344   -4.1476111   -4.1476111   -3.5464073 -0.079282342   -4.1476111   0.60120379   439061 
 3844000   0.39963563   -4.1464582   -4.1464582   -3.5470061 -0.080980874   -4.1464582   0.59945208   439061 
 3845000   0.40012708    -4.147249    -4.147249   -3.5470597 -0.084616751    -4.147249   0.60018925   439061 
 3846000   0.40033201   -4.1468623   -4.1468623   -3.5463656 -0.083137056   -4.1468623   0.60049664   439061 
 3847000   0.40012341   -4.1463314   -4.1463314   -3.5461477 -0.082710016   -4.1463314   0.60018375   439061 
 3848000    0.3996953   -4.1459603   -4.1459603   -3.5464188 -0.082065976   -4.1459603   0.59954158   439061 
 3849000   0.40028471   -4.1467832   -4.1467832   -3.5463575 -0.080768626   -4.1467832   0.60042569   439061 
 3850000   0.40070941   -4.1470146   -4.1470146   -3.5459518 -0.078554328   -4.1470146   0.60106275   439061 
 3851000   0.40081828   -4.1477092   -4.1477092   -3.5464832 -0.080209196   -4.1477092   0.60122605   439061 
 3852000   0.40035104   -4.1467776   -4.1467776   -3.5462524 -0.079549772   -4.1467776    0.6005252   439061 
 3853000   0.40052943   -4.1468237   -4.1468237   -3.5460309 -0.081525303   -4.1468237   0.60079277   439061 
 3854000   0.40071989   -4.1473941   -4.1473941   -3.5463156 -0.085536892   -4.1473941   0.60107847   439061 
 3855000   0.40035922   -4.1467158   -4.1467158   -3.5461783 -0.085668233   -4.1467158   0.60053746   439061 
 3856000   0.40054216    -4.146245    -4.146245   -3.5454331 -0.081388163    -4.146245   0.60081187   439061 
 3857000    0.4006182   -4.1466785   -4.1466785   -3.5457525  -0.08266847   -4.1466785   0.60092593   439061 
 3858000   0.40185632   -4.1478426   -4.1478426   -3.5450595 -0.083908691   -4.1478426   0.60278311   439061 
 3859000   0.40060993   -4.1461634   -4.1461634   -3.5452499 -0.077959122   -4.1461634   0.60091353   439061 
 3860000    0.4002531   -4.1461569   -4.1461569   -3.5457786 -0.082424524   -4.1461569   0.60037829   439061 
 3861000   0.40083155   -4.1465673   -4.1465673   -3.5453213  -0.08252492   -4.1465673   0.60124595   439061 
 3862000   0.40062167   -4.1455928   -4.1455928   -3.5446616 -0.082085413   -4.1455928   0.60093114   439061 
 3863000   0.39981545   -4.1452926   -4.1452926   -3.5455708 -0.082249916   -4.1452926    0.5997218   439061 
 3864000   0.40051393     -4.14647     -4.14647   -3.5457005 -0.081281602     -4.14647   0.60076953   439061 
 3865000   0.40113529   -4.1477118   -4.1477118   -3.5460103 -0.082985344   -4.1477118   0.60170156   439061 
 3866000   0.39972039   -4.1464481   -4.1464481   -3.5468689 -0.080374227   -4.1464481   0.59957921   439061 
 3867000   0.40000734   -4.1467693   -4.1467693   -3.5467597 -0.080219883   -4.1467693   0.60000964   439061 
 3868000   0.40026003   -4.1469665   -4.1469665   -3.5465778 -0.082281902   -4.1469665   0.60038868   439061 
 3869000   0.40066867   -4.1480511   -4.1480511   -3.5470495 -0.084766525   -4.1480511   0.60100164   439061 
 3870000   0.40007644     -4.14759     -4.14759   -3.5474767 -0.085079435     -4.14759   0.60011329   439061 
 3871000   0.39888175   -4.1460682   -4.1460682    -3.547747  -0.08231454   -4.1460682   0.59832127   439061 
 3872000   0.39977919   -4.1467177   -4.1467177   -3.5470503 -0.082713045   -4.1467177   0.59966742   439061 
 3873000   0.39996741   -4.1472949   -4.1472949   -3.5473452 -0.083560425   -4.1472949   0.59994975   439061 
 3874000   0.39971081   -4.1472734   -4.1472734   -3.5477086 -0.081682353   -4.1472734   0.59956484   439061 
 3875000   0.40025354   -4.1472215   -4.1472215   -3.5468426 -0.079763361   -4.1472215   0.60037895   439061 
 3876000   0.40044681   -4.1470244   -4.1470244   -3.5463556 -0.080967094   -4.1470244   0.60066884   439061 
 3877000   0.40006653   -4.1466678   -4.1466678   -3.5465694 -0.084488026   -4.1466678   0.60009843   439061 
 3878000   0.40020305   -4.1461875   -4.1461875   -3.5458843 -0.081048521   -4.1461875    0.6003032   439061 
 3879000   0.39929716   -4.1459245   -4.1459245   -3.5469801 -0.083869181   -4.1459245   0.59894437   439061 
 3880000   0.40015362   -4.1471796   -4.1471796   -3.5469505 -0.085019302   -4.1471796   0.60022907   439061 
 3881000   0.40016288   -4.1475364   -4.1475364   -3.5472934 -0.081428071   -4.1475364   0.60024295   439061 
 3882000   0.40036617   -4.1472686   -4.1472686   -3.5467207 -0.083802317   -4.1472686   0.60054788   439061 
 3883000   0.40044897   -4.1485203   -4.1485203   -3.5478482  -0.08118558   -4.1485203   0.60067208   439061 
 3884000   0.40014162   -4.1481327   -4.1481327   -3.5479216 -0.082217057   -4.1481327   0.60021106   439061 
 3885000   0.39967181   -4.1482699   -4.1482699   -3.5487635 -0.085600181   -4.1482699   0.59950635   439061 
 3886000   0.39978775   -4.1479994   -4.1479994   -3.5483192 -0.082692941   -4.1479994   0.59968026   439061 
 3887000   0.39974828   -4.1471951   -4.1471951    -3.547574 -0.083791226   -4.1471951   0.59962105   439061 
 3888000   0.40010403    -4.147547    -4.147547   -3.5473924 -0.083808024    -4.147547   0.60015468   439061 
 3889000   0.40034749   -4.1477124   -4.1477124   -3.5471925 -0.083451474   -4.1477124   0.60051987   439061 
 3890000   0.39990124   -4.1471681   -4.1471681   -3.5473176  -0.08316934   -4.1471681    0.5998505   439061 
 3891000   0.40009396   -4.1478117   -4.1478117   -3.5476721  -0.07972241   -4.1478117   0.60013957   439061 
 3892000   0.40019548   -4.1471679   -4.1471679   -3.5468761 -0.082621733   -4.1471679   0.60029186   439061 
 3893000     0.399834   -4.1466772   -4.1466772   -3.5469276 -0.078711547   -4.1466772   0.59974963   439061 
 3894000   0.40015879   -4.1475316   -4.1475316   -3.5472948 -0.081817881   -4.1475316   0.60023682   439061 
 3895000   0.40011426   -4.1472113   -4.1472113   -3.5470413 -0.084381464   -4.1472113   0.60017003   439061 
 3896000   0.39957773   -4.1469453   -4.1469453     -3.54758 -0.082671888   -4.1469453   0.59936524   439061 
 3897000   0.39983744   -4.1468227   -4.1468227   -3.5470679  -0.08277884   -4.1468227    0.5997548   439061 
 3898000   0.40058848   -4.1472929   -4.1472929   -3.5464116 -0.081329523   -4.1472929   0.60088136   439061 
 3899000   0.40112951   -4.1482605   -4.1482605   -3.5465676 -0.081756364   -4.1482605    0.6016929   439061 
 3900000   0.39984442   -4.1477526   -4.1477526   -3.5479874  -0.08202405   -4.1477526   0.59976526   439061 
 3901000   0.39996653   -4.1472502   -4.1472502   -3.5473017 -0.080959208   -4.1472502   0.59994843   439061 
 3902000   0.40079836    -4.148018    -4.148018   -3.5468218 -0.083373086    -4.148018   0.60119616   439061 
 3903000   0.40020822   -4.1469422   -4.1469422   -3.5466312 -0.083951712   -4.1469422   0.60031097   439061 
 3904000   0.40048512   -4.1478965   -4.1478965   -3.5471702  -0.08458726   -4.1478965   0.60072631   439061 
 3905000   0.39992962    -4.146679    -4.146679   -3.5467859 -0.084139921    -4.146679   0.59989307   439061 
 3906000   0.39968549    -4.147071    -4.147071   -3.5475442 -0.081158817    -4.147071   0.59952687   439061 
 3907000   0.40061531   -4.1479706   -4.1479706    -3.547049 -0.082931197   -4.1479706    0.6009216   439061 
 3908000   0.39972486   -4.1476478   -4.1476478   -3.5480619 -0.081916564   -4.1476478   0.59958592   439061 
 3909000   0.39991249   -4.1477162   -4.1477162   -3.5478488  -0.08057789   -4.1477162   0.59986737   439061 
 3910000   0.39981357   -4.1476498   -4.1476498   -3.5479308  -0.08290304   -4.1476498     0.599719   439061 
 3911000   0.39969485   -4.1472986   -4.1472986   -3.5477577 -0.081932202   -4.1472986   0.59954091   439061 
 3912000   0.40008558   -4.1473249   -4.1473249   -3.5471979 -0.083037289   -4.1473249     0.600127   439061 
 3913000   0.40024528   -4.1471947   -4.1471947   -3.5468281 -0.083767524   -4.1471947   0.60036655   439061 
 3914000   0.40043091   -4.1467953   -4.1467953   -3.5461503 -0.083063008   -4.1467953     0.600645   439061 
 3915000   0.39999895   -4.1465041   -4.1465041    -3.546507 -0.083108788   -4.1465041   0.59999706   439061 
 3916000   0.40021602   -4.1470508   -4.1470508   -3.5467281  -0.08294665   -4.1470508   0.60032266   439061 
 3917000   0.40066848   -4.1476912   -4.1476912   -3.5466899 -0.085255963   -4.1476912   0.60100135   439061 
 3918000   0.40014022   -4.1467095   -4.1467095   -3.5465006 -0.080143361   -4.1467095   0.60020897   439061 
 3919000   0.40041799   -4.1475315   -4.1475315   -3.5469059 -0.084360818   -4.1475315   0.60062562   439061 
 3920000   0.39984047   -4.1467647   -4.1467647   -3.5470054 -0.079821561   -4.1467647   0.59975934   439061 
 3921000   0.40055861   -4.1480881   -4.1480881   -3.5472515 -0.084692453   -4.1480881   0.60083655   439061 
 3922000   0.39969483   -4.1467459   -4.1467459   -3.5472051 -0.080894205   -4.1467459   0.59954087   439061 
 3923000   0.39995869   -4.1466434   -4.1466434   -3.5467067 -0.079615257   -4.1466434   0.59993667   439061 
 3924000   0.40030042   -4.1472513   -4.1472513    -3.546802 -0.083669613   -4.1472513   0.60044926   439061 
 3925000   0.40083719   -4.1483599   -4.1483599   -3.5471055 -0.086114781   -4.1483599   0.60125442   439061 
 3926000   0.39986966   -4.1475454   -4.1475454   -3.5477423 -0.085606427   -4.1475454   0.59980312   439061 
 3927000   0.39959602   -4.1467021   -4.1467021   -3.5473094 -0.081029091   -4.1467021   0.59939267   439061 
 3928000   0.40003672   -4.1474509   -4.1474509   -3.5473972 -0.080517861   -4.1474509   0.60005371   439061 
 3929000   0.40031412   -4.1480767   -4.1480767   -3.5476069  -0.08318685   -4.1480767   0.60046981   439061 
 3930000   0.40032402   -4.1491557   -4.1491557    -3.548671 -0.086778415   -4.1491557   0.60048467   439061 
 3931000   0.40045784   -4.1480587   -4.1480587   -3.5473733 -0.082731763   -4.1480587   0.60068539   439061 
 3932000   0.39981735   -4.1468443   -4.1468443   -3.5471197 -0.081017922   -4.1468443   0.59972466   439061 
 3933000   0.40013311   -4.1475168   -4.1475168   -3.5473185 -0.087023637   -4.1475168    0.6001983   439061 
 3934000   0.40018251   -4.1480822   -4.1480822   -3.5478098 -0.086135828   -4.1480822    0.6002724   439061 
 3935000     0.399466    -4.147059    -4.147059   -3.5478614 -0.083847719    -4.147059   0.59919764   439061 
 3936000   0.40016408   -4.1479509   -4.1479509   -3.5477061 -0.083905884   -4.1479509   0.60024476   439061 
 3937000   0.39940399   -4.1473027   -4.1473027   -3.5481981 -0.080014053   -4.1473027   0.59910462   439061 
 3938000   0.40041998   -4.1490712   -4.1490712   -3.5484426 -0.084267989   -4.1490712   0.60062861   439061 
 3939000   0.40036284   -4.1482004   -4.1482004   -3.5476575 -0.081399167   -4.1482004    0.6005429   439061 
 3940000   0.39982083   -4.1471259   -4.1471259    -3.547396  -0.08191992   -4.1471259   0.59972988   439061 
 3941000   0.40004912   -4.1475082   -4.1475082   -3.5474358 -0.086081234   -4.1475082   0.60007231   439061 
 3942000   0.40012792   -4.1473812   -4.1473812   -3.5471907 -0.086969589   -4.1473812   0.60019051   439061 
 3943000   0.40023114   -4.1471546   -4.1471546   -3.5468093 -0.086108424   -4.1471546   0.60034534   439061 
 3944000   0.39961383   -4.1465265   -4.1465265   -3.5471071  -0.08267678   -4.1465265   0.59941938   439061 
 3945000   0.39956451    -4.147321    -4.147321   -3.5479756 -0.080328019    -4.147321    0.5993454   439061 
 3946000   0.39969307   -4.1475483   -4.1475483     -3.54801 -0.079453246   -4.1475483   0.59953825   439061 
 3947000   0.39976144   -4.1473592   -4.1473592   -3.5477184 -0.081563198   -4.1473592    0.5996408   439061 
 3948000   0.39940536   -4.1471995   -4.1471995   -3.5480928 -0.079485891   -4.1471995   0.59910667   439061 
 3949000   0.39952736   -4.1475038   -4.1475038   -3.5482141 -0.087383586   -4.1475038   0.59928967   439061 
 3950000   0.39968854   -4.1470963   -4.1470963   -3.5475648  -0.08600844   -4.1470963   0.59953145   439061 
 3951000   0.40041941   -4.1472009   -4.1472009   -3.5465731 -0.084867882   -4.1472009   0.60062775   439061 
 3952000   0.39990936   -4.1465272   -4.1465272   -3.5466645 -0.083049062   -4.1465272   0.59986267   439061 
 3953000   0.40034859    -4.147341    -4.147341   -3.5468195 -0.082355012    -4.147341   0.60052152   439061 
 3954000   0.40002458   -4.1468763   -4.1468763   -3.5468408 -0.079459624   -4.1468763    0.6000355   439061 
 3955000   0.39984408   -4.1465779   -4.1465779   -3.5468132 -0.081959151   -4.1465779   0.59976475   439061 
 3956000   0.40014319   -4.1470338   -4.1470338   -3.5468203 -0.081163977   -4.1470338   0.60021341   439061 
 3957000   0.40089867   -4.1485037   -4.1485037    -3.547157 -0.086210479   -4.1485037   0.60134663   439061 
 3958000   0.40039799   -4.1474653   -4.1474653   -3.5468697 -0.084019588   -4.1474653   0.60059561   439061 
 3959000   0.39979127   -4.1466864   -4.1466864   -3.5470008 -0.084718716   -4.1466864   0.59968554   439061 
 3960000   0.40034417   -4.1470616   -4.1470616   -3.5465467 -0.083628361   -4.1470616   0.60051489   439061 
 3961000   0.40028418   -4.1470235   -4.1470235   -3.5465986 -0.082223844   -4.1470235   0.60042491   439061 
 3962000   0.40030209   -4.1474331   -4.1474331   -3.5469813 -0.082935225   -4.1474331   0.60045177   439061 
 3963000   0.40043531   -4.1472866   -4.1472866    -3.546635 -0.082353614   -4.1472866    0.6006516   439061 
 3964000   0.40064887   -4.1475085   -4.1475085   -3.5465365 -0.082053457   -4.1475085   0.60097194   439061 
 3965000   0.40058001   -4.1474119   -4.1474119   -3.5465433 -0.085182626   -4.1474119   0.60086864   439061 
 3966000   0.40017789   -4.1470884   -4.1470884   -3.5468229 -0.085387705   -4.1470884   0.60026547   439061 
 3967000   0.40011427   -4.1468183   -4.1468183   -3.5466483 -0.084819124   -4.1468183   0.60017004   439061 
 3968000   0.39935518   -4.1464058   -4.1464058   -3.5473744 -0.083408274   -4.1464058    0.5990314   439061 
 3969000   0.40030555   -4.1478076   -4.1478076   -3.5473506 -0.083285917   -4.1478076   0.60045696   439061 
 3970000   0.40009394   -4.1468617   -4.1468617   -3.5467221 -0.082143599   -4.1468617   0.60013954   439061 
 3971000   0.40052937   -4.1473808   -4.1473808   -3.5465881 -0.083911286   -4.1473808   0.60079268   439061 
 3972000   0.39986806   -4.1469757   -4.1469757    -3.547175 -0.082561774   -4.1469757   0.59980073   439061 
 3973000   0.39970251    -4.147274    -4.147274   -3.5477216 -0.085558327    -4.147274   0.59955241   439061 
 3974000    0.3996867   -4.1475633   -4.1475633   -3.5480346 -0.086410245   -4.1475633   0.59952868   439061 
 3975000   0.39979034   -4.1475549   -4.1475549   -3.5478708  -0.08207112   -4.1475549   0.59968414   439061 
 3976000   0.39988271   -4.1467668   -4.1467668   -3.5469441 -0.081634081   -4.1467668    0.5998227   439061 
 3977000   0.39961154   -4.1465922   -4.1465922   -3.5471762 -0.079396157   -4.1465922   0.59941595   439061 
 3978000   0.40014959   -4.1468857   -4.1468857   -3.5466627  -0.08316665   -4.1468857   0.60022302   439061 
 3979000   0.39984968   -4.1465665   -4.1465665   -3.5467934 -0.084280393   -4.1465665   0.59977316   439061 
 3980000   0.39997337   -4.1469977   -4.1469977   -3.5470391 -0.087085928   -4.1469977   0.59995868   439061 
 3981000   0.39976093   -4.1468477   -4.1468477   -3.5472076 -0.085002833   -4.1468477   0.59964003   439061 
 3982000    0.3996999    -4.147483    -4.147483   -3.5479345 -0.082895687    -4.147483   0.59954848   439061 
 3983000   0.40019649   -4.1474444   -4.1474444   -3.5471511 -0.081206069   -4.1474444   0.60029337   439061 
 3984000   0.40071159   -4.1485107   -4.1485107   -3.5474447 -0.080906984   -4.1485107   0.60106602   439061 
 3985000   0.40051886   -4.1480132   -4.1480132   -3.5472362 -0.081209823   -4.1480132   0.60077692   439061 
 3986000    0.3999316   -4.1467906   -4.1467906   -3.5468946 -0.082149197   -4.1467906   0.59989604   439061 
 3987000   0.40007104   -4.1467987   -4.1467987   -3.5466935 -0.084861027   -4.1467987    0.6001052   439061 
 3988000   0.40059427   -4.1466846   -4.1466846   -3.5457946 -0.088553962   -4.1466846   0.60089003   439061 
 3989000    0.4009035   -4.1471774   -4.1471774   -3.5458235 -0.087283622   -4.1471774   0.60135388   439061 
 3990000   0.40034691   -4.1470172   -4.1470172   -3.5464982 -0.084206591   -4.1470172     0.600519   439061 
 3991000   0.40045153   -4.1471223   -4.1471223   -3.5464464 -0.082107841   -4.1471223   0.60067593   439061 
 3992000    0.4002218   -4.1467218   -4.1467218   -3.5463905 -0.075825849   -4.1467218   0.60033134   439061 
 3993000   0.40030724   -4.1467085   -4.1467085    -3.546249 -0.079425535   -4.1467085    0.6004595   439061 
 3994000   0.40013251   -4.1469526   -4.1469526   -3.5467552 -0.082025834   -4.1469526    0.6001974   439061 
 3995000   0.39988692   -4.1462861   -4.1462861   -3.5464571 -0.083496811   -4.1462861   0.59982901   439061 
 3996000   0.40017087   -4.1465796   -4.1465796   -3.5463247 -0.085634502   -4.1465796   0.60025494   439061 
 3997000   0.40045953   -4.1465299   -4.1465299    -3.545842 -0.085355781   -4.1465299   0.60068793   439061 
 3998000   0.40018942   -4.1464585   -4.1464585   -3.5461757 -0.083113956   -4.1464585   0.60028276   439061 
 3999000    0.4012155   -4.1482214   -4.1482214   -3.5463995  -0.08373344   -4.1482214   0.60182187   439061 
 4000000   0.40124097   -4.1482815   -4.1482815   -3.5464214 -0.080481365   -4.1482815   0.60186009   439061 
 4001000   0.40074178    -4.147269    -4.147269   -3.5461577 -0.079684755    -4.147269   0.60111131   439061 
 4002000   0.40056645   -4.1474381   -4.1474381   -3.5465898 -0.083761829   -4.1474381   0.60084831   439061 
 4003000   0.39976921   -4.1469783   -4.1469783   -3.5473258 -0.086734811   -4.1469783   0.59965245   439061 
 4004000   0.40047723   -4.1475588   -4.1475588   -3.5468443 -0.087899716   -4.1475588   0.60071448   439061 
 4005000   0.39989458   -4.1470381   -4.1470381   -3.5471976 -0.085822602   -4.1470381   0.59984051   439061 
 4006000   0.39962735   -4.1469483   -4.1469483   -3.5475087 -0.082633871   -4.1469483   0.59943965   439061 
 4007000   0.40019469   -4.1484337   -4.1484337   -3.5481431 -0.082542355   -4.1484337   0.60029066   439061 
 4008000   0.39960559   -4.1475488   -4.1475488   -3.5481417 -0.078693209   -4.1475488   0.59940702   439061 
 4009000   0.39998927    -4.147425    -4.147425   -3.5474425 -0.078595139    -4.147425   0.59998253   439061 
 4010000   0.39977299   -4.1464099   -4.1464099   -3.5467518 -0.080913177   -4.1464099   0.59965811   439061 
 4011000   0.39986505   -4.1466974   -4.1466974   -3.5469012 -0.085112616   -4.1466974   0.59979621   439061 
 4012000   0.40027333   -4.1476568   -4.1476568   -3.5472482 -0.087483484   -4.1476568   0.60040863   439061 
 4013000   0.39954224   -4.1471227   -4.1471227   -3.5478107 -0.085704348   -4.1471227   0.59931199   439061 
 4014000   0.39935727    -4.147098    -4.147098   -3.5480635 -0.081843802    -4.147098   0.59903454   439061 
 4015000   0.40034254   -4.1480455   -4.1480455   -3.5475331 -0.079771721   -4.1480455   0.60051244   439061 
 4016000   0.39970372   -4.1475857   -4.1475857   -3.5480315 -0.079009384   -4.1475857   0.59955421   439061 
 4017000   0.40007037   -4.1480199   -4.1480199   -3.5479157 -0.081867018   -4.1480199   0.60010418   439061 
 4018000   0.40045871   -4.1477819   -4.1477819   -3.5470952 -0.083674577   -4.1477819    0.6006867   439061 
 4019000   0.39988751    -4.145929    -4.145929   -3.5460991 -0.082603352    -4.145929    0.5998299   439061 
 4020000   0.39908453   -4.1455305   -4.1455305   -3.5469051  -0.08323677   -4.1455305   0.59862543   439061 
 4021000   0.39999795   -4.1467582   -4.1467582   -3.5467626 -0.086295151   -4.1467582   0.59999557   439061 
 4022000   0.40089025   -4.1477082   -4.1477082   -3.5463742 -0.084500755   -4.1477082     0.601334   439061 
 4023000    0.4002048    -4.147464    -4.147464   -3.5471582 -0.081902251    -4.147464   0.60030583   439061 
 4024000   0.39978363     -4.14715     -4.14715    -3.547476 -0.080348468     -4.14715   0.59967408   439061 
 4025000   0.40059176   -4.1485997   -4.1485997   -3.5477134 -0.082000718   -4.1485997   0.60088628   439061 
 4026000   0.39937049   -4.1475756   -4.1475756   -3.5485213 -0.083222059   -4.1475756   0.59905438   439061 
 4027000   0.40036409   -4.1483661   -4.1483661   -3.5478213 -0.087619467   -4.1483661   0.60054477   439061 
 4028000   0.39902564   -4.1464468   -4.1464468   -3.5479097 -0.084225157   -4.1464468    0.5985371   439061 
 4029000   0.39913837   -4.1460464   -4.1460464   -3.5473402 -0.083030505   -4.1460464    0.5987062   439061 
 4030000   0.39997231   -4.1461473   -4.1461473   -3.5461902 -0.078909729   -4.1461473   0.59995709   439061 
 4031000    0.3999357   -4.1464621   -4.1464621   -3.5465599 -0.080397055   -4.1464621   0.59990218   439061 
 4032000   0.39975253   -4.1466652   -4.1466652   -3.5470378 -0.079808548   -4.1466652   0.59962742   439061 
 4033000   0.40005857   -4.1470334   -4.1470334   -3.5469469 -0.080009341   -4.1470334   0.60008649   439061 
 4034000   0.40056745   -4.1478444   -4.1478444   -3.5469946 -0.083497618   -4.1478444   0.60084981   439061 
 4035000   0.40001018   -4.1473971   -4.1473971   -3.5473832 -0.084522101   -4.1473971    0.6000139   439061 
 4036000   0.39972568   -4.1470578   -4.1470578   -3.5474706  -0.08457742   -4.1470578   0.59958716   439061 
 4037000   0.40045539   -4.1479868   -4.1479868   -3.5473051 -0.085599115   -4.1479868   0.60068171   439061 
 4038000   0.39932201   -4.1470804   -4.1470804   -3.5480987 -0.081817936   -4.1470804   0.59898165   439061 
 4039000   0.40023002   -4.1475807   -4.1475807   -3.5472371 -0.083054224   -4.1475807   0.60034366   439061 
 4040000   0.40063591   -4.1482104   -4.1482104   -3.5472579 -0.082841776   -4.1482104    0.6009525   439061 
 4041000   0.39977864   -4.1471602   -4.1471602   -3.5474936 -0.082649604   -4.1471602   0.59966659   439061 
 4042000   0.40048299    -4.147684    -4.147684   -3.5469609 -0.085859169    -4.147684   0.60072312   439061 
 4043000   0.40088397   -4.1483756   -4.1483756    -3.547051  -0.08554523   -4.1483756   0.60132458   439061 
 4044000   0.40046434   -4.1472431   -4.1472431    -3.546548 -0.085004055   -4.1472431   0.60069515   439061 
 4045000   0.39990848   -4.1463309   -4.1463309   -3.5464695 -0.083413885   -4.1463309   0.59986135   439061 
 4046000   0.39973049   -4.1459848   -4.1459848   -3.5463905 -0.081566675   -4.1459848   0.59959437   439061 
 4047000   0.39939106   -4.1457718   -4.1457718   -3.5466866 -0.078508287   -4.1457718   0.59908523   439061 
 4048000   0.40102292   -4.1482799   -4.1482799   -3.5467469 -0.083725973   -4.1482799   0.60153301   439061 
 4049000   0.40008303   -4.1469175   -4.1469175   -3.5467943 -0.080709036   -4.1469175   0.60012318   439061 
 4050000   0.40047595   -4.1467675   -4.1467675    -3.546055 -0.081068096   -4.1467675   0.60071255   439061 
 4051000   0.40023151   -4.1464967   -4.1464967   -3.5461508 -0.083019389   -4.1464967   0.60034589   439061 
 4052000   0.40024729   -4.1458138   -4.1458138   -3.5454442 -0.083963745   -4.1458138   0.60036956   439061 
 4053000   0.40008937   -4.1469372   -4.1469372   -3.5468045 -0.084800514   -4.1469372   0.60013268   439061 
 4054000    0.4006983   -4.1475235   -4.1475235   -3.5464775 -0.086552955   -4.1475235   0.60104608   439061 
 4055000   0.39957655   -4.1458297   -4.1458297   -3.5464663 -0.080576424   -4.1458297   0.59936346   439061 
 4056000   0.40078859   -4.1483125   -4.1483125    -3.547131  -0.08216642   -4.1483125   0.60118152   439061 
 4057000    0.4002176   -4.1475185   -4.1475185   -3.5471935 -0.084149769   -4.1475185   0.60032504   439061 
 4058000   0.40030208   -4.1479563   -4.1479563   -3.5475045 -0.085817431   -4.1479563   0.60045175   439061 
 4059000    0.3998359   -4.1473877   -4.1473877   -3.5476352 -0.086326329   -4.1473877   0.59975249   439061 
 4060000   0.39896472   -4.1464337   -4.1464337    -3.547988 -0.085850782   -4.1464337   0.59844571   439061 
 4061000   0.40067917   -4.1479353   -4.1479353    -3.546918 -0.086158558   -4.1479353   0.60101739   439061 
 4062000   0.40109808   -4.1477107   -4.1477107   -3.5460649 -0.082036577   -4.1477107   0.60164574   439061 
 4063000   0.40035937   -4.1471304   -4.1471304   -3.5465928 -0.081609384   -4.1471304   0.60053768   439061 
 4064000   0.40073277   -4.1481073   -4.1481073   -3.5470095 -0.084180271   -4.1481073   0.60109778   439061 
 4065000   0.40027027   -4.1471644   -4.1471644   -3.5467603 -0.083199061   -4.1471644   0.60040403   439061 
 4066000   0.39981087   -4.1464036   -4.1464036   -3.5466887 -0.083678353   -4.1464036   0.59971493   439061 
 4067000   0.39985368   -4.1468856   -4.1468856   -3.5471064 -0.082288358   -4.1468856   0.59977915   439061 
 4068000   0.40072451   -4.1473713   -4.1473713   -3.5462859 -0.086390283   -4.1473713    0.6010854   439061 
 4069000   0.40022694   -4.1465187   -4.1465187   -3.5461796 -0.083405689   -4.1465187   0.60033904   439061 
 4070000   0.40044957   -4.1467777   -4.1467777   -3.5461047 -0.083403306   -4.1467777   0.60067299   439061 
 4071000   0.40009971   -4.1463627   -4.1463627   -3.5462145 -0.084928693   -4.1463627   0.60014819   439061 
 4072000   0.39994825   -4.1464584   -4.1464584   -3.5465374 -0.080897686   -4.1464584   0.59992101   439061 
 4073000   0.40007895   -4.1463342   -4.1463342   -3.5462171 -0.083916509   -4.1463342   0.60011705   439061 
 4074000   0.40035079     -4.14757     -4.14757   -3.5470452 -0.083210478     -4.14757   0.60052482   439061 
 4075000   0.40033641   -4.1467877   -4.1467877   -3.5462845 -0.083092222   -4.1467877   0.60050325   439061 
 4076000   0.40052459   -4.1470323   -4.1470323   -3.5462467 -0.081425778   -4.1470323   0.60078552   439061 
 4077000   0.40043065    -4.146939    -4.146939   -3.5462944 -0.080891211    -4.146939    0.6006446   439061 
 4078000   0.40023506   -4.1466126   -4.1466126   -3.5462614 -0.083608443   -4.1466126   0.60035122   439061 
 4079000   0.39985224   -4.1459671   -4.1459671   -3.5461901  -0.08251672   -4.1459671   0.59977699   439061 
 4080000   0.39959624   -4.1460786   -4.1460786   -3.5466856 -0.083820437   -4.1460786     0.599393   439061 
 4081000   0.40032603   -4.1477449   -4.1477449   -3.5472572   -0.0863887   -4.1477449   0.60048767   439061 
 4082000   0.39997952   -4.1471534   -4.1471534   -3.5471855 -0.081324321   -4.1471534   0.59996791   439061 
 4083000   0.39957549   -4.1468652   -4.1468652   -3.5475033 -0.080555221   -4.1468652   0.59936187   439061 
 4084000   0.39987065   -4.1476141   -4.1476141   -3.5478095    -0.081701   -4.1476141   0.59980461   439061 
 4085000   0.39951259   -4.1480858   -4.1480858   -3.5488183 -0.083643171   -4.1480858   0.59926751   439061 
 4086000   0.39992353   -4.1479574   -4.1479574   -3.5480735 -0.083953149   -4.1479574   0.59988393   439061 
 4087000     0.400117    -4.147427    -4.147427   -3.5472529 -0.084896233    -4.147427   0.60017414   439061 
 4088000   0.40025536   -4.1465717   -4.1465717   -3.5461901 -0.085334975   -4.1465717   0.60038167   439061 
 4089000   0.40014496   -4.1467311   -4.1467311   -3.5465151 -0.082365419   -4.1467311   0.60021607   439061 
 4090000   0.40001361   -4.1469623   -4.1469623   -3.5469433 -0.084268644   -4.1469623   0.60001905   439061 
 4091000   0.40028873    -4.147054    -4.147054   -3.5466222 -0.082296715    -4.147054   0.60043173   439061 
 4092000   0.40052328   -4.1474961   -4.1474961   -3.5467126 -0.082088814   -4.1474961   0.60078356   439061 
 4093000   0.40045869   -4.1473378   -4.1473378   -3.5466512 -0.080897023   -4.1473378   0.60068667   439061 
 4094000   0.39994353   -4.1475802   -4.1475802   -3.5476662 -0.084000956   -4.1475802   0.59991393   439061 
 4095000   0.39971313   -4.1475814   -4.1475814   -3.5480131 -0.085405503   -4.1475814   0.59956832   439061 
 4096000   0.39962838   -4.1471486   -4.1471486   -3.5477074 -0.084830055   -4.1471486   0.59944121   439061 
 4097000   0.39934298   -4.1471776   -4.1471776   -3.5481644 -0.083686729   -4.1471776   0.59901311   439061 
 4098000   0.39970069   -4.1473409   -4.1473409   -3.5477913 -0.082839093   -4.1473409   0.59954967   439061 
 4099000   0.39957063    -4.147469    -4.147469   -3.5481145 -0.081985142    -4.147469   0.59935457   439061 
 4100000   0.40034836   -4.1481775   -4.1481775   -3.5476564 -0.083204152   -4.1481775   0.60052117   439061 
 4101000   0.40070218   -4.1482277   -4.1482277   -3.5471758 -0.084689437   -4.1482277    0.6010519   439061 
 4102000   0.39959764   -4.1462024   -4.1462024   -3.5468073  -0.08210156   -4.1462024    0.5993951   439061 
 4103000   0.39985856   -4.1469449   -4.1469449   -3.5471584 -0.085354619   -4.1469449   0.59978648   439061 
 4104000    0.4001794   -4.1470471   -4.1470471   -3.5467793 -0.088175415   -4.1470471   0.60026773   439061 
 4105000   0.39987137   -4.1464607   -4.1464607    -3.546655 -0.083662219   -4.1464607   0.59980569   439061 
 4106000   0.40026476   -4.1466304   -4.1466304   -3.5462346  -0.08263672   -4.1466304   0.60039578   439061 
 4107000   0.40013681   -4.1466824   -4.1466824   -3.5464786 -0.082722057   -4.1466824   0.60020385   439061 
 4108000   0.39965726   -4.1463705   -4.1463705    -3.546886 -0.081009976   -4.1463705   0.59948452   439061 
 4109000   0.40005554   -4.1467555   -4.1467555   -3.5466736 -0.080212266   -4.1467555   0.60008194   439061 
 4110000   0.40029234   -4.1476976   -4.1476976   -3.5472604 -0.084046289   -4.1476976   0.60043715   439061 
 4111000   0.40017366   -4.1470205   -4.1470205   -3.5467614 -0.083765312   -4.1470205   0.60025912   439061 
 4112000   0.40021163   -4.1468829   -4.1468829   -3.5465668 -0.085782099   -4.1468829   0.60031608   439061 
 4113000   0.39940246   -4.1456213   -4.1456213    -3.546519 -0.082280594   -4.1456213   0.59910232   439061 
 4114000   0.39981442   -4.1464936   -4.1464936   -3.5467734 -0.083047976   -4.1464936   0.59972026   439061 
 4115000   0.40001161   -4.1471266   -4.1471266   -3.5471106 -0.083772215   -4.1471266   0.60001605   439061 
 4116000   0.40047056   -4.1482143   -4.1482143   -3.5475098  -0.08273295   -4.1482143   0.60070447   439061 
 4117000    0.3995037   -4.1472972   -4.1472972    -3.548043 -0.079350702   -4.1472972   0.59925419   439061 
 4118000   0.40025949   -4.1482566   -4.1482566   -3.5478687 -0.083212536   -4.1482566   0.60038786   439061 
 4119000   0.40012181   -4.1478417   -4.1478417   -3.5476604 -0.082096721   -4.1478417   0.60018135   439061 
 4120000   0.39963965   -4.1461594   -4.1461594   -3.5467013  -0.08213527   -4.1461594   0.59945811   439061 
 4121000    0.4002449   -4.1465757   -4.1465757   -3.5462097 -0.082258738   -4.1465757   0.60036598   439061 
 4122000   0.39949817    -4.145566    -4.145566   -3.5463201 -0.084882719    -4.145566   0.59924589   439061 
 4123000   0.39967496     -4.14621     -4.14621   -3.5466989  -0.08345893     -4.14621   0.59951107   439061 
 4124000   0.40069158   -4.1478474   -4.1478474   -3.5468114 -0.083536382   -4.1478474     0.601036   439061 
 4125000   0.40011888   -4.1473227   -4.1473227   -3.5471457 -0.082903258   -4.1473227   0.60017695   439061 
 4126000   0.39975463   -4.1468211   -4.1468211   -3.5471905 -0.078523793   -4.1468211   0.59963058   439061 
 4127000   0.40020538   -4.1477351   -4.1477351   -3.5474284 -0.083106024   -4.1477351    0.6003067   439061 
 4128000   0.39970711   -4.1469213   -4.1469213    -3.547362 -0.084237737   -4.1469213   0.59955929   439061 
 4129000   0.40051905    -4.147157    -4.147157   -3.5463798 -0.081599819    -4.147157    0.6007772   439061 
 4130000   0.39987363   -4.1469521   -4.1469521    -3.547143 -0.086339118   -4.1469521   0.59980908   439061 
 4131000   0.40037863   -4.1474337   -4.1474337   -3.5468671 -0.086136126   -4.1474337   0.60056657   439061 
 4132000   0.40073408   -4.1472112   -4.1472112   -3.5461114 -0.082071408   -4.1472112   0.60109975   439061 
 4133000   0.39921833    -4.146679    -4.146679   -3.5478529 -0.085116397    -4.146679   0.59882613   439061 
 4134000   0.40012251   -4.1479903   -4.1479903   -3.5478079 -0.084040105   -4.1479903    0.6001824   439061 
 4135000   0.39951116   -4.1468882   -4.1468882   -3.5476228 -0.081501156   -4.1468882   0.59926537   439061 
 4136000   0.39972815   -4.1474765   -4.1474765   -3.5478856 -0.085441882   -4.1474765   0.59959086   439061 
 4137000   0.40006898    -4.147984    -4.147984   -3.5478819 -0.082537231    -4.147984    0.6001021   439061 
 4138000   0.39945535   -4.1474556   -4.1474556   -3.5482739 -0.085604103   -4.1474556   0.59918166   439061 
 4139000   0.39922246   -4.1477876   -4.1477876   -3.5489553 -0.084444102   -4.1477876   0.59883232   439061 
 4140000   0.39977315   -4.1482728   -4.1482728   -3.5486145 -0.084637699   -4.1482728   0.59965836   439061 
 4141000   0.39877612   -4.1471015   -4.1471015   -3.5489387 -0.084036845   -4.1471015   0.59816282   439061 
 4142000   0.39969689   -4.1491061   -4.1491061   -3.5495621 -0.086005515   -4.1491061   0.59954397   439061 
 4143000   0.39929682    -4.148179    -4.148179   -3.5492351 -0.083678857    -4.148179   0.59894387   439061 
 4144000   0.40024561   -4.1492818   -4.1492818   -3.5489148  -0.08624181   -4.1492818   0.60036704   439061 
 4145000   0.39897857   -4.1461969   -4.1461969   -3.5477304 -0.078391044   -4.1461969   0.59846649   439061 
 4146000   0.39905194   -4.1468055   -4.1468055   -3.5482289 -0.082185841   -4.1468055   0.59857655   439061 
 4147000    0.3999439   -4.1479842   -4.1479842   -3.5480697 -0.088194672   -4.1479842   0.59991448   439061 
 4148000   0.40076565   -4.1484622   -4.1484622   -3.5473151 -0.086459477   -4.1484622   0.60114711   439061 
 4149000   0.39912926   -4.1463391   -4.1463391   -3.5476466 -0.083525696   -4.1463391   0.59869253   439061 
 4150000   0.39986611    -4.147563    -4.147563   -3.5477652 -0.083349013    -4.147563    0.5997978   439061 
 4151000   0.39999493   -4.1472662   -4.1472662   -3.5472752 -0.083393299   -4.1472662   0.59999103   439061 
 4152000    0.3996441   -4.1475162   -4.1475162   -3.5480514 -0.084051945   -4.1475162   0.59946479   439061 
 4153000   0.39950246   -4.1471205   -4.1471205   -3.5478682 -0.083245946   -4.1471205   0.59925232   439061 
 4154000   0.39955767   -4.1469901   -4.1469901   -3.5476549 -0.085167878   -4.1469901   0.59933514   439061 
 4155000   0.40015511   -4.1479345   -4.1479345   -3.5477032 -0.085407524   -4.1479345   0.60023129   439061 
 4156000   0.39978706   -4.1477007   -4.1477007   -3.5480214 -0.084832255   -4.1477007   0.59967922   439061 
 4157000   0.39974356   -4.1472122   -4.1472122   -3.5475982 -0.082080328   -4.1472122   0.59961398   439061 
 4158000   0.40003653   -4.1482223   -4.1482223   -3.5481689  -0.08365704   -4.1482223   0.60005343   439061 
 4159000   0.39972778    -4.148127    -4.148127   -3.5485367 -0.085734874    -4.148127   0.59959031   439061 
 4160000   0.39894523   -4.1476024   -4.1476024   -3.5491859 -0.081642883   -4.1476024   0.59841649   439061 
 4161000   0.39888959   -4.1473408   -4.1473408   -3.5490078 -0.083025051   -4.1473408   0.59833302   439061 
 4162000   0.39941043   -4.1477769   -4.1477769   -3.5486626 -0.086627179   -4.1477769   0.59911428   439061 
 4163000   0.40017366   -4.1487628   -4.1487628   -3.5485036 -0.083847688   -4.1487628   0.60025913   439061 
 4164000   0.39909817   -4.1475088   -4.1475088   -3.5488629 -0.083329933   -4.1475088   0.59864589   439061 
 4165000   0.39929481   -4.1480242   -4.1480242   -3.5490833 -0.085612477   -4.1480242   0.59894084   439061 
 4166000   0.39973538   -4.1482633   -4.1482633   -3.5486616 -0.082450168   -4.1482633   0.59960171   439061 
 4167000    0.3990658      -4.1479      -4.1479   -3.5493027 -0.083350809      -4.1479   0.59859733   439061 
 4168000   0.39909195   -4.1477212   -4.1477212   -3.5490847 -0.083182272   -4.1477212   0.59863656   439061 
 4169000   0.39972886   -4.1484237   -4.1484237   -3.5488317 -0.083122102   -4.1484237   0.59959192   439061 
 4170000   0.39977654    -4.148031    -4.148031   -3.5483675 -0.084826207    -4.148031   0.59966345   439061 
 4171000   0.39952799   -4.1480251   -4.1480251   -3.5487344  -0.08500224   -4.1480251   0.59929062   439061 
 4172000   0.40034747   -4.1485457   -4.1485457   -3.5480258  -0.08609785   -4.1485457   0.60051984   439061 
 4173000    0.3994719   -4.1474869   -4.1474869   -3.5482804 -0.083922448   -4.1474869   0.59920649   439061 
 4174000   0.39996898   -4.1485433   -4.1485433   -3.5485911 -0.083698651   -4.1485433   0.59995211   439061 
 4175000   0.39895254   -4.1473069   -4.1473069   -3.5488795 -0.082902537   -4.1473069   0.59842744   439061 
 4176000   0.39903706   -4.1472549   -4.1472549   -3.5487007 -0.080389419   -4.1472549   0.59855423   439061 
 4177000   0.39928766   -4.1475887   -4.1475887   -3.5486586 -0.083043355   -4.1475887   0.59893013   439061 
 4178000   0.39993373   -4.1477093   -4.1477093   -3.5478101 -0.083028155   -4.1477093   0.59989923   439061 
 4179000   0.40021434   -4.1484157   -4.1484157   -3.5480956 -0.084603561   -4.1484157   0.60032014   439061 
 4180000   0.39903581   -4.1472473   -4.1472473    -3.548695 -0.086195273   -4.1472473   0.59855235   439061 
 4181000   0.39892053   -4.1469328   -4.1469328   -3.5485534  -0.08188382   -4.1469328   0.59837943   439061 
 4182000   0.39973996   -4.1476738   -4.1476738   -3.5480652 -0.081797219   -4.1476738   0.59960858   439061 
 4183000   0.40010899   -4.1483159   -4.1483159   -3.5481538 -0.083087097   -4.1483159   0.60016212   439061 
 4184000    0.4000044   -4.1484382   -4.1484382    -3.548433 -0.083273445   -4.1484382   0.60000523   439061 
 4185000   0.39905382   -4.1481042   -4.1481042   -3.5495249 -0.084716993   -4.1481042   0.59857937   439061 
 4186000    0.3993477   -4.1479972   -4.1479972    -3.548977 -0.082889173   -4.1479972   0.59902018   439061 
 4187000   0.40040487    -4.149368    -4.149368   -3.5487621 -0.089421638    -4.149368   0.60060593   439061 
 4188000   0.39953725   -4.1485105   -4.1485105    -3.549206 -0.085240105   -4.1485105   0.59930452   439061 
 4189000   0.39990209   -4.1489322   -4.1489322   -3.5490804 -0.084852005   -4.1489322   0.59985176   439061 
 4190000   0.39981088   -4.1490736   -4.1490736   -3.5493586 -0.086473157   -4.1490736   0.59971496   439061 
 4191000   0.39949139    -4.148934    -4.148934   -3.5496982 -0.085150155    -4.148934   0.59923571   439061 
 4192000   0.39941371   -4.1482687   -4.1482687   -3.5491495 -0.082560881   -4.1482687   0.59911921   439061 
 4193000   0.39888639   -4.1475906   -4.1475906   -3.5492624 -0.080868149   -4.1475906   0.59832823   439061 
 4194000   0.39972861   -4.1488519   -4.1488519   -3.5492604 -0.082804072   -4.1488519   0.59959154   439061 
 4195000   0.39983087    -4.149218    -4.149218   -3.5494731 -0.085849875    -4.149218   0.59974494   439061 
 4196000   0.39943614   -4.1480844   -4.1480844   -3.5489315 -0.085024389   -4.1480844   0.59915285   439061 
 4197000   0.39959924   -4.1481327   -4.1481327   -3.5487352 -0.084661747   -4.1481327   0.59939749   439061 
 4198000   0.39980351   -4.1483172   -4.1483172   -3.5486133 -0.087001839   -4.1483172    0.5997039   439061 
 4199000   0.39888512   -4.1470469   -4.1470469   -3.5487206 -0.083933934   -4.1470469   0.59832631   439061 
 4200000   0.39956297    -4.147829    -4.147829   -3.5484859 -0.083346301    -4.147829   0.59934309   439061 
 4201000   0.40049745   -4.1487705   -4.1487705   -3.5480257 -0.083815148   -4.1487705   0.60074481   439061 
 4202000   0.39979438    -4.148363    -4.148363   -3.5486728 -0.084931579    -4.148363    0.5996902   439061 
 4203000   0.40002191   -4.1482731   -4.1482731   -3.5482416 -0.083729802   -4.1482731    0.6000315   439061 
 4204000   0.39901103   -4.1469367   -4.1469367   -3.5484215 -0.081053105   -4.1469367   0.59851518   439061 
 4205000   0.39932445   -4.1473165   -4.1473165   -3.5483312 -0.082797043   -4.1473165   0.59898531   439061 
 4206000   0.40014263   -4.1479566   -4.1479566   -3.5477441  -0.08295915   -4.1479566   0.60021257   439061 
 4207000   0.39970063   -4.1476982   -4.1476982   -3.5481486 -0.082508709   -4.1476982   0.59954958   439061 
 4208000   0.39981325   -4.1474112   -4.1474112   -3.5476927 -0.083590604   -4.1474112   0.59971851   439061 
 4209000   0.39985707   -4.1477483   -4.1477483   -3.5479641 -0.082436473   -4.1477483   0.59978424   439061 
 4210000    0.3997501   -4.1475132   -4.1475132   -3.5478894 -0.084622343   -4.1475132   0.59962379   439061 
 4211000    0.4000983   -4.1478627   -4.1478627   -3.5477166 -0.084522242   -4.1478627   0.60014608   439061 
 4212000   0.39972174   -4.1474481   -4.1474481   -3.5478668 -0.081874436   -4.1474481   0.59958125   439061 
 4213000    0.3998312   -4.1474521   -4.1474521   -3.5477067 -0.084263173   -4.1474521   0.59974543   439061 
 4214000   0.40004463   -4.1478906   -4.1478906    -3.547825 -0.083654598   -4.1478906   0.60006558   439061 
 4215000   0.39949297   -4.1477473   -4.1477473   -3.5485092 -0.084548311   -4.1477473   0.59923809   439061 
 4216000   0.39981161   -4.1488311   -4.1488311    -3.549115 -0.088055456   -4.1488311   0.59971604   439061 
 4217000   0.39953544   -4.1480536   -4.1480536   -3.5487518 -0.081172807   -4.1480536    0.5993018   439061 
 4218000   0.39926622    -4.147883    -4.147883    -3.548985 -0.083000727    -4.147883   0.59889797   439061 
 4219000    0.3997813   -4.1480213   -4.1480213   -3.5483507 -0.083593304   -4.1480213   0.59967058   439061 
 4220000   0.39963545   -4.1479922   -4.1479922   -3.5485404 -0.086390337   -4.1479922   0.59945181   439061 
 4221000   0.39999623   -4.1485611   -4.1485611   -3.5485682 -0.085740971   -4.1485611   0.59999298   439061 
 4222000   0.39978224   -4.1477284   -4.1477284   -3.5480564 -0.083393394   -4.1477284   0.59967199   439061 
 4223000   0.39945405   -4.1475382   -4.1475382   -3.5483585 -0.084470979   -4.1475382    0.5991797   439061 
 4224000   0.39960126   -4.1473714   -4.1473714   -3.5479709 -0.084333447   -4.1473714   0.59940053   439061 
 4225000   0.39963686   -4.1478791   -4.1478791   -3.5484252  -0.08442051   -4.1478791   0.59945393   439061 
 4226000   0.39929343   -4.1470968   -4.1470968    -3.548158 -0.083898566   -4.1470968   0.59893877   439061 
 4227000   0.39960057   -4.1469317   -4.1469317   -3.5475322 -0.081708692   -4.1469317   0.59939949   439061 
 4228000   0.39991338   -4.1473954   -4.1473954   -3.5475267 -0.083446824   -4.1473954   0.59986871   439061 
 4229000   0.39976961   -4.1479736   -4.1479736   -3.5483206 -0.084120705   -4.1479736   0.59965305   439061 
 4230000   0.39951298   -4.1477714   -4.1477714   -3.5485033 -0.082238633   -4.1477714    0.5992681   439061 
 4231000    0.3990428   -4.1470555   -4.1470555   -3.5484927 -0.082726018   -4.1470555   0.59856284   439061 
 4232000   0.39972195   -4.1481301   -4.1481301   -3.5485486 -0.082361447   -4.1481301   0.59958156   439061 
 4233000   0.40028552   -4.1488372   -4.1488372   -3.5484103 -0.085181755   -4.1488372   0.60042691   439061 
 4234000   0.40020927   -4.1486782   -4.1486782   -3.5483657 -0.084722993   -4.1486782   0.60031254   439061 
 4235000   0.39980432   -4.1481972   -4.1481972   -3.5484921 -0.082282542   -4.1481972   0.59970512   439061 
 4236000   0.39976891   -4.1473277   -4.1473277   -3.5476757 -0.082872241   -4.1473277   0.59965199   439061 
 4237000   0.39970934   -4.1473154   -4.1473154   -3.5477528 -0.082442229   -4.1473154   0.59956264   439061 
 4238000   0.39936354   -4.1473728   -4.1473728   -3.5483288 -0.082744244   -4.1473728   0.59904394   439061 
 4239000   0.39971178   -4.1472154   -4.1472154   -3.5476491  -0.08378745   -4.1472154    0.5995663   439061 
 4240000   0.40046182   -4.1482913   -4.1482913      -3.5476  -0.08378898   -4.1482913   0.60069136   439061 
 4241000   0.39937674   -4.1471473   -4.1471473   -3.5480835  -0.08452217   -4.1471473   0.59906374   439061 
 4242000   0.39969781   -4.1474078   -4.1474078   -3.5478625 -0.082650962   -4.1474078   0.59954534   439061 
 4243000   0.39948124    -4.147686    -4.147686   -3.5484655 -0.085069687    -4.147686    0.5992205   439061 
 4244000   0.39956005   -4.1475788   -4.1475788   -3.5482401 -0.083809533   -4.1475788   0.59933871   439061 
 4245000   0.39998032   -4.1479665   -4.1479665   -3.5479974  -0.08053963   -4.1479665   0.59996912   439061 
 4246000   0.39934615   -4.1471888   -4.1471888    -3.548171 -0.080558116   -4.1471888   0.59901786   439061 
 4247000   0.39966775    -4.147467    -4.147467   -3.5479667 -0.082281133    -4.147467   0.59950025   439061 
 4248000   0.40032421   -4.1479981   -4.1479981   -3.5475131 -0.083346419   -4.1479981   0.60048495   439061 
 4249000   0.39985679   -4.1468791   -4.1468791   -3.5470953 -0.085323621   -4.1468791   0.59978383   439061 
 4250000   0.39978822   -4.1461287   -4.1461287   -3.5464477 -0.083104889   -4.1461287   0.59968097   439061 
 4251000   0.39972663   -4.1465268   -4.1465268   -3.5469382 -0.083991679   -4.1465268   0.59958858   439061 
 4252000   0.39987079   -4.1465658   -4.1465658    -3.546761 -0.081433258   -4.1465658   0.59980481   439061 
 4253000   0.39996772   -4.1466545   -4.1466545   -3.5467042 -0.081912227   -4.1466545   0.59995022   439061 
 4254000   0.40170877   -4.1488597   -4.1488597   -3.5462979  -0.08544839   -4.1488597   0.60256178   439061 
 4255000   0.40081139   -4.1470998   -4.1470998   -3.5458841 -0.081968217   -4.1470998   0.60121571   439061 
 4256000   0.40039739   -4.1469039   -4.1469039   -3.5463091 -0.082725926   -4.1469039   0.60059472   439061 
 4257000   0.40062243   -4.1472786   -4.1472786   -3.5463463 -0.083934559   -4.1472786   0.60093227   439061 
 4258000   0.40043199   -4.1466787   -4.1466787   -3.5460321 -0.084350144   -4.1466787   0.60064661   439061 
 4259000   0.40075727   -4.1472611   -4.1472611   -3.5461265 -0.083966205   -4.1472611   0.60113453   439061 
 4260000   0.39974165   -4.1462168   -4.1462168   -3.5466057 -0.079104146   -4.1462168    0.5996111   439061 
 4261000    0.4004735   -4.1481163   -4.1481163   -3.5474074 -0.084384437   -4.1481163   0.60070889   439061 
 4262000   0.40049263   -4.1481621   -4.1481621   -3.5474245 -0.082619108   -4.1481621   0.60073758   439061 
 4263000   0.40081473   -4.1479579   -4.1479579   -3.5467372 -0.083209066   -4.1479579   0.60122073   439061 
 4264000    0.4001591   -4.1470771   -4.1470771   -3.5468398 -0.083293979   -4.1470771   0.60023729   439061 
 4265000   0.39979291   -4.1472054   -4.1472054   -3.5475174 -0.085514559   -4.1472054   0.59968799   439061 
 4266000   0.40012718   -4.1471078   -4.1471078   -3.5469184 -0.084886379   -4.1471078   0.60018941   439061 
 4267000   0.39962241    -4.147221    -4.147221   -3.5477888 -0.084566293    -4.147221   0.59943225   439061 
 4268000   0.40009023   -4.1479437   -4.1479437   -3.5478097 -0.083349895   -4.1479437   0.60013398   439061 
 4269000   0.39995598   -4.1477465   -4.1477465   -3.5478139 -0.080908285   -4.1477465    0.5999326   439061 
 4270000   0.40054045   -4.1485728   -4.1485728   -3.5477635 -0.082426019   -4.1485728   0.60080931   439061 
 4271000   0.39986668   -4.1482985   -4.1482985   -3.5484998 -0.080583205   -4.1482985   0.59979866   439061 
 4272000   0.39963521   -4.1473351   -4.1473351   -3.5478837 -0.083821292   -4.1473351   0.59945145   439061 
 4273000   0.40038219    -4.148341    -4.148341    -3.547769 -0.085623553    -4.148341   0.60057192   439061 
 4274000   0.39978862   -4.1474212   -4.1474212   -3.5477396  -0.08452997   -4.1474212   0.59968156   439061 
 4275000    0.3999871   -4.1479426   -4.1479426   -3.5479633 -0.088593895   -4.1479426   0.59997929   439061 
 4276000   0.40015406   -4.1481304   -4.1481304   -3.5479007    -0.085731   -4.1481304   0.60022972   439061 
 4277000    0.4000271   -4.1485097   -4.1485097   -3.5484704 -0.085321773   -4.1485097   0.60003928   439061 
 4278000   0.40043576    -4.148947    -4.148947   -3.5482947 -0.081358492    -4.148947   0.60065227   439061 
 4279000   0.40089207   -4.1494944   -4.1494944   -3.5481576 -0.081552457   -4.1494944   0.60133674   439061 
 4280000   0.40026136   -4.1487213   -4.1487213   -3.5483307 -0.082902341   -4.1487213   0.60039067   439061 
 4281000   0.39999246     -4.14833     -4.14833   -3.5483427 -0.085489171     -4.14833   0.59998733   439061 
 4282000   0.39990512   -4.1477258   -4.1477258   -3.5478695 -0.085970717   -4.1477258   0.59985631   439061 
 4283000   0.39954291   -4.1467745   -4.1467745   -3.5474615 -0.087548133   -4.1467745     0.599313   439061 
 4284000    0.3993591   -4.1467529   -4.1467529   -3.5477157 -0.082633019   -4.1467529   0.59903728   439061 
 4285000   0.40070492   -4.1489672   -4.1489672   -3.5479112 -0.083865422   -4.1489672   0.60105602   439061 
 4286000   0.39999216   -4.1476399   -4.1476399    -3.547653 -0.080550284   -4.1476399   0.59998687   439061 
 4287000   0.40090166   -4.1483379   -4.1483379   -3.5469868 -0.079258066   -4.1483379   0.60135112   439061 
 4288000   0.39978932   -4.1475183   -4.1475183   -3.5478357 -0.080908233   -4.1475183   0.59968261   439061 
 4289000    0.3996369   -4.1473217   -4.1473217   -3.5478677 -0.085660295   -4.1473217   0.59945398   439061 
 4290000   0.39949075   -4.1473316   -4.1473316   -3.5480969 -0.084981863   -4.1473316   0.59923477   439061 
 4291000   0.39981184   -4.1471919   -4.1471919   -3.5474755 -0.086002096   -4.1471919   0.59971639   439061 
 4292000   0.40001699   -4.1470799   -4.1470799   -3.5470558 -0.083204564   -4.1470799   0.60002412   439061 
 4293000   0.39996648   -4.1478316   -4.1478316   -3.5478833 -0.081306304   -4.1478316   0.59994835   439061 
 4294000   0.39983241   -4.1481053   -4.1481053   -3.5483581  -0.08200347   -4.1481053   0.59974725   439061 
 4295000   0.39961787   -4.1481571   -4.1481571   -3.5487317 -0.080788884   -4.1481571   0.59942545   439061 
 4296000   0.39992611   -4.1482041   -4.1482041   -3.5483163 -0.082167645   -4.1482041    0.5998878   439061 
 4297000   0.39947246    -4.147747    -4.147747   -3.5485397 -0.084510419    -4.147747   0.59920732   439061 
 4298000   0.39945013   -4.1473563   -4.1473563   -3.5481825  -0.08307746   -4.1473563   0.59917383   439061 
 4299000   0.40042736   -4.1488488   -4.1488488   -3.5482091 -0.087099114   -4.1488488   0.60063968   439061 
 4300000   0.39940182   -4.1471676   -4.1471676   -3.5480662 -0.082904979   -4.1471676   0.59910136   439061 
 4301000    0.3994728   -4.1479149   -4.1479149    -3.548707 -0.082495373   -4.1479149   0.59920783   439061 
 4302000   0.40014968   -4.1488322   -4.1488322    -3.548609 -0.083531207   -4.1488322   0.60022316   439061 
 4303000   0.39999124   -4.1482306   -4.1482306   -3.5482451 -0.080539794   -4.1482306    0.5999855   439061 
 4304000   0.40004937   -4.1483407   -4.1483407    -3.548268 -0.081566084   -4.1483407   0.60007269   439061 
 4305000   0.39924737   -4.1477256   -4.1477256   -3.5488559   -0.0837189   -4.1477256   0.59886969   439061 
 4306000    0.3997038   -4.1481503   -4.1481503   -3.5485959 -0.086149035   -4.1481503   0.59955434   439061 
 4307000   0.40017176   -4.1483848   -4.1483848   -3.5481285 -0.083987013   -4.1483848   0.60025628   439061 
 4308000   0.39992745    -4.148262    -4.148262   -3.5483722 -0.084352192    -4.148262   0.59988981   439061 
 4309000   0.40015852   -4.1487018   -4.1487018   -3.5484654 -0.082155785   -4.1487018   0.60023641   439061 
 4310000   0.39986852   -4.1480106   -4.1480106   -3.5482091 -0.080494865   -4.1480106   0.59980141   439061 
 4311000   0.39932256   -4.1479361   -4.1479361   -3.5489536 -0.082067916   -4.1479361   0.59898248   439061 
 4312000   0.39982913   -4.1480355   -4.1480355   -3.5482931 -0.085160475   -4.1480355   0.59974233   439061 
 4313000   0.39985732   -4.1477657   -4.1477657   -3.5479811 -0.082444205   -4.1477657   0.59978461   439061 
 4314000   0.39968507   -4.1477378   -4.1477378   -3.5482115 -0.085776532   -4.1477378   0.59952624   439061 
 4315000   0.39968212   -4.1479534   -4.1479534   -3.5484316 -0.083414782   -4.1479534   0.59952182   439061 
 4316000   0.40028585   -4.1490521   -4.1490521   -3.5486247 -0.085138271   -4.1490521    0.6004274   439061 
 4317000   0.39953616   -4.1475079   -4.1475079    -3.548205  -0.08213611   -4.1475079   0.59930287   439061 
 4318000   0.40021851   -4.1486385   -4.1486385   -3.5483121 -0.082314657   -4.1486385   0.60032639   439061 
 4319000   0.39987925   -4.1481463   -4.1481463   -3.5483288 -0.085051055   -4.1481463    0.5998175   439061 
 4320000   0.39960262   -4.1474416   -4.1474416    -3.548039 -0.084106511   -4.1474416   0.59940257   439061 
 4321000   0.39973833   -4.1474223   -4.1474223   -3.5478162 -0.084214322   -4.1474223   0.59960613   439061 
 4322000   0.40006129    -4.148075    -4.148075   -3.5479845 -0.086196173    -4.148075   0.60009056   439061 
 4323000   0.40027602   -4.1482337   -4.1482337   -3.5478211 -0.083042675   -4.1482337   0.60041266   439061 
 4324000   0.39969288   -4.1477633   -4.1477633   -3.5482253 -0.081023704   -4.1477633   0.59953795   439061 
 4325000   0.40039731   -4.1480868   -4.1480868   -3.5474922  -0.08150776   -4.1480868    0.6005946   439061 
 4326000   0.40032935   -4.1476781   -4.1476781   -3.5471854 -0.079859525   -4.1476781   0.60049266   439061 
 4327000    0.3998798   -4.1475993   -4.1475993    -3.547781 -0.084151764   -4.1475993   0.59981833   439061 
 4328000     0.399849   -4.1469417   -4.1469417   -3.5471695 -0.083798292   -4.1469417   0.59977213   439061 
 4329000   0.40010266   -4.1469718   -4.1469718   -3.5468191 -0.083608979   -4.1469718   0.60015262   439061 
 4330000   0.39971837   -4.1473556   -4.1473556   -3.5477794 -0.083190323   -4.1473556   0.59957619   439061 
 4331000   0.40021564   -4.1478327   -4.1478327   -3.5475106 -0.083877445   -4.1478327   0.60032209   439061 
 4332000   0.40083631   -4.1485492   -4.1485492   -3.5472961 -0.079394282   -4.1485492    0.6012531   439061 
 4333000   0.40045989   -4.1479805   -4.1479805    -3.547292 -0.081167318   -4.1479805   0.60068846   439061 
 4334000   0.40024719   -4.1477403   -4.1477403   -3.5473709 -0.083005017   -4.1477403   0.60036942   439061 
 4335000   0.40118583   -4.1487633   -4.1487633   -3.5469859  -0.08470853   -4.1487633   0.60177738   439061 
 4336000   0.39942749   -4.1466005   -4.1466005   -3.5474607 -0.084480625   -4.1466005   0.59913988   439061 
 4337000    0.4000782   -4.1471018   -4.1471018   -3.5469859 -0.084181659   -4.1471018   0.60011593   439061 
 4338000   0.40028517   -4.1475161   -4.1475161   -3.5470897 -0.082765423   -4.1475161   0.60042639   439061 
 4339000   0.40002153   -4.1475319   -4.1475319    -3.547501 -0.082172529   -4.1475319   0.60003093   439061 
 4340000   0.40031841   -4.1477207   -4.1477207   -3.5472445 -0.080494465   -4.1477207   0.60047625   439061 
 4341000   0.40091969   -4.1486981   -4.1486981   -3.5473199 -0.081680499   -4.1486981   0.60137817   439061 
 4342000   0.40035847   -4.1477658   -4.1477658   -3.5472295 -0.083024658   -4.1477658   0.60053633   439061 
 4343000   0.39962494   -4.1473995   -4.1473995   -3.5479635  -0.08367253   -4.1473995   0.59943604   439061 
 4344000   0.39966703   -4.1476937   -4.1476937   -3.5481945 -0.086385239   -4.1476937   0.59949918   439061 
 4345000    0.3998599   -4.1473867   -4.1473867   -3.5475982 -0.085995133   -4.1473867   0.59978849   439061 
 4346000   0.40044758   -4.1487563   -4.1487563   -3.5480863 -0.084339242   -4.1487563      0.60067   439061 
 4347000   0.39986524   -4.1480238   -4.1480238   -3.5482273 -0.079872763   -4.1480238    0.5997965   439061 
 4348000   0.40029591   -4.1486185   -4.1486185    -3.548176 -0.082293022   -4.1486185    0.6004425   439061 
 4349000   0.40105086   -4.1494346   -4.1494346   -3.5478597 -0.082693121   -4.1494346   0.60157492   439061 
 4350000   0.39943838    -4.147176    -4.147176   -3.5480198 -0.081950204    -4.147176    0.5991562   439061 
 4351000   0.39948844   -4.1475962   -4.1475962   -3.5483649 -0.085362878   -4.1475962    0.5992313   439061 
 4352000     0.400045   -4.1489396   -4.1489396   -3.5488734 -0.089061817   -4.1489396   0.60006613   439061 
 4353000   0.39973358   -4.1488009   -4.1488009   -3.5492019 -0.087514385   -4.1488009     0.599599   439061 
 4354000   0.39966757   -4.1480656   -4.1480656   -3.5485656 -0.080293175   -4.1480656       0.5995   439061 
 4355000   0.40044237   -4.1490339   -4.1490339   -3.5483717 -0.079801506   -4.1490339   0.60066219   439061 
 4356000   0.40019068   -4.1486222   -4.1486222   -3.5483375 -0.078031475   -4.1486222   0.60028466   439061 
 4357000   0.40089121   -4.1494147   -4.1494147   -3.5480793 -0.083555782   -4.1494147   0.60133544   439061 
 4358000   0.39987035   -4.1472265   -4.1472265   -3.5474224 -0.083426705   -4.1472265   0.59980416   439061 
 4359000   0.40025513   -4.1478451   -4.1478451   -3.5474638 -0.088211464   -4.1478451   0.60038133   439061 
 4360000   0.39916438   -4.1466971   -4.1466971   -3.5479519 -0.086781728   -4.1466971   0.59874521   439061 
 4361000   0.39951531   -4.1476075   -4.1476075   -3.5483358 -0.085679699   -4.1476075    0.5992716   439061 
 4362000   0.40011644    -4.148439    -4.148439   -3.5482657 -0.082874978    -4.148439   0.60017329   439061 
 4363000   0.40053309   -4.1482963   -4.1482963    -3.547498 -0.079008711   -4.1482963   0.60079827   439061 
 4364000   0.40069995   -4.1496468   -4.1496468   -3.5485982 -0.079702133   -4.1496468   0.60104856   439061 
 4365000   0.39926498   -4.1479749   -4.1479749   -3.5490788 -0.079168451   -4.1479749    0.5988961   439061 
 4366000   0.39969308   -4.1490622   -4.1490622   -3.5495239 -0.088036763   -4.1490622   0.59953826   439061 
 4367000   0.39952162   -4.1476048   -4.1476048   -3.5483237 -0.084712712   -4.1476048   0.59928106   439061 
 4368000   0.40005705   -4.1473142   -4.1473142     -3.54723 -0.087291385   -4.1473142   0.60008422   439061 
 4369000   0.40012065   -4.1470138   -4.1470138   -3.5468342 -0.085519361   -4.1470138   0.60017961   439061 
 4370000   0.40034266   -4.1477376   -4.1477376   -3.5472249 -0.082715894   -4.1477376   0.60051263   439061 
 4371000   0.40076571   -4.1481192   -4.1481192    -3.546972 -0.081186749   -4.1481192    0.6011472   439061 
 4372000   0.40089993   -4.1478751   -4.1478751   -3.5465265 -0.079263931   -4.1478751   0.60134853   439061 
 4373000   0.40036997   -4.1477093   -4.1477093   -3.5471557 -0.082337831   -4.1477093   0.60055358   439061 
 4374000   0.40083862   -4.1483432   -4.1483432   -3.5470866 -0.083425493   -4.1483432   0.60125656   439061 
 4375000   0.40034667   -4.1476002   -4.1476002   -3.5470815 -0.084929551   -4.1476002   0.60051864   439061 
 4376000   0.39925073   -4.1464123   -4.1464123   -3.5475375 -0.082522065   -4.1464123   0.59887473   439061 
 4377000   0.40039002   -4.1481159   -4.1481159   -3.5475322 -0.084450783   -4.1481159   0.60058366   439061 
 4378000   0.40082072     -4.14887     -4.14887   -3.5476403 -0.083365749     -4.14887   0.60122971   439061 
 4379000   0.40026212   -4.1483943   -4.1483943   -3.5480025 -0.081203398   -4.1483943   0.60039182   439061 
 4380000   0.40043574   -4.1492964   -4.1492964   -3.5486442 -0.082834375   -4.1492964   0.60065224   439061 
 4381000   0.39968908   -4.1484778   -4.1484778   -3.5489455 -0.083207488   -4.1484778   0.59953225   439061 
 4382000   0.40021008    -4.149467    -4.149467   -3.5491532 -0.086147578    -4.149467   0.60031375   439061 
 4383000   0.39976877   -4.1478214   -4.1478214   -3.5481696 -0.082461711   -4.1478214   0.59965178   439061 
 4384000   0.40045946   -4.1485166   -4.1485166   -3.5478288 -0.084917158   -4.1485166   0.60068782   439061 
 4385000   0.40009969   -4.1475513   -4.1475513   -3.5474031 -0.082700171   -4.1475513   0.60014817   439061 
 4386000   0.40063206   -4.1490145   -4.1490145   -3.5480678 -0.085064044   -4.1490145   0.60094672   439061 
 4387000   0.40039324   -4.1482325   -4.1482325    -3.547644    -0.082997   -4.1482325   0.60058848   439061 
 4388000   0.40041526   -4.1486388   -4.1486388   -3.5480173  -0.08481896   -4.1486388   0.60062152   439061 
 4389000   0.40045578   -4.1485053   -4.1485053    -3.547823 -0.082362674   -4.1485053    0.6006823   439061 
 4390000   0.40021568   -4.1479636   -4.1479636   -3.5476414 -0.082658286   -4.1479636   0.60032216   439061 
 4391000   0.40028594   -4.1480858   -4.1480858   -3.5476583 -0.086358646   -4.1480858   0.60042755   439061 
 4392000    0.4002272   -4.1483314   -4.1483314   -3.5479919 -0.087236915   -4.1483314   0.60033944   439061 
 4393000   0.39994406   -4.1478479   -4.1478479   -3.5479332 -0.084248547   -4.1478479   0.59991472   439061 
 4394000   0.40024282   -4.1482563   -4.1482563   -3.5478934 -0.084012135   -4.1482563   0.60036286   439061 
 4395000   0.40087981   -4.1487857   -4.1487857   -3.5474673 -0.083323428   -4.1487857   0.60131835   439061 
 4396000   0.39979358    -4.147602    -4.147602    -3.547913 -0.081295447    -4.147602     0.599689   439061 
 4397000   0.39936094   -4.1477971   -4.1477971    -3.548757 -0.083454236   -4.1477971   0.59904005   439061 
 4398000   0.39964469   -4.1482086   -4.1482086   -3.5487429 -0.083476302   -4.1482086   0.59946566   439061 
 4399000   0.39938184   -4.1482714   -4.1482714      -3.5492 -0.083640324   -4.1482714    0.5990714   439061 
 4400000   0.39993565   -4.1485155   -4.1485155   -3.5486133 -0.085574947   -4.1485155   0.59990211   439061 
 4401000   0.39985439   -4.1482112   -4.1482112    -3.548431 -0.082232387   -4.1482112   0.59978022   439061 
 4402000   0.40026857   -4.1483014   -4.1483014   -3.5478999 -0.081522203   -4.1483014   0.60040148   439061 
 4403000    0.3994847   -4.1472315   -4.1472315   -3.5480058 -0.081301739   -4.1472315   0.59922569   439061 
 4404000   0.39927441   -4.1471213   -4.1471213   -3.5482111 -0.083657819   -4.1471213   0.59891026   439061 
 4405000   0.39959817   -4.1478675   -4.1478675   -3.5484716 -0.083698897   -4.1478675   0.59939589   439061 
 4406000   0.40005596   -4.1484758   -4.1484758   -3.5483932 -0.085140653   -4.1484758   0.60008257   439061 
 4407000   0.39927091   -4.1481435   -4.1481435   -3.5492384 -0.083240054   -4.1481435   0.59890501   439061 
 4408000   0.39974077   -4.1486529   -4.1486529   -3.5490431 -0.083020396   -4.1486529   0.59960978   439061 
 4409000   0.39921594   -4.1482635   -4.1482635   -3.5494409 -0.083271729   -4.1482635   0.59882255   439061 
 4410000   0.39862957   -4.1475519   -4.1475519   -3.5496089 -0.081662687   -4.1475519   0.59794299   439061 
 4411000   0.39965815   -4.1482971   -4.1482971   -3.5488113 -0.082493378   -4.1482971   0.59948587   439061 
 4412000   0.39952678   -4.1482758   -4.1482758    -3.548987 -0.083118507   -4.1482758    0.5992888   439061 
 4413000   0.39972168   -4.1486556   -4.1486556   -3.5490744 -0.085181816   -4.1486556   0.59958116   439061 
 4414000   0.40007516   -4.1488419   -4.1488419   -3.5487306 -0.085958058   -4.1488419   0.60011137   439061 
 4415000   0.39944238   -4.1477207   -4.1477207   -3.5485585  -0.08405018   -4.1477207    0.5991622   439061 
 4416000   0.39941276   -4.1483976   -4.1483976   -3.5492798 -0.083544325   -4.1483976   0.59911778   439061 
 4417000   0.39938514   -4.1483856   -4.1483856   -3.5493093 -0.084330934   -4.1483856   0.59907634   439061 
 4418000   0.39918134   -4.1488251   -4.1488251   -3.5500545 -0.084777834   -4.1488251   0.59877064   439061 
 4419000   0.39943906   -4.1497299   -4.1497299   -3.5505727 -0.083950429   -4.1497299   0.59915722   439061 
 4420000   0.39931881   -4.1492283   -4.1492283   -3.5502514 -0.084126061   -4.1492283   0.59897685   439061 
 4421000   0.39958783   -4.1492166   -4.1492166   -3.5498363 -0.083270721   -4.1492166   0.59938037   439061 
 4422000    0.3994286    -4.148406    -4.148406   -3.5492645 -0.081599734    -4.148406   0.59914153   439061 
 4423000   0.39968368   -4.1487019   -4.1487019   -3.5491777 -0.086863203   -4.1487019   0.59952415   439061 
 4424000   0.39936469   -4.1480893   -4.1480893   -3.5490437 -0.085073131   -4.1480893   0.59904567   439061 
 4425000   0.39930837   -4.1485244   -4.1485244   -3.5495632 -0.086694759   -4.1485244   0.59896119   439061 
 4426000   0.39922632   -4.1480166   -4.1480166   -3.5491784 -0.082811746   -4.1480166   0.59883812   439061 
 4427000   0.40049559   -4.1498359   -4.1498359   -3.5490939 -0.083643439   -4.1498359   0.60074202   439061 
 4428000   0.39977412   -4.1487946   -4.1487946   -3.5491348 -0.081474166   -4.1487946   0.59965982   439061 
 4429000   0.39956579   -4.1493147   -4.1493147   -3.5499674 -0.084752326   -4.1493147   0.59934731   439061 
 4430000   0.39952842   -4.1489186   -4.1489186   -3.5496273  -0.08439678   -4.1489186   0.59929126   439061 
 4431000   0.39935943   -4.1489652   -4.1489652   -3.5499274 -0.085188225   -4.1489652   0.59903778   439061 
 4432000   0.39909757   -4.1484841   -4.1484841   -3.5498392 -0.085886656   -4.1484841   0.59864499   439061 
 4433000   0.39981385   -4.1486426   -4.1486426   -3.5489232 -0.084105066   -4.1486426   0.59971942   439061 
 4434000   0.39983906   -4.1493408   -4.1493408   -3.5495836 -0.085175551   -4.1493408   0.59975722   439061 
 4435000   0.39925149   -4.1482536   -4.1482536   -3.5493778 -0.082541836   -4.1482536   0.59887587   439061 
 4436000   0.39994211   -4.1489662   -4.1489662   -3.5490544 -0.083533821   -4.1489662   0.59991179   439061 
 4437000   0.39979519   -4.1488216   -4.1488216   -3.5491302 -0.085369938   -4.1488216   0.59969143   439061 
 4438000   0.39991216   -4.1492694   -4.1492694   -3.5494025 -0.085813856   -4.1492694   0.59986687   439061 
 4439000   0.39971408   -4.1485919   -4.1485919   -3.5490222 -0.085553363   -4.1485919   0.59956976   439061 
 4440000   0.39933503   -4.1477392   -4.1477392    -3.548738 -0.082163964   -4.1477392   0.59900118   439061 
 4441000   0.39890334   -4.1477923   -4.1477923   -3.5494386  -0.08368675   -4.1477923   0.59835365   439061 
 4442000   0.39995958   -4.1498831   -4.1498831   -3.5499451 -0.084725902   -4.1498831   0.59993801   439061 
 4443000   0.39885182   -4.1484631   -4.1484631   -3.5501867 -0.083407649   -4.1484631   0.59827637   439061 
 4444000    0.3989163   -4.1489185   -4.1489185   -3.5505454 -0.084003075   -4.1489185   0.59837309   439061 
 4445000   0.39990917   -4.1499515   -4.1499515   -3.5500891 -0.084621102   -4.1499515   0.59986238   439061 
 4446000   0.39948781   -4.1488656   -4.1488656   -3.5496352 -0.083885006   -4.1488656   0.59923035   439061 
 4447000   0.39926499   -4.1482325   -4.1482325   -3.5493364 -0.082577524   -4.1482325   0.59889612   439061 
 4448000   0.39994077   -4.1483696   -4.1483696   -3.5484598 -0.084578262   -4.1483696   0.59990979   439061 
 4449000   0.39934439   -4.1471578   -4.1471578   -3.5481426 -0.083981963   -4.1471578   0.59901522   439061 
 4450000   0.39883255   -4.1468458   -4.1468458   -3.5485984 -0.083712901   -4.1468458   0.59824746   439061 
 4451000   0.39967301   -4.1486199   -4.1486199   -3.5491117 -0.085651695   -4.1486199   0.59950815   439061 
 4452000   0.39944223   -4.1487029   -4.1487029   -3.5495409 -0.085207209   -4.1487029   0.59916197   439061 
 4453000   0.39987848   -4.1496612   -4.1496612   -3.5498449  -0.08194991   -4.1496612   0.59981635   439061 
 4454000   0.39969166   -4.1491576   -4.1491576   -3.5496214 -0.081848464   -4.1491576   0.59953613   439061 
 4455000   0.40027895   -4.1492861   -4.1492861   -3.5488691 -0.080915853   -4.1492861   0.60041706   439061 
 4456000   0.40016747   -4.1482534   -4.1482534   -3.5480036 -0.083993831   -4.1482534   0.60024984   439061 
 4457000   0.39941332   -4.1481197   -4.1481197   -3.5490011 -0.087945647   -4.1481197   0.59911861   439061 
 4458000   0.39902817   -4.1474966   -4.1474966   -3.5489557 -0.086079122   -4.1474966   0.59854089   439061 
 4459000   0.39942836   -4.1482989   -4.1482989   -3.5491577 -0.086487697   -4.1482989   0.59914117   439061 
 4460000   0.40000479   -4.1491173   -4.1491173   -3.5491115 -0.084324394   -4.1491173   0.60000582   439061 
 4461000   0.39983437   -4.1489684   -4.1489684   -3.5492182  -0.07924901   -4.1489684   0.59975019   439061 
 4462000    0.3997193   -4.1485837   -4.1485837   -3.5490062 -0.081052002   -4.1485837   0.59957758   439061 
 4463000   0.39948383    -4.148614    -4.148614   -3.5493896 -0.080945738    -4.148614   0.59922438   439061 
 4464000   0.39927737   -4.1480755   -4.1480755   -3.5491608  -0.08504873   -4.1480755   0.59891469   439061 
 4465000    0.3996501   -4.1482377   -4.1482377   -3.5487639  -0.08792444   -4.1482377   0.59947379   439061 
 4466000   0.39901766   -4.1469362   -4.1469362   -3.5484111 -0.085337945   -4.1469362   0.59852513   439061 
 4467000   0.39922029   -4.1483164   -4.1483164   -3.5494873  -0.08781556   -4.1483164   0.59882907   439061 
 4468000    0.4002141   -4.1489371   -4.1489371   -3.5486173 -0.084453087   -4.1489371   0.60031979   439061 
 4469000   0.39961902     -4.14779     -4.14779   -3.5483628 -0.079703444     -4.14779   0.59942717   439061 
 4470000   0.40003115   -4.1487243   -4.1487243    -3.548679 -0.079980598   -4.1487243   0.60004536   439061 
 4471000   0.39929817   -4.1477109   -4.1477109    -3.548765  -0.08080772   -4.1477109   0.59894589   439061 
 4472000    0.3994662   -4.1483269   -4.1483269    -3.549129 -0.086459647   -4.1483269   0.59919794   439061 
 4473000   0.39941626   -4.1479815   -4.1479815   -3.5488585 -0.087589636   -4.1479815   0.59912303   439061 
 4474000   0.39881252   -4.1470573   -4.1470573   -3.5488398 -0.085700953   -4.1470573   0.59821742   439061 
 4475000   0.39956694   -4.1486966   -4.1486966   -3.5493476 -0.085968535   -4.1486966   0.59934904   439061 
 4476000   0.39923489   -4.1484197   -4.1484197   -3.5495687 -0.083858854   -4.1484197   0.59885098   439061 
 4477000   0.40026775    -4.149696    -4.149696   -3.5492957 -0.084616824    -4.149696   0.60040026   439061 
 4478000   0.40000136   -4.1485221   -4.1485221   -3.5485215 -0.079568827   -4.1485221   0.60000067   439061 
 4479000   0.40006957   -4.1485398   -4.1485398   -3.5484368 -0.082553198   -4.1485398   0.60010299   439061 
 4480000   0.39971778   -4.1484568   -4.1484568   -3.5488815 -0.085326742   -4.1484568   0.59957531   439061 
 4481000    0.4000232   -4.1489878   -4.1489878   -3.5489543 -0.086647756   -4.1489878   0.60003343   439061 
 4482000   0.39972657   -4.1482829   -4.1482829   -3.5486944 -0.088428369   -4.1482829   0.59958849   439061 
 4483000   0.39972376   -4.1477144   -4.1477144   -3.5481301 -0.083790665   -4.1477144   0.59958428   439061 
 4484000   0.40057237   -4.1483896   -4.1483896   -3.5475324 -0.082695618   -4.1483896   0.60085719   439061 
 4485000   0.40007157   -4.1485329   -4.1485329   -3.5484269 -0.082031455   -4.1485329   0.60010598   439061 
 4486000   0.40001559   -4.1481646   -4.1481646   -3.5481425 -0.080293753   -4.1481646   0.60002201   439061 
 4487000   0.40039659   -4.1489031   -4.1489031   -3.5483096 -0.085125837   -4.1489031   0.60059351   439061 
 4488000   0.39978734   -4.1470339   -4.1470339   -3.5473542 -0.081722536   -4.1470339   0.59967965   439061 
 4489000   0.40067593   -4.1493313   -4.1493313   -3.5483187 -0.088878804   -4.1493313   0.60101253   439061 
 4490000   0.40051504   -4.1489196   -4.1489196   -3.5481484 -0.089681444   -4.1489196    0.6007712   439061 
 4491000   0.40000847   -4.1479384   -4.1479384   -3.5479271 -0.084240772   -4.1479384   0.60001133   439061 
 4492000   0.40000559   -4.1472012   -4.1472012   -3.5471942 -0.078773167   -4.1472012   0.60000702   439061 
 4493000   0.40026564   -4.1482192   -4.1482192   -3.5478221 -0.079980604   -4.1482192    0.6003971   439061 
 4494000   0.39999572   -4.1489661   -4.1489661   -3.5489739 -0.084763038   -4.1489661   0.59999222   439061 
 4495000   0.39929492   -4.1483418   -4.1483418   -3.5494008 -0.083567567   -4.1483418   0.59894102   439061 
 4496000   0.39909108    -4.147739    -4.147739   -3.5491037 -0.083824753    -4.147739   0.59863525   439061 
 4497000   0.39993619   -4.1489286   -4.1489286   -3.5490257 -0.086675129   -4.1489286   0.59990292   439061 
 4498000   0.39912824   -4.1472289   -4.1472289   -3.5485379 -0.082342925   -4.1472289   0.59869099   439061 
 4499000   0.40019395   -4.1485928   -4.1485928   -3.5483032  -0.08380051   -4.1485928   0.60028956   439061 
 4500000   0.39988924   -4.1480916   -4.1480916   -3.5482592 -0.080790651   -4.1480916   0.59983249   439061 
 4501000   0.39958815   -4.1475078   -4.1475078   -3.5481269 -0.080635351   -4.1475078   0.59938086   439061 
 4502000   0.39988355   -4.1484102   -4.1484102   -3.5485863 -0.084452566   -4.1484102   0.59982396   439061 
 4503000   0.39954027   -4.1474915   -4.1474915   -3.5481824 -0.083783701   -4.1474915   0.59930904   439061 
 4504000   0.40006419   -4.1480514   -4.1480514   -3.5479565 -0.084282904   -4.1480514   0.60009491   439061 
 4505000   0.39971275   -4.1475011   -4.1475011   -3.5479333  -0.08127811   -4.1475011   0.59956776   439061 
 4506000   0.39981208   -4.1476193   -4.1476193   -3.5479025 -0.083790583   -4.1476193   0.59971676   439061 
 4507000   0.40043244   -4.1481844   -4.1481844   -3.5475371 -0.084712242   -4.1481844   0.60064729   439061 
 4508000   0.39943487   -4.1468292   -4.1468292   -3.5476783  -0.08094985   -4.1468292   0.59915093   439061 
 4509000   0.40065657   -4.1489265   -4.1489265    -3.547943  -0.08529682   -4.1489265   0.60098348   439061 
 4510000   0.40029909   -4.1490746   -4.1490746   -3.5486274 -0.084631905   -4.1490746   0.60044726   439061 
 4511000   0.40062318   -4.1493077   -4.1493077   -3.5483743 -0.086498875   -4.1493077    0.6009334   439061 
 4512000   0.39950337   -4.1480194   -4.1480194   -3.5487658 -0.083095001   -4.1480194   0.59925369   439061 
 4513000   0.39962338   -4.1479692   -4.1479692   -3.5485355 -0.084515517   -4.1479692   0.59943371   439061 
 4514000     0.399916   -4.1489082   -4.1489082   -3.5490355 -0.086214482   -4.1489082   0.59987264   439061 
 4515000   0.39932266   -4.1479414   -4.1479414   -3.5489588 -0.083511557   -4.1479414   0.59898263   439061 
 4516000   0.39896087   -4.1474615   -4.1474615   -3.5490216 -0.083322809   -4.1474615   0.59843994   439061 
 4517000   0.39915337   -4.1480632   -4.1480632   -3.5493345 -0.082375025   -4.1480632   0.59872869   439061 
 4518000    0.3993309   -4.1475589   -4.1475589   -3.5485639 -0.082254337   -4.1475589   0.59899499   439061 
 4519000   0.40045424   -4.1494006   -4.1494006   -3.5487207 -0.085558699   -4.1494006   0.60067999   439061 
 4520000   0.40025608   -4.1489902   -4.1489902   -3.5486075 -0.086211088   -4.1489902   0.60038275   439061 
 4521000   0.39968702   -4.1481871   -4.1481871    -3.548658  -0.08654792   -4.1481871   0.59952916   439061 
 4522000   0.39940056   -4.1481057   -4.1481057   -3.5490062 -0.085560795   -4.1481057   0.59909947   439061 
 4523000   0.40037023    -4.148231    -4.148231    -3.547677 -0.085083256    -4.148231   0.60055397   439061 
 4524000   0.40039473   -4.1490679   -4.1490679   -3.5484771 -0.084617515   -4.1490679   0.60059073   439061 
 4525000   0.39998948   -4.1485459   -4.1485459   -3.5485631  -0.08217037   -4.1485459   0.59998285   439061 
 4526000   0.39940984   -4.1473004   -4.1473004    -3.548187 -0.082932841   -4.1473004   0.59911339   439061 
 4527000   0.39963362   -4.1486906   -4.1486906   -3.5492416 -0.084992399   -4.1486906   0.59944906   439061 
 4528000   0.39961315   -4.1477548   -4.1477548   -3.5483364 -0.083667694   -4.1477548   0.59941836   439061 
 4529000   0.39924086   -4.1473269   -4.1473269    -3.548467 -0.083705511   -4.1473269   0.59885993   439061 
 4530000   0.39965689   -4.1480644   -4.1480644   -3.5485804 -0.084406024   -4.1480644   0.59948397   439061 
 4531000   0.39981868    -4.148502    -4.148502   -3.5487753 -0.084082688    -4.148502   0.59972666   439061 
 4532000   0.39957163   -4.1481621   -4.1481621   -3.5488061 -0.083262059   -4.1481621   0.59935608   439061 
 4533000   0.39952995   -4.1479744   -4.1479744   -3.5486808 -0.080185742   -4.1479744   0.59929356   439061 
 4534000   0.39976736   -4.1480786   -4.1480786   -3.5484289 -0.083479582   -4.1480786   0.59964967   439061 
 4535000   0.39905387   -4.1479914   -4.1479914    -3.549412 -0.085825359   -4.1479914   0.59857944   439061 
 4536000   0.39993319   -4.1488397   -4.1488397   -3.5489413 -0.086825947   -4.1488397   0.59989842   439061 
 4537000   0.39938618   -4.1467755   -4.1467755   -3.5476976 -0.078556147   -4.1467755   0.59907791   439061 
 4538000    0.4002195   -4.1479611   -4.1479611   -3.5476332 -0.080831796   -4.1479611   0.60032788   439061 
 4539000   0.40012542   -4.1479907   -4.1479907    -3.547804 -0.083684084   -4.1479907   0.60018677   439061 
 4540000   0.39984835    -4.147819    -4.147819   -3.5480479 -0.084405907    -4.147819   0.59977116   439061 
 4541000    0.3999147   -4.1474472   -4.1474472   -3.5475765 -0.085786117   -4.1474472   0.59987068   439061 
 4542000   0.39976808   -4.1469284   -4.1469284   -3.5472777 -0.085851647   -4.1469284   0.59965075   439061 
 4543000   0.39988643   -4.1475347   -4.1475347   -3.5477064 -0.083013244   -4.1475347   0.59982827   439061 
 4544000   0.39963596   -4.1467818   -4.1467818   -3.5473292 -0.080775414   -4.1467818   0.59945257   439061 
 4545000   0.40018846   -4.1477604   -4.1477604   -3.5474791 -0.082179601   -4.1477604   0.60028133   439061 
 4546000   0.40010642   -4.1476453   -4.1476453   -3.5474871 -0.083616565   -4.1476453   0.60015826   439061 
 4547000   0.40057109   -4.1475656   -4.1475656   -3.5467103 -0.082634118   -4.1475656   0.60085527   439061 
 4548000   0.39950625   -4.1458028   -4.1458028   -3.5465448 -0.080881358   -4.1458028   0.59925801   439061 
 4549000    0.3999434   -4.1468837   -4.1468837   -3.5469699  -0.08466491   -4.1468837   0.59991374   439061 
 4550000   0.39990029   -4.1462828   -4.1462828   -3.5464337 -0.082344536   -4.1462828   0.59984907   439061 
 4551000   0.40081364   -4.1472279   -4.1472279   -3.5460088 -0.084499575   -4.1472279   0.60121908   439061 
 4552000   0.40037979    -4.146403    -4.146403   -3.5458347 -0.083495295    -4.146403   0.60056831   439061 
 4553000   0.40005957   -4.1464111   -4.1464111   -3.5463232 -0.081785235   -4.1464111   0.60008798   439061 
 4554000   0.40033176   -4.1471133   -4.1471133    -3.546617 -0.084044208   -4.1471133   0.60049627   439061 
 4555000   0.40028261   -4.1469943   -4.1469943   -3.5465717 -0.080283844   -4.1469943   0.60042255   439061 
 4556000    0.4005651   -4.1477675   -4.1477675   -3.5469212 -0.083640938   -4.1477675   0.60084628   439061 
 4557000   0.40067419    -4.147734    -4.147734    -3.546724 -0.085258962    -4.147734   0.60100991   439061 
 4558000   0.40038475   -4.1466479   -4.1466479   -3.5460722 -0.082816854   -4.1466479   0.60057575   439061 
 4559000   0.39950783   -4.1456813   -4.1456813   -3.5464209 -0.082665409   -4.1456813   0.59926038   439061 
 4560000   0.39940799   -4.1458043   -4.1458043   -3.5466937 -0.082795363   -4.1458043   0.59911062   439061 
 4561000   0.40048346   -4.1482648   -4.1482648    -3.547541 -0.085557992   -4.1482648   0.60072382   439061 
 4562000   0.40034797   -4.1477938   -4.1477938   -3.5472732 -0.083867049   -4.1477938   0.60052059   439061 
 4563000    0.3998139   -4.1472568   -4.1472568   -3.5475374 -0.080423003   -4.1472568   0.59971948   439061 
 4564000   0.40007237   -4.1484358   -4.1484358   -3.5483286 -0.082909205   -4.1484358   0.60010719   439061 
 4565000   0.40012535    -4.148642    -4.148642   -3.5484553 -0.086038362    -4.148642   0.60018667   439061 
 4566000    0.3994546   -4.1480773   -4.1480773   -3.5488967 -0.085284756   -4.1480773   0.59918053   439061 
 4567000    0.3990035   -4.1463952   -4.1463952   -3.5478913 -0.083657262   -4.1463952   0.59850388   439061 
 4568000   0.39871495   -4.1463431   -4.1463431    -3.548272 -0.083394666   -4.1463431   0.59807107   439061 
 4569000   0.39951373   -4.1467471   -4.1467471   -3.5474779  -0.08153387   -4.1467471   0.59926923   439061 
 4570000   0.39957205   -4.1470712   -4.1470712   -3.5477145 -0.080315976   -4.1470712   0.59935672   439061 
 4571000   0.40049572   -4.1482208   -4.1482208   -3.5474786 -0.082784638   -4.1482208   0.60074221   439061 
 4572000   0.40046566   -4.1489079   -4.1489079   -3.5482107 -0.085711013   -4.1489079   0.60069713   439061 
 4573000   0.39882444   -4.1475007   -4.1475007   -3.5492654 -0.081973831   -4.1475007    0.5982353   439061 
 4574000   0.39886508   -4.1474073   -4.1474073   -3.5491111  -0.08543778   -4.1474073   0.59829626   439061 
 4575000   0.40001614   -4.1486358   -4.1486358    -3.548613 -0.085626113   -4.1486358   0.60002284   439061 
 4576000   0.39936845   -4.1478512   -4.1478512   -3.5487999 -0.082503872   -4.1478512    0.5990513   439061 
 4577000   0.39976044   -4.1470304   -4.1470304   -3.5473911 -0.081368138   -4.1470304    0.5996393   439061 
 4578000    0.4001139   -4.1482994   -4.1482994   -3.5481299 -0.084109259   -4.1482994   0.60016948   439061 
 4579000   0.39918524   -4.1472418   -4.1472418   -3.5484653 -0.083517449   -4.1472418    0.5987765   439061 
 4580000   0.39903872   -4.1471471   -4.1471471   -3.5485904 -0.085579609   -4.1471471   0.59855671   439061 
 4581000   0.39948829   -4.1472296   -4.1472296   -3.5479986 -0.081852089   -4.1472296   0.59923106   439061 
 4582000   0.39957472   -4.1472792   -4.1472792   -3.5479185 -0.082752284   -4.1472792   0.59936072   439061 
 4583000   0.40029607   -4.1487006   -4.1487006   -3.5482578 -0.085339117   -4.1487006   0.60044274   439061 
 4584000   0.40046447   -4.1481756   -4.1481756   -3.5474803 -0.083122326   -4.1481756   0.60069533   439061 
 4585000   0.40048879   -4.1475111   -4.1475111   -3.5467793 -0.083201524   -4.1475111   0.60073182   439061 
 4586000   0.39961442   -4.1463117   -4.1463117   -3.5468914 -0.082810512   -4.1463117   0.59942026   439061 
 4587000     0.399379   -4.1463129   -4.1463129   -3.5472457 -0.084401769   -4.1463129   0.59906714   439061 
 4588000   0.40003663   -4.1466107   -4.1466107   -3.5465571  -0.08499131   -4.1466107   0.60005358   439061 
 4589000   0.39961935   -4.1465915   -4.1465915   -3.5471639 -0.084739173   -4.1465915   0.59942765   439061 
 4590000   0.39972871   -4.1471887   -4.1471887    -3.547597 -0.083938488   -4.1471887    0.5995917   439061 
 4591000    0.4001635   -4.1472659   -4.1472659    -3.547022 -0.080932918   -4.1472659   0.60024388   439061 
 4592000   0.39997243   -4.1475606   -4.1475606   -3.5476033 -0.081548858   -4.1475606   0.59995727   439061 
 4593000   0.39956696   -4.1473755   -4.1473755   -3.5480264 -0.081678441   -4.1473755   0.59934908   439061 
 4594000   0.39953904   -4.1471545   -4.1471545   -3.5478473 -0.081153843   -4.1471545   0.59930719   439061 
 4595000   0.39964836   -4.1472959   -4.1472959   -3.5478247 -0.086044549   -4.1472959   0.59947118   439061 
 4596000   0.39988519   -4.1479717   -4.1479717   -3.5481453 -0.085865717   -4.1479717   0.59982642   439061 
 4597000   0.39954784   -4.1468312   -4.1468312   -3.5475108 -0.083119889   -4.1468312   0.59932039   439061 
 4598000    0.3998839   -4.1475177   -4.1475177   -3.5476932 -0.083178458   -4.1475177   0.59982448   439061 
 4599000   0.40024938   -4.1482937   -4.1482937    -3.547921 -0.085226937   -4.1482937    0.6003727   439061 
 4600000    0.4000373   -4.1480716   -4.1480716    -3.548017  -0.08279524   -4.1480716   0.60005458   439061 
 4601000   0.39925804   -4.1469979   -4.1469979   -3.5481122 -0.081189536   -4.1469979    0.5988857   439061 
 4602000   0.39968091   -4.1478958   -4.1478958   -3.5483758 -0.084787805   -4.1478958      0.59952   439061 
 4603000   0.39926217   -4.1472579   -4.1472579    -3.548366 -0.081844954   -4.1472579   0.59889189   439061 
 4604000      0.40033   -4.1483986   -4.1483986    -3.547905 -0.086975796   -4.1483986   0.60049363   439061 
 4605000   0.40011705   -4.1485344   -4.1485344   -3.5483602 -0.085689502   -4.1485344    0.6001742   439061 
 4606000   0.39961319   -4.1471925   -4.1471925   -3.5477741 -0.082742498   -4.1471925   0.59941842   439061 
 4607000   0.39974621   -4.1475293   -4.1475293   -3.5479114 -0.085502164   -4.1475293   0.59961795   439061 
 4608000   0.39990434   -4.1471554   -4.1471554   -3.5473003 -0.081310341   -4.1471554   0.59985514   439061 
 4609000   0.39928381   -4.1471599   -4.1471599   -3.5482356 -0.083720797   -4.1471599   0.59892435   439061 
 4610000   0.39992532    -4.147602    -4.147602   -3.5477154 -0.083358348    -4.147602   0.59988662   439061 
 4611000   0.39949771   -4.1474512   -4.1474512    -3.548206 -0.081887527   -4.1474512   0.59924519   439061 
 4612000   0.39958825   -4.1468674   -4.1468674   -3.5474864 -0.081108412   -4.1468674   0.59938101   439061 
 4613000   0.40057579   -4.1485678   -4.1485678   -3.5477055 -0.083631292   -4.1485678   0.60086231   439061 
 4614000   0.39999764   -4.1478208   -4.1478208   -3.5478257 -0.084117249   -4.1478208   0.59999509   439061 
 4615000   0.39912884   -4.1474212   -4.1474212   -3.5487293  -0.08453226   -4.1474212    0.5986919   439061 
 4616000   0.39884572    -4.146659    -4.146659   -3.5483918 -0.082627819    -4.146659   0.59826721   439061 
 4617000   0.39937205   -4.1472847   -4.1472847    -3.548228  -0.08338541   -4.1472847   0.59905671   439061 
 4618000   0.39951441   -4.1475543   -4.1475543    -3.548284 -0.082006614   -4.1475543   0.59927025   439061 
 4619000   0.39989033   -4.1485544   -4.1485544   -3.5487203 -0.083855605   -4.1485544   0.59983413   439061 
 4620000   0.39941956   -4.1481668   -4.1481668   -3.5490388 -0.084198747   -4.1481668   0.59912797   439061 
 4621000   0.39924148   -4.1473032   -4.1473032   -3.5484423 -0.082928334   -4.1473032   0.59886086   439061 
 4622000   0.39947918   -4.1477555   -4.1477555   -3.5485381 -0.086257109   -4.1477555    0.5992174   439061 
 4623000    0.3994161   -4.1475681   -4.1475681   -3.5484453 -0.087514456   -4.1475681   0.59912279   439061 
 4624000   0.39914022   -4.1474152   -4.1474152   -3.5487062 -0.085767105   -4.1474152   0.59870897   439061 
 4625000   0.39920089    -4.146848    -4.146848   -3.5480481 -0.081657074    -4.146848   0.59879997   439061 
 4626000   0.39970213   -4.1473703   -4.1473703   -3.5478185 -0.081107313   -4.1473703   0.59955183   439061 
 4627000   0.40066672   -4.1494191   -4.1494191   -3.5484203 -0.086861994   -4.1494191   0.60099871   439061 
 4628000   0.39939166   -4.1472937   -4.1472937   -3.5482075  -0.08390834   -4.1472937   0.59908613   439061 
 4629000   0.39944415   -4.1471001   -4.1471001   -3.5479352 -0.082951463   -4.1471001   0.59916485   439061 
 4630000   0.39972475   -4.1483951   -4.1483951   -3.5488093 -0.085992131   -4.1483951   0.59958575   439061 
 4631000   0.39935284   -4.1478635   -4.1478635   -3.5488356 -0.086337853   -4.1478635   0.59902789   439061 
 4632000   0.40034446   -4.1481587   -4.1481587   -3.5476434 -0.084125983   -4.1481587   0.60051533   439061 
 4633000   0.39959612   -4.1479691   -4.1479691   -3.5485763 -0.082959623   -4.1479691   0.59939282   439061 
 4634000   0.39976808   -4.1481766   -4.1481766   -3.5485258 -0.086491524   -4.1481766   0.59965076   439061 
 4635000   0.39947173   -4.1476168   -4.1476168   -3.5484106 -0.083464856   -4.1476168   0.59920623   439061 
 4636000   0.39955935   -4.1475417   -4.1475417    -3.548204 -0.083589947   -4.1475417   0.59933766   439061 
 4637000   0.39966567    -4.147432    -4.147432   -3.5479349 -0.083157943    -4.147432   0.59949714   439061 
 4638000   0.39924463   -4.1468963   -4.1468963   -3.5480307 -0.083561263   -4.1468963   0.59886557   439061 
 4639000   0.40058777    -4.147767    -4.147767   -3.5468867 -0.085733721    -4.147767   0.60088028   439061 
 4640000   0.39975664   -4.1468497   -4.1468497   -3.5472161 -0.083003034   -4.1468497   0.59963359   439061 
 4641000   0.39993048   -4.1465803   -4.1465803   -3.5466859 -0.082477068   -4.1465803   0.59989435   439061 
 4642000   0.40014063   -4.1469477   -4.1469477   -3.5467381 -0.079876334   -4.1469477   0.60020958   439061 
 4643000   0.39959448   -4.1470279   -4.1470279   -3.5476375 -0.081670408   -4.1470279   0.59939035   439061 
 4644000   0.39952378   -4.1471567   -4.1471567   -3.5478724 -0.083591946   -4.1471567    0.5992843   439061 
 4645000   0.39992073   -4.1468622   -4.1468622   -3.5469824 -0.080658518   -4.1468622   0.59987973   439061 
 4646000   0.40015265   -4.1471294   -4.1471294   -3.5469018 -0.082700457   -4.1471294   0.60022761   439061 
 4647000   0.40035514   -4.1478488   -4.1478488   -3.5473175 -0.085452062   -4.1478488   0.60053133   439061 
 4648000    0.4004835   -4.1485265   -4.1485265   -3.5478026  -0.08525434   -4.1485265   0.60072388   439061 
 4649000    0.4000001   -4.1475743   -4.1475743   -3.5475755 -0.084246803   -4.1475743   0.59999878   439061 
 4650000   0.40056852   -4.1486994   -4.1486994    -3.547848 -0.084761738   -4.1486994   0.60085141   439061 
 4651000   0.39972229    -4.147426    -4.147426   -3.5478439 -0.082579034    -4.147426   0.59958207   439061 
 4652000   0.40039877    -4.148571    -4.148571   -3.5479742 -0.084025284    -4.148571   0.60059679   439061 
 4653000   0.40036976   -4.1485133   -4.1485133     -3.54796 -0.083295654   -4.1485133   0.60055327   439061 
 4654000   0.39990127   -4.1476026   -4.1476026   -3.5477521 -0.082844451   -4.1476026   0.59985053   439061 
 4655000   0.39989133   -4.1475429   -4.1475429   -3.5477073 -0.083188533   -4.1475429   0.59983562   439061 
 4656000   0.39913819   -4.1466666   -4.1466666   -3.5479607 -0.082952384   -4.1466666   0.59870592   439061 
 4657000    0.3997558    -4.147956    -4.147956   -3.5483237 -0.086529246    -4.147956   0.59963233   439061 
 4658000   0.39945246   -4.1466748   -4.1466748   -3.5474975 -0.081570872   -4.1466748   0.59917733   439061 
 4659000   0.40017383   -4.1479177   -4.1479177   -3.5476583 -0.084249157   -4.1479177   0.60025938   439061 
 4660000   0.39978483   -4.1481328   -4.1481328   -3.5484569 -0.084573382   -4.1481328   0.59967588   439061 
 4661000   0.39938582    -4.147868    -4.147868   -3.5487907 -0.082788216    -4.147868   0.59907736   439061 
 4662000   0.39986221   -4.1479416   -4.1479416   -3.5481497 -0.081259761   -4.1479416   0.59979195   439061 
 4663000   0.39965213   -4.1476106   -4.1476106   -3.5481338 -0.083551449   -4.1476106   0.59947683   439061 
 4664000   0.39947561   -4.1475431   -4.1475431    -3.548331 -0.084797439   -4.1475431   0.59921205   439061 
 4665000   0.39965365   -4.1478335   -4.1478335   -3.5483544 -0.085262315   -4.1478335   0.59947911   439061 
 4666000      0.39997   -4.1474882   -4.1474882   -3.5475346 -0.084263424   -4.1474882   0.59995364   439061 
 4667000   0.40010168   -4.1484866   -4.1484866   -3.5483354 -0.085990381   -4.1484866   0.60015115   439061 
 4668000    0.3997661   -4.1482712   -4.1482712   -3.5486234  -0.08422074   -4.1482712   0.59964779   439061 
 4669000   0.39942984   -4.1477095   -4.1477095   -3.5485661 -0.082937601   -4.1477095    0.5991434   439061 
 4670000    0.4000472   -4.1483372   -4.1483372   -3.5482678 -0.082040329   -4.1483372   0.60006943   439061 
 4671000   0.39952432   -4.1480218   -4.1480218   -3.5487367 -0.081828544   -4.1480218   0.59928511   439061 
 4672000   0.39932512   -4.1477272   -4.1477272   -3.5487409 -0.084140464   -4.1477272   0.59898631   439061 
 4673000   0.39917156   -4.1476654   -4.1476654   -3.5489094 -0.085128341   -4.1476654   0.59875598   439061 
 4674000   0.40010921   -4.1488911   -4.1488911   -3.5487287 -0.088345176   -4.1488911   0.60016245   439061 
 4675000   0.39894858    -4.147544    -4.147544   -3.5491225 -0.083402073    -4.147544   0.59842151   439061 
 4676000   0.39949986   -4.1482845   -4.1482845   -3.5490361 -0.082997883   -4.1482845   0.59924843   439061 
 4677000   0.39954707   -4.1484208   -4.1484208   -3.5491016 -0.082231705   -4.1484208   0.59931924   439061 
 4678000   0.39932797   -4.1484717   -4.1484717   -3.5494811 -0.080433506   -4.1484717   0.59899059   439061 
 4679000   0.39947385   -4.1489102   -4.1489102   -3.5497008 -0.085003276   -4.1489102    0.5992094   439061 
 4680000   0.39923057   -4.1484994   -4.1484994   -3.5496549 -0.083947901   -4.1484994   0.59884449   439061 
 4681000   0.39897356   -4.1481213   -4.1481213   -3.5496623 -0.085093486   -4.1481213   0.59845897   439061 
 4682000   0.39947115   -4.1485753   -4.1485753   -3.5493699 -0.086455227   -4.1485753   0.59920536   439061 
 4683000    0.3998338   -4.1488918   -4.1488918   -3.5491425  -0.08459615   -4.1488918   0.59974933   439061 
 4684000   0.39901328    -4.147674    -4.147674   -3.5491554 -0.084498033    -4.147674   0.59851856   439061 
 4685000   0.39926596   -4.1485909   -4.1485909   -3.5496933 -0.082068141   -4.1485909   0.59889757   439061 
 4686000   0.39961573   -4.1487706   -4.1487706   -3.5493484 -0.083645265   -4.1487706   0.59942223   439061 
 4687000   0.39945497    -4.148774    -4.148774   -3.5495929 -0.084186581    -4.148774    0.5991811   439061 
 4688000   0.39870468   -4.1476935   -4.1476935   -3.5496379 -0.082247739   -4.1476935   0.59805566   439061 
 4689000   0.39918863   -4.1485908   -4.1485908   -3.5498092 -0.086650961   -4.1485908   0.59878158   439061 
 4690000   0.39958345   -4.1486848   -4.1486848    -3.549311 -0.084352991   -4.1486848   0.59937381   439061 
 4691000   0.40005475   -4.1490577   -4.1490577   -3.5489769 -0.083324163   -4.1490577   0.60008076   439061 
 4692000   0.40016248   -4.1488603   -4.1488603   -3.5486179 -0.083434761   -4.1488603   0.60024235   439061 
 4693000   0.39960646   -4.1484444   -4.1484444   -3.5490361 -0.079346527   -4.1484444   0.59940833   439061 
 4694000   0.39952224   -4.1483337   -4.1483337   -3.5490517 -0.086658068   -4.1483337     0.599282   439061 
 4695000   0.39925026   -4.1478746   -4.1478746   -3.5490006 -0.085198512   -4.1478746   0.59887403   439061 
 4696000   0.40001139   -4.1491643   -4.1491643   -3.5491486 -0.088843431   -4.1491643   0.60001573   439061 
 4697000   0.39924547   -4.1480986   -4.1480986   -3.5492318 -0.084425802   -4.1480986   0.59886683   439061 
 4698000   0.39874047   -4.1478112   -4.1478112   -3.5497018 -0.081441004   -4.1478112   0.59810935   439061 
 4699000   0.40014232   -4.1490653   -4.1490653   -3.5488532 -0.082791086   -4.1490653   0.60021211   439061 
 4700000   0.39907508   -4.1483112   -4.1483112      -3.5497 -0.080792897   -4.1483112   0.59861126   439061 
 4701000   0.39916967   -4.1484533   -4.1484533   -3.5497002  -0.08315671   -4.1484533   0.59875314   439061 
 4702000   0.39928254   -4.1480837   -4.1480837   -3.5491613 -0.084549913   -4.1480837   0.59892245   439061 
 4703000   0.39900904   -4.1477902   -4.1477902    -3.549278 -0.083380202   -4.1477902   0.59851219   439061 
 4704000   0.39911613   -4.1487035   -4.1487035   -3.5500307 -0.088291874   -4.1487035   0.59867282   439061 
 4705000   0.39883488   -4.1488306   -4.1488306   -3.5505796 -0.088068685   -4.1488306   0.59825096   439061 
 4706000   0.39945247   -4.1494684   -4.1494684   -3.5502911  -0.08389477   -4.1494684   0.59917734   439061 
 4707000     0.399691    -4.149213    -4.149213   -3.5496779 -0.083655943    -4.149213   0.59953513   439061 
 4708000   0.40013349    -4.148942    -4.148942   -3.5487431 -0.079931397    -4.148942   0.60019887   439061 
 4709000    0.3994534     -4.14902     -4.14902   -3.5498412 -0.083816575     -4.14902   0.59917874   439061 
 4710000   0.39862941   -4.1474497   -4.1474497   -3.5495069 -0.083006449   -4.1474497   0.59794275   439061 
 4711000   0.39892029   -4.1471648   -4.1471648   -3.5487857 -0.081595055   -4.1471648   0.59837907   439061 
 4712000   0.39910164   -4.1475437   -4.1475437   -3.5488927 -0.086662269   -4.1475437   0.59865109   439061 
 4713000    0.3998726   -4.1489253   -4.1489253   -3.5491177 -0.088442211   -4.1489253   0.59980753   439061 
 4714000   0.40003231   -4.1493391   -4.1493391    -3.549292 -0.085140742   -4.1493391    0.6000471   439061 
 4715000   0.39998803    -4.148733    -4.148733   -3.5487523 -0.083116369    -4.148733   0.59998067   439061 
 4716000   0.40030082   -4.1483752   -4.1483752   -3.5479253 -0.078664153   -4.1483752   0.60044986   439061 
 4717000   0.39977709   -4.1475623   -4.1475623   -3.5478981 -0.081017333   -4.1475623   0.59966428   439061 
 4718000   0.39992103   -4.1481168   -4.1481168   -3.5482367 -0.085476896   -4.1481168   0.59988018   439061 
 4719000   0.39988631   -4.1480843   -4.1480843   -3.5482562 -0.085811228   -4.1480843    0.5998281   439061 
 4720000    0.3998775   -4.1481014   -4.1481014   -3.5482865 -0.087573357   -4.1481014   0.59981488   439061 
 4721000   0.39978621   -4.1481868   -4.1481868   -3.5485089 -0.085373712   -4.1481868   0.59967796   439061 
 4722000   0.39971349   -4.1483038   -4.1483038    -3.548735 -0.082100102   -4.1483038   0.59956887   439061 
 4723000   0.39905503   -4.1471364   -4.1471364   -3.5485552   -0.0789915   -4.1471364   0.59858119   439061 
 4724000   0.39974565   -4.1482327   -4.1482327   -3.5486156 -0.082056786   -4.1482327   0.59961711   439061 
 4725000   0.40005228   -4.1485587   -4.1485587   -3.5484816  -0.08304604   -4.1485587   0.60007706   439061 
 4726000   0.39962341    -4.147732    -4.147732   -3.5482982 -0.085432307    -4.147732   0.59943375   439061 
 4727000   0.39990137   -4.1479704   -4.1479704   -3.5481198 -0.086861912   -4.1479704   0.59985069   439061 
 4728000   0.39896043   -4.1473813   -4.1473813    -3.548942 -0.084518112   -4.1473813   0.59843929   439061 
 4729000   0.39942827   -4.1484967   -4.1484967   -3.5493557 -0.085708199   -4.1484967   0.59914104   439061 
 4730000   0.39950544   -4.1487965   -4.1487965   -3.5495397 -0.082761764   -4.1487965    0.5992568   439061 
 4731000   0.39977978   -4.1491064   -4.1491064   -3.5494381  -0.08271612   -4.1491064   0.59966831   439061 
 4732000    0.3991637   -4.1485722   -4.1485722    -3.549828  -0.08106663   -4.1485722   0.59874418   439061 
 4733000   0.39968534   -4.1482933   -4.1482933   -3.5487667  -0.08312966   -4.1482933   0.59952664   439061 
 4734000   0.39914801   -4.1469941   -4.1469941   -3.5482735  -0.08349295   -4.1469941   0.59872064   439061 
 4735000   0.39918997   -4.1478478   -4.1478478   -3.5490642 -0.086749868   -4.1478478   0.59878359   439061 
 4736000   0.39919387   -4.1478265   -4.1478265   -3.5490371 -0.086629367   -4.1478265   0.59878944   439061 
 4737000   0.39908179   -4.1471472   -4.1471472   -3.5485259 -0.082136842   -4.1471472   0.59862132   439061 
 4738000   0.40000137   -4.1485162   -4.1485162   -3.5485155  -0.08036055   -4.1485162   0.60000069   439061 
 4739000   0.40072769   -4.1496068   -4.1496068   -3.5485166 -0.083639059   -4.1496068   0.60109017   439061 
 4740000   0.40037106   -4.1491093   -4.1491093   -3.5485541 -0.081554546   -4.1491093   0.60055523   439061 
 4741000   0.39995648   -4.1481147   -4.1481147   -3.5481814 -0.083609679   -4.1481147   0.59993336   439061 
 4742000   0.39967784   -4.1479282   -4.1479282   -3.5484128 -0.089056569   -4.1479282    0.5995154   439061 
 4743000   0.39932723   -4.1479133   -4.1479133   -3.5489239 -0.088918718   -4.1479133   0.59898948   439061 
 4744000   0.39947946    -4.148174    -4.148174   -3.5489562 -0.088742955    -4.148174   0.59921782   439061 
 4745000   0.39975874   -4.1475978   -4.1475978   -3.5479611 -0.081070864   -4.1475978   0.59963675   439061 
 4746000   0.39998552   -4.1481005   -4.1481005   -3.5481236 -0.077876748   -4.1481005   0.59997691   439061 
 4747000   0.40044443   -4.1487921   -4.1487921   -3.5481269 -0.080109805   -4.1487921   0.60066527   439061 
 4748000   0.39961929   -4.1481648   -4.1481648   -3.5487373 -0.080882346   -4.1481648   0.59942756   439061 
 4749000   0.39861843   -4.1471335   -4.1471335   -3.5492073 -0.085704352   -4.1471335   0.59792628   439061 
 4750000   0.39926771   -4.1475054   -4.1475054   -3.5486052 -0.088457866   -4.1475054   0.59890019   439061 
 4751000   0.39914399   -4.1471394   -4.1471394   -3.5484248 -0.086526745   -4.1471394   0.59871462   439061 
 4752000   0.39953031   -4.1481162   -4.1481162   -3.5488221 -0.086527955   -4.1481162    0.5992941   439061 
 4753000   0.40034811   -4.1491556   -4.1491556   -3.5486348 -0.082962428   -4.1491556   0.60052079   439061 
 4754000   0.39951679   -4.1476416   -4.1476416   -3.5483677 -0.078674469   -4.1476416   0.59927381   439061 
 4755000   0.39980309    -4.148543    -4.148543   -3.5488397 -0.081154394    -4.148543   0.59970327   439061 
 4756000   0.39923132   -4.1491889   -4.1491889   -3.5503433 -0.084094222   -4.1491889   0.59884561   439061 
 4757000   0.39929817    -4.148144    -4.148144   -3.5491981 -0.085857882    -4.148144   0.59894589   439061 
 4758000   0.39947062   -4.1486994   -4.1486994   -3.5494949 -0.089138077   -4.1486994   0.59920457   439061 
 4759000   0.39890082   -4.1475959   -4.1475959    -3.549246 -0.087696311   -4.1475959   0.59834987   439061 
 4760000   0.39873055   -4.1476982   -4.1476982   -3.5496038 -0.084996628   -4.1476982   0.59809446   439061 
 4761000    0.3997238   -4.1485379   -4.1485379   -3.5489536 -0.082300954   -4.1485379   0.59958434   439061 
 4762000    0.4000847   -4.1490263   -4.1490263   -3.5489007 -0.081268604   -4.1490263   0.60012568   439061 
 4763000   0.39951399   -4.1479258   -4.1479258   -3.5486562 -0.079050958   -4.1479258   0.59926962   439061 
 4764000   0.40031109    -4.148886    -4.148886   -3.5484207 -0.081944299    -4.148886   0.60046526   439061 
 4765000   0.39931236   -4.1468865   -4.1468865   -3.5479194 -0.083537077   -4.1468865   0.59896717   439061 
 4766000   0.39934518   -4.1473834   -4.1473834    -3.548367 -0.090303974   -4.1473834   0.59901641   439061 
 4767000   0.39993827   -4.1479764   -4.1479764   -3.5480704 -0.087339155   -4.1479764   0.59990604   439061 
 4768000   0.40004683   -4.1485064   -4.1485064   -3.5484375 -0.085246537   -4.1485064   0.60006888   439061 
 4769000   0.40025474   -4.1482855   -4.1482855   -3.5479048 -0.079657914   -4.1482855   0.60038074   439061 
 4770000   0.40030638   -4.1486028   -4.1486028   -3.5481446 -0.078172127   -4.1486028    0.6004582   439061 
 4771000    0.3997168   -4.1483513   -4.1483513   -3.5487775 -0.082970447   -4.1483513   0.59957383   439061 
 4772000   0.40028206   -4.1478877   -4.1478877    -3.547466  -0.08176174   -4.1478877   0.60042173   439061 
 4773000   0.39935487   -4.1465235   -4.1465235   -3.5474926 -0.084236905   -4.1465235   0.59903093   439061 
 4774000   0.39999913   -4.1465608   -4.1465608   -3.5465635 -0.086233828   -4.1465608   0.59999732   439061 
 4775000   0.40062847   -4.1474177   -4.1474177   -3.5464763 -0.085007284   -4.1474177   0.60094134   439061 
 4776000   0.40017783   -4.1465836   -4.1465836   -3.5463182 -0.082975711   -4.1465836   0.60026537   439061 
 4777000   0.40013373    -4.147329    -4.147329   -3.5471297 -0.081025471    -4.147329   0.60019923   439061 
 4778000   0.39977089   -4.1474646   -4.1474646   -3.5478096 -0.080769283   -4.1474646   0.59965497   439061 
 4779000   0.40003725     -4.14792     -4.14792   -3.5478655 -0.082271012     -4.14792   0.60005451   439061 
 4780000   0.40054827   -4.1480677   -4.1480677   -3.5472467 -0.082395699   -4.1480677   0.60082103   439061 
 4781000   0.40070331   -4.1477221   -4.1477221   -3.5466685 -0.081907268   -4.1477221    0.6010536   439061 
 4782000   0.39994924   -4.1480714   -4.1480714   -3.5481489 -0.087276059   -4.1480714    0.5999225   439061 
 4783000   0.40015929    -4.147719    -4.147719   -3.5474815 -0.084253365    -4.147719   0.60023757   439061 
 4784000   0.39956384   -4.1468984   -4.1468984    -3.547554 -0.082466395   -4.1468984   0.59934439   439061 
 4785000   0.40036115   -4.1479758   -4.1479758   -3.5474354  -0.08293018   -4.1479758   0.60054036   439061 
 4786000    0.4005393   -4.1483383   -4.1483383   -3.5475307 -0.082266065   -4.1483383   0.60080759   439061 
 4787000   0.40067339   -4.1485164   -4.1485164   -3.5475077 -0.084639827   -4.1485164   0.60100872   439061 
 4788000   0.40047919   -4.1479553   -4.1479553   -3.5472379 -0.081580221   -4.1479553   0.60071742   439061 
 4789000   0.40065924   -4.1479543   -4.1479543   -3.5469668 -0.085701836   -4.1479543    0.6009875   439061 
 4790000   0.40014098     -4.14749     -4.14749   -3.5472799 -0.086723613     -4.14749   0.60021011   439061 
 4791000   0.39994166   -4.1469886   -4.1469886   -3.5470775 -0.083374761   -4.1469886   0.59991113   439061 
 4792000   0.40032698   -4.1477728   -4.1477728   -3.5472837 -0.083509755   -4.1477728   0.60048911   439061 
 4793000   0.40103941   -4.1478318   -4.1478318    -3.546274 -0.081050217   -4.1478318   0.60155774   439061 
 4794000   0.40059897   -4.1476768   -4.1476768   -3.5467797 -0.082555599   -4.1476768   0.60089708   439061 
 4795000   0.40012292   -4.1479108   -4.1479108   -3.5477277 -0.083911548   -4.1479108   0.60018301   439061 
 4796000   0.39988934   -4.1475106   -4.1475106   -3.5476779  -0.08382924   -4.1475106   0.59983264   439061 
 4797000   0.40002178   -4.1475515   -4.1475515   -3.5475202 -0.085156953   -4.1475515   0.60003131   439061 
 4798000   0.40000566   -4.1478161   -4.1478161    -3.547809 -0.084526247   -4.1478161   0.60000712   439061 
 4799000   0.40011925   -4.1480344   -4.1480344   -3.5478569     -0.08555   -4.1480344   0.60017751   439061 
 4800000   0.39969711   -4.1476902   -4.1476902   -3.5481459 -0.080809375   -4.1476902    0.5995443   439061 
 4801000   0.40029134   -4.1486858   -4.1486858   -3.5482502 -0.084137088   -4.1486858   0.60043565   439061 
 4802000   0.40067831   -4.1493826   -4.1493826   -3.5483665 -0.084551823   -4.1493826    0.6010161   439061 
 4803000      0.40043   -4.1490558   -4.1490558   -3.5484121 -0.083314529   -4.1490558   0.60064363   439061 
 4804000   0.40001861    -4.147855    -4.147855   -3.5478285 -0.083707002    -4.147855   0.60002655   439061 
 4805000   0.40020056   -4.1478534   -4.1478534   -3.5475539 -0.086007581   -4.1478534   0.60029947   439061 
 4806000   0.40034288   -4.1477096   -4.1477096   -3.5471967 -0.083073015   -4.1477096   0.60051295   439061 
 4807000   0.40060664   -4.1487169   -4.1487169   -3.5478083  -0.08588021   -4.1487169    0.6009086   439061 
 4808000   0.40033611   -4.1486993   -4.1486993   -3.5481965 -0.084803776   -4.1486993    0.6005028   439061 
 4809000   0.40003101   -4.1481932   -4.1481932    -3.548148 -0.080538705   -4.1481932   0.60004515   439061 
 4810000   0.39994596   -4.1474617   -4.1474617   -3.5475441 -0.079643184   -4.1474617   0.59991757   439061 
 4811000   0.40013625   -4.1486924   -4.1486924   -3.5484894  -0.08430347   -4.1486924   0.60020301   439061 
 4812000   0.39947706   -4.1478656   -4.1478656   -3.5486513 -0.083248647   -4.1478656   0.59921423   439061 
 4813000   0.39964444   -4.1478048   -4.1478048   -3.5483395 -0.085924293   -4.1478048   0.59946529   439061 
 4814000   0.40024473   -4.1485955   -4.1485955   -3.5482298  -0.08513118   -4.1485955   0.60036573   439061 
 4815000   0.39975975   -4.1486881   -4.1486881   -3.5490498 -0.088697646   -4.1486881   0.59963826   439061 
 4816000   0.39935954   -4.1478508   -4.1478508   -3.5488128 -0.083316832   -4.1478508   0.59903795   439061 
 4817000   0.39940541   -4.1472266   -4.1472266   -3.5481199  -0.07754738   -4.1472266   0.59910676   439061 
 4818000   0.40003632   -4.1490447   -4.1490447   -3.5489916 -0.083642009   -4.1490447   0.60005311   439061 
 4819000   0.39961882   -4.1481196   -4.1481196   -3.5486927 -0.081286415   -4.1481196   0.59942687   439061 
 4820000    0.4004975   -4.1489847   -4.1489847   -3.5482398 -0.082219895   -4.1489847   0.60074488   439061 
 4821000   0.39943515   -4.1476543   -4.1476543    -3.548503 -0.085067777   -4.1476543   0.59915135   439061 
 4822000   0.40014473   -4.1487957   -4.1487957     -3.54858 -0.086281352   -4.1487957   0.60021572   439061 
 4823000   0.39964437   -4.1480176   -4.1480176   -3.5485524  -0.08310535   -4.1480176   0.59946518   439061 
 4824000   0.40033069   -4.1491878   -4.1491878   -3.5486932 -0.087207653   -4.1491878   0.60049466   439061 
 4825000    0.4007278   -4.1491418   -4.1491418   -3.5480514 -0.082935601   -4.1491418   0.60109034   439061 
 4826000   0.39989648   -4.1486909   -4.1486909   -3.5488475 -0.082666929   -4.1486909   0.59984335   439061 
 4827000   0.39979857    -4.148881    -4.148881   -3.5491845 -0.082429336    -4.148881   0.59969648   439061 
 4828000   0.39929467   -4.1490279   -4.1490279   -3.5500873 -0.084568069   -4.1490279   0.59894064   439061 
 4829000   0.40002516   -4.1497873   -4.1497873   -3.5497509 -0.086075282   -4.1497873   0.60003637   439061 
 4830000   0.39966362   -4.1487812   -4.1487812   -3.5492871 -0.084115118   -4.1487812   0.59949407   439061 
 4831000   0.39932349    -4.148216    -4.148216   -3.5492321 -0.083323636    -4.148216   0.59898386   439061 
 4832000   0.39924483   -4.1482719   -4.1482719    -3.549406 -0.084847123   -4.1482719   0.59886588   439061 
 4833000   0.40069959   -4.1497054   -4.1497054   -3.5486573 -0.084428028   -4.1497054   0.60104802   439061 
 4834000   0.39970951   -4.1485972   -4.1485972   -3.5490343 -0.083962981   -4.1485972    0.5995629   439061 
 4835000   0.39996747   -4.1483377   -4.1483377   -3.5483879 -0.082962849   -4.1483377   0.59994983   439061 
 4836000    0.3997634    -4.147592    -4.147592   -3.5479483 -0.079539555    -4.147592   0.59964374   439061 
 4837000   0.40022326   -4.1482778   -4.1482778   -3.5479443 -0.086000484   -4.1482778   0.60033353   439061 
 4838000   0.40042116   -4.1491113   -4.1491113   -3.5484809 -0.083489695   -4.1491113   0.60063037   439061 
 4839000    0.3996558   -4.1483812   -4.1483812   -3.5488989 -0.082719697   -4.1483812   0.59948234   439061 
 4840000   0.40024043   -4.1493798   -4.1493798   -3.5490205 -0.084419207   -4.1493798   0.60035927   439061 
 4841000   0.39961364   -4.1481349   -4.1481349   -3.5487158 -0.077881357   -4.1481349   0.59941909   439061 
 4842000   0.40075261   -4.1493657   -4.1493657   -3.5482382 -0.083690863   -4.1493657   0.60112755   439061 
 4843000   0.40079327   -4.1491401   -4.1491401   -3.5479515 -0.083699598   -4.1491401   0.60118854   439061 
 4844000   0.39956343   -4.1474709   -4.1474709   -3.5481271 -0.082391204   -4.1474709   0.59934378   439061 
 4845000   0.40031171    -4.148362    -4.148362   -3.5478958 -0.085869404    -4.148362    0.6004662   439061 
 4846000   0.39980362    -4.147154    -4.147154   -3.5474499 -0.082108408    -4.147154   0.59970406   439061 
 4847000   0.40059768   -4.1477971   -4.1477971    -3.546902 -0.085187275   -4.1477971   0.60089515   439061 
 4848000   0.40014617   -4.1482368   -4.1482368   -3.5480189 -0.081464362   -4.1482368   0.60021788   439061 
 4849000   0.40012407   -4.1477813   -4.1477813   -3.5475965  -0.08076193   -4.1477813   0.60018474   439061 
 4850000   0.39953868   -4.1476208   -4.1476208   -3.5483141 -0.080548638   -4.1476208   0.59930666   439061 
 4851000   0.40026904   -4.1490984   -4.1490984   -3.5486963 -0.083509811   -4.1490984   0.60040219   439061 
 4852000   0.40036092   -4.1491125   -4.1491125   -3.5485725 -0.084891827   -4.1491125   0.60054001   439061 
 4853000   0.40046914    -4.148975    -4.148975   -3.5482727 -0.083057369    -4.148975   0.60070234   439061 
 4854000   0.40015463   -4.1491777   -4.1491777   -3.5489471 -0.085579037   -4.1491777   0.60023057   439061 
 4855000    0.4000448    -4.148666    -4.148666   -3.5486002 -0.083297843    -4.148666   0.60006583   439061 
 4856000   0.39959876   -4.1487092   -4.1487092   -3.5493124 -0.083850462   -4.1487092   0.59939677   439061 
 4857000    0.3999548    -4.149174    -4.149174   -3.5492432 -0.086599826    -4.149174   0.59993084   439061 
 4858000   0.39974492   -4.1479054   -4.1479054   -3.5482894 -0.082927638   -4.1479054   0.59961601   439061 
 4859000   0.40031764    -4.148906    -4.148906   -3.5484309 -0.084604003    -4.148906   0.60047509   439061 
 4860000   0.40003079   -4.1482738   -4.1482738    -3.548229 -0.084702846   -4.1482738   0.60004483   439061 
 4861000     0.400131   -4.1484105   -4.1484105   -3.5482154 -0.084520547   -4.1484105   0.60019513   439061 
 4862000   0.40049906   -4.1485346   -4.1485346   -3.5477874 -0.083660344   -4.1485346   0.60074723   439061 
 4863000    0.4001594   -4.1482787   -4.1482787   -3.5480409 -0.083954086   -4.1482787   0.60023773   439061 
 4864000   0.40061085   -4.1488365   -4.1488365   -3.5479216 -0.082614466   -4.1488365    0.6009149   439061 
 4865000   0.40045179   -4.1488373   -4.1488373    -3.548161 -0.083823624   -4.1488373   0.60067632   439061 
 4866000   0.40009993    -4.147775    -4.147775   -3.5476265 -0.081509652    -4.147775   0.60014853   439061 
 4867000   0.40005112   -4.1478255   -4.1478255   -3.5477502  -0.08328147   -4.1478255   0.60007531   439061 
 4868000   0.40005406   -4.1478857   -4.1478857   -3.5478059 -0.083833819   -4.1478857   0.60007972   439061 
 4869000   0.39912107    -4.146953    -4.146953   -3.5482728 -0.083041771    -4.146953   0.59868025   439061 
 4870000   0.39988799   -4.1487593   -4.1487593   -3.5489287 -0.086019634   -4.1487593   0.59983062   439061 
 4871000   0.40007768   -4.1490482   -4.1490482   -3.5489331 -0.083577516   -4.1490482   0.60011515   439061 
 4872000   0.40028118   -4.1488475   -4.1488475   -3.5484272  -0.08125507   -4.1488475    0.6004204   439061 
 4873000   0.40024167   -4.1494084   -4.1494084   -3.5490472 -0.082220749   -4.1494084   0.60036114   439061 
 4874000   0.39873136   -4.1475128   -4.1475128   -3.5494171 -0.079021382   -4.1475128   0.59809568   439061 
 4875000   0.39985152   -4.1487523   -4.1487523   -3.5489763  -0.08530892   -4.1487523   0.59977592   439061 
 4876000   0.39961041   -4.1483851   -4.1483851   -3.5489709 -0.084979604   -4.1483851   0.59941426   439061 
 4877000   0.39980156    -4.148414    -4.148414   -3.5487131 -0.085969069    -4.148414   0.59970098   439061 
 4878000   0.39991392   -4.1485232   -4.1485232   -3.5486537 -0.083897651   -4.1485232   0.59986951   439061 
 4879000   0.39997338   -4.1480064   -4.1480064   -3.5480477 -0.080625743   -4.1480064    0.5999587   439061 
 4880000   0.40020345   -4.1489215   -4.1489215   -3.5486177 -0.083206165   -4.1489215   0.60030381   439061 
 4881000   0.39969174   -4.1481889   -4.1481889   -3.5486526  -0.08336929   -4.1481889   0.59953625   439061 
 4882000   0.39960641   -4.1478567   -4.1478567   -3.5484484 -0.081449432   -4.1478567   0.59940826   439061 
 4883000   0.40051868   -4.1487268   -4.1487268   -3.5479501 -0.084303039   -4.1487268   0.60077666   439061 
 4884000   0.39965947   -4.1481154   -4.1481154   -3.5486275 -0.085284995   -4.1481154   0.59948784   439061 
 4885000   0.40048072   -4.1490338   -4.1490338    -3.548314 -0.087915347   -4.1490338   0.60071971   439061 
 4886000   0.39971873   -4.1482996   -4.1482996   -3.5487229 -0.085250605   -4.1482996   0.59957674   439061 
 4887000   0.39978747   -4.1478419   -4.1478419   -3.5481621 -0.084430295   -4.1478419   0.59967983   439061 
 4888000   0.40022081   -4.1484624   -4.1484624   -3.5481325 -0.082805322   -4.1484624   0.60032984   439061 
 4889000    0.4000812   -4.1484387   -4.1484387   -3.5483182 -0.082869079   -4.1484387   0.60012043   439061 
 4890000   0.40005407   -4.1485632   -4.1485632   -3.5484835 -0.085126117   -4.1485632   0.60007973   439061 
 4891000    0.3997133   -4.1479942   -4.1479942   -3.5484256 -0.082472465   -4.1479942   0.59956859   439061 
 4892000   0.39900744   -4.1475744   -4.1475744   -3.5490646 -0.084270899   -4.1475744   0.59850979   439061 
 4893000   0.39921278   -4.1480543   -4.1480543   -3.5492365 -0.083672745   -4.1480543    0.5988178   439061 
 4894000   0.40023432   -4.1484062   -4.1484062   -3.5480561 -0.080851996   -4.1484062   0.60035011   439061 
 4895000   0.39980217   -4.1477871   -4.1477871   -3.5480852 -0.080917074   -4.1477871   0.59970189   439061 
 4896000   0.40017844   -4.1483715   -4.1483715   -3.5481052 -0.083361108   -4.1483715   0.60026629   439061 
 4897000   0.39997581    -4.147448    -4.147448   -3.5474857 -0.081870033    -4.147448   0.59996235   439061 
 4898000   0.39960529   -4.1466896   -4.1466896    -3.547283 -0.081396313   -4.1466896   0.59940657   439061 
 4899000   0.40002544   -4.1470402   -4.1470402   -3.5470034  -0.08466507   -4.1470402   0.60003679   439061 
 4900000   0.40037755   -4.1471094   -4.1471094   -3.5465445 -0.085408287   -4.1471094   0.60056496   439061 
 4901000    0.4004188   -4.1472808   -4.1472808    -3.546654 -0.084109525   -4.1472808   0.60062684   439061 
 4902000   0.40011076   -4.1464929   -4.1464929   -3.5463281  -0.08052853   -4.1464929   0.60016478   439061 
 4903000    0.4004952   -4.1476664   -4.1476664    -3.546925 -0.082471126   -4.1476664   0.60074143   439061 
 4904000   0.40030104   -4.1477189   -4.1477189   -3.5472687 -0.082214677   -4.1477189    0.6004502   439061 
 4905000   0.40100623   -4.1486024   -4.1486024   -3.5470944 -0.083601442   -4.1486024   0.60150798   439061 
 4906000    0.3999302   -4.1465854   -4.1465854   -3.5466914 -0.081733251   -4.1465854   0.59989393   439061 
 4907000   0.40043162   -4.1472942   -4.1472942   -3.5466482 -0.083892943   -4.1472942   0.60064606   439061 
 4908000   0.40044574   -4.1471139   -4.1471139   -3.5464467 -0.083978027   -4.1471139   0.60066725   439061 
 4909000     0.400208   -4.1463907   -4.1463907     -3.54608 -0.082101206   -4.1463907   0.60031063   439061 
 4910000    0.4003881   -4.1466375   -4.1466375   -3.5460568 -0.080646177   -4.1466375   0.60058078   439061 
 4911000   0.40066414   -4.1472215   -4.1472215   -3.5462266 -0.083194736   -4.1472215   0.60099485   439061 
 4912000   0.40012847   -4.1475121   -4.1475121   -3.5473208 -0.083348896   -4.1475121   0.60019134   439061 
 4913000   0.40080106   -4.1485254   -4.1485254   -3.5473251 -0.083604456   -4.1485254   0.60120023   439061 
 4914000   0.39982216   -4.1472931   -4.1472931   -3.5475612 -0.082619626   -4.1472931   0.59973187   439061 
 4915000   0.40002254   -4.1475282   -4.1475282   -3.5474958 -0.080915234   -4.1475282   0.60003244   439061 
 4916000   0.40015873   -4.1479037   -4.1479037    -3.547667 -0.084624426   -4.1479037   0.60023672   439061 
 4917000   0.40031229   -4.1479229   -4.1479229   -3.5474558 -0.082637535   -4.1479229   0.60046707   439061 
 4918000   0.40048873   -4.1478619   -4.1478619   -3.5471301 -0.082434484   -4.1478619   0.60073173   439061 
 4919000    0.4010681    -4.148206    -4.148206   -3.5466052  -0.08314822    -4.148206   0.60160078   439061 
 4920000   0.40067736   -4.1477365   -4.1477365   -3.5467218 -0.082066677   -4.1477365   0.60101467   439061 
 4921000    0.4001057   -4.1482833   -4.1482833   -3.5481261 -0.086013682   -4.1482833   0.60015718   439061 
 4922000   0.40072719   -4.1478497   -4.1478497   -3.5467602 -0.083010872   -4.1478497   0.60108942   439061 
 4923000   0.40053115   -4.1477862   -4.1477862   -3.5469908 -0.082414082   -4.1477862   0.60079536   439061 
 4924000   0.40028253   -4.1473401   -4.1473401   -3.5469176 -0.081548683   -4.1473401   0.60042243   439061 
 4925000   0.40014627   -4.1473564   -4.1473564   -3.5471383 -0.079876573   -4.1473564   0.60021803   439061 
 4926000    0.4003006   -4.1473194   -4.1473194   -3.5468699 -0.080778771   -4.1473194   0.60044953   439061 
 4927000     0.400247   -4.1476711   -4.1476711    -3.547302 -0.081471692   -4.1476711   0.60036913   439061 
 4928000   0.40005418   -4.1484072   -4.1484072   -3.5483273 -0.085049031   -4.1484072    0.6000799   439061 
 4929000   0.40032013   -4.1487958   -4.1487958    -3.548317 -0.085966097   -4.1487958   0.60047883   439061 
 4930000    0.4001979   -4.1480439   -4.1480439   -3.5477485 -0.082472174   -4.1480439   0.60029548   439061 
 4931000   0.40023502   -4.1483346   -4.1483346   -3.5479835 -0.083691741   -4.1483346   0.60035116   439061 
 4932000   0.40054485   -4.1489578   -4.1489578   -3.5481419  -0.08266811   -4.1489578    0.6008159   439061 
 4933000   0.39995614    -4.148676    -4.148676   -3.5487432 -0.082746549    -4.148676   0.59993284   439061 
 4934000   0.39911824   -4.1471014   -4.1471014   -3.5484254 -0.081176178   -4.1471014     0.598676   439061 
 4935000   0.39956784   -4.1476723   -4.1476723   -3.5483219 -0.080765715   -4.1476723    0.5993504   439061 
 4936000   0.39963866   -4.1471642   -4.1471642   -3.5477076 -0.080664715   -4.1471642   0.59945663   439061 
 4937000    0.4003356   -4.1488057   -4.1488057   -3.5483037 -0.085930348   -4.1488057   0.60050203   439061 
 4938000   0.40022464   -4.1482818   -4.1482818   -3.5479462 -0.083039166   -4.1482818   0.60033559   439061 
 4939000   0.40046312     -4.14811     -4.14811   -3.5474167 -0.084087962     -4.14811   0.60069332   439061 
 4940000   0.40006699   -4.1477579   -4.1477579   -3.5476587 -0.081342756   -4.1477579   0.60009913   439061 
 4941000   0.39972963   -4.1482346   -4.1482346   -3.5486415 -0.082257281   -4.1482346   0.59959309   439061 
 4942000   0.39989033   -4.1478409   -4.1478409   -3.5480068 -0.082867382   -4.1478409   0.59983413   439061 
 4943000   0.40054974   -4.1487072   -4.1487072   -3.5478839 -0.081419372   -4.1487072   0.60082325   439061 
 4944000   0.40042352   -4.1488322   -4.1488322   -3.5481983 -0.084438317   -4.1488322   0.60063392   439061 
 4945000   0.39995387   -4.1486745   -4.1486745   -3.5487451 -0.084009449   -4.1486745   0.59992944   439061 
 4946000    0.3996637   -4.1481277   -4.1481277   -3.5486335 -0.082570814   -4.1481277   0.59949419   439061 
 4947000   0.39988516   -4.1485918   -4.1485918   -3.5487654 -0.082183545   -4.1485918   0.59982638   439061 
 4948000   0.40038939   -4.1497774   -4.1497774   -3.5491947 -0.084175808   -4.1497774   0.60058272   439061 
 4949000   0.40035059   -4.1489301   -4.1489301   -3.5484056 -0.082239689   -4.1489301   0.60052452   439061 
 4950000   0.40039775   -4.1487162   -4.1487162   -3.5481209 -0.080402183   -4.1487162   0.60059526   439061 
 4951000    0.4002703   -4.1488227   -4.1488227   -3.5484186 -0.086663917   -4.1488227   0.60040408   439061 
 4952000   0.39971157   -4.1476858   -4.1476858   -3.5481198 -0.083638803   -4.1476858   0.59956599   439061 
 4953000   0.39943906    -4.147639    -4.147639   -3.5484818 -0.082757854    -4.147639   0.59915723   439061 
 4954000    0.4004614   -4.1495456   -4.1495456   -3.5488549 -0.086183338   -4.1495456   0.60069073   439061 
 4955000   0.40022909   -4.1494572   -4.1494572   -3.5491149 -0.084068694   -4.1494572   0.60034227   439061 
 4956000   0.39959947   -4.1476421   -4.1476421   -3.5482443 -0.080006437   -4.1476421   0.59939784   439061 
 4957000   0.40034843   -4.1487862   -4.1487862   -3.5482649 -0.081821427   -4.1487862   0.60052127   439061 
 4958000   0.40053216   -4.1500259   -4.1500259   -3.5492291 -0.085506291   -4.1500259   0.60079688   439061 
 4959000   0.39962238   -4.1475036   -4.1475036   -3.5480714  -0.08379495   -4.1475036   0.59943221   439061 
 4960000   0.40041876   -4.1482642   -4.1482642   -3.5476374 -0.082848643   -4.1482642   0.60062678   439061 
 4961000   0.40056257   -4.1485325   -4.1485325   -3.5476901 -0.086573222   -4.1485325   0.60084249   439061 
 4962000    0.4004258   -4.1488633   -4.1488633    -3.548226 -0.084347208   -4.1488633   0.60063734   439061 
 4963000   0.39998009   -4.1487404   -4.1487404   -3.5487717 -0.081857339   -4.1487404   0.59996877   439061 
 4964000   0.40058402   -4.1497442   -4.1497442   -3.5488696 -0.085030761   -4.1497442   0.60087466   439061 
 4965000   0.39973492   -4.1480417   -4.1480417   -3.5484406 -0.080815325   -4.1480417   0.59960101   439061 
 4966000   0.40059356   -4.1483397   -4.1483397   -3.5474507 -0.080971058   -4.1483397   0.60088897   439061 
 4967000   0.40034339   -4.1485538   -4.1485538     -3.54804 -0.085189656   -4.1485538   0.60051371   439061 
 4968000   0.39980888   -4.1477704   -4.1477704   -3.5480585 -0.081299938   -4.1477704   0.59971195   439061 
 4969000   0.39983898    -4.147404    -4.147404   -3.5476469 -0.083491365    -4.147404   0.59975711   439061 
 4970000   0.39981698    -4.148415    -4.148415   -3.5486909 -0.084732831    -4.148415   0.59972411   439061 
 4971000   0.40016075   -4.1485204   -4.1485204   -3.5482807 -0.083457883   -4.1485204   0.60023976   439061 
 4972000    0.4005442   -4.1493166   -4.1493166   -3.5485016 -0.085454711   -4.1493166   0.60081493   439061 
 4973000   0.40010136   -4.1482508   -4.1482508   -3.5481001 -0.079911678   -4.1482508   0.60015067   439061 
 4974000   0.40019761   -4.1497481   -4.1497481    -3.549453 -0.084190703   -4.1497481   0.60029505   439061 
 4975000   0.40014707   -4.1500597   -4.1500597   -3.5498405 -0.086443504   -4.1500597   0.60021924   439061 
 4976000   0.40000615   -4.1491761   -4.1491761   -3.5491682 -0.083384612   -4.1491761   0.60000786   439061 
 4977000   0.39996994   -4.1487663   -4.1487663   -3.5488127 -0.085160637   -4.1487663   0.59995354   439061 
 4978000   0.39957419    -4.148933    -4.148933   -3.5495731 -0.083917339    -4.148933   0.59935992   439061 
 4979000   0.39998843   -4.1490182   -4.1490182   -3.5490369 -0.085261283   -4.1490182   0.59998128   439061 
 4980000   0.39932413   -4.1490302   -4.1490302   -3.5500453 -0.084338015   -4.1490302   0.59898482   439061 
 4981000   0.39997306   -4.1502908   -4.1502908   -3.5503325 -0.086190148   -4.1502908   0.59995822   439061 
 4982000   0.39919288   -4.1488633   -4.1488633   -3.5500754  -0.08306954   -4.1488633   0.59878796   439061 
 4983000   0.39890137   -4.1487731   -4.1487731   -3.5504224 -0.081286879   -4.1487731   0.59835069   439061 
 4984000   0.39890614   -4.1486291   -4.1486291   -3.5502712 -0.081034909   -4.1486291   0.59835785   439061 
 4985000   0.39976836   -4.1498337   -4.1498337   -3.5501825 -0.082580603   -4.1498337   0.59965118   439061 
 4986000   0.39940341   -4.1484328   -4.1484328   -3.5493291 -0.082694428   -4.1484328   0.59910374   439061 
 4987000   0.39978526   -4.1487006   -4.1487006    -3.549024 -0.085260442   -4.1487006   0.59967653   439061 
 4988000   0.39953453   -4.1483947   -4.1483947   -3.5490942 -0.086727799   -4.1483947   0.59930043   439061 
 4989000   0.39977235   -4.1486713   -4.1486713   -3.5490141 -0.083596987   -4.1486713   0.59965717   439061 
 4990000    0.4000885   -4.1491846   -4.1491846   -3.5490532 -0.084718665   -4.1491846   0.60013139   439061 
 4991000   0.40009855   -4.1488788   -4.1488788   -3.5487324 -0.082440777   -4.1488788   0.60014646   439061 
 4992000   0.39996056   -4.1493425   -4.1493425   -3.5494031 -0.082155085   -4.1493425   0.59993948   439061 
 4993000   0.39968299   -4.1488512   -4.1488512   -3.5493281 -0.083126451   -4.1488512   0.59952311   439061 
 4994000   0.39978043    -4.148555    -4.148555   -3.5488857 -0.082093158    -4.148555   0.59966927   439061 
 4995000   0.39978676   -4.1487194   -4.1487194   -3.5490406 -0.082324517   -4.1487194   0.59967877   439061 
 4996000   0.39932297   -4.1485423   -4.1485423   -3.5495592 -0.084533466   -4.1485423   0.59898309   439061 
 4997000   0.39979738   -4.1486675   -4.1486675   -3.5489728 -0.084266205   -4.1486675   0.59969471   439061 
 4998000   0.40052655   -4.1493725   -4.1493725    -3.548584 -0.084244797   -4.1493725   0.60078846   439061 
 4999000   0.39988295   -4.1483998   -4.1483998   -3.5485767  -0.08363808   -4.1483998   0.59982306   439061 
 5000000   0.40002356    -4.148565    -4.148565    -3.548531 -0.084226634    -4.148565   0.60003397   439061 
Loop time of 7184.5 on 192 procs for 5000000 steps with 439061 atoms

Performance: 300647.188 tau/day, 695.943 timesteps/s
90.5% CPU use with 192 MPI tasks x 1 OpenMP threads

MPI task timing breakdown:
Section |  min time  |  avg time  |  max time  |%varavg|  %CPU | %total
-----------------------------------------------------------------------
Pair    | 2322.8     | 3464.6     | 3743.4     | 604.9 |  92.5 | 48.22
Bond    | 3.0879     | 3.3316     | 3.503      |   3.9 | 100.0 |  0.05
Neigh   | 750.44     | 1028.3     | 1108.6     | 264.7 |  98.0 | 14.31
Comm    | 1280.8     | 1921.2     | 3385.5     |1147.3 |  87.1 | 26.74
Output  | 276.5      | 276.91     | 276.92     |   0.2 |  67.3 |  3.85
Modify  | 122.42     | 263.38     | 638.01     |1232.8 |  92.0 |  3.67
Other   |            | 226.9      |            |       |       |  3.16

Nlocal:        2286.78 ave        2731 max        1633 min
Histogram: 4 6 7 6 1 106 38 0 0 24
Nghost:        3264.78 ave        3817 max        2042 min
Histogram: 17 7 0 24 0 0 0 1 119 24
Neighs:        60015.9 ave       72605 max       37022 min
Histogram: 5 7 10 2 0 0 134 10 0 24

Total # of neighbors = 11523051
Ave neighs/atom = 26.244761
Ave special neighs/atom = 0.0000000
Neighbor list builds = 423588
Dangerous builds = 55877
write_data	data.lj
System init for write_data ...


## Evaporation
#region          regevap block EDGE EDGE EDGE EDGE 140 EDGE units box
#fix             4 solvent evaporate ${evap} 1 regevap 156415

#run 		20000000
Total wall time: 1:59:48
