LAMMPS (24 Dec 2020)
OMP_NUM_THREADS environment is not set. Defaulting to 1 thread. (src/comm.cpp:94)
  using 1 OpenMP thread(s) per MPI task
#Read the equilibrated lj fluid and add nanocubes

units           lj
atom_style      full
atom_modify     map array first cubes
dimension       3
boundary        p p f
pair_style      lj/cut/opt 2.5

variable        sigma           equal 1.0
variable        epsilon         equal 1.0
read_restart	restart.dat.3000000
Reading restart file ...
  restart file = 29 Oct 2020, LAMMPS = 24 Dec 2020
  restoring atom style full from restart
  orthogonal box = (0.0000000 0.0000000 0.0000000) to (100.00000 100.00000 200.00000)
  4 by 5 by 12 MPI processor grid
  restoring pair style lj/cut/opt from restart
  1010000 atoms
Finding 1-2 1-3 1-4 neighbors ...
  special bond factors lj:    0        0        0       
  special bond factors coul:  0        0        0       
     0 = max # of 1-2 neighbors
     0 = max # of 1-3 neighbors
     0 = max # of 1-4 neighbors
     1 = max # of special neighbors
  special bonds CPU = 1.885 seconds
  read_restart CPU = 2.478 seconds

group		solvent type 1
1010000 atoms in group solvent
read_data	data490_500.cubes group cubes add append
Reading data file ...
  orthogonal box = (0.0000000 0.0000000 0.0000000) to (100.00000 100.00000 200.00000)
  4 by 5 by 12 MPI processor grid
  reading atoms ...
  560070 atoms
  reading velocities ...
  560070 velocities
Finding 1-2 1-3 1-4 neighbors ...
  special bond factors lj:    0        0        0       
  special bond factors coul:  0        0        0       
     0 = max # of 1-2 neighbors
     0 = max # of 1-3 neighbors
     0 = max # of 1-4 neighbors
     1 = max # of special neighbors
  special bonds CPU = 0.005 seconds
  read_data CPU = 1.422 seconds

group 		hull  type 2
218540 atoms in group hull
group 		dummy type 3
341530 atoms in group dummy

neighbor      0.4 bin
neigh_modify  exclude molecule/intra cubes


pair_modify   shift yes

pair_coeff    1 1 1.0 1.0 #solvent
pair_coeff    2 2 0.6 1.0 0.7147 #np
pair_coeff    3 3 0.0 0.0 0.0 #dummy
pair_coeff    2 3 0.0 0.0 0.0 #np dummy
pair_coeff    1 2 0.8 1.0 #np solvent
pair_coeff    1 3 0.0 0.0 2.5 #dummy solvent

# delete solvent where the cubes are
delete_atoms  overlap 1.0 solvent cubes
System init for delete_atoms ...
Neighbor list info ...
  update every 1 steps, delay 10 steps, check yes
  max neighbors/atom: 2000, page size: 100000
  master list distance cutoff = 2.9
  ghost atom cutoff = 2.9
  binsize = 1.45, bins = 69 69 138
  2 neighbor lists, perpetual/occasional/extra = 1 1 0
  (1) command delete_atoms, occasional
      attributes: full, newton on
      pair build: full/bin
      stencil: full/bin/3d
      bin: standard
  (2) pair lj/cut/opt, perpetual
      attributes: half, newton on
      pair build: half/bin/newton
      stencil: half/bin/3d/newton
      bin: standard
WARNING: Delete_atoms cutoff > minimum neighbor cutoff (src/delete_atoms.cpp:307)
WARNING: Ignoring 'compress yes' for molecular system (src/delete_atoms.cpp:125)
Deleted 499530 atoms, new total = 1070540


pair_coeff    1 1 1.0 1.0 #solvent
pair_coeff    2 2 0.6 1.0 0.7147 #np
pair_coeff    3 3 0.0 0.0 0.0 #dummy
pair_coeff    2 3 0.0 0.0 0.0 #np dummy
pair_coeff    1 2 0.8 1.0 #np solvent
pair_coeff    1 3 0.0 0.0 0.0 #dummy solvent


comm_modify   mode multi cutoff/multi 1 2.5 cutoff/multi 2 2.5 cutoff/multi 3 6.95

reset_timestep 	0

balance 	1.05 shift z 10 1.05
Balancing ...
Neighbor list info ...
  update every 1 steps, delay 10 steps, check yes
  max neighbors/atom: 2000, page size: 100000
  master list distance cutoff = 2.9
  ghost atom cutoff = 6.95
  binsize = 1.45, bins = 69 69 138
  1 neighbor lists, perpetual/occasional/extra = 1 0 0
  (1) pair lj/cut/opt, perpetual
      attributes: half, newton on
      pair build: half/bin/newton
      stencil: half/bin/3d/newton
      bin: standard
 rebalancing time: 0.015 seconds
  iteration count = 5
  initial/final maximal load/proc = 6759.0000 5358.0000
  initial/final imbalance factor  = 1.5152727 1.2011882
  x cuts: 0.0000000 0.25000000 0.50000000 0.75000000 1.0000000
  y cuts: 0.0000000 0.20000000 0.40000000 0.60000000 0.80000000 1.0000000
  z cuts: 0.0000000 0.059895833 0.11718750 0.17447917 0.23437500 0.28645833 0.34895833 0.40364583 0.47135417 0.52343750 0.57291667 0.63541667 1.0000000

####################### WALLS ###########################

variable       epsilonWall equal 2*${epsilon}
variable       epsilonWall equal 2*1
variable       repulsive   equal   0.7147*${sigma}
variable       repulsive   equal   0.7147*1
variable       full	   equal   3*${sigma}
variable       full	   equal   3*1
region         lowWall block EDGE EDGE EDGE EDGE EDGE 2

fix            topWall all wall/lj93 zhi EDGE 	       ${epsilonWall} ${sigma} ${repulsive} units box
fix            topWall all wall/lj93 zhi EDGE 	       2 ${sigma} ${repulsive} units box
fix            topWall all wall/lj93 zhi EDGE 	       2 1 ${repulsive} units box
fix            topWall all wall/lj93 zhi EDGE 	       2 1 0.7147 units box
fix            lowSol solvent wall/lj93 zlo EDGE                ${epsilonWall} ${sigma} ${full} units box
fix            lowSol solvent wall/lj93 zlo EDGE                2 ${sigma} ${full} units box
fix            lowSol solvent wall/lj93 zlo EDGE                2 1 ${full} units box
fix            lowSol solvent wall/lj93 zlo EDGE                2 1 3 units box
fix 	       lowCub cubes wall/lj93 zlo EDGE                ${epsilonWall} ${sigma} ${repulsive} units box
fix 	       lowCub cubes wall/lj93 zlo EDGE                2 ${sigma} ${repulsive} units box
fix 	       lowCub cubes wall/lj93 zlo EDGE                2 1 ${repulsive} units box
fix 	       lowCub cubes wall/lj93 zlo EDGE                2 1 0.7147 units box


###################### COMPUTES ##########################

compute        bin1 solvent chunk/atom bin/1d z upper 1.0


######################  FIXES ############################


fix             peclet solvent ave/chunk 10000 1 10000 bin1 density/number norm                  none ave one file density.profile

fix              temp solvent ave/chunk 10000 1 10000 bin1 temp norm                  none ave one file temp.profile

fix             1 cubes rigid/nve/small molecule #temp ${temp} ${temp} 10
  create bodies CPU = 0.056 seconds
  490 rigid bodies with 560070 atoms
  6.9283411 = max distance from body owner to body atom

fix             2 solvent nvt temp ${temp} ${temp} 10
fix             2 solvent nvt temp 1.1 ${temp} 10
fix             2 solvent nvt temp 1.1 1.1 10

#### Load balancing

fix             bal all balance 1000 1.05 shift z 10 1.05

############### Diagnostics and computes ###################

compute        	com cubes          rigid/local   1 mol x y z
compute        	quat cubes         rigid/local   1 mol quatw quati quatj quatk

compute 	cc2 cubes 	   chunk/atom 	 molecule
compute 	msd cubes 	   msd/chunk 	 cc2

fix 		msd all ave/time  1 1 10000 c_msd[*] file dump.msd ave one mode vector

dump            1 all custom 500000 dump.lammpstrj id mol type x y z
dump		cubetrj hull custom 500000 cubes.lammpstrj id mol type x y z
dump            com cubes local 10000 dump.*.xyz c_com[*]
dump	        xyz hull xyz 100000 cubes.xyz
dump            quat cubes      local 10000 dump.*.quat c_quat[*]
#dump		mol cubes molfile 10000 mol.xyz xyz


dump            2 all image 10000 image.*.png type type
dump_modify     2 pad 8
dump		image cubes image 10000 image_cubes.*.png type type
dump_modify	image pad 8
dump            3 all movie 5000 movie.avi type type
dump		4 cubes movie 5000 movie_cubes.avi type type


thermo          1000
thermo_style    custom step temp epair evdwl etotal press pe ke atoms

restart         1000000 restart.dat
timestep        0.005
timer           full
New timer settings: style=full  mode=nosync  timeout=off

#equilibration run with nvt on
run            2000000
Per MPI rank memory allocation (min/avg/max) = 19.34 | 29.04 | 32.49 Mbytes
Step Temp E_pair E_vdwl TotEng Press PotEng KinEng Atoms 
       0   0.85367057   -1.9697504   -1.9697504   -1.3579905  -0.35004369   -1.9697504    0.6117599  1070540 
    1000   0.86704411   -1.9702787   -1.9702787    -1.348935 -0.034479707   -1.9702787   0.62134368  1070540 
    2000   0.88224533   -1.9669631   -1.9669631   -1.3347259 -0.017949548   -1.9669631   0.63223722  1070540 
    3000   0.89774291   -1.9621952   -1.9621952    -1.318852  0.019203802   -1.9621952   0.64334314  1070540 
    4000   0.91368678   -1.9570096   -1.9570096   -1.3022407  0.034231494   -1.9570096   0.65476889  1070540 
    5000   0.92725424   -1.9492921   -1.9492921   -1.2848004  0.052515663   -1.9492921   0.66449164  1070540 
    6000   0.94118111   -1.9413662   -1.9413662   -1.2668943  0.071377009   -1.9413662   0.67447196  1070540 
    7000   0.95491261   -1.9332674   -1.9332674   -1.2489551  0.096428784   -1.9332674   0.68431226  1070540 
    8000   0.96687729   -1.9238158   -1.9238158   -1.2309294   0.10918305   -1.9238158   0.69288642  1070540 
    9000   0.98063708   -1.9157776   -1.9157776   -1.2130306   0.12876638   -1.9157776   0.70274701  1070540 
   10000   0.99248719   -1.9065599   -1.9065599   -1.1953209   0.13345835   -1.9065599   0.71123907  1070540 
   11000    1.0023556   -1.8960258   -1.8960258   -1.1777149   0.13883042   -1.8960258   0.71831097  1070540 
   12000    1.0101013   -1.8842959   -1.8842959   -1.1604341   0.14881552   -1.8842959   0.72386176  1070540 
   13000    1.0165255   -1.8717729   -1.8717729   -1.1433074   0.14641995   -1.8717729    0.7284655  1070540 
   14000    1.0201611     -1.85744     -1.85744   -1.1263692     0.145732     -1.85744   0.73107084  1070540 
   15000     1.021949   -1.8418913   -1.8418913   -1.1095392   0.12193379   -1.8418913   0.73235206  1070540 
   16000    1.0230592   -1.8255868   -1.8255868   -1.0924392   0.11756489   -1.8255868   0.73314765  1070540 
   17000      1.02243   -1.8079598   -1.8079598    -1.075263  0.084866634   -1.8079598    0.7326968  1070540 
   18000    1.0219007   -1.7903197   -1.7903197   -1.0580022  0.072609431   -1.7903197   0.73231745  1070540 
   19000     1.021511   -1.7727208   -1.7727208   -1.0406825  0.064122783   -1.7727208   0.73203822  1070540 
   20000    1.0219627   -1.7556064   -1.7556064   -1.0232444  0.055317849   -1.7556064   0.73236192  1070540 
   21000    1.0209107   -1.7369848   -1.7369848   -1.0053768  0.059881138   -1.7369848   0.73160798  1070540 
   22000    1.0225804   -1.7205207   -1.7205207  -0.98771616   0.03881897   -1.7205207   0.73280453  1070540 
   23000    1.0245719   -1.7044245   -1.7044245  -0.97019282  0.040732127   -1.7044245   0.73423168  1070540 
   24000    1.0288093   -1.6899537   -1.6899537  -0.95268544  0.039081209   -1.6899537    0.7372683  1070540 
   25000    1.0311365   -1.6740341   -1.6740341  -0.93509802  0.037875923   -1.6740341   0.73893604  1070540 
   26000    1.0359338   -1.6601019   -1.6601019  -0.91772801  0.037961069   -1.6601019   0.74237391  1070540 
   27000    1.0384282   -1.6447555   -1.6447555  -0.90059403   0.03923518   -1.6447555   0.74416144  1070540 
   28000    1.0437067   -1.6312867   -1.6312867   -0.8833425  0.034237103   -1.6312867   0.74794416  1070540 
   29000    1.0455747   -1.6158701   -1.6158701  -0.86658726  0.046427311   -1.6158701   0.74928279  1070540 
   30000    1.0513651    -1.603482    -1.603482  -0.85004966  0.038386127    -1.603482   0.75343232  1070540 
   31000    1.0558616   -1.5906409   -1.5906409  -0.83398623  0.046860033   -1.5906409   0.75665465  1070540 
   32000    1.0588923   -1.5769862   -1.5769862  -0.81815975  0.056929056   -1.5769862   0.75882646  1070540 
   33000    1.0642952     -1.56537     -1.56537  -0.80267164  0.052623335     -1.56537   0.76269832  1070540 
   34000    1.0661364   -1.5515896   -1.5515896  -0.78757181  0.059644651   -1.5515896   0.76401777  1070540 
   35000    1.0713075   -1.5408352   -1.5408352  -0.77311176  0.055979826   -1.5408352   0.76772348  1070540 
   36000    1.0741435   -1.5285247   -1.5285247  -0.75876884  0.061319709   -1.5285247   0.76975585  1070540 
   37000    1.0773324    -1.516967    -1.516967  -0.74492592  0.065600317    -1.516967   0.77204112  1070540 
   38000    1.0812813   -1.5066088   -1.5066088  -0.73173782  0.068410279   -1.5066088   0.77487098  1070540 
   39000    1.0854648   -1.4972082   -1.4972082  -0.71933918  0.063657446   -1.4972082   0.77786897  1070540 
   40000    1.0882112   -1.4872885   -1.4872885  -0.70745147  0.067415114   -1.4872885   0.77983708  1070540 
   41000    1.0903257   -1.4775315   -1.4775315  -0.69617915  0.076082456   -1.4775315   0.78135235  1070540 
   42000    1.0915278   -1.4677038   -1.4677038  -0.68548998  0.072976021   -1.4677038   0.78221386  1070540 
   43000    1.0958823   -1.4606956   -1.4606956  -0.67536124  0.081978106   -1.4606956   0.78533437  1070540 
   44000    1.0970116   -1.4523977   -1.4523977  -0.66625399  0.077272042   -1.4523977   0.78614366  1070540 
   45000    1.0977632   -1.4445405   -1.4445405  -0.65785822  0.076375042   -1.4445405    0.7866823  1070540 
   46000     1.101319    -1.439256    -1.439256  -0.65002554  0.076513996    -1.439256   0.78923046  1070540 
   47000    1.1004061   -1.4317234   -1.4317234  -0.64314722  0.081180142   -1.4317234   0.78857621  1070540 
   48000    1.1035996   -1.4278439   -1.4278439  -0.63697918  0.082965944   -1.4278439   0.79086475  1070540 
   49000    1.1012385    -1.421029    -1.421029  -0.63185619  0.086328625    -1.421029   0.78917277  1070540 
   50000     1.103553   -1.4179187   -1.4179187  -0.62708735  0.084577109   -1.4179187   0.79083138  1070540 
   51000    1.1020414   -1.4130896   -1.4130896   -0.6233415  0.088931278   -1.4130896   0.78974813  1070540 
   52000    1.1031587   -1.4108032   -1.4108032  -0.62025435  0.089103299   -1.4108032    0.7905488  1070540 
   53000    1.1022543   -1.4077894   -1.4077894  -0.61788874  0.089631221   -1.4077894   0.78990069  1070540 
   54000    1.1006891    -1.404605    -1.404605  -0.61582598  0.082830594    -1.404605   0.78877902  1070540 
   55000    1.1016308   -1.4031668   -1.4031668  -0.61371294  0.089736181   -1.4031668   0.78945386  1070540 
   56000     1.101508   -1.4012333   -1.4012333  -0.61186738  0.085496874   -1.4012333   0.78936591  1070540 
   57000    1.1033593    -1.401234    -1.401234  -0.61054137  0.089943361    -1.401234   0.79069259  1070540 
   58000    1.1013123   -1.3985965   -1.3985965  -0.60937082  0.091183163   -1.3985965   0.78922563  1070540 
   59000    1.0990497   -1.3959946   -1.3959946  -0.60839032  0.096286543   -1.3959946   0.78760423  1070540 
   60000    1.1002782   -1.3957127   -1.3957127  -0.60722813  0.087919487   -1.3957127   0.78848461  1070540 
   61000    1.0984583   -1.3927122   -1.3927122   -0.6055318  0.091225785   -1.3927122   0.78718037  1070540 
   62000    1.0987161   -1.3909809   -1.3909809  -0.60361583  0.097787287   -1.3909809   0.78736511  1070540 
   63000    1.1012075   -1.3904204   -1.3904204  -0.60126985  0.089462482   -1.3904204   0.78915055  1070540 
   64000    1.1001157   -1.3877929   -1.3877929  -0.59942481  0.097144445   -1.3877929    0.7883681  1070540 
   65000    1.1017878   -1.3875313   -1.3875313  -0.59796495  0.085813514   -1.3875313   0.78956636  1070540 
   66000    1.1003778   -1.3854408   -1.3854408  -0.59688491  0.089451717   -1.3854408   0.78855594  1070540 
   67000    1.1025257   -1.3856296   -1.3856296  -0.59553443   0.09027269   -1.3856296   0.79009522  1070540 
   68000    1.0992186   -1.3827389   -1.3827389  -0.59501363  0.090490853   -1.3827389   0.78772526  1070540 
   69000    1.1002137   -1.3826227   -1.3826227  -0.59418435  0.092028965   -1.3826227   0.78843835  1070540 
   70000    1.0981932   -1.3803255   -1.3803255  -0.59333508   0.10173526   -1.3803255   0.78699038  1070540 
   71000    1.1015433   -1.3819033   -1.3819033  -0.59251214  0.087799719   -1.3819033   0.78939119  1070540 
   72000    1.0992844   -1.3794568   -1.3794568   -0.5916844  0.094721209   -1.3794568   0.78777242  1070540 
   73000    1.0991446   -1.3785073   -1.3785073  -0.59083512  0.096686252   -1.3785073   0.78767222  1070540 
   74000    1.1012208   -1.3789022   -1.3789022  -0.58974218  0.092628277   -1.3789022   0.78916007  1070540 
   75000    1.1021038   -1.3786225   -1.3786225   -0.5888296  0.093494935   -1.3786225   0.78979286  1070540 
   76000    1.1014561   -1.3776554   -1.3776554  -0.58832672  0.091385189   -1.3776554   0.78932867  1070540 
   77000    1.1008981    -1.376998    -1.376998  -0.58806926  0.094132443    -1.376998   0.78892879  1070540 
   78000    1.1000454    -1.376526    -1.376526  -0.58820823     0.101073    -1.376526   0.78831775  1070540 
   79000    1.1009685   -1.3774412   -1.3774412  -0.58846195  0.097447347   -1.3774412   0.78897924  1070540 
   80000    1.1007488    -1.378004    -1.378004  -0.58918212  0.097888827    -1.378004   0.78882183  1070540 
   81000    1.0998637   -1.3783671   -1.3783671  -0.59017955  0.094028913   -1.3783671   0.78818751  1070540 
   82000    1.0985155   -1.3780939   -1.3780939  -0.59087258  0.091640155   -1.3780939   0.78722136  1070540 
   83000    1.1001923   -1.3794197   -1.3794197  -0.59099668  0.087927535   -1.3794197   0.78842302  1070540 
   84000    1.1009626   -1.3795833   -1.3795833  -0.59060832  0.086737721   -1.3795833   0.78897501  1070540 
   85000    1.1016214   -1.3796323   -1.3796323  -0.59018519   0.10045309   -1.3796323   0.78944714  1070540 
   86000    1.1013371    -1.379388    -1.379388  -0.59014458   0.10451855    -1.379388   0.78924338  1070540 
   87000    1.1010201   -1.3798311   -1.3798311  -0.59081492   0.10403633   -1.3798311   0.78901622  1070540 
   88000    1.1006337   -1.3801333   -1.3801333  -0.59139395  0.098794667   -1.3801333   0.78873931  1070540 
   89000    1.1008297   -1.3809837   -1.3809837  -0.59210393   0.10436438   -1.3809837   0.78887976  1070540 
   90000    1.1008981   -1.3820419   -1.3820419  -0.59311309   0.10141963   -1.3820419   0.78892882  1070540 
   91000    1.1011596    -1.383427    -1.383427   -0.5943108    0.1037597    -1.383427   0.78911619  1070540 
   92000    1.0996398   -1.3833726   -1.3833726  -0.59534557  0.096413072   -1.3833726   0.78802706  1070540 
   93000    1.1015471   -1.3859584   -1.3859584  -0.59656449  0.099329511   -1.3859584   0.78939393  1070540 
   94000    1.0987876   -1.3850979   -1.3850979  -0.59768155   0.10334093   -1.3850979   0.78741639  1070540 
   95000    1.0993826   -1.3864385   -1.3864385  -0.59859571   0.10002996   -1.3864385   0.78784279  1070540 
   96000    1.1005319   -1.3878641   -1.3878641  -0.59919775   0.08946917   -1.3878641   0.78866638  1070540 
   97000    1.1024704   -1.3900821   -1.3900821   -0.6000265   0.10549318   -1.3900821   0.79005559  1070540 
   98000    1.1003818   -1.3897944   -1.3897944   -0.6012356   0.10210121   -1.3897944   0.78855882  1070540 
   99000    1.1009928    -1.391463    -1.391463  -0.60246636   0.10687917    -1.391463   0.78899667  1070540 
  100000    1.0995904    -1.391735    -1.391735   -0.6037433  0.098101289    -1.391735   0.78799168  1070540 
  101000    1.1003195   -1.3935767   -1.3935767  -0.60506252  0.097558378   -1.3935767   0.78851416  1070540 
  102000    1.0996975   -1.3939877   -1.3939877  -0.60591927   0.10322232   -1.3939877   0.78806842  1070540 
  103000    1.0994106     -1.39435     -1.39435  -0.60648713  0.098529497     -1.39435   0.78786283  1070540 
  104000    1.0993801   -1.3945315   -1.3945315   -0.6066906  0.099375731   -1.3945315   0.78784094  1070540 
  105000    1.1004675   -1.3953804   -1.3953804  -0.60676012    0.1094612   -1.3953804   0.78862026  1070540 
  106000    1.0995447   -1.3945283   -1.3945283  -0.60656939   0.10436262   -1.3945283   0.78795894  1070540 
  107000    1.0984517   -1.3935246   -1.3935246  -0.60634893   0.10560125   -1.3935246   0.78717567  1070540 
  108000    1.1008862   -1.3946463   -1.3946463  -0.60572601   0.10794373   -1.3946463    0.7889203  1070540 
  109000    1.1014322     -1.39417     -1.39417  -0.60485842   0.10350175     -1.39417   0.78931157  1070540 
  110000    1.1010387   -1.3934541   -1.3934541  -0.60442449   0.10067426   -1.3934541   0.78902959  1070540 
  111000    1.1005564   -1.3931415   -1.3931415  -0.60445752   0.10234981   -1.3931415   0.78868398  1070540 
  112000    1.1005656   -1.3934233   -1.3934233  -0.60473281   0.10742354   -1.3934233   0.78869052  1070540 
  113000    1.0982449   -1.3920014   -1.3920014    -0.604974   0.10251546   -1.3920014   0.78702745  1070540 
  114000    1.0986763   -1.3920497   -1.3920497  -0.60471305   0.10102664   -1.3920497   0.78733662  1070540 
  115000    1.0982854   -1.3911497   -1.3911497  -0.60409323  0.098078613   -1.3911497   0.78705651  1070540 
  116000    1.0992551   -1.3908702   -1.3908702  -0.60311879  0.098740121   -1.3908702   0.78775138  1070540 
  117000    1.0994001   -1.3895839   -1.3895839  -0.60172862  0.096556278   -1.3895839    0.7878553  1070540 
  118000    1.1006753     -1.38897     -1.38897  -0.60020088  0.097786612     -1.38897   0.78876917  1070540 
  119000     1.100159    -1.387449    -1.387449  -0.59904981    0.1031006    -1.387449   0.78839917  1070540 
  120000    1.1013892   -1.3872634   -1.3872634  -0.59798266   0.10018259   -1.3872634   0.78928072  1070540 
  121000    1.1002637    -1.385814    -1.385814  -0.59733987  0.097566357    -1.385814   0.78847416  1070540 
  122000    1.0988487   -1.3841281   -1.3841281  -0.59666795    0.1092146   -1.3841281   0.78746019  1070540 
  123000    1.1009169   -1.3845645   -1.3845645  -0.59562225   0.10092934   -1.3845645   0.78894228  1070540 
  124000    1.0992379   -1.3824157   -1.3824157  -0.59467662  0.096071169   -1.3824157   0.78773909  1070540 
  125000    1.1012577   -1.3825238   -1.3825238  -0.59333728  0.093735284   -1.3825238   0.78918651  1070540 
  126000    1.0987084   -1.3790085   -1.3790085  -0.59164884  0.099454784   -1.3790085   0.78735961  1070540 
  127000    1.1002396   -1.3786437   -1.3786437  -0.59018673  0.092747766   -1.3786437   0.78845692  1070540 
  128000     1.101947   -1.3782918   -1.3782918  -0.58861128   0.10082311   -1.3782918   0.78968048  1070540 
  129000    1.1016076   -1.3768784   -1.3768784   -0.5874411  0.098058416   -1.3768784   0.78943727  1070540 
  130000    1.1009587   -1.3757814   -1.3757814  -0.58680916  0.099227425   -1.3757814   0.78897224  1070540 
  131000    1.1002665   -1.3750258   -1.3750258  -0.58654962  0.095819604   -1.3750258   0.78847617  1070540 
  132000    1.1000305   -1.3750289   -1.3750289   -0.5867218   0.10517923   -1.3750289    0.7883071  1070540 
  133000    1.0992607   -1.3747441   -1.3747441  -0.58698868    0.0978605   -1.3747441   0.78775541  1070540 
  134000    1.0972708    -1.373056    -1.373056  -0.58672662  0.090733101    -1.373056    0.7863294  1070540 
  135000    1.0976895   -1.3723699   -1.3723699  -0.58574039  0.093716855   -1.3723699   0.78662948  1070540 
  136000    1.1004169   -1.3727447   -1.3727447  -0.58416075  0.097820558   -1.3727447     0.788584  1070540 
  137000    1.0998488   -1.3704804   -1.3704804  -0.58230353  0.090898385   -1.3704804   0.78817689  1070540 
  138000    1.1009706   -1.3695458   -1.3695458  -0.58056499  0.096494111   -1.3695458   0.78898078  1070540 
  139000    1.1021845   -1.3690092   -1.3690092  -0.57915854  0.094314413   -1.3690092   0.78985068  1070540 
  140000    1.1023464   -1.3683175   -1.3683175  -0.57835077  0.096361596   -1.3683175    0.7899667  1070540 
  141000    1.1019979   -1.3680337   -1.3680337  -0.57831667   0.10574537   -1.3680337   0.78971698  1070540 
  142000    1.0994385   -1.3668463   -1.3668463  -0.57896348  0.095809214   -1.3668463   0.78788283  1070540 
  143000    1.1011163   -1.3684949   -1.3684949  -0.57940978  0.095401894   -1.3684949   0.78908516  1070540 
  144000    1.1005807   -1.3686914   -1.3686914     -0.57999   0.09301532   -1.3686914   0.78870136  1070540 
  145000    1.0976963   -1.3670415   -1.3670415   -0.5804072  0.095103966   -1.3670415   0.78663431  1070540 
  146000    1.0985741    -1.367482    -1.367482  -0.58021861  0.081687121    -1.367482   0.78726337  1070540 
  147000    1.0993922   -1.3673368   -1.3673368  -0.57948714   0.10374617   -1.3673368   0.78784961  1070540 
  148000    1.1004413   -1.3671886   -1.3671886  -0.57858711  0.093163034   -1.3671886   0.78860146  1070540 
  149000    1.1016513   -1.3669801   -1.3669801  -0.57751152  0.098197899   -1.3669801    0.7894686  1070540 
  150000    1.1025958   -1.3668759   -1.3668759  -0.57673049  0.095168828   -1.3668759   0.79014543  1070540 
  151000    1.1012869   -1.3659649   -1.3659649  -0.57675752  0.095173035   -1.3659649   0.78920741  1070540 
  152000     1.102365   -1.3673886   -1.3673886  -0.57740861  0.096172498   -1.3673886   0.78998003  1070540 
  153000    1.0980171   -1.3654066   -1.3654066  -0.57854236  0.095573848   -1.3654066   0.78686424  1070540 
  154000    1.0977962   -1.3659126   -1.3659126  -0.57920673  0.090609717   -1.3659126   0.78670592  1070540 
  155000    1.0981893   -1.3662291   -1.3662291  -0.57924149   0.09380012   -1.3662291   0.78698762  1070540 
  156000    1.0985373   -1.3658205   -1.3658205  -0.57858351   0.10344388   -1.3658205   0.78723702  1070540 
  157000    1.0996013   -1.3653241   -1.3653241  -0.57732458  0.094672154   -1.3653241   0.78799948  1070540 
  158000    1.0998059   -1.3641706   -1.3641706  -0.57602451  0.097641892   -1.3641706    0.7881461  1070540 
  159000    1.1016059   -1.3643817   -1.3643817  -0.57494569  0.094781786   -1.3643817   0.78943605  1070540 
  160000    1.1011507    -1.363594    -1.363594  -0.57448421   0.10205849    -1.363594   0.78910983  1070540 
  161000    1.1022188   -1.3644464   -1.3644464  -0.57457112  0.095632291   -1.3644464   0.78987526  1070540 
  162000    1.1014957   -1.3644663   -1.3644663   -0.5751092  0.097324115   -1.3644663   0.78935707  1070540 
  163000    1.1023981   -1.3661328   -1.3661328  -0.57612901  0.098991792   -1.3661328   0.79000375  1070540 
  164000    1.1000407    -1.365761    -1.365761  -0.57744662  0.096633442    -1.365761   0.78831435  1070540 
  165000    1.0987638   -1.3658297   -1.3658297  -0.57843038   0.09350142   -1.3658297   0.78739933  1070540 
  166000    1.0984092   -1.3659138   -1.3659138  -0.57876856  0.092199446   -1.3659138   0.78714521  1070540 
  167000    1.0976176   -1.3651312   -1.3651312  -0.57855328   0.10342504   -1.3651312   0.78657794  1070540 
  168000    1.0988459   -1.3652805   -1.3652805  -0.57782235  0.099359878   -1.3652805   0.78745818  1070540 
  169000    1.0982516   -1.3639481   -1.3639481  -0.57691586   0.10224161   -1.3639481   0.78703227  1070540 
  170000    1.1015432   -1.3657064   -1.3657064  -0.57631531   0.10136416   -1.3657064   0.78939109  1070540 
  171000    1.1000318   -1.3647679   -1.3647679  -0.57645986   0.10432908   -1.3647679   0.78830802  1070540 
  172000     1.100824   -1.3661063   -1.3661063  -0.57723056   0.10045604   -1.3661063   0.78887574  1070540 
  173000    1.1019417   -1.3679977   -1.3679977  -0.57832109   0.10519797   -1.3679977   0.78967665  1070540 
  174000    1.0994348     -1.36777     -1.36777  -0.57988984  0.097377008     -1.36777   0.78788021  1070540 
  175000    1.0981466   -1.3680395   -1.3680395  -0.58108249  0.095004025   -1.3680395   0.78695705  1070540 
  176000    1.0978866    -1.368387    -1.368387  -0.58161632  0.097599489    -1.368387   0.78677073  1070540 
  177000     1.098217   -1.3686918   -1.3686918  -0.58168435   0.10635608   -1.3686918   0.78700746  1070540 
  178000    1.0999654   -1.3693069   -1.3693069  -0.58104654   0.10344573   -1.3693069    0.7882604  1070540 
  179000    1.1010975   -1.3695731   -1.3695731  -0.58050135  0.098833082   -1.3695731   0.78907172  1070540 
  180000    1.0995357   -1.3681064   -1.3681064  -0.58015393  0.096372135   -1.3681064   0.78795247  1070540 
  181000     1.099431   -1.3674192   -1.3674192  -0.57954175   0.10103189   -1.3674192   0.78787742  1070540 
  182000    1.1031676   -1.3695814   -1.3695814   -0.5790262   0.10102458   -1.3695814   0.79055522  1070540 
  183000    1.1013768   -1.3685811   -1.3685811  -0.57930928   0.10162025   -1.3685811   0.78927187  1070540 
  184000    1.0988546   -1.3673438   -1.3673438  -0.57987946  0.093100391   -1.3673438   0.78746437  1070540 
  185000    1.0990858   -1.3679587   -1.3679587  -0.58032862   0.10786002   -1.3679587   0.78763009  1070540 
  186000    1.0998459   -1.3691252   -1.3691252  -0.58095045   0.10037616   -1.3691252    0.7881748  1070540 
  187000    1.1003888   -1.3701027   -1.3701027  -0.58153884  0.098874063   -1.3701027   0.78856382  1070540 
  188000    1.0996043   -1.3703114   -1.3703114  -0.58230975   0.10159452   -1.3703114   0.78800164  1070540 
  189000    1.0985274   -1.3702079   -1.3702079  -0.58297804  0.097513945   -1.3702079    0.7872299  1070540 
  190000    1.0993565   -1.3710038   -1.3710038  -0.58317973   0.10048895   -1.3710038   0.78782404  1070540 
  191000    1.1008733   -1.3724259   -1.3724259  -0.58351485  0.093718876   -1.3724259     0.788911  1070540 
  192000    1.0995739   -1.3715105   -1.3715105  -0.58353059  0.096262665   -1.3715105   0.78797987  1070540 
  193000    1.0997518   -1.3715102   -1.3715102  -0.58340281   0.09932354   -1.3715102   0.78810738  1070540 
  194000    1.0990475   -1.3710557   -1.3710557   -0.5834531  0.095999898   -1.3710557   0.78760259  1070540 
  195000    1.0996619   -1.3712539   -1.3712539  -0.58321099   0.10094162   -1.3712539   0.78804294  1070540 
  196000     1.099059   -1.3704878   -1.3704878  -0.58287689  0.095572966   -1.3704878   0.78761088  1070540 
  197000    1.0994577   -1.3701984   -1.3701984  -0.58230184   0.10314664   -1.3701984   0.78789659  1070540 
  198000    1.1015164   -1.3713887   -1.3713887  -0.58201683     0.102696   -1.3713887   0.78937191  1070540 
  199000    1.1004706   -1.3709017   -1.3709017  -0.58227925  0.094021818   -1.3709017   0.78862244  1070540 
  200000    1.0998285   -1.3705207   -1.3705207  -0.58235832   0.10192851   -1.3705207   0.78816233  1070540 
  201000    1.1006599   -1.3712084   -1.3712084  -0.58245032  0.097377335   -1.3712084   0.78875808  1070540 
  202000    1.0983663   -1.3695658   -1.3695658  -0.58245132   0.10555055   -1.3695658   0.78711447  1070540 
  203000    1.1003518   -1.3708836   -1.3708836  -0.58234629  0.098666613   -1.3708836   0.78853732  1070540 
  204000    1.1004741   -1.3708928   -1.3708928  -0.58226779  0.095061064   -1.3708928   0.78862498  1070540 
  205000    1.1012085   -1.3713159   -1.3713159  -0.58216465  0.096896659   -1.3713159   0.78915125  1070540 
  206000    1.0996124    -1.370072    -1.370072  -0.58206453   0.10323128    -1.370072   0.78800747  1070540 
  207000    1.0995566   -1.3696054   -1.3696054  -0.58163797  0.087322838   -1.3696054   0.78796746  1070540 
  208000    1.0991907   -1.3689886   -1.3689886  -0.58128328   0.10390626   -1.3689886   0.78770528  1070540 
  209000    1.1005426   -1.3696172   -1.3696172  -0.58094314  0.094053363   -1.3696172   0.78867402  1070540 
  210000    1.1007338   -1.3695605   -1.3695605   -0.5807494  0.099980311   -1.3695605   0.78881109  1070540 
  211000    1.1005995   -1.3691504   -1.3691504  -0.58043552   0.11039955   -1.3691504   0.78871484  1070540 
  212000    1.1001653   -1.3690933   -1.3690933  -0.58068963  0.098922675   -1.3690933   0.78840365  1070540 
  213000    1.0978921   -1.3677122   -1.3677122  -0.58093757   0.10314771   -1.3677122   0.78677467  1070540 
  214000    1.0986966    -1.368259    -1.368259   -0.5809079  0.093382386    -1.368259   0.78735113  1070540 
  215000    1.0997181   -1.3683282   -1.3683282  -0.58024503   0.10342293   -1.3683282   0.78808318  1070540 
  216000    1.0993357   -1.3670784   -1.3670784  -0.57926928   0.10109401   -1.3670784   0.78780913  1070540 
  217000    1.1023686   -1.3685225   -1.3685225  -0.57853985    0.1006171   -1.3685225   0.78998261  1070540 
  218000    1.1018463   -1.3676671   -1.3676671   -0.5780588  0.096773074   -1.3676671   0.78960831  1070540 
  219000    1.1004626   -1.3669885   -1.3669885  -0.57837182  0.099091503   -1.3669885   0.78861671  1070540 
  220000    1.0995964   -1.3667646   -1.3667646  -0.57876865  0.097158456   -1.3667646   0.78799597  1070540 
  221000    1.0991772    -1.366739    -1.366739  -0.57904336  0.098852721    -1.366739   0.78769561  1070540 
  222000      1.09881   -1.3664631   -1.3664631  -0.57903065   0.10086459   -1.3664631   0.78743241  1070540 
  223000    1.0979108   -1.3654151   -1.3654151  -0.57862709  0.091876974   -1.3654151   0.78678806  1070540 
  224000    1.1001059   -1.3658933   -1.3658933  -0.57753215  0.098776477   -1.3658933   0.78836113  1070540 
  225000    1.1007917   -1.3651661   -1.3651661  -0.57631356  0.096211383   -1.3651661   0.78885257  1070540 
  226000    1.1020361   -1.3653388   -1.3653388  -0.57559451   0.10087148   -1.3653388   0.78974432  1070540 
  227000    1.1012929   -1.3646571   -1.3646571  -0.57544538   0.10026812   -1.3646571   0.78921171  1070540 
  228000    1.0998205   -1.3636311   -1.3636311  -0.57547449  0.093086341   -1.3636311   0.78815656  1070540 
  229000    1.1006478   -1.3645195   -1.3645195  -0.57577004  0.092717044   -1.3645195   0.78874943  1070540 
  230000    1.1001887   -1.3647165   -1.3647165  -0.57629601   0.10272642   -1.3647165   0.78842047  1070540 
  231000    1.0994753   -1.3644984   -1.3644984  -0.57658921   0.09523638   -1.3644984   0.78790922  1070540 
  232000    1.1005904   -1.3657411   -1.3657411   -0.5770328  0.097820959   -1.3657411   0.78870828  1070540 
  233000    1.1013205   -1.3665162   -1.3665162  -0.57728475  0.099946888   -1.3665162   0.78923148  1070540 
  234000    1.1004468     -1.36667     -1.36667  -0.57806461   0.10258235     -1.36667   0.78860543  1070540 
  235000    1.0992258   -1.3663416   -1.3663416  -0.57861114   0.10321713   -1.3663416   0.78773042  1070540 
  236000    1.0996244   -1.3671886   -1.3671886  -0.57917256   0.10105785   -1.3671886   0.78801608  1070540 
  237000    1.0990236    -1.366702    -1.366702  -0.57911653  0.094319916    -1.366702   0.78758548  1070540 
  238000     1.099759   -1.3670169   -1.3670169  -0.57890442   0.10409072   -1.3670169   0.78811248  1070540 
  239000    1.0993294   -1.3660228   -1.3660228  -0.57821818   0.11366062   -1.3660228   0.78780461  1070540 
  240000    1.0998048   -1.3653898   -1.3653898  -0.57724449    0.1074875   -1.3653898   0.78814531  1070540 
  241000    1.1006303    -1.365321    -1.365321  -0.57658407   0.10537567    -1.365321   0.78873692  1070540 
  242000    1.1017767   -1.3655501   -1.3655501  -0.57599164   0.10440675   -1.3655501   0.78955844  1070540 
  243000    1.1003155   -1.3645962   -1.3645962  -0.57608492   0.10266276   -1.3645962   0.78851129  1070540 
  244000    1.1002226   -1.3648637   -1.3648637  -0.57641901    0.1013131   -1.3648637   0.78844472  1070540 
  245000    1.1003628   -1.3654958   -1.3654958  -0.57695053  0.098603147   -1.3654958   0.78854524  1070540 
  246000    1.0986821   -1.3648818   -1.3648818   -0.5775411   0.09218726   -1.3648818   0.78734074  1070540 
  247000    1.0999139   -1.3660378   -1.3660378  -0.57781429   0.10545483   -1.3660378   0.78822351  1070540 
  248000    1.1003143   -1.3664518   -1.3664518  -0.57794135   0.10280909   -1.3664518   0.78851043  1070540 
  249000    1.1011377   -1.3670265   -1.3670265  -0.57792597   0.10033937   -1.3670265   0.78910048  1070540 
  250000    1.1005304   -1.3664824   -1.3664824   -0.5778171   0.10074271   -1.3664824   0.78866529  1070540 
  251000     1.099483   -1.3650511   -1.3650511   -0.5771364  0.097303938   -1.3650511   0.78791471  1070540 
  252000    1.0995834   -1.3645825   -1.3645825  -0.57659582   0.10220669   -1.3645825   0.78798668  1070540 
  253000    1.1028656   -1.3665515   -1.3665515  -0.57621272   0.10379579   -1.3665515   0.79033878  1070540 
  254000    1.1003318   -1.3647263   -1.3647263  -0.57620336    0.1042825   -1.3647263   0.78852298  1070540 
  255000    1.1004381   -1.3649665   -1.3649665   -0.5763673   0.10393714   -1.3649665   0.78859917  1070540 
  256000    1.1013132   -1.3660051   -1.3660051  -0.57677876  0.097809056   -1.3660051   0.78922631  1070540 
  257000    1.0979586   -1.3644835   -1.3644835   -0.5776612   0.10125783   -1.3644835   0.78682228  1070540 
  258000    1.0995928   -1.3660166   -1.3660166  -0.57802319  0.094594009   -1.3660166   0.78799343  1070540 
  259000    1.0988223    -1.365646    -1.365646  -0.57820468  0.092606624    -1.365646   0.78744127  1070540 
  260000    1.0986145   -1.3655276   -1.3655276  -0.57823528   0.10423198   -1.3655276   0.78729236  1070540 
  261000    1.1024342   -1.3682191   -1.3682191  -0.57818946  0.098289814   -1.3682191    0.7900296  1070540 
  262000    1.0987404   -1.3659976   -1.3659976  -0.57861503  0.097607858   -1.3659976   0.78738254  1070540 
  263000    1.0999053   -1.3671904   -1.3671904  -0.57897305   0.10452016   -1.3671904   0.78821736  1070540 
  264000    1.0990944   -1.3667103   -1.3667103  -0.57907404  0.098090628   -1.3667103   0.78763624  1070540 
  265000    1.0994154   -1.3671305   -1.3671305  -0.57926416   0.09727114   -1.3671305   0.78786631  1070540 
  266000    1.1001556   -1.3674025   -1.3674025  -0.57900578   0.10197883   -1.3674025   0.78839674  1070540 
  267000    1.0987872   -1.3659727   -1.3659727  -0.57855663   0.10393689   -1.3659727   0.78741608  1070540 
  268000    1.0986259   -1.3653623   -1.3653623  -0.57806173   0.10165156   -1.3653623   0.78730053  1070540 
  269000    1.1022188   -1.3672541   -1.3672541  -0.57737884   0.10126268   -1.3672541   0.78987528  1070540 
  270000    1.1019832   -1.3668551   -1.3668551   -0.5771487   0.10191158   -1.3668551   0.78970639  1070540 
  271000    1.1016689   -1.3667107   -1.3667107   -0.5772295   0.10227344   -1.3667107    0.7894812  1070540 
  272000    1.1013734   -1.3672561   -1.3672561  -0.57798668   0.10099943   -1.3672561   0.78926943  1070540 
  273000    1.1004321   -1.3674759   -1.3674759  -0.57888108   0.10011647   -1.3674759   0.78859483  1070540 
  274000    1.0994958   -1.3679961   -1.3679961  -0.58007227   0.10566822   -1.3679961   0.78792387  1070540 
  275000    1.0994685   -1.3688181   -1.3688181  -0.58091378   0.10059469   -1.3688181   0.78790435  1070540 
  276000    1.0982477   -1.3682718   -1.3682718  -0.58124234   0.10065728   -1.3682718   0.78702947  1070540 
  277000    1.1003303   -1.3697685   -1.3697685  -0.58124654  0.098948335   -1.3697685   0.78852192  1070540 
  278000    1.0995493   -1.3687681   -1.3687681   -0.5808059  0.091120565   -1.3687681   0.78796221  1070540 
  279000    1.0991492   -1.3675462   -1.3675462  -0.57987065  0.098276227   -1.3675462   0.78767551  1070540 
  280000    1.0989576   -1.3664451   -1.3664451  -0.57890687    0.1060846   -1.3664451   0.78753824  1070540 
  281000    1.1007065   -1.3669759   -1.3669759  -0.57818435   0.10166495   -1.3669759   0.78879151  1070540 
  282000    1.1000182   -1.3658539   -1.3658539  -0.57755563  0.098915735   -1.3658539   0.78829823  1070540 
  283000    1.1001111   -1.3657239   -1.3657239  -0.57735908   0.11079362   -1.3657239   0.78836486  1070540 
  284000    1.1028102   -1.3675759   -1.3675759  -0.57727681  0.096833336   -1.3675759   0.79029905  1070540 
  285000    1.1005822   -1.3666339   -1.3666339  -0.57793152   0.10871504   -1.3666339    0.7887024  1070540 
  286000    1.0999658   -1.3674691   -1.3674691  -0.57920839  0.088972117   -1.3674691    0.7882607  1070540 
  287000    1.0977337   -1.3671845   -1.3671845  -0.58052338   0.10639054   -1.3671845   0.78666114  1070540 
  288000    1.0982792     -1.36824     -1.36824  -0.58118801  0.096459444     -1.36824   0.78705204  1070540 
  289000    1.0974401   -1.3675721   -1.3675721  -0.58112141   0.10365248   -1.3675721   0.78645069  1070540 
  290000    1.0988843   -1.3679065   -1.3679065  -0.58042085  0.093683579   -1.3679065   0.78748566  1070540 
  291000    1.1001488   -1.3678303   -1.3678303  -0.57943847   0.10651693   -1.3678303   0.78839183  1070540 
  292000    1.1004091   -1.3671142   -1.3671142   -0.5785358  0.098337343   -1.3671142   0.78857839  1070540 
  293000    1.1022068   -1.3676668   -1.3676668  -0.57780017   0.10617058   -1.3676668   0.78986663  1070540 
  294000    1.1017627     -1.36732     -1.36732  -0.57777158   0.10451512     -1.36732    0.7895484  1070540 
  295000    1.1010652    -1.367477    -1.367477  -0.57842843   0.10024578    -1.367477   0.78904855  1070540 
  296000    1.0994867   -1.3673508   -1.3673508   -0.5794334     0.103809   -1.3673508   0.78791738  1070540 
  297000    1.0986449   -1.3677288   -1.3677288  -0.58041472   0.10485642   -1.3677288   0.78731409  1070540 
  298000    1.0997997   -1.3689326   -1.3689326  -0.58079092   0.10154879   -1.3689326    0.7881417  1070540 
  299000    1.0986177   -1.3678049   -1.3678049  -0.58051024  0.093830401   -1.3678049   0.78729464  1070540 
  300000    1.0987291   -1.3667671   -1.3667671  -0.57939267  0.096723907   -1.3667671   0.78737445  1070540 
  301000    1.1009636    -1.367002    -1.367002  -0.57802619  0.087058839    -1.367002   0.78897578  1070540 
  302000    1.1014067   -1.3658812   -1.3658812  -0.57658792   0.10942802   -1.3658812   0.78929331  1070540 
  303000    1.1016836   -1.3651224   -1.3651224  -0.57563065    0.1006164   -1.3651224   0.78949171  1070540 
  304000    1.1023262   -1.3653875   -1.3653875  -0.57543532  0.096726452   -1.3653875    0.7899522  1070540 
  305000    1.1013585    -1.365414    -1.365414  -0.57615527   0.10223543    -1.365414   0.78925872  1070540 
  306000    1.0980424   -1.3641665   -1.3641665  -0.57728417   0.09780706   -1.3641665   0.78688235  1070540 
  307000    1.0996397   -1.3661208   -1.3661208  -0.57809383  0.095815048   -1.3661208   0.78802698  1070540 
  308000    1.0987342   -1.3661023   -1.3661023  -0.57872416   0.10333283   -1.3661023   0.78737811  1070540 
  309000    1.0977538   -1.3654189   -1.3654189  -0.57874335    0.1070301   -1.3654189   0.78667553  1070540 
  310000    1.0987612   -1.3659954   -1.3659954    -0.578598  0.096376611   -1.3659954   0.78739742  1070540 
  311000     1.100005    -1.366065    -1.366065  -0.57777624   0.10547796    -1.366065   0.78828877  1070540 
  312000    1.1002235   -1.3654041   -1.3654041  -0.57695868   0.09760123   -1.3654041   0.78844538  1070540 
  313000    1.0997488   -1.3642587   -1.3642587  -0.57615352   0.10254568   -1.3642587   0.78810521  1070540 
  314000     1.101411   -1.3647768   -1.3647768  -0.57548043   0.10576836   -1.3647768   0.78929638  1070540 
  315000    1.1007821   -1.3640264   -1.3640264  -0.57518073  0.091326518   -1.3640264   0.78884568  1070540 
  316000    1.1009681   -1.3639857   -1.3639857  -0.57500676   0.10541036   -1.3639857   0.78897894  1070540 
  317000    1.1003353   -1.3639502   -1.3639502   -0.5754247  0.096490671   -1.3639502   0.78852552  1070540 
  318000     1.099337   -1.3639394   -1.3639394  -0.57612928    0.1053882   -1.3639394   0.78781008  1070540 
  319000    1.0994878   -1.3649772   -1.3649772  -0.57705906   0.11278415   -1.3649772   0.78791817  1070540 
  320000    1.0979925   -1.3646915   -1.3646915  -0.57784494  0.094558857   -1.3646915   0.78684656  1070540 
  321000    1.0970725   -1.3644212   -1.3644212  -0.57823392  0.095106779   -1.3644212   0.78618732  1070540 
  322000    1.1005466   -1.3666986   -1.3666986  -0.57802172   0.10239756   -1.3666986    0.7886769  1070540 
  323000    1.1002229   -1.3655985   -1.3655985   -0.5771536   0.10575058   -1.3655985   0.78844492  1070540 
  324000    1.1006762   -1.3650018   -1.3650018  -0.57623202   0.10797772   -1.3650018   0.78876979  1070540 
  325000    1.1005825   -1.3643509   -1.3643509  -0.57564825  0.097428117   -1.3643509   0.78870263  1070540 
  326000    1.1012729   -1.3648261   -1.3648261  -0.57562873   0.10610062   -1.3648261    0.7891974  1070540 
  327000    1.0994111   -1.3639107   -1.3639107  -0.57604756   0.10087355   -1.3639107   0.78786316  1070540 
  328000    1.1001666   -1.3649752   -1.3649752  -0.57657063   0.09571245   -1.3649752   0.78840458  1070540 
  329000    1.0966883   -1.3626913   -1.3626913  -0.57677936  0.092553341   -1.3626913   0.78591197  1070540 
  330000    1.0996237   -1.3640084   -1.3640084  -0.57599285   0.10585826   -1.3640084   0.78801554  1070540 
  331000    1.1002602   -1.3639726   -1.3639726  -0.57550089   0.10345906   -1.3639726   0.78847167  1070540 
  332000    1.1003002    -1.363491    -1.363491  -0.57499063  0.098971658    -1.363491   0.78850036  1070540 
  333000     1.100331   -1.3629691   -1.3629691  -0.57444669  0.091523685   -1.3629691   0.78852242  1070540 
  334000    1.1000182   -1.3624714   -1.3624714  -0.57417316   0.10051463   -1.3624714   0.78829827  1070540 
  335000    1.1021261   -1.3638949   -1.3638949  -0.57408601   0.10153366   -1.3638949   0.78980885  1070540 
  336000    1.1012498   -1.3636053   -1.3636053  -0.57442442   0.10348702   -1.3636053   0.78918086  1070540 
  337000     1.099313   -1.3630124   -1.3630124  -0.57521953  0.095143998   -1.3630124   0.78779288  1070540 
  338000    1.0998359   -1.3639204   -1.3639204  -0.57575277    0.1029169   -1.3639204   0.78816763  1070540 
  339000    1.1000011   -1.3646717   -1.3646717  -0.57638567  0.093708962   -1.3646717   0.78828599  1070540 
  340000     1.099856    -1.364857    -1.364857  -0.57667494   0.10223369    -1.364857   0.78818205  1070540 
  341000    1.0986117   -1.3640495   -1.3640495  -0.57675921  0.099545724   -1.3640495   0.78729032  1070540 
  342000    1.0994817   -1.3644213   -1.3644213  -0.57650749  0.098584385   -1.3644213   0.78791378  1070540 
  343000    1.0999925   -1.3643088   -1.3643088  -0.57602892  0.095272603   -1.3643088   0.78827985  1070540 
  344000    1.1001153   -1.3640442   -1.3640442  -0.57567638   0.10429151   -1.3640442   0.78836786  1070540 
  345000    1.1013787   -1.3644602   -1.3644602  -0.57518701  0.099839764   -1.3644602   0.78927323  1070540 
  346000    1.1013528   -1.3643629   -1.3643629  -0.57510828  0.098085481   -1.3643629   0.78925462  1070540 
  347000    1.1005897   -1.3639359   -1.3639359  -0.57522811  0.098515378   -1.3639359   0.78870779  1070540 
  348000    1.1019214   -1.3650732   -1.3650732  -0.57541114   0.10285459   -1.3650732    0.7896621  1070540 
  349000    1.0995038   -1.3639226   -1.3639226  -0.57599292  0.088023739   -1.3639226   0.78792965  1070540 
  350000    1.0993767   -1.3641397   -1.3641397  -0.57630112   0.10195878   -1.3641397   0.78783856  1070540 
  351000    1.1000974   -1.3648295   -1.3648295  -0.57647455  0.098238292   -1.3648295   0.78835499  1070540 
  352000    1.0984574   -1.3639136   -1.3639136   -0.5767339   0.10310184   -1.3639136   0.78717974  1070540 
  353000    1.0985517   -1.3637565   -1.3637565   -0.5765092  0.093221372   -1.3637565   0.78724732  1070540 
  354000    1.1000273   -1.3643369   -1.3643369   -0.5760321   0.09748995   -1.3643369   0.78830476  1070540 
  355000    1.0998734   -1.3637163   -1.3637163  -0.57552183    0.1001004   -1.3637163   0.78819451  1070540 
  356000    1.1010907   -1.3640625   -1.3640625  -0.57499567   0.10241331   -1.3640625   0.78906683  1070540 
  357000    1.1007962   -1.3637131   -1.3637131  -0.57485734   0.10174286   -1.3637131   0.78885578  1070540 
  358000    1.1002564   -1.3633167   -1.3633167  -0.57484768  0.099977283   -1.3633167   0.78846898  1070540 
  359000    1.1012018   -1.3642416   -1.3642416  -0.57509509   0.10382275   -1.3642416   0.78914648  1070540 
  360000    1.1017388   -1.3649663   -1.3649663  -0.57543496   0.10151655   -1.3649663    0.7895313  1070540 
  361000    1.0999497   -1.3641203   -1.3641203  -0.57587113  0.096512799   -1.3641203    0.7882492  1070540 
  362000    1.1001046   -1.3648687   -1.3648687  -0.57650847   0.10083386   -1.3648687    0.7883602  1070540 
  363000    1.0993528   -1.3647741   -1.3647741  -0.57695271   0.10159409   -1.3647741   0.78782141  1070540 
  364000    1.0991191   -1.3649073   -1.3649073  -0.57725337  0.096273508   -1.3649073   0.78765397  1070540 
  365000    1.0984916   -1.3643173   -1.3643173  -0.57711306   0.10734859   -1.3643173   0.78720426  1070540 
  366000    1.1007838   -1.3654924   -1.3654924  -0.57664549  0.094109133   -1.3654924   0.78884688  1070540 
  367000    1.1021723   -1.3662896   -1.3662896   -0.5764477   0.10355593   -1.3662896   0.78984193  1070540 
  368000    1.1008353    -1.365414    -1.365414  -0.57653013   0.10167096    -1.365414   0.78888384  1070540 
  369000    1.0998358   -1.3648325   -1.3648325  -0.57666499  0.095689171   -1.3648325   0.78816754  1070540 
  370000    1.1004842   -1.3653407   -1.3653407  -0.57670846  0.092438184   -1.3653407    0.7886322  1070540 
  371000    1.1013013   -1.3655715   -1.3655715  -0.57635378   0.10459283   -1.3655715   0.78921775  1070540 
  372000    1.1011936   -1.3655486   -1.3655486  -0.57640808   0.10547215   -1.3655486   0.78914056  1070540 
  373000    1.1004812    -1.365497    -1.365497  -0.57686699   0.11104373    -1.365497   0.78863003  1070540 
  374000    1.1001015   -1.3660072   -1.3660072  -0.57764921   0.10022366   -1.3660072   0.78835796  1070540 
  375000    1.1002875   -1.3669724   -1.3669724   -0.5784812   0.10721873   -1.3669724   0.78849122  1070540 
  376000    1.0995856   -1.3673784   -1.3673784  -0.57939012  0.098334391   -1.3673784   0.78798824  1070540 
  377000    1.0999006   -1.3685024   -1.3685024  -0.58028845   0.10047527   -1.3685024   0.78821396  1070540 
  378000    1.0978109   -1.3674952   -1.3674952  -0.58077875   0.10517936   -1.3674952   0.78671643  1070540 
  379000    1.0995501   -1.3688368   -1.3688368  -0.58087404  0.098793483   -1.3688368   0.78796281  1070540 
  380000    1.0996269   -1.3687619   -1.3687619  -0.58074407   0.10075204   -1.3687619   0.78801784  1070540 
  381000    1.0997502   -1.3682543   -1.3682543  -0.58014812   0.09805595   -1.3682543   0.78810622  1070540 
  382000    1.1001619   -1.3679747   -1.3679747  -0.57957351  0.097286281   -1.3679747   0.78840124  1070540 
  383000     1.101046   -1.3681186   -1.3681186  -0.57908378   0.10994858   -1.3681186   0.78903477  1070540 
  384000     1.100258    -1.367445    -1.367445   -0.5789749   0.10287203    -1.367445    0.7884701  1070540 
  385000    1.1006173    -1.367717    -1.367717  -0.57898944  0.098874344    -1.367717   0.78872756  1070540 
  386000     1.099929   -1.3673043   -1.3673043  -0.57906995  0.098621459   -1.3673043   0.78823437  1070540 
  387000    1.0996545   -1.3672374   -1.3672374  -0.57919981   0.10124965   -1.3672374   0.78803759  1070540 
  388000    1.0986086   -1.3663686   -1.3663686  -0.57908048  0.097003503   -1.3663686    0.7872881  1070540 
  389000    1.1008372   -1.3673028   -1.3673028  -0.57841768  0.095190148   -1.3673028   0.78888513  1070540 
  390000    1.1002835   -1.3662426   -1.3662426  -0.57775422  0.092437633   -1.3662426    0.7884884  1070540 
  391000    1.1011399   -1.3663315   -1.3663315  -0.57722939   0.10100418   -1.3663315    0.7891021  1070540 
  392000    1.0992867   -1.3645576   -1.3645576  -0.57678353  0.095149975   -1.3645576   0.78777404  1070540 
  393000     1.100594   -1.3652212   -1.3652212  -0.57651031   0.11033789   -1.3652212   0.78871087  1070540 
  394000     1.100541   -1.3650254   -1.3650254  -0.57635246   0.10177419   -1.3650254   0.78867291  1070540 
  395000    1.0999374   -1.3650337   -1.3650337  -0.57679334  0.093447588   -1.3650337   0.78824032  1070540 
  396000    1.0998887   -1.3654624   -1.3654624  -0.57725699   0.10228759   -1.3654624   0.78820542  1070540 
  397000    1.0995735   -1.3657986   -1.3657986  -0.57781905  0.095797019   -1.3657986   0.78797959  1070540 
  398000    1.1008432   -1.3667241   -1.3667241  -0.57783458   0.10797395   -1.3667241   0.78888947  1070540 
  399000    1.1009164   -1.3668488   -1.3668488  -0.57790688   0.10152309   -1.3668488   0.78894191  1070540 
  400000    1.1008081   -1.3672798   -1.3672798  -0.57841549  0.098304818   -1.3672798   0.78886431  1070540 
  401000    1.0997673     -1.36703     -1.36703  -0.57891155    0.1016547     -1.36703   0.78811844  1070540 
  402000    1.0975284   -1.3658769   -1.3658769  -0.57936294   0.10214023   -1.3658769   0.78651398  1070540 
  403000    1.0981819   -1.3662095   -1.3662095  -0.57922713  0.098055925   -1.3662095   0.78698235  1070540 
  404000    1.0996649   -1.3664873   -1.3664873  -0.57844222   0.09348038   -1.3664873   0.78804506  1070540 
  405000    1.0985509   -1.3649616   -1.3649616  -0.57771492   0.10002147   -1.3649616   0.78724673  1070540 
  406000    1.1010151   -1.3654999   -1.3654999  -0.57648724  0.097398405   -1.3654999   0.78901268  1070540 
  407000    1.1003088   -1.3641269   -1.3641269  -0.57562039   0.10526964   -1.3641269   0.78850652  1070540 
  408000    1.1018598   -1.3646335   -1.3646335  -0.57501551  0.093835138   -1.3646335   0.78961802  1070540 
  409000    1.1027683   -1.3651122   -1.3651122  -0.57484312   0.10279334   -1.3651122   0.79026903  1070540 
  410000    1.1006281   -1.3638762   -1.3638762  -0.57514092   0.09985841   -1.3638762    0.7887353  1070540 
  411000    1.1007663   -1.3647232   -1.3647232  -0.57588878  0.097419232   -1.3647232   0.78883438  1070540 
  412000    1.1008111   -1.3657355   -1.3657355    -0.576869  0.093001371   -1.3657355    0.7888665  1070540 
  413000    1.0989352   -1.3650423   -1.3650423  -0.57752021  0.094722094   -1.3650423   0.78752213  1070540 
  414000    1.0984942     -1.36519     -1.36519  -0.57798391  0.097753782     -1.36519   0.78720612  1070540 
  415000    1.0990843   -1.3658005   -1.3658005  -0.57817156   0.10293877   -1.3658005   0.78762896  1070540 
  416000    1.0989567    -1.365547    -1.365547  -0.57800946   0.10317479    -1.365547   0.78753753  1070540 
  417000    1.1006363   -1.3665692   -1.3665692  -0.57782806   0.10011195   -1.3665692   0.78874118  1070540 
  418000    1.1000014   -1.3658542   -1.3658542  -0.57756806  0.093370999   -1.3658542   0.78828618  1070540 
  419000     1.100147   -1.3657647   -1.3657647  -0.57737417  0.097275949   -1.3657647   0.78839057  1070540 
  420000    1.1004557   -1.3657474   -1.3657474  -0.57713561  0.099251484   -1.3657474    0.7886118  1070540 
  421000    1.0992643   -1.3646942   -1.3646942  -0.57693625  0.096539601   -1.3646942   0.78775799  1070540 
  422000    1.0993402   -1.3646188   -1.3646188   -0.5768064  0.095582986   -1.3646188   0.78781241  1070540 
  423000    1.0999327   -1.3648312   -1.3648312  -0.57659422  0.092334996   -1.3648312   0.78823701  1070540 
  424000    1.1002956   -1.3645166   -1.3645166  -0.57601957   0.09654591   -1.3645166   0.78849704  1070540 
  425000    1.0997733   -1.3636924   -1.3636924  -0.57556965   0.10581659   -1.3636924   0.78812275  1070540 
  426000    1.1005208   -1.3638624   -1.3638624  -0.57520399   0.10085293   -1.3638624   0.78865844  1070540 
  427000     1.100739   -1.3640896   -1.3640896  -0.57527484   0.10927741   -1.3640896   0.78881481  1070540 
  428000    1.1017061   -1.3651496   -1.3651496   -0.5756418   0.10057836   -1.3651496   0.78950784  1070540 
  429000    1.1023634   -1.3667441   -1.3667441  -0.57676526    0.0963884   -1.3667441   0.78997885  1070540 
  430000    1.0994382   -1.3658264   -1.3658264  -0.57794376  0.089690417   -1.3658264   0.78788262  1070540 
  431000    1.0975924   -1.3655411   -1.3655411  -0.57898129   0.10346005   -1.3655411   0.78655985  1070540 
  432000    1.0988593   -1.3666504   -1.3666504  -0.57918262  0.096513215   -1.3666504   0.78746778  1070540 
  433000    1.0994326   -1.3669254   -1.3669254  -0.57904678   0.10068854   -1.3669254   0.78787862  1070540 
  434000    1.0988312   -1.3659162   -1.3659162  -0.57846852  0.098688561   -1.3659162   0.78744764  1070540 
  435000    1.1000498   -1.3656077   -1.3656077  -0.57728673  0.095577877   -1.3656077   0.78832093  1070540 
  436000    1.1011344   -1.3649517   -1.3649517  -0.57585353   0.10175355   -1.3649517   0.78909812  1070540 
  437000    1.1017602   -1.3645409   -1.3645409  -0.57499425   0.10031325   -1.3645409   0.78954661  1070540 
  438000    1.1006485   -1.3638103   -1.3638103  -0.57506044   0.11107053   -1.3638103   0.78874991  1070540 
  439000     1.100766   -1.3645838   -1.3645838  -0.57574968   0.10497819   -1.3645838   0.78883415  1070540 
  440000    1.1019187   -1.3664926   -1.3664926  -0.57683241    0.1059541   -1.3664926   0.78966018  1070540 
  441000    1.1007359   -1.3670611   -1.3670611   -0.5782485  0.098772066   -1.3670611   0.78881258  1070540 
  442000    1.0983299    -1.366976    -1.366976  -0.57988764   0.09449186    -1.366976   0.78708835  1070540 
  443000    1.0973108   -1.3670236   -1.3670236   -0.5806655  0.091322612   -1.3670236   0.78635808  1070540 
  444000    1.0987592   -1.3678353   -1.3678353  -0.58043924  0.096393858   -1.3678353   0.78739605  1070540 
  445000    1.0993913   -1.3678454   -1.3678454   -0.5799964  0.093711615   -1.3678454   0.78784899  1070540 
  446000    1.1012816   -1.3685745   -1.3685745  -0.57937088  0.098729663   -1.3685745   0.78920365  1070540 
  447000     1.101054   -1.3679392   -1.3679392  -0.57889867  0.096860205   -1.3679392   0.78904055  1070540 
  448000    1.0995543    -1.366607    -1.366607  -0.57864124  0.099792603    -1.366607   0.78796578  1070540 
  449000    1.0994163   -1.3662895   -1.3662895  -0.57842255   0.10058445   -1.3662895   0.78786691  1070540 
  450000    1.0981909    -1.365203    -1.365203   -0.5782142   0.10750316    -1.365203   0.78698879  1070540 
  451000     1.100001   -1.3661681   -1.3661681  -0.57788219   0.10233778   -1.3661681   0.78828591  1070540 
  452000    1.0998752   -1.3657166   -1.3657166  -0.57752079  0.099442618   -1.3657166   0.78819577  1070540 
  453000    1.0999871   -1.3656218   -1.3656218  -0.57734576  0.099299333   -1.3656218   0.78827599  1070540 
  454000    1.1018846   -1.3671334   -1.3671334  -0.57749765   0.10449264   -1.3671334   0.78963579  1070540 
  455000    1.1006304   -1.3668523   -1.3668523  -0.57811535   0.10640581   -1.3668523   0.78873699  1070540 
  456000    1.0999857   -1.3671247   -1.3671247  -0.57884973  0.098989369   -1.3671247   0.78827497  1070540 
  457000     1.098535   -1.3667939   -1.3667939  -0.57955852   0.10415686   -1.3667939   0.78723538  1070540 
  458000    1.0974242   -1.3663807   -1.3663807  -0.57994135   0.09531572   -1.3663807   0.78643934  1070540 
  459000    1.0997187    -1.368221    -1.368221  -0.58013742  0.097849144    -1.368221   0.78808359  1070540 
  460000    1.0981976   -1.3671599   -1.3671599  -0.58016625  0.093044991   -1.3671599    0.7869936  1070540 
  461000    1.0997949   -1.3680716   -1.3680716  -0.57993334   0.10238944   -1.3680716   0.78813822  1070540 
  462000    1.0990332   -1.3669659   -1.3669659  -0.57937357  0.096490625   -1.3669659   0.78759236  1070540 
  463000    1.0997045   -1.3665509   -1.3665509  -0.57847744   0.10376773   -1.3665509   0.78807346  1070540 
  464000    1.1023033   -1.3676631   -1.3676631  -0.57772723   0.10320683   -1.3676631   0.78993584  1070540 
  465000    1.1015188   -1.3667586   -1.3667586  -0.57738496  0.091402082   -1.3667586   0.78937365  1070540 
  466000    1.1013319   -1.3666377   -1.3666377  -0.57739801   0.10418626   -1.3666377   0.78923968  1070540 
  467000    1.1012002   -1.3669699   -1.3669699  -0.57782457  0.097793181   -1.3669699   0.78914532  1070540 
  468000     1.101566   -1.3681616   -1.3681616  -0.57875417  0.099056629   -1.3681616   0.78940745  1070540 
  469000     1.099408   -1.3680009   -1.3680009   -0.5801399   0.10486573   -1.3680009   0.78786097  1070540 
  470000    1.0980707   -1.3681233   -1.3681233  -0.58122068    0.1020309   -1.3681233   0.78690265  1070540 
  471000    1.0988863   -1.3695126   -1.3695126  -0.58202557  0.097741901   -1.3695126   0.78748708  1070540 
  472000    1.0980203    -1.369131    -1.369131  -0.58226449  0.099497139    -1.369131   0.78686651  1070540 
  473000     1.097059   -1.3678745   -1.3678745  -0.58169684   0.10480564   -1.3678745   0.78617762  1070540 
  474000    1.0999699   -1.3689685   -1.3689685  -0.58070484   0.09474119   -1.3689685   0.78826366  1070540 
  475000    1.1023487   -1.3692396   -1.3692396  -0.57927124   0.10193809   -1.3692396   0.78996833  1070540 
  476000    1.1029314   -1.3690053   -1.3690053  -0.57861942   0.11003607   -1.3690053   0.79038592  1070540 
  477000    1.1008576   -1.3675982   -1.3675982  -0.57869848   0.10461323   -1.3675982   0.78889977  1070540 
  478000    1.0992272   -1.3666702   -1.3666702  -0.57893877   0.10123097   -1.3666702   0.78773139  1070540 
  479000    1.0994119   -1.3668798   -1.3668798  -0.57901607  0.096983541   -1.3668798   0.78786377  1070540 
  480000    1.0982717     -1.36579     -1.36579  -0.57874333  0.092186043     -1.36579   0.78704669  1070540 
  481000    1.0999532   -1.3663411   -1.3663411  -0.57808941   0.10227061   -1.3663411   0.78825167  1070540 
  482000     1.101925    -1.366999    -1.366999  -0.57733433   0.10444789    -1.366999   0.78966468  1070540 
  483000    1.0998708   -1.3652007   -1.3652007  -0.57700808   0.10697986   -1.3652007    0.7881926  1070540 
  484000    1.0991702   -1.3649451   -1.3649451   -0.5772545   0.10404814   -1.3649451   0.78769057  1070540 
  485000    1.1008751   -1.3664004   -1.3664004  -0.57748809   0.10212559   -1.3664004   0.78891236  1070540 
  486000    1.1002191   -1.3665474   -1.3665474  -0.57810523  0.093654652   -1.3665474   0.78844219  1070540 
  487000    1.0991959   -1.3664221   -1.3664221  -0.57871312   0.10154094   -1.3664221     0.787709  1070540 
  488000    1.0996972   -1.3670682   -1.3670682  -0.57900006   0.09886999   -1.3670682   0.78806819  1070540 
  489000    1.0985369   -1.3660792   -1.3660792  -0.57884245  0.094654251   -1.3660792   0.78723673  1070540 
  490000    1.0994977   -1.3663831   -1.3663831  -0.57845779  0.094851074   -1.3663831   0.78792529  1070540 
  491000    1.1008147   -1.3668665   -1.3668665  -0.57799745  0.098446549   -1.3668665   0.78886902  1070540 
  492000    1.0997203   -1.3654028   -1.3654028  -0.57731803   0.10606565   -1.3654028   0.78808474  1070540 
  493000    1.1028562   -1.3673626   -1.3673626  -0.57703054   0.10164916   -1.3673626   0.79033204  1070540 
  494000    1.1002272   -1.3658976   -1.3658976  -0.57744953  0.094799593   -1.3658976   0.78844803  1070540 
  495000       1.1025   -1.3680541   -1.3680541   -0.5779773   0.10035268   -1.3680541   0.79007676  1070540 
  496000     1.097996   -1.3657904   -1.3657904  -0.57894132  0.094733045   -1.3657904   0.78684908  1070540 
  497000    1.0988085   -1.3670399   -1.3670399  -0.57960858  0.097274536   -1.3670399   0.78743136  1070540 
  498000    1.0990377   -1.3674108   -1.3674108  -0.57981514  0.095950792   -1.3674108   0.78759563  1070540 
  499000    1.0985391   -1.3669318   -1.3669318   -0.5796935   0.10258301   -1.3669318   0.78723827  1070540 
  500000    1.1006835   -1.3680075   -1.3680075   -0.5792325   0.10876945   -1.3680075   0.78877499  1070540 
  501000    1.1006757    -1.367889    -1.367889  -0.57911955   0.10321053    -1.367889   0.78876943  1070540 
  502000    1.0996695   -1.3671943   -1.3671943  -0.57914594    0.1002429   -1.3671943   0.78804836  1070540 
  503000    1.1001434    -1.367598    -1.367598  -0.57921004  0.096608461    -1.367598   0.78838801  1070540 
  504000    1.1005752     -1.36815     -1.36815  -0.57945259   0.10989455     -1.36815   0.78869742  1070540 
  505000    1.0992387    -1.367547    -1.367547  -0.57980733   0.10105315    -1.367547   0.78773966  1070540 
  506000    1.0994769   -1.3676084   -1.3676084  -0.57969808  0.094363807   -1.3676084   0.78791035  1070540 
  507000    1.1004602   -1.3679696   -1.3679696  -0.57935457  0.095303641   -1.3679696   0.78861503  1070540 
  508000    1.0997608   -1.3671789   -1.3671789  -0.57906509    0.1004767   -1.3671789    0.7881138  1070540 
  509000    1.1010498   -1.3679216   -1.3679216  -0.57888408   0.10432883   -1.3679216   0.78903754  1070540 
  510000    1.1010154   -1.3681555   -1.3681555  -0.57914259   0.10566036   -1.3681555   0.78901287  1070540 
  511000    1.0997213   -1.3677774   -1.3677774  -0.57969185  0.098213281   -1.3677774   0.78808552  1070540 
  512000    1.1002227   -1.3686696   -1.3686696  -0.58022476   0.10562374   -1.3686696   0.78844481  1070540 
  513000    1.0988779   -1.3684088   -1.3684088  -0.58092769  0.097260212   -1.3684088   0.78748112  1070540 
  514000    1.0987201   -1.3685083   -1.3685083  -0.58114028  0.097728044   -1.3685083   0.78736797  1070540 
  515000    1.0993873   -1.3688162   -1.3688162   -0.5809701   0.11057083   -1.3688162   0.78784615  1070540 
  516000    1.0998758    -1.368833    -1.368833  -0.58063677  0.099134787    -1.368833   0.78819622  1070540 
  517000    1.0998499   -1.3681504   -1.3681504  -0.57997279    0.1045547   -1.3681504   0.78817764  1070540 
  518000    1.1020258   -1.3692263   -1.3692263  -0.57948943   0.10605005   -1.3692263   0.78973691  1070540 
  519000    1.0996375   -1.3676501   -1.3676501  -0.57962469   0.10184633   -1.3676501   0.78802543  1070540 
  520000    1.1006485   -1.3681679   -1.3681679  -0.57941799  0.099925365   -1.3681679   0.78874993  1070540 
  521000    1.0998925   -1.3675252   -1.3675252  -0.57931707   0.10592461   -1.3675252   0.78820816  1070540 
  522000    1.0996069   -1.3672073   -1.3672073  -0.57920378   0.10844195   -1.3672073   0.78800351  1070540 
  523000    1.0992987   -1.3667065   -1.3667065   -0.5789238   0.10100761   -1.3667065   0.78778266  1070540 
  524000    1.1005209    -1.367366    -1.367366  -0.57870751   0.10412591    -1.367366    0.7886585  1070540 
  525000    1.1019786   -1.3681584   -1.3681584  -0.57845529   0.10401539   -1.3681584   0.78970314  1070540 
  526000     1.101541   -1.3679201   -1.3679201  -0.57853059   0.10280263   -1.3679201   0.78938952  1070540 
  527000    1.0995786   -1.3669616   -1.3669616  -0.57897839   0.10853978   -1.3669616    0.7879832  1070540 
  528000    1.0998192   -1.3674713   -1.3674713  -0.57931569   0.10486089   -1.3674713   0.78815562  1070540 
  529000    1.0987699    -1.367016    -1.367016  -0.57961229   0.10549547    -1.367016   0.78740367  1070540 
  530000    1.0986196   -1.3668338   -1.3668338  -0.57953779   0.10442971   -1.3668338     0.787296  1070540 
  531000    1.0985709   -1.3662688   -1.3662688  -0.57900772  0.098714385   -1.3662688   0.78726107  1070540 
  532000    1.1004522   -1.3665963   -1.3665963  -0.57798706   0.10761835   -1.3665963   0.78860926  1070540 
  533000    1.1004528   -1.3659587   -1.3659587  -0.57734899    0.1126759   -1.3659587   0.78860972  1070540 
  534000    1.1011932   -1.3664255   -1.3664255  -0.57728515   0.10484351   -1.3664255   0.78914032  1070540 
  535000    1.1033517   -1.3684024   -1.3684024  -0.57771526   0.10076819   -1.3684024   0.79068712  1070540 
  536000    1.0993243   -1.3666636   -1.3666636  -0.57886264  0.095378097   -1.3666636   0.78780098  1070540 
  537000    1.0998676   -1.3678162   -1.3678162  -0.57962589   0.10392231   -1.3678162   0.78819032  1070540 
  538000    1.0983852   -1.3676333   -1.3676333  -0.58050536   0.10584888   -1.3676333   0.78712799  1070540 
  539000    1.0993503   -1.3690893   -1.3690893  -0.58126972   0.09412142   -1.3690893   0.78781963  1070540 
  540000    1.0978948   -1.3685474   -1.3685474  -0.58177082   0.10398076   -1.3685474   0.78677657  1070540 
  541000    1.0990262   -1.3693134   -1.3693134  -0.58172604  0.099874407   -1.3693134   0.78758739  1070540 
  542000    1.0988475   -1.3685096   -1.3685096  -0.58105035   0.10487455   -1.3685096   0.78745929  1070540 
  543000    1.1019003   -1.3698389   -1.3698389  -0.58019191   0.10003901   -1.3698389     0.789647  1070540 
  544000    1.1015368   -1.3691074   -1.3691074  -0.57972085  0.096161839   -1.3691074   0.78938654  1070540 
  545000    1.1014908   -1.3689342   -1.3689342  -0.57958067   0.10820918   -1.3689342   0.78935356  1070540 
  546000    1.1001188   -1.3681292   -1.3681292  -0.57975889   0.10261461   -1.3681292   0.78837034  1070540 
  547000    1.1002195   -1.3682947   -1.3682947  -0.57985219   0.10355931   -1.3682947   0.78844251  1070540 
  548000    1.1003936   -1.3687643   -1.3687643  -0.58019704   0.10301768   -1.3687643   0.78856726  1070540 
  549000    1.0993986   -1.3680043   -1.3680043  -0.58015006   0.10153652   -1.3680043   0.78785424  1070540 
  550000    1.1007173   -1.3690639   -1.3690639  -0.58026463  0.093762547   -1.3690639   0.78879928  1070540 
  551000    1.0990866   -1.3679208   -1.3679208  -0.58029019   0.10265287   -1.3679208   0.78763062  1070540 
  552000    1.1008781   -1.3693933   -1.3693933  -0.58047883   0.10806134   -1.3693933   0.78891448  1070540 
  553000    1.0999834   -1.3690114   -1.3690114  -0.58073812  0.098177108   -1.3690114   0.78827329  1070540 
  554000    1.0987885   -1.3685894   -1.3685894  -0.58117238   0.10083849   -1.3685894   0.78741703  1070540 
  555000    1.0990577   -1.3690144   -1.3690144  -0.58140446   0.10345361   -1.3690144   0.78760996  1070540 
  556000    1.0991708   -1.3689477   -1.3689477  -0.58125671   0.10591996   -1.3689477   0.78769095  1070540 
  557000    1.0995514   -1.3691284   -1.3691284  -0.58116463  0.099518046   -1.3691284   0.78796374  1070540 
  558000    1.1002576   -1.3692615   -1.3692615  -0.58079169   0.10536717   -1.3692615   0.78846981  1070540 
  559000    1.1009564   -1.3694721   -1.3694721  -0.58050157  0.097366764   -1.3694721   0.78897057  1070540 
  560000    1.1006909   -1.3692728   -1.3692728   -0.5804925   0.10013678   -1.3692728   0.78878033  1070540 
  561000    1.0996183   -1.3683609   -1.3683609   -0.5803492  0.090197686   -1.3683609   0.78801169  1070540 
  562000    1.0974456   -1.3668541   -1.3668541   -0.5803994   0.10044285   -1.3668541   0.78645466  1070540 
  563000    1.0994696   -1.3680605   -1.3680605  -0.58015541   0.10453882   -1.3680605    0.7879051  1070540 
  564000    1.1003464   -1.3686364   -1.3686364  -0.58010296   0.10395201   -1.3686364   0.78853343  1070540 
  565000    1.1004373   -1.3686647   -1.3686647  -0.58006608   0.10216687   -1.3686647    0.7885986  1070540 
  566000    1.0996605   -1.3682581   -1.3682581  -0.58021617   0.10742135   -1.3682581   0.78804193  1070540 
  567000    1.0987794   -1.3678142   -1.3678142  -0.58040369  0.099037153   -1.3678142    0.7874105  1070540 
  568000    1.0998741   -1.3689889   -1.3689889  -0.58079393    0.1052813   -1.3689889   0.78819498  1070540 
  569000    1.0998918   -1.3690342   -1.3690342  -0.58082656  0.097812274   -1.3690342   0.78820768  1070540 
  570000    1.0997056   -1.3690647   -1.3690647  -0.58099043   0.10035929   -1.3690647   0.78807423  1070540 
  571000    1.0994256   -1.3689753   -1.3689753  -0.58110173  0.097526787   -1.3689753   0.78787356  1070540 
  572000    1.0992859   -1.3683333   -1.3683333  -0.58055987   0.10934026   -1.3683333   0.78777344  1070540 
  573000    1.1002009   -1.3688075   -1.3688075  -0.58037831   0.10053762   -1.3688075   0.78842915  1070540 
  574000    1.1007437   -1.3690083   -1.3690083  -0.58019013  0.098942615   -1.3690083   0.78881819  1070540 
  575000    1.1000863   -1.3686072   -1.3686072  -0.58026016  0.098280491   -1.3686072   0.78834703  1070540 
  576000    1.0999024   -1.3688596   -1.3688596  -0.58064434   0.10320887   -1.3688596   0.78821525  1070540 
  577000    1.0999941   -1.3692905   -1.3692905  -0.58100948  0.098736453   -1.3692905     0.788281  1070540 
  578000    1.1003651   -1.3698296   -1.3698296  -0.58128272  0.098721085   -1.3698296   0.78854684  1070540 
  579000    1.0984475   -1.3684772   -1.3684772  -0.58130453   0.10293857   -1.3684772   0.78717267  1070540 
  580000    1.0978958   -1.3677983   -1.3677983  -0.58102098    0.1035144   -1.3677983   0.78677732  1070540 
  581000    1.0996509   -1.3682756   -1.3682756  -0.58024062   0.10002235   -1.3682756   0.78803502  1070540 
  582000    1.0997906   -1.3677007   -1.3677007  -0.57956558   0.10996471   -1.3677007   0.78813514  1070540 
  583000    1.1016132   -1.3680926   -1.3680926  -0.57865133  0.097407739   -1.3680926   0.78944128  1070540 
  584000    1.1029512   -1.3686525   -1.3686525  -0.57825239   0.10562727   -1.3686525   0.79040013  1070540 
  585000    1.1023307   -1.3684774   -1.3684774  -0.57852192   0.10424828   -1.3684774   0.78995547  1070540 
  586000     1.100617   -1.3681358   -1.3681358  -0.57940837    0.1084832   -1.3681358    0.7887274  1070540 
  587000    1.0990581   -1.3681722   -1.3681722  -0.58056193  0.090008873   -1.3681722   0.78761025  1070540 
  588000    1.0987775   -1.3687452   -1.3687452  -0.58133603   0.09826315   -1.3687452   0.78740913  1070540 
  589000    1.0993348   -1.3693991   -1.3693991  -0.58159058  0.098620832   -1.3693991   0.78780852  1070540 
  590000    1.1000273   -1.3700951   -1.3700951  -0.58179027   0.10085123   -1.3700951    0.7883048  1070540 
  591000    1.1024308   -1.3718069   -1.3718069  -0.58177967   0.10160996   -1.3718069   0.79002721  1070540 
  592000    1.1005707    -1.370505    -1.370505  -0.58181079   0.10969302    -1.370505   0.78869417  1070540 
  593000    1.0997063   -1.3701396   -1.3701396  -0.58206483   0.10514872   -1.3701396   0.78807476  1070540 
  594000    1.1001058   -1.3708534   -1.3708534  -0.58249244   0.10096549   -1.3708534     0.788361  1070540 
  595000    1.0994396   -1.3707863   -1.3707863  -0.58290275   0.10216208   -1.3707863   0.78788359  1070540 
  596000     1.098776   -1.3706458   -1.3706458   -0.5832377   0.10143967   -1.3706458   0.78740809  1070540 
  597000     1.099677   -1.3711696   -1.3711696  -0.58311585   0.10275242   -1.3711696   0.78805375  1070540 
  598000    1.0998348   -1.3710938   -1.3710938  -0.58292694   0.10225892   -1.3710938   0.78816682  1070540 
  599000     1.099538   -1.3703978   -1.3703978  -0.58244364  0.097263632   -1.3703978   0.78795414  1070540 
  600000     1.100352    -1.370338    -1.370338  -0.58180049  0.099846031    -1.370338   0.78853748  1070540 
  601000    1.1009927   -1.3701101   -1.3701101  -0.58111351   0.10698762   -1.3701101   0.78899658  1070540 
  602000    1.0997147    -1.368635    -1.368635  -0.58055426  0.096832328    -1.368635   0.78808076  1070540 
  603000    1.1014575   -1.3697472   -1.3697472   -0.5804175   0.10672308   -1.3697472   0.78932967  1070540 
  604000    1.1014648   -1.3699393   -1.3699393   -0.5806044   0.10473546   -1.3699393   0.78933491  1070540 
  605000    1.0997767   -1.3694806   -1.3694806  -0.58135539  0.098525091   -1.3694806   0.78812517  1070540 
  606000    1.0975346   -1.3687066   -1.3687066  -0.58218818  0.098288591   -1.3687066   0.78651844  1070540 
  607000    1.0992915   -1.3701225   -1.3701225  -0.58234501   0.10078777   -1.3701225   0.78777746  1070540 
  608000    1.0981324   -1.3688321   -1.3688321  -0.58188525  0.098806338   -1.3688321   0.78694683  1070540 
  609000    1.0997006   -1.3691854   -1.3691854  -0.58111472    0.1050783   -1.3691854   0.78807066  1070540 
  610000    1.0996893   -1.3683447   -1.3683447  -0.58028218   0.10189926   -1.3683447   0.78806255  1070540 
  611000    1.1004877   -1.3682285   -1.3682285  -0.57959379   0.10101248   -1.3682285   0.78863473  1070540 
  612000    1.1015408   -1.3683843   -1.3683843  -0.57899495  0.096549409   -1.3683843   0.78938939  1070540 
  613000    1.1015569   -1.3683985   -1.3683985  -0.57899758   0.10659061   -1.3683985   0.78940091  1070540 
  614000    1.1003625   -1.3680764   -1.3680764  -0.57953142   0.10424736   -1.3680764   0.78854496  1070540 
  615000    1.1000506   -1.3687105   -1.3687105  -0.58038903  0.097237807   -1.3687105    0.7883215  1070540 
  616000    1.1001106   -1.3691698   -1.3691698  -0.58080532  0.093319853   -1.3691698   0.78836444  1070540 
  617000    1.0980212   -1.3679285   -1.3679285  -0.58106136  0.099518359   -1.3679285   0.78686716  1070540 
  618000    1.0989163    -1.368235    -1.368235  -0.58072639   0.10069727    -1.368235    0.7875086  1070540 
  619000    1.1004695   -1.3691962   -1.3691962  -0.58057457    0.1012364   -1.3691962   0.78862166  1070540 
  620000    1.1004351   -1.3691374   -1.3691374   -0.5805404   0.10135022   -1.3691374   0.78859703  1070540 
  621000    1.1014463   -1.3699733   -1.3699733  -0.58065156   0.10493131   -1.3699733    0.7893217  1070540 
  622000    1.0994468   -1.3688179   -1.3688179  -0.58092915    0.0979496   -1.3688179   0.78788874  1070540 
  623000    1.0994581   -1.3689995   -1.3689995  -0.58110267  0.099478607   -1.3689995   0.78789686  1070540 
  624000    1.0983036   -1.3684041   -1.3684041   -0.5813345  0.097395852   -1.3684041   0.78706956  1070540 
  625000    1.0995795   -1.3691473   -1.3691473  -0.58116342   0.10274617   -1.3691473   0.78798389  1070540 
  626000    1.0998779   -1.3691758   -1.3691758  -0.58097809   0.10195842   -1.3691758   0.78819769  1070540 
  627000    1.1016414   -1.3704167   -1.3704167  -0.58095515    0.1035437   -1.3704167   0.78946151  1070540 
  628000    1.0989836   -1.3685412   -1.3685412  -0.58098438   0.10466143   -1.3685412   0.78755683  1070540 
  629000    1.0986138   -1.3681576   -1.3681576  -0.58086584   0.11091448   -1.3681576   0.78729181  1070540 
  630000    1.0979979   -1.3675233   -1.3675233   -0.5806728   0.10200512   -1.3675233   0.78685045  1070540 
  631000    1.1009107   -1.3690603   -1.3690603  -0.58012246   0.10908579   -1.3690603   0.78893781  1070540 
  632000    1.1010701   -1.3688994   -1.3688994   -0.5798473    0.1033651   -1.3688994   0.78905208  1070540 
  633000    1.1018514   -1.3695105   -1.3695105  -0.57989853   0.10226803   -1.3695105   0.78961197  1070540 
  634000     1.101994   -1.3702605   -1.3702605  -0.58054635   0.10206375   -1.3702605   0.78971416  1070540 
  635000    1.0996214     -1.36989     -1.36989  -0.58187614    0.0993395     -1.36989   0.78801391  1070540 
  636000    1.0973245   -1.3693111   -1.3693111  -0.58294323   0.10124768   -1.3693111   0.78636786  1070540 
  637000    1.0975683   -1.3700214   -1.3700214  -0.58347878  0.099832108   -1.3700214   0.78654262  1070540 
  638000    1.0993193   -1.3710211   -1.3710211  -0.58322369   0.09987273   -1.3710211   0.78779744  1070540 
  639000    1.1008164   -1.3715562   -1.3715562  -0.58268596   0.10137745   -1.3715562   0.78887029  1070540 
  640000    1.0989151     -1.36999     -1.36999  -0.58248229   0.10141988     -1.36999   0.78750772  1070540 
  641000     1.101291   -1.3713996   -1.3713996  -0.58218924   0.10417862   -1.3713996   0.78921035  1070540 
  642000    1.0999553    -1.370176    -1.370176  -0.58192279   0.10140136    -1.370176    0.7882532  1070540 
  643000    1.1004846   -1.3703282   -1.3703282  -0.58169566  0.099912389   -1.3703282    0.7886325  1070540 
  644000    1.1008443   -1.3702057   -1.3702057  -0.58131544   0.10991923   -1.3702057   0.78889028  1070540 
  645000    1.1001512   -1.3694781   -1.3694781  -0.58108446    0.1007747   -1.3694781   0.78839359  1070540 
  646000    1.1011187   -1.3700866   -1.3700866  -0.58099971   0.10008015   -1.3700866   0.78908686  1070540 
  647000    1.1007027    -1.370001    -1.370001   -0.5812122   0.10774479    -1.370001   0.78878877  1070540 
  648000    1.0992494   -1.3696753   -1.3696753  -0.58192795   0.10614026   -1.3696753   0.78774731  1070540 
  649000     1.097955   -1.3693148   -1.3693148  -0.58249509   0.10519106   -1.3693148   0.78681975  1070540 
  650000    1.0992754   -1.3705511   -1.3705511  -0.58278513   0.09906274   -1.3705511   0.78776594  1070540 
  651000    1.0985233   -1.3703722   -1.3703722  -0.58314524  0.089885866   -1.3703722   0.78722696  1070540 
  652000     1.099258   -1.3708201   -1.3708201  -0.58306663  0.099613681   -1.3708201    0.7877535  1070540 
  653000    1.0985693   -1.3701928   -1.3701928  -0.58293285   0.10445561   -1.3701928   0.78725996  1070540 
  654000    1.0998759   -1.3708089   -1.3708089  -0.58261267    0.1036774   -1.3708089   0.78819627  1070540 
  655000     1.097381   -1.3684311   -1.3684311  -0.58202277   0.09886047   -1.3684311   0.78640837  1070540 
  656000    1.1014598     -1.37045     -1.37045  -0.58111864  0.098443299     -1.37045   0.78933134  1070540 
  657000    1.1009295   -1.3692554   -1.3692554  -0.58030412    0.1017155   -1.3692554   0.78895132  1070540 
  658000    1.1020223   -1.3695978   -1.3695978  -0.57986336   0.10585988   -1.3695978   0.78973443  1070540 
  659000    1.1015248   -1.3693183   -1.3693183  -0.57994034   0.10281278   -1.3693183   0.78937794  1070540 
  660000    1.1013943   -1.3696359   -1.3696359  -0.58035149   0.10254815   -1.3696359   0.78928439  1070540 
  661000    1.0994303   -1.3688726   -1.3688726  -0.58099563  0.090423179   -1.3688726   0.78787694  1070540 
  662000    1.1011118   -1.3705931   -1.3705931  -0.58151111  0.099020165   -1.3705931   0.78908197  1070540 
  663000    1.0973225   -1.3685064   -1.3685064  -0.58214002   0.10098603   -1.3685064   0.78636642  1070540 
  664000    1.0984995   -1.3697123   -1.3697123  -0.58250241  0.095457728   -1.3697123   0.78720994  1070540 
  665000    1.0984697   -1.3695134   -1.3695134  -0.58232482  0.099870095   -1.3695134   0.78718859  1070540 
  666000    1.1002335   -1.3701586   -1.3701586  -0.58170603  0.089204006   -1.3701586   0.78845253  1070540 
  667000    1.1000378   -1.3692481   -1.3692481  -0.58093582   0.10524088   -1.3692481   0.78831227  1070540 
  668000    1.1015312   -1.3697887   -1.3697887  -0.58040615   0.10340811   -1.3697887   0.78938253  1070540 
  669000    1.1031644   -1.3709633   -1.3709633  -0.58041044   0.10677389   -1.3709633    0.7905529  1070540 
  670000    1.1013826   -1.3700813   -1.3700813  -0.58080527   0.10133133   -1.3700813   0.78927602  1070540 
  671000    1.0995176   -1.3691205   -1.3691205  -0.58118092  0.098991145   -1.3691205   0.78793955  1070540 
  672000    1.0993139   -1.3693277   -1.3693277  -0.58153411   0.10126206   -1.3693277   0.78779354  1070540 
  673000    1.0997652   -1.3698191   -1.3698191  -0.58170221   0.10294231   -1.3698191   0.78811692  1070540 
  674000     1.099819   -1.3696259   -1.3696259  -0.58147041  0.094516369   -1.3696259   0.78815548  1070540 
  675000    1.1019724   -1.3711564   -1.3711564  -0.58145765  0.099432484   -1.3711564    0.7896987  1070540 
  676000    1.1006918   -1.3703508   -1.3703508  -0.58156981   0.10258074   -1.3703508   0.78878098  1070540 
  677000    1.0993254   -1.3696447   -1.3696447   -0.5818429   0.10877395   -1.3696447   0.78780177  1070540 
  678000    1.0977947   -1.3684654   -1.3684654  -0.58176053   0.10822515   -1.3684654   0.78670488  1070540 
  679000    1.0989219   -1.3688986   -1.3688986    -0.581386   0.10142035   -1.3688986   0.78751259  1070540 
  680000    1.1003651   -1.3692615   -1.3692615  -0.58071469   0.09896769   -1.3692615   0.78854684  1070540 
  681000    1.1015547   -1.3698323   -1.3698323  -0.58043293  0.099531028   -1.3698323   0.78939936  1070540 
  682000    1.1004997   -1.3688998   -1.3688998   -0.5802565   0.10133259   -1.3688998   0.78864333  1070540 
  683000    1.1010875   -1.3693113   -1.3693113   -0.5802468  0.099625664   -1.3693113   0.78906451  1070540 
  684000    1.1002934   -1.3690459   -1.3690459  -0.58055049   0.10336489   -1.3690459   0.78849545  1070540 
  685000    1.1008576   -1.3699114   -1.3699114  -0.58101164   0.10287619   -1.3699114   0.78889976  1070540 
  686000    1.0997308   -1.3695601   -1.3695601  -0.58146782   0.10303233   -1.3695601    0.7880923  1070540 
  687000    1.0995599   -1.3696331   -1.3696331   -0.5816633   0.09561037   -1.3696331   0.78796981  1070540 
  688000    1.0987848   -1.3691128   -1.3691128  -0.58169838   0.10426496   -1.3691128   0.78741438  1070540 
  689000    1.1007156   -1.3704277   -1.3704277  -0.58162964    0.1010668   -1.3704277   0.78879806  1070540 
  690000    1.0990021   -1.3688141   -1.3688141    -0.581244   0.10109467   -1.3688141    0.7875701  1070540 
  691000    1.0992024   -1.3687008   -1.3687008   -0.5809872   0.10192869   -1.3687008    0.7877136  1070540 
  692000    1.1011031   -1.3695156   -1.3695156  -0.58043989  0.096692962   -1.3695156   0.78907573  1070540 
  693000    1.1006527    -1.368754    -1.368754  -0.58000111   0.10450633    -1.368754   0.78875292  1070540 
  694000    1.1012738   -1.3689132   -1.3689132   -0.5797152   0.10393049   -1.3689132   0.78919805  1070540 
  695000    1.1020797   -1.3696298   -1.3696298  -0.57985415   0.11022687   -1.3696298   0.78977561  1070540 
  696000    1.0990221   -1.3681903   -1.3681903  -0.58060591   0.10580319   -1.3681903   0.78758442  1070540 
  697000    1.1008223   -1.3703889   -1.3703889  -0.58151446   0.10248197   -1.3703889   0.78887448  1070540 
  698000    1.1000597   -1.3706461   -1.3706461  -0.58231814  0.099789687   -1.3706461   0.78832797  1070540 
  699000     1.101125   -1.3720683   -1.3720683  -0.58297685   0.10397576   -1.3720683   0.78909142  1070540 
  700000    1.0995586    -1.371687    -1.371687   -0.5837181   0.10456753    -1.371687   0.78796886  1070540 
  701000    1.0982995   -1.3711631   -1.3711631   -0.5840965  0.095311084   -1.3711631   0.78706661  1070540 
  702000    1.0977332   -1.3708455   -1.3708455  -0.58418479  0.097335328   -1.3708455   0.78666074  1070540 
  703000    1.0995581   -1.3716273   -1.3716273  -0.58365883   0.10529629   -1.3716273   0.78796851  1070540 
  704000    1.1011087   -1.3718918   -1.3718918  -0.58281206  0.098529634   -1.3718918    0.7890797  1070540 
  705000     1.101569   -1.3719001   -1.3719001  -0.58249047   0.10126206   -1.3719001   0.78940961  1070540 
  706000    1.1018211   -1.3717983   -1.3717983  -0.58220803   0.10008281   -1.3717983   0.78959027  1070540 
  707000    1.1008708   -1.3714297   -1.3714297  -0.58252042   0.10419996   -1.3714297   0.78890924  1070540 
  708000    1.0990932    -1.370749    -1.370749  -0.58311367   0.10337172    -1.370749   0.78763536  1070540 
  709000    1.0998014   -1.3720872   -1.3720872  -0.58394438   0.11009886   -1.3720872   0.78814286  1070540 
  710000    1.0991661    -1.372116    -1.372116   -0.5844284  0.097842584    -1.372116   0.78768762  1070540 
  711000    1.0985156   -1.3717892   -1.3717892  -0.58456777   0.10012856   -1.3717892   0.78722144  1070540 
  712000    1.1005861    -1.372531    -1.372531  -0.58382582  0.095591881    -1.372531    0.7887052  1070540 
  713000    1.0992445   -1.3700189   -1.3700189  -0.58227514    0.1026324   -1.3700189   0.78774379  1070540 
  714000    1.1016938   -1.3708027   -1.3708027  -0.58130366    0.1072332   -1.3708027   0.78949902  1070540 
  715000    1.1001651   -1.3696723   -1.3696723  -0.58126881   0.10254742   -1.3696723    0.7884035  1070540 
  716000     1.101096   -1.3705251   -1.3705251  -0.58145451  0.098186064   -1.3705251   0.78907064  1070540 
  717000    1.1017363   -1.3713261   -1.3713261  -0.58179656  0.099803041   -1.3713261   0.78952949  1070540 
  718000    1.1005287    -1.371192    -1.371192  -0.58252792   0.10387948    -1.371192   0.78866406  1070540 
  719000     1.100207   -1.3718425   -1.3718425  -0.58340901   0.10300946   -1.3718425   0.78843353  1070540 
  720000    1.0992953   -1.3716244   -1.3716244  -0.58384417   0.10289739   -1.3716244   0.78778022  1070540 
  721000    1.1005539   -1.3727898   -1.3727898   -0.5841077   0.10499536   -1.3727898   0.78868213  1070540 
  722000    1.0993541   -1.3718892   -1.3718892  -0.58406686   0.10070139   -1.3718892   0.78782236  1070540 
  723000    1.0995183   -1.3720824   -1.3720824   -0.5841424  0.095981309   -1.3720824   0.78794004  1070540 
  724000    1.0989463   -1.3714139   -1.3714139  -0.58388387   0.10511806   -1.3714139   0.78753007  1070540 
  725000    1.1018957   -1.3732647   -1.3732647  -0.58362098   0.10244889   -1.3732647   0.78964374  1070540 
  726000    1.1012002   -1.3727577   -1.3727577  -0.58361244  0.096799986   -1.3727577   0.78914531  1070540 
  727000    1.0993364   -1.3713519   -1.3713519  -0.58354229   0.10225276   -1.3713519   0.78780963  1070540 
  728000    1.1002168   -1.3719817   -1.3719817  -0.58354109   0.09599695   -1.3719817   0.78844058  1070540 
  729000    1.1002333   -1.3718973   -1.3718973  -0.58344491  0.092861193   -1.3718973   0.78845239  1070540 
  730000    1.1009926   -1.3728171   -1.3728171  -0.58382058   0.09531655   -1.3728171   0.78899655  1070540 
  731000    1.0984155   -1.3719259   -1.3719259  -0.58477621   0.10171393   -1.3719259   0.78714972  1070540 
  732000    1.0982805   -1.3729572   -1.3729572  -0.58590424   0.10935443   -1.3729572   0.78705298  1070540 
  733000     1.098714   -1.3737877   -1.3737877  -0.58642405   0.10063135   -1.3737877   0.78736362  1070540 
  734000    1.0979257   -1.3728184   -1.3728184  -0.58601967   0.10883453   -1.3728184   0.78679876  1070540 
  735000    1.0987116   -1.3722806   -1.3722806  -0.58491866  0.097790954   -1.3722806   0.78736194  1070540 
  736000    1.0994051   -1.3716043   -1.3716043  -0.58374541  0.094204733   -1.3716043   0.78785892  1070540 
  737000    1.0994954   -1.3712288   -1.3712288  -0.58330523  0.096414659   -1.3712288   0.78792358  1070540 
  738000    1.0991984   -1.3708352   -1.3708352  -0.58312441   0.10157785   -1.3708352    0.7877108  1070540 
  739000    1.1007486   -1.3717008   -1.3717008  -0.58287909   0.10258661   -1.3717008   0.78882171  1070540 
  740000    1.1006182   -1.3716302   -1.3716302  -0.58290195  0.097346555   -1.3716302   0.78872826  1070540 
  741000    1.0999978   -1.3713076   -1.3713076  -0.58302397   0.10057549   -1.3713076   0.78828366  1070540 
  742000    1.1001724   -1.3718332   -1.3718332  -0.58342452  0.097896126   -1.3718332   0.78840872  1070540 
  743000    1.0984143   -1.3710837   -1.3710837  -0.58393486   0.09667049   -1.3710837   0.78714883  1070540 
  744000    1.0991582    -1.372014    -1.372014  -0.58433207   0.10002262    -1.372014   0.78768197  1070540 
  745000    1.0984299   -1.3720362   -1.3720362  -0.58487613   0.10989209   -1.3720362   0.78716003  1070540 
  746000    1.0975917   -1.3719654   -1.3719654  -0.58540601   0.09297939   -1.3719654   0.78655935  1070540 
  747000    1.1005986   -1.3740661   -1.3740661  -0.58535193  0.098551544   -1.3740661   0.78871419  1070540 
  748000    1.1010983   -1.3738275   -1.3738275  -0.58475523   0.10709721   -1.3738275   0.78907227  1070540 
  749000    1.1000889   -1.3723306   -1.3723306  -0.58398166   0.11120684   -1.3723306   0.78834891  1070540 
  750000    1.1002572   -1.3716159   -1.3716159  -0.58314634   0.10073358   -1.3716159   0.78846951  1070540 
  751000    1.1000788   -1.3707134   -1.3707134  -0.58237168  0.095034693   -1.3707134   0.78834167  1070540 
  752000     1.101241   -1.3710901   -1.3710901  -0.58191559   0.09967687   -1.3710901   0.78917454  1070540 
  753000    1.1021946   -1.3715193   -1.3715193  -0.58166135   0.10187849   -1.3715193   0.78985794  1070540 
  754000    1.1005156   -1.3707373   -1.3707373  -0.58208265   0.10806121   -1.3707373   0.78865468  1070540 
  755000    1.1014977   -1.3723293   -1.3723293  -0.58297079   0.10800286   -1.3723293    0.7893585  1070540 
  756000    1.0989392   -1.3721829   -1.3721829  -0.58465784    0.1021719   -1.3721829   0.78752503  1070540 
  757000    1.0987281   -1.3723127   -1.3723127  -0.58493903   0.10261463   -1.3723127   0.78737371  1070540 
  758000    1.0986482   -1.3721865   -1.3721865  -0.58487005   0.10277044   -1.3721865   0.78731648  1070540 
  759000    1.0998403   -1.3726671   -1.3726671   -0.5844963   0.11025465   -1.3726671   0.78817077  1070540 
  760000    1.1006847   -1.3728365   -1.3728365  -0.58406065   0.10873639   -1.3728365   0.78877588  1070540 
  761000    1.0995777   -1.3716148   -1.3716148  -0.58363219  0.099260426   -1.3716148   0.78798258  1070540 
  762000    1.0997225   -1.3712428   -1.3712428  -0.58315644   0.10174863   -1.3712428   0.78808633  1070540 
  763000    1.0996474   -1.3705863   -1.3705863  -0.58255379  0.099866575   -1.3705863   0.78803252  1070540 
  764000    1.1019129   -1.3714936   -1.3714936  -0.58183749   0.10216251   -1.3714936   0.78965607  1070540 
  765000    1.1031261   -1.3721946   -1.3721946  -0.58166913   0.10692236   -1.3721946   0.79052545  1070540 
  766000    1.1024044   -1.3724192   -1.3724192  -0.58241091   0.10250615   -1.3724192   0.79000827  1070540 
  767000    1.0999822   -1.3723903   -1.3723903   -0.5841178   0.10472466   -1.3723903   0.78827247  1070540 
  768000    1.0990753   -1.3724794   -1.3724794  -0.58485692   0.10388209   -1.3724794   0.78762252  1070540 
  769000    1.0977792   -1.3716667   -1.3716667  -0.58497294  0.099092932   -1.3716667   0.78669374  1070540 
  770000    1.0991502   -1.3722159   -1.3722159  -0.58453971   0.11045975   -1.3722159   0.78767623  1070540 
  771000    1.0977228   -1.3702893   -1.3702893  -0.58363597   0.10726284   -1.3702893   0.78665334  1070540 
  772000    1.0997269   -1.3707218   -1.3707218  -0.58263237  0.099805901   -1.3707218   0.78808947  1070540 
  773000     1.100563   -1.3706762   -1.3706762  -0.58198752   0.10507088   -1.3706762   0.78868865  1070540 
  774000    1.1023417   -1.3720512   -1.3720512  -0.58208785   0.10995539   -1.3720512   0.78996333  1070540 
  775000    1.1015489   -1.3721244   -1.3721244  -0.58272927   0.10075941   -1.3721244   0.78939518  1070540 
  776000    1.0993596   -1.3714462   -1.3714462  -0.58361991    0.1005732   -1.3714462   0.78782628  1070540 
  777000    1.0993803    -1.372184    -1.372184  -0.58434284  0.098237064    -1.372184   0.78784115  1070540 
  778000    1.1011587   -1.3736996   -1.3736996  -0.58458399  0.099143131   -1.3736996   0.78911559  1070540 
  779000    1.0995569   -1.3726021   -1.3726021  -0.58463443  0.098267014   -1.3726021   0.78796767  1070540 
  780000     1.099028   -1.3723053   -1.3723053   -0.5847167  0.098051646   -1.3723053   0.78758864  1070540 
  781000    1.1015663   -1.3742563   -1.3742563  -0.58484867  0.098300103   -1.3742563   0.78940762  1070540 
  782000    1.0988578   -1.3728769   -1.3728769  -0.58541018   0.10605061   -1.3728769   0.78746669  1070540 
  783000    1.0985504   -1.3734393   -1.3734393  -0.58619294   0.10092401   -1.3734393   0.78724637  1070540 
  784000    1.0988263   -1.3745739   -1.3745739  -0.58712977   0.10712917   -1.3745739   0.78744411  1070540 
  785000    1.0982163   -1.3750766   -1.3750766  -0.58806965  0.097447484   -1.3750766   0.78700697  1070540 
  786000    1.0983164   -1.3757546   -1.3757546   -0.5886759  0.099335527   -1.3757546   0.78707869  1070540 
  787000    1.0996015   -1.3763121   -1.3763121  -0.58831253   0.10052761   -1.3763121   0.78799962  1070540 
  788000    1.0993668   -1.3750138   -1.3750138  -0.58718235   0.10851758   -1.3750138   0.78783145  1070540 
  789000    1.1017411   -1.3753008   -1.3753008  -0.58576795   0.10039525   -1.3753008    0.7895329  1070540 
  790000     1.100315   -1.3738388   -1.3738388  -0.58532787   0.11055904   -1.3738388   0.78851091  1070540 
  791000    1.1007593    -1.373988    -1.373988  -0.58515868  0.098260015    -1.373988   0.78882931  1070540 
  792000    1.1004107   -1.3737763   -1.3737763   -0.5851968  0.097484614   -1.3737763   0.78857951  1070540 
  793000    1.1008015   -1.3740007   -1.3740007  -0.58514114  0.098689437   -1.3740007   0.78885956  1070540 
  794000    1.1017884    -1.374668    -1.374668  -0.58510116  0.098400645    -1.374668   0.78956681  1070540 
  795000    1.1005719   -1.3740588   -1.3740588  -0.58536379   0.10206005   -1.3740588   0.78869501  1070540 
  796000    1.0994776   -1.3742334   -1.3742334  -0.58632255  0.097901773   -1.3742334   0.78791085  1070540 
  797000    1.0997998   -1.3755478   -1.3755478  -0.58740603    0.1043292   -1.3755478   0.78814173  1070540 
  798000     1.098001   -1.3750195   -1.3750195  -0.58816684   0.10023525   -1.3750195   0.78685265  1070540 
  799000    1.0981166   -1.3749896   -1.3749896  -0.58805409  0.094623085   -1.3749896    0.7869355  1070540 
  800000    1.0983566   -1.3745767   -1.3745767  -0.58746925   0.10065296   -1.3745767   0.78710749  1070540 
  801000    1.0999235   -1.3752642   -1.3752642  -0.58703376  0.096955297   -1.3752642   0.78823041  1070540 
  802000    1.0984131   -1.3736755   -1.3736755  -0.58652749  0.099145826   -1.3736755   0.78714798  1070540 
  803000    1.0995577   -1.3741564   -1.3741564  -0.58618817  0.097514497   -1.3741564   0.78796825  1070540 
  804000    1.0999053   -1.3743586   -1.3743586  -0.58614122   0.10158363   -1.3743586   0.78821736  1070540 
  805000     1.100026   -1.3740958   -1.3740958  -0.58579193   0.10420171   -1.3740958   0.78830387  1070540 
  806000    1.1005324   -1.3747405   -1.3747405  -0.58607377   0.10173884   -1.3747405   0.78866672  1070540 
  807000    1.0986369   -1.3740251   -1.3740251  -0.58671675   0.10292679   -1.3740251   0.78730838  1070540 
  808000    1.0997035   -1.3750982   -1.3750982  -0.58702551    0.1105177   -1.3750982   0.78807273  1070540 
  809000    1.0990809    -1.375217    -1.375217   -0.5875904   0.10217958    -1.375217   0.78762657  1070540 
  810000    1.0976166   -1.3751929   -1.3751929  -0.58861573   0.10338569   -1.3751929    0.7865772  1070540 
  811000    1.0970791    -1.375381    -1.375381  -0.58918905  0.098194947    -1.375381   0.78619199  1070540 
  812000    1.0962766   -1.3742197   -1.3742197  -0.58860278   0.10935686   -1.3742197   0.78561693  1070540 
  813000    1.0986917   -1.3745246   -1.3745246  -0.58717694  0.092763162   -1.3745246   0.78734763  1070540 
  814000    1.1009564   -1.3750649   -1.3750649  -0.58609434  0.099961122   -1.3750649    0.7889706  1070540 
  815000    1.0997575   -1.3738596   -1.3738596  -0.58574815   0.10070361   -1.3738596   0.78811145  1070540 
  816000    1.0992346    -1.373084    -1.373084  -0.58534726   0.10065462    -1.373084   0.78773671  1070540 
  817000    1.0999824    -1.373321    -1.373321  -0.58504841   0.10787421    -1.373321   0.78827259  1070540 
  818000    1.0993682   -1.3723788   -1.3723788  -0.58454629  0.097620531   -1.3723788   0.78783248  1070540 
  819000    1.1005254   -1.3722965   -1.3722965   -0.5836348  0.091906451   -1.3722965   0.78866172  1070540 
  820000    1.1008688   -1.3717798   -1.3717798  -0.58287199   0.10572433   -1.3717798   0.78890779  1070540 
  821000    1.1005368    -1.371283    -1.371283  -0.58261312   0.11122742    -1.371283   0.78866988  1070540 
  822000    1.1013011   -1.3717533   -1.3717533  -0.58253568   0.10259174   -1.3717533   0.78921757  1070540 
  823000    1.1011567   -1.3720612   -1.3720612  -0.58294702   0.10571362   -1.3720612   0.78911415  1070540 
  824000    1.0987568   -1.3713696   -1.3713696  -0.58397529  0.092195509   -1.3713696   0.78739431  1070540 
  825000    1.0989865   -1.3728936   -1.3728936  -0.58533463   0.10037415   -1.3728936   0.78755892  1070540 
  826000    1.0966942   -1.3721613   -1.3721613  -0.58624514   0.10240877   -1.3721613   0.78591617  1070540 
  827000    1.0993012   -1.3740046   -1.3740046  -0.58622021   0.10557259   -1.3740046   0.78778442  1070540 
  828000    1.0994196   -1.3736882   -1.3736882  -0.58581897  0.097829075   -1.3736882   0.78786928  1070540 
  829000     1.099913   -1.3737176   -1.3737176  -0.58549469  0.099024457   -1.3737176   0.78822286  1070540 
  830000    1.1006486   -1.3738102   -1.3738102  -0.58506013   0.10224656   -1.3738102   0.78875003  1070540 
  831000    1.1011811   -1.3739343   -1.3739343  -0.58480268     0.102096   -1.3739343   0.78913159  1070540 
  832000    1.1016615   -1.3741822   -1.3741822  -0.58470635   0.10158088   -1.3741822   0.78947587  1070540 
  833000    1.1012788   -1.3737589   -1.3737589  -0.58455731   0.10471173   -1.3737589   0.78920163  1070540 
  834000    1.1010242   -1.3738619   -1.3738619  -0.58484268   0.10454114   -1.3738619   0.78901918  1070540 
  835000    1.1006384   -1.3745226   -1.3745226  -0.58577992   0.10495378   -1.3745226   0.78874271  1070540 
  836000    1.0973257   -1.3735431   -1.3735431  -0.58717435   0.10336075   -1.3735431   0.78636873  1070540 
  837000     1.098681   -1.3751834   -1.3751834  -0.58784338  0.099506887   -1.3751834   0.78734001  1070540 
  838000    1.0995939   -1.3754834   -1.3754834   -0.5874892   0.10629234   -1.3754834   0.78799422  1070540 
  839000    1.1001064   -1.3751974   -1.3751974  -0.58683596   0.10250514   -1.3751974   0.78836148  1070540 
  840000    1.0983258   -1.3735585   -1.3735585  -0.58647307   0.10053722   -1.3735585   0.78708545  1070540 
  841000    1.1001853   -1.3741585   -1.3741585  -0.58574044   0.10343475   -1.3741585   0.78841802  1070540 
  842000    1.0999795   -1.3731338   -1.3731338  -0.58486322   0.10626012   -1.3731338   0.78827055  1070540 
  843000    1.1006894   -1.3730545   -1.3730545  -0.58427524   0.10992373   -1.3730545   0.78877923  1070540 
  844000    1.1015934   -1.3734133   -1.3734133  -0.58398627  0.096184284   -1.3734133   0.78942706  1070540 
  845000    1.1004776   -1.3727906   -1.3727906  -0.58416313   0.10791702   -1.3727906   0.78862748  1070540 
  846000    1.1008471   -1.3733861   -1.3733861  -0.58449381  0.099929047   -1.3733861   0.78889228  1070540 
  847000    1.1000908   -1.3729589   -1.3729589  -0.58460865   0.10449431   -1.3729589   0.78835027  1070540 
  848000    1.0991248    -1.372566    -1.372566  -0.58490804   0.10293462    -1.372566   0.78765799  1070540 
  849000     1.100021   -1.3732444   -1.3732444  -0.58494417  0.098104583   -1.3732444   0.78830026  1070540 
  850000    1.0992756    -1.373109    -1.373109  -0.58534289   0.10143383    -1.373109   0.78776607  1070540 
  851000    1.0981223   -1.3726188   -1.3726188  -0.58567919   0.10484433   -1.3726188   0.78693959  1070540 
  852000    1.0992267   -1.3744509   -1.3744509  -0.58671987   0.10663228   -1.3744509   0.78773106  1070540 
  853000    1.0981291   -1.3745326   -1.3745326  -0.58758808   0.11075579   -1.3745326   0.78694451  1070540 
  854000    1.0993034   -1.3762932   -1.3762932  -0.58850717  0.098806019   -1.3762932   0.78778604  1070540 
  855000    1.0990497   -1.3761776   -1.3761776  -0.58857339  0.098118154   -1.3761776   0.78760423  1070540 
  856000    1.0978144   -1.3748938   -1.3748938  -0.58817488   0.10400816   -1.3748938   0.78671893  1070540 
  857000    1.0995363   -1.3750025   -1.3750025  -0.58704959   0.10110912   -1.3750025   0.78795291  1070540 
  858000    1.0996874   -1.3742916   -1.3742916  -0.58623036  0.096209657   -1.3742916   0.78806122  1070540 
  859000    1.1007742   -1.3744563   -1.3744563  -0.58561627     0.108593   -1.3744563   0.78884004  1070540 
  860000    1.0991325   -1.3730749   -1.3730749  -0.58541136   0.10327511   -1.3730749   0.78766354  1070540 
  861000    1.1015249   -1.3747978   -1.3747978  -0.58541988  0.097632875   -1.3747978   0.78937796  1070540 
  862000    1.0998011   -1.3737445   -1.3737445  -0.58560184   0.10386065   -1.3737445   0.78814269  1070540 
  863000    1.1003463   -1.3748167   -1.3748167  -0.58628325   0.10764072   -1.3748167   0.78853341  1070540 
  864000    1.0996671   -1.3751106   -1.3751106  -0.58706397  0.097925751   -1.3751106   0.78804666  1070540 
  865000    1.0987001   -1.3749818   -1.3749818  -0.58762813   0.10383019   -1.3749818   0.78735365  1070540 
  866000    1.0976782   -1.3745699   -1.3745699  -0.58794855  0.098811702   -1.3745699   0.78662139  1070540 
  867000    1.0991904   -1.3748837   -1.3748837  -0.58717865  0.094409793   -1.3748837   0.78770503  1070540 
  868000    1.1004961   -1.3740624   -1.3740624  -0.58542169   0.09794174   -1.3740624   0.78864069  1070540 
  869000    1.1019849   -1.3743174   -1.3743174  -0.58460969   0.10245565   -1.3743174   0.78970766  1070540 
  870000    1.1027148    -1.374614    -1.374614  -0.58438331   0.11169333    -1.374614   0.79023073  1070540 
  871000    1.1012419   -1.3741614   -1.3741614  -0.58498616  0.097783671   -1.3741614    0.7891752  1070540 
  872000    1.0997513   -1.3737949   -1.3737949  -0.58568785   0.10162119   -1.3737949   0.78810701  1070540 
  873000    1.0995609   -1.3744009   -1.3744009  -0.58643038  0.093635276   -1.3744009   0.78797053  1070540 
  874000    1.0981959   -1.3737604   -1.3737604  -0.58676801   0.10646085   -1.3737604   0.78699235  1070540 
  875000    1.0986298   -1.3740095   -1.3740095  -0.58670619   0.10108016   -1.3740095   0.78730329  1070540 
  876000    1.0982957   -1.3730765   -1.3730765  -0.58601258   0.10544767   -1.3730765   0.78706389  1070540 
  877000    1.1012203   -1.3740126   -1.3740126  -0.58485288  0.099069446   -1.3740126   0.78915973  1070540 
  878000    1.1002512   -1.3727257   -1.3727257  -0.58426041   0.11144259   -1.3727257   0.78846525  1070540 
  879000    1.0985909   -1.3712529   -1.3712529  -0.58397742   0.10145121   -1.3712529   0.78727544  1070540 
  880000    1.0998309   -1.3719184   -1.3719184   -0.5837544   0.10834144   -1.3719184   0.78816401  1070540 
  881000    1.1012421   -1.3730075   -1.3730075  -0.58383221   0.10774944   -1.3730075   0.78917533  1070540 
  882000    1.1008648   -1.3728832   -1.3728832  -0.58397826   0.10105607   -1.3728832   0.78890498  1070540 
  883000    1.1011608   -1.3737886   -1.3737886  -0.58467157    0.1006865   -1.3737886   0.78911705  1070540 
  884000    1.0998765    -1.373504    -1.373504  -0.58530728   0.10216165    -1.373504   0.78819671  1070540 
  885000    1.0996596   -1.3740159   -1.3740159  -0.58597462    0.1010265   -1.3740159    0.7880413  1070540 
  886000    1.0995383   -1.3742022   -1.3742022  -0.58624783   0.10228718   -1.3742022   0.78795434  1070540 
  887000    1.0986878   -1.3735364   -1.3735364   -0.5861916   0.10112991   -1.3735364   0.78734483  1070540 
  888000    1.0991778   -1.3738594   -1.3738594   -0.5861634  0.098013054   -1.3738594     0.787696  1070540 
  889000    1.0976782   -1.3722662   -1.3722662  -0.58564492   0.10708788   -1.3722662   0.78662132  1070540 
  890000    1.1006742   -1.3739103   -1.3739103  -0.58514193  0.093288018   -1.3739103   0.78876839  1070540 
  891000    1.1013362   -1.3741289   -1.3741289  -0.58488618   0.10220525   -1.3741289   0.78924274  1070540 
  892000     1.098914   -1.3725416   -1.3725416  -0.58503465  0.096274614   -1.3725416   0.78750696  1070540 
  893000    1.0988794   -1.3725513   -1.3725513  -0.58506913   0.10444312   -1.3725513   0.78748217  1070540 
  894000    1.1011767   -1.3734865   -1.3734865  -0.58435799  0.099819483   -1.3734865   0.78912847  1070540 
  895000    1.1007848   -1.3719462   -1.3719462   -0.5830986  0.096882029   -1.3719462   0.78884761  1070540 
  896000    1.1012027   -1.3710695   -1.3710695  -0.58192239   0.10835554   -1.3710695   0.78914711  1070540 
  897000    1.1017614   -1.3710556   -1.3710556  -0.58150805   0.10212971   -1.3710556    0.7895475  1070540 
  898000     1.099784   -1.3699185   -1.3699185  -0.58178811  0.098443812   -1.3699185    0.7881304  1070540 
  899000    1.1007414   -1.3711388   -1.3711388  -0.58232233   0.11024797   -1.3711388   0.78881651  1070540 
  900000    1.1010529   -1.3723495   -1.3723495  -0.58330975  0.094938187   -1.3723495   0.78903972  1070540 
  901000    1.1008073   -1.3731069   -1.3731069  -0.58424316   0.10149594   -1.3731069   0.78886375  1070540 
  902000    1.0994711     -1.37239     -1.37239  -0.58448379   0.10048155     -1.37239    0.7879062  1070540 
  903000    1.0997886   -1.3729728   -1.3729728   -0.5848391   0.10870029   -1.3729728   0.78813371  1070540 
  904000    1.0985792   -1.3723802   -1.3723802  -0.58511319  0.094791597   -1.3723802   0.78726702  1070540 
  905000    1.0985582   -1.3725125   -1.3725125  -0.58526052  0.099807795   -1.3725125   0.78725198  1070540 
  906000    1.0999431   -1.3735213   -1.3735213  -0.58527679   0.09171285   -1.3735213   0.78824446  1070540 
  907000    1.1008985   -1.3734545   -1.3734545  -0.58452542   0.09882674   -1.3734545   0.78892913  1070540 
  908000     1.101083   -1.3721876   -1.3721876  -0.58312632   0.10341071   -1.3721876   0.78906132  1070540 
  909000    1.1036042   -1.3731003   -1.3731003  -0.58223225  0.096373041   -1.3731003   0.79086803  1070540 
  910000    1.1018286   -1.3719739   -1.3719739  -0.58237824   0.10069431   -1.3719739   0.78959564  1070540 
  911000    1.0994972   -1.3705512   -1.3705512  -0.58262631     0.107939   -1.3705512   0.78792492  1070540 
  912000    1.1002609   -1.3714412   -1.3714412  -0.58296904  0.094197175   -1.3714412   0.78847219  1070540 
  913000    1.1002869    -1.371872    -1.371872  -0.58338118   0.10332586    -1.371872   0.78849082  1070540 
  914000    1.1009669   -1.3726974   -1.3726974  -0.58371926   0.10988693   -1.3726974   0.78897811  1070540 
  915000    1.1002833   -1.3724293   -1.3724293  -0.58394108    0.1024141   -1.3724293   0.78848823  1070540 
  916000    1.1006452   -1.3728785   -1.3728785  -0.58413097  0.096631904   -1.3728785   0.78874756  1070540 
  917000    1.1000064   -1.3730093   -1.3730093  -0.58471949   0.10177248   -1.3730093   0.78828977  1070540 
  918000    1.0999007   -1.3731752   -1.3731752  -0.58496116  0.095170809   -1.3731752   0.78821407  1070540 
  919000    1.0996406   -1.3732261   -1.3732261  -0.58519848   0.10162836   -1.3732261   0.78802764  1070540 
  920000     1.099811   -1.3734169   -1.3734169  -0.58526716   0.10354305   -1.3734169   0.78814974  1070540 
  921000    1.1000932   -1.3738115   -1.3738115  -0.58545948   0.10606085   -1.3738115   0.78835204  1070540 
  922000    1.1003458   -1.3740262   -1.3740262  -0.58549321   0.10948623   -1.3740262   0.78853299  1070540 
  923000    1.0995862   -1.3735718   -1.3735718  -0.58558317    0.1005606   -1.3735718   0.78798864  1070540 
  924000      1.10141   -1.3745822   -1.3745822   -0.5852866   0.10270373   -1.3745822   0.78929564  1070540 
  925000    1.0994733   -1.3732657   -1.3732657  -0.58535796   0.10509238   -1.3732657   0.78790779  1070540 
  926000    1.0999569   -1.3736861   -1.3736861  -0.58543182  0.099789686   -1.3736861   0.78825433  1070540 
  927000    1.1014405   -1.3749047   -1.3749047  -0.58558722   0.10915144   -1.3749047    0.7893175  1070540 
  928000    1.0999635   -1.3741939   -1.3741939  -0.58593484   0.10076999   -1.3741939   0.78825906  1070540 
  929000    1.1002136    -1.374514    -1.374514  -0.58607573   0.10141053    -1.374514   0.78843826  1070540 
  930000    1.0989993   -1.3744469   -1.3744469  -0.58687887   0.10170561   -1.3744469   0.78756805  1070540 
  931000    1.0990375   -1.3754201   -1.3754201  -0.58782467   0.09640735   -1.3754201   0.78759543  1070540 
  932000    1.0965188   -1.3742401   -1.3742401  -0.58844964   0.10506109   -1.3742401   0.78579047  1070540 
  933000     1.098018   -1.3752115   -1.3752115  -0.58834661   0.10378176   -1.3752115   0.78686489  1070540 
  934000    1.1010645   -1.3767557   -1.3767557  -0.58770768  0.099887312   -1.3767557   0.78904803  1070540 
  935000    1.1005596   -1.3755953   -1.3755953  -0.58690913  0.096686864   -1.3755953   0.78868621  1070540 
  936000    1.0999712   -1.3745549   -1.3745549  -0.58629032   0.10450371   -1.3745549   0.78826454  1070540 
  937000     1.101029    -1.374728    -1.374728   -0.5857054   0.10757279    -1.374728   0.78902264  1070540 
  938000    1.1010234   -1.3744312   -1.3744312  -0.58541254   0.10887409   -1.3744312   0.78901862  1070540 
  939000    1.1021571   -1.3753327   -1.3753327  -0.58550168  0.098385865   -1.3753327   0.78983106  1070540 
  940000    1.1017506   -1.3761206   -1.3761206   -0.5865808   0.09365107   -1.3761206   0.78953975  1070540 
  941000    1.0999772   -1.3763753   -1.3763753  -0.58810643   0.10302353   -1.3763753   0.78826885  1070540 
  942000    1.0997842    -1.377025    -1.377025   -0.5888944   0.10021807    -1.377025   0.78813057  1070540 
  943000     1.098229    -1.376114    -1.376114  -0.58909796    0.1002085    -1.376114   0.78701606  1070540 
  944000    1.0979953   -1.3756908   -1.3756908  -0.58884223   0.10400133   -1.3756908   0.78684861  1070540 
  945000    1.0984925   -1.3752358   -1.3752358  -0.58803096   0.10329517   -1.3752358   0.78720489  1070540 
  946000    1.0999989   -1.3753327   -1.3753327  -0.58704824  0.095177352   -1.3753327   0.78828441  1070540 
  947000    1.1019991   -1.3764643   -1.3764643  -0.58674651   0.10217925   -1.3764643   0.78971781  1070540 
  948000     1.101482   -1.3761875   -1.3761875  -0.58684028   0.10404611   -1.3761875   0.78934721  1070540 
  949000    1.1011271   -1.3760392   -1.3760392  -0.58694628   0.10189974   -1.3760392   0.78909289  1070540 
  950000    1.1006374   -1.3762007   -1.3762007  -0.58745875    0.1019541   -1.3762007   0.78874195  1070540 
  951000    1.0981801   -1.3752657   -1.3752657  -0.58828468   0.10557303   -1.3752657   0.78698105  1070540 
  952000    1.0983791   -1.3764443   -1.3764443   -0.5893207    0.1072844   -1.3764443   0.78712364  1070540 
  953000    1.0978684   -1.3769828   -1.3769828  -0.59022522  0.095022465   -1.3769828   0.78675763  1070540 
  954000    1.0995278   -1.3783023   -1.3783023  -0.59035542  0.099278679   -1.3783023   0.78794684  1070540 
  955000     1.099558   -1.3775047   -1.3775047  -0.58953626   0.10736389   -1.3775047   0.78796843  1070540 
  956000    1.1001836   -1.3758452   -1.3758452  -0.58742841   0.10641243   -1.3758452   0.78841681  1070540 
  957000    1.1011646   -1.3756584   -1.3756584  -0.58653867   0.10138907   -1.3756584   0.78911976  1070540 
  958000    1.0997936   -1.3743642   -1.3743642  -0.58622689   0.10471977   -1.3743642   0.78813727  1070540 
  959000    1.1002453   -1.3745511   -1.3745511  -0.58609014   0.10393033   -1.3745511     0.788461  1070540 
  960000    1.1006948   -1.3748041   -1.3748041  -0.58602096   0.10452758   -1.3748041   0.78878311  1070540 
  961000     1.099779   -1.3742463   -1.3742463  -0.58611949   0.10661396   -1.3742463   0.78812683  1070540 
  962000    1.1014639   -1.3756958   -1.3756958  -0.58636151   0.10499914   -1.3756958   0.78933424  1070540 
  963000    1.0988553   -1.3747344   -1.3747344  -0.58726956    0.1086963   -1.3747344   0.78746487  1070540 
  964000    1.0992702   -1.3757275   -1.3757275  -0.58796528   0.10338105   -1.3757275   0.78776219  1070540 
  965000     1.100138   -1.3764107   -1.3764107  -0.58802657   0.10094244   -1.3764107   0.78838413  1070540 
  966000    1.0989407   -1.3753056   -1.3753056  -0.58777953  0.096576878   -1.3753056   0.78752609  1070540 
  967000    1.1011635   -1.3761563   -1.3761563   -0.5870373  0.099422304   -1.3761563     0.789119  1070540 
  968000    1.1018192   -1.3753987   -1.3753987  -0.58580981   0.10446252   -1.3753987    0.7895889  1070540 
  969000    1.1022065   -1.3748889   -1.3748889  -0.58502245   0.10425492   -1.3748889   0.78986643  1070540 
  970000    1.1015615   -1.3740648   -1.3740648  -0.58466053   0.10498883   -1.3740648   0.78940424  1070540 
  971000    1.1023583   -1.3750686   -1.3750686  -0.58509342   0.10191554   -1.3750686   0.78997522  1070540 
  972000    1.1002762   -1.3747693   -1.3747693  -0.58628619  0.099452368   -1.3747693   0.78848312  1070540 
  973000    1.0994768     -1.37514     -1.37514  -0.58722972   0.10399977     -1.37514   0.78791029  1070540 
  974000    1.0982993   -1.3747041   -1.3747041  -0.58763766   0.11102813   -1.3747041   0.78706643  1070540 
  975000    1.0988661   -1.3749191   -1.3749191  -0.58744651   0.10026124   -1.3749191   0.78747262  1070540 
  976000    1.1006913   -1.3761803   -1.3761803  -0.58739964    0.1008337   -1.3761803   0.78878062  1070540 
  977000    1.0989566   -1.3746425   -1.3746425  -0.58710508  0.098404639   -1.3746425   0.78753746  1070540 
  978000    1.0994696   -1.3748677   -1.3748677  -0.58696252    0.1171278   -1.3748677   0.78790514  1070540 
  979000    1.1009547   -1.3758783   -1.3758783  -0.58690897  0.094564843   -1.3758783   0.78896937  1070540 
  980000    1.0990783   -1.3743937   -1.3743937    -0.586769  0.096764178   -1.3743937   0.78762469  1070540 
  981000    1.1004282   -1.3747157   -1.3747157  -0.58612364  0.091312494   -1.3747157   0.78859207  1070540 
  982000    1.1003706   -1.3737269   -1.3737269  -0.58517613   0.10085394   -1.3737269   0.78855078  1070540 
  983000    1.1015744   -1.3738821   -1.3738821  -0.58446863   0.10031014   -1.3738821   0.78941347  1070540 
  984000    1.1024822     -1.37415     -1.37415  -0.58408601   0.10083674     -1.37415   0.79006402  1070540 
  985000    1.1009791   -1.3732745   -1.3732745  -0.58428761   0.10248635   -1.3732745   0.78898689  1070540 
  986000    1.1003984   -1.3734438   -1.3734438   -0.5848731   0.10709494   -1.3734438   0.78857068  1070540 
  987000    1.0999715   -1.3742507   -1.3742507  -0.58598586   0.11014363   -1.3742507   0.78826481  1070540 
  988000    1.0988214   -1.3746354   -1.3746354  -0.58719474  0.099755152   -1.3746354   0.78744062  1070540 
  989000    1.0999504   -1.3758277   -1.3758277  -0.58757808  0.096003485   -1.3758277   0.78824965  1070540 
  990000    1.1001939   -1.3757681   -1.3757681  -0.58734392  0.099999776   -1.3757681   0.78842418  1070540 
  991000    1.1010288   -1.3760591   -1.3760591  -0.58703666  0.098981402   -1.3760591   0.78902249  1070540 
  992000    1.1010097   -1.3759028   -1.3759028  -0.58689405   0.10511658   -1.3759028   0.78900878  1070540 
  993000    1.1008879   -1.3756408   -1.3756408  -0.58671932   0.10117011   -1.3756408   0.78892147  1070540 
  994000    1.1004097   -1.3754165   -1.3754165  -0.58683761   0.10700714   -1.3754165   0.78857885  1070540 
  995000    1.0994121    -1.375407    -1.375407  -0.58754311   0.10597894    -1.375407   0.78786388  1070540 
  996000    1.0991906   -1.3763167   -1.3763167  -0.58861146   0.10407746   -1.3763167    0.7877052  1070540 
  997000    1.0984623   -1.3768272   -1.3768272  -0.58964389   0.10526496   -1.3768272   0.78718329  1070540 
  998000    1.0986782   -1.3774036   -1.3774036   -0.5900656   0.10428694   -1.3774036     0.787338  1070540 
  999000     1.098659   -1.3773048   -1.3773048  -0.58998062    0.1017028   -1.3773048   0.78732419  1070540 
 1000000    1.1006717   -1.3783778   -1.3783778  -0.58961123   0.10635973   -1.3783778   0.78876656  1070540 
 1001000    1.1007043   -1.3775483   -1.3775483   -0.5887584   0.10307132   -1.3775483    0.7887899  1070540 
 1002000    1.0999543   -1.3767854   -1.3767854  -0.58853292   0.09436446   -1.3767854   0.78825245  1070540 
 1003000    1.1021104   -1.3778916   -1.3778916    -0.588094   0.10354185   -1.3778916   0.78979756  1070540 
 1004000     1.099973    -1.375951    -1.375951  -0.58768513   0.10532186    -1.375951   0.78826585  1070540 
 1005000    1.1020708   -1.3765326   -1.3765326  -0.58676342  0.094507051   -1.3765326   0.78976921  1070540 
 1006000    1.1035626   -1.3763587   -1.3763587  -0.58552044   0.10705327   -1.3763587   0.79083828  1070540 
 1007000    1.1035362    -1.376336    -1.376336  -0.58551666  0.096796944    -1.376336    0.7908193  1070540 
 1008000    1.1010159    -1.375505    -1.375505  -0.58649179  0.098134218    -1.375505   0.78901324  1070540 
 1009000     1.099091   -1.3751185   -1.3751185  -0.58748471  0.097853102   -1.3751185   0.78763383  1070540 
 1010000    1.1002883   -1.3764963   -1.3764963   -0.5880045  0.099032624   -1.3764963   0.78849181  1070540 
 1011000    1.0987075   -1.3756427   -1.3756427  -0.58828378  0.093629446   -1.3756427   0.78735895  1070540 
 1012000    1.0991112   -1.3757867   -1.3757867  -0.58813837  0.094193305   -1.3757867   0.78764828  1070540 
 1013000    1.1007525    -1.376718    -1.376718  -0.58789353  0.096673901    -1.376718   0.78882445  1070540 
 1014000    1.1017964   -1.3766026   -1.3766026  -0.58702999  0.095887836   -1.3766026   0.78957257  1070540 
 1015000    1.0982527   -1.3733614   -1.3733614  -0.58632834    0.1036813   -1.3733614   0.78703303  1070540 
 1016000    1.1024055   -1.3752348   -1.3752348   -0.5852257  0.094070269   -1.3752348   0.79000907  1070540 
 1017000    1.1032744   -1.3753819   -1.3753819  -0.58475024   0.10921142   -1.3753819    0.7906317  1070540 
 1018000     1.101836   -1.3748132   -1.3748132  -0.58521226   0.10168569   -1.3748132   0.78960095  1070540 
 1019000    1.1006072    -1.375371    -1.375371  -0.58665063   0.10535295    -1.375371   0.78872035  1070540 
 1020000    1.1012171   -1.3767692   -1.3767692  -0.58761173   0.10105384   -1.3767692   0.78915743  1070540 
 1021000      1.09897   -1.3754954   -1.3754954  -0.58794825   0.10763619   -1.3754954   0.78754712  1070540 
 1022000     1.100411   -1.3770042   -1.3770042   -0.5884245   0.10463716   -1.3770042   0.78857972  1070540 
 1023000    1.0993692    -1.376519    -1.376519  -0.58868582   0.10996589    -1.376519   0.78783314  1070540 
 1024000    1.0983724   -1.3759297   -1.3759297  -0.58881086   0.10007912   -1.3759297   0.78711886  1070540 
 1025000    1.1006244   -1.3772796   -1.3772796  -0.58854688   0.10150805   -1.3772796    0.7887327  1070540 
 1026000    1.0993303   -1.3759964   -1.3759964  -0.58819117   0.10073634   -1.3759964   0.78780528  1070540 
 1027000    1.1000991    -1.375819    -1.375819  -0.58746271   0.10196073    -1.375819   0.78835624  1070540 
 1028000    1.1017547   -1.3761803   -1.3761803  -0.58663755   0.10029103   -1.3761803    0.7895427  1070540 
 1029000    1.1017183    -1.375644    -1.375644  -0.58612744   0.10503544    -1.375644   0.78951661  1070540 
 1030000    1.1019566   -1.3761861   -1.3761861  -0.58649877    0.1085218   -1.3761861   0.78968732  1070540 
 1031000    1.0989154   -1.3750991   -1.3750991  -0.58759108   0.10277787   -1.3750991   0.78750798  1070540 
 1032000    1.1000582   -1.3774977   -1.3774977  -0.58917082   0.10572197   -1.3774977   0.78832693  1070540 
 1033000     1.097319   -1.3757761   -1.3757761  -0.58941214    0.1032097   -1.3757761   0.78636397  1070540 
 1034000    1.0987019   -1.3763547   -1.3763547  -0.58899978   0.10614141   -1.3763547   0.78735493  1070540 
 1035000    1.0998726   -1.3767568   -1.3767568  -0.58856282  0.092994133   -1.3767568   0.78819393  1070540 
 1036000     1.101107   -1.3770094   -1.3770094  -0.58793095   0.10316683   -1.3770094   0.78907849  1070540 
 1037000    1.1004817   -1.3759842   -1.3759842   -0.5873538   0.10222168   -1.3759842   0.78863039  1070540 
 1038000    1.1011892   -1.3761379   -1.3761379  -0.58700051   0.10043204   -1.3761379    0.7891374  1070540 
 1039000    1.1027097   -1.3773192   -1.3773192  -0.58709209   0.10396892   -1.3773192   0.79022708  1070540 
 1040000    1.0995965   -1.3758783   -1.3758783  -0.58788222   0.11098618   -1.3758783   0.78799606  1070540 
 1041000    1.1003148   -1.3778979   -1.3778979  -0.58938709   0.11050635   -1.3778979   0.78851082  1070540 
 1042000    1.0992597   -1.3778813   -1.3778813  -0.59012659   0.10155221   -1.3778813   0.78775473  1070540 
 1043000    1.0985311   -1.3772663   -1.3772663  -0.59003377   0.10024888   -1.3772663   0.78723257  1070540 
 1044000    1.0983887   -1.3764443   -1.3764443  -0.58931382   0.11066744   -1.3764443   0.78713048  1070540 
 1045000    1.0983684   -1.3757872   -1.3757872  -0.58867124   0.10490368   -1.3757872     0.787116  1070540 
 1046000    1.1008303    -1.376731    -1.376731  -0.58785075   0.10973217    -1.376731   0.78888022  1070540 
 1047000    1.0988361   -1.3749282   -1.3749282  -0.58747703   0.10583615   -1.3749282   0.78745114  1070540 
 1048000    1.1006005   -1.3761346   -1.3761346  -0.58741906  0.098913466   -1.3761346   0.78871556  1070540 
 1049000    1.1011369   -1.3766153   -1.3766153  -0.58751531  0.099520855   -1.3766153   0.78909996  1070540 
 1050000     1.100354   -1.3763619   -1.3763619  -0.58782296   0.10514884   -1.3763619    0.7885389  1070540 
 1051000     1.100443   -1.3775833   -1.3775833  -0.58898062   0.10377275   -1.3775833   0.78860264  1070540 
 1052000     1.098442   -1.3773453   -1.3773453  -0.59017659   0.10295799   -1.3773453   0.78716873  1070540 
 1053000    1.0980467   -1.3775732   -1.3775732  -0.59068777   0.10091339   -1.3775732   0.78688542  1070540 
 1054000    1.0989128   -1.3777719   -1.3777719  -0.59026582  0.098082233   -1.3777719   0.78750611  1070540 
 1055000    1.0990983   -1.3771964   -1.3771964  -0.58955739   0.10030338   -1.3771964   0.78763906  1070540 
 1056000    1.0984411   -1.3758593   -1.3758593  -0.58869124   0.10207153   -1.3758593   0.78716806  1070540 
 1057000    1.0994783    -1.375986    -1.375986  -0.58807468   0.10226529    -1.375986   0.78791132  1070540 
 1058000    1.0999584   -1.3758104   -1.3758104  -0.58755501  0.099245517   -1.3758104   0.78825539  1070540 
 1059000    1.1009115   -1.3764211   -1.3764211   -0.5874827    0.1026386   -1.3764211   0.78893838  1070540 
 1060000    1.1007872   -1.3763156   -1.3763156  -0.58746628   0.10149197   -1.3763156   0.78884934  1070540 
 1061000    1.1004317    -1.376275    -1.376275  -0.58768037   0.10144125    -1.376275   0.78859461  1070540 
 1062000    1.0989614    -1.375888    -1.375888  -0.58834713   0.10463673    -1.375888    0.7875409  1070540 
 1063000      1.09789   -1.3757725   -1.3757725  -0.58899938   0.10458313   -1.3757725   0.78677311  1070540 
 1064000    1.0976698   -1.3761599   -1.3761599  -0.58954452  0.095155961   -1.3761599   0.78661536  1070540 
 1065000     1.097638   -1.3760219   -1.3760219  -0.58942942   0.11039718   -1.3760219   0.78659252  1070540 
 1066000      1.09999   -1.3767746   -1.3767746  -0.58849652   0.10297986   -1.3767746   0.78827804  1070540 
 1067000    1.1014257   -1.3765697   -1.3765697   -0.5872628   0.10590907   -1.3765697   0.78930693  1070540 
 1068000    1.1011649   -1.3756291   -1.3756291  -0.58650912  0.095685132   -1.3756291      0.78912  1070540 
 1069000    1.1007317   -1.3752933   -1.3752933  -0.58648377  0.099838698   -1.3752933   0.78880954  1070540 
 1070000    1.1018356   -1.3764657   -1.3764657  -0.58686506   0.10462632   -1.3764657   0.78960066  1070540 
 1071000    1.1013143   -1.3768465   -1.3768465   -0.5876194   0.10156007   -1.3768465   0.78922705  1070540 
 1072000    1.1015805    -1.377915    -1.377915  -0.58849717  0.098669428    -1.377915   0.78941781  1070540 
 1073000    1.1004784   -1.3778535   -1.3778535  -0.58922549   0.10236501   -1.3778535   0.78862802  1070540 
 1074000    1.1014404   -1.3789596   -1.3789596  -0.58964221    0.1042504   -1.3789596   0.78931742  1070540 
 1075000    1.0979161   -1.3765018   -1.3765018     -0.58971   0.10677004   -1.3765018   0.78679182  1070540 
 1076000    1.0985192   -1.3768657   -1.3768657  -0.58964173   0.10434041   -1.3768657   0.78722401  1070540 
 1077000    1.1005451   -1.3782027   -1.3782027  -0.58952691  0.096195336   -1.3782027   0.78867584  1070540 
 1078000    1.0997525    -1.377646    -1.377646  -0.58953819    0.1117292    -1.377646   0.78810785  1070540 
 1079000    1.0994696   -1.3768096   -1.3768096  -0.58890453   0.10375963   -1.3768096   0.78790511  1070540 
 1080000    1.0997368   -1.3758543   -1.3758543  -0.58775768   0.10882388   -1.3758543   0.78809659  1070540 
 1081000    1.1021804    -1.376368    -1.376368  -0.58652021   0.10619706    -1.376368   0.78984775  1070540 
 1082000    1.1000888   -1.3743572   -1.3743572   -0.5860083   0.10769812   -1.3743572   0.78834886  1070540 
 1083000    1.1017253   -1.3757041   -1.3757041  -0.58618244   0.10269907   -1.3757041   0.78952162  1070540 
 1084000     1.102166   -1.3765901   -1.3765901  -0.58675272   0.10831857   -1.3765901   0.78983741  1070540 
 1085000    1.1003431   -1.3761206   -1.3761206   -0.5875895   0.10137121   -1.3761206   0.78853108  1070540 
 1086000     1.098736   -1.3754053   -1.3754053  -0.58802586   0.10446576   -1.3754053   0.78737941  1070540 
 1087000    1.0996242   -1.3763481   -1.3763481   -0.5883322   0.10216814   -1.3763481   0.78801591  1070540 
 1088000    1.0988954   -1.3759179   -1.3759179  -0.58842427   0.10034528   -1.3759179   0.78749365  1070540 
 1089000    1.0999909   -1.3766305   -1.3766305  -0.58835178   0.10157729   -1.3766305    0.7882787  1070540 
 1090000    1.1014299   -1.3773923   -1.3773923  -0.58808242   0.10920453   -1.3773923    0.7893099  1070540 
 1091000    1.1007904   -1.3763434   -1.3763434  -0.58749177   0.10213607   -1.3763434   0.78885165  1070540 
 1092000    1.1009234   -1.3754131   -1.3754131   -0.5864662   0.10211229   -1.3754131   0.78894691  1070540 
 1093000     1.100779   -1.3746559   -1.3746559  -0.58581245   0.10211715   -1.3746559   0.78884347  1070540 
 1094000    1.1025132   -1.3757691   -1.3757691  -0.58568283   0.10364407   -1.3757691   0.79008625  1070540 
 1095000    1.1015436   -1.3757239   -1.3757239  -0.58633248  0.097146808   -1.3757239   0.78939138  1070540 
 1096000    1.1012221   -1.3765763   -1.3765763  -0.58741528   0.10097007   -1.3765763   0.78916098  1070540 
 1097000    1.0997828   -1.3765582   -1.3765582  -0.58842858   0.10520321   -1.3765582   0.78812958  1070540 
 1098000      1.09889    -1.376398    -1.376398  -0.58890826   0.10022477    -1.376398   0.78748973  1070540 
 1099000    1.1001657   -1.3775571   -1.3775571  -0.58915312   0.10329208   -1.3775571   0.78840393  1070540 
 1100000    1.0990708   -1.3763667   -1.3763667  -0.58874736    0.1035003   -1.3763667   0.78761932  1070540 
 1101000    1.1004017   -1.3768726   -1.3768726  -0.58829952   0.10845589   -1.3768726    0.7885731  1070540 
 1102000    1.1007711   -1.3768481   -1.3768481  -0.58801028   0.11100557   -1.3768481   0.78883778  1070540 
 1103000    1.1016167    -1.377396    -1.377396   -0.5879523   0.11257376    -1.377396   0.78944374  1070540 
 1104000    1.0982949    -1.375932    -1.375932   -0.5888687   0.11165999    -1.375932   0.78706331  1070540 
 1105000    1.0972787   -1.3762726   -1.3762726  -0.58993753    0.1025972   -1.3762726   0.78633504  1070540 
 1106000    1.0990233   -1.3780867   -1.3780867  -0.59050139   0.10264795   -1.3780867   0.78758532  1070540 
 1107000    1.0965844   -1.3761356   -1.3761356  -0.59029813  0.094011279   -1.3761356    0.7858375  1070540 
 1108000    1.0992188   -1.3769672   -1.3769672   -0.5892418   0.10010831   -1.3769672   0.78772539  1070540 
 1109000    1.0999099   -1.3765521   -1.3765521  -0.58833142   0.10135867   -1.3765521   0.78822064  1070540 
 1110000    1.1005475   -1.3765449   -1.3765449  -0.58786726   0.11277398   -1.3765449   0.78867759  1070540 
 1111000    1.0994099     -1.37557     -1.37557  -0.58770767   0.10047145     -1.37557   0.78786235  1070540 
 1112000    1.1000699   -1.3759147   -1.3759147  -0.58757937   0.10202702   -1.3759147   0.78833534  1070540 
 1113000    1.1002131   -1.3759456   -1.3759456  -0.58750764   0.10254829   -1.3759456   0.78843793  1070540 
 1114000    1.1017933   -1.3772247   -1.3772247  -0.58765436   0.10342125   -1.3772247   0.78957034  1070540 
 1115000    1.1000721   -1.3768898   -1.3768898  -0.58855298  0.097998556   -1.3768898   0.78833685  1070540 
 1116000    1.0977656   -1.3762018   -1.3762018  -0.58951781   0.10038831   -1.3762018     0.786684  1070540 
 1117000    1.0988861   -1.3777057   -1.3777057  -0.59021877  0.096273249   -1.3777057   0.78748693  1070540 
 1118000    1.0986305   -1.3776754   -1.3776754  -0.59037158   0.10207177   -1.3776754   0.78730377  1070540 
 1119000    1.0997088     -1.37778     -1.37778   -0.5897034   0.10619061     -1.37778   0.78807655  1070540 
 1120000    1.0996652   -1.3771165   -1.3771165  -0.58907121   0.10512464   -1.3771165   0.78804532  1070540 
 1121000    1.1004864   -1.3774567   -1.3774567  -0.58882295   0.10023827   -1.3774567   0.78863379  1070540 
 1122000    1.0988705     -1.37619     -1.37619  -0.58871414   0.10639264     -1.37619   0.78747581  1070540 
 1123000    1.0990744   -1.3761581   -1.3761581  -0.58853617   0.11087843   -1.3761581   0.78762189  1070540 
 1124000    1.0997227    -1.376345    -1.376345  -0.58825847   0.10090458    -1.376345   0.78808649  1070540 
 1125000    1.1005414   -1.3769985   -1.3769985  -0.58832529     0.106494   -1.3769985   0.78867322  1070540 
 1126000    1.0997784   -1.3762761   -1.3762761  -0.58814972   0.10748668   -1.3762761   0.78812639  1070540 
 1127000    1.0997488   -1.3761545   -1.3761545  -0.58804932   0.10632822   -1.3761545   0.78810517  1070540 
 1128000    1.0995413   -1.3757788   -1.3757788   -0.5878223   0.10317997   -1.3757788   0.78795648  1070540 
 1129000    1.0998942   -1.3753499   -1.3753499  -0.58714048    0.1031803   -1.3753499   0.78820937  1070540 
 1130000    1.1004252   -1.3750453   -1.3750453  -0.58645542   0.10818811   -1.3750453   0.78858991  1070540 
 1131000    1.1019194   -1.3757258   -1.3757258  -0.58606514    0.1104586   -1.3757258   0.78966066  1070540 
 1132000    1.1004415   -1.3748023   -1.3748023  -0.58620065   0.10001551   -1.3748023   0.78860162  1070540 
 1133000    1.1008285   -1.3759776   -1.3759776  -0.58709862   0.10118417   -1.3759776   0.78887893  1070540 
 1134000    1.0995808   -1.3761778   -1.3761778  -0.58819293   0.10842661   -1.3761778   0.78798483  1070540 
 1135000    1.1009123   -1.3780546   -1.3780546  -0.58911566    0.1040367   -1.3780546   0.78893897  1070540 
 1136000    1.0980033   -1.3761954   -1.3761954  -0.58934101  0.097592173   -1.3761954   0.78685434  1070540 
 1137000    1.0991095   -1.3769565   -1.3769565  -0.58930947  0.099525248   -1.3769565   0.78764706  1070540 
 1138000     1.099918   -1.3770895   -1.3770895  -0.58886302  0.094636029   -1.3770895   0.78822644  1070540 
 1139000    1.0995196    -1.376223    -1.376223  -0.58828203   0.10524834    -1.376223   0.78794096  1070540 
 1140000    1.1000534   -1.3760498   -1.3760498  -0.58772627   0.09717334   -1.3760498   0.78832351  1070540 
 1141000    1.1007334   -1.3759073   -1.3759073  -0.58709655  0.098548879   -1.3759073   0.78881076  1070540 
 1142000    1.1003292   -1.3755397   -1.3755397  -0.58701857   0.10324301   -1.3755397    0.7885211  1070540 
 1143000    1.1007435   -1.3756953   -1.3756953  -0.58687723   0.10020449   -1.3756953   0.78881802  1070540 
 1144000    1.1004102   -1.3757381   -1.3757381  -0.58715895   0.10711359   -1.3757381   0.78857917  1070540 
 1145000    1.0993975   -1.3752255   -1.3752255  -0.58737197   0.10484891   -1.3752255   0.78785348  1070540 
 1146000    1.1000514   -1.3759238   -1.3759238  -0.58760176  0.094776663   -1.3759238   0.78832208  1070540 
 1147000    1.0987016   -1.3751306   -1.3751306  -0.58777589  0.093233727   -1.3751306   0.78735473  1070540 
 1148000     1.100867   -1.3772053   -1.3772053  -0.58829885  0.099653915   -1.3772053   0.78890649  1070540 
 1149000    1.0984828   -1.3760184   -1.3760184  -0.58882044  0.099673358   -1.3760184   0.78719792  1070540 
 1150000    1.0974057   -1.3755676   -1.3755676  -0.58914151   0.11493867   -1.3755676   0.78642606  1070540 
 1151000    1.0989051    -1.376622    -1.376622  -0.58912147   0.10642144    -1.376622   0.78750056  1070540 
 1152000    1.0988181    -1.375499    -1.375499  -0.58806079   0.10905775    -1.375499   0.78743824  1070540 
 1153000    1.1024777   -1.3763533   -1.3763533  -0.58629257   0.10878034   -1.3763533   0.79006077  1070540 
 1154000    1.1014385   -1.3752138   -1.3752138  -0.58589772   0.10635375   -1.3752138   0.78931604  1070540 
 1155000    1.0999664   -1.3743304   -1.3743304  -0.58606924   0.11171627   -1.3743304   0.78826115  1070540 
 1156000    1.0994881   -1.3744414   -1.3744414  -0.58652305  0.096417858   -1.3744414   0.78791838  1070540 
 1157000    1.1007638    -1.375998    -1.375998  -0.58716548  0.099187689    -1.375998   0.78883256  1070540 
 1158000    1.0989847   -1.3756115   -1.3756115  -0.58805383   0.10655994   -1.3756115   0.78755762  1070540 
 1159000    1.0975804   -1.3753834   -1.3753834  -0.58883211   0.10317142   -1.3753834   0.78655126  1070540 
 1160000    1.0991947   -1.3766334   -1.3766334   -0.5889253   0.10454089   -1.3766334    0.7877081  1070540 
 1161000    1.0983315   -1.3758345   -1.3758345   -0.5887449   0.10366537   -1.3758345   0.78708955  1070540 
 1162000    1.0999526   -1.3763529   -1.3763529  -0.58810161   0.10778157   -1.3763529   0.78825126  1070540 
 1163000    1.1020895   -1.3772181   -1.3772181  -0.58743549  0.093579027   -1.3772181   0.78978262  1070540 
 1164000    1.1015754    -1.376481    -1.376481  -0.58706682   0.10384683    -1.376481   0.78941421  1070540 
 1165000    1.0999446   -1.3753127   -1.3753127  -0.58706716   0.10828278   -1.3753127   0.78824552  1070540 
 1166000    1.1015217   -1.3772558   -1.3772558  -0.58788004   0.11635671   -1.3772558   0.78937572  1070540 
 1167000    1.0980548   -1.3762156   -1.3762156  -0.58932436   0.10342504   -1.3762156   0.78689124  1070540 
 1168000    1.1002147   -1.3784555   -1.3784555  -0.59001644   0.10033512   -1.3784555   0.78843909  1070540 
 1169000    1.0992658   -1.3779949   -1.3779949  -0.59023584  0.099053469   -1.3779949    0.7877591  1070540 
 1170000    1.0986173   -1.3775666   -1.3775666  -0.59027222   0.10203278   -1.3775666   0.78729437  1070540 
 1171000    1.0997525   -1.3780498   -1.3780498  -0.58994201   0.10627957   -1.3780498   0.78810783  1070540 
 1172000    1.1005846   -1.3779878   -1.3779878  -0.58928361   0.10025642   -1.3779878   0.78870415  1070540 
 1173000      1.10132    -1.377659    -1.377659  -0.58842777   0.10309099    -1.377659   0.78923118  1070540 
 1174000    1.1011825   -1.3771483   -1.3771483  -0.58801571    0.1008411   -1.3771483    0.7891326  1070540 
 1175000    1.1004079   -1.3765769   -1.3765769  -0.58799936   0.10949883   -1.3765769   0.78857756  1070540 
 1176000    1.1012118   -1.3775363   -1.3775363  -0.58838263   0.10181443   -1.3775363   0.78915362  1070540 
 1177000    1.0985947   -1.3769031   -1.3769031  -0.58962495    0.1073459   -1.3769031   0.78727814  1070540 
 1178000    1.0997908   -1.3789682   -1.3789682  -0.59083297   0.10515701   -1.3789682   0.78813528  1070540 
 1179000    1.0994178   -1.3790814   -1.3790814  -0.59121341   0.10408911   -1.3790814   0.78786797  1070540 
 1180000    1.0990314   -1.3787779   -1.3787779  -0.59118678   0.11137979   -1.3787779   0.78759112  1070540 
 1181000    1.1006606   -1.3796272   -1.3796272  -0.59086861   0.10031024   -1.3796272    0.7887586  1070540 
 1182000    1.1010073   -1.3794599   -1.3794599  -0.59045284   0.10132212   -1.3794599   0.78900704  1070540 
 1183000    1.1002631   -1.3786359   -1.3786359  -0.59016207   0.10846351   -1.3786359   0.78847378  1070540 
 1184000    1.0995367   -1.3777204   -1.3777204   -0.5897672   0.10223248   -1.3777204   0.78795323  1070540 
 1185000    1.1006168   -1.3776051   -1.3776051  -0.58887794   0.10417998   -1.3776051   0.78872721  1070540 
 1186000    1.1024891    -1.377434    -1.377434  -0.58736509  0.099914682    -1.377434   0.79006896  1070540 
 1187000     1.103516   -1.3772307   -1.3772307  -0.58642584   0.10359652   -1.3772307   0.79080488  1070540 
 1188000    1.1016222   -1.3760757   -1.3760757  -0.58662796   0.10266281   -1.3760757   0.78944772  1070540 
 1189000    1.1022725   -1.3770357   -1.3770357  -0.58712196   0.11887621   -1.3770357   0.78991377  1070540 
 1190000     1.099302   -1.3754343   -1.3754343  -0.58764933  0.098708208   -1.3754343   0.78778501  1070540 
 1191000    1.0990965   -1.3758795   -1.3758795  -0.58824171   0.10517486   -1.3758795   0.78763774  1070540 
 1192000    1.1006724   -1.3774356   -1.3774356  -0.58866854   0.10186207   -1.3774356    0.7887671  1070540 
 1193000    1.0994471   -1.3772449   -1.3772449  -0.58935591   0.10450767   -1.3772449   0.78788896  1070540 
 1194000    1.0980004   -1.3765436   -1.3765436  -0.58969137   0.10529046   -1.3765436   0.78685224  1070540 
 1195000    1.1002858   -1.3783898   -1.3783898  -0.58989985    0.1150019   -1.3783898   0.78848999  1070540 
 1196000    1.0980248   -1.3768382   -1.3768382  -0.58996851   0.10542602   -1.3768382   0.78686972  1070540 
 1197000    1.0994197   -1.3777271   -1.3777271   -0.5898577   0.10336427   -1.3777271   0.78786939  1070540 
 1198000    1.1016543   -1.3791047   -1.3791047  -0.58963401   0.10519429   -1.3791047   0.78947069  1070540 
 1199000    1.1011416   -1.3782579   -1.3782579  -0.58915459  0.099088842   -1.3782579    0.7891033  1070540 
 1200000    1.1015711   -1.3781147   -1.3781147  -0.58870362  0.094832435   -1.3781147   0.78941109  1070540 
 1201000    1.1015974   -1.3780609   -1.3780609  -0.58863096  0.098602323   -1.3780609   0.78942992  1070540 
 1202000    1.1015202   -1.3785247   -1.3785247  -0.58915009   0.10536428   -1.3785247   0.78937461  1070540 
 1203000    1.1010795    -1.379158    -1.379158  -0.59009924   0.10219953    -1.379158   0.78905878  1070540 
 1204000    1.0986659   -1.3784202   -1.3784202  -0.59109101   0.10311492   -1.3784202   0.78732918  1070540 
 1205000    1.0997318   -1.3797389   -1.3797389  -0.59164586   0.10431647   -1.3797389   0.78809299  1070540 
 1206000    1.0982316   -1.3786597   -1.3786597  -0.59164177   0.10112874   -1.3786597    0.7870179  1070540 
 1207000    1.0993964   -1.3787597   -1.3787597  -0.59090706   0.10500669   -1.3787597   0.78785265  1070540 
 1208000    1.1008992   -1.3790107   -1.3790107  -0.59008111   0.10281016   -1.3790107   0.78892963  1070540 
 1209000    1.0994783   -1.3776138   -1.3776138  -0.58970246   0.10305098   -1.3776138   0.78791132  1070540 
 1210000    1.1003225   -1.3777687   -1.3777687  -0.58925233   0.10498711   -1.3777687   0.78851634  1070540 
 1211000    1.1000466   -1.3773988   -1.3773988  -0.58908017   0.10937176   -1.3773988   0.78831861  1070540 
 1212000    1.1000522   -1.3772838   -1.3772838  -0.58896114   0.09926452   -1.3772838   0.78832263  1070540 
 1213000     1.099648   -1.3767088   -1.3767088  -0.58867585   0.10376835   -1.3767088   0.78803292  1070540 
 1214000    1.0997387   -1.3767347   -1.3767347  -0.58863668    0.1066295   -1.3767347   0.78809798  1070540 
 1215000    1.1001538   -1.3771429   -1.3771429  -0.58874747   0.10605441   -1.3771429   0.78839545  1070540 
 1216000    1.0986795   -1.3761032   -1.3761032  -0.58876434  0.099500568   -1.3761032   0.78733889  1070540 
 1217000    1.0996295   -1.3767724   -1.3767724  -0.58875269   0.11185524   -1.3767724   0.78801974  1070540 
 1218000    1.1019945   -1.3786508   -1.3786508  -0.58893628  0.099475135   -1.3786508   0.78971454  1070540 
 1219000    1.0993811   -1.3776736   -1.3776736  -0.58983196    0.1043416   -1.3776736   0.78784167  1070540 
 1220000    1.0988046   -1.3784528   -1.3784528   -0.5910242   0.10078238   -1.3784528   0.78742858  1070540 
 1221000    1.0979341   -1.3784127   -1.3784127  -0.59160799   0.10369369   -1.3784127   0.78680473  1070540 
 1222000    1.0975865   -1.3781108   -1.3781108  -0.59155515  0.096749405   -1.3781108   0.78655562  1070540 
 1223000     1.099177   -1.3786778   -1.3786778  -0.59098237    0.1050913   -1.3786778   0.78769544  1070540 
 1224000     1.100093   -1.3788051   -1.3788051  -0.59045317   0.10125062   -1.3788051   0.78835189  1070540 
 1225000    1.0991771   -1.3777842   -1.3777842   -0.5900887   0.10052055   -1.3777842   0.78769549  1070540 
 1226000    1.0991941   -1.3776842   -1.3776842  -0.58997651    0.1017078   -1.3776842   0.78770766  1070540 
 1227000    1.1006272   -1.3781231   -1.3781231  -0.58938847   0.10511752   -1.3781231   0.78873468  1070540 
 1228000    1.1012348    -1.378274    -1.378274  -0.58910385    0.1069133    -1.378274    0.7891701  1070540 
 1229000    1.1000489   -1.3771779   -1.3771779  -0.58885761   0.10435499   -1.3771779   0.78832026  1070540 
 1230000    1.0984352   -1.3756764   -1.3756764  -0.58851252   0.10067363   -1.3756764   0.78716386  1070540 
 1231000    1.0989559   -1.3753204   -1.3753204  -0.58778342   0.10251054   -1.3753204   0.78753702  1070540 
 1232000    1.1007899   -1.3754562   -1.3754562  -0.58660493   0.10706774   -1.3754562   0.78885129  1070540 
 1233000    1.1008572   -1.3747944   -1.3747944  -0.58589486   0.10170616   -1.3747944   0.78889953  1070540 
 1234000    1.1002199    -1.374004    -1.374004  -0.58556125   0.10199793    -1.374004   0.78844277  1070540 
 1235000    1.1013663   -1.3748661   -1.3748661  -0.58560183   0.10280712   -1.3748661    0.7892643  1070540 
 1236000    1.1017983   -1.3757004   -1.3757004  -0.58612656  0.097969906   -1.3757004   0.78957388  1070540 
 1237000     1.099628   -1.3746986   -1.3746986     -0.58668  0.099859873   -1.3746986   0.78801864  1070540 
 1238000    1.1002231   -1.3759576   -1.3759576  -0.58751251   0.10473371   -1.3759576   0.78844507  1070540 
 1239000    1.0999406   -1.3760871   -1.3760871  -0.58784446   0.10635886   -1.3760871   0.78824263  1070540 
 1240000    1.0984858   -1.3752391   -1.3752391  -0.58803898  0.099312515   -1.3752391   0.78720008  1070540 
 1241000    1.1002408   -1.3760589   -1.3760589   -0.5876011   0.10048973   -1.3760589   0.78845777  1070540 
 1242000    1.1015737   -1.3769781   -1.3769781  -0.58756515   0.10239084   -1.3769781   0.78941297  1070540 
 1243000    1.1000764   -1.3761774   -1.3761774  -0.58783738   0.11130595   -1.3761774   0.78833997  1070540 
 1244000    1.1010451   -1.3773451   -1.3773451    -0.588311   0.10712918   -1.3773451   0.78903414  1070540 
 1245000    1.0999431   -1.3774864   -1.3774864  -0.58924196   0.10117818   -1.3774864    0.7882444  1070540 
 1246000     1.099422   -1.3779823   -1.3779823  -0.59011128  0.098202477   -1.3779823   0.78787101  1070540 
 1247000    1.0975692   -1.3770407   -1.3770407  -0.59049749   0.10311411   -1.3770407   0.78654321  1070540 
 1248000    1.0983681   -1.3775727   -1.3775727  -0.59045694  0.099611846   -1.3775727   0.78711575  1070540 
 1249000     1.099532   -1.3771907   -1.3771907  -0.58924083   0.10514002   -1.3771907   0.78794983  1070540 
 1250000    1.1021248   -1.3773965   -1.3773965  -0.58758858  0.099273998   -1.3773965   0.78980793  1070540 
 1251000    1.1024039   -1.3767227   -1.3767227   -0.5867148    0.1055544   -1.3767227    0.7900079  1070540 
 1252000    1.1023261   -1.3767535   -1.3767535  -0.58680138   0.10520673   -1.3767535   0.78995215  1070540 
 1253000    1.1016683   -1.3768392   -1.3768392  -0.58735844   0.10490311   -1.3768392   0.78948072  1070540 
 1254000     1.100226   -1.3770746   -1.3770746  -0.58862743   0.10579985   -1.3770746   0.78844716  1070540 
 1255000     1.099231   -1.3769529   -1.3769529  -0.58921878   0.10361903   -1.3769529    0.7877341  1070540 
 1256000    1.0984211   -1.3764354   -1.3764354  -0.58928162    0.1021978   -1.3764354   0.78715375  1070540 
 1257000    1.1006274   -1.3778495   -1.3778495  -0.58911472   0.10201859   -1.3778495   0.78873479  1070540 
 1258000    1.1001089   -1.3771163   -1.3771163  -0.58875309   0.10497292   -1.3771163   0.78836322  1070540 
 1259000    1.1018927   -1.3780868   -1.3780868  -0.58844527   0.10686963   -1.3780868   0.78964154  1070540 
 1260000    1.1020287   -1.3780599   -1.3780599  -0.58832092   0.10329293   -1.3780599   0.78973901  1070540 
 1261000    1.1005347     -1.37732     -1.37732  -0.58865157   0.10181123     -1.37732   0.78866841  1070540 
 1262000    1.1005206    -1.378001    -1.378001  -0.58934267   0.10281117    -1.378001   0.78865832  1070540 
 1263000    1.0987047   -1.3776052   -1.3776052  -0.59024826  0.098635071   -1.3776052   0.78735695  1070540 
 1264000     1.099847   -1.3789467   -1.3789467  -0.59077113   0.10412317   -1.3789467   0.78817557  1070540 
 1265000     1.100103   -1.3792655   -1.3792655  -0.59090644  0.096522313   -1.3792655   0.78835906  1070540 
 1266000    1.0987012   -1.3784874   -1.3784874  -0.59113295   0.10060196   -1.3784874   0.78735448  1070540 
 1267000    1.0991396    -1.378789    -1.378789  -0.59112037   0.10010084    -1.378789   0.78766862  1070540 
 1268000    1.1014681   -1.3796568   -1.3796568  -0.59031958   0.09172512   -1.3796568   0.78933725  1070540 
 1269000    1.1007268   -1.3779669   -1.3779669  -0.58916091   0.11090581   -1.3779669   0.78880603  1070540 
 1270000    1.1005517   -1.3768823   -1.3768823  -0.58820176   0.10006577   -1.3768823   0.78868054  1070540 
 1271000    1.1028045   -1.3779486   -1.3779486  -0.58765362  0.095707171   -1.3779486   0.79029498  1070540 
 1272000    1.1004498   -1.3764234   -1.3764234  -0.58781581    0.1014738   -1.3764234   0.78860755  1070540 
 1273000    1.1013114   -1.3776206   -1.3776206  -0.58839561   0.10198386   -1.3776206     0.789225  1070540 
 1274000    1.1006297   -1.3777429   -1.3777429  -0.58900641   0.10502924   -1.3777429   0.78873644  1070540 
 1275000    1.0999305   -1.3782174   -1.3782174  -0.58998192   0.09928088   -1.3782174   0.78823544  1070540 
 1276000    1.0995296     -1.37871     -1.37871   -0.5907619    0.1033141     -1.37871   0.78794813  1070540 
 1277000     1.100796   -1.3796935   -1.3796935  -0.59083784   0.10375067   -1.3796935   0.78885564  1070540 
 1278000    1.1004539   -1.3795768   -1.3795768  -0.59096631   0.10472385   -1.3795768   0.78861047  1070540 
 1279000     1.102679     -1.38137     -1.38137  -0.59116496  0.097695481     -1.38137   0.79020502  1070540 
 1280000    1.1002225   -1.3803176   -1.3803176  -0.59187294   0.10721617   -1.3803176   0.78844463  1070540 
 1281000    1.1004867   -1.3813198   -1.3813198  -0.59268573   0.10562234   -1.3813198   0.78863402  1070540 
 1282000    1.0978249    -1.380009    -1.380009  -0.59328255   0.10320388    -1.380009   0.78672649  1070540 
 1283000    1.0987749   -1.3808441   -1.3808441  -0.59343681   0.10065976   -1.3808441   0.78740729  1070540 
 1284000    1.0972822   -1.3795141   -1.3795141  -0.59317654   0.10212451   -1.3795141   0.78633758  1070540 
 1285000    1.1001433   -1.3804813   -1.3804813  -0.59209343  0.099845877   -1.3804813    0.7883879  1070540 
 1286000    1.1003584   -1.3794136   -1.3794136  -0.59087154   0.11017647   -1.3794136   0.78854208  1070540 
 1287000    1.1009213   -1.3791836   -1.3791836  -0.59023817   0.10713791   -1.3791836   0.78894546  1070540 
 1288000    1.1015604   -1.3798336   -1.3798336   -0.5904302   0.11052925   -1.3798336   0.78940342  1070540 
 1289000     1.099865   -1.3790656   -1.3790656  -0.59087721   0.10965341   -1.3790656   0.78818843  1070540 
 1290000    1.0987321   -1.3787334   -1.3787334  -0.59135678  0.092500555   -1.3787334    0.7873766  1070540 
 1291000    1.1000358   -1.3795069   -1.3795069  -0.59119608   0.09905838   -1.3795069   0.78831084  1070540 
 1292000    1.1001655   -1.3795576   -1.3795576  -0.59115383   0.10289622   -1.3795576   0.78840378  1070540 
 1293000    1.1000778   -1.3789622   -1.3789622   -0.5906212   0.10975228   -1.3789622     0.788341  1070540 
 1294000    1.1005261   -1.3784862   -1.3784862  -0.58982398   0.10788571   -1.3784862   0.78866223  1070540 
 1295000    1.1020917   -1.3786577   -1.3786577  -0.58887349  0.094823292   -1.3786577   0.78978418  1070540 
 1296000    1.1016212   -1.3774617   -1.3774617  -0.58801471   0.10117844   -1.3774617   0.78944703  1070540 
 1297000    1.1024943    -1.377561    -1.377561  -0.58748833   0.10484783    -1.377561   0.79007268  1070540 
 1298000    1.1026162   -1.3778051   -1.3778051  -0.58764503   0.10536774   -1.3778051   0.79016006  1070540 
 1299000    1.1004774   -1.3780498   -1.3780498  -0.58942246  0.098508432   -1.3780498   0.78862734  1070540 
 1300000    1.0994527   -1.3783949   -1.3783949  -0.59050185   0.10780344   -1.3783949     0.787893  1070540 
 1301000    1.0989872   -1.3782986   -1.3782986  -0.59073913  0.099030468   -1.3782986   0.78755943  1070540 
 1302000    1.1000945   -1.3788677   -1.3788677  -0.59051477   0.10351098   -1.3788677   0.78835294  1070540 
 1303000    1.1005411   -1.3785823   -1.3785823  -0.58990935  0.098966548   -1.3785823   0.78867295  1070540 
 1304000    1.1008531   -1.3788561   -1.3788561  -0.58995954  0.094321328   -1.3788561   0.78889655  1070540 
 1305000    1.1002196   -1.3779947   -1.3779947  -0.58955219   0.11170866   -1.3779947   0.78844256  1070540 
 1306000    1.1005029   -1.3785061   -1.3785061  -0.58986048   0.10459481   -1.3785061   0.78864559  1070540 
 1307000    1.1018132   -1.3803175   -1.3803175  -0.59073283   0.10455903   -1.3803175   0.78958462  1070540 
 1308000     1.098311   -1.3791827   -1.3791827  -0.59210782   0.10401697   -1.3791827   0.78707487  1070540 
 1309000    1.0985843   -1.3799381   -1.3799381  -0.59266738   0.10169099   -1.3799381   0.78727069  1070540 
 1310000    1.0989838   -1.3802796   -1.3802796  -0.59272268  0.099671973   -1.3802796   0.78755695  1070540 
 1311000    1.0991499   -1.3799529   -1.3799529  -0.59227683   0.10280033   -1.3799529   0.78767603  1070540 
 1312000    1.0989197   -1.3790576   -1.3790576  -0.59154653  0.099961632   -1.3790576   0.78751104  1070540 
 1313000     1.102031   -1.3804508   -1.3804508   -0.5907102   0.10327703   -1.3804508   0.78974064  1070540 
 1314000    1.1005215   -1.3788603   -1.3788603  -0.59020135   0.10488048   -1.3788603   0.78865894  1070540 
 1315000    1.0998403   -1.3784577   -1.3784577  -0.59028689   0.10889658   -1.3784577   0.78817079  1070540 
 1316000    1.1000142   -1.3785439   -1.3785439  -0.59024848   0.10809169   -1.3785439   0.78829541  1070540 
 1317000    1.0996227   -1.3784716   -1.3784716  -0.59045682   0.10295602   -1.3784716   0.78801482  1070540 
 1318000    1.1001398   -1.3791393   -1.3791393  -0.59075397   0.10245255   -1.3791393   0.78838536  1070540 
 1319000    1.0994632   -1.3787806   -1.3787806  -0.59088008   0.10385922   -1.3787806   0.78790052  1070540 
 1320000    1.0990941   -1.3785064   -1.3785064   -0.5908704   0.10399357   -1.3785064   0.78763601  1070540 
 1321000    1.1010994   -1.3792972   -1.3792972  -0.59022415   0.10539026   -1.3792972   0.78907308  1070540 
 1322000    1.1027079   -1.3790359   -1.3790359  -0.58881011   0.10185833   -1.3790359   0.79022576  1070540 
 1323000    1.1028688   -1.3785151   -1.3785151  -0.58817399   0.10774834   -1.3785151   0.79034107  1070540 
 1324000    1.1011971   -1.3772861   -1.3772861  -0.58814306   0.10426842   -1.3772861   0.78914305  1070540 
 1325000    1.1009802    -1.377558    -1.377558  -0.58857031   0.10664787    -1.377558   0.78898768  1070540 
 1326000    1.0998356   -1.3777988   -1.3777988   -0.5896314   0.10528427   -1.3777988    0.7881674  1070540 
 1327000    1.0988378   -1.3779013   -1.3779013  -0.59044896   0.10017299   -1.3779013   0.78745236  1070540 
 1328000    1.0988605   -1.3783236   -1.3783236   -0.5908549   0.10896512   -1.3783236   0.78746865  1070540 
 1329000    1.0985489   -1.3779404   -1.3779404  -0.59069506   0.10411027   -1.3779404   0.78724531  1070540 
 1330000    1.0983091   -1.3773098   -1.3773098   -0.5902363   0.10223896   -1.3773098   0.78707346  1070540 
 1331000    1.1003477   -1.3783534   -1.3783534  -0.58981902   0.10790705   -1.3783534    0.7885344  1070540 
 1332000    1.0994286   -1.3774452   -1.3774452  -0.58956946   0.10172294   -1.3774452   0.78787573  1070540 
 1333000     1.101383   -1.3789215   -1.3789215  -0.58964516   0.10020138   -1.3789215   0.78927631  1070540 
 1334000    1.1017405   -1.3796467   -1.3796467  -0.59011422   0.10535854   -1.3796467   0.78953251  1070540 
 1335000    1.0997775   -1.3785258   -1.3785258  -0.59040006  0.090272661   -1.3785258   0.78812575  1070540 
 1336000    1.0985373   -1.3777944   -1.3777944   -0.5905574    0.1065037   -1.3777944   0.78723701  1070540 
 1337000    1.1006948    -1.379261    -1.379261  -0.59047788   0.10033088    -1.379261   0.78878315  1070540 
 1338000    1.1017394   -1.3801136   -1.3801136  -0.59058192      0.10752   -1.3801136   0.78953169  1070540 
 1339000    1.1012104   -1.3801144   -1.3801144  -0.59096175   0.10271979   -1.3801144   0.78915261  1070540 
 1340000    1.1003377   -1.3799652   -1.3799652    -0.591438  0.097625152   -1.3799652   0.78852725  1070540 
 1341000    1.1013552   -1.3811119   -1.3811119   -0.5918555   0.10801579   -1.3811119   0.78925639  1070540 
 1342000      1.09941   -1.3801397   -1.3801397  -0.59227737  0.097777614   -1.3801397   0.78786237  1070540 
 1343000    1.0991015   -1.3801032   -1.3801032  -0.59246188   0.10543399   -1.3801032   0.78764132  1070540 
 1344000    1.1009113   -1.3813692   -1.3813692  -0.59243088   0.09723971   -1.3813692   0.78893828  1070540 
 1345000    1.0993873   -1.3804174   -1.3804174  -0.59257122   0.10564516   -1.3804174   0.78784615  1070540 
 1346000    1.1003321   -1.3807799   -1.3807799  -0.59225671  0.097987939   -1.3807799   0.78852323  1070540 
 1347000    1.1005664   -1.3803404   -1.3803404  -0.59164926   0.10946364   -1.3803404   0.78869111  1070540 
 1348000    1.1030574    -1.381334    -1.381334  -0.59085779   0.10777049    -1.381334   0.79047619  1070540 
 1349000     1.101649   -1.3797402   -1.3797402  -0.59027323   0.10394207   -1.3797402   0.78946694  1070540 
 1350000    1.1020614    -1.379048    -1.379048  -0.58928556   0.10194394    -1.379048   0.78976246  1070540 
 1351000    1.1029215   -1.3794493   -1.3794493  -0.58907052   0.10907868   -1.3794493   0.79037883  1070540 
 1352000    1.1008427   -1.3790378   -1.3790378   -0.5901487   0.10272252   -1.3790378   0.78888909  1070540 
 1353000    1.0996125   -1.3792537   -1.3792537  -0.59124613   0.10181617   -1.3792537   0.78800754  1070540 
 1354000    1.0994016   -1.3797643   -1.3797643  -0.59190792    0.1030178   -1.3797643   0.78785637  1070540 
 1355000    1.0973494   -1.3783856   -1.3783856  -0.59199992   0.10287602   -1.3783856   0.78638573  1070540 
 1356000    1.0976292   -1.3781656   -1.3781656  -0.59157929   0.10493723   -1.3781656   0.78658627  1070540 
 1357000    1.1017031   -1.3801515   -1.3801515  -0.59064584   0.10781444   -1.3801515    0.7895057  1070540 
 1358000    1.1044241   -1.3818434   -1.3818434   -0.5903878    0.1008115   -1.3818434   0.79145561  1070540 
 1359000    1.1017821   -1.3806147   -1.3806147  -0.59105243  0.099807884   -1.3806147   0.78956229  1070540 
 1360000    1.0990551   -1.3796518   -1.3796518  -0.59204376   0.10186008   -1.3796518   0.78760807  1070540 
 1361000    1.1000217   -1.3807989   -1.3807989  -0.59249807   0.10569311   -1.3807989   0.78830078  1070540 
 1362000    1.1008156   -1.3814125   -1.3814125  -0.59254277   0.10070476   -1.3814125   0.78886971  1070540 
 1363000    1.1012467   -1.3818087   -1.3818087  -0.59263006   0.10314511   -1.3818087   0.78917864  1070540 
 1364000    1.1000867   -1.3810482   -1.3810482  -0.59270091    0.1088404   -1.3810482   0.78834732  1070540 
 1365000    1.1019154   -1.3822123   -1.3822123  -0.59255442   0.10673246   -1.3822123   0.78965785  1070540 
 1366000    1.1007049   -1.3814135   -1.3814135  -0.59262315  0.093661503   -1.3814135   0.78879033  1070540 
 1367000    1.0988973   -1.3802689   -1.3802689   -0.5927739   0.10414275   -1.3802689     0.787495  1070540 
 1368000      1.09913   -1.3811727   -1.3811727  -0.59351091   0.10174932   -1.3811727   0.78766177  1070540 
 1369000    1.0986179   -1.3819511   -1.3819511  -0.59465638   0.10255146   -1.3819511   0.78729475  1070540 
 1370000    1.0988491   -1.3826556   -1.3826556  -0.59519515   0.10324825   -1.3826556   0.78746043  1070540 
 1371000    1.0988614   -1.3829905   -1.3829905  -0.59552123    0.1004712   -1.3829905   0.78746924  1070540 
 1372000    1.0971245   -1.3814318   -1.3814318  -0.59520728   0.10431315   -1.3814318   0.78622453  1070540 
 1373000    1.0993023    -1.381765    -1.381765  -0.59397976   0.10287448    -1.381765   0.78778522  1070540 
 1374000    1.1011281   -1.3819273   -1.3819273  -0.59283365     0.114866   -1.3819273   0.78909362  1070540 
 1375000    1.1000748   -1.3810146   -1.3810146  -0.59267572   0.10045645   -1.3810146   0.78833883  1070540 
 1376000    1.1003418   -1.3810067   -1.3810067  -0.59247653   0.10449672   -1.3810067   0.78853018  1070540 
 1377000    1.0999429   -1.3803867   -1.3803867  -0.59214245   0.10443458   -1.3803867   0.78824429  1070540 
 1378000    1.1003222    -1.380887    -1.380887  -0.59237094   0.10668032    -1.380887    0.7885161  1070540 
 1379000    1.0999493   -1.3808149   -1.3808149  -0.59256609  0.095961421   -1.3808149   0.78824886  1070540 
 1380000    1.0979203   -1.3793765   -1.3793765  -0.59258164   0.10078948   -1.3793765   0.78679484  1070540 
 1381000    1.1003353   -1.3809255   -1.3809255  -0.59240005  0.099612086   -1.3809255   0.78852547  1070540 
 1382000     1.098525   -1.3791456   -1.3791456  -0.59191744   0.10150281   -1.3791456    0.7872282  1070540 
 1383000     1.100393   -1.3800832   -1.3800832  -0.59151636   0.10529506   -1.3800832   0.78856681  1070540 
 1384000    1.1013935   -1.3800552   -1.3800552  -0.59077139    0.1017205   -1.3800552   0.78928379  1070540 
 1385000    1.1011106   -1.3798532   -1.3798532  -0.59077212   0.10374161   -1.3798532   0.78908108  1070540 
 1386000    1.1020501   -1.3807043   -1.3807043  -0.59094996   0.10415834   -1.3807043   0.78975436  1070540 
 1387000    1.1012658   -1.3810157   -1.3810157  -0.59182339   0.10169468   -1.3810157   0.78919233  1070540 
 1388000    1.1007883   -1.3818033   -1.3818033  -0.59295322  0.098541248   -1.3818033   0.78885011  1070540 
 1389000    1.0984551   -1.3806219   -1.3806219  -0.59344375  0.095459842   -1.3806219   0.78717812  1070540 
 1390000     1.098835   -1.3807853   -1.3807853  -0.59333495   0.10375439   -1.3807853   0.78745035  1070540 
 1391000    1.0989451    -1.380554    -1.380554  -0.59302479   0.10422822    -1.380554   0.78752925  1070540 
 1392000    1.1015933   -1.3818884   -1.3818884  -0.59246141   0.10343211   -1.3818884   0.78942699  1070540 
 1393000    1.1007259   -1.3810228   -1.3810228  -0.59221739   0.10481271   -1.3810228   0.78880539  1070540 
 1394000    1.1002127   -1.3801923   -1.3801923  -0.59175469   0.10717908   -1.3801923   0.78843761  1070540 
 1395000    1.1022541   -1.3813673   -1.3813673  -0.59146671  0.096941383   -1.3813673   0.78990057  1070540 
 1396000    1.1001501    -1.379467    -1.379467   -0.5910742   0.10383327    -1.379467   0.78839278  1070540 
 1397000    1.1003372   -1.3794873   -1.3794873  -0.59096048   0.10516825   -1.3794873   0.78852683  1070540 
 1398000    1.1008214   -1.3800785   -1.3800785  -0.59120461   0.10721478   -1.3800785   0.78887386  1070540 
 1399000    1.0999996   -1.3800478   -1.3800478  -0.59176285   0.10466035   -1.3800478   0.78828491  1070540 
 1400000    1.0978232   -1.3793073   -1.3793073    -0.592582   0.10061757   -1.3793073   0.78672525  1070540 
 1401000    1.0986643   -1.3802141   -1.3802141  -0.59288607   0.10586878   -1.3802141   0.78732799  1070540 
 1402000    1.0982073   -1.3800918   -1.3800918   -0.5930913   0.10336504   -1.3800918    0.7870005  1070540 
 1403000    1.0993909    -1.380805    -1.380805  -0.59295625   0.10317317    -1.380805   0.78784874  1070540 
 1404000    1.1008207   -1.3808394   -1.3808394  -0.59196604   0.10071469   -1.3808394   0.78887332  1070540 
 1405000    1.1003776    -1.379527    -1.379527  -0.59097119   0.10526883    -1.379527    0.7885558  1070540 
 1406000    1.1022186   -1.3805956   -1.3805956  -0.59072046   0.10342439   -1.3805956   0.78987511  1070540 
 1407000    1.1004974   -1.3793673   -1.3793673  -0.59072566   0.10314664   -1.3793673   0.78864165  1070540 
 1408000    1.1009555   -1.3800641   -1.3800641  -0.59109419  0.096456872   -1.3800641   0.78896992  1070540 
 1409000    1.0983732   -1.3788341   -1.3788341  -0.59171474   0.10255648   -1.3788341    0.7871194  1070540 
 1410000    1.0971905   -1.3791298   -1.3791298   -0.5928579  0.095522688   -1.3791298   0.78627187  1070540 
 1411000    1.0976166   -1.3808776   -1.3808776  -0.59430039   0.09166572   -1.3808776   0.78657723  1070540 
 1412000    1.0959278   -1.3798875   -1.3798875  -0.59452053   0.10223976   -1.3798875   0.78536698  1070540 
 1413000    1.0982334   -1.3807184   -1.3807184  -0.59369922   0.10429744   -1.3807184   0.78701921  1070540 
 1414000    1.0999802   -1.3810999   -1.3810999  -0.59282886  0.094642204   -1.3810999   0.78827104  1070540 
 1415000    1.0993528   -1.3801106   -1.3801106  -0.59228916   0.10468059   -1.3801106   0.78782141  1070540 
 1416000    1.1014151    -1.381538    -1.381538  -0.59223876  0.099812249    -1.381538   0.78929927  1070540 
 1417000    1.1000583    -1.380583    -1.380583    -0.592256   0.10208464    -1.380583   0.78832698  1070540 
 1418000    1.1005871   -1.3812545   -1.3812545  -0.59254859  0.097813108   -1.3812545   0.78870595  1070540 
 1419000    1.0991084   -1.3806154   -1.3806154   -0.5929691   0.10115554   -1.3806154   0.78764625  1070540 
 1420000    1.0997524   -1.3807777   -1.3807777  -0.59266992  0.097656809   -1.3807777    0.7881078  1070540 
 1421000    1.0991693   -1.3794521   -1.3794521  -0.59176215   0.10065473   -1.3794521   0.78768995  1070540 
 1422000     1.100998   -1.3794389   -1.3794389  -0.59043853   0.10333225   -1.3794389   0.78900038  1070540 
 1423000    1.1014717   -1.3791033   -1.3791033  -0.58976347   0.10148007   -1.3791033   0.78933986  1070540 
 1424000    1.1012649   -1.3790448   -1.3790448   -0.5898531   0.10065819   -1.3790448   0.78919168  1070540 
 1425000    1.1013469   -1.3795711   -1.3795711  -0.59032065   0.10773862   -1.3795711   0.78925046  1070540 
 1426000    1.1016396   -1.3805792   -1.3805792  -0.59111901  0.099926229   -1.3805792   0.78946021  1070540 
 1427000    1.1011096     -1.38102     -1.38102  -0.59193958   0.10366908     -1.38102    0.7890804  1070540 
 1428000     1.101283   -1.3818225   -1.3818225   -0.5926179   0.11144454   -1.3818225   0.78920461  1070540 
 1429000    1.0993827   -1.3808672   -1.3808672  -0.59302443  0.098496172   -1.3808672   0.78784282  1070540 
 1430000    1.1011142   -1.3824178   -1.3824178  -0.59333416   0.10414874   -1.3824178   0.78908368  1070540 
 1431000    1.0991789   -1.3814685   -1.3814685  -0.59377169   0.10393753   -1.3814685   0.78769682  1070540 
 1432000    1.0988491   -1.3816084   -1.3816084  -0.59414799  0.096471883   -1.3816084   0.78746043  1070540 
 1433000    1.0984741   -1.3811717   -1.3811717  -0.59397999   0.09856213   -1.3811717   0.78719171  1070540 
 1434000     1.098909   -1.3805783   -1.3805783  -0.59307496   0.10040708   -1.3805783   0.78750337  1070540 
 1435000    1.1011867   -1.3806298   -1.3806298   -0.5914942    0.1052788   -1.3806298   0.78913559  1070540 
 1436000    1.1025006   -1.3809365   -1.3809365  -0.59085932  0.098926289   -1.3809365   0.79007722  1070540 
 1437000    1.1023525   -1.3806821   -1.3806821  -0.59071105   0.10539264   -1.3806821    0.7899711  1070540 
 1438000    1.1001005   -1.3795196   -1.3795196  -0.59116244   0.10006926   -1.3795196    0.7883572  1070540 
 1439000    1.1001409   -1.3800781   -1.3800781  -0.59169192   0.10182428   -1.3800781   0.78838622  1070540 
 1440000    1.0987763   -1.3796956   -1.3796956  -0.59228726  0.097607287   -1.3796956    0.7874083  1070540 
 1441000    1.0987801   -1.3799814   -1.3799814  -0.59257039  0.098275948   -1.3799814   0.78741099  1070540 
 1442000    1.0993615   -1.3805409   -1.3805409  -0.59271323   0.11128167   -1.3805409   0.78782764  1070540 
 1443000    1.0990579   -1.3806873   -1.3806873  -0.59307723   0.10355146   -1.3806873   0.78761008  1070540 
 1444000    1.0992729   -1.3813585   -1.3813585  -0.59359432  0.099676965   -1.3813585   0.78776417  1070540 
 1445000    1.0980899   -1.3814421   -1.3814421  -0.59452575   0.10309968   -1.3814421   0.78691638  1070540 
 1446000    1.0992448   -1.3830197   -1.3830197  -0.59527566   0.10462208   -1.3830197   0.78774402  1070540 
 1447000    1.0996389   -1.3837941   -1.3837941  -0.59576764   0.10253979   -1.3837941   0.78802647  1070540 
 1448000     1.100587   -1.3848478   -1.3848478  -0.59614193    0.1015724   -1.3848478   0.78870584  1070540 
 1449000    1.1008162   -1.3851896   -1.3851896  -0.59631954   0.09935963   -1.3851896    0.7888701  1070540 
 1450000    1.0990858   -1.3837898   -1.3837898  -0.59615968   0.10156966   -1.3837898   0.78763007  1070540 
 1451000    1.0993919    -1.383566    -1.383566  -0.59571659   0.10447711    -1.383566   0.78784942  1070540 
 1452000    1.1014654   -1.3838496   -1.3838496  -0.59451428   0.10639267   -1.3838496   0.78933533  1070540 
 1453000    1.1011777   -1.3829687   -1.3829687  -0.59383953   0.10368854   -1.3829687   0.78912915  1070540 
 1454000    1.1001438   -1.3818524   -1.3818524  -0.59346414  0.097601278   -1.3818524   0.78838825  1070540 
 1455000    1.1014482   -1.3825457   -1.3825457  -0.59322268   0.10971073   -1.3825457   0.78932303  1070540 
 1456000    1.1003287   -1.3817443   -1.3817443  -0.59322353   0.10128309   -1.3817443   0.78852075  1070540 
 1457000    1.1001402   -1.3816834   -1.3816834  -0.59329764  0.092188308   -1.3816834   0.78838572  1070540 
 1458000    1.1013066   -1.3827532   -1.3827532  -0.59353163   0.10454691   -1.3827532   0.78922157  1070540 
 1459000    1.0994343   -1.3817466   -1.3817466  -0.59386678   0.10167876   -1.3817466   0.78787982  1070540 
 1460000    1.0995768   -1.3823751   -1.3823751  -0.59439312   0.10307497   -1.3823751   0.78798193  1070540 
 1461000    1.0995899   -1.3830695   -1.3830695  -0.59507817   0.10357265   -1.3830695   0.78799136  1070540 
 1462000    1.0990764   -1.3835828   -1.3835828  -0.59595942  0.098968828   -1.3835828   0.78762335  1070540 
 1463000    1.0987875   -1.3837124   -1.3837124  -0.59629615   0.10536082   -1.3837124   0.78741627  1070540 
 1464000    1.0971693   -1.3823002   -1.3823002  -0.59604356  0.099482154   -1.3823002   0.78625669  1070540 
 1465000    1.0986939   -1.3823454   -1.3823454  -0.59499615   0.10737956   -1.3823454   0.78734926  1070540 
 1466000    1.0995301   -1.3816282   -1.3816282  -0.59367975   0.10717329   -1.3816282   0.78794849  1070540 
 1467000    1.0996188   -1.3811435   -1.3811435  -0.59313139   0.10764235   -1.3811435   0.78801207  1070540 
 1468000    1.1006223   -1.3816203   -1.3816203   -0.5928891   0.10204018   -1.3816203   0.78873116  1070540 
 1469000    1.0998703   -1.3810373   -1.3810373   -0.5928451   0.10100548   -1.3810373   0.78819223  1070540 
 1470000     1.100108   -1.3812609   -1.3812609  -0.59289827   0.10681699   -1.3812609   0.78836262  1070540 
 1471000    1.1013303   -1.3823374   -1.3823374  -0.59309889   0.10617325   -1.3823374   0.78923852  1070540 
 1472000    1.1007916   -1.3827343   -1.3827343  -0.59388176   0.10913076   -1.3827343   0.78885249  1070540 
 1473000    1.0987007   -1.3825496   -1.3825496  -0.59519551   0.10267199   -1.3825496   0.78735412  1070540 
 1474000     1.098182   -1.3825904   -1.3825904  -0.59560797   0.10250831   -1.3825904   0.78698241  1070540 
 1475000    1.0984341   -1.3829499   -1.3829499  -0.59578682  0.099081683   -1.3829499   0.78716304  1070540 
 1476000    1.0991772   -1.3830954   -1.3830954  -0.59539983    0.1126653   -1.3830954   0.78769557  1070540 
 1477000    1.0993377   -1.3830456   -1.3830456  -0.59523498   0.10186525   -1.3830456   0.78781057  1070540 
 1478000    1.0986163   -1.3819417   -1.3819417  -0.59464803   0.10526519   -1.3819417   0.78729363  1070540 
 1479000    1.1004074   -1.3825998   -1.3825998  -0.59402261   0.10330989   -1.3825998   0.78857719  1070540 
 1480000    1.0995255   -1.3814305   -1.3814305  -0.59348535     0.103687   -1.3814305   0.78794519  1070540 
 1481000      1.10072   -1.3816679   -1.3816679  -0.59286674   0.10971101   -1.3816679    0.7888012  1070540 
 1482000    1.1005779   -1.3815177   -1.3815177  -0.59281832   0.10424969   -1.3815177   0.78869935  1070540 
 1483000    1.1000595    -1.381335    -1.381335  -0.59300719   0.10529773    -1.381335   0.78832785  1070540 
 1484000    1.0971289   -1.3798321   -1.3798321   -0.5936044   0.10044623   -1.3798321   0.78622772  1070540 
 1485000    1.0971805   -1.3818717   -1.3818717  -0.59560699   0.10157879   -1.3818717   0.78626471  1070540 
 1486000    1.0974011   -1.3827139   -1.3827139  -0.59629108   0.10027945   -1.3827139   0.78642278  1070540 
 1487000    1.0993284   -1.3840413   -1.3840413  -0.59623732  0.093147706   -1.3840413   0.78780393  1070540 
 1488000    1.0984961   -1.3826443   -1.3826443  -0.59543685  0.096237668   -1.3826443   0.78720745  1070540 
 1489000    1.0992137   -1.3817328   -1.3817328  -0.59401105   0.10782565   -1.3817328   0.78772171  1070540 
 1490000    1.0999197   -1.3816473   -1.3816473  -0.59341965   0.10516307   -1.3816473   0.78822769  1070540 
 1491000    1.0997972   -1.3812295   -1.3812295  -0.59308959  0.097825985   -1.3812295   0.78813988  1070540 
 1492000    1.1002882   -1.3814452   -1.3814452  -0.59295345   0.10939116   -1.3814452   0.78849176  1070540 
 1493000    1.0995523   -1.3809796   -1.3809796  -0.59301524   0.10039094   -1.3809796   0.78796438  1070540 
 1494000    1.1003278   -1.3817566   -1.3817566  -0.59323647   0.10071948   -1.3817566   0.78852011  1070540 
 1495000    1.1001812    -1.382014    -1.382014  -0.59359897    0.1049843    -1.382014   0.78841506  1070540 
 1496000    1.0988411   -1.3820735   -1.3820735  -0.59461879  0.094288618   -1.3820735    0.7874547  1070540 
 1497000    1.0984017   -1.3826645   -1.3826645  -0.59552465  0.094761289   -1.3826645   0.78713984  1070540 
 1498000    1.0982938   -1.3829514   -1.3829514  -0.59588892  0.098628683   -1.3829514   0.78706252  1070540 
 1499000    1.0988396   -1.3832114   -1.3832114  -0.59575781   0.10069591   -1.3832114   0.78745363  1070540 
 1500000    1.0991262   -1.3828855   -1.3828855  -0.59522653  0.093594595   -1.3828855     0.787659  1070540 
 1501000     1.100297   -1.3823514   -1.3823514  -0.59385336  0.097963483   -1.3823514   0.78849807  1070540 
 1502000    1.1009196   -1.3818939   -1.3818939  -0.59294971   0.10619177   -1.3818939   0.78894419  1070540 
 1503000     1.099247   -1.3805874   -1.3805874  -0.59284176   0.11157903   -1.3805874   0.78774563  1070540 
 1504000    1.1002671   -1.3813982   -1.3813982  -0.59292156   0.10469073   -1.3813982    0.7884766  1070540 
 1505000    1.1000352   -1.3818059   -1.3818059  -0.59349547  0.099659296   -1.3818059   0.78831041  1070540 
 1506000    1.0998872   -1.3823881   -1.3823881  -0.59418373   0.10894483   -1.3823881   0.78820434  1070540 
 1507000    1.0987211    -1.381957    -1.381957  -0.59458822  0.099494368    -1.381957   0.78736875  1070540 
 1508000    1.0997697   -1.3827854   -1.3827854  -0.59466527   0.10518624   -1.3827854   0.78812016  1070540 
 1509000    1.0994701   -1.3825145   -1.3825145  -0.59460899   0.10236789   -1.3825145   0.78790549  1070540 
 1510000    1.1002671   -1.3829805   -1.3829805  -0.59450388  0.098595655   -1.3829805   0.78847663  1070540 
 1511000     1.099132   -1.3819837   -1.3819837  -0.59432048  0.098960468   -1.3819837   0.78766318  1070540 
 1512000     1.099309   -1.3815056   -1.3815056  -0.59371555   0.10750532   -1.3815056   0.78779006  1070540 
 1513000     1.100586   -1.3815482   -1.3815482  -0.59284301   0.10303869   -1.3815482   0.78870519  1070540 
 1514000    1.1011514   -1.3809686   -1.3809686  -0.59185826   0.10634584   -1.3809686    0.7891103  1070540 
 1515000    1.1011422   -1.3807307   -1.3807307  -0.59162702   0.10115874   -1.3807307   0.78910372  1070540 
 1516000    1.1009142    -1.380613    -1.380613  -0.59167261  0.099073819    -1.380613   0.78894035  1070540 
 1517000    1.1013139   -1.3814628   -1.3814628  -0.59223603   0.10327649   -1.3814628   0.78922678  1070540 
 1518000    1.0992363   -1.3809827   -1.3809827  -0.59324482   0.10775921   -1.3809827   0.78773792  1070540 
 1519000    1.0978796   -1.3809666   -1.3809666  -0.59420098   0.10001636   -1.3809666   0.78676565  1070540 
 1520000    1.0982635   -1.3813462   -1.3813462  -0.59430547   0.10256247   -1.3813462   0.78704078  1070540 
 1521000    1.0985259   -1.3811179   -1.3811179  -0.59388905  0.099023446   -1.3811179   0.78722886  1070540 
 1522000    1.1002549   -1.3818864   -1.3818864  -0.59341859  0.098124506   -1.3818864   0.78846786  1070540 
 1523000     1.099904   -1.3814862   -1.3814862  -0.59326985    0.1028266   -1.3814862   0.78821639  1070540 
 1524000    1.1013038   -1.3824366   -1.3824366  -0.59321707  0.093958581   -1.3824366   0.78921953  1070540 
 1525000    1.0995542   -1.3813397   -1.3813397  -0.59337397   0.10093858   -1.3813397   0.78796576  1070540 
 1526000    1.0990309   -1.3812838   -1.3812838  -0.59369306   0.10603063   -1.3812838   0.78759074  1070540 
 1527000    1.1001798    -1.381931    -1.381931  -0.59351695   0.10284015    -1.381931   0.78841403  1070540 
 1528000    1.1000294   -1.3816753   -1.3816753  -0.59336903   0.10004292   -1.3816753   0.78830628  1070540 
 1529000    1.1012036   -1.3820762   -1.3820762  -0.59292849    0.1032916   -1.3820762   0.78914775  1070540 
 1530000    1.1005638   -1.3816684   -1.3816684  -0.59297914   0.10157725   -1.3816684   0.78868923  1070540 
 1531000    1.1009737   -1.3819957   -1.3819957   -0.5930127   0.10445243   -1.3819957   0.78898301  1070540 
 1532000    1.0993168    -1.381488    -1.381488  -0.59369245   0.10238446    -1.381488    0.7877956  1070540 
 1533000    1.1005974   -1.3830232   -1.3830232  -0.59430992  0.099031564   -1.3830232   0.78871333  1070540 
 1534000    1.0986538   -1.3820107   -1.3820107  -0.59469015   0.10228528   -1.3820107   0.78732053  1070540 
 1535000    1.0993161   -1.3824987   -1.3824987  -0.59470357   0.10262382   -1.3824987   0.78779512  1070540 
 1536000    1.0991646   -1.3822146   -1.3822146   -0.5945281   0.10232028   -1.3822146   0.78768655  1070540 
 1537000    1.1011782   -1.3826096   -1.3826096  -0.59348012   0.10658305   -1.3826096    0.7891295  1070540 
 1538000    1.1019985   -1.3821678   -1.3821678  -0.59245041   0.10164706   -1.3821678   0.78971741  1070540 
 1539000    1.1023394   -1.3818526   -1.3818526   -0.5918909    0.1100416   -1.3818526   0.78996165  1070540 
 1540000     1.100824   -1.3812549   -1.3812549  -0.59237922   0.10526328   -1.3812549   0.78887571  1070540 
 1541000    1.1015919    -1.382543    -1.382543  -0.59311699  0.096719898    -1.382543   0.78942601  1070540 
 1542000    1.1013516   -1.3832098   -1.3832098  -0.59395602   0.10571934   -1.3832098   0.78925377  1070540 
 1543000    1.0990962   -1.3821203   -1.3821203   -0.5944828   0.10614532   -1.3821203    0.7876375  1070540 
 1544000    1.1005343   -1.3831664   -1.3831664  -0.59449825    0.1032201   -1.3831664    0.7886681  1070540 
 1545000    1.1001486   -1.3828937   -1.3828937  -0.59450203   0.10410983   -1.3828937   0.78839167  1070540 
 1546000    1.1002456   -1.3832609   -1.3832609   -0.5947997   0.10437111   -1.3832609    0.7884612  1070540 
 1547000     1.099694   -1.3833201   -1.3833201  -0.59525413  0.096256271   -1.3833201   0.78806594  1070540 
 1548000    1.0975028   -1.3823742   -1.3823742  -0.59587854   0.10637838   -1.3823742   0.78649566  1070540 
 1549000    1.0989826   -1.3838922   -1.3838922  -0.59633615  0.097406159   -1.3838922    0.7875561  1070540 
 1550000    1.0988103   -1.3836636   -1.3836636    -0.596231   0.10427958   -1.3836636   0.78743265  1070540 
 1551000    1.0998681   -1.3837774   -1.3837774   -0.5955867   0.09803383   -1.3837774   0.78819068  1070540 
 1552000    1.0990997   -1.3819516   -1.3819516  -0.59431154   0.10014239   -1.3819516   0.78764002  1070540 
 1553000    1.0983495   -1.3804722   -1.3804722  -0.59336977   0.10285565   -1.3804722   0.78710241  1070540 
 1554000    1.1003155   -1.3814881   -1.3814881  -0.59297683   0.10467353   -1.3814881    0.7885113  1070540 
 1555000    1.0999991   -1.3811621   -1.3811621   -0.5928775   0.10794435   -1.3811621    0.7882846  1070540 
 1556000    1.1005616   -1.3819501   -1.3819501  -0.59326245  0.091114019   -1.3819501   0.78868769  1070540 
 1557000    1.1001776   -1.3819776   -1.3819776  -0.59356509  0.098256827   -1.3819776   0.78841248  1070540 
 1558000    1.0992002   -1.3817566   -1.3817566  -0.59404449   0.09958012   -1.3817566   0.78771207  1070540 
 1559000    1.1001447   -1.3834101   -1.3834101  -0.59502122   0.10124666   -1.3834101   0.78838892  1070540 
 1560000     1.098894   -1.3836187   -1.3836187  -0.59612604   0.10566423   -1.3836187   0.78749266  1070540 
 1561000    1.0961038   -1.3822934   -1.3822934  -0.59680028   0.10765321   -1.3822934   0.78549314  1070540 
 1562000    1.0972007   -1.3826954   -1.3826954  -0.59641629    0.1083723   -1.3826954   0.78627915  1070540 
 1563000    1.0984767   -1.3823989   -1.3823989  -0.59520526  0.099159587   -1.3823989   0.78719359  1070540 
 1564000    1.1002647   -1.3827801   -1.3827801  -0.59430519   0.10842747   -1.3827801   0.78847492  1070540 
 1565000    1.0999647   -1.3823088   -1.3823088  -0.59404895  0.097319414   -1.3823088    0.7882599  1070540 
 1566000    1.1003337   -1.3823701   -1.3823701  -0.59384572   0.11084462   -1.3823701   0.78852438  1070540 
 1567000     1.100132    -1.382333    -1.382333  -0.59395318  0.098245331    -1.382333   0.78837981  1070540 
 1568000     1.099975    -1.382349    -1.382349  -0.59408174  0.099525683    -1.382349   0.78826728  1070540 
 1569000    1.0993582   -1.3820616   -1.3820616  -0.59423639   0.10841541   -1.3820616   0.78782526  1070540 
 1570000    1.0975367   -1.3809182   -1.3809182  -0.59439826   0.10613311   -1.3809182   0.78651997  1070540 
 1571000    1.0990905   -1.3816222   -1.3816222  -0.59398874   0.10116986   -1.3816222   0.78763345  1070540 
 1572000     1.100933   -1.3819267   -1.3819267  -0.59297286   0.10653582   -1.3819267   0.78895382  1070540 
 1573000    1.1021029   -1.3817715   -1.3817715  -0.59197936   0.10019441   -1.3817715   0.78979217  1070540 
 1574000    1.1018718   -1.3816961   -1.3816961  -0.59206948   0.10486923   -1.3816961   0.78962659  1070540 
 1575000    1.1009991   -1.3816209   -1.3816209  -0.59261975   0.10644752   -1.3816209   0.78900118  1070540 
 1576000      1.09916   -1.3814412   -1.3814412  -0.59375797   0.10630543   -1.3814412   0.78768322  1070540 
 1577000    1.1004524   -1.3829668   -1.3829668  -0.59435733   0.10733118   -1.3829668   0.78860943  1070540 
 1578000    1.0993984   -1.3824089   -1.3824089  -0.59455479  0.099997986   -1.3824089   0.78785411  1070540 
 1579000    1.1006994   -1.3833436   -1.3833436  -0.59455712    0.1006741   -1.3833436   0.78878645  1070540 
 1580000    1.1001525   -1.3827909   -1.3827909  -0.59439644  0.097305215   -1.3827909    0.7883945  1070540 
 1581000    1.0992475    -1.382132    -1.382132  -0.59438605   0.10647365    -1.382132   0.78774598  1070540 
 1582000    1.0993155   -1.3820266   -1.3820266  -0.59423195   0.10785159   -1.3820266   0.78779469  1070540 
 1583000    1.1016376   -1.3830063   -1.3830063  -0.59354759   0.10058529   -1.3830063   0.78945873  1070540 
 1584000    1.1011769   -1.3817635   -1.3817635  -0.59263489   0.10126069   -1.3817635   0.78912861  1070540 
 1585000      1.10148   -1.3811803   -1.3811803  -0.59183447   0.10415544   -1.3811803   0.78934579  1070540 
 1586000    1.1020165   -1.3814456   -1.3814456  -0.59171536   0.10315471   -1.3814456   0.78973026  1070540 
 1587000    1.1015389   -1.3817975   -1.3817975  -0.59240947    0.1099084   -1.3817975   0.78938804  1070540 
 1588000    1.0997109   -1.3818662   -1.3818662  -0.59378816   0.10619494   -1.3818662   0.78807806  1070540 
 1589000    1.1002982   -1.3827631   -1.3827631  -0.59426421  0.096638339   -1.3827631   0.78849892  1070540 
 1590000     1.100739   -1.3833869   -1.3833869  -0.59457209   0.10455776   -1.3833869   0.78881478  1070540 
 1591000    1.0989168   -1.3823015   -1.3823015  -0.59479249     0.106568   -1.3823015   0.78750897  1070540 
 1592000    1.0990056     -1.38232     -1.38232   -0.5947474   0.10591315     -1.38232   0.78757262  1070540 
 1593000    1.0986476   -1.3817494   -1.3817494  -0.59443339   0.10779315   -1.3817494   0.78731605  1070540 
 1594000    1.1015145   -1.3834559   -1.3834559  -0.59408541   0.10167489   -1.3834559   0.78937052  1070540 
 1595000    1.0979743   -1.3803848   -1.3803848  -0.59355128   0.10805184   -1.3803848   0.78683352  1070540 
 1596000    1.1002863   -1.3810002   -1.3810002  -0.59250985   0.11123384   -1.3810002   0.78849039  1070540 
 1597000    1.1016533   -1.3809183   -1.3809183  -0.59144833   0.10187059   -1.3809183      0.78947  1070540 
 1598000    1.1025938   -1.3809912   -1.3809912  -0.59084722   0.10418416   -1.3809912   0.79014398  1070540 
 1599000    1.1029087   -1.3816546   -1.3816546  -0.59128493   0.10462298   -1.3816546   0.79036964  1070540 
 1600000    1.1015411   -1.3818939   -1.3818939  -0.59250428   0.10448995   -1.3818939   0.78938962  1070540 
 1601000     1.102186   -1.3830105   -1.3830105   -0.5931587   0.10598203   -1.3830105   0.78985177  1070540 
 1602000    1.1014007   -1.3830475   -1.3830475  -0.59375848   0.10668101   -1.3830475   0.78928898  1070540 
 1603000    1.1006723   -1.3831989   -1.3831989  -0.59443195  0.096179202   -1.3831989   0.78876697  1070540 
 1604000    1.0983481   -1.3820799   -1.3820799  -0.59497846    0.1015555   -1.3820799   0.78710145  1070540 
 1605000    1.1000988   -1.3835165   -1.3835165  -0.59516056   0.10121405   -1.3835165   0.78835599  1070540 
 1606000    1.1003151   -1.3837052   -1.3837052  -0.59519418  0.097715539   -1.3837052   0.78851102  1070540 
 1607000    1.0989117    -1.382563    -1.382563  -0.59505767    0.1049892    -1.382563   0.78750533  1070540 
 1608000      1.09899   -1.3819882   -1.3819882  -0.59442675    0.0988528   -1.3819882   0.78756141  1070540 
 1609000    1.1004195   -1.3821486   -1.3821486  -0.59356278   0.11556816   -1.3821486   0.78858583  1070540 
 1610000    1.1013971   -1.3817968   -1.3817968  -0.59251043   0.11284987   -1.3817968   0.78928641  1070540 
 1611000    1.1013641   -1.3813632   -1.3813632   -0.5921004    0.1043358   -1.3813632   0.78926279  1070540 
 1612000    1.1007488   -1.3810038   -1.3810038  -0.59218197   0.11276165   -1.3810038   0.78882182  1070540 
 1613000    1.1003083   -1.3813327   -1.3813327  -0.59282662   0.11011077   -1.3813327   0.78850612  1070540 
 1614000    1.0996286   -1.3818559   -1.3818559  -0.59383685  0.096824705   -1.3818559   0.78801902  1070540 
 1615000    1.0977363   -1.3809941   -1.3809941  -0.59433112   0.10642584   -1.3809941     0.786663  1070540 
 1616000     1.098874   -1.3816624   -1.3816624  -0.59418413   0.10142729   -1.3816624   0.78747831  1070540 
 1617000    1.1001514   -1.3823342   -1.3823342  -0.59394054   0.10082758   -1.3823342    0.7883937  1070540 
 1618000    1.1001124   -1.3819174   -1.3819174  -0.59355167   0.10667832   -1.3819174   0.78836573  1070540 
 1619000    1.1006761   -1.3820061   -1.3820061  -0.59323637   0.10157601   -1.3820061   0.78876969  1070540 
 1620000    1.1003391   -1.3815067   -1.3815067  -0.59297847   0.10938992   -1.3815067    0.7885282  1070540 
 1621000    1.0995826    -1.380856    -1.380856   -0.5928699   0.10307948    -1.380856   0.78798609  1070540 
 1622000    1.1021125   -1.3824329   -1.3824329  -0.59263375   0.10746038   -1.3824329   0.78979911  1070540 
 1623000    1.0998362     -1.38089     -1.38089  -0.59272216  0.099997911     -1.38089   0.78816783  1070540 
 1624000    1.0981291   -1.3801007   -1.3801007  -0.59315618   0.10335052   -1.3801007   0.78694447  1070540 
 1625000     1.099775   -1.3817773   -1.3817773  -0.59365335  0.099685936   -1.3817773   0.78812396  1070540 
 1626000    1.0991874   -1.3820061   -1.3820061  -0.59430319   0.10066758   -1.3820061    0.7877029  1070540 
 1627000    1.0992194   -1.3825849   -1.3825849  -0.59485909   0.10488261   -1.3825849   0.78772585  1070540 
 1628000    1.0996469   -1.3834802   -1.3834802  -0.59544804   0.10477337   -1.3834802   0.78803215  1070540 
 1629000    1.0974875   -1.3825466   -1.3825466  -0.59606191   0.10267443   -1.3825466   0.78648467  1070540 
 1630000    1.0997772   -1.3839484   -1.3839484   -0.5958228    0.1046884   -1.3839484   0.78812555  1070540 
 1631000     1.098723   -1.3822425   -1.3822425  -0.59487236   0.10081958   -1.3822425    0.7873701  1070540 
 1632000    1.1003949    -1.381875    -1.381875  -0.59330687   0.10710424    -1.381875   0.78856817  1070540 
 1633000    1.1005544   -1.3812909   -1.3812909  -0.59260846   0.10734549   -1.3812909   0.78868249  1070540 
 1634000    1.1030791   -1.3830763   -1.3830763  -0.59258452   0.10409608   -1.3830763   0.79049178  1070540 
 1635000    1.1017021   -1.3824832   -1.3824832  -0.59297826   0.10544893   -1.3824832   0.78950495  1070540 
 1636000     1.098818   -1.3811935   -1.3811935  -0.59375535   0.10784671   -1.3811935   0.78743813  1070540 
 1637000    1.0998625   -1.3826758   -1.3826758   -0.5944891  0.096020443   -1.3826758   0.78818665  1070540 
 1638000    1.0987035   -1.3821348   -1.3821348  -0.59477872  0.093907329   -1.3821348   0.78735611  1070540 
 1639000    1.0998166   -1.3826536   -1.3826536  -0.59449981   0.11233376   -1.3826536   0.78815381  1070540 
 1640000    1.0997238   -1.3820953   -1.3820953  -0.59400802  0.099989583   -1.3820953   0.78808726  1070540 
 1641000    1.0993479   -1.3808568   -1.3808568  -0.59303896    0.1021083   -1.3808568   0.78781788  1070540 
 1642000    1.1010122   -1.3811932   -1.3811932  -0.59218263  0.099345368   -1.3811932   0.78901055  1070540 
 1643000    1.1007833   -1.3807801   -1.3807801  -0.59193359  0.097077844   -1.3807801   0.78884653  1070540 
 1644000    1.0993303   -1.3798859   -1.3798859  -0.59208066   0.10324042   -1.3798859   0.78780527  1070540 
 1645000    1.0991272   -1.3797612   -1.3797612  -0.59210143   0.11012628   -1.3797612   0.78765978  1070540 
 1646000    1.0988768   -1.3795387   -1.3795387  -0.59205833   0.10831226   -1.3795387   0.78748034  1070540 
 1647000    1.1004568   -1.3808232   -1.3808232  -0.59221062   0.10564938   -1.3808232   0.78861258  1070540 
 1648000    1.0996193   -1.3807548   -1.3807548  -0.59274238   0.10007039   -1.3807548   0.78801239  1070540 
 1649000    1.0994667   -1.3811829   -1.3811829   -0.5932799   0.10380986   -1.3811829   0.78790301  1070540 
 1650000    1.0992477   -1.3814793   -1.3814793  -0.59373319   0.10880646   -1.3814793   0.78774607  1070540 
 1651000    1.0992434   -1.3820542   -1.3820542  -0.59431118   0.10177883   -1.3820542   0.78774305  1070540 
 1652000    1.0990841   -1.3826618   -1.3826618  -0.59503292   0.10990674   -1.3826618   0.78762884  1070540 
 1653000     1.099206   -1.3835745   -1.3835745  -0.59585825  0.098446707   -1.3835745   0.78771625  1070540 
 1654000    1.0973317   -1.3829363   -1.3829363   -0.5965633   0.10134775   -1.3829363   0.78637305  1070540 
 1655000    1.0970382   -1.3829149   -1.3829149  -0.59675214  0.094470865   -1.3829149   0.78616273  1070540 
 1656000    1.0969053   -1.3817268   -1.3817268   -0.5956593   0.10506738   -1.3817268   0.78606748  1070540 
 1657000    1.0997047   -1.3823707   -1.3823707  -0.59429709  0.096459081   -1.3823707   0.78807361  1070540 
 1658000     1.100294   -1.3822651   -1.3822651  -0.59376919  0.095880125   -1.3822651    0.7884959  1070540 
 1659000    1.1009619   -1.3823111   -1.3823111  -0.59333653    0.1019678   -1.3823111   0.78897454  1070540 
 1660000    1.1003083   -1.3814882   -1.3814882  -0.59298201  0.098970967   -1.3814882   0.78850617  1070540 
 1661000    1.1009531   -1.3813481   -1.3813481   -0.5923799   0.10894203   -1.3813481   0.78896822  1070540 
 1662000    1.1019476   -1.3816565   -1.3816565   -0.5919756   0.10628313   -1.3816565   0.78968092  1070540 
 1663000    1.1001955   -1.3805434   -1.3805434  -0.59211809   0.10386218   -1.3805434   0.78842532  1070540 
 1664000     1.101047   -1.3817054   -1.3817054  -0.59266994    0.1119208   -1.3817054   0.78903551  1070540 
 1665000    1.0995524   -1.3813051   -1.3813051  -0.59334063  0.094121779   -1.3813051   0.78796446  1070540 
 1666000    1.0990503   -1.3819684   -1.3819684  -0.59436378    0.1000367   -1.3819684   0.78760465  1070540 
 1667000    1.0976892    -1.381916    -1.381916  -0.59528682   0.10643924    -1.381916    0.7866292  1070540 
 1668000    1.0998218   -1.3833579   -1.3833579  -0.59520037   0.10208375   -1.3833579    0.7881575  1070540 
 1669000    1.0988988   -1.3822949   -1.3822949  -0.59479888   0.11024501   -1.3822949   0.78749605  1070540 
 1670000    1.0993465   -1.3820974   -1.3820974  -0.59428043   0.10000747   -1.3820974   0.78781693  1070540 
 1671000    1.1006523   -1.3826611   -1.3826611  -0.59390843   0.10741509   -1.3826611   0.78875269  1070540 
 1672000     1.100051   -1.3820978   -1.3820978  -0.59377607   0.11264645   -1.3820978   0.78832174  1070540 
 1673000    1.0994985   -1.3815141   -1.3815141  -0.59358826  0.097633755   -1.3815141   0.78792585  1070540 
 1674000    1.0987493   -1.3808504   -1.3808504  -0.59346148   0.10494387   -1.3808504   0.78738897  1070540 
 1675000    1.1001694   -1.3816624   -1.3816624  -0.59325579    0.1039706   -1.3816624   0.78840663  1070540 
 1676000    1.1023437    -1.382707    -1.382707  -0.59274232   0.09767911    -1.382707   0.78996473  1070540 
 1677000    1.0997167   -1.3805402   -1.3805402  -0.59245801   0.10874117   -1.3805402   0.78808218  1070540 
 1678000    1.0997316   -1.3801851   -1.3801851  -0.59209221   0.11405495   -1.3801851   0.78809287  1070540 
 1679000    1.1013233   -1.3810395   -1.3810395  -0.59180593   0.10201655   -1.3810395   0.78923353  1070540 
 1680000    1.1018081   -1.3815831   -1.3815831  -0.59200211   0.10830987   -1.3815831   0.78958094  1070540 
 1681000    1.0994617   -1.3805458   -1.3805458  -0.59264637   0.10071876   -1.3805458   0.78789944  1070540 
 1682000    1.1001992    -1.381866    -1.381866  -0.59343799   0.10564035    -1.381866   0.78842798  1070540 
 1683000    1.0991831    -1.382079    -1.382079   -0.5943792  0.099208432    -1.382079   0.78769981  1070540 
 1684000    1.1005385   -1.3834439   -1.3834439  -0.59477282  0.091625936   -1.3834439    0.7886711  1070540 
 1685000    1.1002032   -1.3830609   -1.3830609  -0.59463006   0.10570551   -1.3830609   0.78843083  1070540 
 1686000    1.1011224   -1.3834764   -1.3834764  -0.59438691    0.1019428   -1.3834764   0.78908952  1070540 
 1687000    1.1006705   -1.3827225   -1.3827225  -0.59395681   0.11462454   -1.3827225   0.78876573  1070540 
 1688000    1.1020835   -1.3840126   -1.3840126  -0.59423422   0.10056192   -1.3840126   0.78977833  1070540 
 1689000    1.1000262   -1.3836935   -1.3836935  -0.59538956   0.10072287   -1.3836935   0.78830396  1070540 
 1690000    1.0990882   -1.3842559   -1.3842559  -0.59662404  0.097438589   -1.3842559   0.78763183  1070540 
 1691000    1.0975507   -1.3833454   -1.3833454  -0.59681542   0.11214409   -1.3833454   0.78652998  1070540 
 1692000    1.0976799   -1.3831596   -1.3831596  -0.59653707   0.10208545   -1.3831596   0.78662256  1070540 
 1693000    1.1009934   -1.3846165   -1.3846165  -0.59561936   0.10043526   -1.3846165   0.78899712  1070540 
 1694000    1.1001388   -1.3833214   -1.3833214  -0.59493673   0.10386775   -1.3833214    0.7883847  1070540 
 1695000    1.0995074   -1.3824215   -1.3824215  -0.59448932   0.10187803   -1.3824215   0.78793217  1070540 
 1696000    1.1009239   -1.3829405   -1.3829405  -0.59399324  0.093379476   -1.3829405    0.7889473  1070540 
 1697000    1.1000307   -1.3819609   -1.3819609   -0.5936537   0.10862672   -1.3819609    0.7883072  1070540 
 1698000    1.1007392   -1.3825796   -1.3825796  -0.59376467   0.10210773   -1.3825796   0.78881496  1070540 
 1699000    1.1001036   -1.3822339   -1.3822339  -0.59387449   0.10351226   -1.3822339   0.78835943  1070540 
 1700000    1.1004024   -1.3825386   -1.3825386  -0.59396503  0.096506529   -1.3825386    0.7885736  1070540 
 1701000    1.0984279   -1.3812337   -1.3812337  -0.59407513   0.10058817   -1.3812337   0.78715859  1070540 
 1702000    1.1007005   -1.3828737   -1.3828737  -0.59408651   0.10445049   -1.3828737   0.78878722  1070540 
 1703000    1.1013129   -1.3831288   -1.3831288  -0.59390277   0.10037996   -1.3831288   0.78922606  1070540 
 1704000    1.1019839   -1.3835931   -1.3835931  -0.59388617   0.10167316   -1.3835931   0.78970694  1070540 
 1705000    1.0998463   -1.3823828   -1.3823828  -0.59420766  0.094692719   -1.3823828   0.78817509  1070540 
 1706000    1.1011034   -1.3838238   -1.3838238  -0.59474785  0.093823772   -1.3838238   0.78907591  1070540 
 1707000    1.1015089   -1.3846207   -1.3846207  -0.59525414   0.10832632   -1.3846207   0.78936652  1070540 
 1708000    1.1010641   -1.3851476   -1.3851476  -0.59609983   0.10295461   -1.3851476   0.78904776  1070540 
 1709000    1.0996265   -1.3846029   -1.3846029  -0.59658536  0.099144692   -1.3846029   0.78801757  1070540 
 1710000    1.1005193   -1.3853638   -1.3853638  -0.59670647   0.10802665   -1.3853638   0.78865735  1070540 
 1711000    1.0977712   -1.3834063   -1.3834063  -0.59671837   0.10114437   -1.3834063   0.78668797  1070540 
 1712000    1.0982295   -1.3833126   -1.3833126  -0.59629611  0.097023193   -1.3833126   0.78701645  1070540 
 1713000    1.0996911   -1.3832624   -1.3832624  -0.59519848    0.1049779   -1.3832624   0.78806387  1070540 
 1714000    1.1011752   -1.3831494   -1.3831494  -0.59402201   0.09560277   -1.3831494    0.7891274  1070540 
 1715000    1.1004837   -1.3824189   -1.3824189  -0.59378706   0.10112263   -1.3824189   0.78863183  1070540 
 1716000     1.100248    -1.382519    -1.382519  -0.59405607   0.10349394    -1.382519   0.78846292  1070540 
 1717000     1.099857   -1.3824672   -1.3824672  -0.59428447   0.10625375   -1.3824672   0.78818272  1070540 
 1718000    1.0979731   -1.3813081   -1.3813081  -0.59447537   0.11442861   -1.3813081   0.78683271  1070540 
 1719000     1.100455   -1.3829593   -1.3829593  -0.59434802   0.10326499   -1.3829593   0.78861125  1070540 
 1720000    1.0993769    -1.382118    -1.382118  -0.59427928   0.10434562    -1.382118   0.78783871  1070540 
 1721000     1.100472   -1.3827998   -1.3827998  -0.59417632  0.098558988   -1.3827998   0.78862344  1070540 
 1722000    1.1021435   -1.3841315   -1.3841315   -0.5943102   0.10808697   -1.3841315   0.78982127  1070540 
 1723000    1.0992357    -1.382411    -1.382411  -0.59467347   0.10457959    -1.382411   0.78773752  1070540 
 1724000    1.1001663   -1.3835264   -1.3835264  -0.59512203   0.10560202   -1.3835264   0.78840441  1070540 
 1725000    1.0995482   -1.3833716   -1.3833716  -0.59541014   0.10105457   -1.3833716   0.78796142  1070540 
 1726000    1.0987491   -1.3827218   -1.3827218  -0.59533302   0.10931913   -1.3827218   0.78738876  1070540 
 1727000    1.1001584   -1.3834095   -1.3834095  -0.59501081   0.10599181   -1.3834095   0.78839873  1070540 
 1728000    1.1004917   -1.3834193   -1.3834193  -0.59478172   0.10560023   -1.3834193   0.78863757  1070540 
 1729000    1.1004317   -1.3832165   -1.3832165  -0.59462189   0.10555696   -1.3832165    0.7885946  1070540 
 1730000    1.1008162    -1.383347    -1.383347  -0.59447692   0.10391127    -1.383347   0.78887013  1070540 
 1731000    1.1003546   -1.3833212   -1.3833212  -0.59478189   0.09882184   -1.3833212   0.78853934  1070540 
 1732000     1.100093   -1.3839997   -1.3839997  -0.59564785   0.10909864   -1.3839997   0.78835187  1070540 
 1733000    1.0984678   -1.3837268   -1.3837268  -0.59653958  0.091829465   -1.3837268   0.78718722  1070540 
 1734000    1.0998681   -1.3853024   -1.3853024  -0.59711167  0.097251396   -1.3853024   0.78819072  1070540 
 1735000    1.0983007   -1.3839021   -1.3839021  -0.59683464  0.099888605   -1.3839021   0.78706744  1070540 
 1736000    1.0996354   -1.3842345   -1.3842345  -0.59621059   0.10279129   -1.3842345   0.78802393  1070540 
 1737000    1.1004211   -1.3836859   -1.3836859  -0.59509892    0.1073588   -1.3836859   0.78858695  1070540 
 1738000    1.0998153   -1.3824633   -1.3824633  -0.59431046    0.1044974   -1.3824633   0.78815283  1070540 
 1739000    1.1020987   -1.3841232   -1.3841232  -0.59433395   0.10716908   -1.3841232   0.78978921  1070540 
 1740000    1.1000794   -1.3830205   -1.3830205  -0.59467843   0.10087269   -1.3830205   0.78834212  1070540 
 1741000    1.1004838   -1.3838931   -1.3838931  -0.59526118   0.10626235   -1.3838931   0.78863192  1070540 
 1742000    1.1014983   -1.3852727   -1.3852727  -0.59591374   0.10545137   -1.3852727   0.78935896  1070540 
 1743000    1.0986258   -1.3838377   -1.3838377   -0.5965372  0.095641948   -1.3838377   0.78730045  1070540 
 1744000    1.0986835   -1.3839769   -1.3839769  -0.59663518  0.097705373   -1.3839769   0.78734176  1070540 
 1745000    1.0988305   -1.3839757   -1.3839757   -0.5965286  0.098917313   -1.3839757   0.78744712  1070540 
 1746000    1.1020252   -1.3857041   -1.3857041  -0.59596756   0.10969217   -1.3857041   0.78973651  1070540 
 1747000    1.1014046   -1.3843347   -1.3843347   -0.5950429   0.10294583   -1.3843347   0.78929177  1070540 
 1748000     1.103169   -1.3841196   -1.3841196  -0.59356345   0.10866553   -1.3841196   0.79055618  1070540 
 1749000    1.1029724   -1.3835097   -1.3835097  -0.59309439   0.10393516   -1.3835097   0.79041527  1070540 
 1750000    1.1012354   -1.3826125   -1.3826125  -0.59344197   0.10425571   -1.3826125   0.78917049  1070540 
 1751000    1.1018696   -1.3839038   -1.3839038  -0.59427882   0.10387978   -1.3839038   0.78962501  1070540 
 1752000    1.0997359   -1.3834204   -1.3834204  -0.59532448    0.1032491   -1.3834204   0.78809596  1070540 
 1753000    1.1008576   -1.3845164   -1.3845164  -0.59561665   0.10192285   -1.3845164   0.78889977  1070540 
 1754000    1.1002386   -1.3843104   -1.3843104  -0.59585415   0.10326046   -1.3843104   0.78845621  1070540 
 1755000     1.099525   -1.3839511   -1.3839511  -0.59600629   0.10504565   -1.3839511   0.78794485  1070540 
 1756000     1.100994   -1.3849747   -1.3849747  -0.59597711   0.10087701   -1.3849747   0.78899756  1070540 
 1757000    1.0994664   -1.3837605   -1.3837605  -0.59585767    0.1022013   -1.3837605   0.78790284  1070540 
 1758000    1.1015898   -1.3851581   -1.3851581  -0.59573356   0.10595113   -1.3851581   0.78942451  1070540 
 1759000    1.1013983     -1.38495     -1.38495  -0.59566269   0.10936784     -1.38495   0.78928727  1070540 
 1760000    1.0986432   -1.3833144   -1.3833144  -0.59600151   0.10244892   -1.3833144   0.78731293  1070540 
 1761000    1.1006436   -1.3849623   -1.3849623   -0.5962159   0.10333872   -1.3849623    0.7887464  1070540 
 1762000    1.1000143   -1.3847543   -1.3847543   -0.5964588   0.10309263   -1.3847543   0.78829546  1070540 
 1763000    1.0992174   -1.3842827   -1.3842827  -0.59655833   0.10750688   -1.3842827   0.78772438  1070540 
 1764000    1.1003748   -1.3844809   -1.3844809  -0.59592708   0.10269495   -1.3844809   0.78855379  1070540 
 1765000     1.099406   -1.3828372   -1.3828372  -0.59497765  0.099171968   -1.3828372   0.78785956  1070540 
 1766000    1.1007306   -1.3831193   -1.3831193   -0.5943106   0.10928717   -1.3831193   0.78880874  1070540 
 1767000    1.1026436   -1.3843925   -1.3843925   -0.5942128    0.1068219   -1.3843925   0.79017968  1070540 
 1768000    1.1005997   -1.3834646   -1.3834646  -0.59474963   0.10768238   -1.3834646   0.78871495  1070540 
 1769000    1.0986286   -1.3833564   -1.3833564  -0.59605399   0.10396701   -1.3833564   0.78730246  1070540 
 1770000    1.0991985   -1.3845396   -1.3845396  -0.59682873   0.10444113   -1.3845396   0.78771085  1070540 
 1771000     1.100266   -1.3857509   -1.3857509  -0.59727509   0.10385425   -1.3857509   0.78847584  1070540 
 1772000    1.1003135   -1.3858409   -1.3858409  -0.59733097   0.10156138   -1.3858409   0.78850991  1070540 
 1773000    1.1006977    -1.386131    -1.386131  -0.59734578   0.10975711    -1.386131   0.78878518  1070540 
 1774000    1.0999441   -1.3856974   -1.3856974  -0.59745223    0.1003695   -1.3856974   0.78824518  1070540 
 1775000    1.0991899   -1.3852473   -1.3852473  -0.59754261  0.096333768   -1.3852473   0.78770465  1070540 
 1776000     1.099232   -1.3849728   -1.3849728  -0.59723795   0.10837324   -1.3849728   0.78773484  1070540 
 1777000    1.1004082    -1.385236    -1.385236  -0.59665827   0.11246769    -1.385236   0.78857772  1070540 
 1778000    1.1007065   -1.3843398   -1.3843398  -0.59554834   0.11285071   -1.3843398   0.78879149  1070540 
 1779000    1.1031279    -1.385156    -1.385156  -0.59462929   0.10158709    -1.385156   0.79052671  1070540 
 1780000    1.1030741   -1.3847649   -1.3847649  -0.59427676     0.102411   -1.3847649   0.79048815  1070540 
 1781000    1.1013238   -1.3841065   -1.3841065  -0.59487258   0.10775483   -1.3841065   0.78923389  1070540 
 1782000    1.1004608   -1.3847136   -1.3847136  -0.59609811   0.10086834   -1.3847136   0.78861546  1070540 
 1783000    1.0995682    -1.384674    -1.384674   -0.5966982   0.10464434    -1.384674    0.7879758  1070540 
 1784000    1.0992311   -1.3843013   -1.3843013  -0.59656709   0.10195405   -1.3843013   0.78773417  1070540 
 1785000    1.0993165   -1.3843646   -1.3843646  -0.59656923   0.10474827   -1.3843646    0.7877954  1070540 
 1786000    1.1017124   -1.3859477   -1.3859477   -0.5964354   0.10541924   -1.3859477   0.78951232  1070540 
 1787000    1.1002066   -1.3846779   -1.3846779   -0.5962446   0.10192798   -1.3846779   0.78843329  1070540 
 1788000    1.1009491    -1.384746    -1.384746  -0.59578063   0.10686033    -1.384746   0.78896535  1070540 
 1789000    1.1016394    -1.384624    -1.384624  -0.59516391  0.095856262    -1.384624   0.78946006  1070540 
 1790000    1.1010065   -1.3832572   -1.3832572  -0.59425075  0.097451538   -1.3832572   0.78900647  1070540 
 1791000    1.0999606   -1.3815034   -1.3815034  -0.59324643  0.098932672   -1.3815034   0.78825701  1070540 
 1792000    1.1022384   -1.3822813   -1.3822813  -0.59239196   0.10137083   -1.3822813   0.78988931  1070540 
 1793000     1.100714   -1.3809924   -1.3809924   -0.5921955  0.099986429   -1.3809924   0.78879689  1070540 
 1794000    1.1017452    -1.382017    -1.382017   -0.5924811  0.099965361    -1.382017   0.78953586  1070540 
 1795000    1.1011258   -1.3822798   -1.3822798  -0.59318776  0.096591079   -1.3822798   0.78909201  1070540 
 1796000     1.101784    -1.383686    -1.383686  -0.59412236    0.1002694    -1.383686   0.78956364  1070540 
 1797000    1.1010454   -1.3838488   -1.3838488  -0.59481446   0.10251266   -1.3838488   0.78903436  1070540 
 1798000     1.098436   -1.3822032   -1.3822032  -0.59503885  0.099374163   -1.3822032   0.78716439  1070540 
 1799000    1.0997115   -1.3829092   -1.3829092  -0.59483074   0.10516434   -1.3829092   0.78807844  1070540 
 1800000    1.0995288   -1.3824196   -1.3824196  -0.59447209   0.10084895   -1.3824196   0.78794756  1070540 
 1801000     1.099165    -1.381655    -1.381655  -0.59396818   0.10608884    -1.381655   0.78768684  1070540 
 1802000    1.1016765   -1.3828698   -1.3828698  -0.59338323   0.10186543   -1.3828698   0.78948661  1070540 
 1803000    1.1008813   -1.3820714   -1.3820714  -0.59315461   0.09378731   -1.3820714   0.78891677  1070540 
 1804000    1.1010366   -1.3823354   -1.3823354  -0.59330734   0.10497095   -1.3823354   0.78902809  1070540 
 1805000      1.09791   -1.3808045   -1.3808045  -0.59401706  0.096783664   -1.3808045   0.78678747  1070540 
 1806000    1.1007416   -1.3836941   -1.3836941  -0.59487752   0.10588084   -1.3836941   0.78881663  1070540 
 1807000    1.0976674   -1.3826107   -1.3826107  -0.59599711   0.10469702   -1.3826107   0.78661362  1070540 
 1808000    1.0990469   -1.3839624   -1.3839624  -0.59636019    0.1011247   -1.3839624   0.78760221  1070540 
 1809000    1.0995137   -1.3842537   -1.3842537  -0.59631702   0.10271216   -1.3842537    0.7879367  1070540 
 1810000     1.098941    -1.383916    -1.383916  -0.59638974   0.10689267    -1.383916   0.78752628  1070540 
 1811000    1.0998301   -1.3841429   -1.3841429  -0.59597948  0.099339288   -1.3841429   0.78816344  1070540 
 1812000     1.102455   -1.3857373   -1.3857373  -0.59569281   0.10883122   -1.3857373   0.79004451  1070540 
 1813000     1.100813   -1.3845669   -1.3845669  -0.59569909   0.10057613   -1.3845669   0.78886782  1070540 
 1814000    1.0990413   -1.3834798   -1.3834798  -0.59588165   0.10343589   -1.3834798   0.78759818  1070540 
 1815000    1.1003123   -1.3845183   -1.3845183  -0.59600928   0.10283702   -1.3845183   0.78850902  1070540 
 1816000     1.099708   -1.3841867   -1.3841867   -0.5961108   0.10253727   -1.3841867   0.78807595  1070540 
 1817000    1.0988866   -1.3837677   -1.3837677  -0.59628033  0.097945761   -1.3837677   0.78748735  1070540 
 1818000    1.0997571   -1.3841529   -1.3841529  -0.59604175  0.099367045   -1.3841529   0.78811113  1070540 
 1819000    1.0988741   -1.3829831   -1.3829831  -0.59550481   0.09659628   -1.3829831   0.78747834  1070540 
 1820000    1.1003973    -1.383217    -1.383217  -0.59464708   0.10919329    -1.383217    0.7885699  1070540 
 1821000    1.1013184   -1.3836541   -1.3836541   -0.5944241  0.099975529   -1.3836541   0.78923003  1070540 
 1822000    1.1015808   -1.3838983   -1.3838983  -0.59448019  0.098863163   -1.3838983   0.78941808  1070540 
 1823000    1.0986217   -1.3822509   -1.3822509  -0.59495335   0.10374166   -1.3822509   0.78729752  1070540 
 1824000    1.0998113   -1.3834228   -1.3834228  -0.59527277   0.10744582   -1.3834228   0.78815002  1070540 
 1825000    1.0982028   -1.3826033   -1.3826033  -0.59560606  0.098476157   -1.3826033   0.78699728  1070540 
 1826000    1.0988187   -1.3830688   -1.3830688  -0.59563008   0.10175206   -1.3830688   0.78743869  1070540 
 1827000    1.1006293   -1.3839303   -1.3839303  -0.59519413  0.099653172   -1.3839303    0.7887362  1070540 
 1828000    1.1010009   -1.3836186   -1.3836186  -0.59461617   0.10414421   -1.3836186   0.78900245  1070540 
 1829000     1.101918    -1.383787    -1.383787  -0.59412726   0.11158191    -1.383787   0.78965971  1070540 
 1830000    1.0991831   -1.3818502   -1.3818502  -0.59415034   0.10658722   -1.3818502   0.78769981  1070540 
 1831000    1.0994926   -1.3828397   -1.3828397  -0.59491805  0.095637245   -1.3828397   0.78792163  1070540 
 1832000    1.1001885   -1.3844561   -1.3844561  -0.59603576   0.10317573   -1.3844561    0.7884203  1070540 
 1833000    1.0983532   -1.3839695   -1.3839695  -0.59686439   0.10477645   -1.3839695   0.78710509  1070540 
 1834000     1.099995   -1.3853357   -1.3853357  -0.59705407   0.10998562   -1.3853357   0.78828164  1070540 
 1835000    1.0999965   -1.3850942   -1.3850942   -0.5968115  0.097917314   -1.3850942   0.78828271  1070540 
 1836000    1.0992809   -1.3840738   -1.3840738  -0.59630397   0.10280915   -1.3840738   0.78776987  1070540 
 1837000    1.0979092    -1.382405    -1.382405  -0.59561813   0.10459721    -1.382405   0.78678689  1070540 
 1838000    1.0994101   -1.3822588   -1.3822588  -0.59439627   0.11552806   -1.3822588   0.78786251  1070540 
 1839000     1.100581   -1.3823338   -1.3823338  -0.59363224    0.1039604   -1.3823338   0.78870156  1070540 
 1840000    1.1004419   -1.3821189   -1.3821189  -0.59351699   0.10634357   -1.3821189   0.78860189  1070540 
 1841000    1.1012663   -1.3827523   -1.3827523  -0.59355961   0.10167647   -1.3827523    0.7891927  1070540 
 1842000    1.0998626   -1.3818409   -1.3818409  -0.59365411   0.09821034   -1.3818409   0.78818677  1070540 
 1843000    1.0996924    -1.381656    -1.381656  -0.59359126  0.099069812    -1.381656   0.78806474  1070540 
 1844000    1.1021512   -1.3834243   -1.3834243  -0.59359748    0.1088965   -1.3834243    0.7898268  1070540 
 1845000    1.1001677   -1.3828238   -1.3828238  -0.59441844    0.1041918   -1.3828238   0.78840538  1070540 
 1846000    1.1003542   -1.3843039   -1.3843039  -0.59576479  0.098323867   -1.3843039   0.78853907  1070540 
 1847000    1.0997009    -1.384463    -1.384463  -0.59639208    0.1077198    -1.384463   0.78807087  1070540 
 1848000    1.0996909   -1.3846299   -1.3846299  -0.59656615   0.11024331   -1.3846299   0.78806372  1070540 
 1849000    1.1014022   -1.3859255   -1.3859255  -0.59663539   0.10748666   -1.3859255   0.78929008  1070540 
 1850000    1.1011996   -1.3859651   -1.3859651  -0.59682029  0.099850305   -1.3859651   0.78914486  1070540 
 1851000    1.1013501    -1.386475    -1.386475  -0.59722228   0.10892061    -1.386475   0.78925273  1070540 
 1852000      1.09832   -1.3851294   -1.3851294  -0.59804812   0.10773673   -1.3851294   0.78708132  1070540 
 1853000    1.0998459   -1.3867336   -1.3867336  -0.59855887   0.10199068   -1.3867336   0.78817477  1070540 
 1854000    1.0989633   -1.3864431   -1.3864431   -0.5989008  0.097747834   -1.3864431   0.78754231  1070540 
 1855000    1.0983026   -1.3858655   -1.3858655  -0.59879671  0.099710684   -1.3858655   0.78706883  1070540 
 1856000     1.101029   -1.3865918   -1.3865918  -0.59756923   0.10461634   -1.3865918   0.78902259  1070540 
 1857000    1.0996036   -1.3841013   -1.3841013  -0.59610023   0.10658608   -1.3841013   0.78800112  1070540 
 1858000    1.0998978   -1.3835578   -1.3835578  -0.59534578   0.10457734   -1.3835578   0.78821199  1070540 
 1859000    1.0992469   -1.3829113   -1.3829113  -0.59516577   0.10329563   -1.3829113   0.78774555  1070540 
 1860000    1.0992711   -1.3824497   -1.3824497  -0.59468684   0.10260521   -1.3824497   0.78776286  1070540 
 1861000    1.1010902   -1.3836353   -1.3836353  -0.59456886  0.097666997   -1.3836353   0.78906649  1070540 
 1862000    1.1002405   -1.3830498   -1.3830498  -0.59459228   0.10566076   -1.3830498   0.78845756  1070540 
 1863000    1.1018438   -1.3844402   -1.3844402  -0.59483374  0.097851005   -1.3844402    0.7896065  1070540 
 1864000    1.0990372   -1.3835788   -1.3835788  -0.59598348   0.10659758   -1.3835788   0.78759528  1070540 
 1865000    1.0990257   -1.3845891   -1.3845891  -0.59700204  0.099254834   -1.3845891   0.78758702  1070540 
 1866000    1.0989154   -1.3847335   -1.3847335  -0.59722556   0.10415964   -1.3847335   0.78750797  1070540 
 1867000    1.0992429   -1.3848316   -1.3848316   -0.5970889   0.10247204   -1.3848316   0.78774266  1070540 
 1868000    1.0997948    -1.384701    -1.384701  -0.59656281    0.1064414    -1.384701   0.78813815  1070540 
 1869000    1.1007808   -1.3849208   -1.3849208  -0.59607605   0.10325123   -1.3849208   0.78884477  1070540 
 1870000    1.0988854   -1.3828852   -1.3828852  -0.59539876   0.10987918   -1.3828852   0.78748648  1070540 
 1871000    1.1009342    -1.383501    -1.383501   -0.5945463   0.10988025    -1.383501   0.78895471  1070540 
 1872000    1.1022674   -1.3831285   -1.3831285  -0.59321839   0.10598841   -1.3831285    0.7899101  1070540 
 1873000    1.1011311   -1.3813665   -1.3813665  -0.59227074    0.1053725   -1.3813665   0.78909577  1070540 
 1874000    1.1024734   -1.3821616   -1.3821616  -0.59210386   0.10742459   -1.3821616   0.79005774  1070540 
 1875000    1.1002191   -1.3811826   -1.3811826  -0.59274041   0.10819158   -1.3811826   0.78844219  1070540 
 1876000    1.1001748   -1.3821857   -1.3821857  -0.59377518   0.10394206   -1.3821857    0.7884105  1070540 
 1877000    1.1014062   -1.3836313   -1.3836313  -0.59433831   0.10436749   -1.3836313   0.78929295  1070540 
 1878000    1.0983393   -1.3817671   -1.3817671  -0.59467191   0.10420361   -1.3817671   0.78709514  1070540 
 1879000    1.1007276   -1.3837335   -1.3837335  -0.59492687   0.10604753   -1.3837335    0.7888066  1070540 
 1880000    1.0993613   -1.3828235   -1.3828235  -0.59499595   0.10183016   -1.3828235   0.78782753  1070540 
 1881000    1.1002052   -1.3831968   -1.3831968  -0.59476456   0.10003565   -1.3831968   0.78843224  1070540 
 1882000    1.0989088   -1.3823277   -1.3823277  -0.59482445  0.096502328   -1.3823277    0.7875032  1070540 
 1883000    1.1005405   -1.3829951   -1.3829951  -0.59432254   0.10022816   -1.3829951   0.78867257  1070540 
 1884000    1.1009064   -1.3822796   -1.3822796  -0.59334483   0.10720248   -1.3822796   0.78893475  1070540 
 1885000    1.1018977   -1.3821406   -1.3821406  -0.59249548   0.10003974   -1.3821406   0.78964515  1070540 
 1886000    1.1024356   -1.3823507   -1.3823507  -0.59232006   0.11007291   -1.3823507   0.79003062  1070540 
 1887000    1.1009728   -1.3818102   -1.3818102  -0.59282786   0.10241496   -1.3818102   0.78898231  1070540 
 1888000    1.1005245   -1.3828083   -1.3828083  -0.59414721   0.09565824   -1.3828083    0.7886611  1070540 
 1889000       1.0987   -1.3824558   -1.3824558  -0.59510221   0.10440912   -1.3824558   0.78735362  1070540 
 1890000    1.1001191   -1.3836915   -1.3836915  -0.59532093   0.11075627   -1.3836915   0.78837058  1070540 
 1891000    1.0989954   -1.3828369   -1.3828369  -0.59527158   0.10714334   -1.3828369    0.7875653  1070540 
 1892000    1.0993266   -1.3827974   -1.3827974  -0.59499477  0.098259092   -1.3827974   0.78780265  1070540 
 1893000    1.1009092   -1.3832953   -1.3832953  -0.59435853   0.10170075   -1.3832953   0.78893679  1070540 
 1894000    1.1025187   -1.3840074   -1.3840074  -0.59391719    0.1107048   -1.3840074    0.7900902  1070540 
 1895000    1.1018134   -1.3838592   -1.3838592  -0.59427444  0.098370577   -1.3838592   0.78958477  1070540 
 1896000    1.1003853   -1.3840327   -1.3840327  -0.59547132   0.10828957   -1.3840327   0.78856133  1070540 
 1897000    1.0980251   -1.3835631   -1.3835631  -0.59669319   0.10574261   -1.3835631   0.78686992  1070540 
 1898000    1.0993397   -1.3848571   -1.3848571  -0.59704511   0.10581933   -1.3848571   0.78781202  1070540 
 1899000    1.0998734   -1.3850615   -1.3850615  -0.59686704   0.10766566   -1.3850615   0.78819449  1070540 
 1900000    1.1000527   -1.3850641   -1.3850641  -0.59674118   0.10823479   -1.3850641   0.78832295  1070540 
 1901000    1.0996787    -1.384783    -1.384783  -0.59672807   0.10223794    -1.384783   0.78805493  1070540 
 1902000    1.0995661   -1.3849826   -1.3849826  -0.59700836   0.10242821   -1.3849826   0.78797428  1070540 
 1903000    1.1002959   -1.3857644   -1.3857644  -0.59726715    0.1102342   -1.3857644   0.78849726  1070540 
 1904000     1.099164   -1.3854617   -1.3854617  -0.59777556   0.10982276   -1.3854617   0.78768612  1070540 
 1905000    1.0974583    -1.385293    -1.385293  -0.59882922  0.096021748    -1.385293   0.78646376  1070540 
 1906000    1.0980785   -1.3866081   -1.3866081  -0.59969983   0.10446895   -1.3866081   0.78690823  1070540 
 1907000    1.0977867   -1.3863295   -1.3863295  -0.59963035   0.10003322   -1.3863295   0.78669913  1070540 
 1908000    1.0996889   -1.3867544   -1.3867544  -0.59869216   0.10867677   -1.3867544   0.78806229  1070540 
 1909000       1.1003   -1.3860001   -1.3860001  -0.59749992   0.10481364   -1.3860001   0.78850017  1070540 
 1910000    1.1004505   -1.3854131   -1.3854131  -0.59680507   0.10466698   -1.3854131   0.78860802  1070540 
 1911000    1.0994301   -1.3843729   -1.3843729  -0.59649608  0.097648459   -1.3843729   0.78787679  1070540 
 1912000    1.1008829   -1.3853404   -1.3853404  -0.59642253   0.10481576   -1.3853404    0.7889179  1070540 
 1913000    1.0998052   -1.3846221   -1.3846221   -0.5964765   0.11193611   -1.3846221   0.78814564  1070540 
 1914000    1.0994227   -1.3846426   -1.3846426   -0.5967711   0.10687184   -1.3846426   0.78787152  1070540 
 1915000    1.1012656   -1.3866624   -1.3866624  -0.59747018   0.09907179   -1.3866624   0.78919219  1070540 
 1916000    1.0990415   -1.3860842   -1.3860842  -0.59848582   0.10873875   -1.3860842   0.78759834  1070540 
 1917000    1.0995875   -1.3873957   -1.3873957  -0.59940612   0.10829138   -1.3873957   0.78798961  1070540 
 1918000    1.0979644   -1.3865038   -1.3865038  -0.59967734  0.096013163   -1.3865038   0.78682643  1070540 
 1919000    1.0991572   -1.3869266   -1.3869266  -0.59924536   0.10208958   -1.3869266   0.78768123  1070540 
 1920000     1.100168   -1.3870219   -1.3870219  -0.59861634  0.097819297   -1.3870219   0.78840559  1070540 
 1921000    1.1003516   -1.3867111   -1.3867111  -0.59817387   0.10078085   -1.3867111   0.78853721  1070540 
 1922000    1.0985324    -1.385017    -1.385017   -0.5977835   0.10366213    -1.385017   0.78723353  1070540 
 1923000     1.100404   -1.3859011   -1.3859011  -0.59732639   0.10893196   -1.3859011   0.78857475  1070540 
 1924000    1.1020182   -1.3866214   -1.3866214  -0.59688993   0.10704677   -1.3866214   0.78973149  1070540 
 1925000    1.0993835   -1.3848101   -1.3848101  -0.59696667   0.10994391   -1.3848101   0.78784344  1070540 
 1926000     1.099465   -1.3853374   -1.3853374  -0.59743562  0.099736397   -1.3853374   0.78790179  1070540 
 1927000    1.0978968   -1.3849846   -1.3849846  -0.59820654   0.10900177   -1.3849846   0.78677802  1070540 
 1928000    1.0975661   -1.3859558   -1.3859558  -0.59941476   0.10544143   -1.3859558   0.78654104  1070540 
 1929000     1.097885   -1.3866072   -1.3866072  -0.59983762  0.097575503   -1.3866072   0.78676957  1070540 
 1930000     1.098356   -1.3866584   -1.3866584  -0.59955134  0.095729373   -1.3866584   0.78710705  1070540 
 1931000    1.1004208   -1.3871569   -1.3871569  -0.59857011   0.10448287   -1.3871569   0.78858679  1070540 
 1932000    1.1017251   -1.3871318   -1.3871318  -0.59761037   0.10932429   -1.3871318   0.78952144  1070540 
 1933000    1.1003735   -1.3857152   -1.3857152  -0.59716231   0.10620611   -1.3857152   0.78855286  1070540 
 1934000    1.1016714   -1.3865894   -1.3865894  -0.59710637  0.099844612   -1.3865894   0.78948299  1070540 
 1935000    1.1005756   -1.3857768   -1.3857768  -0.59707909   0.10042408   -1.3857768   0.78869771  1070540 
 1936000      1.09976   -1.3852142   -1.3852142  -0.59710098  0.098683997   -1.3852142   0.78811319  1070540 
 1937000    1.1001976   -1.3856139   -1.3856139  -0.59718715   0.10565553   -1.3856139   0.78842679  1070540 
 1938000    1.1000609   -1.3855738   -1.3855738  -0.59724493  0.096930479   -1.3855738   0.78832883  1070540 
 1939000    1.1020498   -1.3870666   -1.3870666  -0.59731241   0.10071925   -1.3870666   0.78975415  1070540 
 1940000    1.1004198     -1.38599     -1.38599  -0.59740393   0.10490731     -1.38599   0.78858604  1070540 
 1941000    1.0998594   -1.3861135   -1.3861135  -0.59792898  0.099379173   -1.3861135   0.78818448  1070540 
 1942000    1.0996787   -1.3870252   -1.3870252  -0.59897021   0.10487849   -1.3870252   0.78805496  1070540 
 1943000    1.0990152   -1.3876908   -1.3876908  -0.60011133     0.101271   -1.3876908   0.78757952  1070540 
 1944000    1.0990686    -1.388296    -1.388296  -0.60067821  0.096935033    -1.388296   0.78761777  1070540 
 1945000    1.0981907   -1.3876529   -1.3876529  -0.60066427   0.10392322   -1.3876529   0.78698866  1070540 
 1946000    1.0993371   -1.3879753   -1.3879753  -0.60016511   0.10081598   -1.3879753   0.78781019  1070540 
 1947000    1.1001177   -1.3874999   -1.3874999  -0.59913037  0.092122548   -1.3874999   0.78836954  1070540 
 1948000    1.1009997   -1.3872085   -1.3872085  -0.59820692   0.10270748   -1.3872085   0.78900162  1070540 
 1949000    1.1015221   -1.3872282   -1.3872282  -0.59785226   0.10233322   -1.3872282   0.78937596  1070540 
 1950000    1.1015064   -1.3872805   -1.3872805  -0.59791573   0.10281183   -1.3872805   0.78936475  1070540 
 1951000    1.1001493   -1.3864695   -1.3864695  -0.59807728   0.10954785   -1.3864695    0.7883922  1070540 
 1952000     1.099532    -1.386202    -1.386202  -0.59825217   0.10029181    -1.386202   0.78794984  1070540 
 1953000    1.1003771   -1.3870755   -1.3870755  -0.59852004   0.10314634   -1.3870755   0.78855545  1070540 
 1954000    1.0993136   -1.3866718   -1.3866718  -0.59887847  0.099283051   -1.3866718    0.7877933  1070540 
 1955000    1.1011426   -1.3882399   -1.3882399   -0.5991359  0.098721611   -1.3882399     0.789104  1070540 
 1956000    1.1007145   -1.3886709   -1.3886709  -0.59987358  0.095602823   -1.3886709   0.78879727  1070540 
 1957000    1.0987199    -1.388384    -1.388384  -0.60101611   0.10229999    -1.388384   0.78736789  1070540 
 1958000    1.0975907   -1.3882034   -1.3882034  -0.60164474    0.1096551   -1.3882034   0.78655867  1070540 
 1959000      1.09907   -1.3892864   -1.3892864   -0.6016677   0.10663792   -1.3892864   0.78761873  1070540 
 1960000    1.0986029   -1.3885051   -1.3885051   -0.6012211   0.10379764   -1.3885051   0.78728402  1070540 
 1961000    1.0980618   -1.3872075   -1.3872075  -0.60031125   0.10488368   -1.3872075   0.78689625  1070540 
 1962000    1.0997361   -1.3873811   -1.3873811  -0.59928503   0.10349046   -1.3873811    0.7880961  1070540 
 1963000    1.0983551   -1.3856833   -1.3856833  -0.59857689   0.10474534   -1.3856833   0.78710645  1070540 
 1964000    1.1004777   -1.3869147   -1.3869147  -0.59828709   0.10118397   -1.3869147   0.78862756  1070540 
 1965000    1.1000701   -1.3867054   -1.3867054  -0.59836994   0.10779372   -1.3867054   0.78833546  1070540 
 1966000    1.0990877   -1.3859446   -1.3859446  -0.59831321   0.10436142   -1.3859446    0.7876314  1070540 
 1967000    1.0994504   -1.3857752   -1.3857752  -0.59788377   0.10526959   -1.3857752   0.78789138  1070540 
 1968000     1.100537   -1.3858984   -1.3858984  -0.59722834   0.10159197   -1.3858984   0.78867006  1070540 
 1969000    1.1011178    -1.385194    -1.385194  -0.59610777  0.098565366    -1.385194   0.78908626  1070540 
 1970000    1.1004756   -1.3839226   -1.3839226  -0.59529657   0.10338489   -1.3839226   0.78862603  1070540 
 1971000    1.1022958   -1.3847513   -1.3847513  -0.59482084   0.10119271   -1.3847513   0.78993042  1070540 
 1972000    1.1013513   -1.3840314   -1.3840314   -0.5947778  0.097447647   -1.3840314   0.78925357  1070540 
 1973000    1.1008276   -1.3839527   -1.3839527  -0.59507434  0.097375669   -1.3839527   0.78887832  1070540 
 1974000     1.100858   -1.3844283   -1.3844283  -0.59552824   0.10160289   -1.3844283   0.78890007  1070540 
 1975000    1.1003021   -1.3842961   -1.3842961  -0.59579438  0.089976704   -1.3842961   0.78850171  1070540 
 1976000    1.1014314   -1.3853472   -1.3853472  -0.59603622    0.1000365   -1.3853472   0.78931099  1070540 
 1977000    1.1008775   -1.3857464   -1.3857464   -0.5968324   0.10282257   -1.3857464   0.78891403  1070540 
 1978000    1.0993748   -1.3853287   -1.3853287  -0.59749147   0.10103593   -1.3853287   0.78783718  1070540 
 1979000    1.0985046   -1.3850973   -1.3850973  -0.59788376    0.1027778   -1.3850973   0.78721358  1070540 
 1980000    1.0984036   -1.3851034   -1.3851034  -0.59796224   0.10480167   -1.3851034   0.78714121  1070540 
 1981000    1.0990943    -1.385292    -1.385292   -0.5976558   0.10761293    -1.385292   0.78763616  1070540 
 1982000    1.1008731   -1.3856748   -1.3856748  -0.59676394   0.10022472   -1.3856748   0.78891086  1070540 
 1983000    1.1023652   -1.3854547   -1.3854547  -0.59547449   0.10298869   -1.3854547   0.78998018  1070540 
 1984000    1.1014272   -1.3839483   -1.3839483  -0.59464036  0.098184649   -1.3839483   0.78930795  1070540 
 1985000    1.1019989   -1.3843317   -1.3843317  -0.59461407    0.1035099   -1.3843317   0.78971765  1070540 
 1986000    1.1007824   -1.3840174   -1.3840174  -0.59517147   0.11046315   -1.3840174   0.78884589  1070540 
 1987000    1.1007567   -1.3847041   -1.3847041  -0.59587657   0.10942029   -1.3847041   0.78882751  1070540 
 1988000    1.0999316   -1.3844833   -1.3844833  -0.59624707  0.098498896   -1.3844833   0.78823619  1070540 
 1989000    1.1019733   -1.3860093   -1.3860093  -0.59630999   0.10455249   -1.3860093   0.78969933  1070540 
 1990000    1.1003196   -1.3853177   -1.3853177  -0.59680346   0.10683157   -1.3853177   0.78851423  1070540 
 1991000    1.0987331   -1.3846938   -1.3846938  -0.59731646   0.10660006   -1.3846938   0.78737734  1070540 
 1992000    1.0997341   -1.3857796   -1.3857796  -0.59768494   0.10273009   -1.3857796    0.7880947  1070540 
 1993000    1.1003403   -1.3863086   -1.3863086  -0.59777952  0.096365175   -1.3863086   0.78852906  1070540 
 1994000    1.0992076   -1.3856389   -1.3856389  -0.59792155   0.10729458   -1.3856389   0.78771734  1070540 
 1995000    1.0993036    -1.386078    -1.386078  -0.59829182   0.10288814    -1.386078   0.78778618  1070540 
 1996000    1.0969922   -1.3843999   -1.3843999  -0.59827009  0.096172057   -1.3843999   0.78612977  1070540 
 1997000    1.0985987    -1.384669    -1.384669  -0.59738793  0.095704037    -1.384669   0.78728104  1070540 
 1998000    1.1012099   -1.3851554   -1.3851554  -0.59600313   0.10761964   -1.3851554   0.78915222  1070540 
 1999000    1.1009843   -1.3841973   -1.3841973  -0.59520673   0.10049181   -1.3841973   0.78899058  1070540 
 2000000    1.1023866   -1.3848681   -1.3848681  -0.59487265   0.11148945   -1.3848681   0.78999548  1070540 
Loop time of 6882.87 on 240 procs for 2000000 steps with 1070540 atoms

Performance: 125529.063 tau/day, 290.577 timesteps/s
95.8% CPU use with 240 MPI tasks x 1 OpenMP threads

MPI task timing breakdown:
Section |  min time  |  avg time  |  max time  |%varavg|  %CPU | %total
-----------------------------------------------------------------------
Pair    | 867.28     | 1228.5     | 1406.2     | 238.5 |  97.1 | 17.85
Bond    | 1.3884     | 1.491      | 1.6725     |   4.0 | 100.0 |  0.02
Neigh   | 960.78     | 1720.3     | 2288.6     | 738.9 |  99.4 | 24.99
Comm    | 1981.9     | 2782.2     | 3959.3     | 667.9 |  94.0 | 40.42
Output  | 71.696     | 71.862     | 71.874     |   0.1 |  89.3 |  1.04
Modify  | 770.04     | 998.45     | 1388.8     | 435.7 |  93.9 | 14.51
Other   |            | 80.06      |            |       |       |  1.16

Nlocal:        4460.58 ave        5995 max        2171 min
Histogram: 3 4 5 14 36 44 66 48 15 5
Nghost:        9395.40 ave       12986 max        3288 min
Histogram: 8 5 7 11 21 27 60 56 33 12
Neighs:        55373.4 ave       69906 max       35773 min
Histogram: 3 4 7 13 42 65 49 40 13 4

Total # of neighbors = 13289622
Ave neighs/atom = 12.413942
Ave special neighs/atom = 0.0000000
Neighbor list builds = 200000
Dangerous builds = 198000

#real run at target temp with nve+langevin
unfix 	       2
fix 	       2 solvent nve

## Thermostat
region          regthermo block EDGE EDGE EDGE EDGE 0 10
group           thermo dynamic solvent region regthermo every 1000
dynamic group thermo defined
fix             3 thermo langevin ${temp} ${temp} 10 156453
fix             3 thermo langevin 1.1 ${temp} 10 156453
fix             3 thermo langevin 1.1 1.1 10 156453

run 		2000000
Per MPI rank memory allocation (min/avg/max) = 19.50 | 29.53 | 32.69 Mbytes
Step Temp E_pair E_vdwl TotEng Press PotEng KinEng Atoms 
 2000000    1.1023866   -1.3848681   -1.3848681  -0.59487265  0.061147746   -1.3848681   0.78999548  1070540 
 2001000     1.102265   -1.3849992   -1.3849992  -0.59509076   0.10827756   -1.3849992   0.78990839  1070540 
 2002000    1.1004427   -1.3836401   -1.3836401   -0.5950377   0.10251763   -1.3836401   0.78860243  1070540 
 2003000    1.1007737   -1.3843917   -1.3843917  -0.59555202   0.10337465   -1.3843917   0.78883964  1070540 
 2004000    1.1003167   -1.3842085   -1.3842085   -0.5956963   0.10222888   -1.3842085   0.78851217  1070540 
 2005000      1.10054   -1.3843634   -1.3843634  -0.59569127  0.097185206   -1.3843634   0.78867216  1070540 
 2006000    1.0995653    -1.383887    -1.383887   -0.5959133   0.10965784    -1.383887   0.78797371  1070540 
 2007000    1.1012071   -1.3849141   -1.3849141  -0.59576383   0.10311753   -1.3849141   0.78915027  1070540 
 2008000    1.0999738   -1.3842492   -1.3842492  -0.59598273   0.10284902   -1.3842492   0.78826644  1070540 
 2009000    1.0997941   -1.3841547   -1.3841547   -0.5960171   0.11103544   -1.3841547   0.78813764  1070540 
 2010000    1.1007293   -1.3844501   -1.3844501  -0.59564232   0.10669601   -1.3844501   0.78880783  1070540 
 2011000    1.1002554   -1.3844625   -1.3844625  -0.59599424   0.10312944   -1.3844625   0.78846823  1070540 
 2012000    1.0987505   -1.3840578   -1.3840578  -0.59666798   0.11192889   -1.3840578   0.78738979  1070540 
 2013000    1.0995602   -1.3844749   -1.3844749  -0.59650484   0.10151273   -1.3844749   0.78797002  1070540 
 2014000    1.0992714   -1.3842344   -1.3842344  -0.59647134   0.10624585   -1.3842344   0.78776306  1070540 
 2015000    1.0985357   -1.3835013   -1.3835013  -0.59626543  0.095012548   -1.3835013   0.78723585  1070540 
 2016000    1.0984526    -1.383427    -1.383427  -0.59625075   0.11137412    -1.383427   0.78717628  1070540 
 2017000     1.099102   -1.3841707   -1.3841707  -0.59652898  0.095372488   -1.3841707    0.7876417  1070540 
 2018000    1.0988523   -1.3843573   -1.3843573  -0.59689456   0.10939519   -1.3843573   0.78746276  1070540 
 2019000    1.0990952   -1.3846284   -1.3846284  -0.59699157   0.10973238   -1.3846284   0.78763682  1070540 
 2020000     1.100489   -1.3860654   -1.3860654   -0.5974298   0.10416705   -1.3860654   0.78863564  1070540 
 2021000    1.1001324   -1.3857348   -1.3857348  -0.59735474   0.10818812   -1.3857348   0.78838007  1070540 
 2022000    1.0995786   -1.3855784   -1.3855784  -0.59759519    0.1096444   -1.3855784   0.78798325  1070540 
 2023000    1.1003007   -1.3865274   -1.3865274  -0.59802666   0.10157363   -1.3865274   0.78850071  1070540 
 2024000    1.0992924   -1.3856241   -1.3856241  -0.59784594   0.10735113   -1.3856241   0.78777813  1070540 
 2025000    1.0998614   -1.3859287   -1.3859287   -0.5977428   0.11261284   -1.3859287   0.78818591  1070540 
 2026000    1.0984873    -1.384707    -1.384707  -0.59750582   0.11390489    -1.384707   0.78720117  1070540 
 2027000    1.0997524    -1.385839    -1.385839   -0.5977313   0.11200653    -1.385839   0.78810775  1070540 
 2028000    1.0995588   -1.3851953   -1.3851953  -0.59722626  0.093293972   -1.3851953   0.78796907  1070540 
 2029000    1.0986691   -1.3847804   -1.3847804  -0.59744894   0.10440654   -1.3847804   0.78733146  1070540 
 2030000    1.0997155   -1.3854119   -1.3854119  -0.59733058   0.10061477   -1.3854119   0.78808131  1070540 
 2031000    1.0996145   -1.3854678   -1.3854678  -0.59745883   0.10359249   -1.3854678   0.78800898  1070540 
 2032000    1.1002329   -1.3856696   -1.3856696   -0.5972175   0.10790233   -1.3856696   0.78845214  1070540 
 2033000     1.101902   -1.3868997   -1.3868997  -0.59725142   0.10000015   -1.3868997   0.78964826  1070540 
 2034000    1.1011742   -1.3868392   -1.3868392  -0.59771255    0.1019946   -1.3868392   0.78912667  1070540 
 2035000    1.1007631   -1.3866069   -1.3866069  -0.59777484   0.10863141   -1.3866069   0.78883207  1070540 
 2036000    1.0995523   -1.3856363   -1.3856363  -0.59767195   0.10343465   -1.3856363   0.78796437  1070540 
 2037000    1.1002433   -1.3861563   -1.3861563   -0.5976967   0.10444176   -1.3861563   0.78845955  1070540 
 2038000    1.1010707   -1.3863325   -1.3863325  -0.59727997   0.11078721   -1.3863325   0.78905252  1070540 
 2039000    1.1003615   -1.3861624   -1.3861624  -0.59761817  0.095775309   -1.3861624   0.78854427  1070540 
 2040000    1.1015511   -1.3867442   -1.3867442  -0.59734746    0.1031133   -1.3867442   0.78939676  1070540 
 2041000    1.1005126   -1.3861611   -1.3861611  -0.59750851   0.10872424   -1.3861611   0.78865256  1070540 
 2042000    1.1015627   -1.3869673   -1.3869673  -0.59756226   0.10260209   -1.3869673   0.78940507  1070540 
 2043000    1.1019222   -1.3873628   -1.3873628  -0.59770009  0.094478218   -1.3873628   0.78966271  1070540 
 2044000    1.1013528    -1.387233    -1.387233  -0.59797834  0.096998369    -1.387233   0.78925468  1070540 
 2045000    1.1017146   -1.3870799   -1.3870799  -0.59756597   0.10353145   -1.3870799   0.78951394  1070540 
 2046000    1.1018824   -1.3873303   -1.3873303  -0.59769615   0.10584185   -1.3873303    0.7896342  1070540 
 2047000    1.1006588   -1.3867739   -1.3867739  -0.59801656  0.099522523   -1.3867739   0.78875734  1070540 
 2048000    1.1006473   -1.3865331   -1.3865331  -0.59778396   0.10694134   -1.3865331   0.78874911  1070540 
 2049000    1.0996236   -1.3859836   -1.3859836  -0.59796815  0.099133892   -1.3859836   0.78801547  1070540 
 2050000    1.1005247   -1.3861405   -1.3861405  -0.59747927   0.10162935   -1.3861405   0.78866121  1070540 
 2051000    1.0988621   -1.3849958   -1.3849958  -0.59752606    0.1023676   -1.3849958   0.78746977  1070540 
 2052000    1.0992776   -1.3859614   -1.3859614  -0.59819392   0.10725064   -1.3859614   0.78776752  1070540 
 2053000    1.0994104   -1.3861163   -1.3861163   -0.5982536  0.093007625   -1.3861163   0.78786269  1070540 
 2054000    1.0999775   -1.3864704   -1.3864704  -0.59820125    0.1115904   -1.3864704   0.78826911  1070540 
 2055000    1.1013697   -1.3872415   -1.3872415  -0.59797478  0.098581738   -1.3872415   0.78926676  1070540 
 2056000    1.1003929   -1.3860337   -1.3860337  -0.59746688   0.10232601   -1.3860337   0.78856678  1070540 
 2057000    1.0996105   -1.3855921   -1.3855921  -0.59758602   0.11295084   -1.3855921   0.78800608  1070540 
 2058000    1.1005094   -1.3862854   -1.3862854  -0.59763511  0.098228143   -1.3862854   0.78865024  1070540 
 2059000    1.0999317   -1.3854703   -1.3854703  -0.59723405   0.10462137   -1.3854703   0.78823629  1070540 
 2060000    1.0996254   -1.3854122   -1.3854122  -0.59739546   0.10540961   -1.3854122   0.78801678  1070540 
 2061000    1.1003768   -1.3861342   -1.3861342  -0.59757892  0.095686039   -1.3861342   0.78855526  1070540 
 2062000    1.1011583   -1.3863694   -1.3863694  -0.59725416  0.097267454   -1.3863694   0.78911527  1070540 
 2063000    1.0995858   -1.3852212   -1.3852212  -0.59723285   0.10101724   -1.3852212   0.78798838  1070540 
 2064000    1.1024454   -1.3873784   -1.3873784  -0.59734079  0.098910188   -1.3873784   0.79003761  1070540 
 2065000    1.1012288   -1.3864205   -1.3864205  -0.59725466   0.10378742   -1.3864205   0.78916583  1070540 
 2066000    1.1007796   -1.3863224   -1.3863224   -0.5974785   0.10855202   -1.3863224    0.7888439  1070540 
 2067000    1.1001251   -1.3856721   -1.3856721  -0.59729725   0.10526534   -1.3856721   0.78837484  1070540 
 2068000    1.0994734   -1.3847607   -1.3847607  -0.59685293   0.10686774   -1.3847607   0.78790781  1070540 
 2069000    1.0993564   -1.3848894   -1.3848894  -0.59706537   0.10477315   -1.3848894   0.78782398  1070540 
 2070000    1.1013733   -1.3860472   -1.3860472  -0.59677781    0.1034976   -1.3860472   0.78926935  1070540 
 2071000     1.099429   -1.3846162   -1.3846162  -0.59674024   0.10344889   -1.3846162   0.78787599  1070540 
 2072000    1.1002984   -1.3857607   -1.3857607  -0.59726168   0.10108404   -1.3857607   0.78849905  1070540 
 2073000    1.1007852   -1.3860782   -1.3860782  -0.59723027  0.096898489   -1.3860782   0.78884794  1070540 
 2074000    1.0990707   -1.3840591   -1.3840591  -0.59643982   0.10485294   -1.3840591   0.78761926  1070540 
 2075000    1.1017291   -1.3859876   -1.3859876  -0.59646326   0.11277457   -1.3859876    0.7895243  1070540 
 2076000    1.1001751    -1.385222    -1.385222  -0.59681132  0.096752129    -1.385222   0.78841071  1070540 
 2077000    1.1006011   -1.3852141   -1.3852141  -0.59649809   0.10760879   -1.3852141   0.78871599  1070540 
 2078000    1.1003404   -1.3854294   -1.3854294  -0.59690032   0.10482004   -1.3854294   0.78852912  1070540 
 2079000    1.1013958   -1.3860233   -1.3860233  -0.59673779   0.10232174   -1.3860233   0.78928548  1070540 
 2080000    1.1020788   -1.3864084   -1.3864084   -0.5966335   0.10777463   -1.3864084   0.78977495  1070540 
 2081000    1.1017464   -1.3864463   -1.3864463  -0.59690958    0.1054331   -1.3864463   0.78953669  1070540 
 2082000    1.1011253   -1.3861245   -1.3861245  -0.59703289  0.099104113   -1.3861245   0.78909162  1070540 
 2083000    1.0999463    -1.385901    -1.385901  -0.59765428  0.099682793    -1.385901   0.78824672  1070540 
 2084000    1.1011056   -1.3864569   -1.3864569  -0.59737939   0.11371814   -1.3864569   0.78907749  1070540 
 2085000    1.1017141   -1.3867239   -1.3867239  -0.59721028   0.10144053   -1.3867239   0.78951359  1070540 
 2086000    1.1006796   -1.3863241   -1.3863241  -0.59755182  0.098097015   -1.3863241   0.78877224  1070540 
 2087000    1.1005081   -1.3859363   -1.3859363  -0.59728695   0.11079119   -1.3859363   0.78864931  1070540 
 2088000    1.0989176   -1.3850461   -1.3850461  -0.59753651   0.10759668   -1.3850461   0.78750955  1070540 
 2089000    1.0993267   -1.3851723   -1.3851723  -0.59736952   0.10302461   -1.3851723   0.78780274  1070540 
 2090000    1.0995447   -1.3851094   -1.3851094  -0.59715044   0.10470734   -1.3851094   0.78795892  1070540 
 2091000    1.1008846   -1.3858496   -1.3858496  -0.59693046   0.10574015   -1.3858496   0.78891913  1070540 
 2092000     1.099713   -1.3849569   -1.3849569  -0.59687734   0.11103961   -1.3849569   0.78807955  1070540 
 2093000    1.1015199   -1.3866043   -1.3866043  -0.59722991   0.10233671   -1.3866043   0.78937439  1070540 
 2094000    1.1017316   -1.3863623   -1.3863623  -0.59683621   0.10225414   -1.3863623   0.78952613  1070540 
 2095000    1.1001462   -1.3855672   -1.3855672  -0.59717721   0.11109397   -1.3855672   0.78839001  1070540 
 2096000    1.1017215   -1.3863612   -1.3863612  -0.59684226  0.099176132   -1.3863612    0.7895189  1070540 
 2097000    1.1010546    -1.385533    -1.385533  -0.59649199   0.10297001    -1.385533   0.78904097  1070540 
 2098000    1.1033309   -1.3870094   -1.3870094  -0.59633714   0.10296965   -1.3870094   0.79067222  1070540 
 2099000    1.1003886   -1.3850612   -1.3850612  -0.59649751   0.10346548   -1.3850612   0.78856368  1070540 
 2100000    1.1015322   -1.3865183   -1.3865183  -0.59713512  0.099285559   -1.3865183    0.7893832  1070540 
 2101000    1.1007909   -1.3855245   -1.3855245  -0.59667247   0.09548357   -1.3855245   0.78885198  1070540 
 2102000     1.099984   -1.3852353   -1.3852353  -0.59696152   0.10705087   -1.3852353   0.78827378  1070540 
 2103000    1.1001223   -1.3854878   -1.3854878  -0.59711491   0.10838654   -1.3854878   0.78837285  1070540 
 2104000     1.100583   -1.3860135   -1.3860135  -0.59731052   0.10037934   -1.3860135     0.788703  1070540 
 2105000     1.101907   -1.3867145   -1.3867145  -0.59706271   0.10057927   -1.3867145   0.78965181  1070540 
 2106000     1.101713   -1.3865979   -1.3865979   -0.5970851   0.10456431   -1.3865979    0.7895128  1070540 
 2107000    1.0991063     -1.38443     -1.38443  -0.59678526   0.10196666     -1.38443   0.78764475  1070540 
 2108000    1.1017865   -1.3866612   -1.3866612  -0.59709571   0.10044499   -1.3866612   0.78956545  1070540 
 2109000    1.1021637   -1.3870812   -1.3870812  -0.59724548   0.10617518   -1.3870812   0.78983574  1070540 
 2110000    1.1023971   -1.3872051   -1.3872051  -0.59720203   0.10696178   -1.3872051   0.79000304  1070540 
 2111000    1.1011452   -1.3863132   -1.3863132  -0.59720733    0.1068084   -1.3863132   0.78910589  1070540 
 2112000    1.1009737   -1.3859488   -1.3859488  -0.59696579    0.1037602   -1.3859488   0.78898298  1070540 
 2113000    1.1003941   -1.3860517   -1.3860517  -0.59748406   0.11181044   -1.3860517   0.78856763  1070540 
 2114000    1.1002212     -1.38582     -1.38582   -0.5973762  0.098730125     -1.38582   0.78844375  1070540 
 2115000    1.1017152   -1.3866361   -1.3866361  -0.59712172   0.10102181   -1.3866361   0.78951436  1070540 
 2116000    1.1005155   -1.3863018   -1.3863018  -0.59764714   0.10160008   -1.3863018   0.78865464  1070540 
 2117000     1.099537   -1.3851513   -1.3851513  -0.59719791   0.10988544   -1.3851513   0.78795344  1070540 
 2118000    1.1002053   -1.3861381   -1.3861381  -0.59770577   0.10946854   -1.3861381   0.78843233  1070540 
 2119000    1.0997251   -1.3856583   -1.3856583  -0.59757009  0.099126648   -1.3856583   0.78808824  1070540 
 2120000    1.1011551   -1.3870216   -1.3870216  -0.59790863  0.098658579   -1.3870216   0.78911298  1070540 
 2121000    1.1004094   -1.3862664   -1.3862664  -0.59768782   0.10572088   -1.3862664    0.7885786  1070540 
 2122000    1.1016978    -1.386784    -1.386784  -0.59728209   0.11309539    -1.386784   0.78950187  1070540 
 2123000    1.1007206   -1.3865057   -1.3865057  -0.59770406   0.10781152   -1.3865057   0.78880163  1070540 
 2124000    1.0997807   -1.3862094   -1.3862094   -0.5980813   0.10647833   -1.3862094   0.78812807  1070540 
 2125000    1.1003146    -1.386419    -1.386419   -0.5979084   0.10420879    -1.386419   0.78851064  1070540 
 2126000    1.1015708   -1.3874447   -1.3874447  -0.59803383   0.10251286   -1.3874447   0.78941085  1070540 
 2127000    1.1011306   -1.3870456   -1.3870456  -0.59795018  0.099785158   -1.3870456   0.78909545  1070540 
 2128000    1.0989922   -1.3853654   -1.3853654  -0.59780234  0.099808001   -1.3853654   0.78756303  1070540 
 2129000    1.0998994   -1.3860709   -1.3860709   -0.5978578  0.099261599   -1.3860709   0.78821308  1070540 
 2130000    1.1010087   -1.3867657   -1.3867657  -0.59775758    0.1033074   -1.3867657   0.78900809  1070540 
 2131000    1.0994919   -1.3854522   -1.3854522  -0.59753109   0.10342276   -1.3854522   0.78792113  1070540 
 2132000    1.1038057   -1.3883477   -1.3883477   -0.5973353  0.099344383   -1.3883477   0.79101245  1070540 
 2133000     1.100313   -1.3857042   -1.3857042  -0.59719467   0.10388006   -1.3857042   0.78850953  1070540 
 2134000     1.099969   -1.3859537   -1.3859537  -0.59769066  0.097328895   -1.3859537   0.78826301  1070540 
 2135000    1.0997564    -1.385994    -1.385994  -0.59788336   0.10231493    -1.385994   0.78811065  1070540 
 2136000    1.1004222    -1.386149    -1.386149  -0.59756123   0.10991659    -1.386149   0.78858776  1070540 
 2137000    1.1021745   -1.3872251   -1.3872251  -0.59738157   0.10170141   -1.3872251   0.78984354  1070540 
 2138000    1.1002204   -1.3857575   -1.3857575   -0.5973143   0.10547168   -1.3857575   0.78844316  1070540 
 2139000    1.1000301   -1.3857553   -1.3857553  -0.59744849   0.11206308   -1.3857553    0.7883068  1070540 
 2140000    1.1013366   -1.3868225   -1.3868225  -0.59757938   0.10395066   -1.3868225   0.78924307  1070540 
 2141000    1.1009563   -1.3863337   -1.3863337  -0.59736315   0.10331452   -1.3863337   0.78897051  1070540 
 2142000    1.1004692   -1.3863707   -1.3863707  -0.59774927   0.10794899   -1.3863707   0.78862144  1070540 
 2143000    1.1011728   -1.3868685   -1.3868685  -0.59774283   0.10364514   -1.3868685   0.78912564  1070540 
 2144000    1.1008466   -1.3866755   -1.3866755  -0.59778357   0.10264153   -1.3866755    0.7888919  1070540 
 2145000    1.1014244   -1.3871855   -1.3871855  -0.59787951  0.099092564   -1.3871855   0.78930596  1070540 
 2146000    1.1015832   -1.3870709   -1.3870709  -0.59765113    0.1073885   -1.3870709    0.7894198  1070540 
 2147000    1.1010648    -1.386478    -1.386478  -0.59742968   0.10123268    -1.386478   0.78904827  1070540 
 2148000    1.1001671   -1.3856389   -1.3856389  -0.59723393   0.10369476   -1.3856389   0.78840493  1070540 
 2149000    1.1002394   -1.3854805   -1.3854805  -0.59702375   0.11542889   -1.3854805   0.78845675  1070540 
 2150000    1.1014967   -1.3859298   -1.3859298  -0.59657198    0.1096259   -1.3859298   0.78935781  1070540 
 2151000    1.1006252   -1.3858767   -1.3858767   -0.5971435   0.10369708   -1.3858767   0.78873324  1070540 
 2152000    1.1017345   -1.3870493   -1.3870493  -0.59752113   0.10557731   -1.3870493   0.78952821  1070540 
 2153000    1.1014259   -1.3868448   -1.3868448  -0.59753778   0.11246166   -1.3868448   0.78930703  1070540 
 2154000    1.1022307    -1.387603    -1.387603  -0.59771923   0.10508524    -1.387603   0.78988375  1070540 
 2155000     1.104517   -1.3888504   -1.3888504  -0.59732824   0.10197703   -1.3888504   0.79152219  1070540 
 2156000     1.102192   -1.3876714   -1.3876714   -0.5978154  0.099262493   -1.3876714   0.78985605  1070540 
 2157000    1.1018176   -1.3873766   -1.3873766   -0.5977888   0.10205846   -1.3873766   0.78958777  1070540 
 2158000    1.1011489   -1.3868553   -1.3868553  -0.59774676   0.10278657   -1.3868553   0.78910857  1070540 
 2159000    1.1008782   -1.3867854   -1.3867854  -0.59787081   0.10849209   -1.3867854   0.78891457  1070540 
 2160000     1.101548   -1.3875617   -1.3875617   -0.5981672   0.11343136   -1.3875617   0.78939454  1070540 
 2161000    1.1004841   -1.3873113   -1.3873113  -0.59867922   0.10701598   -1.3873113   0.78863209  1070540 
 2162000    1.1008344   -1.3872608   -1.3872608  -0.59837769   0.10428394   -1.3872608   0.78888316  1070540 
 2163000    1.1015389   -1.3879711   -1.3879711  -0.59858314   0.10548089   -1.3879711   0.78938801  1070540 
 2164000     1.100203    -1.386923    -1.386923  -0.59849238   0.11098735    -1.386923   0.78843066  1070540 
 2165000    1.1005553   -1.3872016   -1.3872016  -0.59851845   0.10262656   -1.3872016   0.78868312  1070540 
 2166000    1.1024505   -1.3884478   -1.3884478  -0.59840651   0.10417826   -1.3884478   0.79004128  1070540 
 2167000    1.1034905   -1.3889847   -1.3889847  -0.59819815   0.10942865   -1.3889847   0.79078659  1070540 
 2168000     1.101892   -1.3878282   -1.3878282  -0.59818715   0.11012747   -1.3878282   0.78964104  1070540 
 2169000    1.1007014   -1.3873386   -1.3873386  -0.59855076   0.10948852   -1.3873386   0.78878788  1070540 
 2170000    1.1017047     -1.38775     -1.38775   -0.5982432   0.10169598     -1.38775   0.78950682  1070540 
 2171000     1.102734   -1.3883573   -1.3883573  -0.59811281   0.11392611   -1.3883573   0.79024448  1070540 
 2172000     1.100839   -1.3873159   -1.3873159  -0.59842946   0.10567651   -1.3873159   0.78888645  1070540 
 2173000    1.1024979   -1.3884667   -1.3884667   -0.5983914   0.10795194   -1.3884667   0.79007528  1070540 
 2174000    1.1005409   -1.3870768   -1.3870768  -0.59840397   0.10661222   -1.3870768   0.78867282  1070540 
 2175000    1.1006471   -1.3873088   -1.3873088  -0.59855984   0.10921169   -1.3873088   0.78874893  1070540 
 2176000    1.1016361   -1.3878673   -1.3878673   -0.5984096   0.10200288   -1.3878673   0.78945765  1070540 
 2177000    1.1027571   -1.3891138   -1.3891138  -0.59885278   0.10429856   -1.3891138   0.79026103  1070540 
 2178000    1.1025568   -1.3888571   -1.3888571  -0.59873962   0.11000435   -1.3888571   0.79011747  1070540 
 2179000     1.102537   -1.3885417   -1.3885417  -0.59843846    0.1094088   -1.3885417   0.79010326  1070540 
 2180000    1.1004424   -1.3869195   -1.3869195  -0.59831723   0.10869008   -1.3869195   0.78860226  1070540 
 2181000    1.1012151    -1.387755    -1.387755  -0.59859903    0.1031799    -1.387755   0.78915598  1070540 
 2182000    1.1008157   -1.3872295   -1.3872295  -0.59835981   0.10032833   -1.3872295   0.78886973  1070540 
 2183000    1.1012471   -1.3876414   -1.3876414  -0.59846248   0.10610639   -1.3876414    0.7891789  1070540 
 2184000    1.1012846   -1.3875692   -1.3875692  -0.59836342   0.10706198   -1.3875692   0.78920576  1070540 
 2185000    1.1017167   -1.3881508   -1.3881508  -0.59863533   0.10245081   -1.3881508   0.78951544  1070540 
 2186000    1.1023805   -1.3887776   -1.3887776  -0.59878652    0.1048406   -1.3887776   0.78999111  1070540 
 2187000    1.1009864   -1.3879648   -1.3879648  -0.59897274    0.1072062   -1.3879648   0.78899207  1070540 
 2188000    1.1010762   -1.3879433   -1.3879433  -0.59888685   0.10401129   -1.3879433   0.78905641  1070540 
 2189000    1.1004444   -1.3873445   -1.3873445  -0.59874086   0.10219057   -1.3873445   0.78860365  1070540 
 2190000    1.1011591   -1.3876602   -1.3876602   -0.5985443  0.096972934   -1.3876602   0.78911586  1070540 
 2191000    1.1001339   -1.3870291   -1.3870291   -0.5986479  0.092195848   -1.3870291   0.78838117  1070540 
 2192000    1.1012629   -1.3874918   -1.3874918  -0.59830152   0.10787435   -1.3874918   0.78919026  1070540 
 2193000    1.1003795   -1.3865915   -1.3865915   -0.5980343   0.10503865   -1.3865915   0.78855718  1070540 
 2194000     1.101376   -1.3876598   -1.3876598  -0.59838852   0.10479926   -1.3876598   0.78927126  1070540 
 2195000     1.100964   -1.3874682   -1.3874682   -0.5984921   0.10886243   -1.3874682   0.78897607  1070540 
 2196000    1.1018619   -1.3881146   -1.3881146  -0.59849516  0.099270695   -1.3881146   0.78961946  1070540 
 2197000    1.1015877    -1.387424    -1.387424  -0.59800096   0.10115876    -1.387424   0.78942302  1070540 
 2198000    1.1001435   -1.3865596   -1.3865596  -0.59817156   0.10710847   -1.3865596   0.78838802  1070540 
 2199000    1.1015443    -1.387255    -1.387255  -0.59786311   0.11390987    -1.387255   0.78939187  1070540 
 2200000    1.0996561   -1.3863015   -1.3863015   -0.5982628   0.11076672   -1.3863015   0.78803874  1070540 
 2201000    1.1017276   -1.3880807   -1.3880807  -0.59855743   0.10052408   -1.3880807   0.78952324  1070540 
 2202000    1.1002202   -1.3871379   -1.3871379  -0.59869484   0.10784256   -1.3871379   0.78844301  1070540 
 2203000    1.1009108   -1.3877947   -1.3877947  -0.59885674  0.098733909   -1.3877947   0.78893792  1070540 
 2204000    1.1002482     -1.38698     -1.38698  -0.59851699   0.10624125     -1.38698   0.78846305  1070540 
 2205000    1.1025312   -1.3881713   -1.3881713  -0.59807215   0.10730229   -1.3881713    0.7900991  1070540 
 2206000    1.1022119   -1.3879859   -1.3879859  -0.59811565   0.10799597   -1.3879859    0.7898703  1070540 
 2207000    1.1012721   -1.3874573   -1.3874573  -0.59826047   0.11535175   -1.3874573   0.78919682  1070540 
 2208000    1.1009691   -1.3866192   -1.3866192  -0.59763959   0.10829513   -1.3866192   0.78897966  1070540 
 2209000    1.1022945    -1.387382    -1.387382  -0.59745254   0.10178474    -1.387382   0.78992949  1070540 
 2210000    1.1021913   -1.3872603   -1.3872603  -0.59740472   0.11478369   -1.3872603   0.78985556  1070540 
 2211000    1.1012352   -1.3865014   -1.3865014  -0.59733094   0.11345021   -1.3865014   0.78917041  1070540 
 2212000    1.1009893   -1.3864879   -1.3864879  -0.59749369   0.10485168   -1.3864879   0.78899418  1070540 
 2213000    1.1007421   -1.3863467   -1.3863467  -0.59752963   0.10900634   -1.3863467   0.78881703  1070540 
 2214000    1.1010953   -1.3866317   -1.3866317  -0.59756159   0.10613926   -1.3866317   0.78907012  1070540 
 2215000    1.1018381   -1.3868171   -1.3868171  -0.59721461  0.096237723   -1.3868171   0.78960244  1070540 
 2216000    1.1010561   -1.3862381   -1.3862381  -0.59719611   0.11233113   -1.3862381   0.78904202  1070540 
 2217000    1.1006643   -1.3862455   -1.3862455  -0.59748425   0.11343294   -1.3862455   0.78876129  1070540 
 2218000     1.099537   -1.3854074   -1.3854074  -0.59745401   0.10190151   -1.3854074   0.78795342  1070540 
 2219000     1.102351   -1.3872123   -1.3872123  -0.59724233   0.10527823   -1.3872123   0.78996998  1070540 
 2220000    1.1010335   -1.3864777   -1.3864777  -0.59745185   0.11623843   -1.3864777   0.78902582  1070540 
 2221000     1.102329   -1.3872368   -1.3872368  -0.59728255   0.11119275   -1.3872368   0.78995424  1070540 
 2222000    1.1016828   -1.3865282   -1.3865282    -0.597037   0.10531217   -1.3865282   0.78949116  1070540 
 2223000    1.1013713   -1.3867272   -1.3867272  -0.59745926   0.10449869   -1.3867272   0.78926795  1070540 
 2224000     1.100412   -1.3859039   -1.3859039  -0.59732337   0.10162117   -1.3859039   0.78858048  1070540 
 2225000     1.100448   -1.3860299   -1.3860299  -0.59742367  0.099083252   -1.3860299   0.78860627  1070540 
 2226000    1.1010649    -1.386431    -1.386431  -0.59738262  0.099595553    -1.386431   0.78904833  1070540 
 2227000    1.1011601   -1.3862127   -1.3862127  -0.59709612  0.099238629   -1.3862127    0.7891166  1070540 
 2228000    1.1016014   -1.3864326   -1.3864326  -0.59699977   0.11418103   -1.3864326   0.78943284  1070540 
 2229000    1.1005259   -1.3860647   -1.3860647  -0.59740255   0.11105371   -1.3860647   0.78866211  1070540 
 2230000    1.0999194   -1.3857954   -1.3857954  -0.59756797   0.10919259   -1.3857954   0.78822742  1070540 
 2231000    1.1011747   -1.3869186   -1.3869186  -0.59779159   0.10664807   -1.3869186   0.78912701  1070540 
 2232000    1.1022367   -1.3871469   -1.3871469  -0.59725875  0.097577192   -1.3871469    0.7898881  1070540 
 2233000    1.1006207   -1.3866395   -1.3866395  -0.59790946   0.10654763   -1.3866395      0.78873  1070540 
 2234000    1.1011216   -1.3865638   -1.3865638  -0.59747477    0.1084961   -1.3865638   0.78908901  1070540 
 2235000    1.1019606   -1.3871896   -1.3871896  -0.59749936   0.10388422   -1.3871896   0.78969023  1070540 
 2236000    1.1007581   -1.3868847   -1.3868847  -0.59805626   0.10642377   -1.3868847   0.78882846  1070540 
 2237000    1.1014695    -1.386742    -1.386742  -0.59740371   0.10173842    -1.386742   0.78933829  1070540 
 2238000    1.1020557   -1.3871494   -1.3871494  -0.59739101   0.10522328   -1.3871494   0.78975834  1070540 
 2239000    1.1018234   -1.3870009   -1.3870009  -0.59740904   0.10340105   -1.3870009   0.78959188  1070540 
 2240000    1.1022085   -1.3871456   -1.3871456  -0.59727769   0.10321071   -1.3871456   0.78986788  1070540 
 2241000    1.1021804   -1.3873825   -1.3873825  -0.59753478   0.10898159   -1.3873825    0.7898477  1070540 
 2242000    1.1020874   -1.3872589   -1.3872589  -0.59747779   0.10145027   -1.3872589   0.78978111  1070540 
 2243000    1.1015273   -1.3867715   -1.3867715  -0.59739176   0.10828069   -1.3867715   0.78937974  1070540 
 2244000    1.1024103   -1.3874049   -1.3874049  -0.59739239  0.099137793   -1.3874049   0.79001251  1070540 
 2245000    1.1029436   -1.3875052   -1.3875052  -0.59711051   0.10588081   -1.3875052   0.79039467  1070540 
 2246000    1.1012822   -1.3864677   -1.3864677  -0.59726364   0.10141984   -1.3864677   0.78920404  1070540 
 2247000     1.102199    -1.387051    -1.387051  -0.59718991   0.10605624    -1.387051   0.78986107  1070540 
 2248000    1.1042454   -1.3890358   -1.3890358  -0.59770826   0.10964061   -1.3890358   0.79132755  1070540 
 2249000    1.1022644   -1.3878742   -1.3878742  -0.59796621   0.11296154   -1.3878742   0.78990795  1070540 
 2250000    1.1008738   -1.3868252   -1.3868252  -0.59791382  0.097509753   -1.3868252   0.78891136  1070540 
 2251000    1.0997635   -1.3860215   -1.3860215  -0.59790579   0.10339336   -1.3860215   0.78811575  1070540 
 2252000    1.1005268   -1.3868134   -1.3868134  -0.59815066   0.10708634   -1.3868134   0.78866275  1070540 
 2253000    1.1007689   -1.3870551   -1.3870551  -0.59821888   0.10982761   -1.3870551   0.78883624  1070540 
 2254000    1.1021058   -1.3879282   -1.3879282  -0.59813398   0.10785356   -1.3879282   0.78979425  1070540 
 2255000    1.1007244   -1.3873112   -1.3873112   -0.5985069   0.10821864   -1.3873112   0.78880434  1070540 
 2256000    1.1023831    -1.388723    -1.388723  -0.59872996  0.096265805    -1.388723     0.789993  1070540 
 2257000    1.1013957   -1.3880715   -1.3880715  -0.59878609   0.10671413   -1.3880715   0.78928542  1070540 
 2258000    1.1019119   -1.3883592   -1.3883592  -0.59870392   0.10986074   -1.3883592   0.78965533  1070540 
 2259000    1.1002727   -1.3875803   -1.3875803  -0.59909961    0.1075231   -1.3875803   0.78848066  1070540 
 2260000    1.1010365   -1.3878697   -1.3878697  -0.59884172   0.10361723   -1.3878697   0.78902801  1070540 
 2261000    1.1017729   -1.3880327   -1.3880327  -0.59847696   0.10233424   -1.3880327   0.78955574  1070540 
 2262000    1.0998544   -1.3869435   -1.3869435  -0.59876267     0.110591   -1.3869435   0.78818085  1070540 
 2263000    1.1032781   -1.3892988   -1.3892988  -0.59866439   0.10300071   -1.3892988   0.79063437  1070540 
 2264000    1.1022887   -1.3882756   -1.3882756  -0.59835028    0.1046416   -1.3882756   0.78992536  1070540 
 2265000    1.1013543   -1.3873217   -1.3873217  -0.59806598  0.099179407   -1.3873217   0.78925572  1070540 
 2266000     1.101724   -1.3878446   -1.3878446  -0.59832393   0.10609994   -1.3878446   0.78952064  1070540 
 2267000    1.1011358   -1.3871773   -1.3871773  -0.59807815   0.11006686   -1.3871773   0.78909914  1070540 
 2268000    1.1030515   -1.3887414   -1.3887414  -0.59826934  0.097221836   -1.3887414   0.79047201  1070540 
 2269000    1.1027822   -1.3885048   -1.3885048  -0.59822581   0.11658322   -1.3885048   0.79027903  1070540 
 2270000    1.1024852   -1.3883119   -1.3883119  -0.59824571  0.099105167   -1.3883119   0.79006618  1070540 
 2271000    1.1000376   -1.3865807   -1.3865807  -0.59826855    0.1032589   -1.3865807   0.78831218  1070540 
 2272000    1.1021495   -1.3880354   -1.3880354  -0.59820978   0.10962044   -1.3880354   0.78982559  1070540 
 2273000    1.1016038   -1.3876435   -1.3876435  -0.59820899   0.11548458   -1.3876435   0.78943455  1070540 
 2274000    1.1032033   -1.3885325   -1.3885325  -0.59795175   0.10057098   -1.3885325   0.79058078  1070540 
 2275000    1.1028452   -1.3878205   -1.3878205  -0.59749635     0.103262   -1.3878205   0.79032415  1070540 
 2276000    1.1005699   -1.3866662   -1.3866662  -0.59797254  0.098703367   -1.3866662   0.78869361  1070540 
 2277000    1.1022707   -1.3874732   -1.3874732  -0.59756076   0.10198893   -1.3874732   0.78991243  1070540 
 2278000    1.1023507   -1.3874362   -1.3874362  -0.59746645   0.10776688   -1.3874362    0.7899698  1070540 
 2279000    1.1018324    -1.387286    -1.387286  -0.59768761   0.10815651    -1.387286   0.78959838  1070540 
 2280000    1.1010366   -1.3865088   -1.3865088  -0.59748078   0.11032186   -1.3865088   0.78902804  1070540 
 2281000    1.1025284   -1.3877381   -1.3877381  -0.59764095   0.10708411   -1.3877381   0.79009711  1070540 
 2282000    1.1026483   -1.3877369   -1.3877369  -0.59755383   0.10560091   -1.3877369   0.79018303  1070540 
 2283000    1.1029796   -1.3879293   -1.3879293  -0.59750885   0.10319951   -1.3879293   0.79042043  1070540 
 2284000    1.1017158   -1.3872906   -1.3872906  -0.59777584  0.097328463   -1.3872906   0.78951481  1070540 
 2285000    1.1018225    -1.387068    -1.387068  -0.59747667   0.10879362    -1.387068   0.78959128  1070540 
 2286000    1.1023444   -1.3873761   -1.3873761  -0.59741085   0.10295592   -1.3873761   0.78996528  1070540 
 2287000    1.1027214   -1.3876217   -1.3876217  -0.59738633   0.10564684   -1.3876217   0.79023541  1070540 
 2288000    1.1021149   -1.3871331   -1.3871331  -0.59733228   0.10389294   -1.3871331   0.78980081  1070540 
 2289000    1.1037868   -1.3879652   -1.3879652  -0.59696631   0.10781115   -1.3879652   0.79099893  1070540 
 2290000    1.1027676   -1.3871373   -1.3871373  -0.59686881   0.11320533   -1.3871373    0.7902685  1070540 
 2291000    1.1031077    -1.387561    -1.387561  -0.59704872   0.10289914    -1.387561   0.79051226  1070540 
 2292000    1.1025147   -1.3869283   -1.3869283  -0.59684094   0.10319003   -1.3869283   0.79008734  1070540 
 2293000    1.1018194   -1.3862349   -1.3862349  -0.59664594   0.10002233   -1.3862349   0.78958901  1070540 
 2294000    1.1024743   -1.3871839   -1.3871839   -0.5971255   0.10452032   -1.3871839   0.79005836  1070540 
 2295000     1.100857   -1.3861186   -1.3861186  -0.59721917   0.10812048   -1.3861186   0.78889939  1070540 
 2296000    1.1020413   -1.3866408   -1.3866408  -0.59689274   0.11189824   -1.3866408   0.78974803  1070540 
 2297000    1.1028059   -1.3874975   -1.3874975  -0.59720149   0.10404525   -1.3874975   0.79029597  1070540 
 2298000    1.1023402   -1.3876727   -1.3876727  -0.59771046    0.1011634   -1.3876727   0.78996225  1070540 
 2299000    1.1029101   -1.3875662   -1.3875662  -0.59719549   0.11206054   -1.3875662   0.79037069  1070540 
 2300000    1.1024165   -1.3869988   -1.3869988  -0.59698194   0.10790681   -1.3869988    0.7900169  1070540 
 2301000    1.1010066   -1.3861199   -1.3861199  -0.59711335   0.11207985   -1.3861199   0.78900654  1070540 
 2302000    1.1015605   -1.3865409   -1.3865409  -0.59713745     0.116083   -1.3865409   0.78940349  1070540 
 2303000    1.1024696   -1.3869977   -1.3869977  -0.59694269   0.11086328   -1.3869977     0.790055  1070540 
 2304000    1.1010715   -1.3861408   -1.3861408  -0.59708765   0.10675517   -1.3861408   0.78905311  1070540 
 2305000    1.1019607   -1.3867419   -1.3867419  -0.59705157   0.11858318   -1.3867419    0.7896903  1070540 
 2306000    1.1021902   -1.3866486   -1.3866486   -0.5967938   0.10156798   -1.3866486   0.78985476  1070540 
 2307000    1.1015035   -1.3866608   -1.3866608  -0.59729814   0.10680392   -1.3866608   0.78936263  1070540 
 2308000    1.1031224   -1.3872903   -1.3872903   -0.5967675   0.10564531   -1.3872903   0.79052282  1070540 
 2309000    1.1002893   -1.3853112   -1.3853112  -0.59681868   0.10752989   -1.3853112    0.7884925  1070540 
 2310000    1.1024962   -1.3865717   -1.3865717  -0.59649769   0.10170298   -1.3865717   0.79007405  1070540 
 2311000    1.1035328   -1.3874273   -1.3874273   -0.5966104   0.10810158   -1.3874273   0.79081687  1070540 
 2312000    1.1030475   -1.3875515   -1.3875515  -0.59708242   0.10190238   -1.3875515   0.79046912  1070540 
 2313000    1.1024099   -1.3865123   -1.3865123  -0.59650009    0.0997837   -1.3865123   0.79001217  1070540 
 2314000    1.1016473   -1.3863376   -1.3863376  -0.59687186   0.10712108   -1.3863376   0.78946572  1070540 
 2315000    1.1014986   -1.3865268   -1.3865268  -0.59716763   0.10662096   -1.3865268   0.78935913  1070540 
 2316000    1.1027667   -1.3873532   -1.3873532  -0.59708533   0.10174645   -1.3873532   0.79026791  1070540 
 2317000    1.1018833   -1.3866995   -1.3866995  -0.59706466   0.10342824   -1.3866995   0.78963486  1070540 
 2318000    1.1023069   -1.3867381   -1.3867381  -0.59679973   0.10806493   -1.3867381   0.78993838  1070540 
 2319000    1.1021085   -1.3868314   -1.3868314  -0.59703517   0.10722149   -1.3868314   0.78979622  1070540 
 2320000    1.1034231   -1.3878093   -1.3878093  -0.59707098   0.10216796   -1.3878093   0.79073827  1070540 
 2321000    1.1024031   -1.3868063   -1.3868063  -0.59679893   0.10440286   -1.3868063   0.79000733  1070540 
 2322000    1.1021327   -1.3864192   -1.3864192  -0.59660564   0.10199077   -1.3864192   0.78981354  1070540 
 2323000    1.1035891   -1.3875642   -1.3875642  -0.59670701   0.10335784   -1.3875642   0.79085722  1070540 
 2324000    1.1031437   -1.3873997   -1.3873997  -0.59686164   0.10307532   -1.3873997   0.79053805  1070540 
 2325000    1.1026507   -1.3868812   -1.3868812  -0.59669642   0.10385408   -1.3868812   0.79018475  1070540 
 2326000    1.1031885   -1.3876496   -1.3876496  -0.59707942  0.098460772   -1.3876496   0.79057015  1070540 
 2327000    1.1034805   -1.3875895   -1.3875895  -0.59681009   0.11231711   -1.3875895   0.79077939  1070540 
 2328000    1.1020701   -1.3863264   -1.3863264  -0.59655767   0.10375935   -1.3863264    0.7897687  1070540 
 2329000    1.1025716   -1.3864236   -1.3864236  -0.59629547   0.10804712   -1.3864236   0.79012811  1070540 
 2330000    1.1029264   -1.3865492   -1.3865492   -0.5961669   0.10101417   -1.3865492   0.79038232  1070540 
 2331000    1.1024991   -1.3861333   -1.3861333  -0.59605718   0.10855793   -1.3861333   0.79007609  1070540 
 2332000      1.10573   -1.3880246   -1.3880246  -0.59563318   0.10197504   -1.3880246   0.79239145  1070540 
 2333000    1.1036688   -1.3864675   -1.3864675  -0.59555317   0.10337087   -1.3864675   0.79091436  1070540 
 2334000    1.1030312   -1.3863605   -1.3863605  -0.59590307    0.1027481   -1.3863605   0.79045743  1070540 
 2335000     1.104688   -1.3876467   -1.3876467  -0.59600195   0.10325479   -1.3876467   0.79164475  1070540 
 2336000    1.1039758    -1.387548    -1.387548  -0.59641361   0.10986587    -1.387548   0.79113435  1070540 
 2337000    1.1029793   -1.3870519   -1.3870519  -0.59663164   0.11316613   -1.3870519   0.79042025  1070540 
 2338000    1.1044574   -1.3883127   -1.3883127  -0.59683321   0.10554805   -1.3883127   0.79147952  1070540 
 2339000     1.102988   -1.3874327   -1.3874327   -0.5970062   0.10635221   -1.3874327   0.79042651  1070540 
 2340000    1.1029511   -1.3874251   -1.3874251  -0.59702503   0.10778005   -1.3874251   0.79040007  1070540 
 2341000    1.1032921   -1.3879265   -1.3879265  -0.59728209   0.10732526   -1.3879265   0.79064443  1070540 
 2342000    1.1038565   -1.3886412   -1.3886412  -0.59759232   0.10360104   -1.3886412   0.79104889  1070540 
 2343000    1.1029727   -1.3878859   -1.3878859  -0.59747046  0.099101512   -1.3878859   0.79041548  1070540 
 2344000    1.1039794    -1.388758    -1.388758  -0.59762107   0.10386407    -1.388758   0.79113697  1070540 
 2345000    1.1035224   -1.3885076   -1.3885076  -0.59769817   0.10690973   -1.3885076   0.79080946  1070540 
 2346000    1.1031394   -1.3881493   -1.3881493  -0.59761436    0.1126713   -1.3881493   0.79053498  1070540 
 2347000    1.1021312   -1.3872419   -1.3872419  -0.59742938    0.1055349   -1.3872419   0.78981248  1070540 
 2348000    1.1033535   -1.3882642   -1.3882642  -0.59757576  0.098869135   -1.3882642    0.7906884  1070540 
 2349000    1.1033382   -1.3876938   -1.3876938   -0.5970164   0.10331245   -1.3876938   0.79067743  1070540 
 2350000    1.1023625    -1.387016    -1.387016  -0.59703771  0.099602249    -1.387016   0.78997825  1070540 
 2351000    1.1032649   -1.3872615   -1.3872615  -0.59663662   0.11189155   -1.3872615   0.79062489  1070540 
 2352000    1.1029778   -1.3870062   -1.3870062  -0.59658708    0.1076659   -1.3870062   0.79041914  1070540 
 2353000    1.1016276   -1.3860569   -1.3860569  -0.59660528   0.10851474   -1.3860569   0.78945161  1070540 
 2354000       1.1036   -1.3875736   -1.3875736  -0.59670859   0.10380405   -1.3875736   0.79086503  1070540 
 2355000    1.1046092   -1.3880034   -1.3880034  -0.59641509   0.11295967   -1.3880034   0.79158828  1070540 
 2356000    1.1040658   -1.3874927   -1.3874927  -0.59629388   0.10529803   -1.3874927   0.79119885  1070540 
 2357000     1.104488   -1.3877045   -1.3877045  -0.59620308   0.11329857   -1.3877045    0.7915014  1070540 
 2358000     1.103258   -1.3868261   -1.3868261   -0.5962061   0.11638914   -1.3868261   0.79061998  1070540 
 2359000    1.1025347   -1.3865477   -1.3865477  -0.59644603   0.10271204   -1.3865477   0.79010166  1070540 
 2360000    1.1040073   -1.3875669   -1.3875669  -0.59640998   0.11521567   -1.3875669   0.79115693  1070540 
 2361000    1.1039441   -1.3874067   -1.3874067  -0.59629505   0.10610102   -1.3874067   0.79111161  1070540 
 2362000    1.1041132   -1.3879251   -1.3879251  -0.59669222    0.1120527   -1.3879251   0.79123284  1070540 
 2363000    1.1015902   -1.3861392   -1.3861392  -0.59671447   0.10199464   -1.3861392   0.78942476  1070540 
 2364000    1.1022214    -1.386865    -1.386865  -0.59698792   0.10129195    -1.386865    0.7898771  1070540 
 2365000    1.1024218   -1.3870528   -1.3870528   -0.5970321   0.10765294   -1.3870528   0.79002073  1070540 
 2366000    1.1030707   -1.3870099   -1.3870099  -0.59652416   0.10604309   -1.3870099   0.79048574  1070540 
 2367000    1.1011479   -1.3861447   -1.3861447  -0.59703691    0.1099585   -1.3861447   0.78910779  1070540 
 2368000    1.1003725   -1.3857008   -1.3857008  -0.59714871  0.098316016   -1.3857008   0.78855214  1070540 
 2369000    1.1024911   -1.3873196   -1.3873196  -0.59724918    0.1121437   -1.3873196   0.79007041  1070540 
 2370000    1.1033935   -1.3881786   -1.3881786  -0.59746151   0.10303672   -1.3881786    0.7907171  1070540 
 2371000    1.1011887   -1.3866952   -1.3866952   -0.5975581   0.10091055   -1.3866952   0.78913707  1070540 
 2372000    1.1027167   -1.3874165   -1.3874165  -0.59718439   0.10369335   -1.3874165   0.79023209  1070540 
 2373000     1.102055   -1.3870318   -1.3870318  -0.59727392   0.10577478   -1.3870318    0.7897579  1070540 
 2374000    1.1028783   -1.3876504   -1.3876504  -0.59730255   0.10566184   -1.3876504   0.79034783  1070540 
 2375000    1.1014774   -1.3866887   -1.3866887   -0.5973448   0.10254388   -1.3866887   0.78934394  1070540 
 2376000    1.1018379   -1.3871398   -1.3871398  -0.59753748   0.10978144   -1.3871398   0.78960231  1070540 
 2377000    1.1030573   -1.3878765   -1.3878765  -0.59740037   0.10873869   -1.3878765   0.79047617  1070540 
 2378000     1.102652   -1.3874704   -1.3874704  -0.59728469   0.11025497   -1.3874704   0.79018571  1070540 
 2379000    1.1028278   -1.3877348   -1.3877348  -0.59742312   0.10311777   -1.3877348   0.79031168  1070540 
 2380000    1.1006242   -1.3864735   -1.3864735  -0.59774091     0.112693   -1.3864735   0.78873256  1070540 
 2381000    1.1041858   -1.3890533   -1.3890533  -0.59776843   0.10765087   -1.3890533   0.79128486  1070540 
 2382000    1.1027708   -1.3878607   -1.3878607  -0.59758988    0.1017576   -1.3878607   0.79027082  1070540 
 2383000    1.1026023    -1.387827    -1.387827  -0.59767694   0.10682838    -1.387827   0.79015007  1070540 
 2384000     1.102616   -1.3878955   -1.3878955  -0.59773559   0.10604618   -1.3878955    0.7901599  1070540 
 2385000     1.102447   -1.3871749   -1.3871749  -0.59713617   0.10522294   -1.3871749   0.79003876  1070540 
 2386000    1.1020242   -1.3874235   -1.3874235  -0.59768776   0.10367557   -1.3874235   0.78973579  1070540 
 2387000    1.1027024    -1.387561    -1.387561  -0.59733927  0.098053828    -1.387561   0.79022178  1070540 
 2388000    1.1030926   -1.3873506   -1.3873506  -0.59684914   0.10516422   -1.3873506   0.79050143  1070540 
 2389000     1.103998   -1.3884887   -1.3884887  -0.59733845   0.10161188   -1.3884887   0.79115028  1070540 
 2390000    1.1022154   -1.3872363   -1.3872363  -0.59736349   0.10865761   -1.3872363   0.78987283  1070540 
 2391000    1.1029008   -1.3876659   -1.3876659  -0.59730189    0.1056961   -1.3876659   0.79036402  1070540 
 2392000    1.1017024   -1.3868569   -1.3868569  -0.59735168   0.10644838   -1.3868569   0.78950521  1070540 
 2393000    1.1012192   -1.3867109   -1.3867109  -0.59755198   0.10569264   -1.3867109   0.78915895  1070540 
 2394000    1.1030125   -1.3880074   -1.3880074  -0.59756336  0.099793626   -1.3880074   0.79044407  1070540 
 2395000    1.1036789   -1.3885944   -1.3885944  -0.59767279  0.098777308   -1.3885944   0.79092162  1070540 
 2396000    1.1004464   -1.3864128   -1.3864128  -0.59780761   0.10378775   -1.3864128   0.78860514  1070540 
 2397000    1.1017816   -1.3872773   -1.3872773  -0.59771538   0.10373387   -1.3872773   0.78956195  1070540 
 2398000    1.1024143   -1.3876989   -1.3876989  -0.59768357   0.10947366   -1.3876989   0.79001536  1070540 
 2399000    1.1044187   -1.3891517   -1.3891517  -0.59769988  0.099554979   -1.3891517   0.79145178  1070540 
 2400000    1.1016046   -1.3877879   -1.3877879  -0.59835279   0.10134447   -1.3877879   0.78943511  1070540 
 2401000    1.1017798   -1.3877811   -1.3877811  -0.59822039   0.11024757   -1.3877811   0.78956069  1070540 
 2402000    1.1008781   -1.3872074   -1.3872074  -0.59829291   0.10981479   -1.3872074    0.7889145  1070540 
 2403000     1.102337   -1.3881132   -1.3881132   -0.5981533   0.10015411   -1.3881132   0.78995993  1070540 
 2404000    1.1003314   -1.3865428   -1.3865428  -0.59802006   0.10621568   -1.3865428   0.78852271  1070540 
 2405000    1.1024514   -1.3880636   -1.3880636  -0.59802161    0.1112906   -1.3880636   0.79004196  1070540 
 2406000    1.1021306   -1.3882322   -1.3882322  -0.59842012   0.10745153   -1.3882322   0.78981207  1070540 
 2407000    1.1019858   -1.3881108   -1.3881108  -0.59840248   0.10862726   -1.3881108   0.78970827  1070540 
 2408000    1.1021665   -1.3877936   -1.3877936  -0.59795586   0.10849325   -1.3877936   0.78983778  1070540 
 2409000    1.1012965   -1.3871416   -1.3871416  -0.59792728  0.099811197   -1.3871416   0.78921431  1070540 
 2410000    1.1030574   -1.3879291   -1.3879291  -0.59745296   0.10555268   -1.3879291   0.79047618  1070540 
 2411000    1.1019513   -1.3871598   -1.3871598  -0.59747621   0.10871539   -1.3871598   0.78968355  1070540 
 2412000    1.1029164   -1.3875406   -1.3875406  -0.59716541   0.10520565   -1.3875406   0.79037515  1070540 
 2413000    1.1030139   -1.3880025   -1.3880025  -0.59755745   0.10239545   -1.3880025   0.79044503  1070540 
 2414000    1.1017924   -1.3874029   -1.3874029  -0.59783322   0.11044155   -1.3874029   0.78956972  1070540 
 2415000    1.1028198   -1.3876151   -1.3876151  -0.59730915    0.1011408   -1.3876151   0.79030592  1070540 
 2416000    1.1028558   -1.3872154   -1.3872154  -0.59688365   0.11108513   -1.3872154   0.79033175  1070540 
 2417000    1.1033906   -1.3875347   -1.3875347  -0.59681969   0.10648196   -1.3875347   0.79071498  1070540 
 2418000    1.1043558   -1.3882513   -1.3882513   -0.5968446   0.10827249   -1.3882513   0.79140666  1070540 
 2419000    1.1020792   -1.3869867   -1.3869867   -0.5972115   0.11098593   -1.3869867   0.78977521  1070540 
 2420000    1.1027286   -1.3874032   -1.3874032  -0.59716264   0.10695671   -1.3874032   0.79024057  1070540 
 2421000    1.1015283   -1.3863598   -1.3863598  -0.59697939   0.10898186   -1.3863598   0.78938039  1070540 
 2422000    1.1033674   -1.3876554   -1.3876554  -0.59695698   0.10407724   -1.3876554   0.79069839  1070540 
 2423000    1.1033384   -1.3878643   -1.3878643  -0.59718673   0.10669781   -1.3878643   0.79067761  1070540 
 2424000    1.1020004   -1.3867567   -1.3867567  -0.59703792   0.10714821   -1.3867567   0.78971873  1070540 
 2425000    1.1026889   -1.3868571   -1.3868571  -0.59664498   0.10308902   -1.3868571   0.79021214  1070540 
 2426000     1.103838   -1.3877575   -1.3877575  -0.59672183   0.10342752   -1.3877575   0.79103564  1070540 
 2427000    1.1034402   -1.3875038   -1.3875038  -0.59675333   0.11117079   -1.3875038    0.7907505  1070540 
 2428000    1.1027856   -1.3876656   -1.3876656   -0.5973842   0.10938854   -1.3876656   0.79028142  1070540 
 2429000     1.100097   -1.3857148   -1.3857148  -0.59736001   0.10480463   -1.3857148   0.78835476  1070540 
 2430000    1.1039428   -1.3879404   -1.3879404   -0.5968297   0.10969411   -1.3879404   0.79111072  1070540 
 2431000      1.10307   -1.3878588   -1.3878588  -0.59737351   0.10746549   -1.3878588   0.79048526  1070540 
 2432000     1.102531    -1.387375    -1.387375  -0.59727606   0.10856115    -1.387375   0.79009897  1070540 
 2433000    1.1030161   -1.3878054   -1.3878054  -0.59735877   0.10118611   -1.3878054   0.79044664  1070540 
 2434000    1.1019589   -1.3869094   -1.3869094  -0.59722037   0.10749366   -1.3869094   0.78968904  1070540 
 2435000    1.1030261    -1.387016    -1.387016  -0.59656222   0.10389822    -1.387016   0.79045378  1070540 
 2436000    1.1031249   -1.3872806   -1.3872806  -0.59675603   0.10334393   -1.3872806    0.7905246  1070540 
 2437000    1.1017417   -1.3861415   -1.3861415  -0.59660819   0.10169073   -1.3861415   0.78953336  1070540 
 2438000    1.1036342   -1.3876309   -1.3876309  -0.59674135   0.10844878   -1.3876309   0.79088954  1070540 
 2439000    1.1037368   -1.3875658   -1.3875658  -0.59660273   0.10381811   -1.3875658   0.79096309  1070540 
 2440000    1.1037724    -1.387285    -1.387285   -0.5962964   0.10438141    -1.387285    0.7909886  1070540 
 2441000    1.1024019   -1.3862922   -1.3862922  -0.59628566    0.1128785   -1.3862922    0.7900065  1070540 
 2442000    1.1050642    -1.388798    -1.388798  -0.59688372   0.10364215    -1.388798    0.7919143  1070540 
 2443000    1.1051376   -1.3882614   -1.3882614  -0.59629444    0.1035735   -1.3882614   0.79196692  1070540 
 2444000    1.1041397   -1.3874994   -1.3874994  -0.59624764    0.1015691   -1.3874994    0.7912518  1070540 
 2445000    1.1044177    -1.386936    -1.386936  -0.59548494   0.10697199    -1.386936   0.79145103  1070540 
 2446000    1.1033793     -1.38655     -1.38655  -0.59584313   0.11536448     -1.38655   0.79070691  1070540 
 2447000    1.1045368   -1.3872778   -1.3872778  -0.59574141   0.11090284   -1.3872778   0.79153639  1070540 
 2448000    1.1037088   -1.3867219   -1.3867219  -0.59577894   0.10927954   -1.3867219   0.79094301  1070540 
 2449000    1.1042197   -1.3872043   -1.3872043  -0.59589511   0.10834815   -1.3872043   0.79130917  1070540 
 2450000     1.105363   -1.3879186   -1.3879186   -0.5957901   0.10976126   -1.3879186   0.79212848  1070540 
 2451000    1.1045791   -1.3872192   -1.3872192  -0.59565245   0.11029974   -1.3872192   0.79156671  1070540 
 2452000    1.1039821   -1.3869767   -1.3869767  -0.59583777   0.10591072   -1.3869767   0.79113889  1070540 
 2453000    1.1029052   -1.3864246   -1.3864246  -0.59605742   0.10270713   -1.3864246   0.79036714  1070540 
 2454000    1.1023377   -1.3858951   -1.3858951  -0.59593463    0.1137324   -1.3858951   0.78996048  1070540 
 2455000    1.1037042    -1.386934    -1.386934  -0.59599421   0.10575061    -1.386934   0.79093976  1070540 
 2456000    1.1034952   -1.3872428   -1.3872428  -0.59645282   0.10778228   -1.3872428   0.79078994  1070540 
 2457000    1.1034194   -1.3871168   -1.3871168  -0.59638115   0.10335794   -1.3871168   0.79073565  1070540 
 2458000    1.1042555   -1.3871954   -1.3871954  -0.59586055   0.10619753   -1.3871954   0.79133483  1070540 
 2459000    1.1037117   -1.3871558   -1.3871558  -0.59621068  0.098854735   -1.3871558   0.79094507  1070540 
 2460000    1.1039877   -1.3878046   -1.3878046  -0.59666168   0.10612365   -1.3878046   0.79114291  1070540 
 2461000    1.1035413   -1.3876918   -1.3876918  -0.59686885   0.10775032   -1.3876918   0.79082296  1070540 
 2462000    1.1021963   -1.3867377   -1.3867377  -0.59687853   0.10774841   -1.3867377   0.78985913  1070540 
 2463000      1.10253    -1.387034    -1.387034  -0.59693572   0.10112889    -1.387034   0.79009829  1070540 
 2464000    1.1027964    -1.387746    -1.387746  -0.59745684   0.10209958    -1.387746   0.79028916  1070540 
 2465000    1.1015565    -1.386725    -1.386725   -0.5973243   0.10762949    -1.386725   0.78940067  1070540 
 2466000    1.1031233   -1.3876834   -1.3876834  -0.59715995   0.10623882   -1.3876834   0.79052345  1070540 
 2467000    1.1029908   -1.3876988   -1.3876988  -0.59727036   0.10315421   -1.3876988   0.79042846  1070540 
 2468000     1.104774   -1.3884196   -1.3884196  -0.59671323   0.10646935   -1.3884196   0.79170635  1070540 
 2469000    1.1045167   -1.3880268   -1.3880268  -0.59650479   0.10779356   -1.3880268     0.791522  1070540 
 2470000    1.1047429   -1.3881396   -1.3881396  -0.59645552   0.11118695   -1.3881396   0.79168409  1070540 
 2471000    1.1036768   -1.3872424   -1.3872424  -0.59632232   0.10770154   -1.3872424   0.79092013  1070540 
 2472000    1.1037694    -1.387181    -1.387181  -0.59619457   0.11307764    -1.387181   0.79098646  1070540 
 2473000    1.1031598   -1.3869073   -1.3869073  -0.59635773   0.10023376   -1.3869073   0.79054962  1070540 
 2474000    1.1030998   -1.3868547   -1.3868547  -0.59634811   0.11321891   -1.3868547   0.79050659  1070540 
 2475000    1.1034579   -1.3870642   -1.3870642  -0.59630094   0.11178561   -1.3870642   0.79076324  1070540 
 2476000    1.1027091   -1.3867244   -1.3867244  -0.59649778   0.11389063   -1.3867244   0.79022664  1070540 
 2477000    1.1028847    -1.386674    -1.386674  -0.59632153   0.11078283    -1.386674   0.79035243  1070540 
 2478000    1.1038588   -1.3874742   -1.3874742  -0.59642369   0.10839393   -1.3874742   0.79105052  1070540 
 2479000    1.1029976   -1.3869927   -1.3869927  -0.59655931   0.10214256   -1.3869927   0.79043335  1070540 
 2480000    1.1037335   -1.3875752   -1.3875752  -0.59661447   0.10702321   -1.3875752   0.79096072  1070540 
 2481000    1.1030369   -1.3868341   -1.3868341  -0.59637259   0.11449537   -1.3868341   0.79046156  1070540 
 2482000    1.1024449   -1.3867474   -1.3867474  -0.59671015   0.11102331   -1.3867474   0.79003728  1070540 
 2483000    1.1019928    -1.386567    -1.386567  -0.59685367   0.10701116    -1.386567   0.78971333  1070540 
 2484000    1.1020812   -1.3868132   -1.3868132  -0.59703654  0.099959902   -1.3868132   0.78977664  1070540 
 2485000    1.1023059   -1.3866438   -1.3866438  -0.59670619   0.10094968   -1.3866438   0.78993764  1070540 
 2486000    1.1035662   -1.3875423   -1.3875423  -0.59670146   0.10823267   -1.3875423   0.79084085  1070540 
 2487000    1.1039296   -1.3879198   -1.3879198  -0.59681859   0.09948832   -1.3879198   0.79110122  1070540 
 2488000    1.1042836   -1.3879634   -1.3879634  -0.59660847    0.1015727   -1.3879634    0.7913549  1070540 
 2489000    1.1042276   -1.3877223   -1.3877223  -0.59640751   0.10528134   -1.3877223    0.7913148  1070540 
 2490000     1.103755   -1.3873423   -1.3873423   -0.5963662   0.10552309   -1.3873423   0.79097613  1070540 
 2491000    1.1036714   -1.3877603   -1.3877603  -0.59684406   0.10543497   -1.3877603   0.79091621  1070540 
 2492000    1.1030059   -1.3873478   -1.3873478  -0.59690851   0.11163149   -1.3873478   0.79043932  1070540 
 2493000    1.1029845   -1.3875593   -1.3875593  -0.59713529   0.10500723   -1.3875593     0.790424  1070540 
 2494000     1.102047   -1.3869749   -1.3869749  -0.59722277   0.11196575   -1.3869749   0.78975213  1070540 
 2495000    1.1028866   -1.3873046   -1.3873046  -0.59695074   0.11406125   -1.3873046   0.79035382  1070540 
 2496000    1.1030859   -1.3872885   -1.3872885  -0.59679189   0.11012577   -1.3872885   0.79049664  1070540 
 2497000    1.1031982   -1.3873295   -1.3873295  -0.59675238   0.11189824   -1.3873295    0.7905771  1070540 
 2498000    1.1051593   -1.3891488   -1.3891488  -0.59716628   0.10686927   -1.3891488    0.7919825  1070540 
 2499000    1.1031546   -1.3868613   -1.3868613  -0.59631543   0.10699954   -1.3868613    0.7905459  1070540 
 2500000    1.1041101   -1.3878111   -1.3878111  -0.59658055   0.10659652   -1.3878111   0.79123057  1070540 
 2501000    1.1033636    -1.387095    -1.387095  -0.59639935   0.10097742    -1.387095   0.79069562  1070540 
 2502000    1.1045749    -1.388065    -1.388065  -0.59650137   0.10815732    -1.388065   0.79156367  1070540 
 2503000    1.1042038   -1.3876549   -1.3876549  -0.59635721   0.10885035   -1.3876549   0.79129772  1070540 
 2504000    1.1049027   -1.3877492   -1.3877492  -0.59595058   0.10871137   -1.3877492    0.7917986  1070540 
 2505000     1.104369   -1.3872877   -1.3872877  -0.59587159   0.11280516   -1.3872877   0.79141612  1070540 
 2506000    1.1036928   -1.3873951   -1.3873951  -0.59646359   0.11307448   -1.3873951   0.79093153  1070540 
 2507000    1.1039811   -1.3876968   -1.3876968  -0.59655866   0.10112202   -1.3876968   0.79113817  1070540 
 2508000    1.1041859   -1.3876781   -1.3876781  -0.59639314   0.11137716   -1.3876781   0.79128491  1070540 
 2509000    1.1041999   -1.3879815   -1.3879815  -0.59668653   0.11040502   -1.3879815   0.79129493  1070540 
 2510000    1.1034503   -1.3875133   -1.3875133  -0.59675551   0.10694628   -1.3875133    0.7907578  1070540 
 2511000    1.1035406   -1.3875803   -1.3875803  -0.59675781   0.10989459   -1.3875803   0.79082247  1070540 
 2512000    1.1032871    -1.386999    -1.386999  -0.59635817   0.10395788    -1.386999   0.79064085  1070540 
 2513000    1.1031927   -1.3866879   -1.3866879   -0.5961148   0.10771497   -1.3866879   0.79057314  1070540 
 2514000     1.105232   -1.3881174   -1.3881174  -0.59608278  0.097839186   -1.3881174   0.79203459  1070540 
 2515000    1.1032184   -1.3866827   -1.3866827  -0.59609105   0.11512197   -1.3866827   0.79059162  1070540 
 2516000    1.1023605   -1.3861114   -1.3861114  -0.59613464   0.10921122   -1.3861114   0.78997677  1070540 
 2517000    1.1053131   -1.3880891   -1.3880891   -0.5959964   0.11230723   -1.3880891   0.79209271  1070540 
 2518000    1.1034583   -1.3868421   -1.3868421  -0.59607861   0.10845785   -1.3868421   0.79076348  1070540 
 2519000    1.1041918   -1.3872058   -1.3872058  -0.59591663   0.10630386   -1.3872058   0.79128913  1070540 
 2520000    1.1038897   -1.3870739   -1.3870739  -0.59600129   0.10398093   -1.3870739   0.79107264  1070540 
 2521000    1.1041184   -1.3871597   -1.3871597  -0.59592315   0.11210682   -1.3871597   0.79123655  1070540 
 2522000    1.1028441   -1.3865944   -1.3865944  -0.59627099   0.10173127   -1.3865944   0.79032337  1070540 
 2523000    1.1033713   -1.3869688   -1.3869688  -0.59626758   0.10261892   -1.3869688   0.79070118  1070540 
 2524000     1.104804   -1.3874667   -1.3874667  -0.59573881   0.10059075   -1.3874667   0.79172786  1070540 
 2525000    1.1045757   -1.3871706   -1.3871706  -0.59560629   0.11148096   -1.3871706   0.79156428  1070540 
 2526000      1.10388   -1.3865191   -1.3865191  -0.59545337   0.11100587   -1.3865191   0.79106573  1070540 
 2527000    1.1030972    -1.386071    -1.386071  -0.59556631   0.11315856    -1.386071   0.79050474  1070540 
 2528000    1.1038704   -1.3861579   -1.3861579  -0.59509906  0.099525247   -1.3861579   0.79105886  1070540 
 2529000    1.1042843   -1.3865065   -1.3865065  -0.59515106   0.10633037   -1.3865065   0.79135545  1070540 
 2530000    1.1034196   -1.3855015   -1.3855015  -0.59476571  0.097684861   -1.3855015   0.79073578  1070540 
 2531000    1.1033251    -1.385731    -1.385731  -0.59506291   0.11005946    -1.385731   0.79066806  1070540 
 2532000    1.1030243   -1.3854643   -1.3854643  -0.59501182   0.10246834   -1.3854643   0.79045249  1070540 
 2533000    1.1040384   -1.3858068   -1.3858068  -0.59462753   0.11340102   -1.3858068   0.79117922  1070540 
 2534000    1.1029838   -1.3855504   -1.3855504  -0.59512692   0.10609686   -1.3855504    0.7904235  1070540 
 2535000    1.1048506   -1.3870257   -1.3870257  -0.59526447   0.10658535   -1.3870257   0.79176123  1070540 
 2536000    1.1033148   -1.3863202   -1.3863202  -0.59565953   0.10378689   -1.3863202   0.79066065  1070540 
 2537000    1.1019603   -1.3855104   -1.3855104   -0.5958204   0.10657573   -1.3855104   0.78969001  1070540 
 2538000     1.103547    -1.386328    -1.386328  -0.59550088   0.11078332    -1.386328   0.79082708  1070540 
 2539000    1.1030861   -1.3858486   -1.3858486  -0.59535183      0.11382   -1.3858486   0.79049676  1070540 
 2540000    1.1031398    -1.386038    -1.386038  -0.59550278   0.10750107    -1.386038   0.79053523  1070540 
 2541000    1.1029465   -1.3859351   -1.3859351  -0.59553841   0.10570979   -1.3859351   0.79039671  1070540 
 2542000    1.1024971   -1.3857852   -1.3857852  -0.59571058   0.10776301   -1.3857852   0.79007467  1070540 
 2543000    1.1025593   -1.3856768   -1.3856768  -0.59555756   0.10629081   -1.3856768   0.79011928  1070540 
 2544000    1.1022436   -1.3856738   -1.3856738   -0.5957808  0.095804175   -1.3856738   0.78989304  1070540 
 2545000    1.1032673   -1.3864625   -1.3864625  -0.59583589    0.1061584   -1.3864625    0.7906266  1070540 
 2546000    1.1012851    -1.385184    -1.385184  -0.59597792   0.10006711    -1.385184   0.78920611  1070540 
 2547000    1.1031666   -1.3864896   -1.3864896  -0.59593513   0.10886429   -1.3864896   0.79055447  1070540 
 2548000    1.1023075   -1.3858432   -1.3858432   -0.5959044   0.10699873   -1.3858432    0.7899388  1070540 
 2549000    1.1026163   -1.3866168   -1.3866168  -0.59645674   0.10207116   -1.3866168   0.79016008  1070540 
 2550000    1.1025163   -1.3859193   -1.3859193  -0.59583082   0.11062028   -1.3859193   0.79008848  1070540 
 2551000    1.1031052   -1.3865271   -1.3865271  -0.59601662   0.11682919   -1.3865271   0.79051048  1070540 
 2552000    1.1019858   -1.3859898   -1.3859898  -0.59628158     0.106336   -1.3859898   0.78970827  1070540 
 2553000    1.1037005    -1.387277    -1.387277  -0.59633991    0.1035049    -1.387277   0.79093707  1070540 
 2554000    1.1025881   -1.3865036   -1.3865036  -0.59636376   0.10412218   -1.3865036   0.79013987  1070540 
 2555000    1.1040506   -1.3871167   -1.3871167  -0.59592878    0.1035663   -1.3871167   0.79118794  1070540 
 2556000    1.1015772   -1.3856664   -1.3856664  -0.59625095   0.11079753   -1.3856664   0.78941549  1070540 
 2557000    1.1025966   -1.3860294   -1.3860294  -0.59588343   0.10577666   -1.3860294     0.790146  1070540 
 2558000    1.1042575   -1.3869793   -1.3869793   -0.5956431   0.10372438   -1.3869793    0.7913362  1070540 
 2559000    1.1026047   -1.3858428   -1.3858428  -0.59569095   0.10010952   -1.3858428   0.79015182  1070540 
 2560000     1.102418   -1.3854899   -1.3854899   -0.5954719   0.11246572   -1.3854899   0.79001803  1070540 
 2561000     1.104567   -1.3871606   -1.3871606  -0.59560262   0.11158288   -1.3871606     0.791558  1070540 
 2562000    1.1021104   -1.3853555   -1.3853555  -0.59555787   0.11143367   -1.3853555    0.7897976  1070540 
 2563000    1.1036032   -1.3863957   -1.3863957   -0.5955283   0.10941687   -1.3863957   0.79086738  1070540 
 2564000    1.1027616    -1.385663    -1.385663  -0.59539879   0.10634461    -1.385663   0.79026423  1070540 
 2565000    1.1048061   -1.3869254   -1.3869254  -0.59519605   0.10102241   -1.3869254   0.79172935  1070540 
 2566000    1.1049433   -1.3873027   -1.3873027  -0.59547503  0.091929138   -1.3873027   0.79182769  1070540 
 2567000    1.1033477   -1.3860696   -1.3860696  -0.59538531   0.10741954   -1.3860696   0.79068427  1070540 
 2568000    1.1031929   -1.3861809   -1.3861809   -0.5956076   0.10216001   -1.3861809   0.79057332  1070540 
 2569000    1.1042622   -1.3869344   -1.3869344  -0.59559478   0.10880491   -1.3869344   0.79133959  1070540 
 2570000     1.102345   -1.3854591   -1.3854591  -0.59549344   0.10313782   -1.3854591   0.78996567  1070540 
 2571000    1.1042343   -1.3868989   -1.3868989  -0.59557931     0.103901   -1.3868989    0.7913196  1070540 
 2572000    1.1038374   -1.3862398   -1.3862398  -0.59520458   0.10878734   -1.3862398    0.7910352  1070540 
 2573000    1.1031055   -1.3863147   -1.3863147  -0.59580395   0.11174068   -1.3863147   0.79051071  1070540 
 2574000    1.1047256   -1.3875443   -1.3875443  -0.59587258   0.11135192   -1.3875443    0.7916717  1070540 
 2575000    1.1041546   -1.3868736   -1.3868736  -0.59561114   0.11035601   -1.3868736   0.79126247  1070540 
 2576000    1.1032131    -1.386563    -1.386563  -0.59597514   0.10935282    -1.386563   0.79058782  1070540 
 2577000    1.1049758   -1.3880031   -1.3880031  -0.59615216   0.11640965   -1.3880031   0.79185099  1070540 
 2578000    1.1044922   -1.3878417   -1.3878417  -0.59633725  0.094822965   -1.3878417    0.7915044  1070540 
 2579000    1.1022358   -1.3863956   -1.3863956  -0.59650813    0.1136181   -1.3863956   0.78988743  1070540 
 2580000    1.1036282   -1.3874753   -1.3874753   -0.5965901    0.1058644   -1.3874753   0.79088523  1070540 
 2581000    1.1025034   -1.3867477   -1.3867477  -0.59666856   0.10320423   -1.3867477   0.79007919  1070540 
 2582000    1.1026203    -1.386527    -1.386527  -0.59636396   0.10344783    -1.386527     0.790163  1070540 
 2583000    1.1033347   -1.3871649   -1.3871649     -0.59649   0.11313218   -1.3871649   0.79067494  1070540 
 2584000    1.1017814   -1.3861526   -1.3861526  -0.59659079   0.10268049   -1.3861526   0.78956184  1070540 
 2585000    1.1024314   -1.3868539   -1.3868539  -0.59682624  0.098792795   -1.3868539   0.79002763  1070540 
 2586000    1.1013506   -1.3856699   -1.3856699  -0.59641684   0.11209265   -1.3856699    0.7892531  1070540 
 2587000    1.1021177   -1.3864273   -1.3864273  -0.59662447   0.11104382   -1.3864273   0.78980281  1070540 
 2588000    1.1035733   -1.3878268   -1.3878268  -0.59698087   0.10334375   -1.3878268   0.79084591  1070540 
 2589000    1.1033826   -1.3880084   -1.3880084  -0.59729907   0.10352082   -1.3880084   0.79070929  1070540 
 2590000    1.1025688   -1.3871778   -1.3871778  -0.59705173   0.10840074   -1.3871778   0.79012608  1070540 
 2591000    1.1037926   -1.3879494   -1.3879494   -0.5969463   0.10306679   -1.3879494   0.79100306  1070540 
 2592000    1.1031228   -1.3874457   -1.3874457   -0.5969226   0.10750958   -1.3874457   0.79052309  1070540 
 2593000    1.1017449   -1.3865456   -1.3865456  -0.59701001    0.1055786   -1.3865456   0.78953564  1070540 
 2594000    1.1028788   -1.3871724   -1.3871724  -0.59682419    0.1074227   -1.3871724    0.7903482  1070540 
 2595000    1.1030529    -1.387091    -1.387091  -0.59661802   0.10854469    -1.387091   0.79047299  1070540 
 2596000    1.1041714   -1.3881995   -1.3881995  -0.59692494   0.10841476   -1.3881995   0.79127452  1070540 
 2597000    1.1031649   -1.3875364   -1.3875364  -0.59698312    0.1032898   -1.3875364   0.79055327  1070540 
 2598000    1.1026801   -1.3871329   -1.3871329  -0.59692709    0.1001266   -1.3871329   0.79020583  1070540 
 2599000    1.1029715   -1.3863805   -1.3863805  -0.59596589   0.10290617   -1.3863805   0.79041464  1070540 
 2600000     1.102603   -1.3865277   -1.3865277  -0.59637713   0.10711438   -1.3865277   0.79015055  1070540 
 2601000    1.1048701   -1.3880668   -1.3880668   -0.5962916    0.1044153   -1.3880668   0.79177521  1070540 
 2602000    1.1028359   -1.3863972   -1.3863972  -0.59607973   0.10857278   -1.3863972   0.79031752  1070540 
 2603000    1.1047436   -1.3881124   -1.3881124  -0.59642786   0.10398269   -1.3881124   0.79168458  1070540 
 2604000    1.1037235   -1.3876854   -1.3876854  -0.59673183   0.09793432   -1.3876854   0.79095355  1070540 
 2605000     1.103686   -1.3873684   -1.3873684   -0.5964417   0.10077998   -1.3873684   0.79092668  1070540 
 2606000    1.1047268    -1.388047    -1.388047  -0.59637446   0.10209338    -1.388047   0.79167252  1070540 
 2607000    1.1019558   -1.3859488   -1.3859488  -0.59626198   0.10060744   -1.3859488   0.78968679  1070540 
 2608000    1.1041077   -1.3873893   -1.3873893  -0.59616042  0.098022416   -1.3873893   0.79122886  1070540 
 2609000    1.1037704   -1.3868959   -1.3868959  -0.59590871   0.10791982   -1.3868959    0.7909872  1070540 
 2610000     1.104589   -1.3875358   -1.3875358  -0.59596196   0.10879877   -1.3875358   0.79157383  1070540 
 2611000    1.1017406   -1.3852893   -1.3852893  -0.59575678  0.099265501   -1.3852893   0.78953255  1070540 
 2612000    1.1030122    -1.385943    -1.385943  -0.59549922   0.10567666    -1.385943   0.79044382  1070540 
 2613000    1.1019526   -1.3851874   -1.3851874  -0.59550292   0.10760366   -1.3851874   0.78968446  1070540 
 2614000    1.1032991   -1.3862798   -1.3862798   -0.5956304   0.10637472   -1.3862798   0.79064945  1070540 
 2615000    1.1041573   -1.3866733   -1.3866733  -0.59540887   0.10642559   -1.3866733   0.79126445  1070540 
 2616000    1.1038576   -1.3861387   -1.3861387  -0.59508904   0.10873381   -1.3861387   0.79104969  1070540 
 2617000    1.1045393   -1.3868701   -1.3868701  -0.59533185   0.10734953   -1.3868701   0.79153821  1070540 
 2618000    1.1036144   -1.3860987   -1.3860987  -0.59522336   0.11078929   -1.3860987   0.79087538  1070540 
 2619000    1.1046815   -1.3869756   -1.3869756  -0.59533549   0.10873114   -1.3869756   0.79164011  1070540 
 2620000    1.1052912    -1.387403    -1.387403    -0.595326   0.10042638    -1.387403   0.79207704  1070540 
 2621000    1.1041168   -1.3865245   -1.3865245  -0.59528911   0.11335073   -1.3865245   0.79123542  1070540 
 2622000    1.1024412   -1.3859379   -1.3859379  -0.59590324    0.1117798   -1.3859379   0.79003467  1070540 
 2623000    1.1035342   -1.3865848   -1.3865848  -0.59576689   0.11293177   -1.3865848   0.79081791  1070540 
 2624000    1.1050355   -1.3875645   -1.3875645  -0.59567078   0.10273942   -1.3875645   0.79189376  1070540 
 2625000    1.1040612   -1.3870691   -1.3870691  -0.59587352   0.10941394   -1.3870691   0.79119559  1070540 
 2626000    1.1030631   -1.3865316   -1.3865316  -0.59605126   0.11482032   -1.3865316   0.79048032  1070540 
 2627000    1.1035636   -1.3870965   -1.3870965  -0.59625749   0.10478461   -1.3870965   0.79083899  1070540 
 2628000    1.1030439   -1.3866219   -1.3866219  -0.59615534   0.10414459   -1.3866219   0.79046652  1070540 
 2629000    1.1037352   -1.3868895   -1.3868895  -0.59592757   0.11020679   -1.3868895   0.79096192  1070540 
 2630000    1.1017075   -1.3856785   -1.3856785  -0.59616969   0.11726921   -1.3856785   0.78950882  1070540 
 2631000    1.1040343   -1.3867124   -1.3867124  -0.59553607   0.11052277   -1.3867124   0.79117629  1070540 
 2632000    1.1036071   -1.3868345   -1.3868345  -0.59596433   0.10959252   -1.3868345   0.79087014  1070540 
 2633000    1.1039402   -1.3869701   -1.3869701  -0.59586127   0.10552228   -1.3869701   0.79110883  1070540 
 2634000    1.1019671   -1.3856627   -1.3856627  -0.59596786   0.11294173   -1.3856627   0.78969486  1070540 
 2635000    1.1013088   -1.3855242   -1.3855242  -0.59630107   0.10126777   -1.3855242   0.78922311  1070540 
 2636000    1.1014779   -1.3855403   -1.3855403  -0.59619603   0.10888055   -1.3855403   0.78934429  1070540 
 2637000    1.1028981   -1.3863783   -1.3863783  -0.59601624   0.10038199   -1.3863783   0.79036203  1070540 
 2638000    1.1013207   -1.3853059   -1.3853059  -0.59607419   0.11099496   -1.3853059   0.78923167  1070540 
 2639000    1.1033193   -1.3861162   -1.3861162  -0.59545232   0.11764929   -1.3861162   0.79066392  1070540 
 2640000    1.1023019   -1.3852416   -1.3852416  -0.59530678   0.10555542   -1.3852416   0.78993482  1070540 
 2641000    1.1038122   -1.3863721   -1.3863721  -0.59535502   0.10507528   -1.3863721    0.7910171  1070540 
 2642000    1.1031456   -1.3857458   -1.3857458  -0.59520635   0.11178309   -1.3857458   0.79053941  1070540 
 2643000    1.1028526    -1.386003    -1.386003  -0.59567352   0.10380301    -1.386003   0.79032948  1070540 
 2644000    1.1023413   -1.3857048   -1.3857048  -0.59574179   0.10617745   -1.3857048   0.78996305  1070540 
 2645000     1.103862   -1.3869741   -1.3869741  -0.59592131   0.10271937   -1.3869741   0.79105282  1070540 
 2646000    1.1030939   -1.3865323   -1.3865323  -0.59602994   0.11106412   -1.3865323   0.79050234  1070540 
 2647000    1.1040638   -1.3871219   -1.3871219  -0.59592452    0.1039549   -1.3871219   0.79119742  1070540 
 2648000    1.1037289   -1.3867242   -1.3867242  -0.59576673   0.11044323   -1.3867242   0.79095745  1070540 
 2649000    1.1034605   -1.3864902   -1.3864902  -0.59572514   0.10678134   -1.3864902   0.79076506  1070540 
 2650000    1.1023997   -1.3857506   -1.3857506  -0.59574565   0.10605948   -1.3857506   0.79000492  1070540 
 2651000    1.1040624    -1.386634    -1.386634  -0.59543755   0.11002093    -1.386634   0.79119641  1070540 
 2652000     1.102113   -1.3856403   -1.3856403  -0.59584089   0.10512202   -1.3856403   0.78979943  1070540 
 2653000    1.1047059   -1.3872523   -1.3872523  -0.59559472   0.11373823   -1.3872523   0.79165755  1070540 
 2654000    1.1028975   -1.3867783   -1.3867783  -0.59641665   0.11302171   -1.3867783   0.79036161  1070540 
 2655000    1.1044365    -1.387411    -1.387411  -0.59594646   0.10450733    -1.387411   0.79146453  1070540 
 2656000    1.1034811   -1.3866491   -1.3866491  -0.59586923   0.10100614   -1.3866491   0.79077987  1070540 
 2657000    1.1044039   -1.3875075   -1.3875075  -0.59606632   0.10551537   -1.3875075   0.79144117  1070540 
 2658000    1.1055561   -1.3882712   -1.3882712  -0.59600436   0.10608607   -1.3882712   0.79226687  1070540 
 2659000    1.1048077   -1.3871982   -1.3871982   -0.5954677   0.10403571   -1.3871982   0.79173054  1070540 
 2660000    1.1048685    -1.387668    -1.387668  -0.59589385   0.10206049    -1.387668   0.79177412  1070540 
 2661000    1.1040926   -1.3872445   -1.3872445  -0.59602642   0.11120422   -1.3872445   0.79121809  1070540 
 2662000    1.1040444   -1.3872072   -1.3872072  -0.59602366   0.11367669   -1.3872072   0.79118352  1070540 
 2663000    1.1041806   -1.3872669   -1.3872669  -0.59598577   0.10819034   -1.3872669    0.7912811  1070540 
 2664000    1.1055424   -1.3879552   -1.3879552  -0.59569815   0.10093839   -1.3879552   0.79225705  1070540 
 2665000      1.10454   -1.3875698   -1.3875698  -0.59603114    0.1075501   -1.3875698   0.79153866  1070540 
 2666000    1.1030003   -1.3862251   -1.3862251  -0.59578978   0.10998548   -1.3862251   0.79043532  1070540 
 2667000    1.1047434   -1.3875069   -1.3875069  -0.59582252   0.11553619   -1.3875069   0.79168442  1070540 
 2668000    1.1033725   -1.3869791   -1.3869791  -0.59627704   0.10266599   -1.3869791   0.79070202  1070540 
 2669000    1.1030074   -1.3865611   -1.3865611  -0.59612073   0.10343338   -1.3865611   0.79044038  1070540 
 2670000     1.103735   -1.3869836   -1.3869836  -0.59602176   0.10710963   -1.3869836    0.7909618  1070540 
 2671000    1.1045642   -1.3873271   -1.3873271  -0.59577109   0.10837738   -1.3873271   0.79155604  1070540 
 2672000     1.104806   -1.3877623   -1.3877623  -0.59603296   0.11102914   -1.3877623   0.79172929  1070540 
 2673000    1.1052041   -1.3881917   -1.3881917  -0.59617708   0.11132755   -1.3881917   0.79201458  1070540 
 2674000    1.1062889   -1.3887957   -1.3887957  -0.59600366   0.10975251   -1.3887957   0.79279201  1070540 
 2675000    1.1048187    -1.387994    -1.387994  -0.59625558   0.10269983    -1.387994   0.79173837  1070540 
 2676000    1.1042224   -1.3876362   -1.3876362  -0.59632512   0.10641096   -1.3876362   0.79131106  1070540 
 2677000    1.1060089   -1.3886014   -1.3886014  -0.59601004   0.10375859   -1.3886014   0.79259133  1070540 
 2678000    1.1041476   -1.3871114   -1.3871114  -0.59585394   0.10500323   -1.3871114   0.79125746  1070540 
 2679000    1.1061092   -1.3880592   -1.3880592  -0.59539605   0.10590646   -1.3880592   0.79266318  1070540 
 2680000    1.1077537   -1.3891722   -1.3891722  -0.59533044   0.10756331   -1.3891722   0.79384172  1070540 
 2681000     1.106201   -1.3880078   -1.3880078  -0.59527883    0.1047601   -1.3880078     0.792729  1070540 
 2682000    1.1053001   -1.3876389   -1.3876389  -0.59555547   0.10791702   -1.3876389   0.79208338  1070540 
 2683000    1.1057187   -1.3873947   -1.3873947  -0.59501127   0.10502108   -1.3873947   0.79238339  1070540 
 2684000    1.1053407   -1.3875306   -1.3875306  -0.59541816   0.10984632   -1.3875306   0.79211248  1070540 
 2685000     1.103661   -1.3862927   -1.3862927  -0.59538398  0.096154318   -1.3862927   0.79090874  1070540 
 2686000    1.1033982   -1.3857674   -1.3857674  -0.59504696   0.10081595   -1.3857674   0.79072045  1070540 
 2687000    1.1041044   -1.3867275   -1.3867275  -0.59550094   0.11237183   -1.3867275   0.79122652  1070540 
 2688000    1.1050731   -1.3872795   -1.3872795  -0.59535874    0.1052886   -1.3872795   0.79192074  1070540 
 2689000    1.1027261   -1.3860378   -1.3860378  -0.59579896     0.111968   -1.3860378   0.79023882  1070540 
 2690000    1.1045728   -1.3872154   -1.3872154  -0.59565321   0.10638967   -1.3872154   0.79156219  1070540 
 2691000    1.1039732   -1.3865655   -1.3865655  -0.59543302   0.11352249   -1.3865655    0.7911325  1070540 
 2692000    1.1046904   -1.3873619   -1.3873619  -0.59571543   0.10056268   -1.3873619   0.79164644  1070540 
 2693000    1.1050389   -1.3881253   -1.3881253  -0.59622905   0.10308626   -1.3881253   0.79189624  1070540 
 2694000    1.1048795   -1.3883714   -1.3883714  -0.59658939    0.1020784   -1.3883714   0.79178196  1070540 
 2695000    1.1029547   -1.3871639   -1.3871639  -0.59676132   0.10576383   -1.3871639   0.79040261  1070540 
 2696000    1.1038672   -1.3878005   -1.3878005  -0.59674397  0.098854969   -1.3878005   0.79105651  1070540 
 2697000    1.1039167    -1.387991    -1.387991  -0.59689894   0.10846479    -1.387991   0.79109201  1070540 
 2698000     1.101958    -1.386873    -1.386873  -0.59718468   0.10803313    -1.386873   0.78968833  1070540 
 2699000    1.1048056   -1.3891337   -1.3891337  -0.59740474   0.10980165   -1.3891337   0.79172899  1070540 
 2700000    1.1037575   -1.3882417   -1.3882417  -0.59726381   0.10939333   -1.3882417   0.79097789  1070540 
 2701000    1.1051068   -1.3892484   -1.3892484  -0.59730353    0.1066871   -1.3892484   0.79194489  1070540 
 2702000    1.1023396    -1.387396    -1.387396  -0.59743423   0.11244039    -1.387396    0.7899618  1070540 
 2703000     1.102102   -1.3869859   -1.3869859  -0.59719429   0.11079195   -1.3869859   0.78979156  1070540 
 2704000    1.1032897   -1.3882854   -1.3882854  -0.59764266   0.10255418   -1.3882854   0.79064272  1070540 
 2705000    1.1051795   -1.3894404   -1.3894404  -0.59744343    0.1012998   -1.3894404     0.791997  1070540 
 2706000    1.1026974   -1.3880629   -1.3880629  -0.59784464   0.11419023   -1.3880629   0.79021821  1070540 
 2707000    1.1036477    -1.388923    -1.388923  -0.59802375   0.11261822    -1.388923   0.79089924  1070540 
 2708000    1.1026875   -1.3884472   -1.3884472  -0.59823606   0.10561484   -1.3884472   0.79021114  1070540 
 2709000    1.1026057    -1.388178    -1.388178  -0.59802549   0.10767619    -1.388178   0.79015248  1070540 
 2710000    1.1025525   -1.3883317   -1.3883317  -0.59821736   0.10447623   -1.3883317   0.79011437  1070540 
 2711000    1.1038007   -1.3890027   -1.3890027  -0.59799384   0.11070038   -1.3890027   0.79100885  1070540 
 2712000    1.1039655   -1.3887954   -1.3887954  -0.59766841   0.10895411   -1.3887954   0.79112701  1070540 
 2713000    1.1028717   -1.3881211   -1.3881211  -0.59777797    0.1094986   -1.3881211   0.79034313  1070540 
 2714000    1.1018422   -1.3874908   -1.3874908  -0.59788541   0.10192059   -1.3874908    0.7896054  1070540 
 2715000    1.1025001   -1.3880346   -1.3880346  -0.59795781   0.10471113   -1.3880346   0.79007682  1070540 
 2716000    1.1017951   -1.3871603   -1.3871603  -0.59758863   0.10375107   -1.3871603   0.78957164  1070540 
 2717000     1.103343   -1.3879021   -1.3879021  -0.59722122   0.11069556   -1.3879021   0.79068087  1070540 
 2718000    1.1041506    -1.387932    -1.387932  -0.59667236   0.10270283    -1.387932   0.79125961  1070540 
 2719000    1.1025482   -1.3867002   -1.3867002  -0.59658885   0.10306456   -1.3867002    0.7901113  1070540 
 2720000    1.1027522   -1.3866203   -1.3866203  -0.59636286   0.10918366   -1.3866203   0.79025748  1070540 
 2721000    1.1016321   -1.3862916   -1.3862916  -0.59683685    0.1089322   -1.3862916   0.78945479  1070540 
 2722000    1.1024315   -1.3869464   -1.3869464  -0.59691868    0.1052109   -1.3869464   0.79002771  1070540 
 2723000    1.1038956    -1.387803    -1.387803  -0.59672609   0.10399744    -1.387803   0.79107688  1070540 
 2724000     1.102916   -1.3869322   -1.3869322  -0.59655729   0.10140271   -1.3869322   0.79037491  1070540 
 2725000    1.1028798   -1.3865995   -1.3865995  -0.59625056   0.11066269   -1.3865995   0.79034891  1070540 
 2726000    1.1033458   -1.3865678   -1.3865678  -0.59588492    0.1040483   -1.3865678   0.79068286  1070540 
 2727000    1.1016873   -1.3852813   -1.3852813  -0.59578689   0.10505051   -1.3852813    0.7894944  1070540 
 2728000    1.1031609    -1.385957    -1.385957  -0.59540656   0.10643711    -1.385957    0.7905504  1070540 
 2729000    1.1035521   -1.3864508   -1.3864508  -0.59562005   0.09996127   -1.3864508   0.79083076  1070540 
 2730000    1.1039444   -1.3865978   -1.3865978  -0.59548593   0.10567657   -1.3865978   0.79111186  1070540 
 2731000    1.1029998   -1.3860138   -1.3860138  -0.59557887   0.10408282   -1.3860138   0.79043491  1070540 
 2732000    1.1062629   -1.3882552   -1.3882552  -0.59548187   0.10895418   -1.3882552   0.79277332  1070540 
 2733000    1.1045513   -1.3871647   -1.3871647  -0.59561794   0.10283704   -1.3871647   0.79154679  1070540 
 2734000    1.1045794   -1.3867046   -1.3867046  -0.59513765   0.10934687   -1.3867046   0.79156692  1070540 
 2735000    1.1037026   -1.3865179   -1.3865179  -0.59557938   0.10657964   -1.3865179   0.79093855  1070540 
 2736000    1.1052787   -1.3876626   -1.3876626  -0.59559459   0.11719054   -1.3876626   0.79206802  1070540 
 2737000    1.1047869   -1.3869907   -1.3869907  -0.59527508    0.1112126   -1.3869907   0.79171565  1070540 
 2738000    1.1046523   -1.3867203   -1.3867203  -0.59510112   0.10795032   -1.3867203   0.79161915  1070540 
 2739000     1.103157   -1.3861334   -1.3861334  -0.59558578   0.10193305   -1.3861334   0.79054761  1070540 
 2740000    1.1039532    -1.387124    -1.387124  -0.59600591   0.10161966    -1.387124   0.79111813  1070540 
 2741000     1.102951   -1.3865315   -1.3865315  -0.59613154    0.1013698   -1.3865315   0.79039996  1070540 
 2742000    1.1033684   -1.3864216   -1.3864216  -0.59572258   0.10717338   -1.3864216   0.79069906  1070540 
 2743000     1.104657   -1.3870435   -1.3870435  -0.59542094    0.1080891   -1.3870435   0.79162256  1070540 
 2744000    1.1047964   -1.3871387   -1.3871387  -0.59541624   0.10433394   -1.3871387   0.79172243  1070540 
 2745000    1.1046295    -1.387124    -1.387124  -0.59552126   0.10788154    -1.387124   0.79160279  1070540 
 2746000    1.1053234   -1.3876842   -1.3876842  -0.59558419   0.10916559   -1.3876842   0.79210006  1070540 
 2747000    1.1038078   -1.3867309   -1.3867309  -0.59571696   0.10592459   -1.3867309   0.79101393  1070540 
 2748000     1.104687   -1.3874329   -1.3874329  -0.59578887   0.10502733   -1.3874329   0.79164401  1070540 
 2749000    1.1056423   -1.3881686   -1.3881686  -0.59583999   0.11014148   -1.3881686   0.79232862  1070540 
 2750000    1.1043911   -1.3879857   -1.3879857  -0.59655376   0.11052348   -1.3879857   0.79143197  1070540 
 2751000    1.1025773   -1.3869733   -1.3869733  -0.59684119   0.10838041   -1.3869733   0.79013215  1070540 
 2752000    1.1059588   -1.3889853   -1.3889853  -0.59642985   0.10335665   -1.3889853   0.79255546  1070540 
 2753000    1.1043489   -1.3873794   -1.3873794  -0.59597763   0.11102767   -1.3873794   0.79140175  1070540 
 2754000    1.1044111   -1.3877973   -1.3877973  -0.59635096   0.11038497   -1.3877973   0.79144633  1070540 
 2755000    1.1052222   -1.3883345   -1.3883345  -0.59630692   0.10298459   -1.3883345   0.79202755  1070540 
 2756000     1.104981   -1.3887127   -1.3887127  -0.59685794   0.11147328   -1.3887127   0.79185474  1070540 
 2757000    1.1043828     -1.38805     -1.38805    -0.596624   0.10720804     -1.38805   0.79142599  1070540 
 2758000    1.1042139    -1.387901    -1.387901    -0.596596   0.10396859    -1.387901   0.79130501  1070540 
 2759000    1.1043196   -1.3874916   -1.3874916  -0.59611081   0.10649128   -1.3874916   0.79138074  1070540 
 2760000    1.1041734    -1.387777    -1.387777  -0.59650106   0.10979387    -1.387777   0.79127595  1070540 
 2761000    1.1035509   -1.3873478   -1.3873478   -0.5965179   0.10726372   -1.3873478   0.79082987  1070540 
 2762000    1.1036126   -1.3875582   -1.3875582  -0.59668416   0.11211197   -1.3875582   0.79087409  1070540 
 2763000    1.1032016   -1.3876404   -1.3876404  -0.59706081  0.099340382   -1.3876404   0.79057956  1070540 
 2764000    1.1045374   -1.3883602   -1.3883602  -0.59682338   0.10345197   -1.3883602   0.79153678  1070540 
 2765000    1.1046177   -1.3885975   -1.3885975  -0.59700309   0.09838236   -1.3885975   0.79159438  1070540 
 2766000    1.1031003   -1.3878207   -1.3878207  -0.59731377   0.10839646   -1.3878207   0.79050692  1070540 
 2767000    1.1044708   -1.3885086   -1.3885086  -0.59701948   0.11352994   -1.3885086    0.7914891  1070540 
 2768000     1.104055   -1.3882233   -1.3882233  -0.59703216   0.10789098   -1.3882233   0.79119114  1070540 
 2769000    1.1036702   -1.3880887   -1.3880887  -0.59717341    0.1099457   -1.3880887   0.79091533  1070540 
 2770000    1.1048723   -1.3886082   -1.3886082  -0.59683138   0.11087484   -1.3886082   0.79177679  1070540 
 2771000    1.1045659    -1.388295    -1.388295  -0.59673775   0.09958677    -1.388295   0.79155723  1070540 
 2772000    1.1038723   -1.3879987   -1.3879987  -0.59693855   0.10019042   -1.3879987   0.79106016  1070540 
 2773000     1.105465   -1.3888112   -1.3888112  -0.59660966   0.10882354   -1.3888112   0.79220157  1070540 
 2774000    1.1042817   -1.3881789   -1.3881789  -0.59682529   0.10243948   -1.3881789    0.7913536  1070540 
 2775000    1.1048691   -1.3882634   -1.3882634  -0.59648892   0.10276765   -1.3882634   0.79177452  1070540 
 2776000    1.1053902   -1.3883295   -1.3883295  -0.59618159   0.10945448   -1.3883295   0.79214795  1070540 
 2777000    1.1040852   -1.3872746   -1.3872746  -0.59606179   0.11100296   -1.3872746   0.79121277  1070540 
 2778000    1.1046369   -1.3880388   -1.3880388  -0.59643065   0.10865924   -1.3880388   0.79160815  1070540 
 2779000    1.1049227   -1.3878659   -1.3878659  -0.59605297   0.10684906   -1.3878659   0.79181296  1070540 
 2780000    1.1036187   -1.3869104   -1.3869104  -0.59603189   0.10094044   -1.3869104   0.79087847  1070540 
 2781000    1.1036425   -1.3870054   -1.3870054  -0.59610988    0.1128741   -1.3870054   0.79089554  1070540 
 2782000    1.1041451   -1.3878454   -1.3878454  -0.59658964   0.10510572   -1.3878454   0.79125572  1070540 
 2783000    1.1039191   -1.3872711   -1.3872711  -0.59617734   0.10806476   -1.3872711   0.79109374  1070540 
 2784000    1.1032376      -1.3872      -1.3872  -0.59659467   0.10403734      -1.3872   0.79060536  1070540 
 2785000    1.1036223   -1.3869363   -1.3869363  -0.59605525   0.11349138   -1.3869363   0.79088106  1070540 
 2786000    1.1029894   -1.3864209   -1.3864209  -0.59599344   0.10694675   -1.3864209   0.79042748  1070540 
 2787000    1.1039586   -1.3872909   -1.3872909  -0.59616885   0.10417215   -1.3872909   0.79112207  1070540 
 2788000    1.1047917   -1.3878038   -1.3878038  -0.59608476   0.10352447   -1.3878038   0.79171902  1070540 
 2789000    1.1048246   -1.3879655   -1.3879655  -0.59622287   0.10117459   -1.3879655    0.7917426  1070540 
 2790000    1.1044406   -1.3874564   -1.3874564  -0.59598897    0.0982124   -1.3874564   0.79146743  1070540 
 2791000    1.1040846   -1.3873603   -1.3873603  -0.59614803   0.10336549   -1.3873603   0.79121231  1070540 
 2792000    1.1028335   -1.3861659   -1.3861659  -0.59585018   0.10648658   -1.3861659   0.79031574  1070540 
 2793000    1.1039236   -1.3866875   -1.3866875  -0.59559052   0.10286058   -1.3866875   0.79109695  1070540 
 2794000    1.1044882   -1.3872471   -1.3872471   -0.5957455   0.10146844   -1.3872471   0.79150156  1070540 
 2795000    1.1031422   -1.3864125   -1.3864125  -0.59587553   0.10555545   -1.3864125     0.790537  1070540 
 2796000    1.1039315   -1.3873231   -1.3873231  -0.59622053   0.10798393   -1.3873231   0.79110261  1070540 
 2797000    1.1042484   -1.3873515   -1.3873515  -0.59602178  0.098793031   -1.3873515   0.79132974  1070540 
 2798000    1.1031318   -1.3866495   -1.3866495     -0.59612   0.10904074   -1.3866495   0.79052953  1070540 
 2799000    1.1027405   -1.3864687   -1.3864687   -0.5962196    0.1099593   -1.3864687   0.79024914  1070540 
 2800000    1.1035084   -1.3865815   -1.3865815  -0.59578213   0.11492349   -1.3865815    0.7907994  1070540 
 2801000     1.104019   -1.3867533   -1.3867533  -0.59558794   0.10712066   -1.3867533   0.79116532  1070540 
 2802000    1.1025302   -1.3859531   -1.3859531  -0.59585467   0.10630296   -1.3859531   0.79009844  1070540 
 2803000     1.104441   -1.3872384   -1.3872384  -0.59577064   0.10974473   -1.3872384   0.79146777  1070540 
 2804000    1.1053574   -1.3879382   -1.3879382  -0.59581376   0.10354751   -1.3879382   0.79212445  1070540 
 2805000     1.105053   -1.3874773   -1.3874773  -0.59557099   0.10481564   -1.3874773   0.79190632  1070540 
 2806000    1.1045456   -1.3871681   -1.3871681  -0.59562544   0.11134139   -1.3871681   0.79154269  1070540 
 2807000    1.1050801   -1.3877468   -1.3877468  -0.59582108   0.10296568   -1.3877468   0.79192576  1070540 
 2808000    1.1028551   -1.3859295   -1.3859295  -0.59559829   0.10517673   -1.3859295   0.79033121  1070540 
 2809000    1.1050609   -1.3871507   -1.3871507  -0.59523879   0.11014229   -1.3871507   0.79191194  1070540 
 2810000    1.1049726   -1.3863604   -1.3863604  -0.59451164   0.10232241   -1.3863604   0.79184871  1070540 
 2811000    1.1063783   -1.3874984   -1.3874984   -0.5946423   0.10503339   -1.3874984   0.79285607  1070540 
 2812000    1.1058392   -1.3871686   -1.3871686  -0.59469888   0.10944748   -1.3871686   0.79246975  1070540 
 2813000    1.1042979   -1.3865516   -1.3865516  -0.59518645   0.10675489   -1.3865516   0.79136517  1070540 
 2814000    1.1040583   -1.3860678   -1.3860678  -0.59487432   0.10537019   -1.3860678   0.79119351  1070540 
 2815000     1.104401   -1.3866148   -1.3866148  -0.59517572   0.10782418   -1.3866148   0.79143904  1070540 
 2816000    1.1033685   -1.3860176   -1.3860176  -0.59531844   0.10734562   -1.3860176   0.79069919  1070540 
 2817000    1.1035203   -1.3860367   -1.3860367  -0.59522876   0.10739683   -1.3860367   0.79080793  1070540 
 2818000    1.1038886   -1.3862578   -1.3862578  -0.59518589    0.1184679   -1.3862578   0.79107186  1070540 
 2819000    1.1036306   -1.3859332   -1.3859332  -0.59504623   0.10377946   -1.3859332   0.79088695  1070540 
 2820000    1.1039887   -1.3860758   -1.3860758  -0.59493219   0.11095886   -1.3860758   0.79114362  1070540 
 2821000    1.1037868   -1.3861215   -1.3861215  -0.59512261   0.10624159   -1.3861215    0.7909989  1070540 
 2822000    1.1050799   -1.3872347   -1.3872347  -0.59530909   0.10827015   -1.3872347    0.7919256  1070540 
 2823000    1.1047773   -1.3870626   -1.3870626  -0.59535388   0.10661992   -1.3870626   0.79170873  1070540 
 2824000    1.1053164   -1.3873765   -1.3873765  -0.59528147   0.11083075   -1.3873765   0.79209503  1070540 
 2825000    1.1035522   -1.3863395   -1.3863395  -0.59550868   0.10668865   -1.3863395   0.79083079  1070540 
 2826000    1.1062784   -1.3881004   -1.3881004  -0.59531594   0.11602784   -1.3881004   0.79278443  1070540 
 2827000    1.1033315   -1.3857961   -1.3857961  -0.59512347   0.10816868   -1.3857961   0.79067261  1070540 
 2828000    1.1052713    -1.387384    -1.387384  -0.59532126  0.097278472    -1.387384   0.79206274  1070540 
 2829000     1.104348   -1.3868234   -1.3868234   -0.5954223   0.11235966   -1.3868234   0.79140108  1070540 
 2830000    1.1050613    -1.387423    -1.387423  -0.59551075   0.10543212    -1.387423   0.79191222  1070540 
 2831000    1.1065348   -1.3881909   -1.3881909  -0.59522266   0.10739684   -1.3881909   0.79296819  1070540 
 2832000    1.1055946   -1.3873995   -1.3873995  -0.59510505   0.10809095   -1.3873995   0.79229444  1070540 
 2833000    1.1055463   -1.3871351   -1.3871351  -0.59487534   0.10749099   -1.3871351   0.79225981  1070540 
 2834000    1.1058511    -1.387463    -1.387463  -0.59498473   0.11765422    -1.387463   0.79247823  1070540 
 2835000    1.1051641   -1.3872082   -1.3872082  -0.59522229   0.11122326   -1.3872082   0.79198593  1070540 
 2836000    1.1058606   -1.3880592   -1.3880592  -0.59557418    0.1109237   -1.3880592   0.79248507  1070540 
 2837000    1.1040836   -1.3867417   -1.3867417  -0.59553005   0.11217437   -1.3867417   0.79121161  1070540 
 2838000    1.1041967   -1.3868304   -1.3868304  -0.59553769   0.10053584   -1.3868304   0.79129269  1070540 
 2839000    1.1043171   -1.3870005   -1.3870005  -0.59562162   0.10326753   -1.3870005   0.79137892  1070540 
 2840000    1.1042247   -1.3868108   -1.3868108  -0.59549803   0.10793327   -1.3868108   0.79131276  1070540 
 2841000    1.1043537   -1.3870076   -1.3870076   -0.5956024   0.10382419   -1.3870076   0.79140519  1070540 
 2842000    1.1058299   -1.3878789   -1.3878789  -0.59541588  0.098676603   -1.3878789   0.79246307  1070540 
 2843000    1.1047562   -1.3871322   -1.3871322  -0.59543862   0.10814971   -1.3871322   0.79169359  1070540 
 2844000    1.1050142   -1.3874483   -1.3874483  -0.59556983   0.11520765   -1.3874483   0.79187849  1070540 
 2845000    1.1066506   -1.3886938   -1.3886938  -0.59564259   0.10766813   -1.3886938   0.79305117  1070540 
 2846000    1.1034859   -1.3861546   -1.3861546  -0.59537134   0.10422357   -1.3861546   0.79078329  1070540 
 2847000    1.1061203   -1.3879788   -1.3879788  -0.59530765   0.10812122   -1.3879788   0.79267117  1070540 
 2848000     1.105288   -1.3876159   -1.3876159   -0.5955412   0.10632689   -1.3876159   0.79207472  1070540 
 2849000     1.105258   -1.3875161   -1.3875161  -0.59546289   0.10430393   -1.3875161   0.79205319  1070540 
 2850000    1.1057928   -1.3877425   -1.3877425  -0.59530603   0.11288867   -1.3877425   0.79243644  1070540 
 2851000    1.1057621   -1.3875447   -1.3875447  -0.59513025   0.11069345   -1.3875447   0.79241443  1070540 
 2852000    1.1043265   -1.3870301   -1.3870301  -0.59564434    0.1092625   -1.3870301   0.79138571  1070540 
 2853000    1.1036591   -1.3863427   -1.3863427  -0.59543527   0.11129485   -1.3863427   0.79090743  1070540 
 2854000    1.1044041   -1.3867765   -1.3867765  -0.59533516   0.11118905   -1.3867765   0.79144132  1070540 
 2855000     1.105679   -1.3876916   -1.3876916  -0.59533673   0.10990384   -1.3876916    0.7923549  1070540 
 2856000    1.1045446   -1.3870479   -1.3870479  -0.59550594   0.10882689   -1.3870479   0.79154194  1070540 
 2857000    1.1059831   -1.3877145   -1.3877145  -0.59514166   0.10606989   -1.3877145   0.79257281  1070540 
 2858000    1.1052427    -1.387163    -1.387163  -0.59512074  0.099647514    -1.387163   0.79204227  1070540 
 2859000     1.104803   -1.3865591   -1.3865591   -0.5948319   0.10895644   -1.3865591   0.79172718  1070540 
 2860000    1.1035445    -1.385834    -1.385834   -0.5950087   0.10431224    -1.385834    0.7908253  1070540 
 2861000    1.1050207   -1.3868777   -1.3868777  -0.59499456   0.10034486   -1.3868777   0.79188318  1070540 
 2862000    1.1057392   -1.3871434   -1.3871434   -0.5947454   0.11005321   -1.3871434   0.79239803  1070540 
 2863000    1.1055369   -1.3869236   -1.3869236  -0.59467049   0.10713664   -1.3869236   0.79225309  1070540 
 2864000    1.1054597    -1.386456    -1.386456  -0.59425822   0.10211911    -1.386456   0.79219779  1070540 
 2865000    1.1042015   -1.3860155   -1.3860155  -0.59471942   0.10794001   -1.3860155   0.79129611  1070540 
 2866000    1.1051313    -1.386395    -1.386395   -0.5944326  0.098166441    -1.386395   0.79196243  1070540 
 2867000    1.1066743   -1.3880078   -1.3880078  -0.59493962   0.10353352   -1.3880078   0.79306814  1070540 
 2868000    1.1058529   -1.3870795   -1.3870795  -0.59460005    0.1072117   -1.3870795    0.7924795  1070540 
 2869000    1.1043521   -1.3862631   -1.3862631  -0.59485905   0.11198163   -1.3862631   0.79140406  1070540 
 2870000    1.1050191   -1.3865055   -1.3865055   -0.5946235   0.10748979   -1.3865055     0.791882  1070540 
 2871000    1.1055325   -1.3872228   -1.3872228  -0.59497285   0.10229619   -1.3872228   0.79224993  1070540 
 2872000    1.1059834   -1.3878188   -1.3878188  -0.59524576   0.10504834   -1.3878188   0.79257307  1070540 
 2873000    1.1046728   -1.3871297   -1.3871297  -0.59549592   0.10454254   -1.3871297   0.79163382  1070540 
 2874000    1.1039463   -1.3866055   -1.3866055  -0.59549229   0.11705251   -1.3866055   0.79111319  1070540 
 2875000     1.105302   -1.3874152   -1.3874152  -0.59533046   0.11407151   -1.3874152   0.79208473  1070540 
 2876000    1.1047739   -1.3876016   -1.3876016  -0.59589532   0.10525089   -1.3876016   0.79170628  1070540 
 2877000    1.1047079   -1.3873622   -1.3873622  -0.59570319   0.10373515   -1.3873622   0.79165899  1070540 
 2878000    1.1046525   -1.3871635   -1.3871635  -0.59554421   0.11091798   -1.3871635   0.79161932  1070540 
 2879000    1.1045965   -1.3876498   -1.3876498  -0.59607062   0.10755442   -1.3876498   0.79157918  1070540 
 2880000    1.1047504   -1.3876372   -1.3876372  -0.59594771    0.1045623   -1.3876372   0.79168946  1070540 
 2881000    1.1035143   -1.3865094   -1.3865094  -0.59570571   0.10597481   -1.3865094   0.79080366  1070540 
 2882000    1.1058106   -1.3872543   -1.3872543  -0.59480504   0.11337263   -1.3872543   0.79244922  1070540 
 2883000    1.1049565   -1.3867909   -1.3867909  -0.59495375   0.11085539   -1.3867909   0.79183718  1070540 
 2884000     1.103537   -1.3866823   -1.3866823  -0.59586242   0.11047889   -1.3866823   0.79081991  1070540 
 2885000    1.1053086   -1.3876254   -1.3876254  -0.59553585   0.11169797   -1.3876254    0.7920895  1070540 
 2886000    1.1047882   -1.3867411   -1.3867411  -0.59502458   0.10240731   -1.3867411   0.79171655  1070540 
 2887000    1.1062074   -1.3876244   -1.3876244  -0.59489082   0.11101281   -1.3876244   0.79273357  1070540 
 2888000    1.1064773   -1.3874999   -1.3874999  -0.59457294   0.11553737   -1.3874999   0.79292699  1070540 
 2889000    1.1056655   -1.3873468   -1.3873468  -0.59500155   0.10548832   -1.3873468   0.79234525  1070540 
 2890000     1.106064   -1.3876835   -1.3876835  -0.59505273   0.10669011   -1.3876835   0.79263079  1070540 
 2891000    1.1065568   -1.3877889   -1.3877889  -0.59480492    0.1095706   -1.3877889   0.79298399  1070540 
 2892000    1.1058323   -1.3877638   -1.3877638  -0.59529901   0.11049124   -1.3877638   0.79246479  1070540 
 2893000    1.1055805   -1.3875028   -1.3875028   -0.5952185   0.10508204   -1.3875028   0.79228432  1070540 
 2894000    1.1073147   -1.3888671   -1.3888671     -0.59534   0.10818837   -1.3888671   0.79352711  1070540 
 2895000    1.1069888   -1.3884097   -1.3884097  -0.59511618   0.11157867   -1.3884097   0.79329351  1070540 
 2896000    1.1042962   -1.3865641   -1.3865641  -0.59520019   0.10854698   -1.3865641   0.79136394  1070540 
 2897000    1.1054634   -1.3872908   -1.3872908  -0.59509039   0.11118264   -1.3872908   0.79220039  1070540 
 2898000      1.10545   -1.3874014   -1.3874014  -0.59521064   0.11208692   -1.3874014    0.7921908  1070540 
 2899000    1.1063091   -1.3878341   -1.3878341  -0.59502772   0.10875123   -1.3878341   0.79280643  1070540 
 2900000    1.1059325   -1.3876974   -1.3876974  -0.59516082  0.096728167   -1.3876974   0.79253656  1070540 
 2901000    1.1050807   -1.3871012   -1.3871012  -0.59517504   0.10102384   -1.3871012   0.79192617  1070540 
 2902000    1.1047499   -1.3871259   -1.3871259  -0.59543675   0.11185108   -1.3871259   0.79168913  1070540 
 2903000    1.1060714   -1.3876895   -1.3876895  -0.59505342   0.10811002   -1.3876895    0.7926361  1070540 
 2904000    1.1044745    -1.386792    -1.386792  -0.59530031   0.10810294    -1.386792   0.79149173  1070540 
 2905000    1.1045064   -1.3868397   -1.3868397  -0.59532505   0.11562882   -1.3868397   0.79151463  1070540 
 2906000    1.1062577   -1.3878898   -1.3878898  -0.59512015    0.1143842   -1.3878898   0.79276962  1070540 
 2907000    1.1048393    -1.387033    -1.387033  -0.59527982   0.10625358    -1.387033   0.79175315  1070540 
 2908000    1.1041461    -1.386421    -1.386421  -0.59516459   0.10039486    -1.386421   0.79125641  1070540 
 2909000    1.1057434   -1.3871198   -1.3871198  -0.59471879   0.10586774   -1.3871198   0.79240105  1070540 
 2910000    1.1038439   -1.3865217   -1.3865217  -0.59548187   0.11195914   -1.3865217    0.7910398  1070540 
 2911000    1.1051505   -1.3871936   -1.3871936  -0.59521737    0.1128055   -1.3871936    0.7919762  1070540 
 2912000    1.1069241     -1.38858     -1.38858  -0.59533279   0.10107519     -1.38858   0.79324717  1070540 
 2913000    1.1071713   -1.3887727   -1.3887727  -0.59534839   0.10099522   -1.3887727   0.79342431  1070540 
 2914000    1.1069269    -1.388313    -1.388313  -0.59506384   0.10663356    -1.388313    0.7932492  1070540 
 2915000    1.1060313   -1.3874544   -1.3874544  -0.59484701   0.10821954   -1.3874544   0.79260737  1070540 
 2916000    1.1042119   -1.3861753   -1.3861753   -0.5948717   0.11577028   -1.3861753   0.79130358  1070540 
 2917000    1.1066886   -1.3875422   -1.3875422  -0.59446379   0.10201303   -1.3875422   0.79307841  1070540 
 2918000    1.1063341   -1.3879498   -1.3879498  -0.59512544   0.10239265   -1.3879498    0.7928244  1070540 
 2919000    1.1050556   -1.3872534   -1.3872534  -0.59534527   0.10363492   -1.3872534   0.79190817  1070540 
 2920000    1.1061084   -1.3875014   -1.3875014  -0.59483875   0.11537966   -1.3875014   0.79266266  1070540 
 2921000    1.1060562   -1.3870243   -1.3870243  -0.59439902   0.11376541   -1.3870243   0.79262525  1070540 
 2922000    1.1062657   -1.3875987   -1.3875987  -0.59482334    0.1065226   -1.3875987   0.79277532  1070540 
 2923000    1.1051559   -1.3868347   -1.3868347  -0.59485473   0.10829345   -1.3868347   0.79198002  1070540 
 2924000    1.1040153   -1.3862146   -1.3862146  -0.59505191   0.10901338   -1.3862146    0.7911627  1070540 
 2925000    1.1061936   -1.3876749   -1.3876749  -0.59495121   0.10703732   -1.3876749   0.79272366  1070540 
 2926000    1.1046087   -1.3864731   -1.3864731  -0.59488518   0.10796664   -1.3864731   0.79158792  1070540 
 2927000    1.1045844   -1.3864559   -1.3864559  -0.59488539    0.1022793   -1.3864559   0.79157048  1070540 
 2928000    1.1056807   -1.3869095   -1.3869095   -0.5945534   0.10935443   -1.3869095   0.79235612  1070540 
 2929000    1.1057554   -1.3872681   -1.3872681  -0.59485839   0.10326855   -1.3872681   0.79240966  1070540 
 2930000    1.1069277   -1.3884888   -1.3884888  -0.59523906   0.11542365   -1.3884888   0.79324975  1070540 
 2931000    1.1054157   -1.3876937   -1.3876937  -0.59552755   0.10362302   -1.3876937    0.7921662  1070540 
 2932000    1.1055191    -1.387794    -1.387794  -0.59555369   0.10909834    -1.387794   0.79224033  1070540 
 2933000    1.1035034   -1.3864586   -1.3864586  -0.59566276   0.11088031   -1.3864586   0.79079583  1070540 
 2934000    1.1057762   -1.3883131   -1.3883131  -0.59588854  0.096292223   -1.3883131   0.79242457  1070540 
 2935000    1.1043368   -1.3872754   -1.3872754  -0.59588232   0.10716535   -1.3872754   0.79139303  1070540 
 2936000    1.1069177   -1.3892544   -1.3892544  -0.59601175    0.1082101   -1.3892544   0.79324262  1070540 
 2937000    1.1067646   -1.3886206   -1.3886206  -0.59548769   0.10999163   -1.3886206   0.79313288  1070540 
 2938000     1.105159   -1.3876781   -1.3876781  -0.59569583   0.10349459   -1.3876781   0.79198229  1070540 
 2939000    1.1060249   -1.3881064   -1.3881064  -0.59550365   0.10801196   -1.3881064   0.79260279  1070540 
 2940000    1.1058437   -1.3878786   -1.3878786   -0.5954057   0.10848497   -1.3878786   0.79247291  1070540 
 2941000    1.1059244   -1.3878743   -1.3878743  -0.59534358   0.11012866   -1.3878743   0.79253075  1070540 
 2942000    1.1047273   -1.3868068   -1.3868068  -0.59513393   0.10863723   -1.3868068   0.79167291  1070540 
 2943000    1.1053952   -1.3875461   -1.3875461  -0.59539458   0.11268401   -1.3875461   0.79215155  1070540 
 2944000    1.1057415   -1.3875627   -1.3875627  -0.59516299   0.11067835   -1.3875627   0.79239973  1070540 
 2945000    1.1055595   -1.3875794   -1.3875794  -0.59531007   0.11510005   -1.3875794    0.7922693  1070540 
 2946000    1.1056656   -1.3872922   -1.3872922  -0.59494683   0.10506794   -1.3872922   0.79234533  1070540 
 2947000    1.1048871   -1.3871032   -1.3871032  -0.59531581   0.11109914   -1.3871032   0.79178744  1070540 
 2948000    1.1070086   -1.3886553   -1.3886553  -0.59534753   0.11207903   -1.3886553   0.79330772  1070540 
 2949000    1.1062943   -1.3881492   -1.3881492  -0.59535337   0.10301776   -1.3881492   0.79279588  1070540 
 2950000    1.1069195   -1.3886593   -1.3886593  -0.59541547   0.10741628   -1.3886593   0.79324387  1070540 
 2951000    1.1043948   -1.3865055   -1.3865055  -0.59507091   0.11889412   -1.3865055   0.79143459  1070540 
 2952000    1.1052619    -1.387392    -1.387392  -0.59533598   0.10678842    -1.387392   0.79205604  1070540 
 2953000    1.1052225   -1.3869971   -1.3869971  -0.59496937   0.10310456   -1.3869971   0.79202777  1070540 
 2954000    1.1056338    -1.387273    -1.387273   -0.5949505   0.10940211    -1.387273   0.79232254  1070540 
 2955000    1.1055736   -1.3871227   -1.3871227  -0.59484336   0.10648248   -1.3871227   0.79227937  1070540 
 2956000    1.1051049    -1.387208    -1.387208  -0.59526443    0.1170772    -1.387208   0.79194352  1070540 
 2957000    1.1050092   -1.3869952   -1.3869952  -0.59512027   0.10916436   -1.3869952    0.7918749  1070540 
 2958000    1.1062466   -1.3877814   -1.3877814   -0.5950197   0.11753495   -1.3877814    0.7927617  1070540 
 2959000    1.1070128   -1.3878226   -1.3878226  -0.59451186   0.10713732   -1.3878226   0.79331071  1070540 
 2960000    1.1054193   -1.3865152   -1.3865152  -0.59434646    0.1083486   -1.3865152   0.79216877  1070540 
 2961000      1.10631   -1.3872444   -1.3872444  -0.59443729   0.11256013   -1.3872444    0.7928071  1070540 
 2962000    1.1065194    -1.387269    -1.387269  -0.59431187   0.10542188    -1.387269   0.79295714  1070540 
 2963000    1.1041252   -1.3857148   -1.3857148  -0.59447334   0.10429153   -1.3857148   0.79124143  1070540 
 2964000    1.1052475   -1.3863866   -1.3863866  -0.59434093   0.11533026   -1.3863866   0.79204566  1070540 
 2965000    1.1074833   -1.3881173   -1.3881173  -0.59446936   0.10672503   -1.3881173   0.79364791  1070540 
 2966000    1.1083297   -1.3886451   -1.3886451  -0.59439069   0.10483012   -1.3886451   0.79425445  1070540 
 2967000    1.1069818   -1.3880103   -1.3880103  -0.59472172   0.10467918   -1.3880103   0.79328856  1070540 
 2968000    1.1070708   -1.3880761   -1.3880761  -0.59472377   0.10773023   -1.3880761   0.79335233  1070540 
 2969000    1.1081316   -1.3888487   -1.3888487  -0.59473624   0.11481286   -1.3888487   0.79411247  1070540 
 2970000    1.1073521   -1.3885446   -1.3885446   -0.5949907   0.11061295   -1.3885446   0.79355392  1070540 
 2971000    1.1073052   -1.3878097   -1.3878097  -0.59428934   0.11160928   -1.3878097   0.79352031  1070540 
 2972000    1.1063795   -1.3877577   -1.3877577  -0.59490081    0.1104297   -1.3877577   0.79285688  1070540 
 2973000    1.1052793   -1.3870666   -1.3870666  -0.59499807   0.10393046   -1.3870666   0.79206851  1070540 
 2974000    1.1046669   -1.3864591   -1.3864591  -0.59482947   0.10565509   -1.3864591   0.79162963  1070540 
 2975000    1.1062077   -1.3874726   -1.3874726  -0.59473882   0.11203387   -1.3874726   0.79273377  1070540 
 2976000    1.1034985   -1.3855812   -1.3855812  -0.59478893  0.099968864   -1.3855812    0.7907923  1070540 
 2977000    1.1048694   -1.3870939   -1.3870939  -0.59531911   0.10073129   -1.3870939   0.79177474  1070540 
 2978000    1.1039408   -1.3865395   -1.3865395  -0.59543023   0.11261901   -1.3865395   0.79110925  1070540 
 2979000    1.1049588   -1.3868087   -1.3868087  -0.59496989   0.10660213   -1.3868087   0.79183879  1070540 
 2980000    1.1056313   -1.3869452   -1.3869452  -0.59462453   0.10453828   -1.3869452   0.79232072  1070540 
 2981000    1.1044617   -1.3861885   -1.3861885  -0.59470587   0.10860252   -1.3861885    0.7914826  1070540 
 2982000    1.1058542    -1.387296    -1.387296  -0.59481555   0.10511537    -1.387296   0.79248046  1070540 
 2983000    1.1048129   -1.3867591   -1.3867591  -0.59502489   0.11333699   -1.3867591   0.79173422  1070540 
 2984000    1.1052347   -1.3868149   -1.3868149  -0.59477846   0.10966015   -1.3868149   0.79203649  1070540 
 2985000     1.106098   -1.3877937   -1.3877937  -0.59513856   0.10140745   -1.3877937   0.79265518  1070540 
 2986000    1.1066804   -1.3882456   -1.3882456  -0.59517308   0.10695286   -1.3882456   0.79307253  1070540 
 2987000    1.1052245   -1.3872245   -1.3872245  -0.59519531   0.10269745   -1.3872245   0.79202918  1070540 
 2988000    1.1052104   -1.3871227   -1.3871227  -0.59510353   0.10470983   -1.3871227   0.79201914  1070540 
 2989000    1.1073178   -1.3879561   -1.3879561  -0.59442677   0.11323728   -1.3879561   0.79352932  1070540 
 2990000     1.106354   -1.3868119   -1.3868119  -0.59397328   0.11227182   -1.3868119   0.79283861  1070540 
 2991000    1.1083927   -1.3886719   -1.3886719  -0.59437225   0.10348948   -1.3886719   0.79429963  1070540 
 2992000    1.1070602   -1.3879146   -1.3879146  -0.59456992   0.10754631   -1.3879146    0.7933447  1070540 
 2993000    1.1069694   -1.3876377   -1.3876377  -0.59435812   0.11475561   -1.3876377   0.79327963  1070540 
 2994000    1.1080839   -1.3885459   -1.3885459   -0.5944676   0.11735626   -1.3885459   0.79407834  1070540 
 2995000    1.1066258   -1.3877244   -1.3877244  -0.59469102   0.11026305   -1.3877244    0.7930334  1070540 
 2996000    1.1076688   -1.3884833   -1.3884833  -0.59470244  0.099181457   -1.3884833   0.79378084  1070540 
 2997000    1.1057868   -1.3879192   -1.3879192    -0.595487   0.10255921   -1.3879192   0.79243216  1070540 
 2998000     1.107165   -1.3883979   -1.3883979  -0.59497804   0.11209996   -1.3883979   0.79341983  1070540 
 2999000    1.1062002   -1.3876913   -1.3876913  -0.59496291    0.1027827   -1.3876913   0.79272843  1070540 
 3000000    1.1063272   -1.3878682   -1.3878682  -0.59504873   0.10934978   -1.3878682   0.79281945  1070540 
 3001000    1.1058481   -1.3876679   -1.3876679  -0.59519184   0.11306895   -1.3876679   0.79247608  1070540 
 3002000     1.105569   -1.3869527   -1.3869527   -0.5946766   0.10606439   -1.3869527   0.79227607  1070540 
 3003000      1.10721   -1.3882006   -1.3882006  -0.59474856   0.10803069   -1.3882006   0.79345206  1070540 
 3004000    1.1060547   -1.3877753   -1.3877753   -0.5951511   0.11051937   -1.3877753   0.79262417  1070540 
 3005000    1.1073057   -1.3886021   -1.3886021  -0.59508142   0.10366688   -1.3886021   0.79352067  1070540 
 3006000    1.1057319   -1.3878506   -1.3878506  -0.59545781   0.11373137   -1.3878506   0.79239282  1070540 
 3007000    1.1059727   -1.3878832   -1.3878832  -0.59531781   0.10624667   -1.3878832   0.79256541  1070540 
 3008000    1.1058946   -1.3877016   -1.3877016  -0.59519214  0.097169315   -1.3877016   0.79250941  1070540 
 3009000    1.1060053   -1.3876665   -1.3876665  -0.59507776   0.10326266   -1.3876665   0.79258876  1070540 
 3010000    1.1052086   -1.3865995   -1.3865995  -0.59458175   0.11157285   -1.3865995   0.79201778  1070540 
 3011000    1.1061673   -1.3873517   -1.3873517  -0.59464687   0.10934425   -1.3873517   0.79270486  1070540 
 3012000    1.1056671   -1.3871264   -1.3871264  -0.59478002   0.11012238   -1.3871264    0.7923464  1070540 
 3013000    1.1046118   -1.3865988   -1.3865988  -0.59500861   0.10876557   -1.3865988   0.79159016  1070540 
 3014000    1.1052686   -1.3864437   -1.3864437  -0.59438296   0.10661772   -1.3864437   0.79206078  1070540 
 3015000    1.1055706   -1.3869664   -1.3869664  -0.59468917   0.10833357   -1.3869664   0.79227725  1070540 
 3016000    1.1070216   -1.3882849   -1.3882849   -0.5949679   0.11228695   -1.3882849   0.79331703  1070540 
 3017000    1.1066033   -1.3877406   -1.3877406  -0.59472324   0.11238264   -1.3877406   0.79301732  1070540 
 3018000    1.1047216   -1.3863794   -1.3863794  -0.59471058   0.11414976   -1.3863794   0.79166883  1070540 
 3019000    1.1057054   -1.3875018   -1.3875018  -0.59512799   0.11124761   -1.3875018   0.79237385  1070540 
 3020000    1.1052511   -1.3871263   -1.3871263    -0.595078   0.10064492   -1.3871263   0.79204829  1070540 
 3021000    1.1051328    -1.386871    -1.386871  -0.59490753   0.11167514    -1.386871    0.7919635  1070540 
 3022000    1.1049337   -1.3867172   -1.3867172  -0.59489641   0.10726396   -1.3867172   0.79182078  1070540 
 3023000    1.1043737   -1.3864628   -1.3864628   -0.5950433   0.10589898   -1.3864628   0.79141951  1070540 
 3024000    1.1057271   -1.3880203   -1.3880203  -0.59563088    0.1066114   -1.3880203    0.7923894  1070540 
 3025000    1.1056494    -1.387931    -1.387931   -0.5955973   0.10588279    -1.387931   0.79233373  1070540 
 3026000    1.1055658   -1.3873786   -1.3873786  -0.59510479    0.1151131   -1.3873786   0.79227379  1070540 
 3027000    1.1078684   -1.3891726   -1.3891726  -0.59524872   0.10716882   -1.3891726   0.79392387  1070540 
 3028000    1.1050643    -1.387417    -1.387417  -0.59550261   0.11057803    -1.387417   0.79191442  1070540 
 3029000    1.1051239   -1.3882884   -1.3882884  -0.59633131   0.10600913   -1.3882884   0.79195712  1070540 
 3030000    1.1058301   -1.3882378   -1.3882378  -0.59577461   0.10756916   -1.3882378   0.79246321  1070540 
 3031000    1.1055453   -1.3880242   -1.3880242   -0.5957651   0.10500874   -1.3880242   0.79225911  1070540 
 3032000    1.1061682   -1.3887553   -1.3887553   -0.5960498   0.10876035   -1.3887553   0.79270546  1070540 
 3033000    1.1050235   -1.3879202   -1.3879202  -0.59603509      0.10523   -1.3879202   0.79188515  1070540 
 3034000    1.1047939   -1.3876458   -1.3876458   -0.5959252   0.11389232   -1.3876458   0.79172063  1070540 
 3035000    1.1066584   -1.3888835   -1.3888835  -0.59582677   0.10599482   -1.3888835   0.79305675  1070540 
 3036000    1.1053268   -1.3879297   -1.3879297  -0.59582721   0.10447023   -1.3879297   0.79210253  1070540 
 3037000    1.1046916    -1.387429    -1.387429  -0.59578171   0.10535227    -1.387429    0.7916473  1070540 
 3038000    1.1044418   -1.3872966   -1.3872966  -0.59582835   0.10716035   -1.3872966   0.79146828  1070540 
 3039000    1.1055904   -1.3881646   -1.3881646  -0.59587314   0.10679431   -1.3881646   0.79229142  1070540 
 3040000    1.1060894   -1.3884978   -1.3884978  -0.59584873  0.097976101   -1.3884978   0.79264905  1070540 
 3041000    1.1045772    -1.387383    -1.387383  -0.59581759   0.10377579    -1.387383   0.79156537  1070540 
 3042000    1.1034431   -1.3871065   -1.3871065  -0.59635386   0.11122931   -1.3871065    0.7907526  1070540 
 3043000    1.1044071   -1.3874732   -1.3874732  -0.59602978   0.10709705   -1.3874732   0.79144345  1070540 
 3044000    1.1059709   -1.3881916   -1.3881916  -0.59562756    0.1033781   -1.3881916   0.79256407  1070540 
 3045000    1.1056717   -1.3880557   -1.3880557  -0.59570595  0.099371382   -1.3880557    0.7923497  1070540 
 3046000    1.1049674   -1.3877329   -1.3877329  -0.59588792   0.10662869   -1.3877329   0.79184494  1070540 
 3047000    1.1070418   -1.3885646   -1.3885646  -0.59523306   0.11314608   -1.3885646    0.7933315  1070540 
 3048000    1.1050158   -1.3872102   -1.3872102   -0.5953305     0.113731   -1.3872102   0.79187967  1070540 
 3049000    1.1051258   -1.3872199   -1.3872199  -0.59526136   0.10874051   -1.3872199   0.79195851  1070540 
 3050000    1.1062949   -1.3879346   -1.3879346  -0.59513839   0.10759648   -1.3879346   0.79279625  1070540 
 3051000    1.1066914   -1.3883339   -1.3883339  -0.59525352   0.10553404   -1.3883339   0.79308039  1070540 
 3052000    1.1070222   -1.3888266   -1.3888266  -0.59550912   0.11311566   -1.3888266    0.7933175  1070540 
 3053000     1.106044   -1.3876895   -1.3876895  -0.59507302   0.10862487   -1.3876895   0.79261645  1070540 
 3054000     1.106413   -1.3879747   -1.3879747  -0.59509372   0.10441862   -1.3879747   0.79288094  1070540 
 3055000    1.1061527   -1.3873644   -1.3873644  -0.59466998   0.10916965   -1.3873644   0.79269441  1070540 
 3056000     1.106488   -1.3879542   -1.3879542  -0.59501957   0.11505289   -1.3879542   0.79293463  1070540 
 3057000    1.1063094   -1.3876423   -1.3876423  -0.59483563    0.1143789   -1.3876423   0.79280664  1070540 
 3058000    1.1067564   -1.3884504   -1.3884504  -0.59532341   0.10425978   -1.3884504     0.793127  1070540 
 3059000    1.1060422    -1.387895    -1.387895  -0.59527983   0.10536795    -1.387895   0.79261519  1070540 
 3060000    1.1043088   -1.3872648   -1.3872648  -0.59589184   0.11362517   -1.3872648   0.79137298  1070540 
 3061000    1.1048611   -1.3877057   -1.3877057  -0.59593692   0.10579395   -1.3877057   0.79176879  1070540 
 3062000    1.1049297   -1.3874328   -1.3874328  -0.59561492   0.10673731   -1.3874328   0.79181792  1070540 
 3063000    1.1056976   -1.3878634   -1.3878634  -0.59549514    0.1131538   -1.3878634   0.79236827  1070540 
 3064000    1.1059927   -1.3880314   -1.3880314  -0.59545171   0.11123192   -1.3880314    0.7925797  1070540 
 3065000    1.1065048    -1.388865    -1.388865  -0.59591827   0.11283979    -1.388865    0.7929467  1070540 
 3066000    1.1045155   -1.3874137   -1.3874137  -0.59589256   0.10505637   -1.3874137   0.79152115  1070540 
 3067000    1.1042804   -1.3874863   -1.3874863  -0.59613361   0.10838901   -1.3874863   0.79135265  1070540 
 3068000    1.1063978   -1.3890162   -1.3890162   -0.5961462   0.11298775   -1.3890162      0.79287  1070540 
 3069000    1.1055017   -1.3881745   -1.3881745   -0.5959466   0.10140953   -1.3881745   0.79222787  1070540 
 3070000    1.1053433    -1.388676    -1.388676  -0.59656158   0.11422015    -1.388676   0.79211437  1070540 
 3071000    1.1044064   -1.3877349   -1.3877349  -0.59629195   0.11646263   -1.3877349   0.79144295  1070540 
 3072000    1.1050891   -1.3880242   -1.3880242  -0.59609206     0.110469   -1.3880242   0.79193217  1070540 
 3073000    1.1073101   -1.3893617   -1.3893617  -0.59583787    0.1004182   -1.3893617   0.79352379  1070540 
 3074000    1.1047945   -1.3874195   -1.3874195  -0.59569839   0.10641101   -1.3874195   0.79172108  1070540 
 3075000    1.1043338   -1.3867334   -1.3867334  -0.59534253    0.1075201   -1.3867334   0.79139089  1070540 
 3076000    1.1063959   -1.3884509   -1.3884509  -0.59558226   0.10423607   -1.3884509   0.79286869  1070540 
 3077000    1.1051234   -1.3874023   -1.3874023  -0.59544558   0.10659881   -1.3874023   0.79195677  1070540 
 3078000     1.105777   -1.3877866   -1.3877866  -0.59536149   0.10186587   -1.3877866   0.79242513  1070540 
 3079000    1.1039276   -1.3869429   -1.3869429  -0.59584309   0.10683722   -1.3869429   0.79109981  1070540 
 3080000    1.1065748   -1.3886334   -1.3886334  -0.59563656   0.10775123   -1.3886334   0.79299687  1070540 
 3081000    1.1076701   -1.3893293   -1.3893293  -0.59554756   0.11624535   -1.3893293   0.79378179  1070540 
 3082000    1.1063648   -1.3880358   -1.3880358  -0.59518948   0.10730424   -1.3880358   0.79284636  1070540 
 3083000    1.1067379   -1.3887326   -1.3887326  -0.59561884   0.10594608   -1.3887326   0.79311373  1070540 
 3084000    1.1061063   -1.3883775   -1.3883775  -0.59571638   0.10787079   -1.3883775   0.79266113  1070540 
 3085000    1.1064143   -1.3888138   -1.3888138  -0.59593197   0.10898072   -1.3888138   0.79288186  1070540 
 3086000    1.1068224   -1.3889741   -1.3889741  -0.59579977   0.10545048   -1.3889741   0.79317431  1070540 
 3087000    1.1051142   -1.3879406   -1.3879406  -0.59599043    0.1140863   -1.3879406   0.79195017  1070540 
 3088000     1.105223   -1.3878811   -1.3878811  -0.59585294   0.11345208   -1.3878811   0.79202815  1070540 
 3089000    1.1057526    -1.387729    -1.387729  -0.59532131   0.10857233    -1.387729   0.79240768  1070540 
 3090000    1.1061729   -1.3883904   -1.3883904  -0.59568154   0.11070187   -1.3883904   0.79270887  1070540 
 3091000     1.105106   -1.3874289   -1.3874289  -0.59548459    0.1054268   -1.3874289   0.79194428  1070540 
 3092000    1.1069505   -1.3887411   -1.3887411  -0.59547498   0.10521453   -1.3887411   0.79326608  1070540 
 3093000    1.1058697   -1.3880151   -1.3880151  -0.59552354   0.10899876   -1.3880151   0.79249159  1070540 
 3094000    1.1060542   -1.3873881   -1.3873881  -0.59476437   0.10700421   -1.3873881   0.79262377  1070540 
 3095000    1.1060587    -1.387318    -1.387318  -0.59469099   0.10890018    -1.387318   0.79262705  1070540 
 3096000    1.1061371   -1.3876837   -1.3876837  -0.59500048   0.10734825   -1.3876837   0.79268319  1070540 
 3097000    1.1061587   -1.3878104   -1.3878104  -0.59511174   0.10541519   -1.3878104   0.79269868  1070540 
 3098000    1.1070849   -1.3885587   -1.3885587  -0.59519629   0.11251356   -1.3885587    0.7933624  1070540 
 3099000    1.1052528   -1.3874242   -1.3874242  -0.59537471   0.10934173   -1.3874242   0.79204949  1070540 
 3100000    1.1059173   -1.3880638   -1.3880638  -0.59553811   0.10871527   -1.3880638   0.79252568  1070540 
 3101000     1.106151   -1.3878779   -1.3878779  -0.59518476   0.11144176   -1.3878779   0.79269313  1070540 
 3102000    1.1062105   -1.3878492   -1.3878492  -0.59511341   0.10607898   -1.3878492   0.79273582  1070540 
 3103000    1.1057576   -1.3876301   -1.3876301  -0.59521884   0.11265129   -1.3876301   0.79241123  1070540 
 3104000    1.1056576   -1.3871726   -1.3871726  -0.59483304   0.10784961   -1.3871726   0.79233959  1070540 
 3105000     1.106199   -1.3878899   -1.3878899  -0.59516238   0.10880553   -1.3878899   0.79272753  1070540 
 3106000    1.1054348   -1.3873542   -1.3873542  -0.59517427   0.10906868   -1.3873542   0.79217991  1070540 
 3107000     1.105689   -1.3874134   -1.3874134  -0.59505131    0.1050721   -1.3874134    0.7923621  1070540 
 3108000    1.1082885   -1.3888688   -1.3888688  -0.59464381   0.11074445   -1.3888688   0.79422495  1070540 
 3109000     1.107806   -1.3887962   -1.3887962  -0.59491704   0.10776947   -1.3887962   0.79387915  1070540 
 3110000    1.1070489   -1.3885625   -1.3885625  -0.59522586   0.10855612   -1.3885625   0.79333661  1070540 
 3111000    1.1066302   -1.3882189   -1.3882189  -0.59518229  0.099644033   -1.3882189    0.7930366  1070540 
 3112000    1.1055947   -1.3878458   -1.3878458  -0.59555131   0.10711374   -1.3878458   0.79229454  1070540 
 3113000    1.1063166   -1.3883021   -1.3883021  -0.59549021   0.10935535   -1.3883021   0.79281185  1070540 
 3114000     1.106414   -1.3882214   -1.3882214  -0.59533977    0.1121603   -1.3882214   0.79288163  1070540 
 3115000    1.1071067   -1.3886783   -1.3886783  -0.59530028   0.11329528   -1.3886783   0.79337802  1070540 
 3116000    1.1059016   -1.3876185   -1.3876185  -0.59510411    0.1017823   -1.3876185   0.79251443  1070540 
 3117000    1.1082606   -1.3892886   -1.3892886  -0.59508364   0.10963978   -1.3892886   0.79420496  1070540 
 3118000    1.1065648   -1.3884141   -1.3884141  -0.59542439   0.11441942   -1.3884141    0.7929897  1070540 
 3119000    1.1063598   -1.3887437   -1.3887437  -0.59590093    0.1099176   -1.3887437   0.79284279  1070540 
 3120000     1.105798   -1.3885181   -1.3885181  -0.59607786   0.10679477   -1.3885181   0.79244021  1070540 
 3121000    1.1074478   -1.3895977   -1.3895977  -0.59597519   0.10117189   -1.3895977   0.79362247  1070540 
 3122000    1.1064408   -1.3888952   -1.3888952  -0.59599433   0.10656864   -1.3888952   0.79290087  1070540 
 3123000    1.1056503   -1.3879199   -1.3879199  -0.59558559   0.11156694   -1.3879199   0.79233433  1070540 
 3124000    1.1044224    -1.387218    -1.387218  -0.59576359   0.10289226    -1.387218   0.79145437  1070540 
 3125000    1.1063942   -1.3889185   -1.3889185  -0.59605113   0.11046273   -1.3889185   0.79286742  1070540 
 3126000    1.1071664    -1.389487    -1.389487  -0.59606616   0.11535242    -1.389487   0.79342081  1070540 
 3127000    1.1049996   -1.3877001   -1.3877001  -0.59583211   0.10800251   -1.3877001   0.79186802  1070540 
 3128000    1.1054517   -1.3880833   -1.3880833  -0.59589125   0.10059545   -1.3880833     0.792192  1070540 
 3129000    1.1060146   -1.3880671   -1.3880671  -0.59547169   0.10987085   -1.3880671    0.7925954  1070540 
 3130000     1.107036   -1.3888016   -1.3888016  -0.59547423   0.10725787   -1.3888016   0.79332734  1070540 
 3131000    1.1066736   -1.3891619   -1.3891619  -0.59609422    0.1027406   -1.3891619   0.79306768  1070540 
 3132000    1.1060311   -1.3886782   -1.3886782  -0.59607095    0.1153321   -1.3886782    0.7926072  1070540 
 3133000    1.1065775   -1.3892354   -1.3892354  -0.59623659   0.11191245   -1.3892354    0.7929988  1070540 
 3134000    1.1044371   -1.3875335   -1.3875335  -0.59606852   0.11018615   -1.3875335   0.79146497  1070540 
 3135000    1.1064079   -1.3883487   -1.3883487  -0.59547138    0.1062056   -1.3883487   0.79287728  1070540 
 3136000    1.1059078   -1.3886271   -1.3886271   -0.5961082   0.11297979   -1.3886271    0.7925189  1070540 
 3137000    1.1072144   -1.3894848   -1.3894848  -0.59602963   0.11021337   -1.3894848    0.7934552  1070540 
 3138000    1.1064748   -1.3888798   -1.3888798  -0.59595463   0.10943055   -1.3888798   0.79292518  1070540 
 3139000    1.1076677   -1.3899903   -1.3899903  -0.59621026   0.10724602   -1.3899903   0.79378004  1070540 
 3140000    1.1059711   -1.3889536   -1.3889536  -0.59638939  0.096764184   -1.3889536   0.79256422  1070540 
 3141000    1.1057693   -1.3888449   -1.3888449   -0.5964253   0.10691763   -1.3888449    0.7924196  1070540 
 3142000    1.1076021    -1.389742    -1.389742  -0.59600896    0.1016378    -1.389742   0.79373304  1070540 
 3143000     1.105675    -1.388306    -1.388306  -0.59595388   0.10682411    -1.388306   0.79235207  1070540 
 3144000    1.1069487    -1.389451    -1.389451  -0.59618619   0.10176862    -1.389451   0.79326484  1070540 
 3145000    1.1055742   -1.3882707   -1.3882707  -0.59599092   0.10857961   -1.3882707   0.79227981  1070540 
 3146000    1.1073085   -1.3890909   -1.3890909  -0.59556826   0.11027772   -1.3890909   0.79352264  1070540 
 3147000    1.1070167   -1.3889664   -1.3889664   -0.5956529   0.11105167   -1.3889664   0.79331352  1070540 
 3148000    1.1057403   -1.3878837   -1.3878837  -0.59548484   0.10619351   -1.3878837   0.79239886  1070540 
 3149000     1.106026   -1.3880216   -1.3880216  -0.59541807   0.11078073   -1.3880216   0.79260355  1070540 
 3150000    1.1054676    -1.388013    -1.388013  -0.59580959   0.10666136    -1.388013   0.79220345  1070540 
 3151000    1.1045546   -1.3874978   -1.3874978  -0.59594861   0.10994196   -1.3874978   0.79154918  1070540 
 3152000      1.10523   -1.3879838   -1.3879838  -0.59595062   0.10490387   -1.3879838   0.79203317  1070540 
 3153000    1.1065457   -1.3885481   -1.3885481  -0.59557209   0.11014759   -1.3885481   0.79297603  1070540 
 3154000    1.1053069   -1.3878495   -1.3878495  -0.59576126   0.10603212   -1.3878495   0.79208826  1070540 
 3155000    1.1072558   -1.3891944   -1.3891944  -0.59570952   0.10248099   -1.3891944   0.79348487  1070540 
 3156000    1.1073658   -1.3892128   -1.3892128  -0.59564908   0.10559007   -1.3892128   0.79356375  1070540 
 3157000    1.1053266   -1.3877939   -1.3877939  -0.59569151   0.11225974   -1.3877939    0.7921024  1070540 
 3158000    1.1060966   -1.3880775   -1.3880775  -0.59542332    0.1044284   -1.3880775   0.79265419  1070540 
 3159000     1.106937   -1.3885561   -1.3885561  -0.59529967   0.11348213   -1.3885561   0.79325642  1070540 
 3160000     1.107677   -1.3891824   -1.3891824  -0.59539569   0.10847041   -1.3891824   0.79378671  1070540 
 3161000    1.1067461   -1.3884743   -1.3884743  -0.59535469   0.10641652   -1.3884743   0.79311963  1070540 
 3162000    1.1064987    -1.388251    -1.388251  -0.59530863   0.11204021    -1.388251   0.79294234  1070540 
 3163000    1.1059254   -1.3878906   -1.3878906  -0.59535906   0.11383762   -1.3878906   0.79253152  1070540 
 3164000    1.1065191   -1.3889334   -1.3889334   -0.5959765    0.1121353   -1.3889334   0.79295693  1070540 
 3165000    1.1064799   -1.3886073   -1.3886073   -0.5956784   0.10437378   -1.3886073   0.79292885  1070540 
 3166000    1.1080457   -1.3890383   -1.3890383  -0.59498739   0.11095511   -1.3890383   0.79405091  1070540 
 3167000    1.1060628   -1.3878736   -1.3878736  -0.59524363  0.099659611   -1.3878736   0.79262998  1070540 
 3168000    1.1069875   -1.3884693   -1.3884693  -0.59517668   0.11024959   -1.3884693   0.79329262  1070540 
 3169000    1.1058056   -1.3881527   -1.3881527  -0.59570708   0.11032386   -1.3881527   0.79244567  1070540 
 3170000    1.1045762   -1.3869219   -1.3869219  -0.59535733   0.10499781   -1.3869219   0.79156461  1070540 
 3171000    1.1071149   -1.3892246   -1.3892246  -0.59584069   0.10604872   -1.3892246   0.79338393  1070540 
 3172000    1.1066145   -1.3885412   -1.3885412  -0.59551582   0.11046801   -1.3885412   0.79302535  1070540 
 3173000    1.1054545   -1.3879689   -1.3879689  -0.59577487   0.11023305   -1.3879689   0.79219406  1070540 
 3174000     1.107541   -1.3895032   -1.3895032  -0.59581399   0.11147572   -1.3895032   0.79368924  1070540 
 3175000     1.107957   -1.3897483   -1.3897483  -0.59576092   0.11227829   -1.3897483   0.79398741  1070540 
 3176000    1.1066984      -1.3886      -1.3886  -0.59551458   0.11065832      -1.3886   0.79308543  1070540 
 3177000    1.1050193   -1.3877591   -1.3877591  -0.59587696   0.11873467   -1.3877591   0.79188219  1070540 
 3178000    1.1056374    -1.388165    -1.388165  -0.59583994   0.10824644    -1.388165   0.79232508  1070540 
 3179000    1.1050216    -1.388065    -1.388065  -0.59618116   0.11530831    -1.388065   0.79188384  1070540 
 3180000    1.1054819   -1.3886152   -1.3886152  -0.59640149   0.10593536   -1.3886152   0.79221367  1070540 
 3181000    1.1062008   -1.3890537   -1.3890537  -0.59632493    0.1035021   -1.3890537   0.79272881  1070540 
 3182000      1.10642    -1.389285    -1.389285  -0.59639907    0.1106688    -1.389285   0.79288596  1070540 
 3183000    1.1059812   -1.3888626   -1.3888626  -0.59629113   0.10814606   -1.3888626    0.7925715  1070540 
 3184000    1.1057882   -1.3885902   -1.3885902  -0.59615708   0.10074522   -1.3885902   0.79243316  1070540 
 3185000      1.10675   -1.3890372   -1.3890372  -0.59591472   0.11117208   -1.3890372   0.79312244  1070540 
 3186000    1.1066503   -1.3891287   -1.3891287  -0.59607773   0.11152907   -1.3891287   0.79305095  1070540 
 3187000    1.1057237   -1.3888217   -1.3888217   -0.5964348   0.10257935   -1.3888217   0.79238691  1070540 
 3188000    1.1059054    -1.389175    -1.389175  -0.59665783   0.11048205    -1.389175   0.79251714  1070540 
 3189000    1.1052865    -1.388325    -1.388325  -0.59625136   0.10586033    -1.388325    0.7920736  1070540 
 3190000    1.1043974    -1.387974    -1.387974  -0.59653749   0.10853388    -1.387974   0.79143649  1070540 
 3191000    1.1061657   -1.3891745   -1.3891745  -0.59647087   0.11310366   -1.3891745   0.79270367  1070540 
 3192000    1.1064165   -1.3893982   -1.3893982  -0.59651471   0.11415676   -1.3893982   0.79288344  1070540 
 3193000    1.1049108   -1.3883222   -1.3883222  -0.59651773   0.10742163   -1.3883222   0.79180443  1070540 
 3194000    1.1060904   -1.3888703   -1.3888703  -0.59622061   0.10753915   -1.3888703   0.79264972  1070540 
 3195000    1.1077477   -1.3897719   -1.3897719   -0.5959345   0.11144985   -1.3897719    0.7938374  1070540 
 3196000    1.1080568   -1.3901692   -1.3901692  -0.59611034  0.099181931   -1.3901692   0.79405888  1070540 
 3197000     1.107006     -1.38924     -1.38924  -0.59593414   0.10930009     -1.38924   0.79330584  1070540 
 3198000    1.1078609   -1.3899294   -1.3899294   -0.5960109   0.10821507   -1.3899294   0.79391848  1070540 
 3199000    1.1073483   -1.3896152   -1.3896152  -0.59606401   0.10230087   -1.3896152    0.7935512  1070540 
 3200000    1.1077169   -1.3897791   -1.3897791  -0.59596381   0.10399438   -1.3897791   0.79381529  1070540 
 3201000    1.1058782   -1.3891977   -1.3891977  -0.59670007   0.11149367   -1.3891977   0.79249766  1070540 
 3202000    1.1056991   -1.3889242   -1.3889242  -0.59655482    0.1130224   -1.3889242   0.79236934  1070540 
 3203000     1.106573   -1.3895903   -1.3895903  -0.59659475   0.11834354   -1.3895903    0.7929956  1070540 
 3204000    1.1064555   -1.3893316   -1.3893316  -0.59642017   0.11487778   -1.3893316    0.7929114  1070540 
 3205000    1.1066373   -1.3894137   -1.3894137  -0.59637201   0.11157697   -1.3894137   0.79304166  1070540 
 3206000    1.1054499   -1.3887976   -1.3887976  -0.59660683   0.10559091   -1.3887976   0.79219077  1070540 
 3207000    1.1056065    -1.389052    -1.389052  -0.59674908   0.11664222    -1.389052   0.79230296  1070540 
 3208000    1.1057512   -1.3891513   -1.3891513  -0.59674465   0.10684674   -1.3891513   0.79240668  1070540 
 3209000    1.1050183   -1.3883385   -1.3883385  -0.59645707   0.10801625   -1.3883385   0.79188143  1070540 
 3210000    1.1074862   -1.3904108   -1.3904108  -0.59676077   0.11532724   -1.3904108   0.79365002  1070540 
 3211000    1.1065992   -1.3899311   -1.3899311  -0.59691678   0.10935477   -1.3899311   0.79301435  1070540 
 3212000    1.1079795   -1.3911531   -1.3911531  -0.59714964   0.10522971   -1.3911531   0.79400351  1070540 
 3213000    1.1066086   -1.3897788   -1.3897788  -0.59675776   0.11832463   -1.3897788   0.79302106  1070540 
 3214000    1.1061057   -1.3896402   -1.3896402  -0.59697951     0.105739   -1.3896402    0.7926607  1070540 
 3215000    1.1073754    -1.390574    -1.390574  -0.59700346   0.10985368    -1.390574   0.79357058  1070540 
 3216000    1.1069987   -1.3902578   -1.3902578  -0.59695718   0.11297572   -1.3902578   0.79330065  1070540 
 3217000    1.1071435   -1.3898779   -1.3898779  -0.59647349   0.11316255   -1.3898779   0.79340439  1070540 
 3218000    1.1052669   -1.3884166   -1.3884166  -0.59635699   0.10945657   -1.3884166   0.79205957  1070540 
 3219000    1.1070889   -1.3897599   -1.3897599  -0.59639466   0.11260229   -1.3897599   0.79336527  1070540 
 3220000    1.1053044    -1.388756    -1.388756   -0.5966696   0.11192714    -1.388756   0.79208645  1070540 
 3221000    1.1052652   -1.3888103   -1.3888103  -0.59675193   0.10640312   -1.3888103   0.79205836  1070540 
 3222000    1.1049058   -1.3889376   -1.3889376  -0.59713671   0.10664648   -1.3889376   0.79180084  1070540 
 3223000    1.1059129   -1.3893797   -1.3893797  -0.59685721   0.10738893   -1.3893797   0.79252252  1070540 
 3224000     1.105828   -1.3891711   -1.3891711  -0.59670936   0.10935418   -1.3891711   0.79246171  1070540 
 3225000    1.1070441   -1.3899313   -1.3899313  -0.59659817   0.11483256   -1.3899313   0.79333315  1070540 
 3226000    1.1066869   -1.3898405   -1.3898405  -0.59676334   0.10711163   -1.3898405   0.79307719  1070540 
 3227000    1.1083166   -1.3903576   -1.3903576  -0.59611257   0.10505712   -1.3903576   0.79424505  1070540 
 3228000    1.1052189   -1.3886763   -1.3886763  -0.59665118   0.10783524   -1.3886763   0.79202517  1070540 
 3229000    1.1058001   -1.3888275   -1.3888275  -0.59638583    0.1151707   -1.3888275   0.79244171  1070540 
 3230000    1.1064332   -1.3893678   -1.3893678  -0.59647244   0.10528734   -1.3893678   0.79289539  1070540 
 3231000    1.1074999   -1.3899142   -1.3899142  -0.59625441   0.10638692   -1.3899142   0.79365982  1070540 
 3232000    1.1067438   -1.3898962   -1.3898962  -0.59677823   0.11393005   -1.3898962   0.79311797  1070540 
 3233000    1.1069531   -1.3901846   -1.3901846  -0.59691668   0.10412332   -1.3901846   0.79326795  1070540 
 3234000    1.1070945    -1.389903    -1.389903  -0.59653375   0.11153027    -1.389903   0.79336926  1070540 
 3235000    1.1054657   -1.3886322   -1.3886322  -0.59643021   0.10769638   -1.3886322   0.79220203  1070540 
 3236000    1.1059691   -1.3889092   -1.3889092  -0.59634639   0.10506594   -1.3889092   0.79256284  1070540 
 3237000    1.1069274    -1.389391    -1.389391  -0.59614144   0.11667847    -1.389391   0.79324956  1070540 
 3238000    1.1069025   -1.3892426   -1.3892426  -0.59601091   0.10929224   -1.3892426   0.79323168  1070540 
 3239000    1.1077593   -1.3901382   -1.3901382  -0.59629253   0.11114565   -1.3901382   0.79384569  1070540 
 3240000    1.1079759   -1.3901677   -1.3901677  -0.59616677   0.11403761   -1.3901677    0.7940009  1070540 
 3241000    1.1085581    -1.390378    -1.390378   -0.5959598   0.10992009    -1.390378   0.79441816  1070540 
 3242000    1.1070998   -1.3894945   -1.3894945  -0.59612134   0.10634751   -1.3894945   0.79337311  1070540 
 3243000    1.1061328   -1.3889261   -1.3889261  -0.59624599    0.1092287   -1.3889261   0.79268009  1070540 
 3244000    1.1071257   -1.3891348   -1.3891348  -0.59574318   0.11374311   -1.3891348   0.79339165  1070540 
 3245000    1.1072455   -1.3894353   -1.3894353  -0.59595775    0.1093162   -1.3894353   0.79347753  1070540 
 3246000    1.1058254   -1.3884412   -1.3884412  -0.59598135   0.10699632   -1.3884412   0.79245986  1070540 
 3247000    1.1044236   -1.3876012   -1.3876012  -0.59614589   0.11225802   -1.3876012   0.79145527  1070540 
 3248000    1.1069308   -1.3890072   -1.3890072  -0.59575519   0.11408216   -1.3890072     0.793252  1070540 
 3249000    1.1061018   -1.3885109   -1.3885109  -0.59585303   0.10299016   -1.3885109   0.79265787  1070540 
 3250000    1.1077013   -1.3896048   -1.3896048   -0.5958006   0.11230322   -1.3896048   0.79380415  1070540 
 3251000    1.1072365   -1.3893923   -1.3893923  -0.59592128   0.11273376   -1.3893923   0.79347104  1070540 
 3252000     1.106991   -1.3893728   -1.3893728  -0.59607775   0.10452229   -1.3893728   0.79329509  1070540 
 3253000    1.1060448   -1.3891613   -1.3891613  -0.59654418   0.10153395   -1.3891613   0.79261709  1070540 
 3254000    1.1070323   -1.3899813   -1.3899813  -0.59665654   0.10750993   -1.3899813   0.79332474  1070540 
 3255000     1.107231   -1.3902862   -1.3902862  -0.59681913   0.11027494   -1.3902862   0.79346708  1070540 
 3256000    1.1061708   -1.3892632   -1.3892632  -0.59655587   0.10866496   -1.3892632   0.79270732  1070540 
 3257000    1.1060224   -1.3892547   -1.3892547  -0.59665374   0.10870921   -1.3892547   0.79260099  1070540 
 3258000    1.1054834   -1.3887208   -1.3887208  -0.59650599   0.11301334   -1.3887208   0.79221477  1070540 
 3259000    1.1052286    -1.388794    -1.388794   -0.5967618   0.10990185    -1.388794   0.79203218  1070540 
 3260000    1.1063764    -1.389374    -1.389374  -0.59651934    0.1078622    -1.389374    0.7928547  1070540 
 3261000    1.1072157    -1.389716    -1.389716  -0.59625986   0.10586411    -1.389716   0.79345613  1070540 
 3262000    1.1052569   -1.3881425   -1.3881425  -0.59609003   0.10637329   -1.3881425   0.79205244  1070540 
 3263000    1.1085066   -1.3903591   -1.3903591  -0.59597786   0.10413736   -1.3903591   0.79438124  1070540 
 3264000    1.1063199   -1.3890862   -1.3890862  -0.59627202   0.11063919   -1.3890862   0.79281421  1070540 
 3265000    1.1066359   -1.3896704   -1.3896704  -0.59662979   0.10486625   -1.3896704   0.79304064  1070540 
 3266000    1.1072764   -1.3899813   -1.3899813  -0.59648166   0.10719994   -1.3899813   0.79349963  1070540 
 3267000     1.106699   -1.3894398   -1.3894398  -0.59635395   0.11408795   -1.3894398   0.79308589  1070540 
 3268000    1.1073895   -1.3903133   -1.3903133  -0.59673258   0.11285818   -1.3903133   0.79358067  1070540 
 3269000    1.1061813   -1.3894445   -1.3894445  -0.59672956    0.1118476   -1.3894445   0.79271491  1070540 
 3270000    1.1066376   -1.3898337   -1.3898337  -0.59679186   0.10968558   -1.3898337   0.79304186  1070540 
 3271000    1.1058657   -1.3896821   -1.3896821  -0.59719341   0.10212667   -1.3896821   0.79248869  1070540 
 3272000    1.1084667   -1.3913455   -1.3913455  -0.59699282   0.11329986   -1.3913455   0.79435267  1070540 
 3273000     1.107782   -1.3910327   -1.3910327  -0.59717074   0.11177608   -1.3910327   0.79386196  1070540 
 3274000    1.1075267   -1.3907701   -1.3907701   -0.5970911   0.11457904   -1.3907701   0.79367898  1070540 
 3275000    1.1057368   -1.3896798   -1.3896798  -0.59728339   0.10957549   -1.3896798   0.79239637  1070540 
 3276000    1.1069596   -1.3907331   -1.3907331  -0.59746052  0.099398699   -1.3907331   0.79327259  1070540 
 3277000    1.1076065   -1.3911556   -1.3911556  -0.59741946   0.10399265   -1.3911556   0.79373618  1070540 
 3278000    1.1065588   -1.3903744   -1.3903744  -0.59738895   0.10826867   -1.3903744    0.7929854  1070540 
 3279000    1.1062641   -1.3899363   -1.3899363   -0.5971621    0.1130846   -1.3899363   0.79277418  1070540 
 3280000    1.1071794   -1.3904088   -1.3904088  -0.59697871   0.11045207   -1.3904088   0.79343014  1070540 
 3281000    1.1089448   -1.3922555   -1.3922555  -0.59756024   0.10921576   -1.3922555   0.79469523  1070540 
 3282000    1.1067596   -1.3908162   -1.3908162  -0.59768689   0.11078199   -1.3908162    0.7931293  1070540 
 3283000    1.1076309    -1.391943    -1.391943  -0.59818933   0.10848812    -1.391943   0.79375369  1070540 
 3284000     1.105319   -1.3904659   -1.3904659  -0.59836898   0.10924957   -1.3904659   0.79209696  1070540 
 3285000    1.1052586   -1.3899229   -1.3899229  -0.59786926   0.11375342   -1.3899229   0.79205365  1070540 
 3286000    1.1061872   -1.3903827   -1.3903827  -0.59766356   0.10668341   -1.3903827   0.79271913  1070540 
 3287000    1.1061917   -1.3904563   -1.3904563  -0.59773401  0.098430949   -1.3904563   0.79272234  1070540 
 3288000    1.1074324    -1.391201    -1.391201  -0.59758957   0.11172077    -1.391201   0.79361143  1070540 
 3289000    1.1080852   -1.3916233   -1.3916233  -0.59754403   0.11091981   -1.3916233   0.79407927  1070540 
 3290000    1.1068629   -1.3906213   -1.3906213  -0.59741798   0.10961594   -1.3906213   0.79320333  1070540 
 3291000    1.1054637   -1.3899449   -1.3899449   -0.5977443   0.11452591   -1.3899449   0.79220064  1070540 
 3292000    1.1068074   -1.3906636   -1.3906636  -0.59749999   0.11080021   -1.3906636   0.79316357  1070540 
 3293000    1.1069459   -1.3905562   -1.3905562  -0.59729341   0.11210461   -1.3905562    0.7932628  1070540 
 3294000    1.1079315   -1.3913362   -1.3913362  -0.59736709   0.10694725   -1.3913362    0.7939691  1070540 
 3295000    1.1065818   -1.3903626   -1.3903626  -0.59736071   0.10798347   -1.3903626   0.79300187  1070540 
 3296000      1.10666   -1.3906848   -1.3906848  -0.59762687   0.10820159   -1.3906848   0.79305795  1070540 
 3297000     1.108152   -1.3912403   -1.3912403  -0.59711315   0.11213161   -1.3912403   0.79412712  1070540 
 3298000    1.1080038   -1.3908486   -1.3908486  -0.59682767   0.10763112   -1.3908486    0.7940209  1070540 
 3299000    1.1073957    -1.390477    -1.390477  -0.59689184   0.11329064    -1.390477   0.79358511  1070540 
 3300000    1.1076047   -1.3909683   -1.3909683  -0.59723345  0.099385146   -1.3909683   0.79373489  1070540 
 3301000    1.1082491   -1.3913707   -1.3913707  -0.59717395   0.11639569   -1.3913707   0.79419673  1070540 
 3302000    1.1077601   -1.3914483   -1.3914483  -0.59760205   0.10702723   -1.3914483   0.79384628  1070540 
 3303000     1.106862   -1.3909423   -1.3909423  -0.59773956   0.10631156   -1.3909423   0.79320269  1070540 
 3304000    1.1085388   -1.3918099   -1.3918099  -0.59740555   0.10862432   -1.3918099   0.79440431  1070540 
 3305000    1.1060813   -1.3900379   -1.3900379  -0.59739468   0.10923901   -1.3900379   0.79264322  1070540 
 3306000    1.1070489   -1.3905637   -1.3905637   -0.5972271    0.1082883   -1.3905637   0.79333661  1070540 
 3307000    1.1067598   -1.3903061   -1.3903061  -0.59717667   0.10004514   -1.3903061   0.79312941  1070540 
 3308000    1.1069604    -1.390125    -1.390125  -0.59685184   0.10481649    -1.390125   0.79327321  1070540 
 3309000      1.10514   -1.3891553   -1.3891553  -0.59718665   0.10538732   -1.3891553   0.79196867  1070540 
 3310000    1.1038703    -1.388247    -1.388247  -0.59718824   0.10383014    -1.388247   0.79105873  1070540 
 3311000    1.1033162   -1.3878357   -1.3878357  -0.59717405   0.10467046   -1.3878357   0.79066169  1070540 
 3312000    1.1044924   -1.3884615   -1.3884615  -0.59695693   0.10333375   -1.3884615   0.79150454  1070540 
 3313000    1.1050998   -1.3888711   -1.3888711  -0.59693124   0.10792333   -1.3888711   0.79193987  1070540 
 3314000    1.1065587   -1.3898439   -1.3898439  -0.59685857   0.10964807   -1.3898439   0.79298532  1070540 
 3315000    1.1054266   -1.3888458   -1.3888458  -0.59667179   0.11126219   -1.3888458     0.792174  1070540 
 3316000    1.1073758    -1.389986    -1.389986  -0.59641512   0.10964542    -1.389986   0.79357091  1070540 
 3317000    1.1058395   -1.3888993   -1.3888993  -0.59642936    0.1042742   -1.3888993   0.79246996  1070540 
 3318000    1.1078723    -1.390159    -1.390159   -0.5962323   0.10719072    -1.390159   0.79392666  1070540 
 3319000    1.1057125    -1.388672    -1.388672  -0.59629311   0.11170832    -1.388672    0.7923789  1070540 
 3320000    1.1059258   -1.3885626   -1.3885626  -0.59603077   0.10794752   -1.3885626   0.79253181  1070540 
 3321000    1.1079565    -1.389356    -1.389356    -0.595369   0.10857217    -1.389356   0.79398699  1070540 
 3322000      1.10794   -1.3895676   -1.3895676  -0.59559234   0.11372826   -1.3895676   0.79397523  1070540 
 3323000      1.10726   -1.3892003   -1.3892003  -0.59571244   0.10418051   -1.3892003   0.79348786  1070540 
 3324000    1.1058222   -1.3881824   -1.3881824  -0.59572487   0.11344131   -1.3881824   0.79245755  1070540 
 3325000    1.1066072    -1.388962    -1.388962  -0.59594195  0.099952687    -1.388962   0.79302006  1070540 
 3326000    1.1069867   -1.3886737   -1.3886737  -0.59538164   0.11745934   -1.3886737   0.79329202  1070540 
 3327000    1.1076391   -1.3893664   -1.3893664  -0.59560687     0.108949   -1.3893664   0.79375955  1070540 
 3328000    1.1075353   -1.3894927   -1.3894927  -0.59580752   0.11531772   -1.3894927   0.79368518  1070540 
 3329000     1.106894   -1.3889675   -1.3889675  -0.59574189   0.10850099   -1.3889675   0.79322564  1070540 
 3330000    1.1060341   -1.3884832   -1.3884832  -0.59587382   0.11168303   -1.3884832   0.79260937  1070540 
 3331000    1.1070425    -1.389067    -1.389067  -0.59573495   0.10307315    -1.389067   0.79333206  1070540 
 3332000    1.1064096   -1.3892366   -1.3892366  -0.59635811    0.1075313   -1.3892366   0.79287847  1070540 
 3333000    1.1057332   -1.3889651   -1.3889651  -0.59657135   0.10861392   -1.3889651   0.79239378  1070540 
 3334000    1.1067481   -1.3893691   -1.3893691  -0.59624809   0.10825189   -1.3893691   0.79312104  1070540 
 3335000    1.1076737   -1.3896688   -1.3896688   -0.5958844   0.10756006   -1.3896688   0.79378436  1070540 
 3336000    1.1066712   -1.3892634   -1.3892634  -0.59619748   0.11288031   -1.3892634   0.79306594  1070540 
 3337000    1.1077421   -1.3902574   -1.3902574  -0.59642402   0.11210299   -1.3902574   0.79383336  1070540 
 3338000    1.1090911    -1.390932    -1.390932  -0.59613192   0.10983719    -1.390932   0.79480012  1070540 
 3339000    1.1078606   -1.3904314   -1.3904314  -0.59651313   0.10337539   -1.3904314   0.79391831  1070540 
 3340000    1.1078897   -1.3907391   -1.3907391   -0.5967999   0.11950815   -1.3907391   0.79393919  1070540 
 3341000    1.1064675   -1.3896174   -1.3896174  -0.59669743   0.11094898   -1.3896174   0.79291999  1070540 
 3342000    1.1073541    -1.390423    -1.390423   -0.5968676   0.11667599    -1.390423   0.79355536  1070540 
 3343000    1.1064372   -1.3896162   -1.3896162    -0.596718   0.10947217   -1.3896162   0.79289824  1070540 
 3344000    1.1064276   -1.3894876   -1.3894876  -0.59659624    0.1139961   -1.3894876   0.79289139  1070540 
 3345000     1.106988   -1.3901661   -1.3901661  -0.59687313   0.10592546   -1.3901661   0.79329298  1070540 
 3346000    1.1089427    -1.391314    -1.391314  -0.59662023    0.1112557    -1.391314   0.79469374  1070540 
 3347000    1.1076928   -1.3898217   -1.3898217  -0.59602362   0.10400733   -1.3898217   0.79379805  1070540 
 3348000    1.1086553   -1.3905345   -1.3905345  -0.59604674   0.11354896   -1.3905345   0.79448779  1070540 
 3349000    1.1072557   -1.3893447   -1.3893447  -0.59585985   0.11246519   -1.3893447   0.79348482  1070540 
 3350000    1.1075454   -1.3897813   -1.3897813  -0.59608881   0.11495905   -1.3897813   0.79369245  1070540 
 3351000    1.1078326   -1.3901858   -1.3901858  -0.59628764   0.10355031   -1.3901858    0.7938982  1070540 
 3352000    1.1073184    -1.389839    -1.389839  -0.59630927    0.1124277    -1.389839   0.79352971  1070540 
 3353000    1.1076406   -1.3904325   -1.3904325   -0.5966719   0.10692093   -1.3904325   0.79376062  1070540 
 3354000    1.1071428   -1.3897801   -1.3897801  -0.59637614   0.10041909   -1.3897801   0.79340392  1070540 
 3355000    1.1066001   -1.3892209   -1.3892209  -0.59620589   0.11034579   -1.3892209   0.79301499  1070540 
 3356000    1.1070673   -1.3896835   -1.3896835  -0.59633372   0.10491873   -1.3896835   0.79334983  1070540 
 3357000    1.1077749   -1.3900477   -1.3900477  -0.59619078   0.10202589   -1.3900477    0.7938569  1070540 
 3358000    1.1071127     -1.39006     -1.39006  -0.59667761   0.11089812     -1.39006   0.79338237  1070540 
 3359000    1.1092155   -1.3911655   -1.3911655  -0.59627627   0.10730837   -1.3911655   0.79488925  1070540 
 3360000    1.1077281   -1.3898135   -1.3898135  -0.59599022   0.11022471   -1.3898135   0.79382331  1070540 
 3361000    1.1076193   -1.3897347   -1.3897347  -0.59598935   0.10888405   -1.3897347   0.79374539  1070540 
 3362000    1.1074739   -1.3903035   -1.3903035  -0.59666233    0.1126234   -1.3903035   0.79364116  1070540 
 3363000    1.1079722   -1.3903107   -1.3903107  -0.59631244    0.1061897   -1.3903107   0.79399829  1070540 
 3364000     1.108048   -1.3904116   -1.3904116  -0.59635902   0.10939953   -1.3904116   0.79405263  1070540 
 3365000    1.1076671   -1.3899634   -1.3899634  -0.59618376   0.10571168   -1.3899634   0.79377962  1070540 
 3366000    1.1054951   -1.3883431   -1.3883431  -0.59612002    0.1117646   -1.3883431   0.79222311  1070540 
 3367000    1.1072321   -1.3896706   -1.3896706  -0.59620273   0.10684206   -1.3896706   0.79346792  1070540 
 3368000    1.1057362   -1.3887422   -1.3887422  -0.59634626   0.11164581   -1.3887422   0.79239593  1070540 
 3369000    1.1049974   -1.3880731   -1.3880731  -0.59620664   0.11039029   -1.3880731   0.79186644  1070540 
 3370000    1.1072216   -1.3895006   -1.3895006  -0.59604019   0.10760516   -1.3895006   0.79346041  1070540 
 3371000    1.1077931   -1.3901582   -1.3901582  -0.59628823   0.11350355   -1.3901582   0.79386993  1070540 
 3372000    1.1077662   -1.3896287   -1.3896287  -0.59577803   0.11225795   -1.3896287   0.79385063  1070540 
 3373000    1.1086419   -1.3901196   -1.3901196  -0.59564141    0.1113651   -1.3901196   0.79447817  1070540 
 3374000    1.1079292   -1.3895041   -1.3895041  -0.59553666   0.10769024   -1.3895041   0.79396745  1070540 
 3375000    1.1075393   -1.3888091   -1.3888091  -0.59512106   0.11556482   -1.3888091   0.79368807  1070540 
 3376000     1.108855     -1.38939     -1.38939  -0.59475911    0.1053392     -1.38939   0.79463087  1070540 
 3377000    1.1082819   -1.3890194   -1.3890194  -0.59479911   0.10584147   -1.3890194   0.79422024  1070540 
 3378000    1.1096799   -1.3895768   -1.3895768  -0.59435477   0.11388789   -1.3895768   0.79522206  1070540 
 3379000    1.1097381   -1.3898755   -1.3898755  -0.59461176   0.10836973   -1.3898755   0.79526376  1070540 
 3380000    1.1097413   -1.3900869   -1.3900869  -0.59482087   0.10799435   -1.3900869   0.79526603  1070540 
 3381000    1.1096669   -1.3900517   -1.3900517  -0.59483892   0.10599958   -1.3900517   0.79521276  1070540 
 3382000    1.1078274   -1.3882735   -1.3882735    -0.594379   0.10573814   -1.3882735   0.79389453  1070540 
 3383000    1.1073262   -1.3881288   -1.3881288  -0.59459346   0.11561706   -1.3881288   0.79353534  1070540 
 3384000    1.1101593   -1.3899793   -1.3899793  -0.59441371    0.1094773   -1.3899793   0.79556561  1070540 
 3385000    1.1103399   -1.3897997   -1.3897997  -0.59410465   0.12200145   -1.3897997   0.79569502  1070540 
 3386000    1.1105864   -1.3901236   -1.3901236   -0.5942519   0.11379512   -1.3901236   0.79587168  1070540 
 3387000    1.1098754   -1.3895174   -1.3895174  -0.59415522   0.11005635   -1.3895174   0.79536217  1070540 
 3388000     1.108853   -1.3888922   -1.3888922  -0.59426273   0.11886994   -1.3888922   0.79462948  1070540 
 3389000    1.1082858   -1.3881907   -1.3881907  -0.59396767   0.11441813   -1.3881907   0.79422302  1070540 
 3390000     1.108771   -1.3886937   -1.3886937  -0.59412299   0.11274331   -1.3886937   0.79457073  1070540 
 3391000    1.1094732   -1.3893725   -1.3893725  -0.59429855   0.10605075   -1.3893725   0.79507391  1070540 
 3392000    1.1092747   -1.3894913   -1.3894913  -0.59455968   0.10718015   -1.3894913   0.79493164  1070540 
 3393000     1.108772   -1.3893811   -1.3893811  -0.59480964   0.11744953   -1.3893811   0.79457142  1070540 
 3394000    1.1073752   -1.3887485   -1.3887485  -0.59517802   0.10793782   -1.3887485   0.79357046  1070540 
 3395000    1.1080793   -1.3894331   -1.3894331  -0.59535805   0.11619968   -1.3894331   0.79407505  1070540 
 3396000    1.1087152   -1.3897525   -1.3897525   -0.5952218   0.11255332   -1.3897525   0.79453073  1070540 
 3397000    1.1081232   -1.3896147   -1.3896147  -0.59550824   0.11018859   -1.3896147   0.79410647  1070540 
 3398000    1.1077877   -1.3893522   -1.3893522  -0.59548616   0.10756322   -1.3893522   0.79386606  1070540 
 3399000     1.107491   -1.3891125   -1.3891125  -0.59545907   0.11470335   -1.3891125    0.7936534  1070540 
 3400000    1.1088703   -1.3898353   -1.3898353  -0.59519346   0.11600163   -1.3898353   0.79464185  1070540 
 3401000    1.1080792   -1.3892813   -1.3892813  -0.59520633    0.1076368   -1.3892813   0.79407498  1070540 
 3402000    1.1065588   -1.3887077   -1.3887077  -0.59572235   0.11614628   -1.3887077   0.79298538  1070540 
 3403000    1.1085696   -1.3899493   -1.3899493  -0.59552292   0.12075779   -1.3899493   0.79442641  1070540 
 3404000    1.1093697   -1.3903981   -1.3903981  -0.59539838   0.10629362   -1.3903981   0.79499976  1070540 
 3405000    1.1072057   -1.3889298   -1.3889298  -0.59548082   0.11603892   -1.3889298   0.79344895  1070540 
 3406000    1.1085734   -1.3899645   -1.3899645  -0.59553541   0.10219346   -1.3899645   0.79442909  1070540 
 3407000    1.1077262   -1.3896377   -1.3896377  -0.59581569   0.11320749   -1.3896377   0.79382202  1070540 
 3408000    1.1076674   -1.3893412   -1.3893412  -0.59556133   0.10745009   -1.3893412   0.79377984  1070540 
 3409000    1.1058315    -1.388453    -1.388453  -0.59598884   0.11407468    -1.388453   0.79246419  1070540 
 3410000    1.1078862   -1.3901544   -1.3901544  -0.59621771   0.10452523   -1.3901544   0.79393665  1070540 
 3411000    1.1084721   -1.3898225   -1.3898225  -0.59546599   0.11022459   -1.3898225   0.79435652  1070540 
 3412000    1.1073177   -1.3888548   -1.3888548  -0.59532557  0.099916593   -1.3888548   0.79352928  1070540 
 3413000     1.108398   -1.3893669   -1.3893669  -0.59506347   0.10742021   -1.3893669   0.79430341  1070540 
 3414000    1.1069846   -1.3883986   -1.3883986  -0.59510804   0.10904786   -1.3883986   0.79329057  1070540 
 3415000    1.1080048   -1.3889626   -1.3889626  -0.59494099   0.11281853   -1.3889626   0.79402161  1070540 
 3416000    1.1079897   -1.3886114   -1.3886114  -0.59460061   0.11800972   -1.3886114   0.79401084  1070540 
 3417000    1.1082704   -1.3890756   -1.3890756  -0.59486361    0.1094154   -1.3890756   0.79421196  1070540 
 3418000    1.1082499   -1.3890094   -1.3890094  -0.59481213   0.11247015   -1.3890094   0.79419729  1070540 
 3419000    1.1081928    -1.389558    -1.389558  -0.59540165   0.11251002    -1.389558   0.79415639  1070540 
 3420000    1.1072983   -1.3887508   -1.3887508  -0.59523546   0.11169427   -1.3887508   0.79351534  1070540 
 3421000    1.1073264   -1.3889735   -1.3889735  -0.59543802    0.1060987   -1.3889735   0.79353551  1070540 
 3422000    1.1080894   -1.3889856   -1.3889856  -0.59490337   0.11044246   -1.3889856   0.79408224  1070540 
 3423000    1.1067447   -1.3880027   -1.3880027  -0.59488403   0.10755191   -1.3880027   0.79311864  1070540 
 3424000    1.1082674   -1.3892446   -1.3892446  -0.59503471   0.10751192   -1.3892446   0.79420985  1070540 
 3425000    1.1080764    -1.389257    -1.389257    -0.595184    0.1105498    -1.389257   0.79407296  1070540 
 3426000     1.107628   -1.3886537   -1.3886537  -0.59490208   0.10455455   -1.3886537   0.79375158  1070540 
 3427000    1.1062935    -1.387753    -1.387753  -0.59495769   0.10512266    -1.387753    0.7927953  1070540 
 3428000    1.1063543   -1.3874643   -1.3874643  -0.59462543   0.10859795   -1.3874643   0.79283882  1070540 
 3429000    1.1067324   -1.3878689   -1.3878689  -0.59475917   0.11154414   -1.3878689   0.79310977  1070540 
 3430000      1.10723   -1.3882954   -1.3882954  -0.59482896   0.10827302   -1.3882954   0.79346642  1070540 
 3431000    1.1076193   -1.3884994   -1.3884994  -0.59475403   0.11264062   -1.3884994    0.7937454  1070540 
 3432000    1.1076261   -1.3884025   -1.3884025  -0.59465229   0.11441572   -1.3884025   0.79375025  1070540 
 3433000    1.1079961   -1.3884743   -1.3884743  -0.59445889   0.11591351   -1.3884743   0.79401539  1070540 
 3434000    1.1087774   -1.3892496   -1.3892496  -0.59467432    0.1086512   -1.3892496    0.7945753  1070540 
 3435000    1.1087221   -1.3890221   -1.3890221  -0.59448647   0.10851426   -1.3890221   0.79453565  1070540 
 3436000     1.109372   -1.3901009   -1.3901009  -0.59509947   0.11074412   -1.3901009   0.79500139  1070540 
 3437000    1.1089811   -1.3897534   -1.3897534  -0.59503208   0.11692486   -1.3897534    0.7947213  1070540 
 3438000    1.1084677   -1.3895674   -1.3895674  -0.59521404    0.1067842   -1.3895674   0.79435339  1070540 
 3439000    1.1073532   -1.3888373   -1.3888373  -0.59528262    0.1122732   -1.3888373   0.79355471  1070540 
 3440000    1.1067903    -1.388215    -1.388215  -0.59506365   0.10597228    -1.388215   0.79315132  1070540 
 3441000    1.1083777   -1.3896708   -1.3896708  -0.59538196    0.1113219   -1.3896708   0.79428885  1070540 
 3442000    1.1084154   -1.3896919   -1.3896919    -0.595376   0.10763513   -1.3896919   0.79431588  1070540 
 3443000    1.1078143   -1.3893275   -1.3893275  -0.59544235   0.10784857   -1.3893275   0.79388515  1070540 
 3444000    1.1068814   -1.3887432   -1.3887432   -0.5955266   0.11631239   -1.3887432   0.79321659  1070540 
 3445000    1.1074709   -1.3892282   -1.3892282  -0.59558911    0.1055741   -1.3892282   0.79363905  1070540 
 3446000    1.1105623   -1.3913056   -1.3913056  -0.59545122   0.10948394   -1.3913056   0.79585439  1070540 
 3447000    1.1091605   -1.3909106   -1.3909106  -0.59606084   0.11047869   -1.3909106    0.7948498  1070540 
 3448000    1.1074094   -1.3895236   -1.3895236   -0.5959287   0.10869394   -1.3895236   0.79359494  1070540 
 3449000    1.1066154   -1.3886508   -1.3886508  -0.59562489   0.10313905   -1.3886508   0.79302596  1070540 
 3450000    1.1080242   -1.3893188   -1.3893188  -0.59528331  0.098826025   -1.3893188   0.79403551  1070540 
 3451000    1.1084486   -1.3890233   -1.3890233  -0.59468359   0.10821235   -1.3890233    0.7943397  1070540 
 3452000     1.108694   -1.3894188   -1.3894188  -0.59490333   0.11470694   -1.3894188   0.79451551  1070540 
 3453000    1.1087626   -1.3892745   -1.3892745   -0.5947098   0.10857021   -1.3892745    0.7945647  1070540 
 3454000     1.110962   -1.3908235   -1.3908235  -0.59468266   0.11325573   -1.3908235    0.7961408  1070540 
 3455000    1.1082182   -1.3888353   -1.3888353  -0.59466074   0.10993607   -1.3888353   0.79417459  1070540 
 3456000    1.1073183   -1.3880946   -1.3880946  -0.59456491   0.10807563   -1.3880946   0.79352968  1070540 
 3457000    1.1077705   -1.3885411   -1.3885411  -0.59468742   0.11122349   -1.3885411    0.7938537  1070540 
 3458000    1.1097703   -1.3899573   -1.3899573  -0.59467052   0.10460971   -1.3899573    0.7952868  1070540 
 3459000    1.1091789   -1.3895507   -1.3895507  -0.59468767   0.10754999   -1.3895507   0.79486304  1070540 
 3460000    1.1075669   -1.3889836   -1.3889836  -0.59527575   0.11539329   -1.3889836   0.79370785  1070540 
 3461000     1.107975   -1.3891917   -1.3891917   -0.5951914   0.11047851   -1.3891917   0.79400027  1070540 
 3462000     1.107417   -1.3885611   -1.3885611  -0.59496073   0.11341048   -1.3885611   0.79360037  1070540 
 3463000    1.1095902   -1.3899969   -1.3899969   -0.5948392   0.10863757   -1.3899969   0.79515774  1070540 
 3464000    1.1086121   -1.3891778   -1.3891778  -0.59472097    0.1096228   -1.3891778   0.79445683  1070540 
 3465000     1.109447   -1.3903256   -1.3903256  -0.59527039   0.10765917   -1.3903256   0.79505516  1070540 
 3466000    1.1081054   -1.3893968   -1.3893968  -0.59530307   0.11020053   -1.3893968    0.7940937  1070540 
 3467000    1.1080198   -1.3891522   -1.3891522  -0.59511979   0.10563167   -1.3891522    0.7940324  1070540 
 3468000    1.1064507   -1.3884402   -1.3884402  -0.59553229   0.10671874   -1.3884402   0.79290796  1070540 
 3469000    1.1073689   -1.3887143   -1.3887143  -0.59514834   0.10870984   -1.3887143   0.79356594  1070540 
 3470000    1.1096694   -1.3906186   -1.3906186  -0.59540407   0.10717284   -1.3906186    0.7952145  1070540 
 3471000    1.1102904   -1.3906379   -1.3906379  -0.59497835    0.1144196   -1.3906379   0.79565952  1070540 
 3472000    1.1088655   -1.3892641   -1.3892641  -0.59462573   0.11617265   -1.3892641   0.79463841  1070540 
 3473000    1.1079832   -1.3887242   -1.3887242  -0.59471807   0.10927954   -1.3887242   0.79400613  1070540 
 3474000    1.1091869   -1.3895862   -1.3895862  -0.59471741   0.10975298   -1.3895862   0.79486877  1070540 
 3475000    1.1085572   -1.3891878   -1.3891878  -0.59477028   0.10605795   -1.3891878   0.79441752  1070540 
 3476000    1.1086087   -1.3893086   -1.3893086  -0.59485422   0.10784985   -1.3893086   0.79445437  1070540 
 3477000    1.1074705   -1.3886843   -1.3886843  -0.59504551   0.11222094   -1.3886843   0.79363877  1070540 
 3478000    1.1069771   -1.3880757   -1.3880757   -0.5947906   0.10627312   -1.3880757   0.79328515  1070540 
 3479000    1.1074396   -1.3881269   -1.3881269  -0.59451025   0.11046591   -1.3881269   0.79361663  1070540 
 3480000    1.1067395   -1.3878712   -1.3878712  -0.59475627   0.11331334   -1.3878712   0.79311492  1070540 
 3481000    1.1084798    -1.388624    -1.388624  -0.59426198   0.11432385    -1.388624     0.794362  1070540 
 3482000    1.1072724   -1.3872861   -1.3872861  -0.59378929   0.11276218   -1.3872861   0.79349678  1070540 
 3483000    1.1092523   -1.3887534   -1.3887534  -0.59383779   0.10523876   -1.3887534    0.7949156  1070540 
 3484000    1.1081703    -1.388623    -1.388623  -0.59448277   0.12045463    -1.388623   0.79414025  1070540 
 3485000    1.1073555   -1.3878554   -1.3878554  -0.59429908   0.10505158   -1.3878554   0.79355634  1070540 
 3486000    1.1095986   -1.3893799   -1.3893799  -0.59421609   0.11413779   -1.3893799    0.7951638  1070540 
 3487000    1.1079325    -1.388651    -1.388651  -0.59468118     0.105159    -1.388651   0.79396986  1070540 
 3488000    1.1068652   -1.3881171   -1.3881171  -0.59491217    0.1053053   -1.3881171   0.79320497  1070540 
 3489000     1.108725   -1.3894241   -1.3894241  -0.59488635   0.10561835   -1.3894241   0.79453776  1070540 
 3490000    1.1084124   -1.3893455   -1.3893455   -0.5950318   0.11886835   -1.3893455   0.79431371  1070540 
 3491000    1.1080836    -1.388787    -1.388787   -0.5947089   0.11465816    -1.388787   0.79407809  1070540 
 3492000    1.1085915   -1.3890024   -1.3890024  -0.59456038   0.10504715   -1.3890024   0.79444207  1070540 
 3493000     1.108987   -1.3887706   -1.3887706  -0.59404509   0.11374595   -1.3887706   0.79472552  1070540 
 3494000    1.1074921   -1.3879174   -1.3879174  -0.59426317   0.10604341   -1.3879174   0.79365426  1070540 
 3495000    1.1084241   -1.3888213   -1.3888213  -0.59449913   0.11014918   -1.3888213   0.79432213  1070540 
 3496000    1.1069721   -1.3877931   -1.3877931  -0.59451154   0.11097314   -1.3877931   0.79328157  1070540 
 3497000    1.1081194    -1.388336    -1.388336  -0.59423227   0.11541026    -1.388336   0.79410375  1070540 
 3498000    1.1067732   -1.3877536   -1.3877536  -0.59461452   0.11546854   -1.3877536   0.79313906  1070540 
 3499000    1.1062152   -1.3872078   -1.3872078  -0.59446862   0.10934968   -1.3872078   0.79273915  1070540 
 3500000    1.1070069   -1.3879601   -1.3879601  -0.59465362    0.1095758   -1.3879601   0.79330649  1070540 
 3501000    1.1061051   -1.3870762   -1.3870762  -0.59441592   0.10359664   -1.3870762   0.79266027  1070540 
 3502000     1.107439   -1.3879548   -1.3879548  -0.59433865   0.10838929   -1.3879548   0.79361619  1070540 
 3503000    1.1088483   -1.3886035   -1.3886035  -0.59397736   0.10594028   -1.3886035   0.79462611  1070540 
 3504000    1.1102536   -1.3897153   -1.3897153  -0.59408211    0.1172087   -1.3897153   0.79563321  1070540 
 3505000    1.1084175   -1.3884801   -1.3884801  -0.59416278   0.11592184   -1.3884801   0.79431736  1070540 
 3506000    1.1089305   -1.3892234   -1.3892234  -0.59453839    0.1046879   -1.3892234   0.79468504  1070540 
 3507000    1.1076515   -1.3885936   -1.3885936  -0.59482515   0.11974643   -1.3885936   0.79376847  1070540 
 3508000     1.107721   -1.3886746   -1.3886746  -0.59485642   0.10467311   -1.3886746   0.79381822  1070540 
 3509000    1.1079373    -1.388471    -1.388471  -0.59449773   0.10023294    -1.388471   0.79397323  1070540 
 3510000    1.1079797   -1.3884292   -1.3884292  -0.59442554   0.10998488   -1.3884292   0.79400365  1070540 
 3511000    1.1088413   -1.3883481   -1.3883481  -0.59372704    0.1051455   -1.3883481   0.79462109  1070540 
 3512000    1.1069174    -1.387507    -1.387507  -0.59426468    0.1116745    -1.387507   0.79324236  1070540 
 3513000    1.1075029   -1.3876679   -1.3876679  -0.59400593   0.10332277   -1.3876679   0.79366196  1070540 
 3514000     1.108037   -1.3883874   -1.3883874  -0.59434266   0.11901638   -1.3883874   0.79404473  1070540 
 3515000    1.1064901    -1.386904    -1.386904  -0.59396784   0.11645325    -1.386904   0.79293618  1070540 
 3516000    1.1078668   -1.3882663   -1.3882663  -0.59434355   0.10901126   -1.3882663   0.79392271  1070540 
 3517000    1.1096024   -1.3888722   -1.3888722   -0.5937057   0.11029089   -1.3888722   0.79516649  1070540 
 3518000    1.1088159   -1.3881263   -1.3881263  -0.59352342   0.11206517   -1.3881263   0.79460285  1070540 
 3519000    1.1087801   -1.3877831   -1.3877831  -0.59320587    0.1121518   -1.3877831    0.7945772  1070540 
 3520000    1.1085408   -1.3880174   -1.3880174  -0.59361164   0.11291736   -1.3880174   0.79440575  1070540 
 3521000    1.1088847   -1.3883129   -1.3883129  -0.59366067   0.11145088   -1.3883129    0.7946522  1070540 
 3522000    1.1091373   -1.3885976   -1.3885976  -0.59376435   0.11475961   -1.3885976   0.79483324  1070540 
 3523000    1.1087865   -1.3881942   -1.3881942   -0.5936124     0.113688   -1.3881942   0.79458179  1070540 
 3524000    1.1091732   -1.3886866   -1.3886866   -0.5938277    0.1079405   -1.3886866   0.79485894  1070540 
 3525000    1.1085222   -1.3879191   -1.3879191  -0.59352673   0.10810667   -1.3879191    0.7943924  1070540 
 3526000    1.1093581   -1.3887296   -1.3887296  -0.59373816   0.11444376   -1.3887296   0.79499142  1070540 
 3527000      1.10718   -1.3876381   -1.3876381  -0.59420752   0.11078754   -1.3876381   0.79343057  1070540 
 3528000    1.1085558   -1.3885991   -1.3885991  -0.59418257   0.11420116   -1.3885991   0.79441649  1070540 
 3529000    1.1088082   -1.3885444   -1.3885444  -0.59394704     0.107652   -1.3885444   0.79459738  1070540 
 3530000    1.1073006   -1.3878579   -1.3878579  -0.59434093   0.12261831   -1.3878579   0.79351697  1070540 
 3531000    1.1063173   -1.3873879   -1.3873879  -0.59457556   0.11076162   -1.3873879   0.79281234  1070540 
 3532000    1.1067108   -1.3874584   -1.3874584  -0.59436413   0.11244014   -1.3874584   0.79309432  1070540 
 3533000    1.1091664   -1.3888711   -1.3888711  -0.59401702    0.1046659   -1.3888711   0.79485408  1070540 
 3534000    1.1070928    -1.387586    -1.387586   -0.5942179   0.10927671    -1.387586   0.79336809  1070540 
 3535000    1.1087042   -1.3889135   -1.3889135  -0.59439071   0.11397212   -1.3889135   0.79452282  1070540 
 3536000    1.1081906   -1.3886914   -1.3886914   -0.5945366   0.10584886   -1.3886914    0.7941548  1070540 
 3537000    1.1078844   -1.3880792   -1.3880792  -0.59414381   0.11194578   -1.3880792   0.79393534  1070540 
 3538000    1.1085702   -1.3888432   -1.3888432  -0.59441636   0.11540588   -1.3888432   0.79442679  1070540 
 3539000    1.1075127   -1.3879984   -1.3879984  -0.59432945   0.11521886   -1.3879984   0.79366898  1070540 
 3540000    1.1085288   -1.3890976   -1.3890976  -0.59470041   0.10499991   -1.3890976   0.79439716  1070540 
 3541000    1.1064264   -1.3874071   -1.3874071   -0.5945166   0.10982126   -1.3874071   0.79289053  1070540 
 3542000    1.1086483   -1.3885878   -1.3885878  -0.59410499    0.1056677   -1.3885878    0.7944828  1070540 
 3543000    1.1081869   -1.3881471   -1.3881471  -0.59399496   0.11246525   -1.3881471   0.79415211  1070540 
 3544000    1.1093059   -1.3888721   -1.3888721  -0.59391808  0.098550424   -1.3888721   0.79495406  1070540 
 3545000     1.108638   -1.3884216   -1.3884216  -0.59394618   0.11174875   -1.3884216   0.79447537  1070540 
 3546000    1.1086667   -1.3881307   -1.3881307   -0.5936347    0.1032488   -1.3881307   0.79449598  1070540 
 3547000      1.10777   -1.3873764   -1.3873764  -0.59352298   0.10813906   -1.3873764    0.7938534  1070540 
 3548000     1.109256   -1.3880904   -1.3880904  -0.59317215   0.10876958   -1.3880904   0.79491827  1070540 
 3549000    1.1078451   -1.3872479   -1.3872479  -0.59334071   0.11624192   -1.3872479   0.79390716  1070540 
 3550000    1.1082207   -1.3872101   -1.3872101  -0.59303378   0.11752639   -1.3872101   0.79417633  1070540 
 3551000    1.1075004    -1.386469    -1.386469  -0.59280881   0.12267882    -1.386469   0.79366014  1070540 
 3552000    1.1089225   -1.3876149   -1.3876149  -0.59293562   0.11358182   -1.3876149   0.79467929  1070540 
 3553000    1.1067079    -1.386129    -1.386129  -0.59303673   0.11934412    -1.386129   0.79309224  1070540 
 3554000    1.1085046    -1.387844    -1.387844  -0.59346414    0.1095451    -1.387844   0.79437983  1070540 
 3555000    1.1103991   -1.3888543   -1.3888543  -0.59311684   0.10557487   -1.3888543   0.79573742  1070540 
 3556000    1.1091046   -1.3884749   -1.3884749  -0.59366511   0.11416788   -1.3884749   0.79480981  1070540 
 3557000    1.1084711   -1.3877587   -1.3877587  -0.59340293   0.11796969   -1.3877587   0.79435582  1070540 
 3558000    1.1075122   -1.3873785   -1.3873785  -0.59370986    0.1154112   -1.3873785    0.7936686  1070540 
 3559000    1.1094823   -1.3888688   -1.3888688  -0.59378836   0.10579889   -1.3888688   0.79508046  1070540 
 3560000    1.1061606   -1.3866959   -1.3866959  -0.59399587   0.12031859   -1.3866959   0.79270001  1070540 
 3561000    1.1077832   -1.3879886   -1.3879886   -0.5941258   0.11314472   -1.3879886   0.79386284  1070540 
 3562000    1.1087795   -1.3884287   -1.3884287  -0.59385188   0.11740715   -1.3884287   0.79457681  1070540 
 3563000    1.1072711   -1.3879933   -1.3879933  -0.59449743   0.11448004   -1.3879933   0.79349586  1070540 
 3564000    1.1078301   -1.3886101   -1.3886101  -0.59471369   0.11023188   -1.3886101   0.79389642  1070540 
 3565000    1.1083754   -1.3886854   -1.3886854   -0.5943982   0.10379706   -1.3886854   0.79428719  1070540 
 3566000    1.1098111   -1.3896323   -1.3896323  -0.59431626   0.11466068   -1.3896323   0.79531608  1070540 
 3567000    1.1066317   -1.3877067   -1.3877067  -0.59466902   0.11763566   -1.3877067   0.79303765  1070540 
 3568000    1.1073514   -1.3878758   -1.3878758   -0.5943224   0.11161579   -1.3878758   0.79355337  1070540 
 3569000    1.1069604   -1.3878932   -1.3878932  -0.59462005   0.11095182   -1.3878932    0.7932732  1070540 
 3570000    1.1066917   -1.3876732   -1.3876732  -0.59459258   0.11534041   -1.3876732    0.7930806  1070540 
 3571000    1.1072981   -1.3879297   -1.3879297  -0.59441453    0.1177313   -1.3879297   0.79351521  1070540 
 3572000    1.1093969   -1.3895415   -1.3895415  -0.59452227   0.10950022   -1.3895415   0.79501926  1070540 
 3573000    1.1082591   -1.3884098   -1.3884098  -0.59420595   0.11397291   -1.3884098   0.79420388  1070540 
 3574000    1.1080473   -1.3883138   -1.3883138  -0.59426164    0.1077552   -1.3883138   0.79405212  1070540 
 3575000    1.1081108   -1.3880615   -1.3880615  -0.59396389   0.11555817   -1.3880615   0.79409758  1070540 
 3576000    1.1078589   -1.3878526   -1.3878526  -0.59393553    0.1222112   -1.3878526   0.79391707  1070540 
 3577000    1.1085562   -1.3889459   -1.3889459  -0.59452905   0.11290329   -1.3889459   0.79441681  1070540 
 3578000       1.1074   -1.3883501   -1.3883501  -0.59476195    0.1062853   -1.3883501   0.79358819  1070540 
 3579000    1.1073266   -1.3883123   -1.3883123  -0.59477671   0.11503529   -1.3883123   0.79353563  1070540 
 3580000    1.1073876   -1.3886848   -1.3886848  -0.59510549   0.11458903   -1.3886848   0.79357932  1070540 
 3581000    1.1082318   -1.3892277   -1.3892277  -0.59504338   0.10539837   -1.3892277   0.79418434  1070540 
 3582000    1.1070356   -1.3887008   -1.3887008   -0.5953737   0.10673722   -1.3887008   0.79332707  1070540 
 3583000    1.1080493   -1.3888743   -1.3888743  -0.59482078   0.11570752   -1.3888743   0.79405352  1070540 
 3584000    1.1071169   -1.3885752   -1.3885752  -0.59518987   0.10674176   -1.3885752   0.79338537  1070540 
 3585000    1.1094985    -1.390608    -1.390608  -0.59551599   0.11329943    -1.390608   0.79509205  1070540 
 3586000    1.1100609   -1.3908104   -1.3908104  -0.59531534    0.1074361   -1.3908104   0.79549508  1070540 
 3587000    1.1079087   -1.3892687   -1.3892687  -0.59531593   0.11377832   -1.3892687   0.79395275  1070540 
 3588000    1.1090382   -1.3902423   -1.3902423   -0.5954801   0.11784353   -1.3902423   0.79476219  1070540 
 3589000    1.1082311   -1.3891358   -1.3891358  -0.59495202    0.1101269   -1.3891358   0.79418377  1070540 
 3590000    1.1083238   -1.3895329   -1.3895329   -0.5952826    0.1101202   -1.3895329   0.79425026  1070540 
 3591000    1.1078166   -1.3887979   -1.3887979  -0.59491117   0.11444631   -1.3887979   0.79388676  1070540 
 3592000    1.1091287   -1.3894706   -1.3894706  -0.59464361   0.11918907   -1.3894706   0.79482704  1070540 
 3593000    1.1094418   -1.3893942   -1.3893942  -0.59434279   0.11708805   -1.3893942   0.79505142  1070540 
 3594000    1.1098297   -1.3896584   -1.3896584  -0.59432898   0.11562223   -1.3896584    0.7953294  1070540 
 3595000    1.1084454    -1.388833    -1.388833  -0.59449567   0.11281236    -1.388833   0.79433735  1070540 
 3596000    1.1099528   -1.3898076   -1.3898076  -0.59439004   0.11226029   -1.3898076    0.7954176  1070540 
 3597000    1.1094471   -1.3891396   -1.3891396  -0.59408431   0.10543247   -1.3891396   0.79505525  1070540 
 3598000    1.1089891   -1.3885455   -1.3885455  -0.59381852   0.11659823   -1.3885455   0.79472702  1070540 
 3599000    1.1075265   -1.3876401   -1.3876401  -0.59396124   0.11897285   -1.3876401   0.79367889  1070540 
 3600000    1.1097543   -1.3894845   -1.3894845  -0.59420915   0.11726593   -1.3894845   0.79527538  1070540 
 3601000    1.1090467   -1.3891533   -1.3891533    -0.594385   0.11177875   -1.3891533   0.79476827  1070540 
 3602000    1.1089308   -1.3889064   -1.3889064  -0.59422119   0.11153593   -1.3889064   0.79468521  1070540 
 3603000    1.1089866   -1.3892517   -1.3892517  -0.59452649   0.11184703   -1.3892517   0.79472524  1070540 
 3604000    1.1087516   -1.3891123   -1.3891123  -0.59455546   0.11081704   -1.3891123   0.79455682  1070540 
 3605000    1.1082365   -1.3882435   -1.3882435  -0.59405585      0.11382   -1.3882435   0.79418765  1070540 
 3606000    1.1102728   -1.3896849   -1.3896849  -0.59403791   0.10679676   -1.3896849   0.79564696  1070540 
 3607000    1.1083896   -1.3885035   -1.3885035  -0.59420607   0.10953065   -1.3885035   0.79429741  1070540 
 3608000    1.1077766   -1.3882402   -1.3882402  -0.59438216   0.11469107   -1.3882402   0.79385807  1070540 
 3609000    1.1089168   -1.3893996   -1.3893996  -0.59472439    0.1059627   -1.3893996   0.79467517  1070540 
 3610000     1.108328   -1.3899233   -1.3899233   -0.5956701   0.11181807   -1.3899233   0.79425322  1070540 
 3611000    1.1070222   -1.3889505   -1.3889505  -0.59563298   0.10745634   -1.3889505   0.79331747  1070540 
 3612000    1.1094547   -1.3902803   -1.3902803  -0.59521959   0.10308886   -1.3902803    0.7950607  1070540 
 3613000    1.1105453   -1.3905896   -1.3905896  -0.59474744   0.11643902   -1.3905896   0.79584221  1070540 
 3614000      1.10826   -1.3885808   -1.3885808  -0.59437631   0.10801645   -1.3885808   0.79420451  1070540 
 3615000    1.1092183   -1.3895295   -1.3895295  -0.59463824   0.11111556   -1.3895295   0.79489124  1070540 
 3616000    1.1084234   -1.3884452   -1.3884452   -0.5941236   0.11895754   -1.3884452   0.79432159  1070540 
 3617000    1.1083328   -1.3891257   -1.3891257  -0.59486902   0.10971967   -1.3891257    0.7942567  1070540 
 3618000    1.1064793   -1.3879265   -1.3879265  -0.59499815   0.11114783   -1.3879265    0.7929284  1070540 
 3619000    1.1074763   -1.3885558   -1.3885558  -0.59491289   0.10724046   -1.3885558    0.7936429  1070540 
 3620000    1.1074636    -1.388925    -1.388925  -0.59529115   0.11389628    -1.388925   0.79363382  1070540 
 3621000    1.1081269   -1.3893352   -1.3893352  -0.59522611   0.11158705   -1.3893352   0.79410913  1070540 
 3622000    1.1073417   -1.3888259   -1.3888259  -0.59527944   0.11215503   -1.3888259   0.79354645  1070540 
 3623000    1.1088474    -1.389644    -1.389644  -0.59501851   0.11795819    -1.389644   0.79462547  1070540 
 3624000    1.1092598   -1.3893957   -1.3893957  -0.59447471   0.11434596   -1.3893957   0.79492098  1070540 
 3625000     1.108026   -1.3885798   -1.3885798  -0.59454299   0.10818749   -1.3885798   0.79403685  1070540 
 3626000    1.1091765   -1.3892697   -1.3892697  -0.59440844   0.10984566   -1.3892697   0.79486127  1070540 
 3627000    1.1087532   -1.3890355   -1.3890355  -0.59447751   0.11356012   -1.3890355   0.79455797  1070540 
 3628000    1.1079713    -1.388731    -1.388731  -0.59473337   0.11677576    -1.388731   0.79399765  1070540 
 3629000    1.1089964   -1.3891731   -1.3891731  -0.59444085   0.10767361   -1.3891731   0.79473227  1070540 
 3630000    1.1098074   -1.3903297   -1.3903297  -0.59501628    0.1122353   -1.3903297   0.79531344  1070540 
 3631000    1.1103045   -1.3906556   -1.3906556  -0.59498593   0.10931573   -1.3906556   0.79566962  1070540 
 3632000    1.1082179   -1.3885882   -1.3885882  -0.59441385   0.11071975   -1.3885882   0.79417432  1070540 
 3633000    1.1092908   -1.3897009   -1.3897009  -0.59475762   0.11388303   -1.3897009   0.79494323  1070540 
 3634000    1.1086544   -1.3894173   -1.3894173  -0.59493008  0.099989237   -1.3894173   0.79448718  1070540 
 3635000    1.1084205   -1.3894322   -1.3894322  -0.59511268   0.10787385   -1.3894322    0.7943195  1070540 
 3636000    1.1082085   -1.3891943   -1.3891943  -0.59502671   0.11669581   -1.3891943   0.79416759  1070540 
 3637000    1.1074577   -1.3888256   -1.3888256  -0.59519609   0.11631662   -1.3888256   0.79362955  1070540 
 3638000    1.1079287   -1.3886979   -1.3886979  -0.59473073   0.11006694   -1.3886979   0.79396713  1070540 
 3639000    1.1068066   -1.3882297   -1.3882297   -0.5950667    0.1037913   -1.3882297     0.793163  1070540 
 3640000    1.1066204   -1.3875384   -1.3875384  -0.59450886   0.11542627   -1.3875384   0.79302956  1070540 
 3641000    1.1079593    -1.388195    -1.388195  -0.59420596   0.10706818    -1.388195     0.793989  1070540 
 3642000    1.1095873   -1.3892295   -1.3892295   -0.5940738   0.11827639   -1.3892295   0.79515568  1070540 
 3643000    1.1083531   -1.3880581   -1.3880581  -0.59378692    0.1024948   -1.3880581   0.79427121  1070540 
 3644000    1.1093585   -1.3887083   -1.3887083  -0.59371656    0.1115858   -1.3887083   0.79499172  1070540 
 3645000    1.1078712   -1.3873126   -1.3873126  -0.59338666   0.12035699   -1.3873126   0.79392593  1070540 
 3646000    1.1086017   -1.3880414   -1.3880414  -0.59359204    0.1058983   -1.3880414   0.79444939  1070540 
 3647000    1.1090739   -1.3882173   -1.3882173  -0.59342952   0.10176549   -1.3882173   0.79478777  1070540 
 3648000    1.1091102   -1.3880719   -1.3880719  -0.59325806   0.11521703   -1.3880719   0.79481381  1070540 
 3649000     1.109308   -1.3884695   -1.3884695  -0.59351402   0.11424025   -1.3884695   0.79495551  1070540 
 3650000       1.1096   -1.3883258   -1.3883258  -0.59316102   0.11034649   -1.3883258   0.79516482  1070540 
 3651000    1.1093619     -1.38798     -1.38798  -0.59298578   0.10627458     -1.38798   0.79499418  1070540 
 3652000    1.1085098   -1.3872473   -1.3872473  -0.59286381   0.10539452   -1.3872473   0.79438351  1070540 
 3653000    1.1089688   -1.3873667   -1.3873667  -0.59265419   0.11377772   -1.3873667   0.79471247  1070540 
 3654000    1.1106927   -1.3884949   -1.3884949  -0.59254709   0.11049906   -1.3884949   0.79594786  1070540 
 3655000    1.1101488   -1.3881319   -1.3881319   -0.5925738   0.10727023   -1.3881319   0.79555806  1070540 
 3656000    1.1106667   -1.3883387   -1.3883387  -0.59240951   0.10767497   -1.3883387   0.79592921  1070540 
 3657000     1.109964   -1.3884822   -1.3884822  -0.59305663   0.10887633   -1.3884822   0.79542561  1070540 
 3658000    1.1093665   -1.3882288   -1.3882288   -0.5932314   0.11228124   -1.3882288   0.79499744  1070540 
 3659000    1.1110391   -1.3891742   -1.3891742  -0.59297811   0.10824695   -1.3891742   0.79619606  1070540 
 3660000    1.1083275   -1.3874636   -1.3874636  -0.59321071   0.10833407   -1.3874636   0.79425286  1070540 
 3661000    1.1075189   -1.3867626   -1.3867626  -0.59308919   0.11831484   -1.3867626   0.79367339  1070540 
 3662000    1.1096773   -1.3879511   -1.3879511  -0.59273085    0.1113005   -1.3879511   0.79522021  1070540 
 3663000     1.109432   -1.3880344   -1.3880344  -0.59299001    0.1063641   -1.3880344   0.79504437  1070540 
 3664000    1.1101028   -1.3885882   -1.3885882  -0.59306309   0.11135586   -1.3885882   0.79552507  1070540 
 3665000    1.1103548   -1.3889947   -1.3889947  -0.59328903   0.11941533   -1.3889947   0.79570567  1070540 
 3666000    1.1067186   -1.3866703   -1.3866703   -0.5935704    0.1071459   -1.3866703    0.7930999  1070540 
 3667000    1.1076622   -1.3871938   -1.3871938  -0.59341768   0.11364438   -1.3871938    0.7937761  1070540 
 3668000    1.1089238    -1.387982    -1.387982  -0.59330182   0.11000681    -1.387982   0.79468021  1070540 
 3669000    1.1095682   -1.3890745   -1.3890745  -0.59393253   0.10560274   -1.3890745     0.795142  1070540 
 3670000    1.1089708   -1.3884908   -1.3884908  -0.59377696   0.10798713   -1.3884908   0.79471388  1070540 
 3671000    1.1092703   -1.3883857   -1.3883857   -0.5934571   0.11407171   -1.3883857   0.79492855  1070540 
 3672000     1.109335    -1.388453    -1.388453   -0.5934781   0.11410345    -1.388453   0.79497491  1070540 
 3673000    1.1096578   -1.3887733   -1.3887733  -0.59356713   0.11084302   -1.3887733    0.7952062  1070540 
 3674000    1.1106555    -1.389594    -1.389594  -0.59367286   0.11454412    -1.389594   0.79592116  1070540 
 3675000    1.1083135   -1.3879369   -1.3879369  -0.59369408    0.1134438   -1.3879369   0.79424285  1070540 
 3676000     1.107166   -1.3871288   -1.3871288  -0.59370834   0.10414698   -1.3871288   0.79342051  1070540 
 3677000    1.1076178   -1.3871913   -1.3871913  -0.59344701   0.10541492   -1.3871913   0.79374428  1070540 
 3678000     1.106023   -1.3864089   -1.3864089   -0.5938074   0.11114516   -1.3864089   0.79260146  1070540 
 3679000    1.1078149   -1.3878533   -1.3878533  -0.59396776    0.1118158   -1.3878533   0.79388556  1070540 
 3680000    1.1082546   -1.3877013   -1.3877013  -0.59350064   0.11626145   -1.3877013   0.79420068  1070540 
 3681000    1.1071728   -1.3867073   -1.3867073  -0.59328191   0.10872572   -1.3867073   0.79342538  1070540 
 3682000    1.1062184   -1.3865765   -1.3865765  -0.59383502   0.10838784   -1.3865765   0.79274144  1070540 
 3683000    1.1066393   -1.3867637   -1.3867637  -0.59372065   0.11256514   -1.3867637   0.79304309  1070540 
 3684000    1.1068221   -1.3870019   -1.3870019  -0.59382783   0.11829671   -1.3870019   0.79317406  1070540 
 3685000    1.1076257   -1.3876264   -1.3876264  -0.59387644   0.10303716   -1.3876264   0.79374996  1070540 
 3686000    1.1084094   -1.3880104   -1.3880104  -0.59369887   0.11217699   -1.3880104   0.79431157  1070540 
 3687000    1.1086381   -1.3883074   -1.3883074  -0.59383195    0.1070616   -1.3883074   0.79447548  1070540 
 3688000    1.1091826      -1.3883      -1.3883  -0.59343431   0.10119593      -1.3883    0.7948657  1070540 
 3689000    1.1101761   -1.3888322   -1.3888322  -0.59325462   0.10863603   -1.3888322   0.79557761  1070540 
 3690000    1.1084889   -1.3876453   -1.3876453  -0.59327671   0.10627241   -1.3876453   0.79436857  1070540 
 3691000    1.1080388    -1.387232    -1.387232  -0.59318597   0.10913665    -1.387232   0.79404601  1070540 
 3692000    1.1083133   -1.3874619   -1.3874619  -0.59321915   0.11264087   -1.3874619   0.79424271  1070540 
 3693000    1.1072146   -1.3866998   -1.3866998  -0.59324441   0.11265718   -1.3866998   0.79345539  1070540 
 3694000    1.1093267   -1.3882445   -1.3882445  -0.59327551   0.10587385   -1.3882445   0.79496896  1070540 
 3695000    1.1088629   -1.3878286   -1.3878286  -0.59319198   0.10883722   -1.3878286   0.79463659  1070540 
 3696000    1.1085813   -1.3881436   -1.3881436  -0.59370882   0.10956047   -1.3881436   0.79443478  1070540 
 3697000    1.1087714   -1.3881222   -1.3881222  -0.59355115   0.11532905   -1.3881222   0.79457103  1070540 
 3698000    1.1081381   -1.3879624   -1.3879624  -0.59384521   0.10925222   -1.3879624   0.79411719  1070540 
 3699000    1.1092977   -1.3887158   -1.3887158  -0.59376761   0.11093767   -1.3887158   0.79494814  1070540 
 3700000     1.108838   -1.3888372   -1.3888372  -0.59421848    0.1103325   -1.3888372   0.79461869  1070540 
 3701000    1.1086614   -1.3883663   -1.3883663  -0.59387412   0.10354777   -1.3883663   0.79449219  1070540 
 3702000    1.1062638   -1.3869872   -1.3869872  -0.59421324   0.10734579   -1.3869872   0.79277399  1070540 
 3703000    1.1085378   -1.3890096   -1.3890096  -0.59460596   0.10660122   -1.3890096    0.7944036  1070540 
 3704000     1.108459   -1.3885383   -1.3885383  -0.59419116   0.10564278   -1.3885383    0.7943471  1070540 
 3705000    1.1096907   -1.3892954   -1.3892954  -0.59406568   0.11335103   -1.3892954   0.79522976  1070540 
 3706000    1.1104389   -1.3894339   -1.3894339  -0.59366796   0.10820101   -1.3894339   0.79576596  1070540 
 3707000    1.1107752   -1.3895904   -1.3895904  -0.59358343    0.1050417   -1.3895904   0.79600697  1070540 
 3708000    1.1098245   -1.3894643   -1.3894643  -0.59413861   0.11486707   -1.3894643   0.79532571  1070540 
 3709000    1.1113033   -1.3907973   -1.3907973   -0.5944119   0.11578499   -1.3907973   0.79638544  1070540 
 3710000    1.1107512   -1.3902491   -1.3902491  -0.59425931   0.11835057   -1.3902491   0.79598978  1070540 
 3711000     1.110572    -1.390194    -1.390194  -0.59433264   0.11325123    -1.390194   0.79586134  1070540 
 3712000    1.1083984   -1.3890389   -1.3890389  -0.59473513   0.12498235   -1.3890389   0.79430373  1070540 
 3713000    1.1096232   -1.3902112   -1.3902112  -0.59502975   0.10941173   -1.3902112   0.79518142  1070540 
 3714000    1.1117147   -1.3916294   -1.3916294  -0.59494922   0.11091189   -1.3916294   0.79668021  1070540 
 3715000    1.1098139   -1.3906612   -1.3906612  -0.59534312   0.11152639   -1.3906612   0.79531808  1070540 
 3716000    1.1075209   -1.3885105   -1.3885105  -0.59483559   0.11203035   -1.3885105   0.79367488  1070540 
 3717000    1.1087809   -1.3896008   -1.3896008  -0.59502296   0.10894629   -1.3896008    0.7945778  1070540 
 3718000    1.1084503   -1.3894831   -1.3894831  -0.59514226   0.11742075   -1.3894831   0.79434089  1070540 
 3719000      1.10815   -1.3895035   -1.3895035  -0.59537784   0.10951483   -1.3895035   0.79412567  1070540 
 3720000    1.1072561   -1.3889954   -1.3889954  -0.59551024   0.11878334   -1.3889954   0.79348511  1070540 
 3721000    1.1074169   -1.3885466   -1.3885466  -0.59494634   0.11102951   -1.3885466    0.7936003  1070540 
 3722000    1.1106355   -1.3905939   -1.3905939  -0.59468713   0.11331734   -1.3905939   0.79590682  1070540 
 3723000    1.1104868   -1.3900967   -1.3900967  -0.59429644   0.11824784   -1.3900967   0.79580027  1070540 
 3724000    1.1078826   -1.3883704   -1.3883704  -0.59443636   0.10572395   -1.3883704   0.79393405  1070540 
 3725000    1.1090459     -1.38935     -1.38935  -0.59458234    0.1173272     -1.38935    0.7947677  1070540 
 3726000    1.1079571    -1.388499    -1.388499  -0.59451158   0.12059374    -1.388499   0.79398746  1070540 
 3727000     1.108257   -1.3890376   -1.3890376  -0.59483518  0.099421928   -1.3890376    0.7942024  1070540 
 3728000    1.1078438    -1.388967    -1.388967  -0.59506068   0.10485629    -1.388967   0.79390627  1070540 
 3729000    1.1078469   -1.3888438   -1.3888438  -0.59493526   0.10796961   -1.3888438    0.7939085  1070540 
 3730000    1.1088181   -1.3892389   -1.3892389  -0.59463445   0.11635117   -1.3892389   0.79460443  1070540 
 3731000    1.1087665   -1.3886326   -1.3886326  -0.59406513   0.11224586   -1.3886326    0.7945675  1070540 
 3732000    1.1090463   -1.3886883   -1.3886883  -0.59392026   0.11427833   -1.3886883   0.79476802  1070540 
 3733000    1.1091828    -1.388417    -1.388417  -0.59355121   0.10293583    -1.388417    0.7948658  1070540 
 3734000    1.1075235   -1.3874348   -1.3874348  -0.59375803   0.11135147   -1.3874348   0.79367676  1070540 
 3735000    1.1074106   -1.3877521   -1.3877521  -0.59415626   0.11506262   -1.3877521   0.79359584  1070540 
 3736000    1.1078821   -1.3883775   -1.3883775   -0.5944438   0.10409002   -1.3883775    0.7939337  1070540 
 3737000    1.1095144   -1.3891249   -1.3891249  -0.59402147   0.11073624   -1.3891249   0.79510347  1070540 
 3738000    1.1070543   -1.3873638   -1.3873638  -0.59402337   0.11008391   -1.3873638   0.79334046  1070540 
 3739000    1.1092288   -1.3892244   -1.3892244  -0.59432563   0.11321489   -1.3892244   0.79489877  1070540 
 3740000    1.1081822    -1.388436    -1.388436  -0.59428724    0.1043403    -1.388436   0.79414877  1070540 
 3741000    1.1091231   -1.3890627   -1.3890627  -0.59423966   0.11123135   -1.3890627   0.79482306  1070540 
 3742000    1.1093914   -1.3889153   -1.3889153  -0.59390001   0.11217448   -1.3889153   0.79501529  1070540 
 3743000    1.1096719   -1.3889075   -1.3889075  -0.59369116   0.10749153   -1.3889075   0.79521631  1070540 
 3744000    1.1095689   -1.3889508   -1.3889508  -0.59380825   0.10947458   -1.3889508   0.79514253  1070540 
 3745000    1.1083076    -1.388179    -1.388179  -0.59394035   0.10995538    -1.388179   0.79423863  1070540 
 3746000    1.1090585    -1.389132    -1.389132  -0.59435523   0.10808022    -1.389132   0.79477677  1070540 
 3747000    1.1091624   -1.3892907   -1.3892907   -0.5944395   0.11261644   -1.3892907   0.79485121  1070540 
 3748000    1.1093261   -1.3892887   -1.3892887  -0.59432024   0.11169717   -1.3892887   0.79496849  1070540 
 3749000    1.1097873   -1.3894342   -1.3894342  -0.59413517   0.11398504   -1.3894342   0.79529905  1070540 
 3750000    1.1103625   -1.3899352   -1.3899352  -0.59422403   0.11275577   -1.3899352   0.79571121  1070540 
 3751000    1.1100301   -1.3890977   -1.3890977  -0.59362469   0.11195478   -1.3890977     0.795473  1070540 
 3752000    1.1096667   -1.3893999   -1.3893999  -0.59418736   0.11500685   -1.3893999   0.79521257  1070540 
 3753000    1.1090184   -1.3892005   -1.3892005  -0.59445242   0.10974327   -1.3892005   0.79474804  1070540 
 3754000    1.1096733   -1.3897431   -1.3897431  -0.59452574   0.11200025   -1.3897431   0.79521734  1070540 
 3755000    1.1097876    -1.390259    -1.390259  -0.59495978   0.11659558    -1.390259   0.79529921  1070540 
 3756000    1.1099178   -1.3899362   -1.3899362  -0.59454366   0.11664866   -1.3899362   0.79539251  1070540 
 3757000    1.1107784   -1.3907324   -1.3907324  -0.59472316   0.10907351   -1.3907324   0.79600929  1070540 
 3758000    1.1105446   -1.3904042   -1.3904042  -0.59456252   0.11192645   -1.3904042   0.79584173  1070540 
 3759000    1.1092159   -1.3888062   -1.3888062  -0.59391668   0.12425666   -1.3888062   0.79488952  1070540 
 3760000    1.1086171   -1.3885005   -1.3885005  -0.59404007   0.11885843   -1.3885005   0.79446044  1070540 
 3761000     1.110278   -1.3897636   -1.3897636  -0.59411298   0.11098935   -1.3897636   0.79565067  1070540 
 3762000    1.1115444   -1.3905275   -1.3905275  -0.59396937   0.10638028   -1.3905275   0.79655818  1070540 
 3763000    1.1088731   -1.3882949   -1.3882949  -0.59365094   0.10765247   -1.3882949   0.79464391  1070540 
 3764000    1.1084904   -1.3884091   -1.3884091  -0.59403954   0.11193705   -1.3884091    0.7943696  1070540 
 3765000    1.1096544   -1.3898226   -1.3898226  -0.59461879   0.12060317   -1.3898226   0.79520377  1070540 
 3766000    1.1086939   -1.3890265   -1.3890265  -0.59451108   0.10513709   -1.3890265   0.79451545  1070540 
 3767000    1.1084585   -1.3892902   -1.3892902  -0.59494342   0.11650561   -1.3892902    0.7943468  1070540 
 3768000    1.1087896   -1.3893904   -1.3893904  -0.59480635   0.10576675   -1.3893904   0.79458404  1070540 
 3769000    1.1091728   -1.3893764   -1.3893764  -0.59451777    0.1134785   -1.3893764   0.79485864  1070540 
 3770000    1.1095715   -1.3892222   -1.3892222   -0.5940778   0.11063185   -1.3892222   0.79514436  1070540 
 3771000    1.1097652   -1.3900183   -1.3900183  -0.59473514   0.11235719   -1.3900183   0.79528314  1070540 
 3772000    1.1092039   -1.3895752   -1.3895752  -0.59469427   0.10919142   -1.3895752   0.79488095  1070540 
 3773000    1.1101137   -1.3901399   -1.3901399    -0.594607   0.11308488   -1.3901399    0.7955329  1070540 
 3774000    1.1101639   -1.3900339   -1.3900339  -0.59446499   0.11508017   -1.3900339   0.79556889  1070540 
 3775000    1.1094036   -1.3893777   -1.3893777  -0.59435366   0.10879164   -1.3893777   0.79502405  1070540 
 3776000    1.1093994   -1.3894563   -1.3894563  -0.59443524   0.11462392   -1.3894563   0.79502106  1070540 
 3777000    1.1077481    -1.387963    -1.387963   -0.5941253   0.10450328    -1.387963   0.79383767  1070540 
 3778000      1.10949   -1.3888841   -1.3888841   -0.5937981   0.10528423   -1.3888841   0.79508598  1070540 
 3779000    1.1078406   -1.3870427   -1.3870427  -0.59313877    0.1080307   -1.3870427   0.79390393  1070540 
 3780000    1.1100195   -1.3888399   -1.3888399  -0.59337445   0.11179624   -1.3888399   0.79546543  1070540 
 3781000    1.1087121   -1.3881587   -1.3881587  -0.59363024   0.11274991   -1.3881587   0.79452847  1070540 
 3782000    1.1086479   -1.3880735   -1.3880735  -0.59359102   0.11771466   -1.3880735    0.7944825  1070540 
 3783000    1.1078368   -1.3873324   -1.3873324  -0.59343112   0.11788537   -1.3873324   0.79390128  1070540 
 3784000    1.1099172   -1.3883338   -1.3883338  -0.59294172   0.11859104   -1.3883338    0.7953921  1070540 
 3785000    1.1105386   -1.3883398   -1.3883398  -0.59250243   0.11349484   -1.3883398   0.79583742  1070540 
 3786000    1.1121855   -1.3893739   -1.3893739  -0.59235631   0.11354964   -1.3893739   0.79701764  1070540 
 3787000    1.1104503   -1.3883762   -1.3883762  -0.59260205   0.10581747   -1.3883762   0.79577411  1070540 
 3788000    1.1102568   -1.3884501   -1.3884501  -0.59281462   0.10901459   -1.3884501   0.79563546  1070540 
 3789000    1.1102404   -1.3884333   -1.3884333   -0.5928096   0.10718868   -1.3884333   0.79562374  1070540 
 3790000    1.1102115   -1.3885431   -1.3885431  -0.59294008   0.11469709   -1.3885431   0.79560298  1070540 
 3791000    1.1100498    -1.388821    -1.388821  -0.59333392     0.105459    -1.388821    0.7954871  1070540 
 3792000    1.1090211   -1.3884198   -1.3884198  -0.59366989   0.11766314   -1.3884198   0.79474993  1070540 
 3793000    1.1081368   -1.3881204   -1.3881204  -0.59400417   0.10726509   -1.3881204   0.79411621  1070540 
 3794000    1.1078021   -1.3881323   -1.3881323  -0.59425588   0.11460473   -1.3881323   0.79387638  1070540 
 3795000    1.1078543   -1.3879229   -1.3879229  -0.59400914   0.10307307   -1.3879229   0.79391379  1070540 
 3796000    1.1090272   -1.3885171   -1.3885171  -0.59376276   0.11226851   -1.3885171   0.79475434  1070540 
 3797000    1.1078074   -1.3873862   -1.3873862  -0.59350598   0.11274052   -1.3873862   0.79388017  1070540 
 3798000    1.1098429   -1.3886644   -1.3886644  -0.59332554   0.11511541   -1.3886644   0.79533887  1070540 
 3799000    1.1094803   -1.3880035   -1.3880035  -0.59292449   0.11161837   -1.3880035     0.795079  1070540 
 3800000     1.108374   -1.3873965   -1.3873965  -0.59311029    0.1078663   -1.3873965   0.79428619  1070540 
 3801000     1.108114   -1.3871451   -1.3871451  -0.59304528   0.11172067   -1.3871451   0.79409986  1070540 
 3802000    1.1090566   -1.3874171   -1.3874171  -0.59264178   0.11057295   -1.3874171   0.79477536  1070540 
 3803000    1.1094772   -1.3879763   -1.3879763  -0.59289946   0.11171798   -1.3879763    0.7950768  1070540 
 3804000       1.1093   -1.3873577   -1.3873577  -0.59240788   0.11153532   -1.3873577   0.79494979  1070540 
 3805000    1.1077458     -1.38609     -1.38609  -0.59225401   0.11649657     -1.38609   0.79383601  1070540 
 3806000    1.1112036   -1.3884009   -1.3884009  -0.59208693   0.11006925   -1.3884009   0.79631397  1070540 
 3807000    1.1099668   -1.3877474   -1.3877474  -0.59231978   0.11470219   -1.3877474   0.79542764  1070540 
 3808000    1.1108693   -1.3883016   -1.3883016  -0.59222722   0.10906063   -1.3883016   0.79607438  1070540 
 3809000    1.1103192   -1.3877661   -1.3877661  -0.59208589   0.11760914   -1.3877661   0.79568021  1070540 
 3810000    1.1103993   -1.3878418   -1.3878418  -0.59210425   0.10823017   -1.3878418   0.79573755  1070540 
 3811000     1.108761   -1.3868573   -1.3868573  -0.59229372     0.115621   -1.3868573   0.79456356  1070540 
 3812000    1.1098386   -1.3871456   -1.3871456  -0.59180981   0.11391532   -1.3871456   0.79533579  1070540 
 3813000     1.109803   -1.3870171   -1.3870171  -0.59170687   0.11313806   -1.3870171   0.79531026  1070540 
 3814000    1.1104404   -1.3876068   -1.3876068  -0.59183978   0.10770526   -1.3876068   0.79576702  1070540 
 3815000    1.1117548   -1.3884059   -1.3884059  -0.59169696   0.11641615   -1.3884059   0.79670898  1070540 
 3816000    1.1092233   -1.3870034   -1.3870034  -0.59210855   0.11394005   -1.3870034   0.79489487  1070540 
 3817000    1.1105894   -1.3883369   -1.3883369  -0.59246309   0.11328597   -1.3883369   0.79587381  1070540 
 3818000    1.1102314   -1.3882788   -1.3882788  -0.59266153   0.11224688   -1.3882788   0.79561724  1070540 
 3819000    1.1085187   -1.3870063   -1.3870063  -0.59261639   0.10998901   -1.3870063   0.79438993  1070540 
 3820000    1.1085311   -1.3868873   -1.3868873  -0.59248851   0.11679155   -1.3868873   0.79439879  1070540 
 3821000     1.110473   -1.3879177   -1.3879177  -0.59212726   0.10994112   -1.3879177    0.7957904  1070540 
 3822000    1.1105099   -1.3876283   -1.3876283  -0.59181145    0.1118757   -1.3876283   0.79581685  1070540 
 3823000    1.1108196   -1.3884088   -1.3884088  -0.59237001   0.11310896   -1.3884088   0.79603876  1070540 
 3824000    1.1091488   -1.3873504   -1.3873504  -0.59250892   0.10540009   -1.3873504   0.79484145  1070540 
 3825000    1.1095677   -1.3876082   -1.3876082  -0.59246657   0.10954036   -1.3876082   0.79514162  1070540 
 3826000    1.1104946   -1.3880617   -1.3880617   -0.5922558   0.11376766   -1.3880617    0.7958059  1070540 
 3827000    1.1105542    -1.388294    -1.388294  -0.59244533   0.10829844    -1.388294   0.79584863  1070540 
 3828000    1.1098463   -1.3880301   -1.3880301  -0.59268877   0.10888656   -1.3880301   0.79534129  1070540 
 3829000    1.1096317   -1.3885116   -1.3885116  -0.59332411   0.10717595   -1.3885116   0.79518752  1070540 
 3830000    1.1102699    -1.388956    -1.388956  -0.59331109   0.10908527    -1.388956   0.79564487  1070540 
 3831000    1.1093385   -1.3882086   -1.3882086  -0.59323121   0.10903092   -1.3882086   0.79497742  1070540 
 3832000    1.1087619   -1.3878564   -1.3878564  -0.59329226   0.10809134   -1.3878564   0.79456416  1070540 
 3833000    1.1092381   -1.3883411   -1.3883411  -0.59343563   0.10606267   -1.3883411   0.79490547  1070540 
 3834000    1.1094324   -1.3883499   -1.3883499  -0.59330529   0.11430633   -1.3883499   0.79504465  1070540 
 3835000    1.1086238   -1.3878425   -1.3878425  -0.59337734   0.11363867   -1.3878425    0.7944652  1070540 
 3836000    1.1091065    -1.387974    -1.387974  -0.59316288   0.11736426    -1.387974   0.79481116  1070540 
 3837000    1.1090526   -1.3878315   -1.3878315  -0.59305892   0.11059083   -1.3878315   0.79477253  1070540 
 3838000    1.1096859   -1.3885669   -1.3885669  -0.59334055   0.10755429   -1.3885669   0.79522636  1070540 
 3839000    1.1101814   -1.3886782   -1.3886782  -0.59309679   0.11154667   -1.3886782   0.79558144  1070540 
 3840000    1.1102518   -1.3886458   -1.3886458  -0.59301393   0.11198029   -1.3886458   0.79563186  1070540 
 3841000    1.1094275   -1.3881205   -1.3881205  -0.59307926   0.11889944   -1.3881205    0.7950412  1070540 
 3842000    1.1108808   -1.3891084   -1.3891084  -0.59302579    0.1133482   -1.3891084   0.79608264  1070540 
 3843000    1.1087675   -1.3871762   -1.3871762  -0.59260798   0.10854827   -1.3871762   0.79456824  1070540 
 3844000    1.1082492   -1.3870915   -1.3870915  -0.59289469   0.11274901   -1.3870915   0.79419681  1070540 
 3845000    1.1085844   -1.3871938   -1.3871938  -0.59275684   0.11862797   -1.3871938   0.79443699  1070540 
 3846000    1.1104497   -1.3880385   -1.3880385  -0.59226481   0.11054281   -1.3880385   0.79577373  1070540 
 3847000    1.1073631   -1.3865036   -1.3865036  -0.59294183   0.11660572   -1.3865036   0.79356175  1070540 
 3848000     1.111717   -1.3895373   -1.3895373   -0.5928554   0.10537832   -1.3895373   0.79668186  1070540 
 3849000    1.1076888   -1.3866382   -1.3866382  -0.59284305   0.10982071   -1.3866382   0.79379516  1070540 
 3850000    1.1077388   -1.3874639   -1.3874639  -0.59363283   0.11282133   -1.3874639   0.79383103  1070540 
 3851000    1.1075324   -1.3876006   -1.3876006  -0.59391742   0.10663078   -1.3876006   0.79368313  1070540 
 3852000    1.1102997   -1.3892857   -1.3892857  -0.59361954   0.10384102   -1.3892857    0.7956662  1070540 
 3853000     1.109874    -1.388088    -1.388088  -0.59272682   0.11958076    -1.388088   0.79536116  1070540 
 3854000    1.1108723   -1.3891522   -1.3891522   -0.5930756   0.11585339   -1.3891522   0.79607658  1070540 
 3855000    1.1113315    -1.389662    -1.389662   -0.5932564    0.1052537    -1.389662   0.79640563  1070540 
 3856000    1.1099957   -1.3883996   -1.3883996  -0.59295124   0.11080358   -1.3883996   0.79544837  1070540 
 3857000    1.1111654   -1.3895244   -1.3895244  -0.59323784   0.11445361   -1.3895244   0.79628658  1070540 
 3858000    1.1109436   -1.3893501   -1.3893501  -0.59322245   0.10800045   -1.3893501   0.79612766  1070540 
 3859000    1.1097022   -1.3885855   -1.3885855  -0.59334748   0.10613362   -1.3885855   0.79523801  1070540 
 3860000    1.1101561   -1.3887583   -1.3887583  -0.59319504   0.11040218   -1.3887583   0.79556328  1070540 
 3861000    1.1099487   -1.3888511   -1.3888511  -0.59343644   0.10632844   -1.3888511   0.79541471  1070540 
 3862000    1.1080041   -1.3878129   -1.3878129  -0.59379178    0.1113481   -1.3878129   0.79402114  1070540 
 3863000     1.110495    -1.389645    -1.389645  -0.59383883   0.10941129    -1.389645   0.79580615  1070540 
 3864000    1.1097925   -1.3887443   -1.3887443  -0.59344149   0.11755312   -1.3887443   0.79530277  1070540 
 3865000    1.1097331   -1.3890473   -1.3890473   -0.5937871   0.11085985   -1.3890473   0.79526017  1070540 
 3866000    1.1090338   -1.3886816   -1.3886816  -0.59392257   0.11205857   -1.3886816   0.79475905  1070540 
 3867000    1.1083503   -1.3880813   -1.3880813   -0.5938121   0.11041942   -1.3880813    0.7942692  1070540 
 3868000    1.1102632   -1.3892505   -1.3892505  -0.59361039   0.10511918   -1.3892505   0.79564008  1070540 
 3869000    1.1102233   -1.3891236   -1.3891236  -0.59351211   0.12075827   -1.3891236   0.79561144  1070540 
 3870000    1.1103373   -1.3889082   -1.3889082  -0.59321497   0.10901436   -1.3889082   0.79569319  1070540 
 3871000    1.1097109   -1.3882945   -1.3882945  -0.59305022   0.10931268   -1.3882945   0.79524428  1070540 
 3872000     1.110105   -1.3887021   -1.3887021  -0.59317544   0.11652869   -1.3887021   0.79552666  1070540 
 3873000    1.1089029   -1.3879378   -1.3879378  -0.59327254   0.10963547   -1.3879378   0.79466522  1070540 
 3874000    1.1110313   -1.3895212   -1.3895212  -0.59333076   0.11226399   -1.3895212   0.79619049  1070540 
 3875000    1.1103011   -1.3889893   -1.3889893  -0.59332208   0.11176022   -1.3889893   0.79566719  1070540 
 3876000    1.1088502   -1.3882513   -1.3882513  -0.59362384    0.1125044   -1.3882513   0.79462745  1070540 
 3877000    1.1098086   -1.3886836   -1.3886836  -0.59336929   0.11239721   -1.3886836    0.7953143  1070540 
 3878000    1.1091596    -1.388792    -1.388792  -0.59394279   0.11727822    -1.388792   0.79484923  1070540 
 3879000    1.1096664   -1.3889385   -1.3889385   -0.5937261    0.1204595   -1.3889385   0.79521238  1070540 
 3880000    1.1086854   -1.3877166   -1.3877166  -0.59320731   0.11265949   -1.3877166   0.79450933  1070540 
 3881000    1.1106496   -1.3891443   -1.3891443  -0.59322731   0.11099963   -1.3891443   0.79591696  1070540 
 3882000    1.1118402   -1.3896877   -1.3896877  -0.59291749   0.10961164   -1.3896877   0.79677017  1070540 
 3883000    1.1090212   -1.3882064   -1.3882064  -0.59345641   0.10780571   -1.3882064   0.79475001  1070540 
 3884000    1.1101174   -1.3890391   -1.3890391  -0.59350348   0.12103986   -1.3890391   0.79553559  1070540 
 3885000    1.1096744   -1.3887183   -1.3887183  -0.59350024   0.11417509   -1.3887183   0.79521809  1070540 
 3886000    1.1077669   -1.3876244   -1.3876244   -0.5937732   0.10995993   -1.3876244   0.79385117  1070540 
 3887000    1.1100188   -1.3884672   -1.3884672  -0.59300227   0.10843412   -1.3884672    0.7954649  1070540 
 3888000    1.1108434   -1.3894218   -1.3894218  -0.59336599    0.1173587   -1.3894218   0.79605584  1070540 
 3889000    1.1092471   -1.3885157   -1.3885157  -0.59360377   0.10777266   -1.3885157   0.79491189  1070540 
 3890000    1.1093581   -1.3881036   -1.3881036  -0.59311215   0.11393887   -1.3881036   0.79499145  1070540 
 3891000    1.1071839   -1.3873378   -1.3873378  -0.59390446   0.10766596   -1.3873378   0.79343335  1070540 
 3892000      1.10769   -1.3875908   -1.3875908  -0.59379474   0.11834005   -1.3875908   0.79379605  1070540 
 3893000    1.1102858   -1.3898577   -1.3898577  -0.59420145   0.10835907   -1.3898577   0.79565627  1070540 
 3894000    1.1110324   -1.3903666   -1.3903666  -0.59417526   0.10747727   -1.3903666   0.79619131  1070540 
 3895000    1.1104998   -1.3897185   -1.3897185  -0.59390887    0.1042433   -1.3897185   0.79580962  1070540 
 3896000    1.1114977   -1.3904426   -1.3904426  -0.59391785    0.1133998   -1.3904426    0.7965247  1070540 
 3897000    1.1100672   -1.3895108   -1.3895108  -0.59401117   0.11756691   -1.3895108   0.79549962  1070540 
 3898000     1.109821    -1.389614    -1.389614  -0.59429082   0.10374758    -1.389614   0.79532315  1070540 
 3899000    1.1087899   -1.3885298   -1.3885298  -0.59394553   0.11745778   -1.3885298   0.79458423  1070540 
 3900000    1.1088715   -1.3888647   -1.3888647  -0.59422194   0.11473417   -1.3888647   0.79464273  1070540 
 3901000    1.1105618   -1.3898851   -1.3898851  -0.59403114   0.10957114   -1.3898851   0.79585401  1070540 
 3902000    1.1098784   -1.3893665   -1.3893665  -0.59400219   0.11108681   -1.3893665   0.79536433  1070540 
 3903000    1.1107628    -1.390193    -1.390193  -0.59419494   0.11209659    -1.390193   0.79599805  1070540 
 3904000    1.1092953   -1.3890027   -1.3890027  -0.59405631   0.11478093   -1.3890027   0.79494643  1070540 
 3905000    1.1100693   -1.3887557   -1.3887557  -0.59325461   0.11313959   -1.3887557   0.79550107  1070540 
 3906000    1.1088904   -1.3878367   -1.3878367  -0.59318046   0.11270895   -1.3878367   0.79465627  1070540 
 3907000    1.1099492    -1.388525    -1.388525  -0.59310996   0.11181527    -1.388525   0.79541501  1070540 
 3908000    1.1102535   -1.3888322   -1.3888322  -0.59319911   0.10662927   -1.3888322   0.79563312  1070540 
 3909000    1.1103385    -1.388972    -1.388972  -0.59327802   0.11090902    -1.388972   0.79569398  1070540 
 3910000    1.1090399   -1.3887544   -1.3887544  -0.59399102   0.10433442   -1.3887544   0.79476341  1070540 
 3911000    1.1102994   -1.3894219   -1.3894219  -0.59375587   0.10318201   -1.3894219   0.79566602  1070540 
 3912000    1.1081344   -1.3880081   -1.3880081  -0.59389364   0.10759943   -1.3880081   0.79411449  1070540 
 3913000    1.1081513   -1.3880085   -1.3880085  -0.59388186   0.11310726   -1.3880085   0.79412664  1070540 
 3914000     1.108547   -1.3885283   -1.3885283  -0.59411808   0.11206601   -1.3885283   0.79441021  1070540 
 3915000    1.1106385   -1.3896996   -1.3896996  -0.59379056   0.10978715   -1.3896996   0.79590901  1070540 
 3916000    1.1093528   -1.3890103   -1.3890103  -0.59402262   0.10878686   -1.3890103   0.79498763  1070540 
 3917000    1.1105691   -1.3895558   -1.3895558  -0.59369656   0.11487548   -1.3895558   0.79585926  1070540 
 3918000    1.1105711   -1.3896753   -1.3896753  -0.59381457   0.11353061   -1.3896753   0.79586073  1070540 
 3919000    1.1100188   -1.3895463   -1.3895463  -0.59408139   0.10835741   -1.3895463   0.79546495  1070540 
 3920000    1.1109426   -1.3899539   -1.3899539  -0.59382699   0.10594024   -1.3899539   0.79612695  1070540 
 3921000    1.1078983   -1.3876789   -1.3876789  -0.59373352   0.11526741   -1.3876789   0.79394534  1070540 
 3922000    1.1097029   -1.3893048   -1.3893048  -0.59406628   0.11100727   -1.3893048   0.79523851  1070540 
 3923000    1.1088246   -1.3886246   -1.3886246  -0.59401544   0.11268159   -1.3886246   0.79460914  1070540 
 3924000     1.108656   -1.3884658   -1.3884658  -0.59397754   0.11176913   -1.3884658   0.79448829  1070540 
 3925000    1.1088966   -1.3878692   -1.3878692   -0.5932085   0.11074971   -1.3878692   0.79466069  1070540 
 3926000    1.1088097   -1.3881887   -1.3881887  -0.59359025   0.10624049   -1.3881887   0.79459841  1070540 
 3927000    1.1081774   -1.3878444   -1.3878444   -0.5936991   0.10585783   -1.3878444   0.79414529  1070540 
 3928000    1.1092114   -1.3883816   -1.3883816  -0.59349526   0.10828746   -1.3883816   0.79488635  1070540 
 3929000    1.1092387   -1.3886835   -1.3886835  -0.59377769   0.11784802   -1.3886835   0.79490585  1070540 
 3930000     1.111039   -1.3894007   -1.3894007  -0.59320473   0.11433798   -1.3894007     0.796196  1070540 
 3931000    1.1100278    -1.389113    -1.389113  -0.59364168   0.11396925    -1.389113   0.79547133  1070540 
 3932000     1.109973   -1.3888479   -1.3888479   -0.5934158   0.10778169   -1.3888479   0.79543208  1070540 
 3933000    1.1106847   -1.3891841   -1.3891841  -0.59324202   0.11164167   -1.3891841   0.79594211  1070540 
 3934000    1.1093036   -1.3879878   -1.3879878  -0.59303538   0.11501929   -1.3879878   0.79495239  1070540 
 3935000     1.110884   -1.3892447   -1.3892447  -0.59315978   0.11914289   -1.3892447    0.7960849  1070540 
 3936000    1.1089708    -1.388133    -1.388133  -0.59341917    0.1163111    -1.388133   0.79471388  1070540 
 3937000    1.1115587   -1.3899983   -1.3899983  -0.59342991   0.11995143   -1.3899983   0.79656843  1070540 
 3938000    1.1121633   -1.3902032   -1.3902032  -0.59320146   0.11005703   -1.3902032   0.79700175  1070540 
 3939000    1.1098414   -1.3885101   -1.3885101  -0.59317232   0.10591307   -1.3885101   0.79533781  1070540 
 3940000    1.1101574   -1.3890232   -1.3890232  -0.59345889   0.10532315   -1.3890232   0.79556427  1070540 
 3941000     1.109634   -1.3890022   -1.3890022   -0.5938131    0.1161058   -1.3890022   0.79518913  1070540 
 3942000    1.1099702   -1.3893299   -1.3893299  -0.59389975    0.1067189   -1.3893299   0.79543012  1070540 
 3943000    1.1104879   -1.3894516   -1.3894516  -0.59365052   0.12160446   -1.3894516   0.79580109  1070540 
 3944000     1.110862   -1.3899796   -1.3899796  -0.59391043   0.11927851   -1.3899796   0.79606919  1070540 
 3945000    1.1093678   -1.3887073   -1.3887073  -0.59370892   0.11659866   -1.3887073   0.79499841  1070540 
 3946000    1.1092414    -1.388536    -1.388536  -0.59362815   0.11555076    -1.388536   0.79490784  1070540 
 3947000    1.1084296   -1.3879649   -1.3879649  -0.59363882   0.10969676   -1.3879649   0.79432605  1070540 
 3948000    1.1076345   -1.3877269   -1.3877269   -0.5939706   0.11460402   -1.3877269   0.79375629  1070540 
 3949000     1.107973   -1.3883112   -1.3883112  -0.59431236   0.10819654   -1.3883112   0.79399882  1070540 
 3950000    1.1082831   -1.3886965   -1.3886965  -0.59447538   0.10875545   -1.3886965   0.79422108  1070540 
 3951000    1.1068887   -1.3881783   -1.3881783  -0.59495648   0.10529947   -1.3881783   0.79322181  1070540 
 3952000    1.1083565    -1.389072    -1.389072   -0.5947983   0.10022335    -1.389072   0.79427367  1070540 
 3953000    1.1084717     -1.38873     -1.38873  -0.59437373   0.10489308     -1.38873   0.79435624  1070540 
 3954000     1.106302   -1.3871881   -1.3871881  -0.59438668   0.11387199   -1.3871881    0.7928014  1070540 
 3955000    1.1104205   -1.3900704   -1.3900704  -0.59431764   0.10996263   -1.3900704    0.7957528  1070540 
 3956000    1.1101223   -1.3895371   -1.3895371  -0.59399796   0.10800958   -1.3895371   0.79553911  1070540 
 3957000    1.1083849   -1.3887028   -1.3887028  -0.59440873   0.10555845   -1.3887028   0.79429406  1070540 
 3958000    1.1088511   -1.3889591   -1.3889591  -0.59433099   0.10943244   -1.3889591   0.79462811  1070540 
 3959000    1.1098074   -1.3897615   -1.3897615  -0.59444815   0.10980551   -1.3897615    0.7953134  1070540 
 3960000     1.112648   -1.3915877   -1.3915877   -0.5942386   0.11253257   -1.3915877   0.79734907  1070540 
 3961000    1.1102912   -1.3900337   -1.3900337  -0.59437363   0.10894577   -1.3900337   0.79566009  1070540 
 3962000    1.1092752    -1.388582    -1.388582  -0.59365002   0.11016019    -1.388582     0.794932  1070540 
 3963000    1.1111445   -1.3899359   -1.3899359  -0.59366426   0.11836632   -1.3899359   0.79627165  1070540 
 3964000    1.1095015    -1.388611    -1.388611  -0.59351681   0.10914103    -1.388611   0.79509422  1070540 
 3965000    1.1102279   -1.3891637   -1.3891637  -0.59354894   0.11703728   -1.3891637   0.79561475  1070540 
 3966000    1.1100685   -1.3888599   -1.3888599  -0.59335934   0.10461658   -1.3888599   0.79550054  1070540 
 3967000    1.1096137   -1.3890658   -1.3890658  -0.59389122   0.10543462   -1.3890658    0.7951746  1070540 
 3968000     1.109845   -1.3890219   -1.3890219   -0.5936816   0.11300968   -1.3890219   0.79534035  1070540 
 3969000    1.1090172   -1.3887988   -1.3887988  -0.59405165   0.10631506   -1.3887988   0.79474716  1070540 
 3970000    1.1098426   -1.3892117   -1.3892117  -0.59387307   0.10637169   -1.3892117   0.79533865  1070540 
 3971000    1.1089905   -1.3880879   -1.3880879  -0.59335988   0.12006623   -1.3880879   0.79472799  1070540 
 3972000    1.1095224   -1.3882863   -1.3882863  -0.59317711   0.11656221   -1.3882863   0.79510917  1070540 
 3973000    1.1083951   -1.3880902   -1.3880902  -0.59378885   0.11364792   -1.3880902   0.79430135  1070540 
 3974000    1.1089592   -1.3887252   -1.3887252  -0.59401958   0.11860596   -1.3887252   0.79470559  1070540 
 3975000    1.1092819   -1.3886761   -1.3886761  -0.59373933   0.11123699   -1.3886761   0.79493681  1070540 
 3976000    1.1100095   -1.3894553   -1.3894553  -0.59399707   0.12063035   -1.3894553   0.79545821  1070540 
 3977000    1.1101278   -1.3891199   -1.3891199  -0.59357686   0.10660666   -1.3891199     0.795543  1070540 
 3978000    1.1089692   -1.3883715   -1.3883715   -0.5936588   0.11482977   -1.3883715   0.79471272  1070540 
 3979000    1.1092961   -1.3886363   -1.3886363  -0.59368931   0.11466385   -1.3886363   0.79494704  1070540 
 3980000    1.1093069   -1.3889226   -1.3889226  -0.59396787   0.11378026   -1.3889226   0.79495474  1070540 
 3981000    1.1095513   -1.3894084   -1.3894084  -0.59427849   0.10767933   -1.3894084   0.79512988  1070540 
 3982000    1.1083923   -1.3887184   -1.3887184  -0.59441904    0.1109475   -1.3887184   0.79429935  1070540 
 3983000    1.1090624   -1.3889169   -1.3889169  -0.59413738   0.11459183   -1.3889169   0.79477953  1070540 
 3984000    1.1092921   -1.3890852   -1.3890852  -0.59414109   0.11041023   -1.3890852   0.79494415  1070540 
 3985000    1.1088636   -1.3883973   -1.3883973  -0.59376019   0.11603508   -1.3883973   0.79463707  1070540 
 3986000    1.1100637   -1.3895306   -1.3895306  -0.59403348   0.10775674   -1.3895306   0.79549709  1070540 
 3987000    1.1094671   -1.3889181   -1.3889181  -0.59384851   0.10756426   -1.3889181   0.79506957  1070540 
 3988000    1.1100771   -1.3892117   -1.3892117  -0.59370501   0.10500691   -1.3892117   0.79550666  1070540 
 3989000    1.1099997   -1.3894063   -1.3894063  -0.59395509     0.108454   -1.3894063    0.7954512  1070540 
 3990000     1.108081   -1.3882231   -1.3882231  -0.59414687   0.11866948   -1.3882231   0.79407627  1070540 
 3991000    1.1080619   -1.3886881   -1.3886881  -0.59462552   0.11289576   -1.3886881   0.79406255  1070540 
 3992000    1.1082903   -1.3882619   -1.3882619  -0.59403563   0.12121913   -1.3882619   0.79422626  1070540 
 3993000    1.1087131   -1.3882948   -1.3882948  -0.59376563   0.11557681   -1.3882948   0.79452922  1070540 
 3994000     1.109098   -1.3886484   -1.3886484  -0.59384336   0.11572898   -1.3886484   0.79480502  1070540 
 3995000    1.1105838   -1.3896199   -1.3896199  -0.59375012   0.10668198   -1.3896199   0.79586982  1070540 
 3996000    1.1109836   -1.3895275   -1.3895275  -0.59337116   0.10907481   -1.3895275   0.79615633  1070540 
 3997000    1.1092739   -1.3887158   -1.3887158  -0.59378472   0.11390988   -1.3887158   0.79493111  1070540 
 3998000    1.1102227   -1.3887033   -1.3887033  -0.59309224   0.11763813   -1.3887033   0.79561103  1070540 
 3999000    1.1114262   -1.3898548   -1.3898548  -0.59338135   0.11280441   -1.3898548   0.79647349  1070540 
 4000000     1.109928    -1.389019    -1.389019  -0.59361923   0.11599428    -1.389019   0.79539982  1070540 
Loop time of 7050.33 on 240 procs for 2000000 steps with 1070540 atoms

Performance: 122547.401 tau/day, 283.675 timesteps/s
95.3% CPU use with 240 MPI tasks x 1 OpenMP threads

MPI task timing breakdown:
Section |  min time  |  avg time  |  max time  |%varavg|  %CPU | %total
-----------------------------------------------------------------------
Pair    | 824.83     | 1220.3     | 1519.5     | 310.7 |  96.8 | 17.31
Bond    | 1.3796     | 1.4912     | 1.7266     |   5.0 | 100.0 |  0.02
Neigh   | 707.38     | 1723.3     | 2767.4     | 858.1 |  99.4 | 24.44
Comm    | 2135.3     | 2897.7     | 4569.6     | 781.1 |  93.7 | 41.10
Output  | 69.75      | 70.518     | 72.26      |  11.5 |  88.9 |  1.00
Modify  | 653.01     | 1053.1     | 1527       | 561.5 |  93.3 | 14.94
Other   |            | 83.92      |            |       |       |  1.19

Nlocal:        4460.58 ave        5951 max        2215 min
Histogram: 2 1 4 18 30 55 68 44 14 4
Nghost:        9472.58 ave       13268 max        3056 min
Histogram: 18 2 0 11 22 26 40 72 38 11
Neighs:        55539.0 ave       75217 max       36448 min
Histogram: 1 6 14 42 67 64 20 12 9 5

Total # of neighbors = 13329358
Ave neighs/atom = 12.451060
Ave special neighs/atom = 0.0000000
Neighbor list builds = 200000
Dangerous builds = 198000

Total wall time: 3:52:18
