LAMMPS (24 Dec 2020)
OMP_NUM_THREADS environment is not set. Defaulting to 1 thread. (src/comm.cpp:94)
  using 1 OpenMP thread(s) per MPI task
# Simple rigid body system
# needed variables: startTemp, temp

units		lj
atom_style	full
dimension 	3
boundary	p p f
pair_style	lj/cut/opt 2.5

variable 	gcmcdisplace	equal 0
variable 	sigma		equal 1.0
variable 	epsilon 	equal 1.0


read_restart	restart.dat.3000000
Reading restart file ...
  restart file = 24 Dec 2020, LAMMPS = 24 Dec 2020
WARNING: Restart file used different # of processors: 48 vs. 192 (src/read_restart.cpp:697)
  restoring atom style full from restart
  orthogonal box = (0.0000000 0.0000000 0.0000000) to (80.000000 80.000000 160.00000)
  6 by 4 by 8 MPI processor grid
  restoring pair style lj/cut/opt from restart
  439061 atoms
Finding 1-2 1-3 1-4 neighbors ...
  special bond factors lj:    0        0        0       
  special bond factors coul:  0        0        0       
     0 = max # of 1-2 neighbors
     0 = max # of 1-3 neighbors
     0 = max # of 1-4 neighbors
     1 = max # of special neighbors
  special bonds CPU = 1.409 seconds
  read_restart CPU = 1.704 seconds

mass		1 1.0
mass		2 1.0
mass		3 1.0


group		solvent type 1
439061 atoms in group solvent


neighbor 	0.4 bin

pair_coeff	1 1 1.0 1.0
pair_coeff	2 2 0.0 0.0
pair_coeff	3 3 0.0 0.0
pair_coeff	2 3 0.0 0.0
pair_coeff	1 2*3 0.0 0.0

pair_modify 	shift yes


balance 	1.05 shift z 10 1.05
Balancing ...
Neighbor list info ...
  update every 1 steps, delay 10 steps, check yes
  max neighbors/atom: 2000, page size: 100000
  master list distance cutoff = 2.9
  ghost atom cutoff = 2.9
  binsize = 1.45, bins = 56 56 111
  1 neighbor lists, perpetual/occasional/extra = 1 0 0
  (1) pair lj/cut/opt, perpetual
      attributes: half, newton on
      pair build: half/bin/newton
      stencil: half/bin/3d/newton
      bin: standard
 rebalancing time: 0.022 seconds
  iteration count = 5
  initial/final maximal load/proc = 3162.0000 2575.0000
  initial/final imbalance factor  = 1.3827327 1.1260394
  x cuts: 0.0000000 0.16666667 0.33333333 0.50000000 0.66666667 0.83333333 1.0000000
  y cuts: 0.0000000 0.25000000 0.50000000 0.75000000 1.0000000
  z cuts: 0.0000000 0.097656250 0.18359375 0.27734375 0.37890625 0.47656250 0.57031250 0.67968750 1.0000000


####################### WALLS ###########################


variable       epsilonWall equal 2*${epsilon}
variable       epsilonWall equal 2*1

variable       cutoffTop   equal   0.7147*${sigma}
variable       cutoffTop   equal   0.7147*1

variable       cutoffLow   equal   3*${sigma}
variable       cutoffLow   equal   3*1


fix            topWall all wall/lj93 zhi EDGE                ${epsilonWall} ${sigma} ${cutoffTop} units box
fix            topWall all wall/lj93 zhi EDGE                2 ${sigma} ${cutoffTop} units box
fix            topWall all wall/lj93 zhi EDGE                2 1 ${cutoffTop} units box
fix            topWall all wall/lj93 zhi EDGE                2 1 0.7147 units box

fix            lowWall all wall/lj93 zlo EDGE                ${epsilonWall} ${sigma} ${cutoffLow} units box
fix            lowWall all wall/lj93 zlo EDGE                2 ${sigma} ${cutoffLow} units box
fix            lowWall all wall/lj93 zlo EDGE                2 1 ${cutoffLow} units box
fix            lowWall all wall/lj93 zlo EDGE                2 1 3 units box


###################### COMPUTES ##########################

compute        bin1 solvent chunk/atom bin/1d z upper 1.0



######################	FIXES ############################


fix 		peclet solvent ave/chunk 1000 1 1000 bin1 density/number norm 		 none ave one file density.profile

fix 		 temp solvent ave/chunk 1000 1 1000 bin1 temp norm none ave one file temp.profile

fix 		2 solvent nve

## Thermostat


region		regthermo block EDGE EDGE EDGE EDGE 0 20

group 		thermo dynamic solvent region regthermo every 1000
dynamic group thermo defined

fix 		3 thermo langevin ${startTemp} ${temp} 10 156453
fix 		3 thermo langevin 1.0 ${temp} 10 156453
fix 		3 thermo langevin 1.0 1.0 10 156453


## Evaporation

region		regevap block EDGE EDGE EDGE EDGE 140 158
fix 		gcmc solvent gcmc 100 100 0 1 780493 ${temp} ${mu} ${gcmcdisplace} region regevap
fix 		gcmc solvent gcmc 100 100 0 1 780493 1.0 ${mu} ${gcmcdisplace} region regevap
fix 		gcmc solvent gcmc 100 100 0 1 780493 1.0 -3.3 ${gcmcdisplace} region regevap
fix 		gcmc solvent gcmc 100 100 0 1 780493 1.0 -3.3 0 region regevap


#### Load balancing

fix 		bal all balance 1000 1.05 shift z 10 1.05

############### Diagnostics and computes ###################
#compute 	com cube	  rigid/local	1 mol x y z
#compute 	quat cube	  rigid/local	1 mol quatw quati quatj quatk

thermo 		1000
thermo_style 	custom step temp epair etotal press pe ke atoms

dump		1 all custom 100000 dump.lammpstrj id mol type x y z
dump 		2 all image 10000 image.*.png type type
dump 		3 all movie 1000 movie.avi type type
#dump 		com cube local 1000 dump.*.xyz c_com[*]
#dump		quat cube      local 1000 dump.*.quat c_quat[*]


restart 	1000000 restart.dat
timestep 	0.005
timer 		full
New timer settings: style=full  mode=nosync  timeout=off


run		5000000
Per MPI rank memory allocation (min/avg/max) = 9.923 | 9.986 | 10.01 Mbytes
Step Temp E_pair TotEng Press PotEng KinEng Atoms 
 3000000     1.016004   -3.1352716   -1.6112691  0.079025997   -3.1352716    1.5240025   439061 
 3001000    1.0151427   -3.1351247   -1.6122199  0.073568174   -3.1351247    1.5229048   439005 
 3002000     1.015029   -3.1358758   -1.6129889   0.07760744   -3.1358758    1.5228869   438961 
 3003000    1.0138093   -3.1360221   -1.6146982  0.078527538   -3.1360221    1.5213238   438884 
 3004000    1.0141017    -3.136667   -1.6146895  0.075518296    -3.136667    1.5219775   438822 
 3005000     1.014022   -3.1367916   -1.6146908  0.072463596   -3.1367916    1.5221007   438752 
 3006000    1.0140716   -3.1376483   -1.6151191  0.071026921   -3.1376483    1.5225292   438650 
 3007000    1.0132001   -3.1369264   -1.6152824  0.073929684   -3.1369264     1.521644   438528 
 3008000    1.0131327    -3.136972   -1.6150856  0.077664332    -3.136972    1.5218863   438429 
 3009000     1.012915   -3.1385583   -1.6165687  0.075530106   -3.1385583    1.5219896   438305 
 3010000    1.0130973   -3.1397552   -1.6173458  0.070509144   -3.1397552    1.5224094   438263 
 3011000     1.013084   -3.1391288   -1.6165968  0.071969287   -3.1391288     1.522532   438222 
 3012000    1.0133439    -3.138158   -1.6148949  0.076976017    -3.138158    1.5232631   438124 
 3013000    1.0134347   -3.1382284   -1.6145924  0.080035261   -3.1382284    1.5236361   438056 
 3014000    1.0124092   -3.1387873   -1.6164531  0.078015741   -3.1387873    1.5223342   437987 
 3015000    1.0119699   -3.1394161   -1.6175237  0.076100088   -3.1394161    1.5218924   437924 
 3016000     1.012854    -3.139154     -1.61565  0.076011874    -3.139154     1.523504   437843 
 3017000    1.0117823   -3.1389667    -1.616901  0.074105932   -3.1389667    1.5220657   437793 
 3018000       1.0125   -3.1412938   -1.6179572  0.075291432   -3.1412938    1.5233367   437738 
 3019000    1.0110449    -3.138964   -1.6177261   0.07392319    -3.138964    1.5212378   437712 
 3020000     1.010908   -3.1395934   -1.6183391  0.067691051   -3.1395934    1.5212543   437648 
 3021000    1.0106844    -3.139755   -1.6186147  0.071819711    -3.139755    1.5211403   437584 
 3022000    1.0103332   -3.1395103   -1.6187283  0.070469391   -3.1395103     1.520782   437535 
 3023000    1.0080878   -3.1381491   -1.6204798  0.076043144   -3.1381491    1.5176693   437458 
 3024000    1.0074223   -3.1367163   -1.6197195  0.073991291   -3.1367163    1.5169968   437363 
 3025000    1.0084744   -3.1383718   -1.6196588  0.070672107   -3.1383718     1.518713   437325 
 3026000    1.0087364   -3.1385766    -1.619066  0.070335693   -3.1385766    1.5195106   437209 
 3027000    1.0079925   -3.1384633   -1.6197815   0.06973856   -3.1384633    1.5186818   437125 
 3028000    1.0068257   -3.1374469   -1.6203427   0.07183607   -3.1374469    1.5171043   437073 
 3029000    1.0078749   -3.1392117   -1.6203214  0.074575345   -3.1392117    1.5188903   437014 
 3030000    1.0076068   -3.1396076    -1.620972  0.066485152   -3.1396076    1.5186356   436971 
 3031000    1.0078811   -3.1393066   -1.6199063  0.072662925   -3.1393066    1.5194003   436870 
 3032000    1.0078633   -3.1393414   -1.6197349  0.072904751   -3.1393414    1.5196065   436803 
 3033000    1.0073761   -3.1391929     -1.62006  0.073967987   -3.1391929    1.5191328   436728 
 3034000    1.0074963   -3.1398197   -1.6203561  0.070336582   -3.1398197    1.5194637   436685 
 3035000    1.0083633   -3.1411906   -1.6202243  0.067128134   -3.1411906    1.5209663   436629 
 3036000     1.007789   -3.1421601   -1.6219486  0.070520108   -3.1421601    1.5202115   436597 
 3037000    1.0066503    -3.141011   -1.6221554  0.069761107    -3.141011    1.5188556   436493 
 3038000    1.0072703   -3.1426915   -1.6226672    0.0703062   -3.1426915    1.5200244   436426 
 3039000    1.0047956   -3.1403547   -1.6237242  0.071683842   -3.1403547    1.5166305   436328 
 3040000     1.004899   -3.1404509    -1.623414  0.069845327   -3.1404509    1.5170368   436256 
 3041000    1.0053555    -3.141505    -1.623612  0.067021972    -3.141505     1.517893   436208 
 3042000    1.0035492   -3.1388421   -1.6235616  0.072604933   -3.1388421    1.5152805   436175 
 3043000    1.0055308   -3.1422549   -1.6238362  0.072275579   -3.1422549    1.5184187   436133 
 3044000    1.0068872   -3.1439602    -1.623242  0.073104549   -3.1439602    1.5207181   436061 
 3045000    1.0032873   -3.1400867    -1.624538  0.075853848   -3.1400867    1.5155487   435984 
 3046000     1.002448   -3.1410253   -1.6264144  0.072079726   -3.1410253    1.5146109   435889 
 3047000    1.0044013    -3.143227   -1.6255011  0.070570011    -3.143227    1.5177259   435842 
 3048000    1.0029178   -3.1428197   -1.6272033  0.071147427   -3.1428197    1.5156163   435804 
 3049000    1.0037401   -3.1436921   -1.6266208  0.069404374   -3.1436921    1.5170713   435743 
 3050000     1.004361   -3.1427627    -1.624537  0.073170941   -3.1427627    1.5182257   435681 
 3051000    1.0025439   -3.1404787   -1.6248397  0.074157238   -3.1404787     1.515639   435635 
 3052000    1.0039374   -3.1441377   -1.6261238  0.069596289   -3.1441377     1.518014   435558 
 3053000    1.0029656   -3.1433994    -1.626639  0.061470896   -3.1433994    1.5167604   435496 
 3054000    1.0026949   -3.1435326    -1.626896  0.069349812   -3.1435326    1.5166366   435414 
 3055000    1.0019468    -3.142026   -1.6262668  0.069717547    -3.142026    1.5157592   435341 
 3056000    1.0026777   -3.1432552   -1.6262056  0.071507191   -3.1432552    1.5170496   435288 
 3057000    1.0017876   -3.1429432   -1.6272089  0.069342452   -3.1429432    1.5157342   435279 
 3058000    1.0021967   -3.1432535   -1.6267574   0.06660528   -3.1432535    1.5164961   435238 
 3059000    1.0025454   -3.1428819   -1.6257291  0.073543129   -3.1428819    1.5171528   435201 
 3060000    1.0012015   -3.1412585   -1.6259027   0.07231086   -3.1412585    1.5153558   435133 
 3061000     1.002245   -3.1435639   -1.6264126   0.06958783   -3.1435639    1.5171513   435071 
 3062000    1.0026553   -3.1450306   -1.6271117  0.067066019   -3.1450306     1.517919   435029 
 3063000    1.0011474   -3.1441242   -1.6282965  0.069220636   -3.1441242    1.5158278   434974 
 3064000     1.002809   -3.1457872   -1.6271783  0.067663044   -3.1457872    1.5186089   434898 
 3065000    1.0003846   -3.1430865    -1.627853  0.071136734   -3.1430865    1.5152336   434813 
 3066000    1.0033295   -3.1469868   -1.6271319  0.072984197   -3.1469868     1.519855   434767 
 3067000    1.0015711   -3.1447062   -1.6273578  0.073839598   -3.1447062    1.5173484   434722 
 3068000    1.0002362   -3.1440498    -1.628382  0.070310926   -3.1440498    1.5156678   434624 
 3069000    1.0003344   -3.1461151    -1.630072  0.071749194   -3.1461151    1.5160432   434559 
 3070000   0.99955674   -3.1448893   -1.6295887  0.071406604   -3.1448893    1.5153005   434434 
 3071000   0.99923504   -3.1459342   -1.6307935  0.069543767   -3.1459342    1.5151407   434340 
 3072000   0.99842632   -3.1456186   -1.6314671  0.068476014   -3.1456186    1.5141515   434272 
 3073000   0.99880668   -3.1462846   -1.6313121  0.067117256   -3.1462846    1.5149725   434202 
 3074000   0.99711015   -3.1458854   -1.6332667  0.066250432   -3.1458854    1.5126187   434139 
 3075000   0.99905802   -3.1470286   -1.6312455  0.066907692   -3.1470286    1.5157831   434079 
 3076000   0.99729941   -3.1456608   -1.6322565  0.071472947   -3.1456608    1.5134043   433996 
 3077000   0.99763172      -3.1458   -1.6317414  0.068413795      -3.1458    1.5140586   433953 
 3078000   0.99754888   -3.1467051   -1.6325349  0.067878372   -3.1467051    1.5141702   433885 
 3079000   0.99833701   -3.1491839   -1.6336253  0.067073149   -3.1491839    1.5155586   433830 
 3080000   0.99764713   -3.1497256   -1.6351306  0.067135196   -3.1497256    1.5145951   433806 
 3081000   0.99645976   -3.1479397   -1.6348543   0.07170849   -3.1479397    1.5130854   433722 
 3082000   0.99690741   -3.1486285   -1.6347098  0.069318978   -3.1486285    1.5139187   433678 
 3083000   0.99658164   -3.1479524   -1.6342492  0.068311986   -3.1479524    1.5137032   433598 
 3084000   0.99631506   -3.1479983   -1.6345639  0.068384076   -3.1479983    1.5134345   433559 
 3085000   0.99604106   -3.1493373   -1.6361829  0.067733498   -3.1493373    1.5131544   433520 
 3086000   0.99809122   -3.1522452   -1.6358189  0.063761697   -3.1522452    1.5164263   433475 
 3087000    0.9956592   -3.1498106   -1.6367023  0.067592151   -3.1498106    1.5131083   433367 
 3088000   0.99806822   -3.1538321   -1.6368843  0.070756233   -3.1538321    1.5169478   433316 
 3089000   0.99699031   -3.1519387   -1.6363879  0.071147325   -3.1519387    1.5155508   433247 
 3090000   0.99625826   -3.1514773   -1.6367351   0.06413982   -3.1514773    1.5147422   433160 
 3091000   0.99650268   -3.1510569   -1.6357856   0.06796294   -3.1510569    1.5152712   433115 
 3092000   0.99750597   -3.1530332   -1.6360087  0.073532157   -3.1530332    1.5170245   433050 
 3093000   0.99654329   -3.1526724   -1.6368984  0.070617818   -3.1526724     1.515774   432989 
 3094000   0.99686058   -3.1539608   -1.6375431  0.065687883   -3.1539608    1.5164177   432943 
 3095000   0.99527168   -3.1529505   -1.6386805  0.071206489   -3.1529505    1.5142699   432866 
 3096000   0.99736145   -3.1555195   -1.6378632  0.070107342   -3.1555195    1.5176563   432807 
 3097000   0.99614726   -3.1552813   -1.6391363  0.070819904   -3.1552813     1.516145   432711 
 3098000   0.99487685   -3.1548193   -1.6404224  0.070338224   -3.1548193    1.5143969   432658 
 3099000   0.99488639   -3.1543243   -1.6397133  0.073307132   -3.1543243     1.514611   432601 
 3100000   0.99488595   -3.1541131   -1.6394363  0.068128289   -3.1541131    1.5146768   432582 
 3101000   0.99524543   -3.1566929   -1.6412375  0.071046704   -3.1566929    1.5154554   432516 
 3102000   0.99257611   -3.1540935   -1.6424476  0.066269516   -3.1540935    1.5116459   432443 
 3103000   0.99261351    -3.154085   -1.6421758  0.070310027    -3.154085    1.5119092   432384 
 3104000   0.99388058   -3.1559533   -1.6417885   0.06961954   -3.1559533    1.5141648   432291 
 3105000   0.99403223   -3.1574825   -1.6426521  0.065586432   -3.1574825    1.5148304   432167 
 3106000   0.99335727    -3.156367   -1.6423375  0.064905248    -3.156367    1.5140295   432102 
 3107000   0.99183913   -3.1557659   -1.6438508  0.068490619   -3.1557659     1.511915   432045 
 3108000   0.99251594   -3.1559547   -1.6427698  0.066007056   -3.1559547    1.5131849   431977 
 3109000   0.99157527   -3.1553505   -1.6434423  0.062974583   -3.1553505    1.5119083   431932 
 3110000   0.99152445   -3.1558862   -1.6437404  0.069032075   -3.1558862    1.5121458   431842 
 3111000   0.99128417   -3.1561366   -1.6441856  0.067994527   -3.1561366     1.511951   431793 
 3112000   0.99187324   -3.1580411   -1.6450339  0.064811636   -3.1580411    1.5130071   431748 
 3113000   0.99193906   -3.1575511   -1.6442228  0.064723489   -3.1575511    1.5133283   431685 
 3114000    0.9897618   -3.1545095   -1.6442999  0.064614783   -3.1545095    1.5102096   431627 
 3115000   0.99105062   -3.1559927   -1.6436239   0.06295542   -3.1559927    1.5123688   431572 
 3116000   0.99110793   -3.1568254   -1.6440887  0.068328695   -3.1568254    1.5127367   431492 
 3117000   0.99012598   -3.1560182    -1.644514  0.067642532   -3.1560182    1.5115041   431416 
 3118000   0.98895002   -3.1546558   -1.6446984  0.064656098   -3.1546558    1.5099574   431345 
 3119000    0.9898896   -3.1578125   -1.6461611  0.065748916   -3.1578125    1.5116514   431271 
 3120000   0.98827461   -3.1558852   -1.6464831   0.06519872   -3.1558852    1.5094021   431209 
 3121000   0.98782611   -3.1550362   -1.6461476  0.066773774   -3.1550362    1.5088886   431160 
 3122000   0.98954775   -3.1586014    -1.646799    0.0590134   -3.1586014    1.5118024   431079 
 3123000   0.98858479   -3.1576827   -1.6471448  0.064167192   -3.1576827    1.5105379   431020 
 3124000   0.98733491   -3.1565856   -1.6477019  0.065269615   -3.1565856    1.5088837   430947 
 3125000   0.98867501   -3.1599816   -1.6486817  0.063815045   -3.1599816    1.5112999   430842 
 3126000   0.98734647   -3.1582233   -1.6487895  0.064604565   -3.1582233    1.5094337   430795 
 3127000   0.98636605   -3.1597739   -1.6515063  0.062055843   -3.1597739    1.5082675   430700 
 3128000   0.98648673    -3.159792   -1.6511333  0.063176876    -3.159792    1.5086587   430641 
 3129000   0.98649729   -3.1586907   -1.6499283  0.063378732   -3.1586907    1.5087624   430616 
 3130000   0.98841384   -3.1616476   -1.6498767  0.066541015   -3.1616476    1.5117709   430594 
 3131000   0.98779572   -3.1609367   -1.6499533   0.06398494   -3.1609367    1.5109834   430549 
 3132000   0.98851093   -3.1622202    -1.649788  0.065992418   -3.1622202    1.5124322   430448 
 3133000   0.98703547   -3.1615493   -1.6510236    0.0652446   -3.1615493    1.5105256   430348 
 3134000   0.98668954   -3.1620519   -1.6517854  0.063232919   -3.1620519    1.5102665   430271 
 3135000   0.98805331   -3.1633451   -1.6508224  0.065271658   -3.1633451    1.5125226   430223 
 3136000   0.98862271   -3.1642068   -1.6507034  0.064422702   -3.1642068    1.5135033   430192 
 3137000   0.98785196   -3.1644811   -1.6519925   0.06221791   -3.1644811    1.5124886   430145 
 3138000   0.98811298   -3.1660215   -1.6530348  0.063822015   -3.1660215    1.5129868   430117 
 3139000   0.98735869   -3.1647758   -1.6526768  0.068876879   -3.1647758     1.512099   430041 
 3140000   0.98720086   -3.1677636   -1.6554632   0.06059593   -3.1677636    1.5123004   429915 
 3141000     0.986332   -3.1665877   -1.6553864  0.066629044   -3.1665877    1.5112014   429849 
 3142000   0.98827899   -3.1690521   -1.6547021  0.063830646   -3.1690521      1.51435   429802 
 3143000   0.98709141   -3.1681143   -1.6553975  0.064831712   -3.1681143    1.5127168   429749 
 3144000   0.98723307   -3.1682356   -1.6551221  0.066323878   -3.1682356    1.5131135   429698 
 3145000   0.98438579   -3.1658166   -1.6567791  0.070106166   -3.1658166    1.5090375   429616 
 3146000   0.98644014    -3.168346   -1.6559023  0.063884776    -3.168346    1.5124437   429543 
 3147000   0.98324108   -3.1652715    -1.657652  0.065663827   -3.1652715    1.5076195   429520 
 3148000   0.98524949   -3.1686414    -1.657587  0.067765565   -3.1686414    1.5110544   429419 
 3149000   0.98538354   -3.1694692   -1.6579523  0.065692228   -3.1694692    1.5115169   429346 
 3150000   0.98401749   -3.1686674    -1.659049  0.064505967   -3.1686674    1.5096184   429290 
 3151000   0.98489612   -3.1674683   -1.6564527  0.067062584   -3.1674683    1.5110156   429276 
 3152000   0.98316887   -3.1664039   -1.6578695  0.068327869   -3.1664039    1.5085344   429228 
 3153000   0.98269602   -3.1655176   -1.6573187  0.063111332   -3.1655176    1.5081989   429117 
 3154000   0.98406885   -3.1666354   -1.6561747  0.062653909   -3.1666354    1.5104607   429073 
 3155000   0.98283696   -3.1651289   -1.6563797  0.065110005   -3.1651289    1.5087492   429022 
 3156000   0.98339877   -3.1661182    -1.656401   0.05926728   -3.1661182    1.5097172   428992 
 3157000   0.98261402   -3.1643253   -1.6556546  0.063260585   -3.1643253    1.5086707   428947 
 3158000   0.98178915   -3.1648297   -1.6572849  0.066944984   -3.1648297    1.5075448   428907 
 3159000   0.98165251   -3.1653545   -1.6577278  0.060334087   -3.1653545    1.5076267   428824 
 3160000   0.98326425   -3.1676075     -1.65728  0.063630576   -3.1676075    1.5103275   428760 
 3161000   0.98029384   -3.1627568   -1.6569252  0.063867316   -3.1627568    1.5058315   428741 
 3162000   0.97999988   -3.1620616   -1.6565798  0.054314755   -3.1620616    1.5054818   428712 
 3163000    0.9787854   -3.1616853    -1.657971  0.061075519   -3.1616853    1.5037143   428684 
 3164000   0.98193574   -3.1653025   -1.6564596  0.062964224   -3.1653025    1.5088428   428602 
 3165000   0.98055171    -3.164436   -1.6573858  0.065241577    -3.164436    1.5070502   428507 
 3166000   0.97903725   -3.1638577   -1.6587488  0.057374198   -3.1638577    1.5051089   428397 
 3167000   0.98049492   -3.1665894   -1.6589686  0.056431808   -3.1665894    1.5076208   428320 
 3168000   0.98031069    -3.166825   -1.6592341  0.060753746    -3.166825     1.507591   428248 
 3169000   0.98005013   -3.1667637   -1.6593658  0.060077963   -3.1667637    1.5073979   428189 
 3170000   0.97853579   -3.1660651   -1.6607045  0.061682643   -3.1660651    1.5053606   428106 
 3171000   0.97948885   -3.1655532   -1.6584061  0.064031863   -3.1655532    1.5071471   428015 
 3172000   0.97946019    -3.167218   -1.6600269  0.059353395    -3.167218     1.507191   427990 
 3173000   0.97853951   -3.1665055   -1.6604708  0.068521883   -3.1665055    1.5060347   427916 
 3174000    0.9762251   -3.1651577   -1.6625727  0.067522303   -3.1651577     1.502585   427884 
 3175000   0.97683433    -3.165936   -1.6621497  0.063821185    -3.165936    1.5037863   427809 
 3176000   0.97848492   -3.1682425   -1.6617778  0.061613294   -3.1682425    1.5064646   427770 
 3177000   0.97819548   -3.1692184   -1.6631889     0.061656   -3.1692184    1.5060296   427767 
 3178000   0.97772821   -3.1689524   -1.6633571  0.059397806   -3.1689524    1.5055953   427686 
 3179000   0.97773562   -3.1699225   -1.6641644  0.061476765   -3.1699225    1.5057581   427643 
 3180000   0.97721119   -3.1694418   -1.6643436  0.067171584   -3.1694418    1.5050983   427601 
 3181000   0.97680781   -3.1705737   -1.6657765  0.061966328   -3.1705737    1.5047972   427510 
 3182000   0.97619777   -3.1707093   -1.6668448  0.058716468   -3.1707093    1.5038645   427508 
 3183000   0.97538218    -3.170819   -1.6679157   0.05646382    -3.170819    1.5029033   427424 
 3184000   0.97782674   -3.1745558   -1.6678153  0.063246853   -3.1745558    1.5067405   427404 
 3185000   0.97608039   -3.1715552   -1.6673649  0.060057112   -3.1715552    1.5041903   427364 
 3186000   0.97791696   -3.1759124   -1.6687261  0.059987763   -3.1759124    1.5071863   427317 
 3187000   0.97732216   -3.1756764   -1.6692446  0.059335497   -3.1756764    1.5064318   427271 
 3188000    0.9771186   -3.1753199   -1.6689904  0.057371081   -3.1753199    1.5063295   427211 
 3189000    0.9782133   -3.1775957   -1.6692821  0.063913759   -3.1775957    1.5083137   427127 
 3190000   0.97718948   -3.1758197   -1.6688589  0.060695257   -3.1758197    1.5069608   427063 
 3191000   0.97708587   -3.1772786   -1.6702553  0.062751114   -3.1772786    1.5070234   427000 
 3192000   0.97673837   -3.1783299   -1.6716202  0.064051338   -3.1783299    1.5067097   426937 
 3193000   0.97550837   -3.1777771   -1.6726722  0.060142453   -3.1777771    1.5051049   426854 
 3194000   0.97453235   -3.1762591   -1.6725015   0.06490233   -3.1762591    1.5037576   426809 
 3195000   0.97890811   -3.1816476   -1.6709681   0.06080648   -3.1816476    1.5106795   426761 
 3196000   0.97695653   -3.1795665   -1.6716054  0.062323153   -3.1795665     1.507961   426678 
 3197000   0.97592336   -3.1794071   -1.6729137  0.061805281   -3.1794071    1.5064934   426642 
 3198000    0.9745766   -3.1764606   -1.6719509  0.067441908   -3.1764606    1.5045097   426615 
 3199000   0.97523451   -3.1791035   -1.6733734  0.065156324   -3.1791035    1.5057301   426557 
 3200000   0.97644444   -3.1804298   -1.6727221  0.065935849   -3.1804298    1.5077077   426526 
 3201000    0.9763959   -3.1805163   -1.6725123  0.065543522   -3.1805163     1.508004   426421 
 3202000   0.97603332   -3.1815202    -1.673818  0.057846155   -3.1815202    1.5077021   426348 
 3203000   0.97499353   -3.1799321   -1.6736771  0.060417177   -3.1799321    1.5062549   426303 
 3204000   0.97440901   -3.1799113   -1.6744252  0.069203853   -3.1799113    1.5054861   426265 
 3205000   0.97434762    -3.180662   -1.6750235  0.060455535    -3.180662    1.5056385   426195 
 3206000   0.97322162   -3.1792003   -1.6750617  0.059089103   -3.1792003    1.5041385   426127 
 3207000   0.97381301   -3.1813439   -1.6760689  0.055933473   -3.1813439    1.5052751   426064 
 3208000   0.97325084   -3.1809348   -1.6763133  0.059225277   -3.1809348    1.5046215   426003 
 3209000    0.9718631   -3.1794442   -1.6767671  0.057001644   -3.1794442    1.5026771   425946 
 3210000   0.97300537   -3.1833136   -1.6785629  0.061288641   -3.1833136    1.5047506   425859 
 3211000   0.97266626   -3.1825153   -1.6781018   0.06007654   -3.1825153    1.5044135   425806 
 3212000   0.97139553   -3.1814603   -1.6787405  0.059314449   -3.1814603    1.5027198   425729 
 3213000   0.97118769   -3.1797075   -1.6769739   0.05882534   -3.1797075    1.5027336   425634 
 3214000   0.97161112   -3.1808599   -1.6771107  0.060939517   -3.1808599    1.5037491   425532 
 3215000   0.97171962   -3.1798576   -1.6758946  0.059662553   -3.1798576     1.503963   425519 
 3216000   0.97024398   -3.1795149   -1.6777193  0.061523065   -3.1795149    1.5017956   425486 
 3217000   0.97035164   -3.1802594   -1.6780819  0.059496886   -3.1802594    1.5021776   425425 
 3218000   0.97078394   -3.1805356    -1.677544  0.067667378   -3.1805356    1.5029916   425384 
 3219000   0.97073849   -3.1809081   -1.6778278  0.063726268   -3.1809081    1.5030803   425339 
 3220000   0.97208374    -3.182477   -1.6771155  0.059765679    -3.182477    1.5053614   425283 
 3221000   0.96941959   -3.1786861   -1.6773268  0.067280098   -3.1786861    1.5013593   425248 
 3222000   0.96995372   -3.1797665   -1.6774705   0.06237818   -3.1797665    1.5022961   425217 
 3223000    0.9725098   -3.1833933   -1.6769222  0.061330883   -3.1833933    1.5064711   425156 
 3224000    0.9715079   -3.1820419   -1.6768821  0.059916253   -3.1820419    1.5051598   425088 
 3225000   0.97295877   -3.1857915   -1.6781285  0.059228929   -3.1857915    1.5076631   425016 
 3226000   0.97102267   -3.1830603   -1.6781991  0.061564789   -3.1830603    1.5048612   424960 
 3227000   0.97239078   -3.1858057   -1.6787001  0.065133388   -3.1858057    1.5071056   424925 
 3228000   0.97022368    -3.185237   -1.6812849  0.061632507    -3.185237    1.5039521   424867 
 3229000   0.96985606   -3.1866505   -1.6830064  0.059079273   -3.1866505    1.5036441   424793 
 3230000   0.96963716   -3.1872742   -1.6838915  0.058227323   -3.1872742    1.5033826   424771 
 3231000   0.96986298   -3.1865745   -1.6827603  0.062610457   -3.1865745    1.5038142   424748 
 3232000   0.96936668   -3.1859767    -1.682741  0.060880449   -3.1859767    1.5032357   424694 
 3233000   0.96869373   -3.1854366   -1.6831348  0.059703423   -3.1854366    1.5023018   424663 
 3234000    0.9707286   -3.1880421   -1.6823753  0.059709826   -3.1880421    1.5056668   424604 
 3235000   0.97078029   -3.1892347   -1.6832039  0.059596506   -3.1892347    1.5060307   424524 
 3236000   0.96997655   -3.1880027   -1.6829459  0.062833884   -3.1880027    1.5050568   424447 
 3237000   0.96896526   -3.1865884   -1.6829909  0.063105343   -3.1865884    1.5035975   424416 
 3238000   0.96869513   -3.1875802   -1.6842106  0.062139432   -3.1875802    1.5033696   424362 
 3239000   0.96920131   -3.1877161   -1.6833589  0.064690784   -3.1877161    1.5043572   424305 
 3240000   0.97070481   -3.1900871   -1.6831653  0.061798982   -3.1900871    1.5069217   424240 
 3241000   0.96925491   -3.1887145   -1.6837988  0.061455592   -3.1887145    1.5049157   424171 
 3242000   0.96879549   -3.1881111   -1.6837775  0.065871886   -3.1881111    1.5043336   424134 
 3243000   0.96969002   -3.1907916   -1.6848843   0.06289086   -3.1907916    1.5059072   424082 
 3244000    0.9709258   -3.1920911   -1.6840905  0.058989105   -3.1920911    1.5080006   424033 
 3245000   0.96989197    -3.189917   -1.6835292  0.059405544    -3.189917    1.5063878   424035 
 3246000   0.96825901   -3.1888427   -1.6847677  0.062620738   -3.1888427     1.504075   423972 
 3247000   0.96861207   -3.1898439   -1.6850962  0.061702724   -3.1898439    1.5047477   423937 
 3248000   0.96858245   -3.1907787   -1.6858676  0.058759944   -3.1907787    1.5049111   423878 
 3249000   0.96808742   -3.1920556   -1.6875799  0.058164951   -3.1920556    1.5044756   423784 
 3250000   0.96806477   -3.1916445   -1.6870657  0.061466985   -3.1916445    1.5045789   423745 
 3251000   0.96813701   -3.1910505   -1.6862812  0.063631238   -3.1910505    1.5047693   423723 
 3252000   0.96759097   -3.1900224   -1.6859492  0.059441629   -3.1900224    1.5040732   423680 
 3253000   0.96757622   -3.1909242   -1.6866253   0.06040081   -3.1909242    1.5042988   423610 
 3254000   0.96857616   -3.1928839    -1.686778  0.060252251   -3.1928839    1.5061059   423539 
 3255000   0.96864444   -3.1940413   -1.6876585  0.062783582   -3.1940413    1.5063828   423491 
 3256000   0.96725088   -3.1930258   -1.6887782  0.063741225   -3.1930258    1.5042475   423482 
 3257000   0.96620571   -3.1927224   -1.6899477  0.063546932   -3.1927224    1.5027747   423439 
 3258000    0.9646928   -3.1911476   -1.6905275  0.060429752   -3.1911476    1.5006201   423383 
 3259000    0.9666369   -3.1939683   -1.6900684  0.059820606   -3.1939683       1.5039   423311 
 3260000   0.96643687   -3.1928381   -1.6890966  0.061004617   -3.1928381    1.5037415   423268 
 3261000   0.96415437   -3.1903138   -1.6899146  0.062981053   -3.1903138    1.5003992   423209 
 3262000   0.96717754   -3.1957434   -1.6904867  0.056574871   -3.1957434    1.5052567   423166 
 3263000   0.96658594   -3.1950709   -1.6905216  0.058318256   -3.1950709    1.5045493   423106 
 3264000   0.96557329   -3.1927714   -1.6895568  0.061218686   -3.1927714    1.5032146   423038 
 3265000   0.96489001   -3.1929398   -1.6906291  0.056951475   -3.1929398    1.5023107   422993 
 3266000   0.96424858   -3.1919465   -1.6904463  0.058261149   -3.1919465    1.5015002   422940 
 3267000   0.96449631   -3.1948557   -1.6927532  0.059193334   -3.1948557    1.5021026   422879 
 3268000   0.96468803   -3.1955721   -1.6929826  0.060222266   -3.1955721    1.5025895   422826 
 3269000   0.96348359   -3.1926541   -1.6917064  0.058963627   -3.1926541    1.5009477   422760 
 3270000    0.9625678   -3.1933373   -1.6937737  0.058667809   -3.1933373    1.4995636   422748 
 3271000   0.96461788   -3.1958417   -1.6930203  0.052403405   -3.1958417    1.5028214   422730 
 3272000   0.96362253   -3.1946688   -1.6932596  0.057487119   -3.1946688    1.5014092   422691 
 3273000   0.96341693   -3.1954632   -1.6940618  0.060479578   -3.1954632    1.5014014   422603 
 3274000    0.9623047   -3.1949276   -1.6951495   0.05514337   -3.1949276    1.4997782   422572 
 3275000    0.9634867   -3.1969461   -1.6951943   0.05908783   -3.1969461    1.5017518   422535 
 3276000   0.96315367   -3.1987657    -1.697501  0.056346104   -3.1987657    1.5012647   422526 
 3277000   0.96226111   -3.1961002   -1.6960989  0.055909266   -3.1961002    1.5000013   422490 
 3278000   0.96169795   -3.1952862   -1.6960528  0.058231071   -3.1952862    1.4992334   422459 
 3279000   0.96238554   -3.1972989   -1.6968799  0.058982177   -3.1972989     1.500419   422427 
 3280000   0.96441373   -3.2004813   -1.6966866   0.06076975   -3.2004813    1.5037947   422367 
 3281000   0.96400994   -3.2002168    -1.696913  0.059202956   -3.2002168    1.5033038   422328 
 3282000   0.96414331   -3.2002641   -1.6966313  0.058831565   -3.2002641    1.5036329   422294 
 3283000   0.96352586   -3.1992498   -1.6964161  0.057149254   -3.1992498    1.5028336   422248 
 3284000   0.96069152   -3.1966097   -1.6978774  0.061211331   -3.1966097    1.4987323   422158 
 3285000   0.96120998   -3.1976163   -1.6978869  0.059921952   -3.1976163    1.4997294   422105 
 3286000    0.9598402   -3.1966978    -1.698914  0.058956592   -3.1966978    1.4977838   422051 
 3287000   0.96132126   -3.1985868   -1.6984492  0.058261454   -3.1985868    1.5001376   422039 
 3288000   0.96117226    -3.198291   -1.6981976  0.061145546    -3.198291    1.5000935   421986 
 3289000   0.96065143   -3.1994765   -1.7000112  0.061988356   -3.1994765    1.4994654   421934 
 3290000   0.96144691   -3.2003344   -1.6995953  0.062538243   -3.2003344     1.500739   421925 
 3291000   0.96179966   -3.2012886   -1.6998957    0.0563555   -3.2012886    1.5013928   421896 
 3292000   0.96144126   -3.2002866   -1.6990938  0.059369178   -3.2002866    1.5011928   421795 
 3293000   0.96311921   -3.2024543   -1.6985239  0.060487407   -3.2024543    1.5039304   421762 
 3294000   0.96225352   -3.2007978   -1.6981088  0.055300736   -3.2007978     1.502689   421731 
 3295000   0.96081198   -3.1987639   -1.6982513   0.05714643   -3.1987639    1.5005126   421710 
 3296000   0.96021624    -3.197966   -1.6981135  0.059935734    -3.197966    1.4998525   421634 
 3297000   0.95913038   -3.1974742   -1.6991295  0.058795621   -3.1974742    1.4983447   421581 
 3298000   0.95991448   -3.1988717    -1.699206  0.055465174   -3.1988717    1.4996657   421554 
 3299000   0.95902636   -3.1989472   -1.7006121  0.055522868   -3.1989472    1.4983351   421538 
 3300000   0.96091909   -3.2020767   -1.7006812   0.05848607   -3.2020767    1.5013955   421509 
 3301000   0.96015114   -3.1997733   -1.6995848  0.058028854   -3.1997733    1.5001885   421511 
 3302000   0.96003334   -3.1983464   -1.6983456  0.055647858   -3.1983464    1.5000009   421512 
 3303000    0.9604652   -3.1999361   -1.6989863  0.053570387   -3.1999361    1.5009498   421435 
 3304000   0.96046842   -3.1999172   -1.6989196  0.058827375   -3.1999172    1.5009976   421423 
 3305000   0.95988344   -3.1992095   -1.6990442  0.059081273   -3.1992095    1.5001652   421400 
 3306000   0.96032366   -3.1988156   -1.6977308  0.058722417   -3.1988156    1.5010848   421335 
 3307000   0.96039627   -3.1990674   -1.6976197  0.057595634   -3.1990674    1.5014477   421265 
 3308000   0.95946959   -3.1995044   -1.6992241  0.056990593   -3.1995044    1.5002804   421186 
 3309000    0.9602511   -3.2016088   -1.7001243  0.053072681   -3.2016088    1.5014845   421191 
 3310000   0.95955482   -3.1985896   -1.6981047  0.053899075   -3.1985896    1.5004849   421166 
 3311000   0.96022191    -3.199658   -1.6978198  0.054908948    -3.199658    1.5018382   421079 
 3312000   0.95860154   -3.1980455    -1.698535  0.062120144   -3.1980455    1.4995104   421021 
 3313000   0.95932665   -3.1999201   -1.6991114  0.054044759   -3.1999201    1.5008087   420975 
 3314000   0.95993791   -3.2002252   -1.6984745  0.058988114   -3.2002252    1.5017507   420979 
 3315000    0.9583505    -3.198378   -1.6989611  0.055664687    -3.198378    1.4994169   420937 
 3316000   0.95884483   -3.1991911   -1.6988832  0.059471883   -3.1991911     1.500308   420904 
 3317000   0.95830084   -3.1998632   -1.7001463  0.058234078   -3.1998632    1.4997169   420831 
 3318000   0.95788908   -3.1978299   -1.6985152   0.06203974   -3.1978299    1.4993147   420763 
 3319000   0.95981311   -3.2024926   -1.6999127  0.056729404   -3.2024926    1.5025798   420692 
 3320000   0.95877495   -3.2013046   -1.7001965  0.060308978   -3.2013046     1.501108   420649 
 3321000   0.95925649   -3.2027604   -1.7007449  0.056455498   -3.2027604    1.5020155   420606 
 3322000   0.95981193   -3.2041105   -1.7010895   0.05815934   -3.2041105     1.503021   420568 
 3323000   0.95716262   -3.2020541   -1.7028467  0.060512075   -3.2020541    1.4992074   420474 
 3324000   0.95780779   -3.2033408   -1.7030516  0.063426136   -3.2033408    1.5002893   420454 
 3325000   0.95739693   -3.2028844   -1.7032708  0.061372201   -3.2028844    1.4996136   420463 
 3326000   0.95887728   -3.2051671   -1.7030669   0.05482964   -3.2051671    1.5021003   420416 
 3327000   0.95720746   -3.2033108    -1.703755  0.058033149   -3.2033108    1.4995558   420396 
 3328000   0.95749251   -3.2039115   -1.7038699  0.057636133   -3.2039115    1.5000416   420385 
 3329000   0.95739746   -3.2034046   -1.7033906  0.055419712   -3.2034046     1.500014   420351 
 3330000   0.95701691   -3.2039766   -1.7044696  0.056947983   -3.2039766     1.499507   420326 
 3331000   0.95864223    -3.205208   -1.7030258  0.059008003    -3.205208    1.5021823   420290 
 3332000   0.95701982   -3.2034215   -1.7036209  0.061659005   -3.2034215    1.4998005   420245 
 3333000    0.9573399   -3.2046146   -1.7041553   0.05754731   -3.2046146    1.5004593   420201 
 3334000   0.95724183   -3.2046398   -1.7041021  0.061583955   -3.2046398    1.5005377   420136 
 3335000   0.95796966   -3.2064535   -1.7045819  0.060837217   -3.2064535    1.5018716   420082 
 3336000   0.95814976   -3.2064885   -1.7042702  0.059710531   -3.2064885    1.5022184   420064 
 3337000   0.95740561   -3.2074964   -1.7061589  0.058786154   -3.2074964    1.5013376   419984 
 3338000   0.95647995   -3.2051154   -1.7049687   0.05652017   -3.2051154    1.5001468   419911 
 3339000   0.95716787   -3.2065572   -1.7052492  0.056724893   -3.2065572    1.5013079   419888 
 3340000   0.95558004   -3.2057364   -1.7066584  0.057138233   -3.2057364    1.4990781   419815 
 3341000   0.95664589   -3.2060576   -1.7051931  0.057195795   -3.2060576    1.5008645   419783 
 3342000   0.95614557   -3.2055208   -1.7054019  0.062514502   -3.2055208    1.5001189   419772 
 3343000   0.95504556   -3.2038343   -1.7052199  0.055896575   -3.2038343    1.4986144   419710 
 3344000   0.95701254   -3.2060694   -1.7042075  0.060973275   -3.2060694    1.5018619   419665 
 3345000   0.95758368   -3.2070937   -1.7041099  0.056808602   -3.2070937    1.5029839   419602 
 3346000   0.95538164   -3.2059226   -1.7062448  0.062656977   -3.2059226    1.4996777   419560 
 3347000   0.95581518   -3.2059609   -1.7055525  0.060175981   -3.2059609    1.5004083   419546 
 3348000   0.95729836   -3.2068517    -1.704065  0.057309416   -3.2068517    1.5027867   419532 
 3349000   0.95727335   -3.2082239   -1.7054549  0.061413488   -3.2082239     1.502769   419526 
 3350000   0.95532399   -3.2054402   -1.7056743  0.057559219   -3.2054402     1.499766   419510 
 3351000   0.95476386   -3.2042648    -1.705321  0.058881261   -3.2042648    1.4989438   419494 
 3352000   0.95553572   -3.2061455   -1.7057217   0.05709089   -3.2061455    1.5004238   419419 
 3353000   0.95430639   -3.2069351   -1.7083058   0.05857486   -3.2069351    1.4986293   419381 
 3354000   0.95425777   -3.2070691   -1.7082231  0.054167219   -3.2070691     1.498846   419299 
 3355000   0.95349358   -3.2068176   -1.7090184  0.057329519   -3.2068176    1.4977993   419256 
 3356000   0.95325425   -3.2061604   -1.7085406  0.057444755   -3.2061604    1.4976198   419201 
 3357000    0.9551171   -3.2100425   -1.7092239  0.056861017   -3.2100425    1.5008185   419125 
 3358000   0.95308393   -3.2080385    -1.710229  0.050585413   -3.2080385    1.4978096   419073 
 3359000   0.95308462   -3.2085232   -1.7106125    0.0565192   -3.2085232    1.4979107   419045 
 3360000   0.95226749   -3.2082729   -1.7115464  0.058760214   -3.2082729    1.4967265   419017 
 3361000   0.95250711   -3.2082937   -1.7110798  0.057686811   -3.2082937    1.4972139   418986 
 3362000   0.95276399    -3.208215   -1.7105365   0.05883672    -3.208215    1.4976784   418969 
 3363000   0.95171363    -3.208751   -1.7125522  0.054113774    -3.208751    1.4961988   418921 
 3364000   0.95219674   -3.2095992   -1.7125051  0.056405982   -3.2095992    1.4970941   418883 
 3365000   0.95167859   -3.2109524   -1.7144908  0.053583332   -3.2109524    1.4964616   418832 
 3366000    0.9520596   -3.2124466   -1.7152321  0.056705579   -3.2124466    1.4972144   418789 
 3367000   0.95221229   -3.2130083   -1.7154715  0.060140488   -3.2130083    1.4975368   418766 
 3368000   0.95101349   -3.2112277   -1.7155477  0.049908466   -3.2112277      1.49568   418758 
 3369000   0.95286415   -3.2137292   -1.7150455  0.056932015   -3.2137292    1.4986836   418732 
 3370000   0.95324971   -3.2138102   -1.7143268  0.060178598   -3.2138102    1.4994834   418678 
 3371000    0.9529834    -3.213404   -1.7142285  0.057586611    -3.213404    1.4991755   418647 
 3372000   0.95353145   -3.2145274   -1.7143357  0.060717531   -3.2145274    1.5001918   418604 
 3373000   0.95546767   -3.2182102   -1.7149506  0.056338773   -3.2182102    1.5032596   418598 
 3374000   0.95440248   -3.2169251   -1.7152769  0.056903246   -3.2169251    1.5016483   418580 
 3375000   0.95334493   -3.2162727   -1.7162561  0.059469717   -3.2162727    1.5000166   418571 
 3376000    0.9528687   -3.2170898   -1.7175288  0.058904426   -3.2170898     1.499561   418489 
 3377000    0.9522111   -3.2160127   -1.7174078  0.058453108   -3.2160127    1.4986049   418467 
 3378000   0.95192966   -3.2166195   -1.7183072  0.061539666   -3.2166195    1.4983124   418425 
 3379000   0.95129122   -3.2155087   -1.7180008  0.061507969   -3.2155087    1.4975079   418369 
 3380000   0.95359969   -3.2187741   -1.7177076  0.055989795   -3.2187741    1.5010665   418390 
 3381000   0.95234987    -3.218431   -1.7190667  0.060256323    -3.218431    1.4993644   418316 
 3382000   0.95217565   -3.2188902   -1.7195528  0.062334891   -3.2188902    1.4993374   418247 
 3383000   0.95094426   -3.2161242   -1.7186757  0.062897551   -3.2161242    1.4974485   418233 
 3384000   0.95078504   -3.2168031   -1.7197163  0.058040035   -3.2168031    1.4970868   418264 
 3385000   0.95241466   -3.2187716    -1.719022   0.05981221   -3.2187716    1.4997496   418237 
 3386000   0.95079025   -3.2163887   -1.7189177  0.060654686   -3.2163887    1.4974709   418159 
 3387000   0.95173781   -3.2189861   -1.7199296  0.054953696   -3.2189861    1.4990565   418133 
 3388000   0.95028913    -3.217437   -1.7205226  0.057613886    -3.217437    1.4969144   418094 
 3389000   0.95141422   -3.2189327    -1.720056  0.056227648   -3.2189327    1.4988766   418041 
 3390000   0.94984724   -3.2170321    -1.720506  0.067047764   -3.2170321    1.4965261   418008 
 3391000   0.95122442   -3.2203035   -1.7215036   0.05876994   -3.2203035    1.4987999   417979 
 3392000   0.95070864   -3.2198145   -1.7215692   0.05604458   -3.2198145    1.4982453   417907 
 3393000   0.95056872   -3.2198538   -1.7217106  0.053990254   -3.2198538    1.4981431   417874 
 3394000   0.94880271   -3.2179118   -1.7224697  0.058745052   -3.2179118    1.4954421   417851 
 3395000   0.94986692   -3.2189023    -1.721618  0.054707186   -3.2189023    1.4972843   417805 
 3396000    0.9487523   -3.2175898   -1.7219373  0.051881771   -3.2175898    1.4956526   417770 
 3397000   0.94869551   -3.2178533   -1.7224191  0.049858989   -3.2178533    1.4954342   417806 
 3398000   0.94953516   -3.2175551   -1.7206362  0.052404747   -3.2175551     1.496919   417761 
 3399000   0.95052499   -3.2189346   -1.7202579  0.054271454   -3.2189346    1.4986767   417706 
 3400000   0.94923666   -3.2182002    -1.721458    0.0554064   -3.2182002    1.4967422   417679 
 3401000   0.94925902   -3.2183374   -1.7214345  0.055296704   -3.2183374    1.4969029   417644 
 3402000   0.94953688   -3.2191413   -1.7216963   0.06027474   -3.2191413     1.497445   417615 
 3403000   0.94789566   -3.2179992   -1.7230708  0.053833756   -3.2179992    1.4949283   417595 
 3404000   0.94886313    -3.218434   -1.7219512  0.056310286    -3.218434    1.4964828   417587 
 3405000   0.94934666   -3.2199723   -1.7225692  0.055822865   -3.2199723    1.4974032   417543 
 3406000   0.94973605   -3.2204218   -1.7223291  0.056066105   -3.2204218    1.4980927   417522 
 3407000   0.94921483   -3.2190709   -1.7216999  0.053360103   -3.2190709     1.497371   417494 
 3408000   0.94906982   -3.2188576   -1.7214823  0.057923943   -3.2188576    1.4973754   417429 
 3409000   0.95003404   -3.2206121   -1.7214964  0.055846672   -3.2206121    1.4991157   417368 
 3410000   0.94827956   -3.2198368   -1.7232135  0.057020236   -3.2198368    1.4966233   417291 
 3411000   0.94727172   -3.2190591   -1.7239118  0.057179434   -3.2190591    1.4951473   417259 
 3412000   0.94849976   -3.2202067    -1.722938  0.055850476   -3.2202067    1.4972686   417208 
 3413000   0.94685652   -3.2191578   -1.7243362  0.055891652   -3.2191578    1.4948216   417167 
 3414000   0.94775671    -3.219634   -1.7232801  0.053483015    -3.219634    1.4963539   417136 
 3415000   0.94833703   -3.2205601   -1.7232469  0.056751312   -3.2205601    1.4973132   417124 
 3416000   0.94787553   -3.2196627   -1.7229884   0.05748984   -3.2196627    1.4966743   417099 
 3417000   0.94759281    -3.221242   -1.7248562  0.057537461    -3.221242    1.4963857   417055 
 3418000   0.94620344   -3.2192961   -1.7250077   0.05811046   -3.2192961    1.4942885   417028 
 3419000   0.94651242   -3.2208433   -1.7259056   0.05119892   -3.2208433    1.4949377   416983 
 3420000   0.94579628   -3.2210274   -1.7270022  0.056910611   -3.2210274    1.4940252   416922 
 3421000   0.94493343     -3.21837   -1.7256255  0.053583486     -3.21837    1.4927445   416899 
 3422000   0.94644489   -3.2206559   -1.7255523  0.055832071   -3.2206559    1.4951036   416907 
 3423000   0.94552537   -3.2172956   -1.7234583  0.056248901   -3.2172956    1.4938373   416855 
 3424000   0.94576441   -3.2186025   -1.7243804  0.057037468   -3.2186025    1.4942221   416853 
 3425000   0.94608491   -3.2198545   -1.7249216  0.061871781   -3.2198545    1.4949329   416796 
 3426000   0.94838851    -3.221596   -1.7230555  0.059923534    -3.221596    1.4985405   416805 
 3427000   0.94833299     -3.22128   -1.7226869  0.060919778     -3.22128     1.498593   416766 
 3428000   0.94759666   -3.2205489   -1.7229614  0.058788055   -3.2205489    1.4975876   416722 
 3429000   0.94659549   -3.2198189   -1.7236556  0.057741768   -3.2198189    1.4961633   416678 
 3430000   0.94530293   -3.2206576   -1.7263544  0.051845566   -3.2206576    1.4943032   416627 
 3431000   0.94557429   -3.2217674    -1.726924  0.054763279   -3.2217674    1.4948434   416596 
 3432000   0.94597622   -3.2217767   -1.7262226  0.057396964   -3.2217767    1.4955542   416575 
 3433000   0.94443877   -3.2204699   -1.7271994  0.056767872   -3.2204699    1.4932705   416534 
 3434000    0.9449483   -3.2222089   -1.7279714  0.054774351   -3.2222089    1.4942375   416489 
 3435000   0.94528186   -3.2222793   -1.7272953  0.055876249   -3.2222793     1.494984   416428 
 3436000   0.94395304   -3.2207988   -1.7277264  0.049749062   -3.2207988    1.4930724   416375 
 3437000   0.94277858   -3.2197382   -1.7283945  0.053575078   -3.2197382    1.4913437   416339 
 3438000    0.9446983   -3.2216574     -1.72718  0.049569106   -3.2216574    1.4944774   416312 
 3439000   0.94525867   -3.2219407   -1.7263865  0.052956314   -3.2219407    1.4955542   416259 
 3440000   0.94376715   -3.2204088   -1.7270996  0.061311781   -3.2204088    1.4933092   416227 
 3441000   0.94416603   -3.2226511   -1.7284882  0.049318059   -3.2226511    1.4941629   416165 
 3442000   0.94474484   -3.2242277   -1.7291524  0.053736687   -3.2242277    1.4950753   416166 
 3443000   0.94549621   -3.2258361   -1.7295143   0.05243602   -3.2258361    1.4963219   416150 
 3444000   0.94214606    -3.220987    -1.729709  0.057166796    -3.220987     1.491278   416078 
 3445000   0.94302006   -3.2228697   -1.7300001  0.051808357   -3.2228697    1.4928695   416020 
 3446000   0.94524287   -3.2265946   -1.7299436  0.050145028   -3.2265946     1.496651   415947 
 3447000   0.94202687   -3.2236819   -1.7319401  0.053231864   -3.2236819    1.4917419   415896 
 3448000   0.94258602   -3.2232694   -1.7306062  0.053955343   -3.2232694    1.4926632   415886 
 3449000    0.9430114   -3.2258869   -1.7324674  0.056131043   -3.2258869    1.4934194   415863 
 3450000   0.94336115   -3.2271917   -1.7332975  0.055594514   -3.2271917    1.4938943   415885 
 3451000   0.94361641   -3.2282463   -1.7336459  0.056982942   -3.2282463    1.4946004   415801 
 3452000    0.9435612   -3.2284619   -1.7338232  0.060531619   -3.2284619    1.4946387   415766 
 3453000    0.9414875   -3.2256913    -1.734237   0.05576969   -3.2256913    1.4914544   415738 
 3454000   0.94301907   -3.2279664    -1.734093  0.052957349   -3.2279664    1.4938734   415740 
 3455000   0.94338124   -3.2282131   -1.7335646  0.054177785   -3.2282131    1.4946485   415684 
 3456000   0.94111522   -3.2246283   -1.7335413  0.058491698   -3.2246283     1.491087   415676 
 3457000   0.94248502   -3.2266677   -1.7332919  0.050434778   -3.2266677    1.4933758   415643 
 3458000   0.94384237   -3.2278936   -1.7322195  0.051821576   -3.2278936    1.4956741   415602 
 3459000    0.9429276   -3.2260554   -1.7317267  0.058208919   -3.2260554    1.4943288   415573 
 3460000   0.94354727   -3.2284153    -1.733198  0.054038003   -3.2284153    1.4952172   415599 
 3461000   0.94453863   -3.2320913   -1.7350509  0.056376795   -3.2320913    1.4970404   415529 
 3462000   0.94226317   -3.2291034   -1.7355401  0.063052084   -3.2291034    1.4935633   415493 
 3463000   0.94301506   -3.2290142   -1.7342339  0.055442904   -3.2290142    1.4947803   415486 
 3464000   0.94146299   -3.2279049    -1.735513  0.055127651   -3.2279049    1.4923919   415466 
 3465000   0.94302936   -3.2291111    -1.734247   0.05084257   -3.2291111    1.4948641   415469 
 3466000    0.9404719   -3.2270081   -1.7359001  0.056218993   -3.2270081     1.491108   415386 
 3467000   0.94070998   -3.2277104   -1.7359736  0.054492277   -3.2277104    1.4917369   415316 
 3468000   0.94115784    -3.228852   -1.7363403  0.055457323    -3.228852    1.4925117   415298 
 3469000   0.94141141   -3.2295501   -1.7364385  0.056412923   -3.2295501    1.4931116   415243 
 3470000     0.941032   -3.2284823   -1.7358394  0.052928924   -3.2284823    1.4926428   415206 
 3471000   0.94011854   -3.2260221   -1.7347851   0.05838188   -3.2260221     1.491237   415194 
 3472000   0.94312211   -3.2313804   -1.7352312  0.051654209   -3.2313804    1.4961491   415153 
 3473000   0.94079381   -3.2279748   -1.7354078  0.055825567   -3.2279748     1.492567   415122 
 3474000   0.94131117   -3.2296736   -1.7362066  0.049010751   -3.2296736    1.4934669   415100 
 3475000   0.94006201   -3.2279555   -1.7364489  0.050961408   -3.2279555    1.4915066   415094 
 3476000   0.94053081   -3.2293151   -1.7369245  0.055903208   -3.2293151    1.4923906   415055 
 3477000    0.9391785   -3.2284626   -1.7381173  0.053843035   -3.2284626    1.4903454   415027 
 3478000   0.93810245   -3.2273443   -1.7385271  0.053765003   -3.2273443    1.4888172   414977 
 3479000   0.93922634   -3.2299814   -1.7392224  0.051146455   -3.2299814    1.4907589   414933 
 3480000   0.93915578   -3.2298066   -1.7390015  0.052103652   -3.2298066     1.490805   414889 
 3481000   0.93793938   -3.2271106   -1.7382364  0.055372268   -3.2271106    1.4888741   414889 
 3482000   0.93881183   -3.2293286   -1.7390444  0.050322848   -3.2293286    1.4902842   414882 
 3483000   0.93941267   -3.2295053   -1.7382889  0.051892964   -3.2295053    1.4912164   414888 
 3484000   0.94150059   -3.2326855   -1.7381295  0.047895013   -3.2326855     1.494556   414881 
 3485000     0.939484   -3.2302044   -1.7387418  0.049975486   -3.2302044    1.4914626   414851 
 3486000   0.93966383   -3.2297531   -1.7376993  0.054721321   -3.2297531    1.4920538   414766 
 3487000   0.94100328   -3.2324412    -1.737983  0.051108999   -3.2324412    1.4944581   414689 
 3488000   0.94115891   -3.2326468   -1.7378442  0.053598892   -3.2326468    1.4948026   414662 
 3489000   0.94101113   -3.2342962   -1.7395877  0.055941419   -3.2342962    1.4947085   414623 
 3490000   0.93961563   -3.2324204   -1.7398385  0.053531145   -3.2324204    1.4925819   414598 
 3491000   0.94048726   -3.2334945   -1.7394128  0.051778992   -3.2334945    1.4940818   414566 
 3492000    0.9394868   -3.2330686   -1.7405438  0.055181952   -3.2330686    1.4925248   414557 
 3493000   0.93883429   -3.2327524   -1.7410375  0.057614122   -3.2327524    1.4917149   414494 
 3494000   0.93944821   -3.2345746    -1.741787  0.049587261   -3.2345746    1.4927876   414467 
 3495000   0.93874869   -3.2347277   -1.7429688  0.059727285   -3.2347277    1.4917588   414444 
 3496000   0.93758284   -3.2330294   -1.7430082  0.058934744   -3.2330294    1.4900212   414412 
 3497000   0.93802524     -3.23407    -1.743191  0.058958878     -3.23407     1.490879   414369 
 3498000   0.93723346   -3.2345876   -1.7448592  0.051519749   -3.2345876    1.4897284   414339 
 3499000   0.93791743    -3.236254   -1.7451973  0.049216528    -3.236254    1.4910567   414272 
 3500000   0.93847503   -3.2383165   -1.7463338  0.051981584   -3.2383165    1.4919828   414261 
 3501000   0.93684192   -3.2357585   -1.7462462  0.054589975   -3.2357585    1.4895123   414226 
 3502000   0.93732554   -3.2365523   -1.7461523  0.053637705   -3.2365523       1.4904   414193 
 3503000   0.93860333   -3.2371788   -1.7445453  0.056491742   -3.2371788    1.4926335   414137 
 3504000   0.93698345   -3.2359644   -1.7459322  0.056815938   -3.2359644    1.4900323   414144 
 3505000     0.937692   -3.2347981   -1.7436102  0.056991339   -3.2347981    1.4911879   414136 
 3506000   0.93713989   -3.2350103   -1.7446393  0.055900419   -3.2350103     1.490371   414119 
 3507000   0.93747686   -3.2370405   -1.7460363  0.051105968   -3.2370405    1.4910041   414092 
 3508000   0.93814463   -3.2371357   -1.7450299  0.056826182   -3.2371357    1.4921058   414081 
 3509000   0.93661833   -3.2351913   -1.7454231  0.056183435   -3.2351913    1.4897682   414056 
 3510000   0.93796074   -3.2382083   -1.7462616  0.050592397   -3.2382083    1.4919467   414044 
 3511000   0.93827468   -3.2376677   -1.7451063  0.057281655   -3.2376677    1.4925614   414012 
 3512000   0.93689619   -3.2354006   -1.7449169  0.053995138   -3.2354006    1.4904837   413980 
 3513000   0.93717594   -3.2368818   -1.7457297  0.052742228   -3.2368818    1.4911521   413918 
 3514000   0.93699387   -3.2368551   -1.7458594  0.051806845   -3.2368551    1.4909957   413881 
 3515000    0.9363785   -3.2367108   -1.7465359  0.052407756   -3.2367108    1.4901749   413837 
 3516000   0.93663529   -3.2370684   -1.7462471   0.05717256   -3.2370684    1.4908213   413771 
 3517000   0.93703228   -3.2370093   -1.7454696  0.056600621   -3.2370093    1.4915397   413747 
 3518000   0.93661779   -3.2356307   -1.7446498  0.053871777   -3.2356307    1.4909809   413719 
 3519000   0.93578938   -3.2354804   -1.7455914  0.050457113   -3.2354804     1.489889   413656 
 3520000   0.93611233    -3.236527     -1.74594  0.057187217    -3.236527     1.490587   413605 
 3521000   0.93505277   -3.2359311   -1.7469269  0.048240567   -3.2359311    1.4890042   413576 
 3522000   0.93615774   -3.2375657   -1.7467154  0.048211136   -3.2375657    1.4908503   413552 
 3523000   0.93485964   -3.2363277   -1.7473394  0.058355941   -3.2363277    1.4889883   413495 
 3524000   0.93622007    -3.238366   -1.7470846  0.056676828    -3.238366    1.4912813   413460 
 3525000   0.93652937   -3.2385926   -1.7466165  0.057536322   -3.2385926    1.4919761   413404 
 3526000   0.93702156   -3.2384706   -1.7456563  0.057717439   -3.2384706    1.4928143   413389 
 3527000   0.93584653   -3.2349543   -1.7438893  0.051132428   -3.2349543     1.491065   413355 
 3528000   0.93665452    -3.237533   -1.7452312   0.05470145    -3.237533    1.4923018   413369 
 3529000   0.93691512   -3.2389222   -1.7461113   0.05233585   -3.2389222    1.4928109   413343 
 3530000   0.93482649   -3.2361326   -1.7464947  0.056723902   -3.2361326     1.489638   413300 
 3531000   0.93388559   -3.2348604   -1.7465345  0.056331236   -3.2348604    1.4883259   413248 
 3532000   0.93277182   -3.2346226   -1.7478558  0.054909532   -3.2346226    1.4867668   413188 
 3533000    0.9329571   -3.2366871    -1.749499  0.056822064   -3.2366871    1.4871881   413153 
 3534000   0.93185859   -3.2366102   -1.7508208  0.048089873   -3.2366102    1.4857894   413055 
 3535000    0.9325017   -3.2371688   -1.7502388  0.049668494   -3.2371688      1.48693   413023 
 3536000   0.93271707   -3.2373609   -1.7498642  0.052237926   -3.2373609    1.4874967   412961 
 3537000   0.93273661   -3.2387958   -1.7511886  0.049249762   -3.2387958    1.4876071   412939 
 3538000   0.93239517   -3.2387924    -1.751719  0.052601735   -3.2387924    1.4870734   412936 
 3539000    0.9339719   -3.2398705   -1.7502283  0.057161457   -3.2398705    1.4896422   412921 
 3540000   0.93427074   -3.2411186   -1.7509637  0.054645526   -3.2411186    1.4901549   412911 
 3541000   0.93321433   -3.2398763   -1.7514171  0.050577126   -3.2398763    1.4884592   412914 
 3542000   0.93390326   -3.2379527   -1.7482504  0.058485077   -3.2379527    1.4897023   412874 
 3543000    0.9365488   -3.2418917   -1.7478572  0.050127701   -3.2418917    1.4940345   412843 
 3544000   0.93396085   -3.2378911   -1.7480031  0.053848384   -3.2378911     1.489888   412848 
 3545000   0.93431683    -3.241047   -1.7502878   0.05387083    -3.241047    1.4907592   412764 
 3546000    0.9348412   -3.2413411   -1.7497308  0.051015204   -3.2413411    1.4916103   412760 
 3547000   0.93323453    -3.239779   -1.7506926  0.049656214    -3.239779    1.4890864   412749 
 3548000   0.93350639   -3.2400446    -1.750398   0.05039521   -3.2400446    1.4896465   412714 
 3549000   0.93298888   -3.2391708   -1.7501986  0.049913653   -3.2391708    1.4889722   412672 
 3550000   0.93231469   -3.2388817   -1.7508015  0.053037569   -3.2388817    1.4880802   412621 
 3551000   0.93414529   -3.2412395   -1.7502194  0.052452568   -3.2412395    1.4910201   412616 
 3552000   0.93147776   -3.2377968   -1.7510741  0.051956211   -3.2377968    1.4867227   412627 
 3553000   0.93068769   -3.2382849   -1.7527512  0.053693564   -3.2382849    1.4855337   412607 
 3554000   0.93126561   -3.2373986   -1.7510433  0.049557938   -3.2373986    1.4863553   412635 
 3555000   0.93124839   -3.2367515   -1.7502111  0.052891703   -3.2367515    1.4865404   412576 
 3556000   0.93096707   -3.2380714   -1.7518324  0.048582402   -3.2380714     1.486239   412535 
 3557000   0.93128763   -3.2380657   -1.7510806  0.050496293   -3.2380657     1.486985   412470 
 3558000   0.93120277   -3.2374643   -1.7507265   0.05154028   -3.2374643    1.4867378   412501 
 3559000    0.9326445   -3.2400127   -1.7508178  0.053491233   -3.2400127    1.4891949   412458 
 3560000   0.93231521    -3.238938   -1.7502689  0.054816215    -3.238938    1.4886691   412458 
 3561000   0.93219026   -3.2383587   -1.7497953  0.053621712   -3.2383587    1.4885634   412432 
 3562000   0.93392881   -3.2427171    -1.751193  0.050313364   -3.2427171     1.491524   412381 
 3563000   0.93015469   -3.2373534   -1.7517523  0.053457476   -3.2373534    1.4856011   412352 
 3564000   0.93058869   -3.2383977   -1.7520458  0.050300091   -3.2383977    1.4863519   412336 
 3565000   0.93048725   -3.2390143   -1.7526874  0.049536203   -3.2390143    1.4863269   412298 
 3566000   0.93219275   -3.2416429   -1.7525483  0.051463666   -3.2416429    1.4890945   412286 
 3567000   0.93119513   -3.2410203   -1.7534653  0.049248423   -3.2410203     1.487555   412271 
 3568000   0.92989819   -3.2390824   -1.7534911  0.051937742   -3.2390824    1.4855913   412241 
 3569000     0.931242     -3.24146   -1.7535991  0.052115671     -3.24146    1.4878609   412207 
 3570000   0.93119946   -3.2420576   -1.7541564  0.048980145   -3.2420576    1.4879012   412177 
 3571000   0.93275893   -3.2448107    -1.754255   0.05094028   -3.2448107    1.4905557   412132 
 3572000   0.93200384   -3.2447663   -1.7552655  0.053754886   -3.2447663    1.4895009   412090 
 3573000    0.9312134   -3.2442779   -1.7558597  0.056706865   -3.2442779    1.4884182   412040 
 3574000   0.93226567   -3.2452069   -1.7551104  0.053833571   -3.2452069    1.4900965   412041 
 3575000    0.9319856    -3.245622   -1.7559189  0.052555506    -3.245622    1.4897031   412026 
 3576000   0.93175922   -3.2462035   -1.7567285  0.050729159   -3.2462035     1.489475   411989 
 3577000    0.9300832    -3.242682   -1.7559584  0.054635534    -3.242682    1.4867236   412009 
 3578000   0.93317819   -3.2467117   -1.7549104  0.049015038   -3.2467117    1.4918012   411973 
 3579000   0.93196079   -3.2457035   -1.7557182  0.052925661   -3.2457035    1.4899853   411937 
 3580000   0.93111025   -3.2448839   -1.7561789  0.057007346   -3.2448839    1.4887049   411915 
 3581000   0.93227711   -3.2475399   -1.7568861  0.058041545   -3.2475399    1.4906538   411892 
 3582000   0.93276948   -3.2501138   -1.7585387  0.052945036   -3.2501138    1.4915751   411855 
 3583000   0.93185864   -3.2492602   -1.7590331   0.05387739   -3.2492602    1.4902271   411825 
 3584000   0.93104792   -3.2483451   -1.7592011  0.052244355   -3.2483451    1.4891439   411766 
 3585000   0.93159813   -3.2482056   -1.7581636  0.052639916   -3.2482056    1.4900421   411761 
 3586000   0.93025054   -3.2471599   -1.7590564  0.052157735   -3.2471599    1.4881035   411701 
 3587000   0.93048064   -3.2487594   -1.7601901  0.054098274   -3.2487594    1.4885692   411674 
 3588000     0.930146   -3.2474013   -1.7591613  0.054042149   -3.2474013    1.4882399   411617 
 3589000   0.93084861   -3.2490493   -1.7597033  0.057371113   -3.2490493     1.489346   411622 
 3590000   0.93142341   -3.2509267   -1.7605741  0.056244092   -3.2509267    1.4903526   411598 
 3591000   0.93161279   -3.2506642   -1.7598746  0.056453475   -3.2506642    1.4907896   411561 
 3592000   0.93112844    -3.250645   -1.7605871  0.058117956    -3.250645     1.490058   411549 
 3593000   0.93066659   -3.2507169   -1.7613365  0.055544933   -3.2507169    1.4893804   411532 
 3594000   0.92910362     -3.25012   -1.7629951  0.058353758     -3.25012    1.4871249   411464 
 3595000   0.93055176   -3.2521041   -1.7626613  0.057599706   -3.2521041    1.4894428   411464 
 3596000   0.92951045   -3.2500388   -1.7622085  0.053350512   -3.2500388    1.4878303   411449 
 3597000   0.92915484   -3.2499267   -1.7625029  0.057220927   -3.2499267    1.4874238   411404 
 3598000   0.92866062   -3.2485988   -1.7620095  0.052569048   -3.2485988    1.4865892   411416 
 3599000   0.92826421   -3.2491264   -1.7631284  0.048657618   -3.2491264     1.485998   411404 
 3600000   0.92950566   -3.2514432   -1.7633023  0.052120185   -3.2514432    1.4881409   411361 
 3601000    0.9279005    -3.248201   -1.7626083  0.053915706    -3.248201    1.4855927   411355 
 3602000   0.92900277   -3.2500382   -1.7627422  0.049418344   -3.2500382     1.487296   411372 
 3603000   0.92892947   -3.2496865   -1.7624138  0.057193708   -3.2496865    1.4872727   411346 
 3604000    0.9287466    -3.248167   -1.7611257   0.05317581    -3.248167    1.4870413   411329 
 3605000   0.92882427   -3.2490909   -1.7617444  0.048089414   -3.2490909    1.4873465   411279 
 3606000   0.92808256   -3.2474453   -1.7613624  0.053946908   -3.2474453    1.4860829   411300 
 3607000    0.9287785   -3.2481956    -1.760785  0.054378576   -3.2481956    1.4874106   411241 
 3608000    0.9291178   -3.2487049   -1.7608413   0.05340435   -3.2487049    1.4878636   411266 
 3609000   0.92964073    -3.249098     -1.76035  0.058048744    -3.249098     1.488748   411253 
 3610000   0.92992621   -3.2506353   -1.7612998  0.050412276   -3.2506353    1.4893356   411217 
 3611000   0.92955821   -3.2492353   -1.7605615  0.053533335   -3.2492353    1.4886738   411237 
 3612000   0.92885944   -3.2484003   -1.7607841  0.054126416   -3.2484003    1.4876162   411220 
 3613000    0.9294543   -3.2500316   -1.7613178  0.055758727   -3.2500316    1.4887137   411180 
 3614000   0.92839052   -3.2481659   -1.7611091  0.054905592   -3.2481659    1.4870569   411167 
 3615000   0.92813452   -3.2465934   -1.7599429  0.050891258   -3.2465934    1.4866504   411166 
 3616000   0.92922905   -3.2486029   -1.7601414  0.053667208   -3.2486029    1.4884615   411150 
 3617000   0.92909861   -3.2476868   -1.7593256  0.050544735   -3.2476868    1.4883612   411120 
 3618000   0.92973167   -3.2489155   -1.7594533   0.05284662   -3.2489155    1.4894623   411096 
 3619000   0.92835407   -3.2472407   -1.7598805  0.057947643   -3.2472407    1.4873602   411067 
 3620000   0.92944184   -3.2498471   -1.7604253  0.051924465   -3.2498471    1.4894218   410979 
 3621000   0.92895274   -3.2487871   -1.7599824  0.051573006   -3.2487871    1.4888047   410933 
 3622000   0.92867919   -3.2493884   -1.7610149  0.054882753   -3.2493884    1.4883735   410931 
 3623000   0.92773541   -3.2489926   -1.7620919  0.055275325   -3.2489926    1.4869008   410920 
 3624000   0.92842416   -3.2497576   -1.7617277  0.056199029   -3.2497576      1.48803   410913 
 3625000   0.92768368   -3.2468935   -1.7602819  0.051397029   -3.2468935    1.4866116   410977 
 3626000   0.92994979    -3.249394   -1.7590893  0.054254565    -3.249394    1.4903047   410960 
 3627000   0.92841805    -3.247081   -1.7590101  0.058249098    -3.247081    1.4880709   410899 
 3628000   0.92972378   -3.2478188   -1.7575499  0.049878404   -3.2478188    1.4902689   410870 
 3629000   0.92857452   -3.2481708   -1.7598201  0.057208955   -3.2481708    1.4883507   410891 
 3630000   0.92987086   -3.2506603    -1.760152  0.051445812   -3.2506603    1.4905083   410869 
 3631000   0.92703219   -3.2472774   -1.7613337  0.055035881   -3.2472774    1.4859437   410873 
 3632000   0.92845479   -3.2500052   -1.7617813  0.052688869   -3.2500052    1.4882239   410873 
 3633000    0.9278054   -3.2486248   -1.7613331  0.053977081   -3.2486248    1.4872916   410843 
 3634000   0.92550151   -3.2462681   -1.7626624  0.053148903   -3.2462681    1.4836057   410841 
 3635000   0.92534943   -3.2466127   -1.7632038  0.048329234   -3.2466127    1.4834088   410828 
 3636000   0.92572315   -3.2476092   -1.7635073  0.050976198   -3.2476092    1.4841018   410802 
 3637000    0.9269472   -3.2490161   -1.7628469  0.048039228   -3.2490161    1.4861691   410773 
 3638000   0.92620036   -3.2485328   -1.7634201  0.051922604   -3.2485328    1.4851127   410734 
 3639000   0.92647305   -3.2487126   -1.7631662  0.051858041   -3.2487126    1.4855464   410735 
 3640000   0.92635525   -3.2491745   -1.7637049  0.052882824   -3.2491745    1.4854696   410704 
 3641000   0.92771512   -3.2514805   -1.7636056  0.055687932   -3.2514805    1.4878748   410642 
 3642000   0.92659971   -3.2500484   -1.7637814  0.051741324   -3.2500484    1.4862669   410592 
 3643000   0.92705745   -3.2503262   -1.7632201  0.054941651   -3.2503262    1.4871062   410563 
 3644000   0.92602276   -3.2504209   -1.7649021  0.056165113   -3.2504209    1.4855188   410543 
 3645000   0.92687187   -3.2530432   -1.7658906  0.045453532   -3.2530432    1.4871526   410468 
 3646000   0.92628516   -3.2516083   -1.7652015  0.057461809   -3.2516083    1.4864068   410414 
 3647000   0.92674647   -3.2518288   -1.7645658     0.055535   -3.2518288     1.487263   410382 
 3648000   0.92703451   -3.2512648   -1.7635432  0.057502735   -3.2512648    1.4877216   410383 
 3649000   0.92851028    -3.253383   -1.7630861  0.050870112    -3.253383    1.4902969   410326 
 3650000   0.92716898   -3.2523515   -1.7640514  0.055716232   -3.2523515    1.4883001   410283 
 3651000   0.92574489   -3.2513089   -1.7652549  0.057513513   -3.2513089     1.486054   410272 
 3652000   0.92806118   -3.2544009   -1.7644907  0.058937758   -3.2544009    1.4899102   410234 
 3653000   0.92592383   -3.2518851   -1.7653773  0.055348458   -3.2518851    1.4865079   410226 
 3654000   0.92761759    -3.253796   -1.7644854  0.051934506    -3.253796    1.4893106   410203 
 3655000   0.92785872   -3.2557276   -1.7661497  0.052889481   -3.2557276    1.4895779   410236 
 3656000   0.92518095   -3.2530591    -1.767599  0.046608255   -3.2530591    1.4854601   410186 
 3657000   0.92389219    -3.251423   -1.7680285  0.052108201    -3.251423    1.4833945   410185 
 3658000   0.92423183   -3.2530583   -1.7690498  0.046942572   -3.2530583    1.4840085   410166 
 3659000   0.92387446   -3.2536344   -1.7700839   0.05181314   -3.2536344    1.4835504   410134 
 3660000   0.92487122    -3.255267   -1.7699929  0.050037046    -3.255267    1.4852742   410100 
 3661000   0.92547064    -3.254993   -1.7686946  0.051834741    -3.254993    1.4862984   410083 
 3662000   0.92555209   -3.2545959   -1.7680724  0.052031854   -3.2545959    1.4865235   410057 
 3663000    0.9252761   -3.2531116   -1.7669879  0.052301693   -3.2531116    1.4861237   410045 
 3664000   0.92634996   -3.2534289   -1.7655007  0.054092915   -3.2534289    1.4879283   410023 
 3665000   0.92594112    -3.252456     -1.76513   0.05891204    -3.252456     1.487326   410008 
 3666000   0.92525416   -3.2513014   -1.7652129  0.056303415   -3.2513014    1.4860884   410045 
 3667000   0.92721485   -3.2552675   -1.7659863  0.052516302   -3.2552675    1.4892812   410033 
 3668000   0.92810496   -3.2552271   -1.7644363  0.056342177   -3.2552271    1.4907909   410011 
 3669000   0.92594707   -3.2539989   -1.7666633  0.054035091   -3.2539989    1.4873356   410008 
 3670000   0.92494782   -3.2539437   -1.7680284  0.053327255   -3.2539437    1.4859153   409957 
 3671000   0.92584274   -3.2545682   -1.7672225  0.050553559   -3.2545682    1.4873457   409959 
 3672000   0.92413812   -3.2509277   -1.7664037  0.054736489   -3.2509277     1.484524   409982 
 3673000   0.92488094   -3.2529816   -1.7671846  0.052282197   -3.2529816     1.485797   409960 
 3674000   0.92333231    -3.252147   -1.7686497  0.052307247    -3.252147    1.4834973   409908 
 3675000   0.92383939   -3.2530478    -1.768562   0.05135892   -3.2530478    1.4844859   409860 
 3676000   0.92521049   -3.2562522   -1.7695196   0.05182692   -3.2562522    1.4867326   409848 
 3677000   0.92402478   -3.2542141     -1.76951  0.047316866   -3.2542141    1.4847041   409882 
 3678000   0.92413918   -3.2535753   -1.7685062  0.055741367   -3.2535753    1.4850691   409832 
 3679000    0.9241182   -3.2525398   -1.7674972  0.053707251   -3.2525398    1.4850426   409830 
 3680000   0.92407694   -3.2512884   -1.7663483  0.052475334   -3.2512884    1.4849401   409840 
 3681000   0.92513925   -3.2530533   -1.7661812  0.051279543   -3.2530533    1.4868721   409778 
 3682000   0.92393657    -3.251335   -1.7663995  0.051662219    -3.251335    1.4849355   409779 
 3683000   0.92326072   -3.2514608   -1.7674848    0.0537745   -3.2514608     1.483976   409744 
 3684000    0.9219281   -3.2504207   -1.7684709  0.054159726   -3.2504207    1.4819498   409712 
 3685000   0.92253999   -3.2515755   -1.7686891  0.050719436   -3.2515755    1.4828864   409725 
 3686000    0.9233934   -3.2534943   -1.7691818  0.050826116   -3.2534943    1.4843125   409710 
 3687000   0.92283213   -3.2520815   -1.7686061   0.05133345   -3.2520815    1.4834754   409692 
 3688000   0.92397761   -3.2536389   -1.7683692   0.05310451   -3.2536389    1.4852697   409705 
 3689000    0.9225245   -3.2502871   -1.7673642  0.052752495   -3.2502871     1.482923   409708 
 3690000   0.92260847    -3.250912   -1.7678758  0.053595759    -3.250912    1.4830362   409714 
 3691000   0.92347884   -3.2510165    -1.766563  0.050016205   -3.2510165    1.4844534   409709 
 3692000   0.92416111   -3.2523334   -1.7666527  0.048166984   -3.2523334    1.4856807   409673 
 3693000   0.92360907   -3.2511383   -1.7662798  0.051448553   -3.2511383    1.4848585   409655 
 3694000   0.92413365   -3.2511969   -1.7654225  0.054409522   -3.2511969    1.4857744   409635 
 3695000   0.92406957   -3.2522597   -1.7666646  0.051423364   -3.2522597    1.4855952   409656 
 3696000   0.92365189   -3.2528833   -1.7677747  0.052869516   -3.2528833    1.4851086   409605 
 3697000   0.92332475   -3.2520977   -1.7674173  0.048816881   -3.2520977    1.4846805   409578 
 3698000   0.92216971   -3.2502124   -1.7673168  0.055055917   -3.2502124    1.4828956   409558 
 3699000   0.92447341   -3.2552096   -1.7685914  0.050469039   -3.2552096    1.4866182   409553 
 3700000   0.92357438   -3.2538056   -1.7686912  0.050963841   -3.2538056    1.4851145   409569 
 3701000   0.92239217   -3.2537034   -1.7704319  0.050508931   -3.2537034    1.4832714   409553 
 3702000   0.92235705   -3.2542507   -1.7709199  0.054282174   -3.2542507    1.4833308   409521 
 3703000   0.92324881   -3.2563395   -1.7714295  0.050092762   -3.2563395      1.48491   409481 
 3704000   0.92312962   -3.2572309   -1.7723386  0.050908815   -3.2572309    1.4848924   409433 
 3705000   0.92171533   -3.2547729     -1.77196  0.052269914   -3.2547729     1.482813   409379 
 3706000   0.92408858   -3.2570914   -1.7704749   0.05038674   -3.2570914    1.4866164   409383 
 3707000   0.92356902   -3.2557407   -1.7698912   0.05331273   -3.2557407    1.4858496   409364 
 3708000   0.92311633   -3.2563348   -1.7710793  0.052061109   -3.2563348    1.4852555   409327 
 3709000   0.92554982    -3.259936    -1.770736  0.051080613    -3.259936       1.4892   409319 
 3710000   0.92444295   -3.2589732    -1.771427  0.044976707   -3.2589732    1.4875463   409284 
 3711000   0.92404633   -3.2573454   -1.7704591  0.051526492   -3.2573454    1.4868862   409290 
 3712000   0.92522471   -3.2599906   -1.7709608  0.051099306   -3.2599906    1.4890298   409222 
 3713000   0.92265348   -3.2573256   -1.7724085  0.053392821   -3.2573256    1.4849171   409215 
 3714000   0.92219553   -3.2570451   -1.7727127  0.048122425   -3.2570451    1.4843324   409173 
 3715000   0.92348265   -3.2602789   -1.7737367  0.049316299   -3.2602789    1.4865422   409135 
 3716000   0.92179432   -3.2595782   -1.7758118  0.049932638   -3.2595782    1.4837664   409151 
 3717000    0.9213387   -3.2579417   -1.7749231  0.055378974   -3.2579417    1.4830186   409155 
 3718000   0.92221076   -3.2605131   -1.7760074  0.048801238   -3.2605131    1.4845057   409132 
 3719000   0.92032302   -3.2564042   -1.7749191  0.047104219   -3.2564042    1.4814851   409127 
 3720000   0.91970437   -3.2555621   -1.7749861   0.05287122   -3.2555621     1.480576   409103 
 3721000   0.92147257   -3.2593908   -1.7759175  0.052149021   -3.2593908    1.4834733   409089 
 3722000   0.92288515   -3.2602943   -1.7744016  0.056774205   -3.2602943    1.4858927   409049 
 3723000   0.92213685   -3.2577178   -1.7730153  0.053070689   -3.2577178    1.4847024   409045 
 3724000    0.9216145   -3.2570817   -1.7732203  0.054565367   -3.2570817    1.4838614   409045 
 3725000   0.92207417   -3.2578887   -1.7731964   0.05404089   -3.2578887    1.4846923   409020 
 3726000   0.92212828    -3.258697   -1.7737833  0.047824153    -3.258697    1.4849137   408983 
 3727000   0.92137782   -3.2566721   -1.7728036  0.048989354   -3.2566721    1.4838685   408938 
 3728000   0.92205865   -3.2584272    -1.773484  0.052375159   -3.2584272    1.4849432   408944 
 3729000   0.92229108    -3.257988   -1.7727104  0.054695943    -3.257988    1.4852776   408955 
 3730000   0.92385998   -3.2605021   -1.7726398  0.054411673   -3.2605021    1.4878624   408939 
 3731000   0.92222052   -3.2564781   -1.7712924  0.051757454   -3.2564781    1.4851857   408949 
 3732000   0.92124577   -3.2563892   -1.7726717  0.049689015   -3.2563892    1.4837175   408921 
 3733000   0.92238414   -3.2580732   -1.7723733  0.047386264   -3.2580732    1.4856999   408880 
 3734000   0.92243913   -3.2588037   -1.7727644  0.052901146   -3.2588037    1.4860392   408811 
 3735000   0.92153422   -3.2576836   -1.7730731  0.050997277   -3.2576836    1.4846105   408803 
 3736000   0.92079943   -3.2572671   -1.7737751  0.051014587   -3.2572671     1.483492   408785 
 3737000   0.92040636   -3.2569296    -1.773835  0.049447925   -3.2569296    1.4830946   408720 
 3738000   0.92091084   -3.2564296   -1.7723297  0.059462032   -3.2564296    1.4840999   408667 
 3739000   0.92044796   -3.2551156   -1.7714639  0.054834097   -3.2551156    1.4836517   408585 
 3740000   0.92122624   -3.2573194   -1.7721588  0.053837741   -3.2573194    1.4851606   408515 
 3741000   0.92156677    -3.258831   -1.7729068  0.056401702    -3.258831    1.4859242   408456 
 3742000   0.92237966   -3.2603316   -1.7731658  0.047798412   -3.2603316    1.4871657   408475 
 3743000    0.9199935   -3.2573656   -1.7740471  0.050897111   -3.2573656    1.4833185   408475 
 3744000   0.92152547   -3.2583934   -1.7725831  0.053038055   -3.2583934    1.4858103   408469 
 3745000   0.92118108     -3.25794    -1.772634  0.053587378     -3.25794     1.485306   408455 
 3746000   0.92062065   -3.2568561   -1.7724865   0.05324657   -3.2568561    1.4843696   408464 
 3747000   0.91929981   -3.2556199   -1.7732892  0.053335401   -3.2556199    1.4823307   408439 
 3748000   0.92021423   -3.2567464   -1.7728868  0.049993509   -3.2567464    1.4838596   408424 
 3749000   0.91971043   -3.2577475   -1.7746675  0.053120007   -3.2577475    1.4830799   408415 
 3750000   0.92054818   -3.2581823   -1.7736642  0.048444812   -3.2581823    1.4845181   408391 
 3751000   0.92052819   -3.2592376   -1.7746827  0.049575021   -3.2592376    1.4845549   408372 
 3752000   0.92064667   -3.2581519   -1.7734568  0.052657598   -3.2581519    1.4846951   408386 
 3753000   0.92076543   -3.2597863   -1.7746306  0.052873135   -3.2597863    1.4851557   408312 
 3754000   0.91988932   -3.2580003    -1.774036  0.057056852   -3.2580003    1.4839643   408251 
 3755000   0.91942969   -3.2568687   -1.7736059  0.052060505   -3.2568687    1.4832628   408240 
 3756000   0.92084474   -3.2600859    -1.774362   0.05263863   -3.2600859    1.4857239   408191 
 3757000   0.91792618   -3.2561781   -1.7750578  0.053807442   -3.2561781    1.4811203   408162 
 3758000   0.91997205   -3.2577289   -1.7732748  0.051131895   -3.2577289    1.4844541   408153 
 3759000   0.91783673   -3.2564974   -1.7754743  0.053649686   -3.2564974    1.4810231   408149 
 3760000   0.91893644   -3.2578324   -1.7749512  0.050174588   -3.2578324    1.4828811   408126 
 3761000    0.9184191   -3.2583039   -1.7762031  0.049628369   -3.2583039    1.4821008   408111 
 3762000   0.91855316   -3.2600441   -1.7774945  0.046641377   -3.2600441    1.4825496   408047 
 3763000   0.91933115   -3.2606871   -1.7767654  0.049415053   -3.2606871    1.4839217   408015 
 3764000   0.91829898   -3.2589947   -1.7766556  0.051024855   -3.2589947    1.4823392   407992 
 3765000   0.91984774   -3.2610676   -1.7760755  0.056442548   -3.2610676    1.4849921   407950 
 3766000   0.91904729   -3.2597437   -1.7760293  0.053674763   -3.2597437    1.4837144   407946 
 3767000    0.9195608   -3.2607816    -1.776271  0.048029488   -3.2607816    1.4845107   407955 
 3768000   0.91815602    -3.259185   -1.7768549  0.051346033    -3.259185      1.48233   407931 
 3769000   0.91688108    -3.256659   -1.7761841  0.054506155    -3.256659    1.4804749   407875 
 3770000   0.91865819   -3.2610161   -1.7774134  0.052999942   -3.2610161    1.4836027   407804 
 3771000   0.91839299   -3.2604595   -1.7772451  0.053843877   -3.2604595    1.4832144   407793 
 3772000   0.91776458    -3.259596   -1.7774111  0.047901745    -3.259596    1.4821849   407797 
 3773000   0.91901585   -3.2615944    -1.777254  0.052506688   -3.2615944    1.4843404   407760 
 3774000   0.91946896   -3.2633486   -1.7780723  0.053065655   -3.2633486    1.4852762   407704 
 3775000   0.91851243   -3.2618039   -1.7779199  0.051542556   -3.2618039     1.483884   407662 
 3776000   0.91953463   -3.2642345   -1.7787065  0.049411399   -3.2642345    1.4855281   407664 
 3777000   0.91701167   -3.2608325   -1.7794239  0.050240921   -3.2608325    1.4814086   407676 
 3778000   0.91893206   -3.2644756   -1.7797389  0.049527004   -3.2644756    1.4847367   407614 
 3779000   0.91799773    -3.263014   -1.7798124  0.050371619    -3.263014    1.4832016   407621 
 3780000   0.91703795   -3.2614184   -1.7798147  0.050878067   -3.2614184    1.4816037   407634 
 3781000   0.91740633   -3.2616399   -1.7792192  0.053477696   -3.2616399    1.4824207   407573 
 3782000   0.91674644   -3.2619194   -1.7804123  0.050349131   -3.2619194     1.481507   407531 
 3783000   0.91689275   -3.2615957   -1.7797686  0.054520662   -3.2615957    1.4818271   407508 
 3784000   0.91809082   -3.2636863   -1.7798246  0.049975259   -3.2636863    1.4838617   407481 
 3785000   0.91753157   -3.2630846   -1.7801304  0.055451271   -3.2630846    1.4829541   407482 
 3786000   0.91791889   -3.2637744   -1.7801505   0.05123091   -3.2637744    1.4836238   407470 
 3787000   0.91676368   -3.2624669   -1.7806738  0.054898424   -3.2624669     1.481793   407460 
 3788000   0.91874263   -3.2644457   -1.7795269  0.052223698   -3.2644457    1.4849188   407480 
 3789000   0.91696991   -3.2623761   -1.7800897  0.055818616   -3.2623761    1.4822864   407416 
 3790000   0.91776421   -3.2640482   -1.7802629  0.050332155   -3.2640482    1.4837853   407357 
 3791000   0.91775058   -3.2645667   -1.7807707  0.053123784   -3.2645667    1.4837961   407348 
 3792000   0.91608955   -3.2618903   -1.7806161  0.052472055   -3.2618903    1.4812742   407303 
 3793000   0.91697457   -3.2624355   -1.7797557  0.050501636   -3.2624355    1.4826797   407310 
 3794000   0.91825759   -3.2645775   -1.7796957   0.05092225   -3.2645775    1.4848819   407275 
 3795000   0.91711633   -3.2640893   -1.7810274  0.051694452   -3.2640893    1.4830619   407268 
 3796000   0.91716656   -3.2645926   -1.7813985  0.055672245   -3.2645926    1.4831941   407254 
 3797000   0.91804159   -3.2663978   -1.7815626  0.053865867   -3.2663978    1.4848352   407192 
 3798000   0.91814111   -3.2660277   -1.7809112  0.053884695   -3.2660277    1.4851165   407159 
 3799000   0.91731307   -3.2645789    -1.780667  0.050004644   -3.2645789     1.483912   407122 
 3800000    0.9156385   -3.2605136   -1.7792705  0.054442809   -3.2605136    1.4812431   407111 
 3801000   0.91710144   -3.2640638   -1.7803557  0.057094034   -3.2640638    1.4837081   407084 
 3802000   0.91713566    -3.264088    -1.780299  0.050110449    -3.264088     1.483789   407077 
 3803000   0.91656158   -3.2655141   -1.7825446  0.051769611   -3.2655141    1.4829695   407047 
 3804000   0.91755426   -3.2665828   -1.7818722  0.052088438   -3.2665828    1.4847106   407010 
 3805000    0.9167129   -3.2656531   -1.7822128  0.047034091   -3.2656531    1.4834403   406985 
 3806000   0.91645433     -3.26363   -1.7804842  0.053333753     -3.26363    1.4831458   406951 
 3807000   0.91658702    -3.264049   -1.7805937  0.050593195    -3.264049    1.4834553   406925 
 3808000   0.91704447   -3.2653979   -1.7810673  0.047514405   -3.2653979    1.4843306   406888 
 3809000   0.91642793   -3.2637836   -1.7803415  0.048761482   -3.2637836    1.4834421   406858 
 3810000   0.91625479   -3.2648996   -1.7817086  0.051859625   -3.2648996     1.483191   406850 
 3811000   0.91664338   -3.2658723   -1.7819028  0.052513827   -3.2658723    1.4839695   406809 
 3812000   0.91771364   -3.2673131   -1.7815927  0.052475419   -3.2673131    1.4857205   406804 
 3813000   0.91545401   -3.2647887   -1.7825515  0.048639345   -3.2647887    1.4822372   406756 
 3814000   0.91778664   -3.2666921   -1.7806161  0.052045153   -3.2666921    1.4860761   406739 
 3815000   0.91722609   -3.2665542   -1.7814332  0.053094351   -3.2665542     1.485121   406752 
 3816000    0.9166523   -3.2661433   -1.7818674  0.049985846   -3.2661433    1.4842759   406729 
 3817000   0.91540875   -3.2648592   -1.7823855    0.0567072   -3.2648592    1.4824737   406671 
 3818000   0.91760664   -3.2676119    -1.781535  0.055481031   -3.2676119    1.4860769   406659 
 3819000   0.91652431   -3.2661152   -1.7816779  0.051545295   -3.2661152    1.4844372   406628 
 3820000   0.91511715   -3.2655505   -1.7831044  0.049229455   -3.2655505    1.4824462   406549 
 3821000   0.91452667    -3.264146   -1.7825179  0.049931432    -3.264146    1.4816281   406511 
 3822000   0.91600602    -3.266238   -1.7821365  0.047923312    -3.266238    1.4841015   406490 
 3823000   0.91584689   -3.2659159   -1.7818752  0.053568112   -3.2659159    1.4840408   406436 
 3824000   0.91663715   -3.2666996   -1.7813892  0.054734459   -3.2666996    1.4853104   406439 
 3825000   0.91524841   -3.2658586    -1.782762  0.050164611   -3.2658586    1.4830966   406429 
 3826000   0.91637186   -3.2667072   -1.7819034  0.052289819   -3.2667072    1.4848038   406460 
 3827000   0.91484701   -3.2632033   -1.7807827   0.05801728   -3.2632033    1.4824206   406436 
 3828000   0.91760988   -3.2675412   -1.7805082  0.050944038   -3.2675412    1.4870329   406399 
 3829000   0.91742058    -3.267534   -1.7807567   0.05509089    -3.267534    1.4867774   406385 
 3830000   0.91539213   -3.2648017   -1.7810999  0.053815264   -3.2648017    1.4837018   406327 
 3831000   0.91617777   -3.2656444   -1.7806254  0.054959195   -3.2656444    1.4850191   406315 
 3832000   0.91567266   -3.2640227   -1.7797931  0.055382244   -3.2640227    1.4842296   406307 
 3833000   0.91430014   -3.2625286   -1.7804873   0.05042718   -3.2625286    1.4820413   406297 
 3834000   0.91465443   -3.2624078   -1.7798506  0.053990468   -3.2624078    1.4825572   406313 
 3835000   0.91617887   -3.2647201   -1.7794617  0.052283672   -3.2647201    1.4852584   406250 
 3836000   0.91658589   -3.2656494   -1.7795665  0.055245079   -3.2656494    1.4860829   406205 
 3837000   0.91502812   -3.2644346   -1.7808993  0.053632643   -3.2644346    1.4835353   406211 
 3838000   0.91672371   -3.2644476   -1.7780132  0.053495458   -3.2644476    1.4864344   406170 
 3839000   0.91585083   -3.2638191   -1.7787269   0.05253399   -3.2638191    1.4850922   406150 
 3840000   0.91335637   -3.2604241   -1.7793111  0.051379493   -3.2604241     1.481113   406132 
 3841000   0.91511664   -3.2645056   -1.7802238   0.05174001   -3.2645056    1.4842818   406046 
 3842000   0.91436921   -3.2627752   -1.7795779  0.056072717   -3.2627752    1.4831973   406011 
 3843000   0.91503687   -3.2650833   -1.7806238  0.050794847   -3.2650833    1.4844595   405962 
 3844000   0.91400732   -3.2631791    -1.780273  0.048187792   -3.2631791    1.4829061   405930 
 3845000   0.91262325   -3.2649205   -1.7840519  0.048192582   -3.2649205    1.4808685   405873 
 3846000   0.91241365   -3.2640386   -1.7835139  0.055233648   -3.2640386    1.4805248   405874 
 3847000   0.91294413   -3.2647628   -1.7835013  0.050926939   -3.2647628    1.4812614   405908 
 3848000   0.91173319   -3.2619835   -1.7826358  0.053305357   -3.2619835    1.4793477   405894 
 3849000   0.91241125   -3.2642364   -1.7837593  0.047560437   -3.2642364    1.4804771   405886 
 3850000   0.91246505   -3.2637633   -1.7831916  0.051743751   -3.2637633    1.4805717   405884 
 3851000   0.91434307   -3.2660388   -1.7823066  0.051494886   -3.2660388    1.4837323   405853 
 3852000   0.91366134   -3.2647131   -1.7820359  0.055805568   -3.2647131    1.4826772   405839 
 3853000   0.91516529   -3.2674303   -1.7823418  0.055825911   -3.2674303    1.4850885   405847 
 3854000   0.91450539   -3.2675984   -1.7833211  0.053873189   -3.2675984    1.4842773   405776 
 3855000   0.91424149   -3.2671357    -1.783338  0.052706236   -3.2671357    1.4837978   405790 
 3856000   0.91568565   -3.2692836   -1.7830724   0.06148112   -3.2692836    1.4862112   405771 
 3857000   0.91457908   -3.2682745   -1.7840239  0.055443163   -3.2682745    1.4842506   405816 
 3858000   0.91391242   -3.2683562    -1.785246  0.052366105   -3.2683562    1.4831102   405832 
 3859000   0.91330894   -3.2678103   -1.7856319   0.05420101   -3.2678103    1.4821783   405819 
 3860000   0.91353185   -3.2676718   -1.7850221  0.053642115   -3.2676718    1.4826497   405789 
 3861000   0.91264502   -3.2667134   -1.7854081  0.056762116   -3.2667134    1.4813053   405763 
 3862000   0.91309419   -3.2683062   -1.7862316  0.054596405   -3.2683062    1.4820745   405752 
 3863000   0.91460302   -3.2704681   -1.7859299  0.050661202   -3.2704681    1.4845382   405748 
 3864000    0.9132205   -3.2688567   -1.7865261  0.050138714   -3.2688567    1.4823307   405738 
 3865000    0.9143498   -3.2702445    -1.785982  0.055150433   -3.2702445    1.4842625   405711 
 3866000   0.91336842   -3.2674562   -1.7847575  0.055438766   -3.2674562    1.4826987   405703 
 3867000   0.91399123   -3.2674004   -1.7836906  0.057356356   -3.2674004    1.4837097   405703 
 3868000   0.91532439   -3.2693713   -1.7834132  0.055976939   -3.2693713    1.4859581   405680 
 3869000   0.91389055   -3.2680935   -1.7843058  0.056119472   -3.2680935    1.4837877   405637 
 3870000   0.91380456   -3.2671241   -1.7834138  0.053417302   -3.2671241    1.4837102   405620 
 3871000    0.9148358   -3.2709916   -1.7854019  0.052948508   -3.2709916    1.4855897   405564 
 3872000   0.91430445   -3.2698205   -1.7849069  0.053898052   -3.2698205    1.4849136   405513 
 3873000   0.91288681   -3.2681376   -1.7854533  0.050209516   -3.2681376    1.4826843   405493 
 3874000   0.91444927   -3.2681763    -1.782925  0.050482886   -3.2681763    1.4852513   405485 
 3875000    0.9127304   -3.2649442   -1.7825906  0.052311254   -3.2649442    1.4823535   405514 
 3876000   0.91101291   -3.2639674   -1.7842791  0.052364359   -3.2639674    1.4796882   405480 
 3877000    0.9121648   -3.2654032   -1.7838513  0.052245463   -3.2654032    1.4815519   405482 
 3878000   0.91317938   -3.2676086   -1.7843101  0.049057561   -3.2676086    1.4832985   405455 
 3879000   0.91262724   -3.2653291   -1.7828324  0.050274127   -3.2653291    1.4824967   405429 
 3880000   0.91252044   -3.2658993   -1.7834919   0.05644222   -3.2658993    1.4824073   405406 
 3881000   0.91179679   -3.2645374   -1.7832252  0.054023826   -3.2645374    1.4813122   405384 
 3882000   0.91260351   -3.2656232   -1.7830041  0.053075108   -3.2656232    1.4826191   405385 
 3883000   0.91246214    -3.263974   -1.7816504  0.057769708    -3.263974    1.4823236   405403 
 3884000    0.9130224   -3.2650263   -1.7817413  0.053874522   -3.2650263     1.483285   405389 
 3885000   0.91095752   -3.2622359   -1.7821959  0.052776495   -3.2622359      1.48004   405359 
 3886000   0.91185191   -3.2642157    -1.782697  0.051266111   -3.2642157    1.4815187   405352 
 3887000   0.91245087   -3.2646797   -1.7821367  0.049943876   -3.2646797     1.482543   405338 
 3888000    0.9120634   -3.2622831   -1.7803112  0.055063259   -3.2622831     1.481972   405322 
 3889000   0.91282571   -3.2654451   -1.7820698  0.048330054   -3.2654451    1.4833753   405277 
 3890000   0.91372235   -3.2670342   -1.7820993  0.050333269   -3.2670342    1.4849349   405249 
 3891000   0.91301846   -3.2673211   -1.7834202  0.050034381   -3.2673211    1.4839009   405219 
 3892000   0.91164003   -3.2656831   -1.7839165  0.050765087   -3.2656831    1.4817666   405190 
 3893000   0.91403626   -3.2677483   -1.7820575  0.052957482   -3.2677483    1.4856907   405182 
 3894000   0.91275639   -3.2674032   -1.7837122  0.049246012   -3.2674032     1.483691   405160 
 3895000   0.91070865   -3.2655706   -1.7851133  0.047171561   -3.2655706    1.4804573   405134 
 3896000   0.90931754   -3.2643918   -1.7860827  0.051093202   -3.2643918    1.4783091   405103 
 3897000   0.91176787   -3.2682756   -1.7859061  0.045702233   -3.2682756    1.4823695   405082 
 3898000   0.91042498   -3.2663323   -1.7861388  0.049126397   -3.2663323    1.4801935   405080 
 3899000   0.90869996   -3.2645458   -1.7870693  0.046678464   -3.2645458    1.4774765   405056 
 3900000   0.90995505    -3.266172   -1.7865379  0.048141696    -3.266172     1.479634   405024 
 3901000   0.91074995   -3.2669894   -1.7860482  0.050443305   -3.2669894    1.4809412   405020 
 3902000   0.91070716   -3.2675424   -1.7866013  0.049298517   -3.2675424    1.4809411   405001 
 3903000   0.91104719    -3.267581   -1.7859772   0.04685895    -3.267581    1.4816038   404971 
 3904000    0.9097286   -3.2662548   -1.7866456  0.048667201   -3.2662548    1.4796092   404930 
 3905000   0.91033035   -3.2690518   -1.7883724  0.050111986   -3.2690518    1.4806793   404905 
 3906000   0.91057756   -3.2682821   -1.7871129  0.055474128   -3.2682821    1.4811692   404881 
 3907000   0.91180007   -3.2695054   -1.7862634   0.05159486   -3.2695054     1.483242   404858 
 3908000   0.91039538   -3.2694795   -1.7884383  0.052549865   -3.2694795    1.4810412   404835 
 3909000    0.9108461    -3.270278    -1.788467   0.05511013    -3.270278     1.481811   404825 
 3910000   0.91100083   -3.2687777   -1.7867333  0.059070986   -3.2687777    1.4820444   404830 
 3911000   0.91135404   -3.2690546   -1.7862341  0.051541369   -3.2690546    1.4828205   404775 
 3912000   0.91207881   -3.2702359   -1.7861299  0.054294598   -3.2702359     1.484106   404746 
 3913000   0.91240884   -3.2710759   -1.7863375  0.061273119   -3.2710759    1.4847384   404720 
 3914000   0.91138188   -3.2693918   -1.7862329  0.055194842   -3.2693918    1.4831589   404695 
 3915000   0.91275888   -3.2731051   -1.7875879  0.057942116   -3.2731051    1.4855173   404663 
 3916000   0.91275893   -3.2736729   -1.7880307  0.058217778   -3.2736729    1.4856422   404629 
 3917000   0.91259688    -3.273431   -1.7878617  0.055354323    -3.273431    1.4855693   404577 
 3918000    0.9122132   -3.2723178   -1.7874465  0.054050447   -3.2723178    1.4848713   404597 
 3919000   0.91157657   -3.2730136   -1.7891456  0.060400322   -3.2730136    1.4838681   404588 
 3920000   0.91077865   -3.2701335   -1.7875899  0.056843172   -3.2701335    1.4825436   404595 
 3921000   0.91060055   -3.2703209   -1.7880929  0.050529183   -3.2703209     1.482228   404602 
 3922000   0.91043011   -3.2694317   -1.7874665  0.053879368   -3.2694317    1.4819652   404598 
 3923000   0.91151711   -3.2719096   -1.7879843  0.050975683   -3.2719096    1.4839253   404546 
 3924000   0.91048539   -3.2710982   -1.7887243  0.051423253   -3.2710982     1.482374   404511 
 3925000   0.91082569   -3.2707295   -1.7876805  0.054478897   -3.2707295     1.483049   404478 
 3926000   0.91122133   -3.2704249   -1.7867574  0.054748755   -3.2704249    1.4836675   404485 
 3927000   0.90984516   -3.2687448   -1.7872118  0.055193549   -3.2687448     1.481533   404456 
 3928000   0.91077432   -3.2699892   -1.7870605  0.047356079   -3.2699892    1.4829287   404488 
 3929000    0.9123147   -3.2708171   -1.7851489  0.052109465   -3.2708171    1.4856681   404425 
 3930000    0.9108399   -3.2693115   -1.7859129  0.050587423   -3.2693115    1.4833985   404389 
 3931000   0.91087085   -3.2690181    -1.785404  0.052423479   -3.2690181     1.483614   404344 
 3932000   0.91027512    -3.268161   -1.7854843  0.052668461    -3.268161    1.4826767   404335 
 3933000   0.90880959   -3.2669157   -1.7864247  0.053574255   -3.2669157     1.480491   404280 
 3934000   0.91041391   -3.2691143   -1.7859071  0.051023467   -3.2691143    1.4832073   404252 
 3935000   0.90832794   -3.2656028   -1.7858195  0.046497257   -3.2656028    1.4797833   404259 
 3936000   0.90861382   -3.2667906   -1.7864391  0.048635348   -3.2667906    1.4803515   404231 
 3937000   0.90921151   -3.2674517   -1.7859431  0.054057157   -3.2674517    1.4815086   404181 
 3938000   0.91033807   -3.2684748   -1.7851599  0.052760287   -3.2684748    1.4833149   404189 
 3939000   0.91059377   -3.2692015   -1.7854516  0.047167132   -3.2692015    1.4837499   404184 
 3940000   0.90950664   -3.2644383   -1.7823462  0.056399664   -3.2644383    1.4820921   404153 
 3941000   0.91074028   -3.2673611   -1.7832257  0.049126478   -3.2673611    1.4841355   404144 
 3942000   0.91038563   -3.2669478    -1.783416  0.058275668   -3.2669478    1.4835318   404151 
 3943000   0.91121663   -3.2691643   -1.7840652  0.052752318   -3.2691643    1.4850991   404093 
 3944000   0.91032327   -3.2676415   -1.7838956  0.055362791   -3.2676415    1.4837459   404065 
 3945000   0.90937636   -3.2671804   -1.7848751  0.050602299   -3.2671804    1.4823053   404037 
 3946000   0.91049522   -3.2685811   -1.7844594  0.057127523   -3.2685811    1.4841217   404039 
 3947000   0.90967462   -3.2682953   -1.7854195  0.055173348   -3.2682953    1.4828759   404014 
 3948000   0.90992233    -3.267531   -1.7843137  0.054218902    -3.267531    1.4832172   404031 
 3949000   0.91020854   -3.2684648   -1.7847002  0.050944681   -3.2684648    1.4837646   404009 
 3950000   0.91031191   -3.2696557   -1.7855573  0.052869269   -3.2696557    1.4840984   403964 
 3951000    0.9084438   -3.2669625    -1.785719  0.054947409   -3.2669625    1.4812434   403912 
 3952000   0.90882699   -3.2685183   -1.7866391  0.051882412   -3.2685183    1.4818792   403909 
 3953000   0.90852619    -3.268559   -1.7870162  0.044525956    -3.268559    1.4815428   403867 
 3954000   0.90685278   -3.2654146    -1.786564  0.051157217   -3.2654146    1.4788506   403857 
 3955000    0.9079485   -3.2675409   -1.7868155  0.046160778   -3.2675409    1.4807254   403833 
 3956000   0.90651097   -3.2658132    -1.787282  0.053828489   -3.2658132    1.4785312   403792 
 3957000    0.9078214   -3.2682453   -1.7874852  0.051758068   -3.2682453    1.4807602   403767 
 3958000   0.90749055   -3.2680494   -1.7878216  0.052554238   -3.2680494    1.4802279   403765 
 3959000   0.90789185   -3.2683988   -1.7873183  0.053742731   -3.2683988    1.4810805   403711 
 3960000   0.90616801   -3.2672213   -1.7887626  0.050583232   -3.2672213    1.4784588   403659 
 3961000   0.90876318   -3.2705156   -1.7877823  0.047970836   -3.2705156    1.4827333   403648 
 3962000   0.90862571   -3.2699613   -1.7873714  0.053463012   -3.2699613    1.4825898   403626 
 3963000    0.9082353   -3.2686867   -1.7865797  0.054682822   -3.2686867     1.482107   403584 
 3964000   0.90653575   -3.2668404   -1.7874995  0.051141414   -3.2668404     1.479341   403582 
 3965000   0.90883728   -3.2699567   -1.7868306  0.049911263   -3.2699567    1.4831261   403574 
 3966000    0.9071175    -3.268397   -1.7881213  0.052685012    -3.268397    1.4802756   403586 
 3967000   0.90739446   -3.2684403   -1.7875292  0.053959476   -3.2684403     1.480911   403536 
 3968000   0.90985397   -3.2722407   -1.7873818  0.054699474   -3.2722407    1.4848588   403554 
 3969000   0.90819072   -3.2701318   -1.7878478  0.049080932   -3.2701318     1.482284   403516 
 3970000   0.90816688   -3.2705145   -1.7882069  0.052324451   -3.2705145    1.4823076   403499 
 3971000   0.90819825   -3.2700372   -1.7875424  0.053086554   -3.2700372    1.4824947   403462 
 3972000   0.90979793    -3.271852   -1.7866871  0.050043981    -3.271852    1.4851649   403446 
 3973000    0.9094603   -3.2717029   -1.7870671  0.060454099   -3.2717029    1.4846358   403440 
 3974000   0.90814341   -3.2710694   -1.7885172  0.057323043   -3.2710694    1.4825522   403422 
 3975000   0.90704455   -3.2712315    -1.790341  0.055012107   -3.2712315    1.4808904   403386 
 3976000   0.90854742   -3.2739587   -1.7904822  0.050492886   -3.2739587    1.4834765   403350 
 3977000   0.90745528   -3.2702428   -1.7885826  0.052235259   -3.2702428    1.4816602   403359 
 3978000   0.90796169   -3.2725751   -1.7901211  0.047727913   -3.2725751     1.482454   403368 
 3979000   0.90567304   -3.2684379   -1.7896144  0.054035402   -3.2684379    1.4788235   403339 
 3980000   0.90786315   -3.2729054   -1.7904801  0.049719991   -3.2729054    1.4824254   403332 
 3981000   0.90770425   -3.2732252   -1.7908093  0.054214339   -3.2732252    1.4824158   403264 
 3982000   0.90775064   -3.2740828   -1.7913743  0.051752852   -3.2740828    1.4827085   403205 
 3983000   0.90679235   -3.2737292   -1.7925381  0.050409097   -3.2737292     1.481191   403192 
 3984000   0.90622777    -3.273707   -1.7932729   0.05381333    -3.273707    1.4804341   403147 
 3985000   0.90733744   -3.2757126    -1.793418  0.056078512   -3.2757126    1.4822946   403134 
 3986000   0.90658676   -3.2760757   -1.7949303  0.056535162   -3.2760757    1.4811454   403113 
 3987000   0.90572972    -3.274908   -1.7951407  0.053839981    -3.274908    1.4797672   403107 
 3988000   0.90583799   -3.2745072   -1.7946365  0.054191549   -3.2745072    1.4798707   403127 
 3989000   0.90630437   -3.2757575   -1.7949742  0.053711863   -3.2757575    1.4807832   403086 
 3990000    0.9053463   -3.2737044   -1.7945122  0.052719334   -3.2737044    1.4791922   403093 
 3991000   0.90493144   -3.2725189   -1.7940888  0.051397897   -3.2725189      1.47843   403116 
 3992000   0.90682174   -3.2747431   -1.7931035  0.052626554   -3.2747431    1.4816396   403083 
 3993000   0.90766768   -3.2741657   -1.7912837  0.056240009   -3.2741657     1.482882   403121 
 3994000   0.90763319   -3.2754645   -1.7925911  0.050397845   -3.2754645    1.4828734   403108 
 3995000   0.90737018   -3.2762717   -1.7936588  0.056439111   -3.2762717    1.4826129   403062 
 3996000   0.90655426   -3.2749604   -1.7937835  0.049758282   -3.2749604    1.4811768   403090 
 3997000   0.90620503   -3.2734752   -1.7928542  0.048894244   -3.2734752    1.4806209   403086 
 3998000   0.90848972   -3.2745483   -1.7902607  0.056144042   -3.2745483    1.4842875   403104 
 3999000   0.90707569   -3.2720456   -1.7900904  0.061667492   -3.2720456    1.4819552   403110 
 4000000   0.90512331   -3.2714781   -1.7926576  0.054591664   -3.2714781    1.4788205   403095 
 4001000   0.90625874   -3.2711735   -1.7903987  0.053837904   -3.2711735    1.4807748   403068 
 4002000   0.90531006    -3.271473   -1.7921088  0.053389181    -3.271473    1.4793642   403030 
 4003000    0.9054939   -3.2710924   -1.7912258  0.048095338   -3.2710924    1.4798666   402975 
 4004000   0.90548791   -3.2690796   -1.7892742  0.052539439   -3.2690796    1.4798054   402989 
 4005000   0.90525776   -3.2698795   -1.7903475  0.050316269   -3.2698795     1.479532   402961 
 4006000   0.90417662   -3.2678626   -1.7900719  0.048531212   -3.2678626    1.4777907   402954 
 4007000   0.90396985   -3.2679314   -1.7902697  0.047666724   -3.2679314    1.4776618   402897 
 4008000    0.9047924   -3.2680186   -1.7888801  0.049916163   -3.2680186    1.4791385   402861 
 4009000   0.90632451   -3.2703945   -1.7888322  0.048628682   -3.2703945    1.4815623   402883 
 4010000   0.90449722    -3.267538   -1.7889187  0.052460956    -3.267538    1.4786193   402871 
 4011000   0.90467693   -3.2677172   -1.7887307  0.047662273   -3.2677172    1.4789865   402851 
 4012000   0.90411551   -3.2670655   -1.7888574  0.050002458   -3.2670655    1.4782081   402813 
 4013000   0.90472418   -3.2675059   -1.7882953  0.043642258   -3.2675059    1.4792106   402811 
 4014000   0.90523231   -3.2687131   -1.7885872  0.047134768   -3.2687131    1.4801259   402788 
 4015000   0.90477493   -3.2671772   -1.7877771   0.04873287   -3.2671772    1.4794001   402782 
 4016000    0.9052495   -3.2686326   -1.7884125  0.051336929   -3.2686326    1.4802202   402770 
 4017000    0.9063804   -3.2693273   -1.7874051  0.047725806   -3.2693273    1.4819222   402810 
 4018000   0.90536354   -3.2672389   -1.7869646   0.05401644   -3.2672389    1.4802743   402806 
 4019000   0.90579963   -3.2675327   -1.7864866  0.051995129   -3.2675327    1.4810462   402790 
 4020000   0.90624845   -3.2666876   -1.7849444  0.055864005   -3.2666876    1.4817432   402800 
 4021000   0.90748132   -3.2670201   -1.7831691   0.05823844   -3.2670201    1.4838511   402775 
 4022000   0.91002768   -3.2712221   -1.7830078  0.056801025   -3.2712221    1.4882142   402721 
 4023000   0.90787357   -3.2685281   -1.7837186  0.055327662   -3.2685281    1.4848095   402689 
 4024000   0.90640321   -3.2681828   -1.7856676  0.053061113   -3.2681828    1.4825152   402659 
 4025000   0.90850065   -3.2705289   -1.7846163  0.052978329   -3.2705289    1.4859126   402668 
 4026000   0.90674439   -3.2692864    -1.786169  0.055360044   -3.2692864    1.4831174   402647 
 4027000   0.90630243   -3.2709804   -1.7884497  0.050305595   -3.2709804    1.4825308   402610 
 4028000   0.90662656   -3.2698623   -1.7867497  0.051860277   -3.2698623    1.4831126   402596 
 4029000   0.90414656    -3.267556    -1.788335   0.05298951    -3.267556     1.479221   402551 
 4030000   0.90397421     -3.26805   -1.7889236  0.055273616     -3.26805    1.4791264   402500 
 4031000   0.90413548   -3.2680439   -1.7885471  0.051743776   -3.2680439    1.4794969   402471 
 4032000   0.90433643   -3.2685636   -1.7887967  0.053808337   -3.2685636    1.4797669   402487 
 4033000   0.90443412   -3.2684428   -1.7885566  0.050015255   -3.2684428    1.4798863   402498 
 4034000   0.90496844   -3.2697409   -1.7888185  0.047878422   -3.2697409    1.4809224   402454 
 4035000   0.90426089    -3.268986   -1.7890118  0.056205894    -3.268986    1.4799742   402397 
 4036000   0.90608317   -3.2709906   -1.7880671  0.050786531   -3.2709906    1.4829235   402406 
 4037000   0.90504362   -3.2701521     -1.78886  0.055734461   -3.2701521    1.4812921   402387 
 4038000   0.90493004   -3.2701994   -1.7890638  0.056552723   -3.2701994    1.4811356   402379 
 4039000   0.90513408   -3.2703147   -1.7886905  0.047957825   -3.2703147    1.4816242   402337 
 4040000   0.90377321   -3.2686102   -1.7890628  0.052050167   -3.2686102    1.4795474   402296 
 4041000   0.90367738   -3.2671518   -1.7877907  0.054663385   -3.2671518    1.4793611   402304 
 4042000   0.90520143   -3.2693461   -1.7873649  0.054478083   -3.2693461    1.4819813   402270 
 4043000   0.90435652   -3.2700837   -1.7894195  0.052411653   -3.2700837    1.4806643   402252 
 4044000   0.90535371   -3.2712235   -1.7888786  0.052384024   -3.2712235    1.4823448   402239 
 4045000   0.90533495   -3.2717722   -1.7894323  0.050977634   -3.2717722    1.4823399   402232 
 4046000   0.90577481   -3.2724329   -1.7890372  0.058000247   -3.2724329    1.4833957   402141 
 4047000   0.90316301   -3.2690597   -1.7898163   0.05560526   -3.2690597    1.4792434   402107 
 4048000   0.90382712   -3.2704578   -1.7901488  0.057244266   -3.2704578     1.480309   402113 
 4049000   0.90408384   -3.2711754   -1.7902507  0.053385961   -3.2711754    1.4809247   402060 
 4050000   0.90303514   -3.2713015   -1.7919621  0.054586165   -3.2713015    1.4793393   402024 
 4051000   0.90304085   -3.2710528   -1.7916231  0.052782879   -3.2710528    1.4794296   402002 
 4052000    0.9029247   -3.2708415   -1.7916941  0.047552376   -3.2708415    1.4791474   402027 
 4053000   0.90229444   -3.2707178   -1.7924412  0.053484063   -3.2707178    1.4782767   401983 
 4054000   0.90242722   -3.2707051    -1.792152   0.04976542   -3.2707051    1.4785531   401967 
 4055000   0.90254731   -3.2708623   -1.7921419  0.046847521   -3.2708623    1.4787204   401975 
 4056000    0.9033763   -3.2712018   -1.7911674  0.049552812   -3.2712018    1.4800344   401987 
 4057000   0.90290173    -3.270072   -1.7905906  0.055549271    -3.270072    1.4794814   401926 
 4058000   0.90371338   -3.2709155   -1.7902404  0.059246175   -3.2709155    1.4806751   401963 
 4059000   0.90322576   -3.2711333   -1.7911688  0.052843722   -3.2711333    1.4799645   401939 
 4060000   0.90353195     -3.27118   -1.7908501  0.054174688     -3.27118    1.4803299   401976 
 4061000   0.90419831   -3.2722092   -1.7907617   0.05350227   -3.2722092    1.4814475   401969 
 4062000   0.90420194   -3.2731773   -1.7917423  0.050551852   -3.2731773     1.481435   401974 
 4063000   0.90443387    -3.273509   -1.7916903  0.049944597    -3.273509    1.4818187   401973 
 4064000   0.90301193   -3.2709882   -1.7914219   0.05284233   -3.2709882    1.4795663   401952 
 4065000   0.90373891   -3.2716559   -1.7908948  0.053326502   -3.2716559    1.4807611   401951 
 4066000   0.90496326   -3.2730968    -1.790337  0.051317315   -3.2730968    1.4827598   401953 
 4067000   0.90408602   -3.2731266   -1.7918041  0.050322791   -3.2731266    1.4813225   401953 
 4068000   0.90280657   -3.2720646   -1.7929305  0.052079871   -3.2720646    1.4791341   401978 
 4069000   0.90302008   -3.2721919   -1.7927448  0.054095716   -3.2721919    1.4794471   401988 
 4070000   0.90301886   -3.2728768    -1.793439  0.051459784   -3.2728768    1.4794378   401990 
 4071000   0.90326107   -3.2730343   -1.7930746  0.051562347   -3.2730343    1.4799598   401956 
 4072000   0.90323785   -3.2735478   -1.7934862  0.052206127   -3.2735478    1.4800616   401918 
 4073000   0.90379696   -3.2740391   -1.7928955  0.052468189   -3.2740391    1.4811436   401873 
 4074000   0.90264368   -3.2715834   -1.7922267  0.053276736   -3.2715834    1.4793567   401845 
 4075000   0.90373151   -3.2744083   -1.7931692  0.048821699   -3.2744083    1.4812391   401818 
 4076000   0.90264002   -3.2711557   -1.7917903   0.05404366   -3.2711557    1.4793654   401841 
 4077000   0.90298567     -3.27288   -1.7927529  0.050863385     -3.27288    1.4801272   401788 
 4078000   0.90256376    -3.271512   -1.7921169   0.05155437    -3.271512    1.4793951   401799 
 4079000   0.90402015   -3.2732085   -1.7912898  0.054587893   -3.2732085    1.4819187   401762 
 4080000   0.90425855   -3.2728755   -1.7905439  0.053637593   -3.2728755    1.4823317   401756 
 4081000   0.90300659   -3.2722879   -1.7918464  0.052281266   -3.2722879    1.4804415   401712 
 4082000   0.90305575   -3.2731845   -1.7923934  0.049679415   -3.2731845    1.4807912   401639 
 4083000   0.90283301   -3.2716329   -1.7911369  0.056515628   -3.2716329     1.480496   401620 
 4084000   0.90254342   -3.2720337   -1.7918173  0.052759214   -3.2720337    1.4802164   401567 
 4085000   0.90244204   -3.2724326    -1.792176  0.053725257   -3.2724326    1.4802566   401511 
 4086000   0.90170923   -3.2710037   -1.7918533  0.050405185   -3.2710037    1.4791504   401485 
 4087000   0.90183517   -3.2710384   -1.7915709  0.054128486   -3.2710384    1.4794675   401455 
 4088000   0.90253672   -3.2726807   -1.7919443  0.048664978   -3.2726807    1.4807364   401423 
 4089000   0.90156341     -3.27201   -1.7928189  0.049459437     -3.27201    1.4791912   401409 
 4090000   0.90214358   -3.2723109   -1.7920609  0.053422206   -3.2723109      1.48025   401380 
 4091000   0.90184371   -3.2728703   -1.7929059   0.04502711   -3.2728703    1.4799644   401324 
 4092000   0.90041557    -3.269765   -1.7921442  0.057600909    -3.269765    1.4776208   401324 
 4093000   0.90104305   -3.2707025   -1.7921882  0.049874351   -3.2707025    1.4785142   401361 
 4094000   0.90047884   -3.2681915   -1.7905663   0.05050695   -3.2681915    1.4776252   401351 
 4095000   0.90184774   -3.2699611   -1.7901486  0.050165257   -3.2699611    1.4798125   401367 
 4096000    0.9022438   -3.2718364   -1.7913113  0.051428875   -3.2718364    1.4805251   401350 
 4097000   0.90173433   -3.2720233   -1.7921978  0.046836081   -3.2720233    1.4798255   401313 
 4098000   0.90014286   -3.2705937   -1.7933615  0.051869323   -3.2705937    1.4772322   401308 
 4099000   0.90079144   -3.2709071   -1.7927174  0.053045686   -3.2709071    1.4781897   401337 
 4100000   0.90030656   -3.2701806   -1.7927424  0.047421543   -3.2701806    1.4774382   401325 
 4101000   0.90026741   -3.2703623   -1.7929147  0.052662051   -3.2703623    1.4774476   401305 
 4102000   0.89999247   -3.2693915   -1.7924172  0.052445041   -3.2693915    1.4769743   401311 
 4103000   0.90112127   -3.2710068   -1.7921542   0.05042477   -3.2710068    1.4788526   401304 
 4104000   0.90051533   -3.2709483   -1.7930496  0.051028423   -3.2709483    1.4778987   401293 
 4105000   0.90135874    -3.272319   -1.7930988  0.051843144    -3.272319    1.4792202   401310 
 4106000   0.90134608   -3.2714396   -1.7920927   0.04609826   -3.2714396    1.4793469   401270 
 4107000   0.90118065   -3.2723009    -1.793126  0.054014785   -3.2723009    1.4791749   401243 
 4108000    0.9013783   -3.2724905   -1.7927737  0.051245779   -3.2724905    1.4797169   401184 
 4109000   0.90191512   -3.2739368   -1.7933092  0.051034825   -3.2739368    1.4806277   401176 
 4110000    0.9008228   -3.2719398   -1.7929468  0.051492312   -3.2719398     1.478993   401133 
 4111000   0.90216472   -3.2741364   -1.7927999  0.051706116   -3.2741364    1.4813365   401095 
 4112000   0.90002715   -3.2724705   -1.7944964  0.049844227   -3.2724705     1.477974   401055 
 4113000   0.90016755   -3.2730781   -1.7948588  0.051969754   -3.2730781    1.4782193   401051 
 4114000   0.90012007   -3.2738174   -1.7955839  0.051097905   -3.2738174    1.4782335   401026 
 4115000   0.90072379   -3.2748298   -1.7955163  0.047689109   -3.2748298    1.4793135   401002 
 4116000   0.90112007   -3.2749618   -1.7948719  0.053241445   -3.2749618    1.4800899   400968 
 4117000   0.90263987   -3.2776916   -1.7948836  0.048233454   -3.2776916     1.482808   400908 
 4118000   0.90292374   -3.2772754   -1.7939418  0.052310155   -3.2772754    1.4833335   400892 
 4119000   0.90083093   -3.2757761   -1.7959398  0.052382976   -3.2757761    1.4798364   400908 
 4120000   0.90111967    -3.275778   -1.7953824  0.050630798    -3.275778    1.4803956   400885 
 4121000    0.9003443    -3.274052   -1.7946829  0.051431668    -3.274052    1.4793691   400818 
 4122000   0.90042616    -3.275304   -1.7958004  0.058179999    -3.275304    1.4795036   400818 
 4123000   0.90136298   -3.2757623   -1.7946196   0.05146535   -3.2757623    1.4811427   400791 
 4124000    0.9008046   -3.2749708   -1.7947051  0.052718621   -3.2749708    1.4802657   400780 
 4125000   0.90103128   -3.2757327    -1.795039  0.054156159   -3.2757327    1.4806937   400765 
 4126000   0.90113054   -3.2752264   -1.7943401  0.052281779   -3.2752264    1.4808863   400757 
 4127000   0.90221466   -3.2754723   -1.7927785  0.057256336   -3.2754723    1.4826938   400750 
 4128000   0.90179427   -3.2758097   -1.7937475  0.054863206   -3.2758097    1.4820621   400734 
 4129000    0.9012945   -3.2741731   -1.7930136  0.057592102   -3.2741731    1.4811595   400756 
 4130000   0.90102426    -3.273368   -1.7925011  0.054646733    -3.273368    1.4808669   400715 
 4131000   0.89990206   -3.2718215   -1.7926772  0.052773849   -3.2718215    1.4791443   400682 
 4132000   0.90100163   -3.2720091    -1.790917  0.051123501   -3.2720091    1.4810921   400644 
 4133000   0.90022682   -3.2722634   -1.7923858   0.05050355   -3.2722634    1.4798775   400628 
 4134000   0.89784741   -3.2687057   -1.7926955  0.045713929   -3.2687057    1.4760103   400616 
 4135000   0.89739691   -3.2672781   -1.7918906  0.048920991   -3.2672781    1.4753875   400584 
 4136000   0.89748382   -3.2675254   -1.7918477  0.051781192   -3.2675254    1.4756777   400544 
 4137000   0.89777355   -3.2681397   -1.7918935  0.043546789   -3.2681397    1.4762463   400519 
 4138000   0.89784999   -3.2688319   -1.7923125   0.04748685   -3.2688319    1.4765194   400479 
 4139000   0.90061643   -3.2735346   -1.7922401  0.043549029   -3.2735346    1.4812945   400418 
 4140000   0.89848718   -3.2708669    -1.792949  0.052319097   -3.2708669    1.4779179   400384 
 4141000   0.89926313   -3.2716807   -1.7924717  0.051879399   -3.2716807     1.479209   400380 
 4142000   0.89993203   -3.2716451   -1.7915317  0.050645841   -3.2716451    1.4801134   400433 
 4143000   0.89973786   -3.2711246   -1.7910644  0.052416112   -3.2711246    1.4800601   400361 
 4144000   0.89922668   -3.2720691   -1.7928166  0.047459988   -3.2720691    1.4792525   400352 
 4145000   0.89779345   -3.2688508   -1.7920261  0.052125517   -3.2688508    1.4768247   400371 
 4146000   0.89917038   -3.2713321   -1.7921205  0.046912268   -3.2713321    1.4792116   400338 
 4147000   0.90039957   -3.2728804   -1.7917761  0.049652939   -3.2728804    1.4811043   400373 
 4148000   0.89947003    -3.271992   -1.7924463  0.054833273    -3.271992    1.4795456   400381 
 4149000    0.8990543   -3.2730879   -1.7941337  0.051637902   -3.2730879    1.4789542   400356 
 4150000   0.90086737   -3.2774455   -1.7953904  0.050690472   -3.2774455    1.4820551   400324 
 4151000   0.90047978   -3.2770914   -1.7955184  0.055999979   -3.2770914    1.4815729   400282 
 4152000   0.89800941   -3.2745602   -1.7968524  0.054292508   -3.2745602    1.4777078   400228 
 4153000   0.89962049   -3.2765204    -1.796169  0.049877773   -3.2765204    1.4803514   400230 
 4154000   0.89984171   -3.2766376   -1.7958962  0.055161268   -3.2766376    1.4807414   400223 
 4155000   0.89955543   -3.2752812   -1.7950183  0.052097223   -3.2752812    1.4802629   400225 
 4156000   0.89945426     -3.27651   -1.7962953  0.056430473     -3.27651    1.4802148   400193 
 4157000   0.89991732   -3.2794105   -1.7982486  0.056297431   -3.2794105    1.4811619   400143 
 4158000    0.8989824   -3.2783815    -1.798703  0.057638256   -3.2783815    1.4796785   400128 
 4159000     0.899076   -3.2816159   -1.8016168  0.052952422   -3.2816159    1.4799991   400083 
 4160000   0.89778914   -3.2804584   -1.8025777  0.052798502   -3.2804584    1.4778807   400083 
 4161000   0.89829734   -3.2813707   -1.8026646  0.057056849   -3.2813707    1.4787062   400086 
 4162000    0.8990428   -3.2807449   -1.8008079   0.05306742   -3.2807449     1.479937   400085 
 4163000    0.8986424   -3.2801997   -1.8009477  0.051610403   -3.2801997     1.479252   400092 
 4164000   0.89878266    -3.279982   -1.8003956  0.055959924    -3.279982    1.4795864   400064 
 4165000   0.89961357   -3.2806046   -1.7995652  0.054120441   -3.2806046    1.4810394   400041 
 4166000   0.89957555   -3.2809138   -1.7998333  0.056802704   -3.2809138    1.4810805   400013 
 4167000    0.9001859   -3.2830151   -1.8007258  0.053959586   -3.2830151    1.4822892   399958 
 4168000   0.89902348   -3.2824064   -1.8018128  0.052532121   -3.2824064    1.4805935   399899 
 4169000   0.89928317    -3.281752    -1.800753  0.050441074    -3.281752     1.480999   399905 
 4170000   0.89839238   -3.2812244   -1.8016036  0.053518325   -3.2812244    1.4796208   399881 
 4171000   0.89729546   -3.2791134   -1.8013584  0.052321016   -3.2791134    1.4777551   399897 
 4172000   0.89764851   -3.2800941   -1.8016763  0.048908336   -3.2800941    1.4784178   399875 
 4173000   0.89684335   -3.2794377   -1.8021687  0.048694983   -3.2794377    1.4772691   399827 
 4174000   0.89384882   -3.2752647   -1.8028287  0.053890308   -3.2752647    1.4724359   399800 
 4175000   0.89579827   -3.2781984    -1.802433  0.048873437   -3.2781984    1.4757654   399768 
 4176000   0.89636667   -3.2795295   -1.8028462  0.050571727   -3.2795295    1.4766833   399773 
 4177000   0.89636555   -3.2797889   -1.8030113  0.048150007   -3.2797889    1.4767775   399747 
 4178000   0.89481363   -3.2780372   -1.8037686  0.052723672   -3.2780372    1.4742687   399734 
 4179000   0.89624215   -3.2791272   -1.8026601  0.054328178   -3.2791272    1.4764671   399776 
 4180000   0.89473134   -3.2765479   -1.8023595  0.052159264   -3.2765479    1.4741884   399719 
 4181000   0.89639513   -3.2790674   -1.8020343  0.043502159   -3.2790674    1.4770332   399691 
 4182000   0.89582518   -3.2787312   -1.8025079  0.048102546   -3.2787312    1.4762233   399656 
 4183000   0.89666879   -3.2780391   -1.8003258  0.050838137   -3.2780391    1.4777133   399629 
 4184000   0.89739101   -3.2791707   -1.8002302  0.054264339   -3.2791707    1.4789405   399619 
 4185000   0.89790519   -3.2804379   -1.8005018  0.054417177   -3.2804379    1.4799361   399579 
 4186000    0.8961495   -3.2778596   -1.8007174  0.052479904   -3.2778596    1.4771422   399552 
 4187000   0.89617594   -3.2777502   -1.8004388  0.049491559   -3.2777502    1.4773114   399518 
 4188000    0.8966697    -3.280404   -1.8021713  0.054358677    -3.280404    1.4782327   399489 
 4189000   0.89613428   -3.2796086   -1.8021772  0.051138187   -3.2796086    1.4774314   399467 
 4190000   0.89532703   -3.2772228   -1.8011335  0.046772699   -3.2772228    1.4760894   399470 
 4191000   0.89596699   -3.2780002   -1.8007448  0.050929055   -3.2780002    1.4772554   399440 
 4192000   0.89716115   -3.2800516   -1.8007421  0.051881019   -3.2800516    1.4793095   399417 
 4193000    0.8957878     -3.27817   -1.8009882   0.05258363     -3.27817    1.4771818   399380 
 4194000   0.89584052   -3.2790153   -1.8016355  0.057404886   -3.2790153    1.4773798   399350 
 4195000   0.89524979   -3.2798537   -1.8033335  0.052808173   -3.2798537    1.4765202   399319 
 4196000   0.89496858   -3.2820801   -1.8057834   0.04733946   -3.2820801    1.4762967   399254 
 4197000   0.89507916   -3.2818091   -1.8052783  0.050980009   -3.2818091    1.4765309   399240 
 4198000   0.89569289   -3.2814693   -1.8040407  0.048850452   -3.2814693    1.4774286   399271 
 4199000   0.89525823   -3.2806023   -1.8038019  0.057727354   -3.2806023    1.4768004   399247 
 4200000   0.89524799   -3.2804836   -1.8035965  0.052184206   -3.2804836     1.476887   399219 
 4201000   0.89563331   -3.2798344   -1.8021747  0.055940604   -3.2798344    1.4776597   399182 
 4202000   0.89677442   -3.2806842   -1.8012309  0.048663036   -3.2806842    1.4794534   399206 
 4203000   0.89681177   -3.2810488   -1.8015153  0.057989732   -3.2810488    1.4795335   399201 
 4204000   0.89788712   -3.2830104   -1.8016063  0.051313397   -3.2830104    1.4814041   399175 
 4205000   0.89791987   -3.2825156   -1.8008459  0.050923053   -3.2825156    1.4816697   399118 
 4206000   0.89583296   -3.2805441   -1.8020995  0.053048019   -3.2805441    1.4784446   399059 
 4207000   0.89743432   -3.2808542   -1.7998521  0.050858382   -3.2808542    1.4810021   399082 
 4208000   0.89700411   -3.2800745   -1.7999196  0.048421732   -3.2800745    1.4801549   399119 
 4209000    0.8971103   -3.2793363   -1.7991582   0.05215741   -3.2793363     1.480178   399160 
 4210000   0.89730901    -3.279528   -1.7990258  0.048910931    -3.279528    1.4805022   399161 
 4211000   0.89710257   -3.2808464   -1.8005031  0.052246655   -3.2808464    1.4803433   399112 
 4212000   0.89460214   -3.2793783   -1.8027985  0.053215275   -3.2793783    1.4765798   399014 
 4213000   0.89447171     -3.27838   -1.8019341  0.050053162     -3.27838     1.476446   398992 
 4214000   0.89412249   -3.2764692   -1.8006737  0.055689626   -3.2764692    1.4757955   399012 
 4215000   0.89459503   -3.2786821    -1.801903  0.052618717   -3.2786821    1.4767791   398957 
 4216000   0.89483495     -3.27836   -1.8011553  0.049366712     -3.27836    1.4772047   398949 
 4217000   0.89473577   -3.2795099   -1.8022838  0.044963169   -3.2795099    1.4772261   398899 
 4218000   0.89441003   -3.2781769   -1.8015848  0.049209624   -3.2781769    1.4765921   398925 
 4219000   0.89413634   -3.2788128   -1.8025874  0.046098366   -3.2788128    1.4762254   398902 
 4220000   0.89510923   -3.2793009   -1.8014248  0.045320249   -3.2793009    1.4778761   398890 
 4221000   0.89678802   -3.2802756   -1.7996797  0.049061108   -3.2802756    1.4805959   398904 
 4222000   0.89574181   -3.2791404    -1.800205  0.053535751   -3.2791404    1.4789353   398886 
 4223000   0.89580068   -3.2794716   -1.8003946  0.053717564   -3.2794716     1.479077   398874 
 4224000   0.89415751   -3.2779403   -1.8014764  0.048322013   -3.2779403    1.4764639   398847 
 4225000   0.89433215   -3.2803511   -1.8033619  0.050343172   -3.2803511    1.4769893   398783 
 4226000   0.89191016   -3.2757203   -1.8025758  0.044938891   -3.2757203    1.4731445   398741 
 4227000   0.89349521   -3.2784206   -1.8025359  0.050180662   -3.2784206    1.4758846   398708 
 4228000   0.89354784   -3.2778503   -1.8017788   0.05485979   -3.2778503    1.4760715   398681 
 4229000   0.89322519   -3.2780571   -1.8023965  0.052071642   -3.2780571    1.4756607   398648 
 4230000   0.89265572   -3.2780054   -1.8030524  0.052739298   -3.2780054     1.474953   398585 
 4231000   0.89349517   -3.2797408   -1.8033082  0.052655798   -3.2797408    1.4764326   398560 
 4232000   0.89470104   -3.2805793   -1.8020687  0.053913365   -3.2805793    1.4785106   398537 
 4233000   0.89418167   -3.2807126   -1.8031271  0.057308638   -3.2807126    1.4775855   398555 
 4234000   0.89447039   -3.2826145   -1.8044146    0.0514104   -3.2826145    1.4781999   398518 
 4235000   0.89506915   -3.2829791    -1.803812  0.051336477   -3.2829791    1.4791671   398524 
 4236000   0.89481137   -3.2818006   -1.8028814  0.054477171   -3.2818006    1.4789192   398476 
 4237000   0.89351546   -3.2810409   -1.8041004   0.05023496   -3.2810409    1.4769405   398432 
 4238000   0.89392793   -3.2811336    -1.803452  0.059111891   -3.2811336    1.4776816   398416 
 4239000   0.89479773    -3.282792   -1.8036837   0.05028987    -3.282792    1.4791083   398419 
 4240000   0.89490733   -3.2836377   -1.8042926  0.052163921   -3.2836377    1.4793451   398404 
 4241000   0.89155701   -3.2809176   -1.8068777  0.052607303   -3.2809176    1.4740399   398341 
 4242000   0.89147097   -3.2808379   -1.8067959  0.049828217   -3.2808379     1.474042   398302 
 4243000   0.89139236   -3.2821701   -1.8081877  0.054201026   -3.2821701    1.4739823   398283 
 4244000    0.8931656   -3.2822605   -1.8052756  0.049900994   -3.2822605    1.4769849   398264 
 4245000   0.89402716   -3.2840447   -1.8058094  0.051949762   -3.2840447    1.4782352   398311 
 4246000   0.89319413   -3.2812855   -1.8044574  0.054279965   -3.2812855    1.4768282   398319 
 4247000   0.89218811   -3.2813539   -1.8060742  0.050801044   -3.2813539    1.4752796   398288 
 4248000   0.89375346   -3.2835869   -1.8056187  0.051491704   -3.2835869    1.4779682   398261 
 4249000    0.8939906   -3.2824623   -1.8040908  0.051435651   -3.2824623    1.4783715   398258 
 4250000   0.89315815     -3.28197   -1.8049195  0.052645409     -3.28197    1.4770505   398243 
 4251000   0.89307478   -3.2819537   -1.8050337  0.053603776   -3.2819537    1.4769201   398241 
 4252000   0.89303875   -3.2816199   -1.8047298   0.04802838   -3.2816199    1.4768901   398233 
 4253000   0.89271252   -3.2818886   -1.8054156   0.05042658   -3.2818886     1.476473   398200 
 4254000   0.89213176   -3.2816339   -1.8060029  0.055100621   -3.2816339     1.475631   398168 
 4255000   0.89322629   -3.2832971   -1.8056144   0.04900697   -3.2832971    1.4776827   398103 
 4256000   0.89336207   -3.2822683    -1.804309  0.056335204   -3.2822683    1.4779593   398089 
 4257000   0.89450985   -3.2840185   -1.8041753  0.056089125   -3.2840185    1.4798433   398093 
 4258000   0.89295416   -3.2832829    -1.805902  0.053794231   -3.2832829    1.4773809   398063 
 4259000   0.89314439   -3.2837057   -1.8061808  0.051569734   -3.2837057    1.4775249   398109 
 4260000   0.89314338   -3.2826902   -1.8050556   0.04920518   -3.2826902    1.4776346   398079 
 4261000   0.89377166    -3.283802   -1.8050685  0.054068514    -3.283802    1.4787335   398063 
 4262000   0.89241834   -3.2824664    -1.805831  0.054465395   -3.2824664    1.4766354   398025 
 4263000   0.89206392   -3.2821908   -1.8060974  0.045366275   -3.2821908    1.4760934   398013 
 4264000    0.8921673   -3.2814374   -1.8051506    0.0492649   -3.2814374    1.4762867   398007 
 4265000   0.89209859   -3.2825344   -1.8062092  0.052986814   -3.2825344    1.4763251   397966 
 4266000   0.89350159   -3.2829698    -1.804438  0.057471189   -3.2829698    1.4785318   397997 
 4267000    0.8954189   -3.2858932   -1.8040622   0.04761369   -3.2858932    1.4818311   397963 
 4268000   0.89285944   -3.2825986   -1.8048101  0.057497278   -3.2825986    1.4777885   397911 
 4269000   0.89170986   -3.2818535   -1.8059566   0.04927704   -3.2818535    1.4758969   397908 
 4270000   0.89198114   -3.2828493   -1.8062955  0.048705996   -3.2828493    1.4765537   397852 
 4271000   0.89090371   -3.2815954   -1.8068882  0.050136131   -3.2815954    1.4747072   397869 
 4272000   0.89113027   -3.2811712   -1.8061298  0.054436654   -3.2811712    1.4750414   397880 
 4273000   0.89265585   -3.2839125   -1.8063941  0.049619558   -3.2839125    1.4775184   397893 
 4274000   0.89022643   -3.2808157   -1.8071926  0.051511539   -3.2808157    1.4736231   397859 
 4275000   0.89121291   -3.2828559   -1.8074478  0.046419032   -3.2828559    1.4754081   397818 
 4276000   0.89049853   -3.2817701   -1.8074964  0.048767276   -3.2817701    1.4742736   397805 
 4277000   0.89166531   -3.2837001   -1.8073686  0.055174392   -3.2837001    1.4763315   397771 
 4278000   0.89267757   -3.2851372   -1.8070442  0.045358324   -3.2851372     1.478093   397748 
 4279000   0.89234589   -3.2847337   -1.8072493  0.053022402   -3.2847337    1.4774843   397764 
 4280000   0.89387291   -3.2856865   -1.8057148  0.046669746   -3.2856865    1.4799717   397775 
 4281000    0.8917654   -3.2829465   -1.8064679  0.049669314   -3.2829465    1.4764787   397776 
 4282000   0.89329734   -3.2852853   -1.8062294  0.050255248   -3.2852853     1.479056   397765 
 4283000   0.89361604   -3.2842647   -1.8046587  0.054695567   -3.2842647     1.479606   397759 
 4284000   0.89193083   -3.2832654   -1.8064572  0.056164132   -3.2832654    1.4768083   397761 
 4285000   0.89352939   -3.2846085   -1.8050232  0.049756894   -3.2846085    1.4795852   397726 
 4286000   0.89138008   -3.2826115   -1.8064777  0.057407186   -3.2826115    1.4761339   397697 
 4287000   0.89302648    -3.284982   -1.8060436  0.051557371    -3.284982    1.4789384   397676 
 4288000   0.89316833   -3.2850698    -1.805796  0.054320591   -3.2850698    1.4792738   397649 
 4289000   0.89130851   -3.2828531   -1.8065519  0.058756369   -3.2828531    1.4763012   397620 
 4290000   0.89169369   -3.2833256    -1.806379  0.049900969   -3.2833256    1.4769466   397618 
 4291000   0.89208948   -3.2838444   -1.8062274  0.047993417   -3.2838444     1.477617   397614 
 4292000   0.89271848    -3.284592   -1.8059443  0.052073989    -3.284592    1.4786477   397617 
 4293000   0.89377857   -3.2870074   -1.8065927  0.053378112   -3.2870074    1.4804147   397614 
 4294000   0.89218798   -3.2848077   -1.8070387  0.055742086   -3.2848077     1.477769   397617 
 4295000   0.89328131   -3.2857987   -1.8063118  0.052328412   -3.2857987    1.4794869   397642 
 4296000   0.89330572   -3.2847913   -1.8052081  0.050772748   -3.2847913    1.4795832   397627 
 4297000   0.89203216   -3.2830853   -1.8054963   0.05071832   -3.2830853     1.477589   397596 
 4298000   0.89154016   -3.2823683     -1.80552  0.052587819   -3.2823683    1.4768483   397576 
 4299000   0.89014179   -3.2801937   -1.8055988  0.046524364   -3.2801937    1.4745949   397559 
 4300000   0.88998072   -3.2811146   -1.8067309  0.050745259   -3.2811146    1.4743837   397544 
 4301000   0.89065719   -3.2821304   -1.8064924  0.045271013   -3.2821304     1.475638   397508 
 4302000   0.89093385   -3.2816801   -1.8056988  0.054944294   -3.2816801    1.4759813   397539 
 4303000   0.89054727    -3.281495   -1.8059797  0.049966952    -3.281495    1.4755153   397492 
 4304000   0.89183087   -3.2836085   -1.8060185  0.049992366   -3.2836085      1.47759   397506 
 4305000   0.89027121   -3.2811141   -1.8061601   0.05349551   -3.2811141     1.474954   397520 
 4306000   0.89226078   -3.2831059   -1.8047255  0.053383956   -3.2831059    1.4783804   397485 
 4307000   0.89173229   -3.2822648   -1.8047043  0.052891361   -3.2822648    1.4775605   397470 
 4308000   0.89173148   -3.2820258   -1.8044035  0.054058239   -3.2820258    1.4776224   397453 
 4309000   0.89065144   -3.2803567   -1.8044609  0.052987013   -3.2803567    1.4758958   397436 
 4310000    0.8916064   -3.2832429   -1.8057832   0.04766596   -3.2832429    1.4774597   397441 
 4311000   0.88993166   -3.2813046   -1.8066275   0.05133472   -3.2813046    1.4746771   397443 
 4312000   0.89121565   -3.2821095   -1.8052155  0.048536534   -3.2821095    1.4768939   397419 
 4313000   0.89106999   -3.2814603    -1.804856  0.049632224   -3.2814603    1.4766043   397432 
 4314000   0.89225208   -3.2813543   -1.8026758  0.051602012   -3.2813543    1.4786785   397401 
 4315000   0.89294566   -3.2843327   -1.8044228   0.05012078   -3.2843327    1.4799098   397379 
 4316000   0.89085901    -3.283047    -1.806432  0.052029668    -3.283047     1.476615   397335 
 4317000    0.8911673   -3.2823847    -1.805095  0.052753702   -3.2823847    1.4772896   397291 
 4318000    0.8921716   -3.2824777   -1.8036535   0.04991378   -3.2824777    1.4788242   397326 
 4319000   0.89062647   -3.2801251   -1.8037505  0.051131139   -3.2801251    1.4763745   397296 
 4320000   0.89104021   -3.2818455   -1.8045658  0.052277105   -3.2818455    1.4772797   397237 
 4321000   0.88968189     -3.28044   -1.8054197  0.051483444     -3.28044    1.4750203   397239 
 4322000   0.89115401   -3.2842445   -1.8067166  0.050307575   -3.2842445    1.4775279   397221 
 4323000    0.8915196   -3.2825994   -1.8044579  0.055895619   -3.2825994    1.4781415   397219 
 4324000    0.8917299   -3.2821886   -1.8035532     0.053619   -3.2821886    1.4786354   397180 
 4325000   0.89171924   -3.2821186   -1.8033445  0.052164533   -3.2821186    1.4787741   397138 
 4326000      0.89165   -3.2825117   -1.8038078  0.056079934   -3.2825117    1.4787039   397126 
 4327000   0.88970924   -3.2795615   -1.8039944  0.054403171   -3.2795615    1.4755671   397104 
 4328000   0.88941563    -3.279574   -1.8043267  0.053989965    -3.279574    1.4752474   397059 
 4329000   0.89107922   -3.2815437   -1.8035705  0.051472492   -3.2815437    1.4779732   397068 
 4330000   0.89000703   -3.2799635   -1.8036274  0.053799322   -3.2799635    1.4763361   397030 
 4331000   0.88897219   -3.2795521    -1.804992  0.054513855   -3.2795521    1.4745601   397046 
 4332000   0.89110586   -3.2833354   -1.8051319  0.050428902   -3.2833354    1.4782035   397018 
 4333000   0.89054755   -3.2832406   -1.8059148  0.053053782   -3.2832406    1.4773258   397005 
 4334000   0.89132402   -3.2832133   -1.8045064  0.047325777   -3.2832133     1.478707   396980 
 4335000   0.89035922   -3.2824566    -1.805447  0.053323418   -3.2824566    1.4770096   397006 
 4336000   0.88821337   -3.2792024   -1.8057859  0.053655887   -3.2792024    1.4734165   397015 
 4337000   0.88857216   -3.2789457   -1.8050009  0.051196613   -3.2789457    1.4739448   397033 
 4338000   0.88872181   -3.2796809    -1.805447  0.051060834   -3.2796809    1.4742339   397022 
 4339000   0.88905716   -3.2798597   -1.8050584  0.046026435   -3.2798597    1.4748013   397019 
 4340000   0.88888338   -3.2798378    -1.805191  0.048685862   -3.2798378    1.4746468   396983 
 4341000   0.88836115   -3.2804008   -1.8065536   0.05032862   -3.2804008    1.4738472   396965 
 4342000   0.88859383   -3.2800779   -1.8057666  0.048636717   -3.2800779    1.4743113   396944 
 4343000   0.88763848   -3.2768132   -1.8039423  0.051804395   -3.2768132    1.4728709   396905 
 4344000   0.89137491   -3.2811936   -1.8022979  0.050754122   -3.2811936    1.4788957   396952 
 4345000   0.88993555   -3.2795615   -1.8030725  0.051377147   -3.2795615     1.476489   396957 
 4346000   0.89124742   -3.2799782   -1.8014281  0.055805553   -3.2799782    1.4785501   396988 
 4347000   0.88910312   -3.2781492   -1.8030784  0.050541255   -3.2781492    1.4750708   396967 
 4348000   0.89027127   -3.2816217   -1.8044231  0.049106361   -3.2816217    1.4771986   396916 
 4349000   0.88998403   -3.2809043   -1.8041266   0.05142875   -3.2809043    1.4767778   396901 
 4350000    0.8875916   -3.2789626   -1.8060322   0.04618396   -3.2789626    1.4729304   396868 
 4351000   0.88886995   -3.2809781   -1.8057627  0.051621045   -3.2809781    1.4752154   396824 
 4352000   0.88851417   -3.2809514   -1.8062076  0.043443705   -3.2809514    1.4747438   396792 
 4353000   0.88835938   -3.2800859   -1.8054763  0.051983974   -3.2800859    1.4746095   396759 
 4354000    0.8891843   -3.2821118   -1.8062185  0.055169375   -3.2821118    1.4758933   396782 
 4355000   0.88908605   -3.2817136   -1.8058532  0.049622376   -3.2817136    1.4758604   396747 
 4356000   0.88774051   -3.2804486   -1.8066137  0.052149478   -3.2804486    1.4738349   396691 
 4357000   0.88962729   -3.2822707   -1.8051805  0.052603119   -3.2822707    1.4770902   396658 
 4358000   0.88941481   -3.2824645   -1.8057047  0.046917484   -3.2824645    1.4767597   396652 
 4359000   0.88999384   -3.2820979   -1.8043395  0.051915374   -3.2820979    1.4777584   396642 
 4360000   0.88830256   -3.2811539   -1.8060029  0.055731408   -3.2811539     1.475151   396588 
 4361000   0.88950767   -3.2838773   -1.8067213  0.050652439   -3.2838773     1.477156   396587 
 4362000   0.88854124   -3.2814573   -1.8058095  0.056490139   -3.2814573    1.4756478   396561 
 4363000   0.88790507   -3.2811877   -1.8063361  0.054149094   -3.2811877    1.4748516   396491 
 4364000   0.88937399   -3.2841064   -1.8068334  0.054506687   -3.2841064     1.477273   396496 
 4365000   0.88881979   -3.2827259   -1.8062134  0.049245571   -3.2827259    1.4765125   396453 
 4366000   0.88811078   -3.2814556   -1.8060948  0.052303667   -3.2814556    1.4753608   396446 
 4367000   0.88843921   -3.2815847   -1.8055256  0.044566573   -3.2815847     1.476059   396405 
 4368000   0.88815888   -3.2816251   -1.8060876  0.049935728   -3.2816251    1.4755375   396420 
 4369000   0.88760329   -3.2797568   -1.8051349  0.048481278   -3.2797568    1.4746219   396418 
 4370000   0.88665385   -3.2796139   -1.8063278  0.050031005   -3.2796139    1.4732861   396353 
 4371000   0.88707551   -3.2811378   -1.8071139  0.051155639   -3.2811378    1.4740239   396343 
 4372000   0.88746023   -3.2819292   -1.8071916  0.045971615   -3.2819292    1.4747376   396323 
 4373000   0.88769913   -3.2816257   -1.8063868  0.046816981   -3.2816257    1.4752388   396295 
 4374000   0.88566394   -3.2783153   -1.8064067  0.056074719   -3.2783153    1.4719086   396281 
 4375000   0.88611123   -3.2790298   -1.8063816  0.050594144   -3.2790298    1.4726483   396282 
 4376000   0.88534859   -3.2787675    -1.807331  0.047781125   -3.2787675    1.4714365   396267 
 4377000   0.88627025   -3.2809444     -1.80782  0.047742298   -3.2809444    1.4731244   396225 
 4378000   0.88622825   -3.2820975   -1.8089611   0.04606326   -3.2820975    1.4731364   396203 
 4379000   0.88559275   -3.2811352   -1.8090291  0.044222024   -3.2811352    1.4721061   396196 
 4380000    0.8860548   -3.2818372   -1.8088925  0.050035226   -3.2818372    1.4729448   396177 
 4381000   0.88750437   -3.2842822   -1.8088272    0.0478081   -3.2842822     1.475455   396150 
 4382000   0.88727192   -3.2835116   -1.8081376   0.05283906   -3.2835116     1.475374   396068 
 4383000   0.88694526   -3.2820546   -1.8072089  0.056641934   -3.2820546    1.4748457   396064 
 4384000   0.88719453   -3.2830051   -1.8078492  0.051278695   -3.2830051    1.4751559   396092 
 4385000   0.89002046   -3.2878791   -1.8078788  0.055670683   -3.2878791    1.4800003   396053 
 4386000    0.8884053   -3.2855815   -1.8081774  0.052430427   -3.2855815    1.4774041   396029 
 4387000   0.88938745   -3.2867055   -1.8076009  0.050755779   -3.2867055    1.4791046   396011 
 4388000   0.88704354   -3.2849035   -1.8096561  0.047127676   -3.2849035    1.4752475   396000 
 4389000   0.88792613   -3.2852784   -1.8084772  0.049785818   -3.2852784    1.4768011   395977 
 4390000   0.88892999   -3.2864173   -1.8079017  0.048009405   -3.2864173    1.4785155   395965 
 4391000   0.88654189   -3.2837468   -1.8091511  0.054277004   -3.2837468    1.4745957   395951 
 4392000   0.88630966   -3.2846218   -1.8102374  0.051043796   -3.2846218    1.4743844   395904 
 4393000    0.8865131   -3.2861455   -1.8112774  0.049495181   -3.2861455    1.4748681   395865 
 4394000   0.88609193   -3.2860086   -1.8116103  0.049629421   -3.2860086    1.4743983   395803 
 4395000   0.88622502   -3.2870554   -1.8125026  0.053923563   -3.2870554    1.4745527   395821 
 4396000   0.88629222    -3.287649   -1.8127199  0.049497844    -3.287649    1.4749291   395750 
 4397000   0.88625211   -3.2881691   -1.8132247  0.051680187   -3.2881691    1.4749443   395728 
 4398000   0.88575189   -3.2868973    -1.812737  0.053665923   -3.2868973    1.4741603   395715 
 4399000   0.88625914    -3.286485   -1.8114805   0.04685827    -3.286485    1.4750045   395715 
 4400000    0.8843315   -3.2842995   -1.8125143  0.054463253   -3.2842995    1.4717852   395718 
 4401000   0.88608154   -3.2849969   -1.8101463  0.052778627   -3.2849969    1.4748506   395677 
 4402000   0.88653992   -3.2867352   -1.8110844  0.048119828   -3.2867352    1.4756508   395667 
 4403000   0.88622782   -3.2854263   -1.8105186  0.052088432   -3.2854263    1.4749076   395727 
 4404000   0.88569854   -3.2853433   -1.8113351  0.050431418   -3.2853433    1.4740082   395732 
 4405000    0.8852079   -3.2840677   -1.8107755  0.049130218   -3.2840677    1.4732922   395705 
 4406000   0.88707651   -3.2850164   -1.8088007  0.055435245   -3.2850164    1.4762156   395755 
 4407000   0.88551314    -3.282832   -1.8091063  0.050386077    -3.282832    1.4737257   395725 
 4408000   0.88668467   -3.2831576   -1.8075754   0.05092556   -3.2831576    1.4755822   395750 
 4409000   0.88626002   -3.2838865   -1.8089439  0.051563656   -3.2838865    1.4749426   395732 
 4410000   0.88569465    -3.282646   -1.8085884  0.048332987    -3.282646    1.4740576   395717 
 4411000   0.88552335   -3.2833074   -1.8095535   0.04894442   -3.2833074    1.4737538   395722 
 4412000   0.88629855   -3.2817932   -1.8067865  0.051479635   -3.2817932    1.4750067   395732 
 4413000   0.88539899   -3.2803001   -1.8066936  0.055919699   -3.2803001    1.4736065   395706 
 4414000   0.88579991   -3.2798507   -1.8055136  0.054730713   -3.2798507    1.4743371   395689 
 4415000   0.88446495    -3.277391   -1.8051716   0.05046352    -3.277391    1.4722193   395661 
 4416000   0.88682998   -3.2814911   -1.8054396   0.05414932   -3.2814911    1.4760515   395689 
 4417000   0.88770444   -3.2810982   -1.8033634  0.054270287   -3.2810982    1.4777348   395628 
 4418000    0.8888048   -3.2829389   -1.8032939  0.048675757   -3.2829389    1.4796451   395607 
 4419000   0.88676083   -3.2800257     -1.80369  0.051392914   -3.2800257    1.4763357   395582 
 4420000   0.88564231   -3.2789739   -1.8042842   0.05451447   -3.2789739    1.4746897   395524 
 4421000   0.88631901   -3.2802317   -1.8042548  0.048562993   -3.2802317    1.4759769   395481 
 4422000   0.88527034   -3.2785209   -1.8043611   0.05476529   -3.2785209    1.4741598   395500 
 4423000   0.88559827   -3.2791978   -1.8045031  0.050311085   -3.2791978    1.4746947   395503 
 4424000   0.88627923   -3.2788568   -1.8029536    0.0535201   -3.2788568    1.4759032   395483 
 4425000   0.88637833   -3.2804655   -1.8042293  0.046501133   -3.2804655    1.4762362   395438 
 4426000   0.88687751   -3.2806939   -1.8034021  0.048233731   -3.2806939    1.4772918   395378 
 4427000   0.88579374   -3.2802914   -1.8047676  0.047588611   -3.2802914    1.4755238   395368 
 4428000   0.88616123   -3.2826471   -1.8064813  0.050846744   -3.2826471    1.4761658   395360 
 4429000   0.88550959   -3.2820448   -1.8069496   0.04973869   -3.2820448    1.4750953   395356 
 4430000   0.88483888   -3.2788967   -1.8048553  0.050545168   -3.2788967    1.4740414   395339 
 4431000   0.88593225   -3.2812285    -1.805082   0.05275583   -3.2812285    1.4761466   395263 
 4432000   0.88655294    -3.283025   -1.8057209  0.050908076    -3.283025    1.4773041   395230 
 4433000   0.88738661   -3.2837151   -1.8048684  0.048187204   -3.2837151    1.4788467   395189 
 4434000   0.88547105   -3.2809255    -1.805245  0.051197838   -3.2809255    1.4756805   395182 
 4435000   0.88378015   -3.2776435   -1.8046542  0.049208091   -3.2776435    1.4729893   395148 
 4436000   0.88505237    -3.280541    -1.805521  0.049553063    -3.280541    1.4750201   395172 
 4437000   0.88664806   -3.2836017   -1.8058287   0.05702798   -3.2836017    1.4777729   395147 
 4438000   0.88714526   -3.2848619   -1.8061854  0.052462456   -3.2848619    1.4786765   395127 
 4439000   0.88645823   -3.2833756   -1.8058106  0.046795845   -3.2833756     1.477565   395118 
 4440000     0.886958   -3.2836669    -1.805441  0.052727294   -3.2836669    1.4782259   395164 
 4441000   0.88614246   -3.2814463   -1.8045086  0.056997745   -3.2814463    1.4769377   395145 
 4442000   0.88839848   -3.2846265   -1.8039136   0.05528559   -3.2846265    1.4807128   395141 
 4443000   0.88701869   -3.2831611   -1.8046171  0.055016654   -3.2831611    1.4785441   395106 
 4444000   0.88719301    -3.284442   -1.8055025  0.051687265    -3.284442    1.4789395   395078 
 4445000   0.88588343     -3.28361   -1.8068312  0.050998212     -3.28361    1.4767788   395072 
 4446000   0.88486006   -3.2810489   -1.8059573   0.04669114   -3.2810489    1.4750915   395067 
 4447000   0.88423924   -3.2804062   -1.8063459   0.04955787   -3.2804062    1.4740603   395066 
 4448000   0.88526688   -3.2824413   -1.8066305  0.051818953   -3.2824413    1.4758108   395056 
 4449000   0.88530275   -3.2825506   -1.8063624  0.052700703   -3.2825506    1.4761882   394971 
 4450000   0.88594822   -3.2837974   -1.8065329  0.055421966   -3.2837974    1.4772645   394971 
 4451000   0.88579426   -3.2831508   -1.8059747  0.051017824   -3.2831508    1.4771761   394926 
 4452000   0.88377488   -3.2815028    -1.807545  0.054867128   -3.2815028    1.4739578   394886 
 4453000    0.8837844    -3.282545   -1.8086012  0.058601232    -3.282545    1.4739438   394894 
 4454000   0.88512569   -3.2833955   -1.8071512  0.050296093   -3.2833955    1.4762443   394877 
 4455000   0.88412605   -3.2802735   -1.8057001  0.051770763   -3.2802735    1.4745734   394878 
 4456000   0.88200409   -3.2773089    -1.806256  0.048855868   -3.2773089    1.4710529   394873 
 4457000   0.88535579   -3.2828513   -1.8061746  0.041734861   -3.2828513    1.4766767   394864 
 4458000   0.88486367   -3.2833544   -1.8072855  0.049087391   -3.2833544     1.476069   394807 
 4459000   0.88613387   -3.2844422    -1.806127  0.051439075   -3.2844422    1.4783152   394773 
 4460000   0.88539098   -3.2830756   -1.8058838   0.05673124   -3.2830756    1.4771918   394742 
 4461000   0.88580893   -3.2840863   -1.8060512  0.050587493   -3.2840863    1.4780351   394703 
 4462000    0.8849242   -3.2821575   -1.8055088  0.050629757   -3.2821575    1.4766487   394679 
 4463000   0.88465685   -3.2818436   -1.8055924   0.05074115   -3.2818436    1.4762512   394666 
 4464000   0.88578966   -3.2814338   -1.8033897  0.054145467   -3.2814338    1.4780442   394692 
 4465000   0.88285361   -3.2792165   -1.8059707  0.055889026   -3.2792165    1.4732458   394665 
 4466000    0.8832351   -3.2810459   -1.8070851  0.053507617   -3.2810459    1.4739609   394644 
 4467000   0.88444088   -3.2817509   -1.8057292  0.046597048   -3.2817509    1.4760217   394631 
 4468000   0.88362207   -3.2818105    -1.807017  0.048819878   -3.2818105    1.4747935   394594 
 4469000   0.88310465   -3.2799122   -1.8058441  0.051698291   -3.2799122    1.4740681   394557 
 4470000   0.88437987   -3.2808036   -1.8044685  0.049135013   -3.2808036    1.4763351   394520 
 4471000   0.88443463   -3.2822918   -1.8056632  0.052960323   -3.2822918    1.4766287   394466 
 4472000   0.88386349   -3.2795291   -1.8037679  0.052957987   -3.2795291    1.4757612   394443 
 4473000   0.88521402   -3.2824146    -1.804331  0.049128925   -3.2824146    1.4780835   394425 
 4474000   0.88331819   -3.2789546   -1.8039244   0.05254939   -3.2789546    1.4750302   394395 
 4475000   0.88331823   -3.2797615    -1.804821  0.049356297   -3.2797615    1.4749405   394419 
 4476000   0.88415893   -3.2809027   -1.8043937  0.049010374   -3.2809027     1.476509   394375 
 4477000   0.88476211   -3.2806031   -1.8030868  0.051864221   -3.2806031    1.4775163   394375 
 4478000   0.88328957    -3.277839    -1.802909  0.055098973    -3.277839      1.47493   394409 
 4479000   0.88486166    -3.280104   -1.8025789  0.047738569    -3.280104    1.4775252   394417 
 4480000   0.88375386   -3.2791777    -1.803304  0.054446331   -3.2791777    1.4758737   394364 
 4481000   0.88258709   -3.2789478   -1.8050413  0.049212954   -3.2789478    1.4739065   394369 
 4482000   0.88475502   -3.2812306   -1.8036812  0.050530683   -3.2812306    1.4775494   394363 
 4483000   0.88463668   -3.2797998   -1.8024593   0.05009938   -3.2797998    1.4773405   394366 
 4484000   0.88446078   -3.2774456   -1.8004625  0.049554061   -3.2774456    1.4769831   394383 
 4485000   0.88567899   -3.2795607   -1.8002132  0.049455592   -3.2795607    1.4793475   394295 
 4486000   0.88471696   -3.2808683   -1.8030677  0.049856055   -3.2808683    1.4778006   394279 
 4487000   0.88351887    -3.280026   -1.8041443  0.048674051    -3.280026    1.4758817   394257 
 4488000   0.88241819   -3.2785433   -1.8044367  0.050532385   -3.2785433    1.4741066   394240 
 4489000   0.88294346   -3.2787249   -1.8038305  0.050458794   -3.2787249    1.4748943   394264 
 4490000   0.88163067   -3.2774271   -1.8045987  0.056380784   -3.2774271    1.4728284   394230 
 4491000   0.88350045   -3.2800134   -1.8040502  0.050363095   -3.2800134    1.4759632   394227 
 4492000   0.88298482   -3.2795806   -1.8042617  0.051536181   -3.2795806    1.4753189   394169 
 4493000   0.88317038   -3.2794198   -1.8036299   0.05275398   -3.2794198    1.4757899   394126 
 4494000   0.88485246   -3.2831607   -1.8043274   0.05248489   -3.2831607    1.4788333   394064 
 4495000   0.88364129   -3.2796508   -1.8028192  0.050655928   -3.2796508    1.4768316   394058 
 4496000    0.8839352   -3.2816925   -1.8042909  0.047198225   -3.2816925    1.4774016   394037 
 4497000   0.88206669   -3.2779295    -1.803651  0.051560815   -3.2779295    1.4742786   394037 
 4498000   0.88374858   -3.2799181   -1.8028696  0.052375461   -3.2799181    1.4770484   394048 
 4499000   0.88175248   -3.2772191   -1.8033573  0.050441445   -3.2772191    1.4738619   394008 
 4500000   0.88351337   -3.2811548   -1.8042821   0.05429653   -3.2811548    1.4768727   393990 
 4501000   0.88194423   -3.2790108   -1.8047723  0.051553084   -3.2790108    1.4742385   393993 
 4502000   0.88177027   -3.2777669   -1.8035984  0.051637439   -3.2777669    1.4741685   393934 
 4503000    0.8821082   -3.2783087   -1.8036127  0.047708052   -3.2783087     1.474696   393944 
 4504000   0.88013542   -3.2752036    -1.803843  0.045306669   -3.2752036    1.4713606   393954 
 4505000   0.88118007   -3.2757033   -1.8024093  0.055330852   -3.2757033     1.473294   393904 
 4506000   0.88141658   -3.2771774   -1.8034581  0.054343022   -3.2771774    1.4737193   393896 
 4507000   0.88106355   -3.2770151   -1.8039347  0.049358545   -3.2770151    1.4730804   393909 
 4508000    0.8813318    -3.277765   -1.8041575  0.050566254    -3.277765    1.4736075   393888 
 4509000   0.88086814   -3.2772819    -1.804229   0.04653391   -3.2772819    1.4730529   393829 
 4510000   0.88116858   -3.2769766   -1.8033876  0.049256614   -3.2769766     1.473589   393820 
 4511000    0.8817172   -3.2791115   -1.8045564   0.04823755   -3.2791115    1.4745551   393807 
 4512000    0.8827416   -3.2783378    -1.802092  0.048495708   -3.2783378    1.4762458   393813 
 4513000   0.88277063   -3.2773299   -1.8009794  0.047051804   -3.2773299    1.4763506   393798 
 4514000   0.88324722   -3.2789679   -1.8017415  0.050710495   -3.2789679    1.4772264   393777 
 4515000   0.88318169   -3.2799803   -1.8026947  0.050810575   -3.2799803    1.4772856   393732 
 4516000   0.88373905   -3.2809605   -1.8028252  0.051592982   -3.2809605    1.4781353   393754 
 4517000   0.88231801   -3.2790015   -1.8030144  0.052883406   -3.2790015    1.4759872   393693 
 4518000   0.88296969   -3.2794485   -1.8024125  0.052408532   -3.2794485    1.4770361   393704 
 4519000   0.88283513   -3.2781382    -1.801361  0.054179748   -3.2781382    1.4767772   393713 
 4520000   0.88294367   -3.2791073   -1.8020209  0.054834163   -3.2791073    1.4770863   393679 
 4521000    0.8836253   -3.2810663   -1.8027608  0.055313496   -3.2810663    1.4783055   393658 
 4522000   0.88350804   -3.2815757   -1.8034438  0.048690028   -3.2815757    1.4781319   393652 
 4523000    0.8823373    -3.278622   -1.8025013  0.053166702    -3.278622    1.4761207   393666 
 4524000    0.8815485    -3.277264   -1.8024629  0.054859293    -3.277264     1.474801   393666 
 4525000   0.88158152    -3.279074   -1.8040941   0.04939197    -3.279074    1.4749799   393633 
 4526000   0.88282172   -3.2821125   -1.8047874  0.053619981   -3.2821125    1.4773251   393561 
 4527000   0.88260164   -3.2812732   -1.8043801  0.049659221   -3.2812732    1.4768931   393578 
 4528000   0.88094931   -3.2792814   -1.8050671  0.052809142   -3.2792814    1.4742143   393555 
 4529000   0.88194981   -3.2784926   -1.8027353  0.051243828   -3.2784926    1.4757573   393590 
 4530000   0.88362725   -3.2803824   -1.8017581  0.045394221   -3.2803824    1.4786243   393574 
 4531000    0.8829237   -3.2788271   -1.8013538  0.055618427   -3.2788271    1.4774733   393567 
 4532000   0.88302443   -3.2809802   -1.8031356  0.051307629   -3.2809802    1.4778446   393513 
 4533000    0.8816199   -3.2799393   -1.8043178  0.049592457   -3.2799393    1.4756215   393479 
 4534000   0.88122567   -3.2797986   -1.8047621  0.048673543   -3.2797986    1.4750366   393459 
 4535000   0.88065704   -3.2783106   -1.8041284  0.050280083   -3.2783106    1.4741822   393433 
 4536000    0.8813093   -3.2788727   -1.8035874  0.050501206   -3.2788727    1.4752853   393430 
 4537000   0.88189845   -3.2788867   -1.8025288  0.052196803   -3.2788867    1.4763578   393407 
 4538000   0.88248803   -3.2804569   -1.8031008  0.047450741   -3.2804569    1.4773561   393404 
 4539000   0.88019711   -3.2762383   -1.8025301  0.051305193   -3.2762383    1.4737082   393354 
 4540000   0.88089825   -3.2790875   -1.8041117  0.043973958   -3.2790875    1.4749759   393329 
 4541000   0.88050666   -3.2789497   -1.8045471  0.048330584   -3.2789497    1.4744027   393307 
 4542000   0.88202735    -3.280938   -1.8038801  0.050211591    -3.280938    1.4770579   393278 
 4543000   0.87985279   -3.2789611   -1.8053499  0.055594796   -3.2789611    1.4736112   393226 
 4544000    0.8807516   -3.2788695   -1.8036704  0.053960182   -3.2788695    1.4751991   393204 
 4545000   0.87988456   -3.2794654   -1.8056735  0.048576588   -3.2794654    1.4737919   393192 
 4546000   0.88105608   -3.2820654   -1.8062212  0.050407185   -3.2820654    1.4758442   393168 
 4547000   0.88005865    -3.282027   -1.8077973  0.046009056    -3.282027    1.4742297   393153 
 4548000   0.87935705   -3.2793252   -1.8062558  0.048960913   -3.2793252    1.4730694   393149 
 4549000   0.88204732   -3.2838846   -1.8063123  0.052253983   -3.2838846    1.4775723   393150 
 4550000   0.88133506   -3.2834805   -1.8069924  0.049396459   -3.2834805    1.4764881   393121 
 4551000   0.88102403   -3.2833299   -1.8073217  0.050538425   -3.2833299    1.4760083   393110 
 4552000   0.88118088   -3.2829164   -1.8068782  0.054457668   -3.2829164    1.4760383   393172 
 4553000   0.87991103   -3.2818355   -1.8078344  0.051256489   -3.2818355    1.4740011   393148 
 4554000    0.8803906    -3.281965   -1.8071305  0.054659526    -3.281965    1.4748345   393140 
 4555000   0.87921801   -3.2822113   -1.8092137  0.049626162   -3.2822113    1.4729976   393106 
 4556000   0.88192863   -3.2849017   -1.8072238    0.0500945   -3.2849017    1.4776779   393069 
 4557000   0.88019725   -3.2821126   -1.8073357  0.050111629   -3.2821126     1.474777   393069 
 4558000   0.87839948   -3.2815013   -1.8096691  0.057893396   -3.2815013    1.4718322   393051 
 4559000   0.87959706   -3.2832658   -1.8093257  0.051118338   -3.2832658    1.4739401   393024 
 4560000   0.88048494   -3.2846985    -1.809173  0.048943318   -3.2846985    1.4755255   392998 
 4561000   0.87928588   -3.2835029   -1.8098593  0.053289861   -3.2835029    1.4736436   392964 
 4562000   0.88055713   -3.2839876   -1.8082923  0.053377481   -3.2839876    1.4756953   392985 
 4563000   0.87788096   -3.2812741     -1.81003  0.050079684   -3.2812741    1.4712441   392976 
 4564000   0.87954797   -3.2831715   -1.8091262  0.048525531   -3.2831715    1.4740453   392974 
 4565000   0.87861638   -3.2814281   -1.8090677  0.052392119   -3.2814281    1.4723605   393007 
 4566000   0.87837511   -3.2817795   -1.8096585  0.049034021   -3.2817795    1.4721209   392963 
 4567000   0.87767602   -3.2817065   -1.8107197  0.049882392   -3.2817065    1.4709867   392953 
 4568000   0.87746354    -3.281625    -1.810927  0.041878734    -3.281625     1.470698   392935 
 4569000   0.87769822   -3.2802992   -1.8090656  0.054801564   -3.2802992    1.4712336   392897 
 4570000    0.8771286   -3.2789424   -1.8086299  0.053627811   -3.2789424    1.4703125   392888 
 4571000   0.87904513   -3.2818922   -1.8084196  0.046337663   -3.2818922    1.4734726   392902 
 4572000   0.87795601   -3.2800726   -1.8084032  0.048330408   -3.2800726    1.4716695   392896 
 4573000   0.87807392   -3.2796817    -1.807912  0.049480163   -3.2796817    1.4717697   392922 
 4574000    0.8787769   -3.2808304   -1.8077249  0.048127503   -3.2808304    1.4731055   392880 
 4575000   0.87883951   -3.2800907    -1.806854  0.047349213   -3.2800907    1.4732367   392873 
 4576000   0.87863848   -3.2802293   -1.8071647  0.049582528   -3.2802293    1.4730647   392829 
 4577000   0.87801325   -3.2799174   -1.8078485   0.05356992   -3.2799174    1.4720689   392815 
 4578000   0.87842473   -3.2785582   -1.8057769  0.053660459   -3.2785582    1.4727813   392809 
 4579000   0.87910991   -3.2785774   -1.8045911  0.046710648   -3.2785774    1.4739864   392794 
 4580000     0.879166   -3.2801728   -1.8060849  0.046937952   -3.2801728    1.4740879   392792 
 4581000   0.87939713   -3.2792096   -1.8045952  0.052873983   -3.2792096    1.4746143   392755 
 4582000   0.87923819   -3.2798197   -1.8054869  0.055580539   -3.2798197    1.4743328   392759 
 4583000   0.87924826   -3.2807164   -1.8064342  0.051425305   -3.2807164    1.4742821   392777 
 4584000   0.87858408   -3.2794676   -1.8063029  0.051741977   -3.2794676    1.4731647   392778 
 4585000   0.87983006    -3.282459   -1.8070924  0.045469625    -3.282459    1.4753666   392748 
 4586000   0.87781622   -3.2782482   -1.8061874  0.049366451   -3.2782482    1.4720609   392729 
 4587000   0.87843887   -3.2778957   -1.8046744  0.047543857   -3.2778957    1.4732213   392698 
 4588000   0.87747776   -3.2773627   -1.8056446  0.051045236   -3.2773627    1.4717181   392669 
 4589000   0.87940407   -3.2796299   -1.8046096  0.053072722   -3.2796299    1.4750203   392650 
 4590000    0.8794213    -3.279741   -1.8046167  0.053421512    -3.279741    1.4751243   392630 
 4591000   0.87824622   -3.2797467   -1.8064545  0.050596443   -3.2797467    1.4732921   392593 
 4592000   0.87912594   -3.2815391   -1.8066134  0.055643291   -3.2815391    1.4749257   392551 
 4593000   0.87916608   -3.2827703   -1.8076495  0.050390228   -3.2827703    1.4751208   392517 
 4594000    0.8794999   -3.2822426   -1.8066482   0.04962784   -3.2822426    1.4755944   392540 
 4595000   0.87872957   -3.2803348   -1.8060328  0.052868216   -3.2803348     1.474302   392540 
 4596000   0.87832353    -3.280674   -1.8069106  0.053096069    -3.280674    1.4737634   392502 
 4597000   0.87939818   -3.2824749   -1.8068895  0.047476711   -3.2824749    1.4755854   392497 
 4598000   0.87794607   -3.2791013   -1.8059074  0.050909456   -3.2791013    1.4731939   392485 
 4599000   0.87938296   -3.2806959   -1.8052075  0.053801992   -3.2806959    1.4754884   392516 
 4600000   0.87932669   -3.2811826   -1.8056495  0.048559535   -3.2811826    1.4755331   392479 
 4601000    0.8790984   -3.2803988   -1.8052225   0.04742489   -3.2803988    1.4751764   392472 
 4602000   0.87720019   -3.2786454   -1.8066093  0.050603273   -3.2786454    1.4720361   392460 
 4603000   0.87728776   -3.2793474   -1.8069955  0.050877399   -3.2793474    1.4723518   392415 
 4604000   0.87785152   -3.2789697   -1.8056679  0.055263267   -3.2789697    1.4733018   392414 
 4605000   0.87784641   -3.2793966   -1.8061334  0.049513225   -3.2793966    1.4732631   392422 
 4606000   0.87873545   -3.2791598   -1.8043558  0.055593166   -3.2791598     1.474804   392409 
 4607000   0.87983543   -3.2808118   -1.8041541  0.051586969   -3.2808118    1.4766577   392407 
 4608000   0.87971923   -3.2820592   -1.8055739  0.048819742   -3.2820592    1.4764852   392401 
 4609000   0.88012018   -3.2800756   -1.8030717  0.048596779   -3.2800756    1.4770039   392442 
 4610000   0.87765056   -3.2782211   -1.8053692  0.050793632   -3.2782211    1.4728519   392444 
 4611000   0.87739405   -3.2778622   -1.8054596  0.055385676   -3.2778622    1.4724026   392449 
 4612000   0.87635351   -3.2783065   -1.8075376  0.051614104   -3.2783065    1.4707689   392419 
 4613000   0.87578439   -3.2788502   -1.8087255  0.052768615   -3.2788502    1.4701247   392336 
 4614000   0.87667926   -3.2807044   -1.8090176  0.049785083   -3.2807044    1.4716869   392320 
 4615000   0.87848196   -3.2827054   -1.8078796   0.05273386   -3.2827054    1.4748258   392290 
 4616000   0.87847276   -3.2825636   -1.8076742  0.052641609   -3.2825636    1.4748894   392269 
 4617000   0.87942555   -3.2836779   -1.8070458  0.051550602   -3.2836779    1.4766321   392231 
 4618000   0.87611842   -3.2782629    -1.807135  0.051890445   -3.2782629    1.4711279   392218 
 4619000   0.87907107   -3.2829589   -1.8066698  0.048684651   -3.2829589     1.476289   392164 
 4620000   0.87741921   -3.2802816    -1.806684  0.054221277   -3.2802816    1.4735976   392142 
 4621000   0.87780724   -3.2808625   -1.8063462  0.052596144   -3.2808625    1.4745163   392071 
 4622000    0.8786818   -3.2825066   -1.8062878  0.050307272   -3.2825066    1.4762188   392009 
 4623000   0.88067815   -3.2855342   -1.8059916  0.052790094   -3.2855342    1.4795425   392017 
 4624000   0.87850594   -3.2841381    -1.808098  0.052357466   -3.2841381    1.4760401   391978 
 4625000    0.8794493   -3.2840082   -1.8064095  0.054310828   -3.2840082    1.4775987   391985 
 4626000   0.87638467   -3.2806738   -1.8081039  0.055089981   -3.2806738    1.4725699   391953 
 4627000   0.87706551   -3.2825927   -1.8088562  0.053497856   -3.2825927    1.4737364   391947 
 4628000   0.87664073    -3.281035   -1.8079973  0.048244868    -3.281035    1.4730377   391943 
 4629000   0.87698552   -3.2811023    -1.807286  0.052742823   -3.2811023    1.4738164   391890 
 4630000   0.87843325   -3.2840719   -1.8078677  0.053846364   -3.2840719    1.4762041   391902 
 4631000   0.87790411   -3.2832701   -1.8079928  0.048624476   -3.2832701    1.4752773   391912 
 4632000   0.87682109   -3.2811608   -1.8075794  0.051774688   -3.2811608    1.4735814   391879 
 4633000   0.87755011   -3.2826928   -1.8078825  0.048661319   -3.2826928    1.4748103   391878 
 4634000   0.87814155   -3.2832391   -1.8073745  0.047383421   -3.2832391    1.4758646   391862 
 4635000   0.87909414   -3.2832874   -1.8058331  0.050761053   -3.2832874    1.4774542   391865 
 4636000   0.87792823   -3.2807997   -1.8053275  0.053964245   -3.2807997    1.4754722   391871 
 4637000    0.8798052   -3.2834487   -1.8047277  0.051278685   -3.2834487     1.478721   391846 
 4638000   0.87871069   -3.2813064   -1.8041951  0.055755733   -3.2813064    1.4771114   391785 
 4639000   0.87886834   -3.2827794    -1.805437  0.048928814   -3.2827794    1.4773424   391794 
 4640000   0.87866733   -3.2824244   -1.8053294  0.048208881   -3.2824244     1.477095   391770 
 4641000   0.87758205   -3.2811531   -1.8058034  0.055160282   -3.2811531    1.4753497   391749 
 4642000   0.87832427   -3.2819005   -1.8052314  0.053675186   -3.2819005    1.4766691   391730 
 4643000   0.87912034   -3.2829855   -1.8049705  0.052576259   -3.2829855     1.478015   391728 
 4644000   0.87900531   -3.2820945   -1.8042012  0.052657531   -3.2820945    1.4778933   391709 
 4645000   0.87833793   -3.2825439    -1.805652  0.051763152   -3.2825439    1.4768919   391677 
 4646000   0.87831925   -3.2801572   -1.8033571  0.051094116   -3.2801572    1.4768001   391693 
 4647000   0.87902039   -3.2817137   -1.8036516  0.053887907   -3.2817137    1.4780621   391671 
 4648000   0.87860389   -3.2813697   -1.8039061  0.053723298   -3.2813697    1.4774636   391644 
 4649000   0.87732273   -3.2804206    -1.804972  0.051255407   -3.2804206    1.4754485   391607 
 4650000   0.87679158   -3.2785447   -1.8040421  0.053480551   -3.2785447    1.4745026   391621 
 4651000   0.87822097   -3.2818696   -1.8048538  0.052333216   -3.2818696    1.4770157   391592 
 4652000    0.8774282   -3.2820416   -1.8061443  0.050404502   -3.2820416    1.4758973   391535 
 4653000   0.87743568   -3.2820326   -1.8062547  0.053774513   -3.2820326    1.4757779   391570 
 4654000   0.87727657   -3.2818114   -1.8061843  0.051401555   -3.2818114    1.4756271   391539 
 4655000   0.87773518   -3.2819931    -1.805372  0.052084342   -3.2819931    1.4766211   391480 
 4656000   0.87671751   -3.2794858   -1.8044976  0.050338621   -3.2794858    1.4749882   391459 
 4657000   0.87898405   -3.2830559   -1.8040807  0.051986646   -3.2830559    1.4789752   391413 
 4658000   0.87690792   -3.2807927   -1.8051186  0.052885661   -3.2807927    1.4756741   391362 
 4659000   0.87737834   -3.2812582   -1.8045773  0.048750944   -3.2812582    1.4766808   391305 
 4660000    0.8770534   -3.2800053    -1.803928  0.052960712   -3.2800053    1.4760774   391320 
 4661000   0.87723448   -3.2812085   -1.8048943  0.052424257   -3.2812085    1.4763142   391338 
 4662000   0.87718928   -3.2811142   -1.8048232  0.049147223   -3.2811142     1.476291   391324 
 4663000   0.87704151   -3.2801007   -1.8040396  0.050413742   -3.2801007    1.4760611   391319 
 4664000   0.87724518   -3.2812986   -1.8048381  0.051860974   -3.2812986    1.4764605   391304 
 4665000   0.87594856   -3.2800367   -1.8057849  0.048526532   -3.2800367    1.4742518   391311 
 4666000   0.87640436   -3.2800624   -1.8050849    0.0536324   -3.2800624    1.4749775   391322 
 4667000   0.87704081   -3.2815314   -1.8054941  0.043284569   -3.2815314    1.4760373   391325 
 4668000   0.87552366   -3.2774081   -1.8038752  0.044960818   -3.2774081    1.4735329   391312 
 4669000   0.87579463   -3.2769919   -1.8029916  0.051330948   -3.2769919    1.4740003   391309 
 4670000   0.87687026   -3.2798543   -1.8040626  0.051588916   -3.2798543    1.4757918   391314 
 4671000   0.87685451   -3.2804739   -1.8045653  0.048457359   -3.2804739    1.4759086   391276 
 4672000   0.87874397   -3.2830861   -1.8040237  0.054914126   -3.2830861    1.4790624   391283 
 4673000   0.87754237   -3.2806011   -1.8036517  0.056526267   -3.2806011    1.4769494   391307 
 4674000    0.8772902   -3.2804308   -1.8039926  0.051480751   -3.2804308    1.4764382   391330 
 4675000   0.87547465   -3.2780293   -1.8044809  0.054664283   -3.2780293    1.4735484   391286 
 4676000   0.87720897   -3.2810001   -1.8042986  0.048407206   -3.2810001    1.4767015   391224 
 4677000   0.87760964   -3.2819252   -1.8045908   0.05012814   -3.2819252    1.4773344   391235 
 4678000   0.87702197   -3.2805618   -1.8042657  0.049861641   -3.2805618    1.4762961   391248 
 4679000   0.87714076    -3.280383    -1.803853  0.048235185    -3.280383      1.47653   391239 
 4680000   0.87638226   -3.2804871    -1.805264  0.049096222   -3.2804871    1.4752231   391247 
 4681000   0.87642765   -3.2814285   -1.8060611  0.050548187   -3.2814285    1.4753673   391229 
 4682000    0.8764343   -3.2813717   -1.8058725  0.047060709   -3.2813717    1.4754992   391197 
 4683000    0.8770623   -3.2827424   -1.8061557  0.044816274   -3.2827424    1.4765867   391189 
 4684000   0.87622833    -3.281599   -1.8064088  0.047977019    -3.281599    1.4751902   391187 
 4685000   0.87585807   -3.2814749    -1.806942  0.054709493   -3.2814749    1.4745329   391196 
 4686000   0.87765997   -3.2828265   -1.8052487  0.051714756   -3.2828265    1.4775778   391193 
 4687000   0.87791579   -3.2841522   -1.8060418  0.054530505   -3.2841522    1.4781105   391166 
 4688000   0.87732472   -3.2840415   -1.8068997  0.048356422   -3.2840415    1.4771417   391159 
 4689000   0.87625013   -3.2823491   -1.8070656  0.048975179   -3.2823491    1.4752834   391172 
 4690000   0.87615953   -3.2817127   -1.8065064  0.049405545   -3.2817127    1.4752063   391152 
 4691000   0.87550527   -3.2790248   -1.8049351   0.05358103   -3.2790248    1.4740897   391156 
 4692000   0.87571503   -3.2809821    -1.806264  0.051067113   -3.2809821    1.4747181   391083 
 4693000   0.87608816   -3.2827773     -1.80728  0.049245939   -3.2827773    1.4754973   391043 
 4694000   0.87610081   -3.2823491   -1.8068719  0.051055412   -3.2823491    1.4754771   391054 
 4695000   0.87541237   -3.2815557   -1.8071513  0.050092665   -3.2815557    1.4744044   391031 
 4696000    0.8755071   -3.2829198   -1.8083068  0.049574752   -3.2829198     1.474613   391018 
 4697000   0.87489455    -3.280985   -1.8073208  0.052684471    -3.280985    1.4736642   390996 
 4698000   0.87467301   -3.2811886   -1.8079352  0.047012111   -3.2811886    1.4732533   391006 
 4699000   0.87514536   -3.2809662   -1.8070303   0.04947222   -3.2809662    1.4739359   391036 
 4700000   0.87479747   -3.2796375   -1.8062574  0.052357379   -3.2796375    1.4733801   391028 
 4701000   0.87590826   -3.2807895   -1.8055536  0.046483857   -3.2807895    1.4752358   391032 
 4702000   0.87523455   -3.2793197   -1.8052713  0.049787642   -3.2793197    1.4740484   391046 
 4703000   0.87604909   -3.2799247   -1.8044555  0.049868323   -3.2799247    1.4754693   391033 
 4704000   0.87617163   -3.2806988   -1.8050307  0.056389926   -3.2806988    1.4756681   391035 
 4705000   0.87732522   -3.2824957     -1.80493  0.047810819   -3.2824957    1.4775657   391047 
 4706000   0.87676446   -3.2796889   -1.8029279  0.052575541   -3.2796889     1.476761   391010 
 4707000    0.8761472   -3.2783511   -1.8024297  0.048981494   -3.2783511    1.4759214   390957 
 4708000   0.87424257   -3.2759173   -1.8032572  0.050103491   -3.2759173    1.4726602   390971 
 4709000    0.8741199   -3.2747149   -1.8022011  0.049389185   -3.2747149    1.4725138   390955 
 4710000   0.87411814    -3.273491   -1.8007127  0.050955569    -3.273491    1.4727783   390884 
 4711000   0.87483574   -3.2759481   -1.8019494  0.053552847   -3.2759481    1.4739987   390881 
 4712000   0.87433263    -3.275728   -1.8025469  0.051361705    -3.275728    1.4731811   390873 
 4713000   0.87378962   -3.2753909    -1.803136  0.052373255   -3.2753909    1.4722549   390876 
 4714000   0.87518885   -3.2768875   -1.8022637  0.049603273   -3.2768875    1.4746238   390873 
 4715000   0.87501695    -3.276457   -1.8019191  0.048976812    -3.276457    1.4745379   390819 
 4716000    0.8763798   -3.2777279   -1.8009955  0.053824683   -3.2777279    1.4767324   390846 
 4717000   0.87593473   -3.2766323    -1.800563  0.052864836   -3.2766323    1.4760694   390823 
 4718000   0.87588581   -3.2749613   -1.7989895  0.054193871   -3.2749613    1.4759718   390827 
 4719000    0.8749605   -3.2734921    -1.798955  0.054920129   -3.2734921    1.4745371   390794 
 4720000   0.87448754   -3.2748887   -1.8009525  0.050785163   -3.2748887    1.4739361   390742 
 4721000    0.8746506   -3.2744832   -1.8004081  0.051960774   -3.2744832    1.4740751   390778 
 4722000   0.87549681   -3.2753757   -1.7997498  0.050561429   -3.2753757    1.4756259   390745 
 4723000   0.87445377    -3.275167   -1.8012878  0.049769103    -3.275167    1.4738792   390742 
 4724000   0.87427264   -3.2750194   -1.8014757  0.046042021   -3.2750194    1.4735437   390750 
 4725000   0.87428256    -3.274725    -1.801074   0.05195592    -3.274725     1.473651   390726 
 4726000   0.87704217   -3.2788026   -1.8005455  0.047044986   -3.2788026    1.4782571   390738 
 4727000   0.87467788   -3.2753305   -1.8009302  0.050885339   -3.2753305    1.4744003   390704 
 4728000    0.8752926   -3.2753564    -1.799833  0.050093909   -3.2753564    1.4755234   390681 
 4729000    0.8754108   -3.2748866   -1.7992659  0.050508752   -3.2748866    1.4756207   390708 
 4730000   0.87531641   -3.2754016   -1.7999098    0.0543039   -3.2754016    1.4754918   390700 
 4731000   0.87530091    -3.275523   -1.7999176  0.053414983    -3.275523    1.4756054   390663 
 4732000   0.87648306   -3.2773956   -1.7997784  0.055405646   -3.2773956    1.4776172   390658 
 4733000   0.87593112   -3.2771508   -1.8002789  0.051350703   -3.2771508    1.4768719   390609 
 4734000   0.87540469   -3.2760211   -1.7999385   0.05326182   -3.2760211    1.4760826   390583 
 4735000   0.87401482   -3.2737772    -1.799857  0.049862288   -3.2737772    1.4739202   390535 
 4736000   0.87404114   -3.2754364   -1.8015133  0.053214592   -3.2754364    1.4739231   390546 
 4737000   0.87596239   -3.2775621   -1.8001835  0.052256724   -3.2775621    1.4773786   390489 
 4738000   0.87479375   -3.2767896   -1.8014727  0.047124863   -3.2767896    1.4753169   390513 
 4739000   0.87367857   -3.2747527   -1.8013354  0.050245305   -3.2747527    1.4734173   390518 
 4740000   0.87572602   -3.2770225   -1.8001333  0.056683792   -3.2770225    1.4768891   390513 
 4741000   0.87570592   -3.2775325   -1.8006054  0.052805772   -3.2775325    1.4769271   390494 
 4742000   0.87507092   -3.2768165   -1.8008167  0.051073407   -3.2768165    1.4759998   390456 
 4743000    0.8758004   -3.2788585   -1.8014581  0.051136475   -3.2788585    1.4774004   390411 
 4744000   0.87502738   -3.2765297   -1.8004597  0.051854603   -3.2765297      1.47607   390418 
 4745000   0.87554833   -3.2788409   -1.8017219   0.05410999   -3.2788409     1.477119   390373 
 4746000   0.87562107    -3.278787   -1.8014923  0.051824166    -3.278787    1.4772947   390359 
 4747000   0.87542962   -3.2774601   -1.8003635   0.04588227   -3.2774601    1.4770966   390326 
 4748000    0.8747764   -3.2766607   -1.8006096  0.052940705   -3.2766607    1.4760511   390311 
 4749000   0.87628268   -3.2803182   -1.8014451  0.050036366   -3.2803182    1.4788731   390237 
 4750000   0.87478922   -3.2781028   -1.8017691  0.051382326   -3.2781028    1.4763337   390242 
 4751000   0.87487255   -3.2779778   -1.8014845  0.052477739   -3.2779778    1.4764933   390237 
 4752000   0.87402609   -3.2773737    -1.802154  0.049904024   -3.2773737    1.4752197   390196 
 4753000   0.87466444   -3.2781676    -1.801651  0.045933796   -3.2781676    1.4765166   390138 
 4754000   0.87338784   -3.2776994    -1.803111  0.047906642   -3.2776994    1.4745884   390078 
 4755000   0.87569381    -3.281343   -1.8026263  0.052477833    -3.281343    1.4787167   390016 
 4756000   0.87409341   -3.2787125   -1.8026074  0.054409781   -3.2787125    1.4761051   389992 
 4757000   0.87294264   -3.2765081   -1.8022103  0.053136673   -3.2765081    1.4742978   389956 
 4758000   0.87408302   -3.2791363   -1.8027989  0.050506785   -3.2791363    1.4763374   389926 
 4759000   0.87499832   -3.2803313   -1.8024025  0.056255173   -3.2803313    1.4779288   389914 
 4760000   0.87434706   -3.2800694   -1.8031497  0.050770451   -3.2800694    1.4769197   389890 
 4761000   0.87435689   -3.2789188   -1.8019862   0.05624548   -3.2789188    1.4769325   389891 
 4762000   0.87361346   -3.2785512   -1.8029691  0.050788026   -3.2785512    1.4755821   389916 
 4763000    0.8735954   -3.2778248   -1.8023034  0.051201446   -3.2778248    1.4755214   389924 
 4764000   0.87485451    -3.278072   -1.8004884  0.049009021    -3.278072    1.4775836   389941 
 4765000   0.87395321   -3.2763137   -1.8002485  0.054520748   -3.2763137    1.4760651   389940 
 4766000   0.87374913    -3.276497   -1.8004775  0.050996514    -3.276497    1.4760195   389861 
 4767000   0.87256404   -3.2745762   -1.8005587  0.051131998   -3.2745762    1.4740175   389861 
 4768000   0.87448376   -3.2766705   -1.7995312  0.050358245   -3.2766705    1.4771393   389893 
 4769000   0.87233699   -3.2727593   -1.7992463  0.052703438   -3.2727593     1.473513   389893 
 4770000   0.87349182   -3.2733686   -1.7980335  0.049762052   -3.2733686    1.4753351   389927 
 4771000   0.87353675   -3.2732596   -1.7976443   0.04534078   -3.2732596    1.4756153   389873 
 4772000   0.87224395   -3.2715123   -1.7980166  0.052432955   -3.2715123    1.4734957   389856 
 4773000   0.87220091   -3.2717426   -1.7981987  0.050788711   -3.2717426     1.473544   389824 
 4774000   0.87269003   -3.2726811   -1.7982124  0.048465231   -3.2726811    1.4744686   389798 
 4775000   0.87180361   -3.2719006   -1.7988162  0.051688599   -3.2719006    1.4730843   389768 
 4776000   0.87194685   -3.2731991    -1.799714  0.048880723   -3.2731991    1.4734852   389726 
 4777000   0.87304641   -3.2721547   -1.7968379  0.053353218   -3.2721547    1.4753168   389733 
 4778000   0.87248176   -3.2718483   -1.7974819  0.050444341   -3.2718483    1.4743664   389732 
 4779000   0.87317168   -3.2729317   -1.7973048   0.04934066   -3.2729317    1.4756269   389707 
 4780000   0.87215765   -3.2702705   -1.7964216  0.053580209   -3.2702705     1.473849   389724 
 4781000    0.8733801   -3.2720933   -1.7960725  0.051870965   -3.2720933    1.4760208   389696 
 4782000   0.87245244   -3.2712869   -1.7967771  0.051923511   -3.2712869    1.4745098   389681 
 4783000   0.87289511   -3.2738594   -1.7984651  0.048853272   -3.2738594    1.4753942   389645 
 4784000   0.87375884    -3.275155   -1.7982251  0.050536836    -3.275155      1.47693   389625 
 4785000   0.87284702   -3.2745223   -1.7989822  0.053683708   -3.2745223    1.4755402   389585 
 4786000   0.87308026   -3.2745956     -1.79868  0.053912039   -3.2745956    1.4759155   389590 
 4787000   0.87344922   -3.2763067   -1.7998546  0.050592346   -3.2763067    1.4764521   389613 
 4788000   0.87320259   -3.2762778   -1.8002539  0.053617655   -3.2762778    1.4760238   389616 
 4789000   0.87357083   -3.2774918    -1.800637  0.048045281   -3.2774918    1.4768548   389561 
 4790000   0.87380236   -3.2767955   -1.7997124  0.050126823   -3.2767955    1.4770831   389604 
 4791000   0.87301987   -3.2757285   -1.7999529    0.0460368   -3.2757285    1.4757756   389600 
 4792000   0.87289811   -3.2773228   -1.8016698   0.04946901   -3.2773228    1.4756531   389578 
 4793000    0.8727195   -3.2753568   -1.7999792  0.051639637   -3.2753568    1.4753776   389571 
 4794000   0.87362466   -3.2774728   -1.8005309  0.052250011   -3.2774728     1.476942   389562 
 4795000   0.87434728   -3.2795768   -1.8012842     0.058927   -3.2795768    1.4782926   389528 
 4796000   0.87342307   -3.2799397   -1.8032855  0.054317133   -3.2799397    1.4766542   389548 
 4797000   0.87374544   -3.2802217   -1.8029238   0.05415052   -3.2802217    1.4772978   389522 
 4798000   0.87162777   -3.2786615   -1.8048344  0.055823781   -3.2786615    1.4738271   389493 
 4799000   0.87412174   -3.2812101   -1.8031546  0.053832601   -3.2812101    1.4780555   389490 
 4800000   0.87364326   -3.2790861   -1.8018207  0.046923589   -3.2790861    1.4772654   389485 
 4801000   0.87245257   -3.2770464   -1.8017186  0.057054781   -3.2770464    1.4753278   389465 
 4802000   0.87415145   -3.2802502   -1.8020458  0.050851218   -3.2802502    1.4782044   389464 
 4803000   0.87331605   -3.2796891   -1.8028822   0.05145102   -3.2796891    1.4768069   389460 
 4804000   0.87536982   -3.2815979   -1.8013675  0.051567715   -3.2815979    1.4802305   389473 
 4805000   0.87350668   -3.2783732   -1.8010429  0.051673622   -3.2783732    1.4773303   389407 
 4806000    0.8742519   -3.2795631   -1.8010256  0.052036482   -3.2795631    1.4785375   389421 
 4807000   0.87462531   -3.2797705   -1.8006699  0.053960416   -3.2797705    1.4791007   389439 
 4808000    0.8758465   -3.2817404   -1.8005289  0.051621157   -3.2817404    1.4812115   389427 
 4809000   0.87294783   -3.2779315   -1.8014174  0.058517032   -3.2779315    1.4765141   389373 
 4810000   0.87382912   -3.2814157   -1.8035097  0.052104491   -3.2814157     1.477906   389399 
 4811000   0.87396834   -3.2819767    -1.803672  0.049550386   -3.2819767    1.4783047   389356 
 4812000   0.87195687   -3.2786683   -1.8035651  0.050358698   -3.2786683    1.4751031   389303 
 4813000   0.87290914   -3.2798324   -1.8030272  0.048335206   -3.2798324    1.4768051   389279 
 4814000    0.8707055   -3.2779206   -1.8047754  0.054431535   -3.2779206    1.4731451   389261 
 4815000   0.87266772   -3.2812252   -1.8045668  0.050144155   -3.2812252    1.4766584   389210 
 4816000    0.8726262   -3.2810475   -1.8044859  0.056444393   -3.2810475    1.4765616   389217 
 4817000   0.87261716   -3.2791704   -1.8025217  0.054540462   -3.2791704    1.4766488   389190 
 4818000    0.8730365   -3.2802889   -1.8026685  0.053341013   -3.2802889    1.4776204   389121 
 4819000   0.87295428   -3.2802539   -1.8026777  0.046475209   -3.2802539    1.4775761   389096 
 4820000   0.87168076   -3.2769888   -1.8015114  0.055872133   -3.2769888    1.4754774   389081 
 4821000   0.87114431   -3.2781124    -1.803399   0.04846061   -3.2781124    1.4747134   389043 
 4822000   0.87086467   -3.2780905   -1.8038581   0.05148586   -3.2780905    1.4742324   389045 
 4823000   0.87237959   -3.2791404   -1.8024535  0.049963097   -3.2791404    1.4766869   389074 
 4824000   0.87258404   -3.2799715   -1.8027677  0.046574303   -3.2799715    1.4772038   389029 
 4825000   0.87234552   -3.2786972   -1.8016542  0.053840918   -3.2786972     1.477043   388965 
 4826000   0.87263046   -3.2804185   -1.8028817  0.050616578   -3.2804185    1.4775369   388962 
 4827000   0.87206724   -3.2786323   -1.8020908  0.051293824   -3.2786323    1.4765415   388973 
 4828000   0.87399806   -3.2798939   -1.8001517  0.057440419   -3.2798939    1.4797422   388991 
 4829000   0.87222456   -3.2773642   -1.8005601  0.050714788   -3.2773642     1.476804   388974 
 4830000   0.87355796   -3.2781387   -1.7990238  0.049825539   -3.2781387    1.4791149   388960 
 4831000   0.87280903   -3.2782274   -1.8004034  0.049484681   -3.2782274     1.477824   388966 
 4832000   0.87056174   -3.2752162   -1.8009585  0.049222351   -3.2752162    1.4742577   388903 
 4833000   0.87170575   -3.2778597   -1.8014634  0.052269525   -3.2778597    1.4763963   388850 
 4834000   0.87124408   -3.2769619    -1.801283  0.050056292   -3.2769619    1.4756789   388833 
 4835000   0.87167138   -3.2759624   -1.7995864  0.049498364   -3.2759624     1.476376   388840 
 4836000   0.87176579    -3.275752   -1.7992047  0.050376478    -3.275752    1.4765473   388837 
 4837000   0.87136851   -3.2746821   -1.7987886  0.053310347   -3.2746821    1.4758934   388832 
 4838000   0.87145459   -3.2753796   -1.7992189  0.046180145   -3.2753796    1.4761607   388800 
 4839000    0.8702569    -3.274869   -1.8006082  0.050583639    -3.274869    1.4742609   388766 
 4840000    0.8711154   -3.2765613   -1.8006677  0.048344334   -3.2765613    1.4758936   388719 
 4841000    0.8706503    -3.275454   -1.8004622   0.05032751    -3.275454    1.4749918   388749 
 4842000   0.87123831   -3.2747613   -1.7986443  0.051352719   -3.2747613    1.4761171   388715 
 4843000   0.87097602    -3.274979   -1.7991051  0.050552539    -3.274979    1.4758739   388662 
 4844000   0.87234976   -3.2768603   -1.7986206  0.052519056   -3.2768603    1.4782397   388652 
 4845000    0.8712952   -3.2761844   -1.7996519  0.047813501   -3.2761844    1.4765325   388631 
 4846000   0.87298939   -3.2794391   -1.7999632  0.055399153   -3.2794391    1.4794759   388612 
 4847000   0.87143494   -3.2774439   -1.8006366  0.053184306   -3.2774439    1.4768073   388621 
 4848000    0.8709971    -3.275945   -1.7998721  0.050794532    -3.275945    1.4760729   388619 
 4849000    0.8701158    -3.274351   -1.7996046  0.050630209    -3.274351    1.4747464   388575 
 4850000   0.87299212   -3.2774366   -1.7978038  0.050757394   -3.2774366    1.4796328   388572 
 4851000   0.87346735    -3.278012   -1.7975776  0.050316639    -3.278012    1.4804345   388573 
 4852000   0.87271737   -3.2766518   -1.7973704  0.057306749   -3.2766518    1.4792814   388542 
 4853000   0.87329205   -3.2771688    -1.796841  0.051657476   -3.2771688    1.4803278   388523 
 4854000   0.87266372    -3.277413   -1.7981122  0.052293489    -3.277413    1.4793008   388513 
 4855000   0.87163608   -3.2756796   -1.7979687  0.052181825   -3.2756796     1.477711   388473 
 4856000   0.87046656   -3.2753561   -1.7996127  0.051728368   -3.2753561    1.4757434   388469 
 4857000   0.87151013   -3.2767317   -1.7990897  0.052264625   -3.2767317     1.477642   388435 
 4858000   0.87150035   -3.2759114   -1.7981681  0.049174041   -3.2759114    1.4777433   388404 
 4859000   0.87163178   -3.2765992   -1.7984732  0.055021161   -3.2765992     1.478126   388362 
 4860000   0.87055876   -3.2756808   -1.7993592  0.050210447   -3.2756808    1.4763216   388358 
 4861000   0.86943889   -3.2734968   -1.7989073  0.056007297   -3.2734968    1.4745895   388314 
 4862000   0.87019271   -3.2762477   -1.8002086  0.052828796   -3.2762477    1.4760391   388269 
 4863000   0.87076223   -3.2769034   -1.7998945  0.051931768   -3.2769034    1.4770089   388268 
 4864000   0.86954869   -3.2747674   -1.7996155  0.047859956   -3.2747674    1.4751518   388215 
 4865000   0.87091802    -3.276812   -1.7991849  0.048290266    -3.276812    1.4776271   388175 
 4866000    0.8699195   -3.2751541    -1.799031  0.047090272   -3.2751541    1.4761231   388125 
 4867000   0.86834032   -3.2748264   -1.8014398  0.051802384   -3.2748264    1.4733865   388140 
 4868000   0.86816128    -3.272865   -1.7997216  0.048853415    -3.272865    1.4731435   388124 
 4869000   0.86883472   -3.2733789   -1.7991078  0.049322573   -3.2733789     1.474271   388128 
 4870000   0.86956989   -3.2749644   -1.7993737  0.051901682   -3.2749644    1.4755907   388109 
 4871000   0.86820697   -3.2733536   -1.8002351  0.050741759   -3.2733536    1.4731185   388151 
 4872000   0.86834369   -3.2728353   -1.7995265  0.044632132   -3.2728353    1.4733087   388162 
 4873000   0.87045939   -3.2734399   -1.7967355  0.054813384   -3.2734399    1.4767044   388213 
 4874000   0.87044865    -3.274181   -1.7974491  0.045986064    -3.274181    1.4767318   388201 
 4875000   0.86904747   -3.2731824   -1.7986719  0.045664098   -3.2731824    1.4745104   388160 
 4876000   0.86958382   -3.2740585   -1.7986304  0.046158051   -3.2740585    1.4754281   388158 
 4877000   0.86998758   -3.2729808   -1.7969285  0.046937547   -3.2729808    1.4760523   388174 
 4878000   0.87062371   -3.2735127   -1.7964078  0.051211697   -3.2735127    1.4771049   388181 
 4879000   0.87016766   -3.2719379   -1.7957588  0.053231188   -3.2719379    1.4761791   388221 
 4880000   0.86923145   -3.2726589   -1.7980528   0.05023011   -3.2726589    1.4746061   388217 
 4881000   0.86988889   -3.2737248   -1.7979769  0.048178957   -3.2737248     1.475748   388210 
 4882000   0.87016512   -3.2746522    -1.798371  0.052536037   -3.2746522    1.4762812   388193 
 4883000   0.87056422   -3.2750088   -1.7980656  0.048755989   -3.2750088    1.4769431   388197 
 4884000   0.86913485   -3.2733745   -1.7988791  0.053111693   -3.2733745    1.4744954   388203 
 4885000   0.86989375   -3.2757222    -1.799677  0.046645781   -3.2757222    1.4760452   388134 
 4886000   0.86889818   -3.2750196   -1.8005421  0.046328382   -3.2750196    1.4744775   388102 
 4887000   0.87026602   -3.2761143   -1.7992091  0.046565447   -3.2761143    1.4769052   388074 
 4888000   0.86989649   -3.2758621   -1.7994775  0.052803672   -3.2758621    1.4763846   388046 
 4889000   0.86996306   -3.2756285   -1.7989787  0.051000985   -3.2756285    1.4766498   388006 
 4890000   0.87020854   -3.2771946   -1.7999835  0.049480859   -3.2771946    1.4772111   387968 
 4891000   0.87007309   -3.2768048   -1.7998274  0.054088402   -3.2768048    1.4769774   387969 
 4892000   0.86918895   -3.2772419   -1.8016399  0.054171072   -3.2772419     1.475602   387936 
 4893000   0.86999522   -3.2780992   -1.8011969  0.052925584   -3.2780992    1.4769023   387954 
 4894000    0.8697262   -3.2772315   -1.8007441  0.048717593   -3.2772315    1.4764875   387943 
 4895000    0.8697312   -3.2773986   -1.8007922  0.052063304   -3.2773986    1.4766063   387914 
 4896000   0.86929689   -3.2766275   -1.8008802  0.051533311   -3.2766275    1.4757472   387946 
 4897000   0.86781782    -3.275946   -1.8026147   0.05559061    -3.275946    1.4733313   387921 
 4898000   0.86846802   -3.2766112   -1.8021456  0.051691125   -3.2766112    1.4744655   387913 
 4899000   0.86915036   -3.2767401   -1.8011998  0.056907146   -3.2767401    1.4755403   387935 
 4900000   0.86917375   -3.2772442   -1.8016946  0.051428832   -3.2772442    1.4755496   387943 
 4901000    0.8684579   -3.2767323   -1.8022573  0.050139245   -3.2767323     1.474475   387906 
 4902000   0.86767047   -3.2751865   -1.8019915  0.050578797   -3.2751865     1.473195   387891 
 4903000   0.86671518   -3.2737474   -1.8020453  0.050803256   -3.2737474    1.4717021   387857 
 4904000    0.8676703   -3.2770415   -1.8037214  0.052623948   -3.2770415    1.4733201   387858 
 4905000   0.86760805   -3.2760813     -1.80281  0.052258044   -3.2760813    1.4732714   387843 
 4906000   0.86720518   -3.2747464   -1.8022313  0.054022227   -3.2747464    1.4725151   387862 
 4907000   0.86821182   -3.2746227   -1.8004173  0.049668596   -3.2746227    1.4742054   387867 
 4908000   0.86754862   -3.2738587   -1.8006769  0.047251216   -3.2738587    1.4731819   387840 
 4909000   0.86817395   -3.2752975   -1.8008979  0.052101744   -3.2752975    1.4743996   387799 
 4910000   0.86864643   -3.2756075   -1.8003028  0.052702424   -3.2756075    1.4753047   387772 
 4911000   0.86923204   -3.2773172   -1.8009532  0.051375257   -3.2773172     1.476364   387755 
 4912000   0.86726157   -3.2733274   -1.8003558  0.053093024   -3.2733274    1.4729716   387767 
 4913000    0.8674394   -3.2735821   -1.8003768  0.050525099   -3.2735821    1.4732053   387785 
 4914000    0.8677894   -3.2726723   -1.7986065  0.048474072   -3.2726723    1.4740658   387715 
 4915000   0.86733555   -3.2718151   -1.7986646  0.055633903   -3.2718151    1.4731505   387753 
 4916000   0.86569106   -3.2708701    -1.800471  0.044571061   -3.2708701    1.4703991   387742 
 4917000   0.86800209   -3.2731623   -1.7989367  0.050509787   -3.2731623    1.4742256   387768 
 4918000   0.86903923   -3.2742072   -1.7981326  0.050179748   -3.2742072    1.4760746   387745 
 4919000   0.86839108    -3.271952   -1.7969174  0.052227148    -3.271952    1.4750346   387729 
 4920000   0.86853589   -3.2728249   -1.7975139  0.053907937   -3.2728249     1.475311   387721 
 4921000   0.86961956   -3.2752092   -1.7978098  0.047532782   -3.2752092    1.4773994   387656 
 4922000   0.87001973   -3.2753331   -1.7972005  0.051140649   -3.2753331    1.4781326   387642 
 4923000   0.86807683   -3.2730356    -1.798162  0.050107961   -3.2730356    1.4748736   387631 
 4924000    0.8686186   -3.2744222    -1.798651  0.048571101   -3.2744222    1.4757712   387637 
 4925000   0.86787754   -3.2731644   -1.7984886  0.054317356   -3.2731644    1.4746757   387594 
 4926000   0.86750091   -3.2736308   -1.7994695  0.053126408   -3.2736308    1.4741613   387561 
 4927000   0.86698736   -3.2729666   -1.7996552  0.047749847   -3.2729666    1.4733114   387555 
 4928000   0.86639478   -3.2726615   -1.8003229  0.049183135   -3.2726615    1.4723386   387546 
 4929000   0.86738703    -3.272449   -1.7983291  0.051712903    -3.272449    1.4741199   387521 
 4930000   0.86813355   -3.2733622   -1.7978899   0.04762868   -3.2733622    1.4754724   387499 
 4931000   0.86795846   -3.2721356   -1.7970141  0.047970179   -3.2721356    1.4751215   387513 
 4932000   0.86820633    -3.272514   -1.7968798  0.049478969    -3.272514    1.4756342   387489 
 4933000   0.86780618   -3.2713105   -1.7961699  0.051930094   -3.2713105    1.4751406   387440 
 4934000   0.86808275   -3.2745921   -1.7988785  0.052383095   -3.2745921    1.4757136   387413 
 4935000   0.86784383     -3.27356   -1.7982031  0.047358833     -3.27356    1.4753569   387400 
 4936000   0.86731071   -3.2734387    -1.798893  0.050225612   -3.2734387    1.4745457   387375 
 4937000   0.86899288   -3.2749356   -1.7974613  0.041652988   -3.2749356    1.4774743   387357 
 4938000   0.86797854    -3.271465   -1.7956086  0.050134466    -3.271465    1.4758564   387329 
 4939000   0.86866431   -3.2726473   -1.7955028  0.046928235   -3.2726473    1.4771445   387297 
 4940000   0.86763431   -3.2709787     -1.79546   0.04869002   -3.2709787    1.4755187   387264 
 4941000   0.86838943   -3.2732569   -1.7963662  0.049118119   -3.2732569    1.4768906   387241 
 4942000   0.86846995   -3.2744791   -1.7974134  0.049648992   -3.2744791    1.4770657   387231 
 4943000   0.86954177   -3.2755346   -1.7965963  0.051458169   -3.2755346    1.4789383   387218 
 4944000   0.86748415   -3.2715226    -1.796103  0.056424709   -3.2715226    1.4754196   387223 
 4945000    0.8668653   -3.2721118   -1.7976343  0.050036404   -3.2721118    1.4744774   387194 
 4946000    0.8660251   -3.2700806   -1.7970513  0.052513921   -3.2700806    1.4730293   387199 
 4947000   0.86768152   -3.2726111   -1.7965929  0.049668644   -3.2726111    1.4760183   387154 
 4948000   0.86665103   -3.2705566   -1.7963256  0.050232128   -3.2705566     1.474231   387163 
 4949000   0.86711729   -3.2726817   -1.7976309  0.048866497   -3.2726817    1.4750508   387156 
 4950000    0.8673543   -3.2721244   -1.7966628  0.051821319   -3.2721244    1.4754616   387154 
 4951000   0.86652733   -3.2719627   -1.7977518  0.045966959   -3.2719627     1.474211   387113 
 4952000   0.86864989   -3.2741041   -1.7961904  0.050388725   -3.2741041    1.4779137   387089 
 4953000   0.86708044   -3.2724057   -1.7968801  0.052545521   -3.2724057    1.4755255   387015 
 4954000   0.86734125    -3.272162    -1.796204  0.051467604    -3.272162    1.4759579   387018 
 4955000   0.86751321   -3.2735948   -1.7973633  0.046245994   -3.2735948    1.4762314   387023 
 4956000   0.86767453    -3.273361   -1.7968665  0.051638268    -3.273361    1.4764945   387026 
 4957000   0.86697896   -3.2736816   -1.7981496  0.049354478   -3.2736816     1.475532   386968 
 4958000   0.86765905    -3.275925   -1.7993423   0.04860562    -3.275925    1.4765826   386996 
 4959000   0.86762161   -3.2741748   -1.7974689  0.050095804   -3.2741748    1.4767059   386947 
 4960000   0.86763477   -3.2743848   -1.7974656  0.052688794   -3.2743848    1.4769191   386897 
 4961000   0.86581329   -3.2714952   -1.7976538  0.053483868   -3.2714952    1.4738414   386891 
 4962000   0.86846663   -3.2756918   -1.7972152  0.051442715   -3.2756918    1.4784766   386860 
 4963000   0.86510154   -3.2701609   -1.7972837  0.053218808   -3.2701609    1.4728773   386826 
 4964000   0.86683651   -3.2724571   -1.7965038  0.057962118   -3.2724571    1.4759532   386794 
 4965000   0.86678105   -3.2734183   -1.7974831   0.05162716   -3.2734183    1.4759351   386774 
 4966000    0.8656394    -3.270738   -1.7965792  0.048392075    -3.270738    1.4741588   386730 
 4967000   0.86602154    -3.270829    -1.796088  0.049003604    -3.270829     1.474741   386748 
 4968000   0.86648395   -3.2710719   -1.7954481   0.04939071   -3.2710719    1.4756238   386723 
 4969000   0.86769873   -3.2742307   -1.7964617  0.050042428   -3.2742307     1.477769   386703 
 4970000   0.86664296    -3.271653   -1.7955714  0.048657524    -3.271653    1.4760816   386674 
 4971000   0.86841649   -3.2730588   -1.7941248  0.049441052   -3.2730588    1.4789341   386718 
 4972000   0.86812282   -3.2744631   -1.7960483  0.049151733   -3.2744631    1.4784148   386723 
 4973000   0.86766254   -3.2741731   -1.7963625   0.05126834   -3.2741731    1.4778105   386676 
 4974000   0.86475657   -3.2691476    -1.796279  0.051494861   -3.2691476    1.4728687   386674 
 4975000   0.86607094   -3.2703238   -1.7953118  0.047756554   -3.2703238     1.475012   386699 
 4976000   0.86680118   -3.2711455   -1.7947028  0.047704362   -3.2711455    1.4764428   386650 
 4977000   0.86450153   -3.2681567   -1.7957301  0.046330556   -3.2681567    1.4724267   386676 
 4978000   0.86550059   -3.2696749   -1.7955351  0.048761041   -3.2696749    1.4741397   386673 
 4979000   0.86599949   -3.2695992   -1.7944991  0.048084624   -3.2695992    1.4751001   386644 
 4980000   0.86709441   -3.2714312    -1.794466  0.051319522   -3.2714312    1.4769651   386644 
 4981000   0.86741943   -3.2707785   -1.7932636  0.050546425   -3.2707785    1.4775149   386645 
 4982000   0.86615379   -3.2688942   -1.7934893  0.052061431   -3.2688942    1.4754049   386633 
 4983000   0.86590881   -3.2688134   -1.7937037  0.049406249   -3.2688134    1.4751097   386601 
 4984000   0.86537447   -3.2702851    -1.796059  0.048310269   -3.2702851    1.4742261   386594 
 4985000   0.86624376   -3.2712147    -1.795416  0.048515496   -3.2712147    1.4757986   386570 
 4986000   0.86697577    -3.270401   -1.7932712  0.054876191    -3.270401    1.4771298   386548 
 4987000   0.86648595    -3.271008   -1.7946937   0.04973119    -3.271008    1.4763144   386543 
 4988000   0.86797049   -3.2730784   -1.7941773  0.052733494   -3.2730784    1.4789011   386528 
 4989000   0.86964516   -3.2740613    -1.792303  0.048924991   -3.2740613    1.4817583   386527 
 4990000   0.86867145   -3.2732742   -1.7931558  0.053671378   -3.2732742    1.4801184   386522 
 4991000   0.86776402   -3.2716098   -1.7931025   0.04924619   -3.2716098    1.4785072   386539 
 4992000   0.86692037   -3.2709063   -1.7939244  0.050492258   -3.2709063    1.4769819   386562 
 4993000   0.86562453   -3.2685697   -1.7938413  0.050398081   -3.2685697    1.4747284   386574 
 4994000   0.86609867   -3.2690507   -1.7934038  0.050812967   -3.2690507    1.4756469   386545 
 4995000   0.86697155   -3.2704025   -1.7933219  0.050912954   -3.2704025    1.4770806   386559 
 4996000    0.8663287   -3.2701532   -1.7940304  0.055298864   -3.2701532    1.4761228   386523 
 4997000   0.86705429   -3.2712416   -1.7937525  0.047112991   -3.2712416    1.4774891   386489 
 4998000   0.86776889   -3.2705839   -1.7917547  0.055597488   -3.2705839    1.4788292   386457 
 4999000    0.8694968   -3.2746147   -1.7928791  0.048999107   -3.2746147    1.4817356   386467 
 5000000    0.8677988   -3.2712045   -1.7921329   0.05166702   -3.2712045    1.4790716   386407 
 5001000   0.86808055   -3.2732675    -1.793528  0.054151956   -3.2732675    1.4797394   386358 
 5002000   0.86745244   -3.2725109   -1.7936622  0.051400669   -3.2725109    1.4788487   386311 
 5003000   0.86695503   -3.2713698   -1.7933424  0.046414157   -3.2713698    1.4780274   386304 
 5004000   0.86499179   -3.2684425   -1.7936017  0.054124983   -3.2684425    1.4748408   386262 
 5005000   0.86455276   -3.2679625   -1.7936566  0.054724329   -3.2679625    1.4743059   386206 
 5006000   0.86523599   -3.2689866   -1.7935614   0.05317247   -3.2689866    1.4754252   386218 
 5007000   0.86622757   -3.2730119   -1.7956663  0.051532751   -3.2730119    1.4773456   386158 
 5008000   0.86468735   -3.2701075   -1.7953468  0.050991549   -3.2701075    1.4747608   386147 
 5009000   0.86602375   -3.2726575   -1.7954032  0.046807875   -3.2726575    1.4772543   386091 
 5010000   0.86401905   -3.2705659   -1.7967732  0.051897547   -3.2705659    1.4737927   386102 
 5011000   0.86460749   -3.2731187   -1.7981924  0.051572183   -3.2731187    1.4749263   386068 
 5012000   0.86415914   -3.2730454   -1.7988458  0.047376475   -3.2730454    1.4741996   386058 
 5013000   0.86521412   -3.2747959   -1.7986971  0.049554704   -3.2747959    1.4760988   386032 
 5014000   0.86397349   -3.2719445   -1.7979813  0.051818555   -3.2719445    1.4739631   386037 
 5015000   0.86474241   -3.2724269   -1.7970755  0.045489435   -3.2724269    1.4753514   386017 
 5016000   0.86294855   -3.2712669   -1.7988425  0.052473815   -3.2712669    1.4724243   385982 
 5017000    0.8645482   -3.2727184   -1.7975264  0.051600697   -3.2727184     1.475192   385972 
 5018000   0.86681184   -3.2776754   -1.7985098  0.049853426   -3.2776754    1.4791656   385943 
 5019000   0.86652772   -3.2769474   -1.7982436   0.05017869   -3.2769474    1.4787037   385937 
 5020000   0.86471619   -3.2741099    -1.798509  0.055325869   -3.2741099     1.475601   385940 
 5021000   0.86494207   -3.2742419   -1.7980222  0.051598724   -3.2742419    1.4762197   385879 
 5022000   0.86594085   -3.2752561   -1.7974542  0.053795345   -3.2752561    1.4778018   385911 
 5023000   0.86655336   -3.2747187   -1.7959367  0.055188485   -3.2747187     1.478782   385928 
 5024000   0.86779456   -3.2766994   -1.7956957  0.056952741   -3.2766994    1.4810037   385901 
 5025000   0.86704254   -3.2784397   -1.7985737  0.052462787   -3.2784397     1.479866   385863 
 5026000   0.86396919   -3.2734196   -1.7988221  0.050104222   -3.2734196    1.4745975   385869 
 5027000   0.86453572   -3.2751035   -1.7995964  0.050132278   -3.2751035    1.4755071   385884 
 5028000   0.86406014   -3.2748236    -1.800132  0.047488609   -3.2748236    1.4746916   385885 
 5029000   0.86345736   -3.2737115    -1.800167  0.055698212   -3.2737115    1.4735445   385916 
 5030000   0.86481273   -3.2772237   -1.8012744  0.047235513   -3.2772237    1.4759493   385892 
 5031000   0.86331613   -3.2738246   -1.8003226  0.048862679   -3.2738246     1.473502   385864 
 5032000   0.86468242   -3.2771578   -1.8012129  0.047055201   -3.2771578    1.4759449   385835 
 5033000   0.86357915   -3.2742608   -1.8001189   0.04751979   -3.2742608    1.4741419   385814 
 5034000   0.86378827   -3.2742877   -1.7998461  0.050059437   -3.2742877    1.4744416   385829 
 5035000   0.86392775   -3.2749582   -1.8001907  0.050706013   -3.2749582    1.4747676   385806 
 5036000   0.86458077   -3.2756218   -1.7998084  0.054128988   -3.2756218    1.4758135   385824 
 5037000   0.86484847   -3.2761899   -1.8000342  0.049878513   -3.2761899    1.4761556   385854 
 5038000   0.86513163   -3.2772154   -1.8004884  0.055768746   -3.2772154     1.476727   385831 
 5039000   0.86399626   -3.2755311   -1.8007728  0.053067315   -3.2755311    1.4747584   385839 
 5040000   0.86433337   -3.2750932   -1.7998474  0.056295624   -3.2750932    1.4752459   385862 
 5041000    0.8648612    -3.274472    -1.798417  0.053373376    -3.274472    1.4760549   385886 
 5042000   0.86473101   -3.2738447   -1.7978666  0.054965997   -3.2738447    1.4759781   385848 
 5043000   0.86467324   -3.2762821   -1.8002802  0.048970818   -3.2762821    1.4760019   385816 
 5044000   0.86383006   -3.2737259   -1.7991863  0.053320936   -3.2737259    1.4745397   385822 
 5045000   0.86418511   -3.2743823   -1.7991257  0.054913372   -3.2743823    1.4752566   385793 
 5046000   0.86265481   -3.2715893   -1.7989451  0.046661317   -3.2715893    1.4726442   385793 
 5047000   0.86436514    -3.273691   -1.7981271  0.054346971    -3.273691    1.4755639   385793 
 5048000    0.8646532   -3.2726675   -1.7966501   0.05564062   -3.2726675    1.4760174   385803 
 5049000   0.86523477   -3.2746932   -1.7976217  0.052841704   -3.2746932    1.4770715   385787 
 5050000   0.86392648   -3.2717436   -1.7969591  0.053893986   -3.2717436    1.4747845   385801 
 5051000   0.86359511   -3.2715464    -1.797297  0.053101867   -3.2715464    1.4742494   385793 
 5052000   0.86211464   -3.2691419   -1.7974656  0.048882634   -3.2691419    1.4716763   385805 
 5053000   0.86258741   -3.2683922   -1.7958248  0.044387512   -3.2683922    1.4725673   385783 
 5054000   0.86314853   -3.2681242   -1.7946181  0.047855368   -3.2681242    1.4735062   385788 
 5055000   0.86312504   -3.2680821   -1.7943563  0.051437426   -3.2680821    1.4737258   385720 
 5056000   0.86285587   -3.2679928   -1.7946807  0.050500296   -3.2679928    1.4733121   385708 
 5057000   0.86239178   -3.2686822   -1.7962198  0.048283346   -3.2686822    1.4724624   385723 
 5058000   0.86318667   -3.2684121   -1.7945238  0.052141885   -3.2684121    1.4738884   385705 
 5059000   0.86299457   -3.2665785   -1.7928997  0.052959852   -3.2665785    1.4736788   385674 
 5060000   0.86265932   -3.2649842   -1.7917518  0.051482144   -3.2649842    1.4732324   385641 
 5061000   0.86420969   -3.2685021   -1.7926068  0.046431254   -3.2685021    1.4758954   385637 
 5062000    0.8627461   -3.2673173   -1.7939902  0.047976642   -3.2673173    1.4733271   385655 
 5063000   0.86180124   -3.2660637   -1.7943922  0.048385497   -3.2660637    1.4716715   385666 
 5064000   0.86311845   -3.2682603   -1.7944273  0.044960784   -3.2682603     1.473833   385689 
 5065000   0.86338415   -3.2684691    -1.794041  0.045878006   -3.2684691    1.4744282   385652 
 5066000   0.86271565   -3.2667609    -1.793505  0.052396528   -3.2667609     1.473256   385660 
 5067000   0.86380559   -3.2678675   -1.7928076  0.050786034   -3.2678675    1.4750599   385675 
 5068000   0.86308683   -3.2664556   -1.7926116  0.054191398   -3.2664556     1.473844   385672 
 5069000   0.86444745   -3.2672494   -1.7908752  0.051530723   -3.2672494    1.4763741   385618 
 5070000   0.86477019   -3.2688102   -1.7917469  0.051725614   -3.2688102    1.4770632   385582 
 5071000   0.86488457   -3.2700486   -1.7927057  0.052709754   -3.2700486    1.4773429   385560 
 5072000   0.86663848   -3.2715395   -1.7911469  0.053995349   -3.2715395    1.4803926   385546 
 5073000    0.8657268    -3.270606   -1.7917209  0.056723531    -3.270606    1.4788851   385533 
 5074000   0.86510961   -3.2720274   -1.7942234   0.05394308   -3.2720274     1.477804   385540 
 5075000   0.86493394   -3.2728908   -1.7952643  0.045678467   -3.2728908    1.4776265   385508 
 5076000   0.86406396   -3.2706493    -1.794352  0.051348059   -3.2706493    1.4762973   385467 
 5077000   0.86473764   -3.2707064   -1.7933233  0.049274385   -3.2707064    1.4773831   385484 
 5078000   0.86487075   -3.2722766   -1.7945395  0.050753866   -3.2722766    1.4777371   385451 
 5079000   0.86325744   -3.2715103   -1.7964073  0.051507991   -3.2715103     1.475103   385419 
 5080000   0.86306073   -3.2726536    -1.797772  0.052867386   -3.2726536    1.4748816   385389 
 5081000   0.86343372   -3.2724417   -1.7969495  0.048647315   -3.2724417    1.4754923   385396 
 5082000    0.8643254   -3.2744862   -1.7973245  0.047543206   -3.2744862    1.4771617   385358 
 5083000   0.86393461    -3.272619    -1.796221  0.053416608    -3.272619     1.476398   385383 
 5084000   0.86313065   -3.2719954   -1.7967033  0.055059153   -3.2719954    1.4752921   385313 
 5085000   0.86302003   -3.2726089   -1.7974676  0.053733971   -3.2726089    1.4751413   385303 
 5086000   0.86287153    -3.273251   -1.7982295  0.054364421    -3.273251    1.4750214   385268 
 5087000    0.8610656   -3.2716142   -1.7995958  0.051712771   -3.2716142    1.4720184   385246 
 5088000   0.86244147   -3.2722764   -1.7978485  0.050414964   -3.2722764    1.4744279   385231 
 5089000   0.86221339   -3.2716461    -1.797677  0.051115268   -3.2716461    1.4739691   385249 
 5090000   0.86302323   -3.2732409   -1.7977993    0.0495652   -3.2732409    1.4754416   385226 
 5091000   0.86280821   -3.2726622   -1.7976074  0.045613125   -3.2726622    1.4750549   385231 
 5092000   0.86289082   -3.2727262   -1.7974612  0.052769491   -3.2727262     1.475265   385213 
 5093000   0.86325129   -3.2730997   -1.7972682   0.04803611   -3.2730997    1.4758315   385226 
 5094000   0.86392853   -3.2745885   -1.7973768  0.057435223   -3.2745885    1.4772117   385168 
 5095000   0.86490394   -3.2745854   -1.7957366  0.055328892   -3.2745854    1.4788488   385176 
 5096000   0.86273443   -3.2707375    -1.795625  0.056581085   -3.2707375    1.4751125   385183 
 5097000   0.86468086   -3.2727065   -1.7942429  0.052297758   -3.2727065    1.4784636   385177 
 5098000   0.86417946   -3.2720042   -1.7945015  0.053630487   -3.2720042    1.4775027   385204 
 5099000   0.86307518   -3.2712733   -1.7956318  0.052117693   -3.2712733    1.4756415   385197 
 5100000    0.8624268   -3.2706478   -1.7960191  0.056635277   -3.2706478    1.4746287   385172 
 5101000   0.86320501    -3.271996   -1.7958872  0.051486424    -3.271996    1.4761087   385133 
 5102000    0.8620087   -3.2700481   -1.7962645  0.050185583   -3.2700481    1.4737837   385206 
 5103000   0.86114938   -3.2696148   -1.7973195    0.0486129   -3.2696148    1.4722954   385211 
 5104000   0.86244332   -3.2708644   -1.7963376  0.048483331   -3.2708644    1.4745267   385206 
 5105000   0.86114691   -3.2690218   -1.7967879  0.052213705   -3.2690218    1.4722338   385226 
 5106000    0.8615717   -3.2696954   -1.7965059   0.04927872   -3.2696954    1.4731895   385166 
 5107000   0.86277855   -3.2708924   -1.7955397  0.044892621   -3.2708924    1.4753527   385140 
 5108000   0.86381599   -3.2713798   -1.7943068  0.052683243   -3.2713798     1.477073   385154 
 5109000   0.86272618   -3.2703345   -1.7951289  0.050578248   -3.2703345    1.4752057   385155 
 5110000   0.86224351    -3.270285     -1.79592  0.053668857    -3.270285     1.474365   385159 
 5111000   0.86084001   -3.2694113   -1.7973124  0.050441636   -3.2694113    1.4720989   385124 
 5112000    0.8609114   -3.2703089   -1.7979311  0.047961137   -3.2703089    1.4723777   385083 
 5113000   0.86217846   -3.2718398    -1.797115   0.04861959   -3.2718398    1.4747247   385036 
 5114000   0.86221151   -3.2726394   -1.7975746  0.044623305   -3.2726394    1.4750648   384962 
 5115000   0.86213183   -3.2739083   -1.7988535  0.047975108   -3.2739083    1.4750549   384929 
 5116000   0.86236168   -3.2742385   -1.7987635   0.04589074   -3.2742385     1.475475   384922 
 5117000   0.86290091   -3.2744379   -1.7980442  0.050526728   -3.2744379    1.4763937   384923 
 5118000   0.86217928   -3.2722141   -1.7970205  0.048992878   -3.2722141    1.4751936   384914 
 5119000   0.86400953   -3.2752006    -1.797056  0.051533977   -3.2752006    1.4781446   384961 
 5120000   0.86391236   -3.2746786   -1.7967002  0.050514905   -3.2746786    1.4779784   384961 
 5121000   0.86317982   -3.2750133    -1.798081  0.049549344   -3.2750133    1.4769323   384907 
 5122000   0.86283213   -3.2741274   -1.7976749  0.049808382   -3.2741274    1.4764525   384877 
 5123000   0.86326791   -3.2749622   -1.7977678  0.050318283   -3.2749622    1.4771944   384878 
 5124000   0.86296574   -3.2745881   -1.7977573   0.04855562   -3.2745881    1.4768308   384838 
 5125000    0.8621338    -3.273712   -1.7983586  0.059171704    -3.273712    1.4753534   384852 
 5126000   0.86271019   -3.2736398   -1.7972924  0.056356871   -3.2736398    1.4763474   384850 
 5127000   0.86156377   -3.2720024   -1.7976589  0.051939128   -3.2720024    1.4743434   384861 
 5128000    0.8635715   -3.2753287   -1.7974574  0.052447139   -3.2753287    1.4778713   384837 
 5129000   0.86331665   -3.2758614   -1.7984032  0.050395228   -3.2758614    1.4774582   384831 
 5130000   0.86290365   -3.2745629   -1.7977348  0.056606253   -3.2745629    1.4768281   384811 
 5131000   0.86184915   -3.2729907   -1.7979328  0.053991529   -3.2729907    1.4750579   384802 
 5132000   0.86354833   -3.2746673    -1.796732  0.052130404   -3.2746673    1.4779353   384810 
 5133000   0.86371876   -3.2733949   -1.7952255  0.054210201   -3.2733949    1.4781694   384825 
 5134000    0.8639762    -3.274103   -1.7952394  0.050289991    -3.274103    1.4788636   384759 
 5135000   0.86334523   -3.2742436   -1.7965253  0.052886864   -3.2742436    1.4777183   384776 
 5136000   0.86364215   -3.2735813    -1.795228  0.052298275   -3.2735813    1.4783533   384743 
 5137000   0.86209354   -3.2701489   -1.7945807  0.047829476   -3.2701489    1.4755682   384778 
 5138000   0.86171957   -3.2692671   -1.7942087  0.050227817   -3.2692671    1.4750585   384744 
 5139000   0.86297268   -3.2714911   -1.7943452  0.051700307   -3.2714911    1.4771459   384759 
 5140000   0.86103873   -3.2703141   -1.7964747  0.053010216   -3.2703141    1.4738394   384758 
 5141000   0.86153765   -3.2701819   -1.7953314  0.052304774   -3.2701819    1.4748506   384717 
 5142000   0.86087689   -3.2696028   -1.7957876  0.052147486   -3.2696028    1.4738152   384692 
 5143000   0.86039087   -3.2693376   -1.7962587   0.04988853   -3.2693376    1.4730789   384667 
 5144000   0.85978321   -3.2690038   -1.7970227   0.04591277   -3.2690038    1.4719811   384682 
 5145000   0.86073524   -3.2697205   -1.7959984  0.049534644   -3.2697205    1.4737221   384653 
 5146000   0.85959002   -3.2684716   -1.7967027  0.050136192   -3.2684716    1.4717689   384651 
 5147000   0.86003675   -3.2689768   -1.7963243  0.049541404   -3.2689768    1.4726525   384620 
 5148000   0.86016438   -3.2686365   -1.7956276  0.046417021   -3.2686365    1.4730089   384584 
 5149000   0.86070166   -3.2693991   -1.7954548  0.049007708   -3.2693991    1.4739443   384580 
 5150000   0.86047121    -3.269614    -1.796026  0.054386317    -3.269614     1.473588   384570 
 5151000   0.86110706   -3.2708458   -1.7960615  0.054147925   -3.2708458    1.4747843   384542 
 5152000   0.86023983   -3.2691303   -1.7957547  0.051133983   -3.2691303    1.4733756   384522 
 5153000   0.86104118   -3.2714284   -1.7964731  0.047707779   -3.2714284    1.4749553   384468 
 5154000   0.86078056   -3.2709212   -1.7963625  0.052787275   -3.2709212    1.4745587   384455 
 5155000   0.85984595   -3.2699296   -1.7968915  0.054671081   -3.2699296    1.4730381   384434 
 5156000   0.85950657   -3.2692051   -1.7967369  0.051706881   -3.2692051    1.4724682   384431 
 5157000   0.86219771    -3.273019   -1.7959059  0.049753135    -3.273019    1.4771132   384422 
 5158000   0.86113253   -3.2706446   -1.7953371  0.054641303   -3.2706446    1.4753075   384417 
 5159000   0.86296279   -3.2737012   -1.7951735  0.053481372   -3.2737012    1.4785277   384395 
 5160000    0.8636054   -3.2734097   -1.7939272  0.053820329   -3.2734097    1.4794825   384433 
 5161000   0.86310309   -3.2722777   -1.7935596  0.055464732   -3.2722777    1.4787181   384408 
 5162000   0.86486503   -3.2743138    -1.792577   0.05217866   -3.2743138    1.4817368   384408 
 5163000   0.86367437   -3.2718055   -1.7921395  0.057729072   -3.2718055     1.479666   384416 
 5164000    0.8632889   -3.2727122   -1.7937835  0.053946644   -3.2727122    1.4789287   384436 
 5165000   0.86186482   -3.2708088   -1.7942161  0.052090574   -3.2708088    1.4765928   384409 
 5166000   0.86216577   -3.2710283   -1.7939776   0.05523836   -3.2710283    1.4770507   384424 
 5167000   0.86097489   -3.2688057   -1.7937184  0.053691704   -3.2688057    1.4750873   384404 
 5168000   0.86007751   -3.2693413   -1.7956765  0.051250237   -3.2693413    1.4736648   384374 
 5169000   0.86122871    -3.268475   -1.7928031  0.050447907    -3.268475    1.4756719   384365 
 5170000   0.86009017   -3.2681588   -1.7943917  0.051691791   -3.2681588     1.473767   384353 
 5171000   0.86091498   -3.2696088   -1.7942864  0.052865465   -3.2696088    1.4753224   384316 
 5172000   0.86058146   -3.2681718   -1.7931024  0.050209068   -3.2681718    1.4750694   384233 
 5173000   0.86035529   -3.2684271   -1.7936762  0.049730408   -3.2684271    1.4747508   384215 
 5174000   0.85863632   -3.2661082   -1.7942924  0.052420283   -3.2661082    1.4718158   384212 
 5175000   0.85895493   -3.2667341   -1.7942495  0.049234335   -3.2667341    1.4724846   384180 
 5176000   0.85932892   -3.2656037   -1.7923783  0.053736036   -3.2656037    1.4732254   384154 
 5177000   0.85812606   -3.2654154    -1.794279  0.053845583   -3.2654154    1.4711364   384161 
 5178000   0.85880827   -3.2668962   -1.7945788  0.049989227   -3.2668962    1.4723175   384158 
 5179000   0.85997795   -3.2676281   -1.7933015  0.050749795   -3.2676281    1.4743266   384157 
 5180000   0.85984727   -3.2670427   -1.7929862  0.049107844   -3.2670427    1.4740565   384169 
 5181000   0.85982919   -3.2661841   -1.7920818  0.051819496   -3.2661841    1.4741022   384149 
 5182000   0.85983506    -3.266356    -1.792282  0.052277133    -3.266356     1.474074   384159 
 5183000   0.85915018   -3.2642872   -1.7912608  0.048601942   -3.2642872    1.4730263   384126 
 5184000   0.86090971   -3.2670943   -1.7911165  0.051827269   -3.2670943    1.4759778   384143 
 5185000   0.85932074   -3.2650126   -1.7917782  0.050320529   -3.2650126    1.4732344   384148 
 5186000   0.85899552   -3.2634903   -1.7907866  0.047505421   -3.2634903    1.4727037   384141 
 5187000    0.8601988   -3.2649858   -1.7900579  0.050882518   -3.2649858    1.4749279   384099 
 5188000   0.86046521   -3.2654733    -1.789958  0.046443784   -3.2654733    1.4755153   384065 
 5189000   0.86221315   -3.2676526    -1.789036  0.049441492   -3.2676526    1.4786166   384038 
 5190000   0.86096841   -3.2666025   -1.7901359  0.051166044   -3.2666025    1.4764666   384042 
 5191000   0.86105884   -3.2659031   -1.7892392  0.051513871   -3.2659031     1.476664   384031 
 5192000   0.85960755   -3.2632955   -1.7891856  0.050160464   -3.2632955    1.4741098   384048 
 5193000    0.8590297   -3.2633821   -1.7903093  0.051400999   -3.2633821    1.4730729   384060 
 5194000   0.85955949   -3.2653003   -1.7913228  0.043986556   -3.2653003    1.4739775   384061 
 5195000   0.85925308   -3.2643061   -1.7907773   0.04696594   -3.2643061    1.4735288   384041 
 5196000   0.85779952   -3.2631262   -1.7918717  0.047756518   -3.2631262    1.4712545   383984 
 5197000   0.85956469   -3.2646721   -1.7904055  0.048110688   -3.2646721    1.4742667   383988 
 5198000   0.85945551   -3.2642582   -1.7902939  0.047317788   -3.2642582    1.4739643   384018 
 5199000   0.86032427   -3.2668532   -1.7911109   0.04712088   -3.2668532    1.4757424   383943 
 5200000   0.85976976    -3.266197   -1.7913751  0.048512852    -3.266197    1.4748219   383935 
 5201000    0.8606001   -3.2668672   -1.7905363  0.045741774   -3.2668672    1.4763309   383913 
 5202000   0.86011124    -3.263009   -1.7876859  0.047202015    -3.263009    1.4753232   383957 
 5203000   0.85844536    -3.261618   -1.7889988  0.051808826    -3.261618    1.4726192   383917 
 5204000   0.85957086   -3.2634268     -1.78885  0.053143037   -3.2634268    1.4745768   383910 
 5205000   0.85924504   -3.2647818   -1.7906718  0.048765928   -3.2647818      1.47411   383886 
 5206000   0.85902675   -3.2659989   -1.7920522  0.051489554   -3.2659989    1.4739467   383831 
 5207000   0.85999359   -3.2639397   -1.7882225  0.053199056   -3.2639397    1.4757171   383802 
 5208000   0.86023336   -3.2658574   -1.7895789  0.053189163   -3.2658574    1.4762786   383763 
 5209000    0.8600437   -3.2672789   -1.7911373  0.049158266   -3.2672789    1.4761416   383714 
 5210000   0.86010356   -3.2662885   -1.7900442  0.049895264   -3.2662885    1.4762443   383714 
 5211000   0.86136729   -3.2682377   -1.7897628  0.049591847   -3.2682377     1.478475   383698 
 5212000   0.85977054   -3.2668193   -1.7909542  0.045934581   -3.2668193     1.475865   383664 
 5213000   0.85951719    -3.266837   -1.7913377  0.050774778    -3.266837    1.4754994   383646 
 5214000   0.85730701   -3.2631023   -1.7913434  0.050173219   -3.2631023    1.4717589   383632 
 5215000   0.86073911    -3.267184   -1.7896255  0.051603057    -3.267184    1.4775585   383656 
 5216000   0.85952397   -3.2668192   -1.7912159  0.051444743   -3.2668192    1.4756033   383622 
 5217000   0.85857637   -3.2662947   -1.7922606  0.051119198   -3.2662947    1.4740341   383607 
 5218000   0.85871343   -3.2645172   -1.7900902  0.049443317   -3.2645172     1.474427   383566 
 5219000    0.8593207   -3.2644416   -1.7892757  0.047981874   -3.2644416    1.4751659   383645 
 5220000   0.85785551    -3.263237   -1.7903522  0.047841936    -3.263237    1.4728848   383584 
 5221000   0.86041407   -3.2678379   -1.7904793  0.045856404   -3.2678379    1.4773586   383563 
 5222000   0.85834359   -3.2642461   -1.7902427  0.048059533   -3.2642461    1.4740034   383511 
 5223000    0.8593862   -3.2650847   -1.7891908  0.057497405   -3.2650847    1.4758939   383485 
 5224000   0.86016585   -3.2660708   -1.7889921  0.048841523   -3.2660708    1.4770788   383525 
 5225000    0.8598739   -3.2632025   -1.7866366  0.057157075   -3.2632025    1.4765659   383528 
 5226000   0.86003017   -3.2653487   -1.7883798  0.052335365   -3.2653487     1.476969   383493 
 5227000   0.86033373   -3.2660574   -1.7884207  0.056326433   -3.2660574    1.4776367   383455 
 5228000   0.85977525   -3.2663595   -1.7896281  0.049859192   -3.2663595    1.4767314   383441 
 5229000   0.85906704   -3.2650887   -1.7896236   0.05302158   -3.2650887     1.475465   383454 
 5230000   0.85867786   -3.2660966   -1.7911308  0.048198548   -3.2660966    1.4749658   383410 
 5231000   0.85909878   -3.2641851     -1.78845  0.045668247   -3.2641851    1.4757351   383398 
 5232000    0.8591025   -3.2638391   -1.7881169  0.043892226   -3.2638391    1.4757222   383403 
 5233000   0.85726291   -3.2603914   -1.7878714   0.04816642   -3.2603914      1.47252   383414 
 5234000   0.85837005   -3.2620241   -1.7875024  0.055931975   -3.2620241    1.4745217   383388 
 5235000   0.85931131   -3.2645142   -1.7882678   0.05124895   -3.2645142    1.4762464   383360 
 5236000   0.86067438   -3.2661295   -1.7875259  0.049944235   -3.2661295    1.4786036   383356 
 5237000   0.86117369   -3.2665712   -1.7872294  0.052214809   -3.2665712    1.4793417   383387 
 5238000   0.85872498   -3.2627721   -1.7875714  0.052997341   -3.2627721    1.4752007   383370 
 5239000   0.85969582   -3.2651337   -1.7882228  0.048173668   -3.2651337    1.4769109   383359 
 5240000   0.86008408   -3.2651569   -1.7874325  0.048481569   -3.2651569    1.4777243   383321 
 5241000    0.8595154   -3.2630792   -1.7863473  0.053036576   -3.2630792    1.4767319   383325 
 5242000   0.85892305   -3.2630937   -1.7872524  0.048653654   -3.2630937    1.4758412   383292 
 5243000   0.85813599   -3.2618209   -1.7871704  0.049268896   -3.2618209    1.4746504   383250 
 5244000   0.85848072   -3.2635508   -1.7883465  0.048437286   -3.2635508    1.4752043   383260 
 5245000   0.85892471   -3.2642454   -1.7882204  0.050596126   -3.2642454    1.4760251   383245 
 5246000    0.8590661   -3.2631172   -1.7866565  0.051213057   -3.2631172    1.4764607   383195 
 5247000   0.85954805   -3.2637057   -1.7864399  0.053769772   -3.2637057    1.4772658   383201 
 5248000   0.85991449   -3.2637493    -1.785846  0.052644499   -3.2637493    1.4779033   383199 
 5249000   0.86091672   -3.2650219   -1.7853844  0.054302703   -3.2650219    1.4796374   383196 
 5250000    0.8602045   -3.2636794   -1.7851156  0.055435325   -3.2636794    1.4785638   383157 
 5251000   0.86001728   -3.2634137   -1.7850134  0.049797933   -3.2634137    1.4784002   383116 
 5252000   0.85843426   -3.2617184   -1.7861934  0.054961582   -3.2617184    1.4755249   383156 
 5253000   0.85958676   -3.2633174   -1.7859696  0.048684453   -3.2633174    1.4773478   383197 
 5254000   0.85880075   -3.2625789    -1.786293  0.054604566   -3.2625789    1.4762858   383122 
 5255000   0.85893854   -3.2611142   -1.7845646  0.052699231   -3.2611142    1.4765497   383115 
 5256000   0.85937931   -3.2619318   -1.7845936  0.050787483   -3.2619318    1.4773382   383107 
 5257000   0.85906771   -3.2627569   -1.7859004  0.053245488   -3.2627569    1.4768565   383093 
 5258000   0.85926139   -3.2633165    -1.786046    0.0514685   -3.2633165    1.4772705   383072 
 5259000   0.85900225   -3.2625565    -1.785747   0.04660959   -3.2625565    1.4768095   383076 
 5260000   0.85850537   -3.2593924   -1.7834371  0.050967774   -3.2593924    1.4759553   383076 
 5261000   0.85898134   -3.2617111   -1.7849105  0.047689928   -3.2617111    1.4768006   383069 
 5262000   0.85962377   -3.2624477   -1.7844114   0.04935762   -3.2624477    1.4780363   383035 
 5263000    0.8577749   -3.2604205   -1.7854091  0.049236314   -3.2604205    1.4750113   382995 
 5264000   0.85954804   -3.2634711     -1.78543  0.050150804   -3.2634711    1.4780411   383000 
 5265000   0.85794722     -3.26226   -1.7871642   0.04912899     -3.26226    1.4750958   383050 
 5266000   0.85732841   -3.2601461   -1.7859679  0.049356493   -3.2601461    1.4741781   383012 
 5267000   0.85822905   -3.2616514   -1.7858322  0.045681134   -3.2616514    1.4758193   382988 
 5268000   0.85793512   -3.2598532   -1.7846126  0.052244171   -3.2598532    1.4752406   383007 
 5269000   0.85833329   -3.2588503   -1.7829173  0.052359179   -3.2588503     1.475933   383005 
 5270000   0.85872344   -3.2598386   -1.7831885  0.054030037   -3.2598386    1.4766502   382993 
 5271000   0.85800256   -3.2587997   -1.7834084  0.052061048   -3.2587997    1.4753913   382998 
 5272000   0.86016226   -3.2615981   -1.7825394  0.054557485   -3.2615981    1.4790587   383010 
 5273000   0.85939603    -3.260271   -1.7825337  0.055634708    -3.260271    1.4777373   383011 
 5274000   0.85999285    -3.261653   -1.7828779   0.05059268    -3.261653    1.4787751   383008 
 5275000   0.85964762   -3.2604602   -1.7823289  0.055767507   -3.2604602    1.4781313   383021 
 5276000   0.86013954   -3.2634338   -1.7842095  0.049092462   -3.2634338    1.4792243   382957 
 5277000   0.85928809   -3.2613936    -1.783595  0.050804465   -3.2613936    1.4777986   382947 
 5278000   0.85688759   -3.2583104   -1.7846402  0.049654404   -3.2583104    1.4736702   382947 
 5279000    0.8565039   -3.2576777    -1.784548  0.055943029   -3.2576777    1.4731296   382916 
 5280000   0.85824869   -3.2595784   -1.7832628  0.054635047   -3.2595784    1.4763156   382868 
 5281000   0.85849359   -3.2597686   -1.7829893  0.050793102   -3.2597686    1.4767793   382857 
 5282000   0.85812938   -3.2598485   -1.7836725  0.053896445   -3.2598485    1.4761759   382851 
 5283000   0.85906452   -3.2609927   -1.7831773  0.049787309   -3.2609927    1.4778155   382843 
 5284000   0.85829859   -3.2612909   -1.7848586    0.0541888   -3.2612909    1.4764323   382860 
 5285000   0.85765285   -3.2600599   -1.7846073   0.05101746   -3.2600599    1.4754525   382826 
 5286000    0.8588487   -3.2611345   -1.7836633  0.052679572   -3.2611345    1.4774712   382836 
 5287000   0.85916117   -3.2622387    -1.784145  0.049502758   -3.2622387    1.4780937   382814 
 5288000   0.85777817   -3.2607369   -1.7848875  0.049587228   -3.2607369    1.4758493   382779 
 5289000   0.85794734   -3.2604112   -1.7841667  0.053253355   -3.2604112    1.4762445   382752 
 5290000   0.85769788   -3.2600811   -1.7842388  0.050247554   -3.2600811    1.4758423   382745 
 5291000   0.85656267   -3.2577577   -1.7837378  0.053190265   -3.2577577    1.4740198   382711 
 5292000   0.85896736   -3.2608588   -1.7825348  0.050479384   -3.2608588    1.4783241   382668 
 5293000   0.85648264       -3.256   -1.7820716  0.049892325       -3.256    1.4739283   382699 
 5294000   0.85753577   -3.2578624   -1.7820523  0.051600218   -3.2578624    1.4758101   382681 
 5295000   0.85791777   -3.2574704   -1.7809181  0.053631197   -3.2574704    1.4765524   382659 
 5296000   0.86006634    -3.260996   -1.7806839  0.049858539    -3.260996    1.4803122   382643 
 5297000   0.85822929   -3.2586591    -1.781393  0.053400092   -3.2586591    1.4772661   382613 
 5298000   0.85809896   -3.2598447   -1.7827295  0.052577702   -3.2598447    1.4771151   382594 
 5299000   0.85856405   -3.2606089   -1.7827434  0.048105947   -3.2606089    1.4778655   382607 
 5300000    0.8584379   -3.2593447   -1.7816654  0.054040258   -3.2593447    1.4776793   382599 
 5301000   0.85778447    -3.258595   -1.7820019   0.04809501    -3.258595    1.4765931   382589 
 5302000   0.85836782   -3.2597763   -1.7821674   0.04859692   -3.2597763    1.4776089   382586 
 5303000   0.85906779   -3.2591205   -1.7803221  0.051468845   -3.2591205    1.4787983   382590 
 5304000   0.85815582   -3.2585542   -1.7812214    0.0563962   -3.2585542    1.4773327   382563 
 5305000   0.85795862    -3.257277    -1.780168  0.057674154    -3.257277    1.4771091   382533 
 5306000   0.85706631   -3.2572576   -1.7817465  0.052857877   -3.2572576    1.4755111   382549 
 5307000   0.85870183   -3.2586293   -1.7801595  0.050931718   -3.2586293    1.4784698   382512 
 5308000   0.85792582   -3.2592368   -1.7818714  0.052255607   -3.2592368    1.4773654   382452 
 5309000   0.85738635   -3.2584349   -1.7819135  0.050075066   -3.2584349    1.4765214   382430 
 5310000   0.85716667      -3.2576   -1.7814106  0.049734929      -3.2576    1.4761894   382418 
 5311000   0.85774135   -3.2580037   -1.7807396  0.049507731   -3.2580037    1.4772641   382396 
 5312000   0.85647241   -3.2571519   -1.7822005  0.050272094   -3.2571519    1.4749513   382429 
 5313000   0.85589558   -3.2574461   -1.7833108  0.050606508   -3.2574461    1.4741353   382383 
 5314000    0.8557892     -3.25786   -1.7837962  0.048550427     -3.25786    1.4740639   382354 
 5315000   0.85595448   -3.2579847    -1.783613  0.046413455   -3.2579847    1.4743717   382348 
 5316000   0.85457806   -3.2558266   -1.7838451  0.050621256   -3.2558266    1.4719816   382353 
 5317000   0.85525368   -3.2567799   -1.7834728  0.051115366   -3.2567799    1.4733071   382311 
 5318000    0.8565293   -3.2590312   -1.7835459  0.048859201   -3.2590312    1.4754853   382316 
 5319000   0.85742367   -3.2605755   -1.7834916  0.050673786   -3.2605755    1.4770839   382301 
 5320000   0.85727585   -3.2589988   -1.7821309  0.054856871   -3.2589988    1.4768679   382291 
 5321000   0.85701996   -3.2605666   -1.7840275  0.055693436   -3.2605666    1.4765391   382262 
 5322000   0.85690554   -3.2589268   -1.7826235  0.050947144   -3.2589268    1.4763033   382272 
 5323000   0.85693961   -3.2580816   -1.7815767  0.056866402   -3.2580816    1.4765049   382235 
 5324000   0.85719893   -3.2592994   -1.7822046  0.052155524   -3.2592994    1.4770947   382198 
 5325000   0.85615183   -3.2598129   -1.7844337  0.048734004   -3.2598129    1.4753792   382175 
 5326000   0.85728592   -3.2605956   -1.7832002  0.049782533   -3.2605956    1.4773954   382159 
 5327000   0.85730437   -3.2616949   -1.7841092  0.053439817   -3.2616949    1.4775857   382118 
 5328000    0.8560142   -3.2618626   -1.7864813  0.047159614   -3.2618626    1.4753813   382113 
 5329000   0.85686471   -3.2629523    -1.785935  0.050558268   -3.2629523    1.4770173   382069 
 5330000   0.85739859   -3.2622554   -1.7842017  0.046443494   -3.2622554    1.4780536   382039 
 5331000   0.85689912   -3.2614053   -1.7840812  0.051704564   -3.2614053    1.4773241   382005 
 5332000   0.85739237   -3.2623429   -1.7841104  0.051807554   -3.2623429    1.4782325   381990 
 5333000   0.85674641   -3.2621736   -1.7848962  0.050937418   -3.2621736    1.4772774   381949 
 5334000   0.85579668   -3.2600961   -1.7845413  0.054058768   -3.2600961    1.4755548   381971 
 5335000   0.85618134   -3.2621618   -1.7858665  0.051131785   -3.2621618    1.4762953   381951 
 5336000   0.85643138    -3.262726   -1.7858527  0.057805848    -3.262726    1.4768734   381913 
 5337000    0.8570988   -3.2625502    -1.784522  0.051202752   -3.2625502    1.4780282   381912 
 5338000   0.85638199    -3.260276   -1.7833872  0.050960755    -3.260276    1.4768888   381887 
 5339000   0.85585199   -3.2603614    -1.784464  0.051755801   -3.2603614    1.4758974   381907 
 5340000   0.85563494   -3.2608192   -1.7853965  0.054337363   -3.2608192    1.4754227   381933 
 5341000   0.85385663   -3.2590958   -1.7866817  0.048488953   -3.2590958    1.4724141   381918 
 5342000   0.85466224   -3.2602286   -1.7864717  0.046715239   -3.2602286     1.473757   381930 
 5343000   0.85574935    -3.262548   -1.7869164  0.048875718    -3.262548    1.4756316   381930 
 5344000   0.85430549   -3.2581053   -1.7849982  0.048172911   -3.2581053    1.4731071   381939 
 5345000   0.85626451   -3.2596232   -1.7829719  0.053264705   -3.2596232    1.4766513   381896 
 5346000   0.85527288   -3.2610107   -1.7859265  0.052356796   -3.2610107    1.4750842   381859 
 5347000   0.85349896   -3.2604238   -1.7882372  0.052581231   -3.2604238    1.4721866   381817 
 5348000   0.85450429   -3.2617182   -1.7876701  0.050187173   -3.2617182    1.4740481   381784 
 5349000   0.85383177   -3.2604157   -1.7875238  0.047095223   -3.2604157    1.4728918   381783 
 5350000   0.85330269    -3.259929   -1.7878997  0.051111041    -3.259929    1.4720293   381770 
 5351000   0.85371168   -3.2600418   -1.7871796   0.05012485   -3.2600418    1.4728621   381737 
 5352000   0.85495594   -3.2616771   -1.7866412  0.049300052   -3.2616771    1.4750358   381730 
 5353000   0.85506679   -3.2611337   -1.7860573  0.052982688   -3.2611337    1.4750764   381769 
 5354000   0.85662497     -3.26411   -1.7862024  0.048932866     -3.26411    1.4779076   381732 
 5355000   0.85457835   -3.2613614     -1.78678  0.051528438   -3.2613614    1.4745814   381679 
 5356000   0.85698665   -3.2641694   -1.7853511  0.055273868   -3.2641694    1.4788183   381658 
 5357000   0.85601238   -3.2628528   -1.7857583  0.051895676   -3.2628528    1.4770945   381669 
 5358000   0.85640623   -3.2640387   -1.7860709  0.049157236   -3.2640387    1.4779678   381619 
 5359000   0.85589931   -3.2637017   -1.7866242  0.052856123   -3.2637017    1.4770774   381623 
 5360000   0.85520393   -3.2615849   -1.7857036  0.051255974   -3.2615849    1.4758812   381622 
 5361000   0.85639103   -3.2643093   -1.7864568  0.052964173   -3.2643093    1.4778525   381642 
 5362000   0.85386031   -3.2610339   -1.7874174  0.056581968   -3.2610339    1.4736165   381608 
 5363000   0.85608673   -3.2645998   -1.7871873     0.053051   -3.2645998    1.4774125   381620 
 5364000   0.85634811   -3.2648572   -1.7869084  0.056598495   -3.2648572    1.4779488   381598 
 5365000   0.85628715   -3.2643758   -1.7864858   0.05354366   -3.2643758    1.4778901   381586 
 5366000   0.85557599   -3.2631338    -1.786506  0.051194573   -3.2631338    1.4766278   381595 
 5367000   0.85521902   -3.2619079   -1.7858574  0.053661258   -3.2619079    1.4760504   381585 
 5368000   0.85488285   -3.2613219   -1.7858131  0.052344472   -3.2613219    1.4755089   381575 
 5369000   0.85693163   -3.2636123   -1.7845246  0.053317219   -3.2636123    1.4790876   381564 
 5370000   0.85738371    -3.264431   -1.7846832  0.050114331    -3.264431    1.4797477   381595 
 5371000   0.85649929   -3.2624795   -1.7842969  0.054920696   -3.2624795    1.4781826   381605 
 5372000   0.85709338   -3.2629219   -1.7837683  0.054424269   -3.2629219    1.4791536   381619 
 5373000   0.85782816    -3.262948   -1.7824914  0.054272362    -3.262948    1.4804566   381610 
 5374000   0.85610353   -3.2621028   -1.7844755  0.048302689   -3.2621028    1.4776273   381572 
 5375000   0.85503566    -3.261231   -1.7853501   0.05814909    -3.261231    1.4758809   381547 
 5376000   0.85552028   -3.2619409   -1.7850532  0.051922803   -3.2619409    1.4768877   381503 
 5377000   0.85520205   -3.2611487   -1.7849574  0.050834077   -3.2611487    1.4761913   381541 
 5378000   0.85362742   -3.2589893    -1.785431  0.051476257   -3.2589893    1.4735583   381519 
 5379000   0.85563597   -3.2606925   -1.7837444  0.045819124   -3.2606925    1.4769481   381539 
 5380000   0.85357528   -3.2567998   -1.7832774   0.04895846   -3.2567998    1.4735223   381505 
 5381000   0.85526433   -3.2580084   -1.7815586   0.05397208   -3.2580084    1.4764498   381502 
 5382000   0.85635523   -3.2600265   -1.7816897  0.046435959   -3.2600265    1.4783369   381501 
 5383000   0.85482336   -3.2596466   -1.7841012  0.051433641   -3.2596466    1.4755454   381539 
 5384000   0.85586162   -3.2601462    -1.782886  0.056793411   -3.2601462    1.4772601   381559 
 5385000   0.85485762   -3.2582624   -1.7826772  0.057091594   -3.2582624    1.4755852   381544 
 5386000   0.85492619   -3.2583782   -1.7826089  0.049536345   -3.2583782    1.4757693   381527 
 5387000   0.85480892   -3.2575272   -1.7819874  0.051650004   -3.2575272    1.4755398   381534 
 5388000   0.85342071   -3.2565293   -1.7832931  0.056229464   -3.2565293    1.4732362   381510 
 5389000   0.85611042   -3.2599121   -1.7819358   0.05134789   -3.2599121    1.4779762   381485 
 5390000    0.8549238   -3.2593212   -1.7831807  0.050860466   -3.2593212    1.4761405   381430 
 5391000   0.85481764   -3.2592236   -1.7831968  0.052372886   -3.2592236    1.4760268   381412 
 5392000   0.85598611   -3.2608649   -1.7829057  0.047918421   -3.2608649    1.4779592   381434 
 5393000   0.85609082   -3.2603907    -1.782274  0.050198782   -3.2603907    1.4781167   381440 
 5394000   0.85604793    -3.259167   -1.7810585   0.05533847    -3.259167    1.4781086   381423 
 5395000   0.85585383   -3.2587004   -1.7807759  0.053677969   -3.2587004    1.4779245   381384 
 5396000   0.85769534   -3.2609968   -1.7797874  0.052303926   -3.2609968    1.4812094   381357 
 5397000    0.8560963   -3.2587019   -1.7802656  0.055071448   -3.2587019    1.4784363   381360 
 5398000   0.85590247   -3.2583204   -1.7801298  0.049638978   -3.2583204    1.4781907   381337 
 5399000   0.85709918   -3.2611649   -1.7808414  0.048313459   -3.2611649    1.4803235   381320 
 5400000   0.85507531    -3.259481   -1.7825252  0.051204838    -3.259481    1.4769558   381287 
 5401000   0.85614082   -3.2606798    -1.781837  0.056375394   -3.2606798    1.4788428   381275 
 5402000   0.85553193   -3.2601836   -1.7822879  0.050246208   -3.2601836    1.4778957   381248 
 5403000   0.85472869   -3.2593263   -1.7827562  0.052660171   -3.2593263    1.4765701   381232 
 5404000   0.85412228   -3.2579958   -1.7824733  0.053221527   -3.2579958    1.4755225   381232 
 5405000    0.8550618   -3.2584335   -1.7812454  0.055225974   -3.2584335    1.4771882   381221 
 5406000   0.85532397   -3.2599074   -1.7820686  0.053897544   -3.2599074    1.4778388   381170 
 5407000    0.8550258   -3.2589356   -1.7816004  0.054859313   -3.2589356    1.4773352   381167 
 5408000   0.85632453   -3.2616611    -1.782047  0.055488412   -3.2616611    1.4796141   381158 
 5409000    0.8567164   -3.2604448   -1.7802079  0.055923886   -3.2604448    1.4802369   381172 
 5410000   0.85641396    -3.262161   -1.7823147  0.056360794    -3.262161    1.4798463   381138 
 5411000   0.85647547   -3.2623541    -1.782254  0.052462936   -3.2623541    1.4801002   381100 
 5412000   0.85593484   -3.2621081   -1.7829072  0.055699914   -3.2621081    1.4792008   381091 
 5413000   0.85607637   -3.2632616   -1.7835871  0.051013531   -3.2632616    1.4796745   381032 
 5414000   0.85577976   -3.2602974   -1.7811667  0.050762433   -3.2602974    1.4791308   381040 
 5415000    0.8553257   -3.2610006   -1.7825499  0.052931985   -3.2610006    1.4784507   381013 
 5416000   0.85383129   -3.2590635    -1.783099  0.057008134   -3.2590635    1.4759645   380988 
 5417000   0.85484794   -3.2588746   -1.7811411  0.055604714   -3.2588746    1.4777335   380985 
 5418000    0.8566529   -3.2598742   -1.7789622  0.053755017   -3.2598742     1.480912   380970 
 5419000   0.85503628   -3.2585794   -1.7804271  0.053673075   -3.2585794    1.4781522   380961 
 5420000   0.85445393   -3.2580698   -1.7807188  0.054456864   -3.2580698     1.477351   380908 
 5421000   0.85487815   -3.2595107   -1.7812555  0.050078535   -3.2595107    1.4782552   380864 
 5422000   0.85288229   -3.2560512   -1.7811581  0.055218464   -3.2560512    1.4748931   380841 
 5423000   0.85294999     -3.25613   -1.7811392  0.054146878     -3.25613    1.4749908   380846 
 5424000   0.85268837   -3.2552383   -1.7807309  0.050964916   -3.2552383    1.4745074   380854 
 5425000     0.852811   -3.2571256   -1.7823519  0.050136429   -3.2571256    1.4747737   380840 
 5426000   0.85237703   -3.2568841   -1.7827448  0.053243217   -3.2568841    1.4741393   380810 
 5427000   0.85238275   -3.2567906   -1.7826066  0.048768731   -3.2567906     1.474184   380801 
 5428000   0.85435758   -3.2590066   -1.7813605  0.051124988   -3.2590066     1.477646   380789 
 5429000   0.85307048   -3.2569652   -1.7815142  0.050934166   -3.2569652    1.4754509   380781 
 5430000   0.85433839   -3.2589433     -1.78128  0.049164785   -3.2589433    1.4776633   380776 
 5431000   0.85389123   -3.2572144   -1.7802237  0.049785741   -3.2572144    1.4769907   380750 
 5432000   0.85370884   -3.2580474   -1.7814032  0.052000183   -3.2580474    1.4766442   380758 
 5433000   0.85423855   -3.2584501   -1.7808625  0.047521688   -3.2584501    1.4775876   380751 
 5434000   0.85644827     -3.26124   -1.7797719  0.053549732     -3.26124    1.4814682   380736 
 5435000   0.85490384   -3.2594498   -1.7806687   0.05139851   -3.2594498    1.4787811   380740 
 5436000   0.85537419    -3.259916    -1.780399  0.056938583    -3.259916     1.479517   380760 
 5437000    0.8548068   -3.2598094   -1.7811884  0.051498046   -3.2598094     1.478621   380738 
 5438000   0.85480828   -3.2600969   -1.7812753  0.056097499   -3.2600969    1.4788217   380687 
 5439000   0.85466063   -3.2609622   -1.7823649  0.052309492   -3.2609622    1.4785973   380679 
 5440000   0.85443332   -3.2617671   -1.7835087  0.051935496   -3.2617671    1.4782584   380665 
 5441000   0.85453812   -3.2614878   -1.7830208   0.05248877   -3.2614878    1.4784669   380658 
 5442000   0.85411734    -3.261546   -1.7837139  0.051178486    -3.261546    1.4778321   380634 
 5443000   0.85439823   -3.2620624   -1.7837327  0.049590835   -3.2620624    1.4783298   380631 
 5444000   0.85405419   -3.2604628   -1.7827051  0.052359896   -3.2604628    1.4777578   380625 
 5445000   0.85440716   -3.2602271   -1.7818119   0.05282803   -3.2602271    1.4784151   380613 
 5446000   0.85484713   -3.2618845   -1.7826459  0.051782463   -3.2618845    1.4792386   380597 
 5447000   0.85581855   -3.2617169   -1.7807701  0.051902714   -3.2617169    1.4809468   380590 
 5448000   0.85507593   -3.2625462   -1.7828806  0.055762923   -3.2625462    1.4796656   380589 
 5449000   0.85374919    -3.260084    -1.782656  0.050154579    -3.260084     1.477428   380574 
 5450000   0.85398374   -3.2616783    -1.783627  0.055168722   -3.2616783    1.4780514   380518 
 5451000   0.85389314   -3.2606049    -1.782691  0.052934037   -3.2606049     1.477914   380513 
 5452000   0.85358827   -3.2600453    -1.782492  0.052570348   -3.2600453    1.4775533   380470 
 5453000   0.85465373   -3.2615474   -1.7819087  0.052470304   -3.2615474    1.4796387   380408 
 5454000   0.85215281   -3.2583955   -1.7829702  0.049192382   -3.2583955    1.4754253   380378 
 5455000   0.85468157   -3.2617667   -1.7820876  0.054069719   -3.2617667    1.4796791   380410 
 5456000   0.85367568   -3.2597989   -1.7817913  0.052152529   -3.2597989    1.4780076   380392 
 5457000     0.852549    -3.258701   -1.7825743  0.052140228    -3.258701    1.4761268   380374 
 5458000    0.8520913   -3.2587467   -1.7832262  0.051375693   -3.2587467    1.4755205   380326 
 5459000   0.85166932    -3.256742   -1.7818786  0.053691107    -3.256742    1.4748635   380307 
 5460000   0.85168528   -3.2561054   -1.7811173  0.052836375   -3.2561054    1.4749881   380282 
 5461000   0.85271059   -3.2575671   -1.7807646  0.049784981   -3.2575671    1.4768026   380272 
 5462000   0.85106749   -3.2570307   -1.7829381  0.046683252   -3.2570307    1.4740926   380237 
 5463000   0.85135029   -3.2560925   -1.7814674  0.047131045   -3.2560925    1.4746251   380226 
 5464000   0.85203361   -3.2580202   -1.7820369  0.047837623   -3.2580202    1.4759833   380181 
 5465000   0.85225455   -3.2602069   -1.7835262  0.051422015   -3.2602069    1.4766807   380100 
 5466000   0.85247654   -3.2593517   -1.7820998  0.051162189   -3.2593517    1.4772519   380052 
 5467000   0.85212864   -3.2579504   -1.7810838  0.056530718   -3.2579504    1.4768666   379996 
 5468000   0.85226313   -3.2591823   -1.7817716  0.050415299   -3.2591823    1.4774107   379916 
 5469000   0.85248297   -3.2607388    -1.782768  0.050466108   -3.2607388    1.4779708   379870 
 5470000   0.85290966   -3.2611668   -1.7821954  0.051983406   -3.2611668    1.4789714   379803 
 5471000    0.8511007   -3.2589619   -1.7831273  0.053209803   -3.2589619    1.4758346   379803 
 5472000   0.85197505   -3.2609051   -1.7836088  0.048158854   -3.2609051    1.4772963   379817 
 5473000   0.85165993   -3.2595425   -1.7828431  0.044335454   -3.2595425    1.4766993   379830 
 5474000    0.8503642   -3.2577251   -1.7832608  0.050276661   -3.2577251    1.4744643   379827 
 5475000   0.85128055   -3.2593394   -1.7831968  0.053500799   -3.2593394    1.4761426   379804 
 5476000   0.85163516   -3.2609102   -1.7840983  0.048087789   -3.2609102    1.4768119   379790 
 5477000   0.85063405   -3.2592715   -1.7840868  0.050007128   -3.2592715    1.4751847   379762 
 5478000   0.85108762   -3.2599129   -1.7838872   0.05556348   -3.2599129    1.4760257   379748 
 5479000   0.85082987   -3.2592402    -1.783611  0.045147964   -3.2592402    1.4756292   379735 
 5480000   0.85110146   -3.2590629   -1.7830327  0.051445813   -3.2590629    1.4760302   379753 
 5481000    0.8515659   -3.2592188   -1.7822859  0.055372974   -3.2592188    1.4769329   379728 
 5482000   0.85008892   -3.2585063   -1.7840496  0.055970931   -3.2585063    1.4744567   379706 
 5483000   0.85007752   -3.2576328   -1.7830872  0.050452969   -3.2576328    1.4745457   379678 
 5484000   0.85034378   -3.2580793   -1.7830679  0.050780644   -3.2580793    1.4750114   379677 
 5485000   0.85161537   -3.2600249   -1.7825782   0.05167389   -3.2600249    1.4774467   379618 
 5486000   0.85296087    -3.260819   -1.7810029  0.055306447    -3.260819    1.4798161   379609 
 5487000   0.85101899    -3.259227   -1.7827216  0.057596521    -3.259227    1.4765054   379594 
 5488000   0.85134576   -3.2593973   -1.7822316  0.049778502   -3.2593973    1.4771658   379570 
 5489000    0.8526513   -3.2613238   -1.7821188  0.052549317   -3.2613238     1.479205   379628 
 5490000   0.85131205    -3.258733    -1.781902  0.051047281    -3.258733     1.476831   379641 
 5491000    0.8512033   -3.2593698   -1.7825796  0.047657486   -3.2593698    1.4767902   379603 
 5492000   0.85137765   -3.2585052    -1.781253  0.051798405   -3.2585052    1.4772522   379562 
 5493000   0.85000093   -3.2572168   -1.7824777  0.058110499   -3.2572168    1.4747391   379594 
 5494000    0.8499822    -3.256089   -1.7812814  0.053577519    -3.256089    1.4748076   379568 
 5495000   0.85142345   -3.2574535   -1.7801257  0.051126111   -3.2574535    1.4773278   379563 
 5496000   0.85187169   -3.2585713   -1.7802827  0.050657079   -3.2585713    1.4782886   379516 
 5497000   0.85024278   -3.2567959   -1.7811085  0.051397476   -3.2567959    1.4756874   379458 
 5498000   0.85048929    -3.257792   -1.7814861  0.045117729    -3.257792    1.4763059   379409 
 5499000   0.85072451   -3.2567249   -1.7800496  0.051966339   -3.2567249    1.4766753   379419 
 5500000   0.84973693   -3.2554417   -1.7804573  0.057676869   -3.2554417    1.4749844   379413 
 5501000   0.84857364   -3.2541799   -1.7812225    0.0478478   -3.2541799    1.4729574   379415 
 5502000   0.85125116   -3.2574014   -1.7799093  0.053046624   -3.2574014    1.4774921   379444 
 5503000   0.85046188   -3.2552251   -1.7790913  0.052969694   -3.2552251    1.4761338   379441 
 5504000   0.85000925   -3.2545677   -1.7792584  0.049990307   -3.2545677    1.4753093   379451 
 5505000   0.85242356   -3.2568572   -1.7774005  0.050589988   -3.2568572    1.4794568   379462 
 5506000   0.85096934   -3.2539501   -1.7770717  0.052828871   -3.2539501    1.4768784   379476 
 5507000    0.8504158   -3.2536472   -1.7777023  0.053620523   -3.2536472    1.4759449   379469 
 5508000   0.85135669    -3.254838   -1.7772679  0.053061112    -3.254838    1.4775701   379471 
 5509000   0.84848504   -3.2525363   -1.7797638  0.053165897   -3.2525363    1.4727725   379423 
 5510000   0.84928565   -3.2539663   -1.7796876  0.055716515   -3.2539663    1.4742787   379393 
 5511000   0.85003377   -3.2565888   -1.7807663  0.051077297   -3.2565888    1.4758225   379330 
 5512000   0.85044981   -3.2549822   -1.7784529   0.04864266   -3.2549822    1.4765292   379334 
 5513000   0.85064484   -3.2551944   -1.7784278  0.052447418   -3.2551944    1.4767666   379360 
 5514000   0.85015787    -3.255443   -1.7794945  0.050224931    -3.255443    1.4759484   379353 
 5515000   0.85125866   -3.2560824   -1.7781606  0.052495763   -3.2560824    1.4779218   379337 
 5516000   0.85115053   -3.2560975   -1.7783127  0.050128626   -3.2560975    1.4777848   379324 
 5517000   0.85050789   -3.2559366   -1.7792364  0.053073536   -3.2559366    1.4767001   379316 
 5518000   0.85141814   -3.2585414   -1.7802452  0.055754481   -3.2585414    1.4782962   379312 
 5519000   0.85260843     -3.25914   -1.7787538  0.055122896     -3.25914    1.4803862   379306 
 5520000   0.85245595   -3.2584378   -1.7782499  0.051814466   -3.2584378    1.4801878   379289 
 5521000   0.85140972   -3.2579512   -1.7794475   0.05216122   -3.2579512    1.4785037   379255 
 5522000   0.85237177   -3.2593426   -1.7789848  0.053460977   -3.2593426    1.4803578   379208 
 5523000   0.85122124   -3.2587757   -1.7803849  0.057351185   -3.2587757    1.4783908   379200 
 5524000   0.85188849   -3.2595291   -1.7798936  0.051079228   -3.2595291    1.4796355   379178 
 5525000   0.85217991   -3.2588669   -1.7785847  0.054748882   -3.2588669    1.4802822   379142 
 5526000   0.85162817   -3.2573667   -1.7781404  0.055237331   -3.2573667    1.4792263   379167 
 5527000   0.85207187   -3.2575489   -1.7773879  0.052659688   -3.2575489    1.4801609   379125 
 5528000    0.8519585   -3.2601615   -1.7801155  0.053223512   -3.2601615     1.480046   379104 
 5529000   0.85217675    -3.259747   -1.7791461  0.054197733    -3.259747    1.4806009   379059 
 5530000     0.851892   -3.2578345   -1.7777049  0.056226254   -3.2578345    1.4801296   379053 
 5531000   0.85142884   -3.2593653   -1.7798843  0.052143788   -3.2593653     1.479481   379013 
 5532000   0.85039118   -3.2577527    -1.779915  0.049670733   -3.2577527    1.4778378   378972 
 5533000   0.85093596   -3.2572157   -1.7783922  0.053620653   -3.2572157    1.4788235   378962 
 5534000    0.8519653   -3.2583175   -1.7776231  0.049234257   -3.2583175    1.4806944   378941 
 5535000   0.85092956   -3.2576884   -1.7787121  0.048900658   -3.2576884    1.4789763   378920 
 5536000   0.84987277   -3.2562127   -1.7791239  0.052539999   -3.2562127    1.4770888   378933 
 5537000   0.84929056   -3.2561701   -1.7799879  0.052207204   -3.2561701    1.4761821   378906 
 5538000   0.84977939   -3.2578012    -1.780668  0.047577275   -3.2578012    1.4771332   378880 
 5539000   0.84801828   -3.2537662   -1.7797293  0.051207819   -3.2537662    1.4740369   378889 
 5540000   0.84826597   -3.2535949   -1.7792793  0.049645242   -3.2535949    1.4743157   378928 
 5541000   0.84911303   -3.2531574    -1.777167   0.05042511   -3.2531574    1.4759904   378876 
 5542000   0.84924313   -3.2527053   -1.7763484  0.048827792   -3.2527053    1.4763569   378840 
 5543000   0.84921032   -3.2537235   -1.7774276  0.051820676   -3.2537235    1.4762959   378841 
 5544000    0.8499705    -3.254339   -1.7768191  0.052790914    -3.254339    1.4775199   378866 
 5545000   0.85076517    -3.253831   -1.7749492  0.053400515    -3.253831    1.4788818   378871 
 5546000   0.85151625   -3.2550288   -1.7748413  0.055895935   -3.2550288    1.4801874   378871 
 5547000   0.85160192   -3.2558283   -1.7753943  0.048398074   -3.2558283     1.480434   378846 
 5548000   0.84859533    -3.253102   -1.7777077  0.050975655    -3.253102    1.4753943   378798 
 5549000   0.84920797   -3.2538144   -1.7771601  0.051510588   -3.2538144    1.4766543   378748 
 5550000   0.84918852   -3.2527878    -1.776062  0.049839064   -3.2527878    1.4767258   378721 
 5551000   0.84883781   -3.2528108   -1.7768546  0.052987873   -3.2528108    1.4759561   378762 
 5552000   0.84916124   -3.2526309   -1.7760929  0.047081317   -3.2526309     1.476538   378757 
 5553000   0.85150105   -3.2565655   -1.7758769    0.0487619   -3.2565655    1.4806886   378736 
 5554000   0.85053027   -3.2553444   -1.7762384   0.04689006   -3.2553444    1.4791059   378709 
 5555000   0.84895906   -3.2519343   -1.7755608  0.054259759   -3.2519343    1.4763735   378709 
 5556000   0.84881317   -3.2526108   -1.7763858  0.054630765   -3.2526108    1.4762251   378682 
 5557000   0.85024288   -3.2558023   -1.7770244  0.052835259   -3.2558023     1.478778   378665 
 5558000   0.85014483   -3.2566373   -1.7779908  0.049267533   -3.2566373    1.4786465   378655 
 5559000   0.85070049   -3.2572676   -1.7775413  0.050530724   -3.2572676    1.4797263   378626 
 5560000   0.84830314   -3.2527794   -1.7772114  0.057659582   -3.2527794     1.475568   378623 
 5561000   0.85013023   -3.2558607   -1.7770522  0.050787309   -3.2558607    1.4788085   378607 
 5562000   0.84987584    -3.255657   -1.7771739  0.051748803    -3.255657    1.4784832   378577 
 5563000   0.84939503   -3.2561813   -1.7782808  0.052481311   -3.2561813    1.4779005   378512 
 5564000   0.84898299   -3.2538055      -1.7767   0.05352617   -3.2538055    1.4771055   378532 
 5565000   0.84964075   -3.2548917   -1.7767121  0.050285384   -3.2548917    1.4781796   378550 
 5566000   0.85067723   -3.2566026   -1.7765571  0.046664157   -3.2566026    1.4800454   378534 
 5567000   0.84868691   -3.2526607   -1.7759103  0.047730139   -3.2526607    1.4767503   378491 
 5568000    0.8489105   -3.2539652   -1.7769272  0.055302792   -3.2539652    1.4770379   378517 
 5569000    0.8477123   -3.2531383   -1.7780994  0.052929563   -3.2531383    1.4750389   378495 
 5570000    0.8492984   -3.2550122    -1.777311  0.057787513   -3.2550122    1.4777011   378520 
 5571000   0.84850188   -3.2544908   -1.7782691  0.053285232   -3.2544908    1.4762217   378544 
 5572000    0.8498245   -3.2557745   -1.7772595  0.048040533   -3.2557745     1.478515   378546 
 5573000   0.84800481   -3.2535435   -1.7780658    0.0487687   -3.2535435    1.4754777   378513 
 5574000   0.84717315   -3.2534336   -1.7793951  0.052413868   -3.2534336    1.4740384   378511 
 5575000   0.84758575   -3.2547196    -1.779823  0.044928483   -3.2547196    1.4748966   378475 
 5576000   0.84907682   -3.2565128   -1.7788458  0.047672423   -3.2565128    1.4776669   378430 
 5577000   0.84850108   -3.2559053   -1.7791974  0.051991731   -3.2559053    1.4767079   378419 
 5578000   0.84855586   -3.2542777   -1.7773301  0.051014985   -3.2542777    1.4769476   378382 
 5579000   0.84754117   -3.2525713   -1.7773001  0.054223155   -3.2525713    1.4752712   378359 
 5580000   0.84792697   -3.2537089   -1.7776648  0.049957815   -3.2537089    1.4760442   378333 
 5581000   0.84687426   -3.2516798   -1.7773941  0.050680358   -3.2516798    1.4742857   378314 
 5582000   0.84843712   -3.2534175   -1.7764228  0.053107611   -3.2534175    1.4769947   378317 
 5583000   0.84810004    -3.255462   -1.7790228  0.047781036    -3.255462    1.4764391   378309 
 5584000   0.84776137    -3.256715   -1.7805689  0.049765747    -3.256715    1.4761461   378233 
 5585000    0.8471181   -3.2559917   -1.7810476  0.047358233   -3.2559917    1.4749441   378254 
 5586000   0.84679917   -3.2558811   -1.7814728  0.047540744   -3.2558811    1.4744083   378249 
 5587000   0.84623774   -3.2541732    -1.780758  0.050811526   -3.2541732    1.4734152   378253 
 5588000   0.84814397    -3.257915   -1.7811027  0.051874861    -3.257915    1.4768123   378233 
 5589000   0.84820497   -3.2568391   -1.7799128  0.052451113   -3.2568391    1.4769263   378231 
 5590000   0.84851879   -3.2570659     -1.77939  0.054646184   -3.2570659    1.4776759   378179 
 5591000    0.8483872   -3.2573749   -1.7797758   0.05014703   -3.2573749    1.4775991   378140 
 5592000   0.84804901   -3.2566974   -1.7797303  0.052824075   -3.2566974    1.4769671   378151 
 5593000   0.84858775   -3.2585457   -1.7806364  0.055306866   -3.2585457    1.4779093   378150 
 5594000   0.84872035   -3.2573459   -1.7791196  0.052996399   -3.2573459    1.4782263   378128 
 5595000   0.84903597   -3.2586154   -1.7797729  0.049296777   -3.2586154    1.4788425   378111 
 5596000   0.84775425   -3.2563964   -1.7797356  0.048936684   -3.2563964    1.4766607   378098 
 5597000   0.84699694   -3.2552786   -1.7799682  0.050886549   -3.2552786    1.4753104   378106 
 5598000   0.84723815   -3.2557611   -1.7799056  0.054724056   -3.2557611    1.4758554   378074 
 5599000    0.8470003   -3.2553041   -1.7797927  0.050671617   -3.2553041    1.4755114   378056 
 5600000   0.84733722   -3.2577476   -1.7815439   0.05074876   -3.2577476    1.4762037   378029 
 5601000   0.84582932   -3.2563783   -1.7826768   0.04978976   -3.2563783    1.4737015   377997 
 5602000   0.84591476   -3.2579522   -1.7841136  0.054227412   -3.2579522    1.4738386   378000 
 5603000   0.84456292   -3.2557174   -1.7841172  0.050818254   -3.2557174    1.4716001   377970 
 5604000   0.84600758    -3.256204   -1.7822192  0.050803179    -3.256204    1.4739848   378004 
 5605000   0.84578832   -3.2551627   -1.7814469  0.054353373   -3.2551627    1.4737158   377975 
 5606000   0.84769396   -3.2572292   -1.7800523  0.046270736   -3.2572292    1.4771769   377939 
 5607000   0.84635244   -3.2553525   -1.7806265   0.05143518   -3.2553525     1.474726   377968 
 5608000   0.84769018   -3.2567477   -1.7795031  0.050415675   -3.2567477    1.4772446   377920 
 5609000   0.84873472   -3.2572881    -1.778145  0.054384768   -3.2572881    1.4791432   377900 
 5610000   0.84719064   -3.2558702    -1.779207  0.055862812   -3.2558702    1.4766632   377846 
 5611000   0.84789214   -3.2573945   -1.7793874  0.049352036   -3.2573945    1.4780072   377815 
 5612000   0.84802876   -3.2575216   -1.7793858  0.051517964   -3.2575216    1.4781358   377843 
 5613000   0.84857036   -3.2588133    -1.779573  0.051820484   -3.2588133    1.4792403   377802 
 5614000   0.84679084     -3.25593   -1.7797996  0.051508684     -3.25593    1.4761304   377804 
 5615000   0.84685014   -3.2550405   -1.7787012  0.051558871   -3.2550405    1.4763393   377777 
 5616000   0.84557624   -3.2552531   -1.7809512  0.049236156   -3.2552531    1.4743019   377730 
 5617000   0.84525111    -3.255484   -1.7817256  0.050899725    -3.255484    1.4737584   377724 
 5618000   0.84456046   -3.2543157   -1.7816133   0.05118053   -3.2543157    1.4727024   377686 
 5619000   0.84437206   -3.2541969   -1.7817451  0.050787145   -3.2541969    1.4724518   377666 
 5620000   0.84605527   -3.2565442   -1.7810595  0.045097697   -3.2565442    1.4754848   377641 
 5621000   0.84596662   -3.2548425   -1.7795162  0.048202668   -3.2548425    1.4753263   377642 
 5622000   0.84418688    -3.251126   -1.7787709  0.052331173    -3.251126     1.472355   377608 
 5623000   0.84407342   -3.2509589   -1.7788252  0.049362633   -3.2509589    1.4721338   377614 
 5624000   0.84618797   -3.2532506   -1.7774524  0.052441252   -3.2532506    1.4757983   377620 
 5625000   0.84687834   -3.2539688   -1.7768413  0.053738554   -3.2539688    1.4771275   377588 
 5626000   0.84634553   -3.2544642   -1.7780354  0.050556353   -3.2544642    1.4764288   377529 
 5627000   0.84648722   -3.2536143   -1.7770243  0.048071407   -3.2536143      1.47659   377551 
 5628000   0.84838662    -3.256296   -1.7764124   0.04961505    -3.256296    1.4798836   377556 
 5629000   0.84566778   -3.2533933   -1.7782054   0.05216442   -3.2533933    1.4751879   377544 
 5630000   0.84602693   -3.2524287   -1.7767199  0.060746525   -3.2524287    1.4757089   377571 
 5631000   0.84738469   -3.2545321    -1.776361  0.052092144   -3.2545321    1.4781712   377547 
 5632000   0.84707386   -3.2553042   -1.7775461  0.054100559   -3.2553042    1.4777581   377514 
 5633000   0.84716302   -3.2554219   -1.7773086  0.050256227   -3.2554219    1.4781133   377463 
 5634000   0.84621028   -3.2539006   -1.7774378    0.0520354   -3.2539006    1.4764628   377460 
 5635000   0.84601694   -3.2559198   -1.7795206  0.049548044   -3.2559198    1.4763992   377390 
 5636000   0.84573381    -3.255189   -1.7791079  0.053592948    -3.255189    1.4760811   377345 
 5637000   0.84520214   -3.2541968   -1.7790398  0.050201911   -3.2541968    1.4751571   377344 
 5638000   0.84633284   -3.2558913   -1.7788469  0.052276457   -3.2558913    1.4770444   377366 
 5639000   0.84517925   -3.2538967   -1.7786896  0.055786916   -3.2538967    1.4752071   377321 
 5640000    0.8461862   -3.2548403     -1.77786  0.049925497   -3.2548403    1.4769803   377317 
 5641000   0.84655842   -3.2559889   -1.7783667  0.047662093   -3.2559889    1.4776221   377319 
 5642000   0.84645531   -3.2559025   -1.7784094  0.050151584   -3.2559025    1.4774931   377306 
 5643000   0.84433488   -3.2535787   -1.7797556  0.050194749   -3.2535787    1.4738231   377298 
 5644000   0.84628326   -3.2545408   -1.7771718  0.049516045   -3.2545408     1.477369   377261 
 5645000   0.84489736   -3.2543168   -1.7792148  0.048197927   -3.2543168    1.4751021   377222 
 5646000   0.84429572   -3.2531726   -1.7791209  0.054551992   -3.2531726    1.4740517   377222 
 5647000   0.84564494   -3.2552913   -1.7787275  0.049452115   -3.2552913    1.4765638   377182 
 5648000   0.84511078   -3.2552032   -1.7795408  0.048808289   -3.2552032    1.4756625   377174 
 5649000   0.84488009   -3.2537724   -1.7785714  0.056938732   -3.2537724     1.475201   377189 
 5650000   0.84386072   -3.2523919   -1.7790646  0.050484415   -3.2523919    1.4733273   377213 
 5651000   0.84514591   -3.2540132   -1.7782346  0.051686573   -3.2540132    1.4757786   377160 
 5652000   0.84515131   -3.2545839   -1.7787059  0.051235943   -3.2545839     1.475878   377137 
 5653000   0.84665748   -3.2560772   -1.7775494  0.053179774   -3.2560772    1.4785278   377132 
 5654000   0.84455908    -3.254574   -1.7794603  0.057866822    -3.254574    1.4751137   377068 
 5655000   0.84595383   -3.2566564   -1.7791968  0.052563351   -3.2566564    1.4774596   377091 
 5656000   0.84468554   -3.2553156   -1.7801845  0.052119331   -3.2553156    1.4751311   377120 
 5657000    0.8460489   -3.2586725   -1.7811291  0.053666237   -3.2586725    1.4775434   377112 
 5658000    0.8455368   -3.2584656   -1.7818361  0.052646083   -3.2584656    1.4766295   377117 
 5659000   0.84466124   -3.2588652   -1.7836631   0.05297076   -3.2588652    1.4752021   377091 
 5660000   0.84438783   -3.2593817   -1.7846767  0.056309479   -3.2593817    1.4747051   377096 
 5661000   0.84520412   -3.2600369   -1.7839414   0.04829088   -3.2600369    1.4760955   377105 
 5662000   0.84515127   -3.2587209   -1.7824476  0.052089353   -3.2587209    1.4762733   377036 
 5663000   0.84582969   -3.2609572   -1.7834871  0.054329933   -3.2609572    1.4774701   377033 
 5664000   0.84364518   -3.2569455   -1.7834476  0.052975912   -3.2569455    1.4734979   377073 
 5665000   0.84403842   -3.2582996   -1.7840484  0.052701027   -3.2582996    1.4742512   377056 
 5666000   0.84455908   -3.2596352   -1.7844159  0.051670226   -3.2596352    1.4752193   377041 
 5667000   0.84452539   -3.2584071   -1.7832506  0.052132598   -3.2584071    1.4751566   377042 
 5668000   0.84485745   -3.2601358   -1.7843953  0.048342606   -3.2601358    1.4757405   377041 
 5669000   0.84500126   -3.2600409   -1.7839318  0.050562872   -3.2600409    1.4761091   377011 
 5670000   0.84504041   -3.2611499   -1.7848393  0.051568398   -3.2611499    1.4763107   376977 
 5671000   0.84498902   -3.2625377   -1.7862816  0.048115117   -3.2625377    1.4762561   376968 
 5672000   0.84399904   -3.2616019   -1.7869619  0.051800985   -3.2616019      1.47464   376939 
 5673000   0.84417294   -3.2610536    -1.785961  0.047898724   -3.2610536    1.4750925   376901 
 5674000   0.84523132   -3.2624225   -1.7854218  0.052534187   -3.2624225    1.4770007   376886 
 5675000   0.84441385   -3.2601903   -1.7846924  0.053422322   -3.2601903    1.4754979   376905 
 5676000   0.84564407   -3.2606285   -1.7828987  0.050789539   -3.2606285    1.4777298   376884 
 5677000   0.84500665   -3.2601746   -1.7834136   0.05403885   -3.2601746    1.4767609   376847 
 5678000   0.84433997   -3.2593594   -1.7838184  0.051596897   -3.2593594     1.475541   376861 
 5679000   0.84444068    -3.259836   -1.7839858  0.052828736    -3.259836    1.4758502   376827 
 5680000   0.84434203   -3.2595666   -1.7838928  0.055165067   -3.2595666    1.4756738   376828 
 5681000   0.84474752   -3.2601171   -1.7836798  0.049216879   -3.2601171    1.4764374   376814 
 5682000   0.84340406   -3.2580337   -1.7837254  0.051329631   -3.2580337    1.4743084   376758 
 5683000   0.84349797   -3.2586781   -1.7842134  0.051637859   -3.2586781    1.4744647   376760 
 5684000   0.84405435   -3.2593065   -1.7837987  0.048454204   -3.2593065    1.4755078   376742 
 5685000   0.84352091   -3.2589365   -1.7843221  0.051148822   -3.2589365    1.4746144   376732 
 5686000   0.84388481   -3.2605697   -1.7852056  0.048713674   -3.2605697    1.4753641   376703 
 5687000   0.84317186   -3.2593282   -1.7850579  0.047336448   -3.2593282    1.4742703   376664 
 5688000   0.84168128   -3.2577478    -1.786115  0.046417787   -3.2577478    1.4716328   376672 
 5689000   0.84305557   -3.2600441   -1.7860475  0.046453479   -3.2600441    1.4739966   376682 
 5690000   0.84173457   -3.2577771   -1.7860159  0.044393204   -3.2577771    1.4717611   376663 
 5691000   0.84222449   -3.2580105   -1.7852833   0.04860811   -3.2580105    1.4727272   376635 
 5692000   0.84418988   -3.2608611   -1.7845129  0.051743646   -3.2608611    1.4763482   376588 
 5693000   0.84335229   -3.2585973   -1.7836551  0.052349938   -3.2585973    1.4749421   376573 
 5694000     0.841789   -3.2559479    -1.783646  0.050635227   -3.2559479    1.4723019   376549 
 5695000   0.84294275   -3.2576461   -1.7833811  0.053800746   -3.2576461     1.474265   376563 
 5696000   0.84403634   -3.2605357   -1.7843266  0.054211444   -3.2605357     1.476209   376555 
 5697000   0.84313443    -3.259318   -1.7843025  0.052904463    -3.259318    1.4750155   376457 
 5698000   0.84219089   -3.2588256   -1.7853277   0.05020771   -3.2588256    1.4734979   376423 
 5699000   0.84247584   -3.2616111   -1.7876107  0.046708919   -3.2616111    1.4740004   376422 
 5700000   0.84154186   -3.2605678   -1.7880099  0.050729537   -3.2605678    1.4725579   376373 
 5701000   0.84461433   -3.2621918   -1.7842183   0.04802969   -3.2621918    1.4779735   376363 
 5702000   0.84318501   -3.2600209   -1.7843485  0.050816816   -3.2600209    1.4756724   376312 
 5703000   0.84483748   -3.2600367   -1.7815155  0.049483638   -3.2600367    1.4785212   376323 
 5704000   0.84407153   -3.2594005    -1.782263  0.057219275   -3.2594005    1.4771375   376334 
 5705000   0.84378873   -3.2591118   -1.7825791   0.05590922   -3.2591118    1.4765327   376362 
 5706000   0.84507504   -3.2622728   -1.7832887  0.050210606   -3.2622728    1.4789841   376311 
 5707000   0.84300564   -3.2578668   -1.7824377  0.058101161   -3.2578668     1.475429   376294 
 5708000   0.84497635   -3.2599729   -1.7811615  0.052843209   -3.2599729    1.4788113   376311 
 5709000    0.8426275   -3.2579758   -1.7833066   0.05157492   -3.2579758    1.4746692   376319 
 5710000    0.8424345   -3.2566176   -1.7823253  0.052129149   -3.2566176    1.4742923   376329 
 5711000   0.84360736   -3.2612858   -1.7848233  0.048297621   -3.2612858    1.4764625   376299 
 5712000   0.84176774   -3.2572387   -1.7839018  0.055068032   -3.2572387    1.4733368   376275 
 5713000   0.84322758   -3.2583124   -1.7823694  0.046027139   -3.2583124     1.475943   376262 
 5714000   0.84318407   -3.2572163   -1.7813534  0.048810286   -3.2572163    1.4758629   376263 
 5715000      0.84355   -3.2565777   -1.7798899  0.052037676   -3.2565777    1.4766878   376216 
 5716000   0.84409405   -3.2575244   -1.7799078  0.052477888   -3.2575244    1.4776167   376222 
 5717000   0.84235386   -3.2570325   -1.7824621  0.052797062   -3.2570325    1.4745704   376222 
 5718000   0.84217475   -3.2542455   -1.7800004  0.050595984   -3.2542455    1.4742451   376225 
 5719000   0.84374283   -3.2587573   -1.7816848  0.046624878   -3.2587573    1.4770725   376204 
 5720000   0.84287903   -3.2573444   -1.7815683  0.054061806   -3.2573444    1.4757761   376149 
 5721000   0.84120404   -3.2537582   -1.7807582  0.049830303   -3.2537582        1.473   376109 
 5722000   0.84197378    -3.255913   -1.7815572  0.051137129    -3.255913    1.4743557   376107 
 5723000    0.8424841    -3.256388   -1.7810641  0.045777127    -3.256388    1.4753239   376088 
 5724000   0.84149783   -3.2536979   -1.7799366  0.044879005   -3.2536979    1.4737613   376046 
 5725000   0.84188021   -3.2518025   -1.7774264  0.048972869   -3.2518025    1.4743761   376060 
 5726000   0.84232383     -3.25503   -1.7795788  0.048809008     -3.25503    1.4754512   375984 
 5727000   0.84165674   -3.2534928   -1.7791238  0.045545642   -3.2534928     1.474369   375962 
 5728000   0.84306033   -3.2551842   -1.7783918  0.049314748   -3.2551842    1.4767924   375971 
 5729000   0.84395702   -3.2542543   -1.7757457  0.049980909   -3.2542543    1.4785086   375934 
 5730000   0.84468073   -3.2543451   -1.7743836  0.048396345   -3.2543451    1.4799615   375887 
 5731000   0.84436244   -3.2548141   -1.7753906  0.050812836   -3.2548141    1.4794235   375882 
 5732000   0.84313261   -3.2518296   -1.7745295  0.048457999   -3.2518296    1.4773001   375874 
 5733000   0.84297212   -3.2511889   -1.7742486  0.050298227   -3.2511889    1.4769403   375894 
 5734000   0.84347491   -3.2534602   -1.7758472  0.049174092   -3.2534602    1.4776129   375947 
 5735000   0.84353831   -3.2553843   -1.7777233  0.048769461   -3.2553843    1.4776611   375963 
 5736000   0.84129392    -3.251239   -1.7773723  0.056269556    -3.251239    1.4738667   375928 
 5737000   0.84082045    -3.250028   -1.7769516  0.054765779    -3.250028    1.4730764   375918 
 5738000   0.84204945   -3.2509369   -1.7756171  0.050707029   -3.2509369    1.4753198   375895 
 5739000   0.84170045   -3.2509326   -1.7761967  0.049044705   -3.2509326    1.4747358   375888 
 5740000   0.84107574   -3.2514138    -1.777749  0.048651453   -3.2514138    1.4736648   375882 
 5741000    0.8396756   -3.2509392   -1.7795006  0.042667503   -3.2509392    1.4714386   375824 
 5742000   0.84098378   -3.2503817   -1.7766664   0.05155652   -3.2503817    1.4737154   375828 
 5743000    0.8418207   -3.2527133   -1.7774724  0.049582114   -3.2527133    1.4752409   375813 
 5744000    0.8425469   -3.2532649   -1.7767121  0.046776914   -3.2532649    1.4765528   375803 
 5745000   0.84259359   -3.2525353   -1.7757946  0.049140269   -3.2525353    1.4767407   375776 
 5746000   0.84242271   -3.2519442   -1.7756247  0.053692949   -3.2519442    1.4763194   375807 
 5747000   0.84322787   -3.2526714   -1.7748072  0.051213394   -3.2526714    1.4778642   375773 
 5748000   0.84020378   -3.2495493    -1.776946  0.050809499   -3.2495493    1.4726032   375763 
 5749000   0.84079122    -3.251297   -1.7776249  0.046415901    -3.251297     1.473672   375753 
 5750000   0.83942995   -3.2494458   -1.7781792  0.048127656   -3.2494458    1.4712665   375758 
 5751000   0.84071426   -3.2511144   -1.7776322  0.051484695   -3.2511144    1.4734822   375767 
 5752000   0.84086705    -3.251158    -1.777404  0.052072541    -3.251158     1.473754   375766 
 5753000   0.84219814   -3.2541032   -1.7779927  0.054340104   -3.2541032    1.4761105   375760 
 5754000   0.84180775   -3.2525823    -1.777109  0.054918542   -3.2525823    1.4754734   375748 
 5755000   0.84214586   -3.2534551   -1.7774716  0.051949094   -3.2534551    1.4759835   375769 
 5756000   0.84257155   -3.2542723   -1.7773973  0.055532376   -3.2542723     1.476875   375732 
 5757000   0.84331938   -3.2554933   -1.7771619   0.05529157   -3.2554933    1.4783314   375695 
 5758000   0.84371868    -3.255429   -1.7762992  0.054862545    -3.255429    1.4791298   375670 
 5759000   0.84306493   -3.2541253   -1.7760079  0.055237035   -3.2541253    1.4781175   375636 
 5760000   0.84175805    -3.254716   -1.7787601  0.051910031    -3.254716    1.4759558   375603 
 5761000   0.84280116   -3.2568536   -1.7789035  0.054523687   -3.2568536    1.4779501   375561 
 5762000    0.8437338    -3.256518   -1.7768575  0.050819978    -3.256518    1.4796604   375542 
 5763000   0.84264151   -3.2554631   -1.7776277  0.055465184   -3.2554631    1.4778354   375519 
 5764000   0.84147874   -3.2534954   -1.7776718  0.051127782   -3.2534954    1.4758236   375512 
 5765000   0.84238178   -3.2556615   -1.7783052  0.051915094   -3.2556615    1.4773563   375525 
 5766000   0.84013196   -3.2527914   -1.7794985  0.051534601   -3.2527914    1.4732929   375555 
 5767000   0.84334261   -3.2561971   -1.7773527  0.056097431   -3.2561971    1.4788445   375575 
 5768000   0.83997932   -3.2523599   -1.7792758  0.049621123   -3.2523599     1.473084   375540 
 5769000   0.84168138    -3.253326   -1.7770644  0.050386182    -3.253326    1.4762616   375491 
 5770000   0.84114044    -3.252982   -1.7776574  0.049466518    -3.252982    1.4753246   375488 
 5771000    0.8411152   -3.2518339   -1.7765693  0.051234344   -3.2518339    1.4752646   375492 
 5772000   0.84203341   -3.2543051   -1.7773553  0.048279012   -3.2543051    1.4769498   375473 
 5773000   0.84079936   -3.2513529    -1.776383  0.051328764   -3.2513529    1.4749699   375426 
 5774000   0.84001616   -3.2505258   -1.7768552  0.057232988   -3.2505258    1.4736706   375407 
 5775000   0.84125372   -3.2526533   -1.7767094  0.049636382   -3.2526533    1.4759439   375381 
 5776000   0.84172805   -3.2535504   -1.7767468  0.049200342   -3.2535504    1.4768036   375374 
 5777000   0.84069808   -3.2496132   -1.7746599  0.052887808   -3.2496132    1.4749533   375385 
 5778000   0.84157676   -3.2505352   -1.7739735  0.055014881   -3.2505352    1.4765618   375368 
 5779000    0.8413061    -3.250915   -1.7747809  0.054385973    -3.250915    1.4761341   375356 
 5780000   0.84066309   -3.2500363   -1.7750736  0.047972806   -3.2500363    1.4749627   375367 
 5781000   0.84067757   -3.2492474   -1.7742201  0.053305021   -3.2492474    1.4750274   375357 
 5782000   0.83981005   -3.2496614   -1.7760109   0.04998385   -3.2496614    1.4736505   375320 
 5783000   0.84118136   -3.2520055   -1.7758701  0.052630263   -3.2520055    1.4761355   375300 
 5784000   0.84059813   -3.2521398   -1.7769964  0.054479464   -3.2521398    1.4751434   375292 
 5785000   0.84001066   -3.2507163   -1.7763957  0.057632593   -3.2507163    1.4743207   375239 
 5786000   0.84079196   -3.2508532   -1.7751809  0.052186373   -3.2508532    1.4756723   375244 
 5787000   0.84036891   -3.2520448   -1.7769932  0.053336618   -3.2520448    1.4750517   375213 
 5788000   0.83940073   -3.2501854   -1.7767899  0.048542694   -3.2501854    1.4733955   375202 
 5789000   0.83995469   -3.2513555   -1.7769169  0.045507413   -3.2513555    1.4744386   375184 
 5790000   0.83953702     -3.25111   -1.7772593  0.050393541     -3.25111    1.4738507   375147 
 5791000   0.83836708   -3.2493248   -1.7775593  0.053672445   -3.2493248    1.4717655   375155 
 5792000   0.83948414    -3.251757    -1.777948  0.051712162    -3.251757     1.473809   375134 
 5793000   0.83964167   -3.2509197   -1.7766888  0.047996817   -3.2509197     1.474231   375097 
 5794000   0.84057583   -3.2517666   -1.7757971  0.052090712   -3.2517666    1.4759695   375072 
 5795000    0.8415973   -3.2534815   -1.7758563  0.049115268   -3.2534815    1.4776252   375107 
 5796000   0.84001506   -3.2515398   -1.7766454  0.054896157   -3.2515398    1.4748944   375095 
 5797000     0.841673    -3.254392   -1.7765196  0.052854456    -3.254392    1.4778724   375078 
 5798000   0.84048941    -3.252532   -1.7766119  0.047797573    -3.252532    1.4759201   375046 
 5799000   0.83865608   -3.2512307   -1.7785496  0.050256634   -3.2512307    1.4726811   375051 
 5800000   0.84073007   -3.2526388   -1.7764575  0.049954066   -3.2526388    1.4761813   375087 
 5801000   0.84028173   -3.2524631   -1.7768133  0.047261415   -3.2524631    1.4756498   375022 
 5802000   0.83899195   -3.2514122   -1.7778702  0.048619117   -3.2514122     1.473542   374982 
 5803000   0.83975927   -3.2524778   -1.7776275  0.052409253   -3.2524778    1.4748503   374992 
 5804000   0.84114622   -3.2534048   -1.7760004  0.052097517   -3.2534048    1.4774043   374962 
 5805000   0.84039976   -3.2534999   -1.7775523  0.051462926   -3.2534999    1.4759476   374999 
 5806000   0.84132452   -3.2551175   -1.7773803  0.054260814   -3.2551175    1.4777372   374957 
 5807000   0.84008812   -3.2522562    -1.776608  0.056750286   -3.2522562    1.4756482   374936 
 5808000   0.84047146   -3.2517576   -1.7754675  0.055684856   -3.2517576    1.4762901   374944 
 5809000   0.83951285   -3.2500461   -1.7754555  0.055928048   -3.2500461    1.4745905   374948 
 5810000   0.83894392   -3.2502535    -1.776674  0.050523955   -3.2502535    1.4735794   374951 
 5811000    0.8395434   -3.2519045   -1.7770085  0.050483925   -3.2519045    1.4748959   374884 
 5812000   0.84007007   -3.2539399   -1.7780124  0.046989942   -3.2539399    1.4759275   374857 
 5813000   0.84023491   -3.2534999   -1.7772198     0.049355   -3.2534999    1.4762801   374841 
 5814000    0.8388418   -3.2525748   -1.7785418  0.050504484   -3.2525748     1.474033   374790 
 5815000   0.83962292   -3.2543504   -1.7789764  0.052165773   -3.2543504    1.4753741   374798 
 5816000   0.83828905    -3.252591   -1.7793721   0.05286129    -3.252591    1.4732189   374750 
 5817000    0.8381906   -3.2534853   -1.7804316  0.047709494   -3.2534853    1.4730537   374748 
 5818000   0.83901174   -3.2542882   -1.7796969   0.04525462   -3.2542882    1.4745913   374724 
 5819000   0.83914929   -3.2544838    -1.779694  0.055584953   -3.2544838    1.4747897   374735 
 5820000   0.83900527   -3.2538943   -1.7792397  0.051718115   -3.2538943    1.4746547   374705 
 5821000   0.83958235   -3.2523434   -1.7765996  0.052802536   -3.2523434    1.4757438   374686 
 5822000   0.84034651   -3.2523777    -1.775275  0.051055051   -3.2523777    1.4771027   374682 
 5823000   0.84052611   -3.2540811   -1.7766745  0.053718092   -3.2540811    1.4774066   374685 
 5824000   0.84077304   -3.2547403   -1.7767419  0.051059083   -3.2547403    1.4779984   374645 
 5825000   0.84078155   -3.2535933   -1.7756351  0.054246917   -3.2535933    1.4779581   374659 
 5826000   0.83929588   -3.2531101   -1.7776021  0.053346839   -3.2531101     1.475508   374618 
 5827000   0.83996898   -3.2546928    -1.777828  0.051687025   -3.2546928    1.4768648   374574 
 5828000   0.84087616   -3.2550719   -1.7765765  0.051828292   -3.2550719    1.4784954   374565 
 5829000   0.83908313   -3.2532305   -1.7778523  0.052163739   -3.2532305    1.4753782   374556 
 5830000   0.83923583   -3.2524724   -1.7768021  0.054236742   -3.2524724    1.4756703   374550 
 5831000   0.83961971    -3.255096   -1.7787231  0.047107128    -3.255096    1.4763729   374543 
 5832000   0.83726474   -3.2503671   -1.7781115  0.055974953   -3.2503671    1.4722556   374537 
 5833000   0.83888617     -3.25275   -1.7776433  0.047007139     -3.25275    1.4751067   374537 
 5834000   0.83888008   -3.2533618     -1.77825  0.046961991   -3.2533618    1.4751118   374533 
 5835000   0.83925483   -3.2546949   -1.7789242  0.052628112   -3.2546949    1.4757707   374533 
 5836000   0.83798462   -3.2522541   -1.7785989  0.050078073   -3.2522541    1.4736552   374503 
 5837000   0.83771452   -3.2502538   -1.7770736  0.050965027   -3.2502538    1.4731802   374503 
 5838000   0.83889916   -3.2505582   -1.7751883  0.050971774   -3.2505582    1.4753698   374476 
 5839000   0.83949985    -3.251564   -1.7750668  0.052766794    -3.251564    1.4764972   374458 
 5840000   0.83897284   -3.2507033   -1.7751487  0.045087172   -3.2507033    1.4755546   374462 
 5841000   0.83811274   -3.2488074   -1.7746002  0.045226517   -3.2488074    1.4742072   374420 
 5842000   0.83940489   -3.2516609    -1.774956  0.053335319   -3.2516609    1.4767049   374363 
 5843000   0.83903215   -3.2485437   -1.7725537  0.053772508   -3.2485437      1.47599   374378 
 5844000    0.8402992   -3.2520896   -1.7738036  0.051392746   -3.2520896    1.4782861   374361 
 5845000   0.83827142   -3.2480417   -1.7732087  0.049837322   -3.2480417     1.474833   374332 
 5846000   0.83810717   -3.2481234   -1.7735518  0.051363397   -3.2481234    1.4745716   374325 
 5847000   0.83765917   -3.2479229   -1.7739899  0.053511714   -3.2479229     1.473933   374287 
 5848000   0.83833018   -3.2482993   -1.7732526  0.053365275   -3.2482993    1.4750467   374304 
 5849000    0.8383599   -3.2485561   -1.7733113  0.047580503   -3.2485561    1.4752448   374267 
 5850000   0.83762554   -3.2469525   -1.7728227  0.050785194   -3.2469525    1.4741298   374222 
 5851000   0.83656365   -3.2451775   -1.7727945  0.048831334   -3.2451775     1.472383   374191 
 5852000   0.83571603   -3.2448999    -1.773997  0.047764404   -3.2448999    1.4709029   374188 
 5853000   0.83763463    -3.248042   -1.7736874  0.047865817    -3.248042    1.4743546   374169 
 5854000   0.83879678   -3.2494503   -1.7730264  0.048904586   -3.2494503    1.4764238   374163 
 5855000    0.8381644   -3.2484015   -1.7731341  0.049405529   -3.2484015    1.4752674   374174 
 5856000    0.8394892   -3.2491396    -1.771572  0.049804659   -3.2491396    1.4775676   374182 
 5857000   0.83684668   -3.2452678   -1.7722647  0.053918578   -3.2452678    1.4730031   374160 
 5858000    0.8364714   -3.2448766   -1.7725065  0.052642024   -3.2448766    1.4723701   374153 
 5859000   0.83796264   -3.2476576   -1.7724931  0.047603818   -3.2476576    1.4751646   374110 
 5860000   0.83592039   -3.2464202   -1.7748155  0.049764773   -3.2464202    1.4716047   374101 
 5861000   0.83497291    -3.244621   -1.7746882  0.051513636    -3.244621    1.4699328   374102 
 5862000   0.83633555   -3.2466787   -1.7742486  0.051383775   -3.2466787    1.4724301   374077 
 5863000   0.83742583   -3.2478689   -1.7737873  0.047278442   -3.2478689    1.4740817   374145 
 5864000   0.83958241   -3.2485456   -1.7706718  0.054170457   -3.2485456    1.4778738   374146 
 5865000   0.84028177   -3.2499737   -1.7708372   0.04696873   -3.2499737    1.4791365   374138 
 5866000   0.83957121   -3.2484938   -1.7706634  0.052162439   -3.2484938    1.4778304   374152 
 5867000   0.83972197    -3.250158   -1.7717935  0.049897071    -3.250158    1.4783645   374084 
 5868000   0.83917926   -3.2499382   -1.7723633  0.054824402   -3.2499382    1.4775749   374042 
 5869000   0.83848612   -3.2499011   -1.7734282  0.051845971   -3.2499011    1.4764729   374012 
 5870000   0.83720621   -3.2491857   -1.7749233   0.05194753   -3.2491857    1.4742625   374001 
 5871000   0.83884326   -3.2532026   -1.7759468  0.049182767   -3.2532026    1.4772558   373973 
 5872000   0.83747859   -3.2510081   -1.7760215  0.049913113   -3.2510081    1.4749866   373939 
 5873000   0.83587614   -3.2488032   -1.7764892  0.050855318   -3.2488032     1.472314   373901 
 5874000   0.83884092   -3.2532616   -1.7755397  0.054469075   -3.2532616    1.4777219   373854 
 5875000    0.8385257    -3.253317   -1.7761267  0.049382971    -3.253317    1.4771903   373848 
 5876000    0.8375247   -3.2520174   -1.7766418  0.049460628   -3.2520174    1.4753756   373861 
 5877000   0.83900461   -3.2536112    -1.775597  0.050267406   -3.2536112    1.4780142   373853 
 5878000   0.83745096   -3.2498799   -1.7745039  0.052478703   -3.2498799    1.4753759   373828 
 5879000   0.83772264   -3.2523293   -1.7762813  0.047592341   -3.2523293     1.476048   373779 
 5880000   0.83578728   -3.2491181   -1.7764802  0.051503662   -3.2491181     1.472638   373779 
 5881000   0.83689596   -3.2507462    -1.775989  0.050328559   -3.2507462    1.4747571   373737 
 5882000   0.83657155    -3.249996   -1.7757395  0.055861661    -3.249996    1.4742565   373719 
 5883000   0.83758845   -3.2523553   -1.7762318  0.048913791   -3.2523553    1.4761236   373700 
 5884000   0.83653918   -3.2500277   -1.7755994  0.051997851   -3.2500277    1.4744283   373661 
 5885000   0.83820521   -3.2521043   -1.7747831  0.049437719   -3.2521043    1.4773212   373672 
 5886000   0.83715574   -3.2492533   -1.7736554  0.055719612   -3.2492533    1.4755979   373640 
 5887000   0.83752798   -3.2512713   -1.7749857  0.055130413   -3.2512713    1.4762856   373632 
 5888000   0.83757812   -3.2499971    -1.773623  0.050323284   -3.2499971     1.476374   373632 
 5889000   0.83595216   -3.2478943   -1.7742246  0.051515495   -3.2478943    1.4736697   373591 
 5890000   0.83677825   -3.2484802    -1.773374   0.05248961   -3.2484802    1.4751062   373596 
 5891000   0.83505678   -3.2477338    -1.775615  0.047356218   -3.2477338    1.4721188   373584 
 5892000   0.83584244   -3.2489944   -1.7753958  0.048730294   -3.2489944    1.4735985   373560 
 5893000   0.83473505   -3.2480315    -1.776275  0.051176676   -3.2480315    1.4717565   373532 
 5894000   0.83589458   -3.2492063   -1.7752238   0.05001375   -3.2492063    1.4739825   373486 
 5895000   0.83629875   -3.2497861   -1.7748619  0.050656849   -3.2497861    1.4749242   373428 
 5896000   0.83522245   -3.2492851   -1.7760618  0.049642032   -3.2492851    1.4732233   373378 
 5897000   0.83694663   -3.2509788   -1.7748488  0.047120322   -3.2509788    1.4761301   373412 
 5898000   0.83653427   -3.2506307   -1.7750501  0.047351909   -3.2506307    1.4755806   373367 
 5899000   0.83600231   -3.2499587   -1.7752296   0.04912318   -3.2499587    1.4747292   373345 
 5900000   0.83389873   -3.2474322   -1.7764335  0.051920271   -3.2474322    1.4709987   373350 
 5901000   0.83463174   -3.2491856   -1.7766888  0.052830339   -3.2491856    1.4724968   373298 
 5902000   0.83691901   -3.2521596   -1.7754811  0.046638432   -3.2521596    1.4766785   373261 
 5903000   0.83510299   -3.2497079   -1.7761112  0.053313367   -3.2497079    1.4735966   373230 
 5904000   0.83606989   -3.2524204    -1.777086  0.044229731   -3.2524204    1.4753344   373222 
 5905000   0.83654182    -3.251241   -1.7750105  0.047739661    -3.251241    1.4762305   373206 
 5906000    0.8363858   -3.2521614   -1.7760915  0.051619434   -3.2521614    1.4760699   373177 
 5907000   0.83524339   -3.2520693   -1.7777904  0.051038912   -3.2520693    1.4742789   373120 
 5908000   0.83503921   -3.2523495   -1.7782176  0.044161689   -3.2523495    1.4741319   373066 
 5909000   0.83385043   -3.2506593   -1.7784129  0.050057902   -3.2506593    1.4722463   373012 
 5910000   0.83524455   -3.2514432   -1.7768144  0.052945234   -3.2514432    1.4746287   373032 
 5911000   0.83558892   -3.2504623   -1.7754035   0.05094379   -3.2504623    1.4750588   373077 
 5912000   0.83570866    -3.251534   -1.7760898  0.051353932    -3.251534    1.4754442   373033 
 5913000   0.83607957   -3.2521275   -1.7759573  0.057202658   -3.2521275    1.4761702   373015 
 5914000   0.83424752   -3.2502578   -1.7772393  0.055692683   -3.2502578    1.4730185   372994 
 5915000   0.83370017   -3.2501668   -1.7779568  0.054445632   -3.2501668      1.47221   372954 
 5916000   0.83431888   -3.2519003    -1.778495  0.053636877   -3.2519003    1.4734052   372928 
 5917000   0.83410079   -3.2505281   -1.7777213  0.055059865   -3.2505281    1.4728068   372982 
 5918000   0.83424206   -3.2526803   -1.7794937  0.048707946   -3.2526803    1.4731866   372949 
 5919000   0.83337918   -3.2525324   -1.7808498  0.050645761   -3.2525324    1.4716826   372944 
 5920000    0.8343716   -3.2550089   -1.7815264  0.044994958   -3.2550089    1.4734825   372932 
 5921000   0.83357967   -3.2525088   -1.7804445  0.045534393   -3.2525088    1.4720643   372937 
 5922000   0.83364044   -3.2522606   -1.7799627  0.049041008   -3.2522606    1.4722979   372905 
 5923000   0.83339206   -3.2522086   -1.7803218  0.049102756   -3.2522086    1.4718869   372898 
 5924000   0.83557549   -3.2552659   -1.7796098  0.050755148   -3.2552659    1.4756561   372920 
 5925000   0.83550067   -3.2536053   -1.7781882  0.054079662   -3.2536053    1.4754171   372947 
 5926000   0.83685311   -3.2555274   -1.7776665  0.051136454   -3.2555274    1.4778609   372933 
 5927000   0.83718295   -3.2551291   -1.7768404  0.052969621   -3.2551291    1.4782888   372972 
 5928000   0.83646045   -3.2560584   -1.7789147  0.057041056   -3.2560584    1.4771437   372939 
 5929000    0.8367058   -3.2569464   -1.7793536  0.055693373   -3.2569464    1.4775928   372935 
 5930000   0.83586335   -3.2566539   -1.7804894  0.049654034   -3.2566539    1.4761644   372920 
 5931000    0.8353318   -3.2557222   -1.7802631  0.053993324   -3.2557222    1.4754591   372861 
 5932000   0.83467329   -3.2553135   -1.7808949  0.052935204   -3.2553135    1.4744186   372830 
 5933000   0.83425932   -3.2537196   -1.7801627  0.058369036   -3.2537196    1.4735569   372863 
 5934000   0.83411309   -3.2561617   -1.7828157  0.051888147   -3.2561617     1.473346   372851 
 5935000   0.83458234   -3.2557509   -1.7814218  0.052763546   -3.2557509    1.4743291   372812 
 5936000   0.83496479   -3.2548246   -1.7799109  0.054825316   -3.2548246    1.4749137   372835 
 5937000   0.83529827   -3.2551449   -1.7795036  0.053647625   -3.2551449    1.4756413   372800 
 5938000   0.83622444   -3.2559392   -1.7787093  0.051736004   -3.2559392      1.47723   372812 
 5939000   0.83345163   -3.2521115   -1.7795389  0.049423144   -3.2521115    1.4725726   372751 
 5940000   0.83491456   -3.2524781   -1.7773405  0.052064784   -3.2524781    1.4751376   372756 
 5941000   0.83533025   -3.2526485   -1.7768121  0.051226573   -3.2526485    1.4758364   372765 
 5942000   0.83511179   -3.2527468   -1.7774864  0.055158804   -3.2527468    1.4752604   372813 
 5943000   0.83540607   -3.2535156    -1.777866  0.050836231   -3.2535156    1.4756497   372846 
 5944000   0.83729326   -3.2550076    -1.775953  0.048553259   -3.2550076    1.4790546   372828 
 5945000   0.83640323    -3.252426   -1.7747296   0.04964437    -3.252426    1.4776964   372774 
 5946000   0.83602813   -3.2516047   -1.7746145  0.055148183   -3.2516047    1.4769901   372785 
 5947000   0.83631287     -3.25262   -1.7751585  0.051695269     -3.25262    1.4774615   372793 
 5948000   0.83511316   -3.2499222   -1.7746039  0.050432119   -3.2499222    1.4753183   372799 
 5949000   0.83571451   -3.2512854   -1.7748929  0.050625918   -3.2512854    1.4763925   372796 
 5950000   0.83464114   -3.2498905   -1.7753191  0.051186536   -3.2498905    1.4745714   372777 
 5951000   0.83318596   -3.2479582   -1.7758036  0.051867211   -3.2479582    1.4721545   372738 
 5952000   0.83510423   -3.2495879    -1.774135  0.049511031   -3.2495879    1.4754529   372761 
 5953000   0.83541093   -3.2500297   -1.7739478  0.053369309   -3.2500297    1.4760819   372739 
 5954000   0.83422079   -3.2485045   -1.7744029  0.053607684   -3.2485045    1.4741016   372708 
 5955000   0.83357362   -3.2472531   -1.7742634  0.052406174   -3.2472531    1.4729897   372700 
 5956000   0.83368229   -3.2486903    -1.775469  0.052665283   -3.2486903    1.4732212   372690 
 5957000   0.83415277   -3.2500365   -1.7759048  0.049609595   -3.2500365    1.4741317   372670 
 5958000   0.83430306   -3.2492117   -1.7747036   0.05077524   -3.2492117    1.4745081   372642 
 5959000   0.83464546   -3.2504593   -1.7753896  0.046399777   -3.2504593    1.4750697   372653 
 5960000   0.83479402   -3.2504656   -1.7751769   0.04949945   -3.2504656    1.4752887   372664 
 5961000   0.83436076   -3.2500463   -1.7755351  0.052342315   -3.2500463    1.4745112   372667 
 5962000   0.83408847   -3.2490108   -1.7751747   0.04945213   -3.2490108    1.4738362   372716 
 5963000   0.83535915   -3.2500799   -1.7740935  0.046623905   -3.2500799    1.4759864   372740 
 5964000   0.83526813   -3.2498927     -1.77398  0.047206702   -3.2498927    1.4759127   372718 
 5965000   0.83525718   -3.2483499    -1.772405  0.052850233   -3.2483499    1.4759449   372705 
 5966000   0.83578653   -3.2493034   -1.7724945  0.049659552   -3.2493034    1.4768089   372723 
 5967000   0.83569981   -3.2478549   -1.7711834  0.049895804   -3.2478549    1.4766715   372719 
 5968000   0.83489143   -3.2469463   -1.7717427  0.054637124   -3.2469463    1.4752036   372729 
 5969000   0.83615649    -3.248974   -1.7713172  0.056597278    -3.248974    1.4776569   372674 
 5970000   0.83578126   -3.2498496   -1.7727686   0.05426186   -3.2498496     1.477081   372652 
 5971000   0.83558463   -3.2492845   -1.7724837  0.049895297   -3.2492845    1.4768008   372635 
 5972000   0.83588821   -3.2497107   -1.7724922  0.049499426   -3.2497107    1.4772184   372665 
 5973000   0.83540865   -3.2457881   -1.7694052  0.051445151   -3.2457881    1.4763828   372662 
 5974000   0.83516112   -3.2468351   -1.7707511  0.049825288   -3.2468351     1.476084   372627 
 5975000   0.83692641   -3.2482642   -1.7691435  0.049541958   -3.2482642    1.4791207   372648 
 5976000   0.83638679   -3.2463511   -1.7682555  0.052778943   -3.2463511    1.4780956   372666 
 5977000   0.83628758   -3.2465499   -1.7684868  0.047556101   -3.2465499    1.4780631   372630 
 5978000    0.8369403   -3.2470298   -1.7676741  0.052759568   -3.2470298    1.4793556   372595 
 5979000   0.83614937   -3.2464403   -1.7685065  0.049976451   -3.2464403    1.4779338   372601 
 5980000   0.83547754   -3.2439025   -1.7670968  0.048665208   -3.2439025    1.4768058   372586 
 5981000   0.83434493   -3.2414493   -1.7665545  0.050365402   -3.2414493    1.4748948   372563 
 5982000    0.8339968   -3.2423787   -1.7680202  0.049006092   -3.2423787    1.4743585   372543 
 5983000   0.83388932   -3.2429878   -1.7687955  0.051671571   -3.2429878    1.4741923   372537 
 5984000   0.83470022   -3.2426303   -1.7669807  0.047432713   -3.2426303    1.4756496   372531 
 5985000   0.83489656    -3.245086   -1.7688832  0.044876061    -3.245086    1.4762028   372479 
 5986000   0.83544729   -3.2446837   -1.7675072  0.047936227   -3.2446837    1.4771765   372479 
 5987000   0.83702502   -3.2451565   -1.7651665  0.050580725   -3.2451565      1.47999   372473 
 5988000   0.83531838   -3.2420973   -1.7650456   0.05060673   -3.2420973    1.4770517   372453 
 5989000   0.83539514    -3.243501   -1.7662065  0.048694545    -3.243501    1.4772945   372426 
 5990000   0.83444675   -3.2402047    -1.764512  0.054325142   -3.2402047    1.4756927   372407 
 5991000   0.83571562     -3.24195   -1.7640848  0.049784445     -3.24195    1.4778652   372425 
 5992000    0.8352177   -3.2419907    -1.765002  0.054131208   -3.2419907    1.4769887   372424 
 5993000   0.83601134    -3.243941   -1.7654933  0.048863629    -3.243941    1.4784477   372410 
 5994000   0.83527601   -3.2411101   -1.7640382  0.051067508   -3.2411101    1.4770719   372429 
 5995000   0.83495122   -3.2416379   -1.7649262  0.051128942   -3.2416379    1.4767117   372375 
 5996000    0.8343314   -3.2416699   -1.7660901  0.053856869   -3.2416699    1.4755798   372384 
 5997000   0.83471622   -3.2407997   -1.7646543  0.054013871   -3.2407997    1.4761454   372413 
 5998000   0.83480537   -3.2418468   -1.7654605  0.047331511   -3.2418468    1.4763864   372392 
 5999000   0.83352699   -3.2419115    -1.767786  0.051632157   -3.2419115    1.4741255   372392 
 6000000   0.83414864   -3.2423835   -1.7672101   0.05243064   -3.2423835    1.4751734   372405 
 6001000   0.83481015   -3.2420231    -1.765771  0.050347126   -3.2420231    1.4762521   372428 
 6002000   0.83434472   -3.2430979   -1.7675024  0.049684919   -3.2430979    1.4755954   372386 
 6003000   0.83568038   -3.2451687   -1.7671515  0.051090558   -3.2451687    1.4780172   372371 
 6004000   0.83437851   -3.2453778    -1.769564   0.05317562   -3.2453778    1.4758137   372346 
 6005000   0.83415082   -3.2463011   -1.7707752  0.050208436   -3.2463011    1.4755259   372317 
 6006000   0.83386487   -3.2453388    -1.770184  0.051321743   -3.2453388    1.4751548   372283 
 6007000   0.83251775   -3.2448367   -1.7718751  0.052122329   -3.2448367    1.4729616   372235 
 6008000   0.83432399   -3.2493971   -1.7731763  0.048715642   -3.2493971    1.4762208   372219 
 6009000   0.83272715    -3.245267   -1.7719072  0.053530485    -3.245267    1.4733598   372228 
 6010000   0.83417544   -3.2469645   -1.7708994  0.049726827   -3.2469645    1.4760651   372192 
 6011000    0.8338162   -3.2469091   -1.7711942   0.05261543   -3.2469091    1.4757148   372120 
 6012000   0.83464348   -3.2502571   -1.7731376  0.055049579   -3.2502571    1.4771195   372135 
 6013000   0.83417605   -3.2491781   -1.7728938  0.056733574   -3.2491781    1.4762843   372137 
 6014000   0.83562357     -3.25281   -1.7737375  0.052159676     -3.25281    1.4790726   372080 
 6015000   0.83237698   -3.2494136    -1.776143  0.056249289   -3.2494136    1.4732706   372094 
 6016000   0.83367559   -3.2498546   -1.7743529  0.052951207   -3.2498546    1.4755017   372111 
 6017000   0.83280664   -3.2495903   -1.7753769  0.053501675   -3.2495903    1.4742133   372048 
 6018000   0.83326249   -3.2510724    -1.775953  0.053306764   -3.2510724    1.4751194   372023 
 6019000   0.83333961   -3.2531746   -1.7778116   0.04731066   -3.2531746     1.475363   371996 
 6020000   0.83186689   -3.2493283    -1.776537  0.050704501   -3.2493283    1.4727913   371987 
 6021000   0.83301984   -3.2512723   -1.7762534  0.052799243   -3.2512723    1.4750189   371940 
 6022000   0.83321823   -3.2499638    -1.774542  0.050377668   -3.2499638    1.4754218   371927 
 6023000   0.83470643   -3.2519523    -1.773935   0.05263564   -3.2519523    1.4780173   371937 
 6024000   0.83489411   -3.2515121   -1.7732102  0.054391845   -3.2515121    1.4783019   371949 
 6025000   0.83509054   -3.2503937   -1.7717599  0.050566073   -3.2503937    1.4786338   371953 
 6026000   0.83470132   -3.2510712   -1.7732696  0.044961062   -3.2510712    1.4778016   371989 
 6027000   0.83385591   -3.2481864   -1.7718736  0.050495158   -3.2481864    1.4763128   371987 
 6028000   0.83392614   -3.2481807   -1.7716285  0.050750962   -3.2481807    1.4765522   371958 
 6029000   0.83331951   -3.2472999   -1.7718297  0.048221799   -3.2472999    1.4754702   371960 
 6030000   0.83330721   -3.2469694   -1.7714496  0.047510103   -3.2469694    1.4755198   371942 
 6031000   0.83097382   -3.2427868   -1.7713512  0.048837562   -3.2427868    1.4714356   371930 
 6032000   0.83192958   -3.2431839   -1.7699172  0.051601131   -3.2431839    1.4732667   371895 
 6033000   0.83157441   -3.2421341   -1.7694687  0.049048071   -3.2421341    1.4726654   371888 
 6034000   0.83309638   -3.2445102   -1.7688757  0.046838248   -3.2445102    1.4756345   371819 
 6035000   0.83150155   -3.2416625   -1.7686944  0.050003205   -3.2416625    1.4729681   371779 
 6036000   0.83138425   -3.2417912   -1.7687971  0.051005345   -3.2417912    1.4729941   371720 
 6037000    0.8312539   -3.2423978   -1.7695871  0.046812043   -3.2423978    1.4728107   371708 
 6038000   0.83035652   -3.2400515   -1.7686844  0.048178423   -3.2400515    1.4713671   371671 
 6039000   0.83091912   -3.2387501   -1.7665722  0.048932052   -3.2387501    1.4721779   371718 
 6040000   0.83144415   -3.2390933   -1.7661555  0.047299883   -3.2390933    1.4729377   371761 
 6041000   0.83135001   -3.2361109   -1.7632409  0.050503635   -3.2361109      1.47287   371736 
 6042000   0.83188615   -3.2364771   -1.7626175  0.053944623   -3.2364771    1.4738595   371726 
 6043000   0.83266772   -3.2397389   -1.7645502  0.050522798   -3.2397389    1.4751887   371740 
 6044000   0.83308403   -3.2389634    -1.763065  0.045723146   -3.2389634    1.4758984   371747 
 6045000   0.83196106   -3.2379021   -1.7638861  0.049336888   -3.2379021     1.474016   371720 
 6046000   0.83161515   -3.2372421   -1.7637002  0.054825876   -3.2372421    1.4735419   371685 
 6047000   0.83342392   -3.2391316   -1.7623291  0.052067678   -3.2391316    1.4768025   371671 
 6048000   0.83200638   -3.2383293   -1.7640029  0.054493336   -3.2383293    1.4743264   371662 
 6049000   0.83407148   -3.2405648   -1.7626467  0.052037647   -3.2405648    1.4779181   371679 
 6050000   0.83212233   -3.2391049   -1.7644818  0.048851788   -3.2391049    1.4746231   371639 
 6051000   0.83383724   -3.2399075   -1.7623368  0.050724633   -3.2399075    1.4775707   371662 
 6052000   0.83250608   -3.2382188   -1.7631261  0.054017465   -3.2382188    1.4750928   371692 
 6053000   0.83452953   -3.2395976   -1.7609076  0.052334607   -3.2395976      1.47869   371689 
 6054000   0.83240395   -3.2373503   -1.7623155  0.054652337   -3.2373503    1.4750348   371661 
 6055000   0.83408533   -3.2385193   -1.7605726  0.057238848   -3.2385193    1.4779467   371678 
 6056000   0.83374369   -3.2375857   -1.7601808  0.051826706   -3.2375857    1.4774049   371662 
 6057000   0.83444044   -3.2400189   -1.7613316  0.049959003   -3.2400189    1.4786873   371650 
 6058000   0.83377363    -3.238121   -1.7605915  0.052202315    -3.238121    1.4775295   371644 
 6059000   0.83427001   -3.2380772   -1.7597675   0.04863916   -3.2380772    1.4783097   371669 
 6060000   0.83275377   -3.2387184   -1.7629287  0.052464943   -3.2387184    1.4757897   371627 
 6061000   0.83266191   -3.2399859   -1.7642597  0.053088612   -3.2399859    1.4757262   371602 
 6062000   0.83151707   -3.2364375   -1.7628434  0.047247835   -3.2364375    1.4735941   371628 
 6063000    0.8317717   -3.2376459   -1.7633348  0.053697617   -3.2376459    1.4743112   371561 
 6064000    0.8315363      -3.2381   -1.7641188  0.048725584      -3.2381    1.4739812   371539 
 6065000   0.83230835   -3.2380564   -1.7625279  0.050933915   -3.2380564    1.4755284   371494 
 6066000   0.83122944   -3.2363008    -1.762816  0.053283076   -3.2363008    1.4734848   371527 
 6067000   0.83220455   -3.2371733   -1.7618885  0.052162275   -3.2371733    1.4752848   371509 
 6068000   0.83316724   -3.2381731   -1.7610982  0.055526846   -3.2381731    1.4770749   371488 
 6069000   0.83226708   -3.2371872   -1.7615492  0.053147652   -3.2371872     1.475638   371448 
 6070000   0.83254905   -3.2394193   -1.7632337   0.05183137   -3.2394193    1.4761856   371436 
 6071000   0.83349325   -3.2384386   -1.7604993  0.053367195   -3.2384386    1.4779393   371416 
 6072000   0.83362157   -3.2383457   -1.7600236  0.056205545   -3.2383457    1.4783221   371377 
 6073000   0.83433088   -3.2393193   -1.7596159  0.052103598   -3.2393193    1.4797035   371346 
 6074000   0.83366443   -3.2393703   -1.7607412  0.053758023   -3.2393703     1.478629   371319 
 6075000   0.83185642   -3.2392917   -1.7637463  0.050933149   -3.2392917    1.4755454   371288 
 6076000   0.83105388   -3.2368299   -1.7625769  0.051557402   -3.2368299    1.4742529   371255 
 6077000   0.83094054   -3.2383308    -1.764406  0.047680991   -3.2383308    1.4739248   371287 
 6078000   0.83204198   -3.2382649   -1.7622234  0.052319765   -3.2382649    1.4760416   371246 
 6079000   0.83146128   -3.2389546   -1.7639551  0.049262742   -3.2389546    1.4749995   371249 
 6080000    0.8307299   -3.2382054   -1.7645272  0.045402494   -3.2382054    1.4736782   371255 
 6081000   0.83192114   -3.2394198   -1.7635886  0.049274164   -3.2394198    1.4758312   371245 
 6082000   0.83187507   -3.2399834   -1.7641465  0.046885582   -3.2399834    1.4758369   371223 
 6083000   0.83150741   -3.2399004   -1.7646045  0.047496134   -3.2399004    1.4752959   371195 
 6084000   0.83255359   -3.2394874   -1.7623672  0.054482987   -3.2394874    1.4771202   371203 
 6085000   0.83285935   -3.2404479     -1.76261   0.05065318   -3.2404479    1.4778379   371159 
 6086000   0.83184638   -3.2403263   -1.7641506  0.052418297   -3.2403263    1.4761757   371125 
 6087000   0.83281728   -3.2432931   -1.7652312  0.048221277   -3.2432931    1.4780619   371084 
 6088000     0.832194   -3.2415841   -1.7647239  0.051239916   -3.2415841    1.4768602   371108 
 6089000   0.83231615   -3.2418272    -1.764587  0.053288111   -3.2418272    1.4772402   371067 
 6090000   0.83356147   -3.2440599   -1.7645616  0.048123938   -3.2440599    1.4794983   371055 
 6091000    0.8320256   -3.2414296   -1.7645259  0.050491701   -3.2414296    1.4769036   371022 
 6092000   0.83159887   -3.2403171   -1.7642187  0.051299315   -3.2403171    1.4760984   371034 
 6093000   0.83221589   -3.2408397   -1.7636899   0.04920232   -3.2408397    1.4771498   371045 
 6094000   0.83179497   -3.2407108    -1.764324  0.056992252   -3.2407108    1.4763868   371049 
 6095000   0.83273247   -3.2413522   -1.7632974  0.056364718   -3.2413522    1.4780548   371048 
 6096000   0.83248287   -3.2412002   -1.7637118  0.056149657   -3.2412002    1.4774883   371079 
 6097000   0.83131825   -3.2404443   -1.7647525  0.053962796   -3.2404443    1.4756918   371011 
 6098000   0.83200188   -3.2410677   -1.7641784  0.057692183   -3.2410677    1.4768894   371015 
 6099000   0.83173374   -3.2425996   -1.7661424   0.05153094   -3.2425996    1.4764572   371004 
 6100000     0.832179    -3.243483   -1.7659685  0.050525019    -3.243483    1.4775144   370937 
 6101000   0.83076567   -3.2416745   -1.7665581  0.052949488   -3.2416745    1.4751164   370909 
 6102000   0.83312328   -3.2443209    -1.765126  0.050024685   -3.2443209     1.479195   370936 
 6103000     0.831592    -3.241125   -1.7644696  0.053768858    -3.241125    1.4766553   370891 
 6104000   0.83108309   -3.2410138   -1.7651666   0.05044939   -3.2410138    1.4758472   370867 
 6105000   0.83148793    -3.241358   -1.7646685   0.05157061    -3.241358    1.4766895   370836 
 6106000   0.83050679   -3.2406061   -1.7656074  0.057541143   -3.2406061    1.4749988   370823 
 6107000   0.83158015   -3.2431604   -1.7661558   0.05116219   -3.2431604    1.4770046   370798 
 6108000    0.8317168   -3.2424087   -1.7651016  0.049264176   -3.2424087    1.4773071   370783 
 6109000   0.83132891   -3.2425958   -1.7659976  0.053391072   -3.2425958    1.4765982   370788 
 6110000   0.83120899   -3.2414574   -1.7650164  0.050761998   -3.2414574     1.476441   370774 
 6111000   0.83205832   -3.2415883   -1.7636347  0.056175456   -3.2415883    1.4779536   370773 
 6112000   0.83260734   -3.2406661   -1.7619886  0.051579253   -3.2406661    1.4786776   370836 
 6113000   0.83225021   -3.2417393    -1.763708   0.05310324   -3.2417393    1.4780313   370839 
 6114000   0.83138505   -3.2387204   -1.7622574  0.052181225   -3.2387204     1.476463   370847 
 6115000   0.83332473   -3.2426681   -1.7626846  0.052410662   -3.2426681    1.4799835   370828 
 6116000   0.83180771    -3.240446    -1.763336  0.053032314    -3.240446    1.4771101   370873 
 6117000   0.83189479   -3.2403359   -1.7630314   0.05083933   -3.2403359    1.4773045   370863 
 6118000   0.83299336   -3.2398968   -1.7606175  0.049856975   -3.2398968    1.4792793   370857 
 6119000   0.83199295    -3.238017   -1.7604106  0.051181598    -3.238017    1.4776063   370831 
 6120000   0.83154114   -3.2395713   -1.7626439  0.048122886   -3.2395713    1.4769274   370800 
 6121000   0.83233361   -3.2415237   -1.7628059  0.049738077   -3.2415237    1.4787178   370704 
 6122000   0.83140993    -3.241823   -1.7646466  0.047467033    -3.241823    1.4771764   370679 
 6123000    0.8322371   -3.2423068   -1.7636329    0.0498607   -3.2423068    1.4786739   370672 
 6124000   0.83043453   -3.2391908    -1.763624  0.060715775   -3.2391908    1.4755668   370648 
 6125000   0.83014964   -3.2386488   -1.7634688  0.052559006   -3.2386488      1.47518   370618 
 6126000   0.83032894      -3.2368   -1.7612496  0.052256128      -3.2368    1.4755503   370605 
 6127000   0.83075447    -3.236841   -1.7605743  0.052901645    -3.236841    1.4762667   370615 
 6128000   0.83169269   -3.2382169   -1.7604545  0.054126226   -3.2382169    1.4777625   370658 
 6129000   0.83157937   -3.2389494   -1.7612248    0.0549474   -3.2389494    1.4777246   370617 
 6130000   0.83149228   -3.2392195    -1.761546  0.047869735   -3.2392195    1.4776735   370591 
 6131000   0.83062111   -3.2363293    -1.760192  0.050686197   -3.2363293    1.4761373   370588 
 6132000   0.83278519   -3.2405511   -1.7606118  0.053781012   -3.2405511    1.4799392   370599 
 6133000   0.83161491    -3.239993   -1.7620697  0.051537272    -3.239993    1.4779233   370583 
 6134000   0.83236377   -3.2410604   -1.7616984  0.051834763   -3.2410604     1.479362   370556 
 6135000   0.83189999   -3.2400194   -1.7613739   0.05399497   -3.2400194    1.4786454   370529 
 6136000   0.83136364   -3.2400583   -1.7622106  0.053040325   -3.2400583    1.4778477   370490 
 6137000   0.82994715   -3.2370903   -1.7615973   0.05903788   -3.2370903     1.475493   370449 
 6138000   0.83110885   -3.2390577   -1.7614237  0.051506633   -3.2390577     1.477634   370430 
 6139000   0.83138487   -3.2402271   -1.7620305  0.054644713   -3.2402271    1.4781966   370412 
 6140000   0.83178828   -3.2405095   -1.7616475  0.048689303   -3.2405095     1.478862   370425 
 6141000    0.8320569   -3.2423111   -1.7628757  0.048238436   -3.2423111    1.4794354   370401 
 6142000   0.83094664   -3.2412049   -1.7637356  0.048488866   -3.2412049    1.4774693   370399 
 6143000   0.82882039   -3.2359649   -1.7621211  0.049242927   -3.2359649    1.4738439   370360 
 6144000   0.83105492    -3.239074   -1.7611688  0.050499756    -3.239074    1.4779052   370338 
 6145000   0.83169237   -3.2403457    -1.761227  0.055208235   -3.2403457    1.4791187   370318 
 6146000   0.83093439   -3.2384551   -1.7606565  0.056066791   -3.2384551    1.4777986   370311 
 6147000   0.83162935   -3.2396108    -1.760664  0.058846863   -3.2396108    1.4789467   370333 
 6148000   0.83249379   -3.2423116   -1.7618036   0.05489822   -3.2423116     1.480508   370327 
 6149000   0.83054692    -3.238045   -1.7609635  0.054808913    -3.238045    1.4770816   370318 
 6150000    0.8305515   -3.2371487   -1.7600111  0.052570286   -3.2371487    1.4771376   370306 
 6151000   0.83127981   -3.2396326    -1.761068  0.049846009   -3.2396326    1.4785646   370273 
 6152000   0.83048223   -3.2384745   -1.7614681  0.050543903   -3.2384745    1.4770064   370308 
 6153000   0.82987746   -3.2364794   -1.7606761  0.053412678   -3.2364794    1.4758033   370340 
 6154000   0.82983478    -3.236466   -1.7607585  0.050726785    -3.236466    1.4757075   370345 
 6155000   0.83104439   -3.2372357   -1.7592894  0.052197296   -3.2372357    1.4779463   370323 
 6156000   0.82939966   -3.2360996    -1.760895  0.052606624   -3.2360996    1.4752046   370277 
 6157000   0.83041222   -3.2364196   -1.7593303  0.055201621   -3.2364196    1.4770893   370256 
 6158000   0.83045092   -3.2352447   -1.7580706  0.050757285   -3.2352447    1.4771741   370252 
 6159000   0.82999398   -3.2351233   -1.7586742  0.050455769   -3.2351233    1.4764491   370230 
 6160000   0.82980257   -3.2367635   -1.7606151  0.048531523   -3.2367635    1.4761484   370220 
 6161000   0.82903874    -3.236446   -1.7616404  0.049647637    -3.236446    1.4748056   370216 
 6162000   0.83141607   -3.2391543   -1.7600158  0.053445145   -3.2391543    1.4791386   370190 
 6163000   0.83096564   -3.2394659   -1.7610687  0.051457504   -3.2394659    1.4783971   370175 
 6164000   0.83081844   -3.2378289   -1.7596817  0.052776624   -3.2378289    1.4781472   370172 
 6165000   0.83067935   -3.2381472   -1.7601836  0.053477559   -3.2381472    1.4779637   370156 
 6166000   0.83180861   -3.2383636   -1.7584907  0.055022586   -3.2383636    1.4798729   370181 
 6167000   0.83199183   -3.2374675   -1.7572526  0.050040827   -3.2374675    1.4802149   370177 
 6168000   0.83036299   -3.2367888   -1.7593002  0.054321496   -3.2367888    1.4774886   370134 
 6169000   0.83030653   -3.2373672   -1.7601108   0.05265954   -3.2373672    1.4772564   370167 
 6170000   0.83050856   -3.2399071   -1.7621634  0.049261312   -3.2399071    1.4777436   370135 
 6171000   0.83101564   -3.2385931   -1.7599352  0.045134912   -3.2385931    1.4786578   370132 
 6172000   0.82945852   -3.2353914   -1.7593726  0.056655297   -3.2353914    1.4760188   370099 
 6173000   0.82972743   -3.2374721   -1.7610107  0.051450646   -3.2374721    1.4764614   370108 
 6174000   0.83090537   -3.2391852     -1.76026  0.051949376   -3.2391852    1.4789251   370016 
 6175000   0.83115151   -3.2400591   -1.7606439  0.049578845   -3.2400591    1.4794152   370003 
 6176000   0.83116893   -3.2398226   -1.7603244  0.059153774   -3.2398226    1.4794982   369990 
 6177000   0.83063016   -3.2384895   -1.7597424   0.05708753   -3.2384895     1.478747   369938 
 6178000   0.83046024   -3.2392272   -1.7606988  0.050542723   -3.2392272    1.4785285   369917 
 6179000   0.83103227   -3.2394287   -1.7598299  0.050669311   -3.2394287    1.4795989   369904 
 6180000   0.83111111   -3.2378896   -1.7580503   0.05302957   -3.2378896    1.4798393   369879 
 6181000    0.8307422   -3.2381394    -1.758841  0.051439711   -3.2381394    1.4792984   369850 
 6182000    0.8305766   -3.2375641   -1.7586605   0.05154894   -3.2375641    1.4789035   369875 
 6183000   0.83014234   -3.2371111   -1.7589289  0.055517544   -3.2371111    1.4781823   369862 
 6184000   0.83171964   -3.2400481    -1.758881  0.052284922   -3.2400481    1.4811671   369818 
 6185000   0.82941886   -3.2362341   -1.7590446  0.054620346   -3.2362341    1.4771895   369788 
 6186000   0.82904823   -3.2341593   -1.7574781  0.047155592   -3.2341593    1.4766812   369750 
 6187000   0.82908036   -3.2352854    -1.758499  0.051987221   -3.2352854    1.4767864   369738 
 6188000   0.82898926   -3.2350735   -1.7585053  0.050599601   -3.2350735    1.4765682   369752 
 6189000   0.82886813   -3.2362216   -1.7596934  0.048481829   -3.2362216    1.4765281   369708 
 6190000   0.82705023   -3.2339673   -1.7603268  0.046418215   -3.2339673    1.4736405   369620 
 6191000    0.8277167   -3.2344064   -1.7595624  0.047880706   -3.2344064     1.474844   369616 
 6192000   0.82858423   -3.2334713   -1.7570176  0.048748707   -3.2334713    1.4764537   369600 
 6193000   0.82868659   -3.2344307   -1.7577546  0.050140926   -3.2344307     1.476676   369590 
 6194000   0.83057574   -3.2375963   -1.7574778  0.046384169   -3.2375963    1.4801185   369571 
 6195000   0.82863541   -3.2337601   -1.7569795  0.050100678   -3.2337601    1.4767806   369541 
 6196000   0.83133757   -3.2381873   -1.7567072  0.048599553   -3.2381873    1.4814801   369570 
 6197000   0.82921869   -3.2366665   -1.7589463  0.042157811   -3.2366665    1.4777202   369566 
 6198000   0.82884602   -3.2361918   -1.7590718  0.047928418   -3.2361918      1.47712   369550 
 6199000   0.82800075   -3.2325333   -1.7568957  0.053783291   -3.2325333    1.4756376   369544 
 6200000   0.82856105   -3.2334939   -1.7567179  0.051457272   -3.2334939     1.476776   369509 
 6201000   0.82762258    -3.234284   -1.7591647  0.050655375    -3.234284    1.4751193   369505 
 6202000   0.82930496   -3.2367513   -1.7585894  0.051870475   -3.2367513    1.4781619   369494 
 6203000   0.82924425   -3.2383838   -1.7602901  0.048071766   -3.2383838    1.4780937   369484 
 6204000   0.82936798   -3.2384831   -1.7601969  0.050955264   -3.2384831    1.4782862   369491 
 6205000   0.82995322   -3.2376722   -1.7583348  0.050341038   -3.2376722    1.4793374   369489 
 6206000   0.82964281   -3.2371195   -1.7583234  0.051693005   -3.2371195    1.4787961   369486 
 6207000   0.82994881   -3.2389552   -1.7595976  0.048028218   -3.2389552    1.4793576   369482 
 6208000   0.82932117   -3.2374337   -1.7590309  0.054512371   -3.2374337    1.4784029   369441 
 6209000    0.8287087   -3.2392378   -1.7616308  0.053562403   -3.2392378     1.477607   369367 
 6210000   0.82990975   -3.2397022   -1.7598936   0.05341265   -3.2397022    1.4798086   369352 
 6211000   0.83073106   -3.2423801   -1.7613156  0.052853125   -3.2423801    1.4810645   369404 
 6212000   0.82977949   -3.2407385   -1.7613424  0.051681417   -3.2407385    1.4793961   369397 
 6213000   0.82977222   -3.2399535   -1.7605344  0.052230619   -3.2399535    1.4794192   369388 
 6214000   0.83017246   -3.2394405   -1.7594279  0.050453369   -3.2394405    1.4800126   369418 
 6215000   0.82911171   -3.2374169   -1.7592754  0.050997411   -3.2374169    1.4781415   369413 
 6216000   0.82889559   -3.2370937   -1.7593215  0.054119881   -3.2370937    1.4777722   369409 
 6217000   0.82914159   -3.2366201   -1.7582893  0.053808604   -3.2366201    1.4783308   369379 
 6218000   0.82910437   -3.2374119   -1.7591354  0.054824408   -3.2374119    1.4782765   369376 
 6219000   0.82954596   -3.2381308   -1.7591871  0.056130807   -3.2381308    1.4789437   369406 
 6220000   0.83017782   -3.2400803    -1.759898  0.055817096   -3.2400803    1.4801824   369378 
 6221000   0.82836555   -3.2377711    -1.760692  0.050429873   -3.2377711    1.4770791   369346 
 6222000   0.82803247   -3.2370424   -1.7603893  0.052259313   -3.2370424    1.4766531   369304 
 6223000   0.82718743   -3.2375419   -1.7622199  0.053659078   -3.2375419    1.4753219   369260 
 6224000   0.82824483   -3.2406904   -1.7632425  0.047325958   -3.2406904    1.4774479   369200 
 6225000    0.8265849   -3.2368842   -1.7624532  0.051106042   -3.2368842     1.474431   369214 
 6226000   0.82766917   -3.2373961   -1.7609311  0.052577447   -3.2373961     1.476465   369189 
 6227000   0.82840539   -3.2382329   -1.7604265  0.047806844   -3.2382329    1.4778064   369182 
 6228000   0.82804009   -3.2375366    -1.760474  0.052202881   -3.2375366    1.4770627   369205 
 6229000   0.82904799    -3.241033   -1.7621484  0.046894531    -3.241033    1.4788846   369199 
 6230000   0.82724661   -3.2373718   -1.7615886  0.049575265   -3.2373718    1.4757832   369171 
 6231000    0.8278036   -3.2371949    -1.760246  0.052383536   -3.2371949    1.4769489   369128 
 6232000   0.82837645   -3.2372732   -1.7592823    0.0556318   -3.2372732    1.4779909   369123 
 6233000   0.82766364   -3.2377233   -1.7609641  0.049957874   -3.2377233    1.4767591   369113 
 6234000    0.8278812   -3.2401505   -1.7629312   0.05278177   -3.2401505    1.4772194   369095 
 6235000   0.82792685    -3.240375    -1.762902   0.05068358    -3.240375    1.4774729   369052 
 6236000   0.82752279   -3.2394893   -1.7627174  0.055800905   -3.2394893    1.4767719   369047 
 6237000   0.82886863   -3.2416501   -1.7625206  0.054533426   -3.2416501    1.4791295   369058 
 6238000   0.82867226   -3.2421035   -1.7633444  0.051976515   -3.2421035    1.4787591   369063 
 6239000   0.82856405   -3.2401668   -1.7615167  0.049058831   -3.2401668    1.4786501   369042 
 6240000   0.82852805   -3.2402349    -1.761613  0.050037427   -3.2402349    1.4786219   369033 
 6241000   0.82820972   -3.2412984   -1.7632967  0.049864117   -3.2412984    1.4780018   369046 
 6242000   0.82696195   -3.2388923   -1.7631293  0.057706221   -3.2388923     1.475763   369049 
 6243000   0.82781669   -3.2402106   -1.7627741  0.056010502   -3.2402106    1.4774365   369012 
 6244000   0.82723613    -3.239659   -1.7631066  0.053260102    -3.239659    1.4765524   368974 
 6245000   0.82732919   -3.2398229   -1.7630604  0.050514352   -3.2398229    1.4767625   368963 
 6246000   0.82796822   -3.2401988   -1.7620432   0.05333882   -3.2401988    1.4781556   368900 
 6247000   0.82770551   -3.2404316   -1.7626729  0.048372466   -3.2404316    1.4777587   368882 
 6248000   0.82814841   -3.2419017     -1.76322  0.050807429   -3.2419017    1.4786817   368849 
 6249000   0.82664495   -3.2398839   -1.7636826  0.048164394   -3.2398839    1.4762013   368798 
 6250000   0.82642065   -3.2389007   -1.7630439  0.050133161   -3.2389007    1.4758568   368784 
 6251000   0.82576459   -3.2386405   -1.7639113  0.051186974   -3.2386405    1.4747292   368773 
 6252000   0.82552027   -3.2398922   -1.7654354  0.049204921   -3.2398922    1.4744568   368732 
 6253000   0.82560463   -3.2399844    -1.765241  0.050494598   -3.2399844    1.4747434   368698 
 6254000   0.82710565   -3.2412081   -1.7638035  0.053308031   -3.2412081    1.4774046   368703 
 6255000   0.82695487   -3.2411754   -1.7640441  0.052899646   -3.2411754    1.4771313   368704 
 6256000   0.82821423   -3.2428843   -1.7633751  0.051019156   -3.2428843    1.4795092   368672 
 6257000   0.82616366    -3.239835    -1.763997  0.052450717    -3.239835    1.4758381   368674 
 6258000   0.82621275   -3.2388256   -1.7626717  0.050502953   -3.2388256     1.476154   368617 
 6259000   0.82569719    -3.238161   -1.7628881  0.053720468    -3.238161    1.4752729   368607 
 6260000   0.82693781   -3.2403844   -1.7628589  0.052675497   -3.2403844    1.4775256   368598 
 6261000   0.82601475   -3.2395085   -1.7636082  0.053935113   -3.2395085    1.4759003   368592 
 6262000   0.82741376   -3.2407401   -1.7623159  0.052710868   -3.2407401    1.4784241   368586 
 6263000   0.82578907   -3.2396465   -1.7641134  0.050713737   -3.2396465    1.4755331   368583 
 6264000   0.82579264   -3.2384481   -1.7630487  0.050800644   -3.2384481    1.4753994   368618 
 6265000   0.82588676   -3.2376024   -1.7620109  0.053049855   -3.2376024    1.4755916   368612 
 6266000   0.82454843   -3.2339384   -1.7605781  0.054828992   -3.2339384    1.4733603   368572 
 6267000   0.82749279   -3.2388986   -1.7600685  0.049933058   -3.2388986    1.4788301   368520 
 6268000   0.82857346   -3.2402461   -1.7593883  0.050824421   -3.2402461    1.4808578   368496 
 6269000   0.82790946   -3.2392629   -1.7594953  0.052303488   -3.2392629    1.4797675   368472 
 6270000   0.82754197   -3.2374825   -1.7583959  0.056489557   -3.2374825    1.4790866   368478 
 6271000   0.82696775   -3.2364552    -1.758399  0.054697472   -3.2364552    1.4780563   368479 
 6272000   0.82736423   -3.2369019   -1.7579364  0.057119179   -3.2369019    1.4789656   368429 
 6273000   0.82580918   -3.2350388   -1.7589731  0.048310793   -3.2350388    1.4760656   368459 
 6274000   0.82580192   -3.2359645   -1.7599559  0.047664586   -3.2359645    1.4760086   368470 
 6275000   0.82478493   -3.2361954   -1.7617685  0.044866877   -3.2361954     1.474427   368411 
 6276000   0.82327859   -3.2338789   -1.7620649  0.051102046   -3.2338789     1.471814   368391 
 6277000   0.82364308   -3.2343157     -1.76187  0.051567135   -3.2343157    1.4724457   368396 
 6278000    0.8242243   -3.2347338    -1.761201  0.055146297   -3.2347338    1.4735327   368384 
 6279000   0.82501381   -3.2342932    -1.759317  0.049931558   -3.2342932    1.4749762   368376 
 6280000    0.8246665   -3.2340503    -1.759735  0.051173888   -3.2340503    1.4743153   368386 
 6281000   0.82491214   -3.2350887   -1.7602822  0.047287697   -3.2350887    1.4748065   368373 
 6282000   0.82482361   -3.2360144    -1.761142  0.048450344   -3.2360144    1.4748724   368317 
 6283000   0.82476621   -3.2348267   -1.7598767  0.051293613   -3.2348267      1.47495   368272 
 6284000   0.82469138   -3.2341609   -1.7592846  0.053956543   -3.2341609    1.4748762   368257 
 6285000   0.82521034   -3.2334164    -1.757592   0.05216382   -3.2334164    1.4758244   368252 
 6286000    0.8256989   -3.2330034   -1.7562732  0.049675955   -3.2330034    1.4767302   368244 
 6287000   0.82630972   -3.2341248   -1.7564426  0.050385183   -3.2341248    1.4776822   368279 
 6288000   0.82685415   -3.2341128   -1.7555814  0.057031882   -3.2341128    1.4785313   368310 
 6289000   0.82603657   -3.2338178   -1.7567444  0.054184891   -3.2338178    1.4770734   368309 
 6290000   0.82581185   -3.2351925   -1.7584408  0.050357211   -3.2351925    1.4767518   368289 
 6291000   0.82525408    -3.234582   -1.7588036  0.048280299    -3.234582    1.4757784   368283 
 6292000   0.82532197   -3.2345098    -1.758602  0.044498579   -3.2345098    1.4759078   368281 
 6293000    0.8262194   -3.2352042   -1.7574588   0.05260226   -3.2352042    1.4777454   368223 
 6294000   0.82561846   -3.2349199   -1.7582894  0.053865025   -3.2349199    1.4766305   368233 
 6295000   0.82594383   -3.2362876   -1.7590511  0.054533579   -3.2362876    1.4772365   368227 
 6296000   0.82698855   -3.2378858   -1.7587406  0.052547179   -3.2378858    1.4791451   368217 
 6297000   0.82679209   -3.2368016   -1.7580641   0.05091206   -3.2368016    1.4787375   368231 
 6298000   0.82907904   -3.2397125   -1.7569531  0.049041377   -3.2397125    1.4827594   368248 
 6299000   0.82622759   -3.2351751   -1.7573429  0.052706405   -3.2351751    1.4778323   368205 
 6300000   0.82541189   -3.2329506   -1.7565533  0.050199834   -3.2329506    1.4763973   368199 
 6301000   0.82595051   -3.2330877   -1.7559837  0.049839132   -3.2330877     1.477104   368263 
 6302000   0.82792041   -3.2345908   -1.7539559  0.052902857   -3.2345908    1.4806349   368261 
 6303000   0.82702574   -3.2348417   -1.7557144  0.056617123   -3.2348417    1.4791273   368238 
 6304000   0.82773145   -3.2358708    -1.755405  0.056824259   -3.2358708    1.4804659   368219 
 6305000   0.82746957   -3.2343451   -1.7544561  0.051763078   -3.2343451    1.4798889   368246 
 6306000   0.82789802   -3.2357637   -1.7547948  0.059866963   -3.2357637    1.4809689   368168 
 6307000   0.82753233   -3.2367643   -1.7564978  0.053658905   -3.2367643    1.4802665   368180 
 6308000   0.82653885   -3.2354089   -1.7567307  0.056230581   -3.2354089    1.4786781   368133 
 6309000    0.8260772   -3.2332266   -1.7554185  0.051574503   -3.2332266    1.4778081   368144 
 6310000   0.82494706   -3.2324193   -1.7564686  0.051030894   -3.2324193    1.4759507   368103 
 6311000   0.82612218   -3.2348494    -1.756732  0.051431848   -3.2348494    1.4781174   368087 
 6312000   0.82603607   -3.2350923   -1.7570728  0.048942598   -3.2350923    1.4780196   368073 
 6313000   0.82655892   -3.2345448   -1.7556057  0.050258463   -3.2345448     1.478939   368077 
 6314000   0.82614636   -3.2341057   -1.7559491  0.051680075   -3.2341057    1.4781567   368088 
 6315000   0.82397812   -3.2310741   -1.7566046  0.054302874   -3.2310741    1.4744695   368040 
 6316000   0.82509675   -3.2331885   -1.7566169  0.047317362   -3.2331885    1.4765715   368015 
 6317000    0.8261325   -3.2353454   -1.7567476  0.049442142   -3.2353454    1.4785978   367972 
 6318000   0.82618779   -3.2357521   -1.7571196  0.049043111   -3.2357521    1.4786325   367988 
 6319000   0.82500586   -3.2340889    -1.757379  0.052813184   -3.2340889    1.4767098   367940 
 6320000   0.82370988   -3.2328677   -1.7582853  0.052797803   -3.2328677    1.4745825   367892 
 6321000   0.82403757   -3.2357801   -1.7604586  0.048611696   -3.2357801    1.4753215   367854 
 6322000   0.82481246   -3.2352155   -1.7584827  0.051615107   -3.2352155    1.4767329   367848 
 6323000   0.82497343   -3.2378037   -1.7606822  0.050790982   -3.2378037    1.4771215   367823 
 6324000   0.82533869   -3.2375527   -1.7596526  0.055184935   -3.2375527       1.4779   367792 
 6325000   0.82543211   -3.2378158   -1.7596561  0.049198389   -3.2378158    1.4781598   367769 
 6326000    0.8256017   -3.2369011   -1.7584296  0.055032157   -3.2369011    1.4784715   367767 
 6327000   0.82628568   -3.2366742   -1.7568089  0.056498647   -3.2366742    1.4798653   367725 
 6328000   0.82647238   -3.2379479   -1.7575429  0.053445304   -3.2379479     1.480405   367674 
 6329000   0.82660426   -3.2418456   -1.7610352  0.055616795   -3.2418456    1.4808104   367632 
 6330000   0.82437691    -3.238499   -1.7614859  0.055385144    -3.238499    1.4770131   367584 
 6331000   0.82431759   -3.2388729   -1.7617853  0.051259229   -3.2388729    1.4770877   367539 
 6332000   0.82330393   -3.2375104   -1.7621588  0.051527223   -3.2375104    1.4753516   367519 
 6333000   0.82389514   -3.2381329   -1.7617219  0.055457392   -3.2381329     1.476411   367519 
 6334000   0.82312871   -3.2381495   -1.7632002  0.050188141   -3.2381495    1.4749493   367541 
 6335000   0.82347701   -3.2399324   -1.7640458  0.047317168   -3.2399324    1.4758866   367463 
 6336000   0.82361813   -3.2390037    -1.763061  0.048678266   -3.2390037    1.4759427   367512 
 6337000   0.82277531   -3.2369264   -1.7623657  0.054595628   -3.2369264    1.4745608   367480 
 6338000   0.82351341   -3.2381944   -1.7622707  0.042952931   -3.2381944    1.4759237   367470 
 6339000    0.8229412   -3.2361006   -1.7612987  0.046595788   -3.2361006    1.4748019   367494 
 6340000   0.82186198    -3.234502    -1.761558   0.04817814    -3.234502     1.472944   367475 
 6341000   0.82368114   -3.2346943   -1.7584459  0.054242651   -3.2346943    1.4762485   367464 
 6342000   0.82357379   -3.2350486   -1.7588479  0.054351866   -3.2350486    1.4762007   367428 
 6343000   0.82378494   -3.2350606    -1.758385  0.055847983   -3.2350606    1.4766756   367404 
 6344000   0.82254169    -3.232776   -1.7581564  0.057494134    -3.232776    1.4746196   367361 
 6345000   0.82296347   -3.2336228   -1.7581266  0.055853535   -3.2336228    1.4754962   367331 
 6346000   0.82490563   -3.2377095   -1.7586949  0.052733705   -3.2377095    1.4790146   367322 
 6347000   0.82397226   -3.2390169   -1.7616637  0.055533492   -3.2390169    1.4773532   367319 
 6348000   0.82374883   -3.2360891   -1.7591767  0.050209988   -3.2360891    1.4769124   367329 
 6349000   0.82320619   -3.2345316   -1.7585922  0.054551001   -3.2345316    1.4759395   367329 
 6350000   0.82353192   -3.2340946    -1.757555  0.055321019   -3.2340946    1.4765395   367325 
 6351000   0.82278288   -3.2344798   -1.7592311  0.049970391   -3.2344798    1.4752488   367312 
 6352000   0.82286519   -3.2347118   -1.7593275  0.052317555   -3.2347118    1.4753843   367315 
 6353000   0.82280551   -3.2330316   -1.7576298  0.047746595   -3.2330316    1.4754018   367284 
 6354000   0.82297887   -3.2346443   -1.7587226   0.05068401   -3.2346443    1.4759216   367232 
 6355000   0.82285352   -3.2354288   -1.7596918  0.051998616   -3.2354288     1.475737   367222 
 6356000   0.82194213   -3.2342294   -1.7601831  0.048549869   -3.2342294    1.4740463   367236 
 6357000   0.82217612   -3.2334954   -1.7588929  0.047660818   -3.2334954    1.4746025   367202 
 6358000   0.82302945   -3.2338298   -1.7577169  0.050138502   -3.2338298    1.4761128   367207 
 6359000   0.82287013   -3.2342207    -1.758257  0.054400159   -3.2342207    1.4759638   367173 
 6360000   0.82313289   -3.2343598   -1.7578202  0.050930366   -3.2343598    1.4765396   367147 
 6361000   0.82270256   -3.2328373   -1.7568525  0.053962503   -3.2328373    1.4759848   367093 
 6362000    0.8240011   -3.2363093   -1.7578499  0.051248711   -3.2363093    1.4784594   367057 
 6363000   0.82333023   -3.2348144   -1.7574419  0.049662024   -3.2348144    1.4773725   367028 
 6364000   0.82264603   -3.2331195   -1.7569024  0.051050606   -3.2331195    1.4762171   367010 
 6365000   0.82214386   -3.2305278   -1.7553123  0.047669555   -3.2305278    1.4752155   367035 
 6366000    0.8233335   -3.2346526   -1.7571495  0.050033653   -3.2346526    1.4775031   366997 
 6367000   0.82125101   -3.2300352   -1.7562251  0.051308475   -3.2300352    1.4738102   366986 
 6368000   0.82264702   -3.2330452   -1.7566453  0.049960208   -3.2330452    1.4763999   366965 
 6369000   0.82230171   -3.2315805   -1.7558405  0.050051018   -3.2315805      1.47574   366975 
 6370000    0.8215875   -3.2301332   -1.7555745  0.049329123   -3.2301332    1.4745587   366950 
 6371000   0.82339533   -3.2316092   -1.7538703  0.049232221   -3.2316092    1.4777389   366966 
 6372000   0.82176113   -3.2282836   -1.7534253  0.049267382   -3.2282836    1.4748583   366953 
 6373000   0.82153235   -3.2285482    -1.753988  0.048390017   -3.2285482    1.4745602   366925 
 6374000   0.82250851   -3.2295708   -1.7533189  0.053298494   -3.2295708    1.4762519   366940 
 6375000      0.82179   -3.2287988   -1.7540616  0.054032231   -3.2287988    1.4747373   366996 
 6376000   0.82251426   -3.2297888   -1.7537639  0.051466697   -3.2297888    1.4760249   366999 
 6377000   0.82391298   -3.2303292   -1.7517903  0.051124763   -3.2303292     1.478539   366998 
 6378000   0.82379913   -3.2326835   -1.7542602  0.050417793   -3.2326835    1.4784233   366976 
 6379000   0.82377301   -3.2325216    -1.754117  0.050122817   -3.2325216    1.4784046   366969 
 6380000    0.8216517    -3.228647   -1.7539932  0.057543329    -3.228647    1.4746538   366955 
 6381000   0.82321907   -3.2309661   -1.7534268  0.055897462   -3.2309661    1.4775393   366937 
 6382000     0.824487   -3.2323716   -1.7525283  0.051646459   -3.2323716    1.4798433   366930 
 6383000   0.82385684   -3.2316153   -1.7527056  0.054869223   -3.2316153    1.4789097   366881 
 6384000    0.8245156   -3.2342296   -1.7539639  0.057787975   -3.2342296    1.4802658   366838 
 6385000   0.82442383   -3.2344305   -1.7543013  0.049396386   -3.2344305    1.4801292   366831 
 6386000   0.82241303   -3.2313953   -1.7546708    0.0520347   -3.2313953    1.4767245   366780 
 6387000   0.82332111    -3.233228   -1.7546997  0.053918383    -3.233228    1.4785283   366737 
 6388000   0.82330855   -3.2339612   -1.7554272  0.055826562   -3.2339612     1.478534   366730 
 6389000   0.82356426   -3.2353311   -1.7562935  0.055973329   -3.2353311    1.4790376   366719 
 6390000   0.82289668   -3.2345097   -1.7566791   0.05263369   -3.2345097    1.4778306   366721 
 6391000   0.82285564   -3.2349615   -1.7571966  0.053065146   -3.2349615     1.477765   366719 
 6392000    0.8237409   -3.2351282   -1.7556766  0.056136144   -3.2351282    1.4794516   366695 
 6393000   0.82303321      -3.2338   -1.7554218  0.051407647      -3.2338    1.4783782   366646 
 6394000   0.82203559   -3.2322125   -1.7556867  0.048074593   -3.2322125    1.4765258   366661 
 6395000   0.82110068   -3.2307836   -1.7558647  0.054434304   -3.2307836    1.4749189   366643 
 6396000   0.82152174    -3.231226   -1.7556876  0.050019553    -3.231226    1.4755384   366677 
 6397000   0.82026517   -3.2287093   -1.7553957  0.053293254   -3.2287093    1.4733136   366669 
 6398000   0.82223306   -3.2336087    -1.756704  0.046188658   -3.2336087    1.4769046   366655 
 6399000   0.82087075   -3.2317943   -1.7571678  0.051040363   -3.2317943    1.4746266   366613 
 6400000   0.82040376   -3.2291304   -1.7553669  0.051358241   -3.2291304    1.4737635   366619 
 6401000   0.82197373   -3.2306783   -1.7539414  0.049119266   -3.2306783    1.4767369   366581 
 6402000   0.82112806   -3.2294263   -1.7540679  0.047519686   -3.2294263    1.4753584   366546 
 6403000   0.82157037   -3.2308028   -1.7544563  0.050633387   -3.2308028    1.4763465   366498 
 6404000   0.82217274   -3.2319909   -1.7546305  0.049055433   -3.2319909    1.4773604   366515 
 6405000   0.82276277   -3.2323132   -1.7540983  0.050924548   -3.2323132    1.4782149   366566 
 6406000   0.82257761   -3.2310906   -1.7532446  0.052591768   -3.2310906     1.477846   366575 
 6407000   0.82269823   -3.2306224   -1.7521443  0.050458291   -3.2306224    1.4784781   366472 
 6408000   0.82177334   -3.2286606   -1.7518446  0.051460191   -3.2286606     1.476816   366472 
 6409000   0.82317452   -3.2312711   -1.7518119  0.051306147   -3.2312711    1.4794592   366441 
 6410000   0.82290211    -3.230188   -1.7512023  0.048131247    -3.230188    1.4789857   366437 
 6411000   0.82223059   -3.2293299   -1.7515067  0.052526197   -3.2293299    1.4778232   366426 
 6412000   0.82330737   -3.2315841   -1.7515347  0.054497957   -3.2315841    1.4800494   366354 
 6413000   0.82159539   -3.2306584    -1.753477  0.051409461   -3.2306584    1.4771814   366302 
 6414000   0.82227675   -3.2309364   -1.7525622   0.04790324   -3.2309364    1.4783742   366310 
 6415000   0.82063448   -3.2276648   -1.7522513  0.052644089   -3.2276648    1.4754135   366312 
 6416000   0.82166698   -3.2285851   -1.7512508  0.048880005   -3.2285851    1.4773343   366296 
 6417000   0.82048699   -3.2256406   -1.7503272   0.05230442   -3.2256406    1.4753134   366271 
 6418000   0.82029058   -3.2254358   -1.7506004   0.05130969   -3.2254358    1.4748355   366302 
 6419000   0.82083318   -3.2260137   -1.7500334  0.045975721   -3.2260137    1.4759803   366260 
 6420000   0.82027853   -3.2236095   -1.7485339  0.049748725   -3.2236095    1.4750755   366237 
 6421000   0.82129936   -3.2285251   -1.7515332  0.050034646   -3.2285251    1.4769919   366217 
 6422000    0.8193884   -3.2250507   -1.7515236  0.053503528   -3.2250507    1.4735271   366224 
 6423000   0.82053452   -3.2249635   -1.7493994  0.054228526   -3.2249635    1.4755641   366230 
 6424000   0.82013583   -3.2261031   -1.7510587  0.048012347   -3.2261031    1.4750445   366181 
 6425000   0.81935575   -3.2230585   -1.7495941   0.05132874   -3.2230585    1.4734644   366225 
 6426000    0.8201576   -3.2245617   -1.7495627  0.051333672   -3.2245617     1.474999   366202 
 6427000   0.82118386   -3.2265087   -1.7495995  0.054758616   -3.2265087    1.4769092   366186 
 6428000   0.82225982    -3.228996   -1.7500386  0.047262001    -3.228996    1.4789574   366158 
 6429000   0.82095586   -3.2266593   -1.7501118  0.052559037   -3.2266593    1.4765475   366174 
 6430000   0.82108273   -3.2259191     -1.74922  0.048042543   -3.2259191    1.4766991   366193 
 6431000   0.82163188   -3.2262822   -1.7485672  0.053033743   -3.2262822     1.477715   366186 
 6432000   0.82222661    -3.226531   -1.7476414  0.052890958    -3.226531    1.4788896   366160 
 6433000   0.82134494   -3.2259887   -1.7486123  0.057240131   -3.2259887    1.4773764   366142 
 6434000   0.82171078   -3.2268277   -1.7487246  0.049286668   -3.2268277    1.4781031   366125 
 6435000   0.82200066   -3.2270052   -1.7483241  0.051394591   -3.2270052    1.4786811   366111 
 6436000   0.81947891   -3.2253054   -1.7511204  0.054093689   -3.2253054     1.474185   366101 
 6437000   0.82108767   -3.2259832   -1.7489727  0.054509488   -3.2259832    1.4770105   366118 
 6438000   0.82148782   -3.2284127   -1.7504805  0.051986888   -3.2284127    1.4779321   366068 
 6439000   0.82223915   -3.2292692   -1.7501065  0.049910133   -3.2292692    1.4791626   366098 
 6440000   0.82233642   -3.2282718   -1.7489625  0.051379932   -3.2282718    1.4793093   366105 
 6441000   0.82213136   -3.2256364   -1.7467484  0.054394234   -3.2256364    1.4788879   366118 
 6442000   0.82224801   -3.2263622   -1.7474381  0.050508377   -3.2263622    1.4789241   366161 
 6443000   0.82102131    -3.225713   -1.7487614  0.049582498    -3.225713    1.4769516   366103 
 6444000   0.82168914   -3.2268743   -1.7487092  0.052070615   -3.2268743    1.4781651   366100 
 6445000   0.82292623   -3.2277944   -1.7473351  0.050351431   -3.2277944    1.4804593   366083 
 6446000   0.82107958   -3.2261857   -1.7488993  0.051892359   -3.2261857    1.4772865   366046 
 6447000   0.82139439   -3.2263398   -1.7483901   0.05154118   -3.2263398    1.4779498   366022 
 6448000   0.82022717   -3.2248512   -1.7489976  0.051298235   -3.2248512    1.4758536   366021 
 6449000   0.82264149   -3.2276399   -1.7474179  0.051893622   -3.2276399     1.480222   366015 
 6450000   0.82070796   -3.2257728   -1.7486788  0.049300683   -3.2257728     1.477094   365928 
 6451000   0.82047017   -3.2265989   -1.7497674  0.044983097   -3.2265989    1.4768315   365887 
 6452000   0.81994172   -3.2245444   -1.7485551  0.047474226   -3.2245444    1.4759892   365860 
 6453000   0.81870164    -3.224475   -1.7506697  0.046092946    -3.224475    1.4738053   365848 
 6454000   0.81869611   -3.2244835   -1.7505068  0.048975289   -3.2244835    1.4739766   365803 
 6455000   0.81930207   -3.2259403   -1.7508969  0.045822407   -3.2259403    1.4750434   365809 
 6456000    0.8190138   -3.2259054   -1.7511915  0.048367473   -3.2259054    1.4747139   365762 
 6457000   0.81909756    -3.224871   -1.7498853  0.049558096    -3.224871    1.4749857   365732 
 6458000   0.81855406   -3.2239555   -1.7498276   0.04890229   -3.2239555    1.4741279   365702 
 6459000   0.81978194   -3.2251071   -1.7488607  0.053338779   -3.2251071    1.4762463   365725 
 6460000   0.81990799   -3.2238645   -1.7472903  0.051154533   -3.2238645    1.4765742   365700 
 6461000   0.81934536      -3.2239   -1.7482865  0.052141352      -3.2239    1.4756135   365687 
 6462000   0.82096813   -3.2265548   -1.7480228  0.050718463   -3.2265548     1.478532   365688 
 6463000    0.8191682   -3.2225392   -1.7472044  0.055117345   -3.2225392    1.4753347   365677 
 6464000   0.81862437   -3.2214725    -1.746843  0.053289536   -3.2214725    1.4746295   365609 
 6465000   0.81944606   -3.2237496    -1.747644  0.052510441   -3.2237496    1.4761056   365610 
 6466000   0.82141997   -3.2267318    -1.747034  0.050260465   -3.2267318    1.4796978   365601 
 6467000   0.82016677   -3.2248821   -1.7473893  0.055250533   -3.2248821    1.4774928   365588 
 6468000    0.8193974   -3.2235474   -1.7473961  0.051790632   -3.2235474    1.4761512   365577 
 6469000   0.81902571   -3.2243485   -1.7486368  0.047385707   -3.2243485    1.4757117   365520 
 6470000   0.81786711   -3.2223639   -1.7487236  0.054137793   -3.2223639    1.4736403   365516 
 6471000    0.8189513   -3.2254158   -1.7498543  0.048125294   -3.2254158    1.4755615   365524 
 6472000   0.81830727   -3.2238853   -1.7493834  0.049850046   -3.2238853    1.4745019   365499 
 6473000   0.81793122   -3.2237211    -1.749929  0.046954563   -3.2237211    1.4737921   365507 
 6474000   0.81907226   -3.2268404   -1.7509116  0.048984831   -3.2268404    1.4759288   365487 
 6475000   0.81961772    -3.228612   -1.7515831   0.04788449    -3.228612    1.4770289   365458 
 6476000   0.81935274   -3.2286346   -1.7516993  0.051951365   -3.2286346    1.4769353   365363 
 6477000    0.8196215   -3.2292153   -1.7516742  0.049799264   -3.2292153    1.4775411   365333 
 6478000   0.81953268   -3.2282348   -1.7507365  0.048556154   -3.2282348    1.4774983   365304 
 6479000   0.82023138   -3.2299838   -1.7511004  0.048287172   -3.2299838    1.4788834   365273 
 6480000    0.8198425   -3.2279561   -1.7497819  0.054759863   -3.2279561    1.4781742   365275 
 6481000   0.82054923   -3.2284021   -1.7488848  0.055163942   -3.2284021    1.4795173   365258 
 6482000   0.82087802    -3.229059   -1.7487462  0.054291527    -3.229059    1.4803127   365208 
 6483000    0.8194901   -3.2278164   -1.7499094  0.053246208   -3.2278164     1.477907   365184 
 6484000   0.82132953   -3.2315789   -1.7502654  0.053187195   -3.2315789    1.4813135   365162 
 6485000   0.82038607   -3.2298345   -1.7500645  0.051321462   -3.2298345      1.47977   365123 
 6486000   0.82045981   -3.2300086   -1.7500488   0.05430827   -3.2300086    1.4799598   365109 
 6487000   0.82041174   -3.2317943   -1.7518605  0.050883467   -3.2317943    1.4799338   365094 
 6488000   0.81936418    -3.231112   -1.7530678  0.053788663    -3.231112    1.4780442   365094 
 6489000   0.81928866   -3.2314281   -1.7534068  0.049788662   -3.2314281    1.4780213   365066 
 6490000   0.81658274   -3.2268183   -1.7536947  0.052187466   -3.2268183    1.4731236   365070 
 6491000   0.81723688   -3.2274935   -1.7532625  0.051498437   -3.2274935     1.474231   365088 
 6492000   0.81715499   -3.2279371   -1.7538215  0.052935037   -3.2279371    1.4741155   365080 
 6493000   0.81761916   -3.2275943   -1.7526737  0.048970352   -3.2275943    1.4749206   365088 
 6494000   0.81829975   -3.2288827   -1.7527223  0.046611105   -3.2288827    1.4761604   365085 
 6495000   0.82038813   -3.2306858   -1.7504864  0.054658796   -3.2306858    1.4801994   365018 
 6496000    0.8178756   -3.2266812   -1.7510758  0.058136378   -3.2266812    1.4756055   365033 
 6497000   0.81834063   -3.2274331    -1.751203  0.053872953   -3.2274331    1.4762301   365086 
 6498000   0.81959222   -3.2276659   -1.7491051  0.049575567   -3.2276659    1.4785608   365068 
 6499000   0.81907515   -3.2289157   -1.7510975  0.050668045   -3.2289157    1.4778183   365021 
 6500000   0.81924544   -3.2297965   -1.7517398  0.050558249   -3.2297965    1.4780567   365038 
 6501000   0.81984127   -3.2302209    -1.751227    0.0534488   -3.2302209    1.4789939   365072 
 6502000     0.820089   -3.2307001   -1.7512309  0.053348116   -3.2307001    1.4794692   365065 
 6503000   0.81993003    -3.230471   -1.7513089   0.04678854    -3.230471    1.4791621   365070 
 6504000    0.8184481   -3.2267505    -1.750189  0.050682345   -3.2267505    1.4765615   365052 
 6505000   0.81882673   -3.2277877   -1.7505714  0.054778356   -3.2277877    1.4772163   365059 
 6506000    0.8192397    -3.228895   -1.7508446  0.047993789    -3.228895    1.4780504   365037 
 6507000   0.81984458   -3.2311261   -1.7519925  0.052517153   -3.2311261    1.4791336   365039 
 6508000   0.82031791   -3.2306259   -1.7505127  0.049051193   -3.2306259    1.4801132   365008 
 6509000   0.81924787   -3.2304611   -1.7521935  0.049735642   -3.2304611    1.4782676   364987 
 6510000   0.81835884   -3.2279818   -1.7511849  0.054104689   -3.2279818    1.4767969   364954 
 6511000   0.81764733   -3.2257801   -1.7502065   0.05312198   -3.2257801    1.4755736   364939 
 6512000   0.81858036    -3.228183   -1.7507758  0.050534025    -3.228183    1.4774072   364902 
 6513000   0.81838122   -3.2269925   -1.7499731  0.053941938   -3.2269925    1.4770194   364909 
 6514000   0.81786128   -3.2279239   -1.7517295  0.050743236   -3.2279239    1.4761943   364881 
 6515000   0.81901453   -3.2296784   -1.7513174  0.053059069   -3.2296784     1.478361   364860 
 6516000   0.81845855   -3.2292165   -1.7516243  0.052120435   -3.2292165    1.4775923   364802 
 6517000   0.81901959   -3.2279114   -1.7493266    0.0554023   -3.2279114    1.4785849   364807 
 6518000   0.81861018   -3.2270606   -1.7492634  0.053725539   -3.2270606    1.4777971   364819 
 6519000    0.8191467   -3.2274149   -1.7485722  0.053332015   -3.2274149    1.4788427   364800 
 6520000   0.81840001   -3.2265368   -1.7489855  0.051312356   -3.2265368    1.4775514   364786 
 6521000   0.81752003   -3.2258517   -1.7497272   0.04623843   -3.2258517    1.4761245   364746 
 6522000   0.81718068   -3.2251033   -1.7494054  0.048828489   -3.2251033    1.4756979   364700 
 6523000   0.81713301   -3.2245978   -1.7490022  0.051551996   -3.2245978    1.4755956   364704 
 6524000   0.81651897    -3.222478   -1.7478902  0.054925088    -3.222478    1.4745879   364679 
 6525000   0.81764988   -3.2245955   -1.7480301    0.0494074   -3.2245955    1.4765654   364695 
 6526000   0.81871363   -3.2249327   -1.7464098   0.05162488   -3.2249327    1.4785229   364686 
 6527000   0.81985264   -3.2285793    -1.747833  0.051004247   -3.2285793    1.4807463   364645 
 6528000   0.81904003   -3.2274723   -1.7479989  0.051800029   -3.2274723    1.4794734   364597 
 6529000   0.81812808   -3.2252399   -1.7471949  0.052235377   -3.2252399     1.478045   364543 
 6530000    0.8170549   -3.2230437    -1.747063  0.051339194   -3.2230437    1.4759807   364574 
 6531000   0.81851737   -3.2240685   -1.7454702  0.051104314   -3.2240685    1.4785983   364580 
 6532000   0.81741586   -3.2237184   -1.7469965  0.052619079   -3.2237184    1.4767219   364552 
 6533000     0.817735   -3.2234123   -1.7459193  0.053387516   -3.2234123     1.477493   364504 
 6534000   0.81784056   -3.2250853   -1.7473083  0.056074864   -3.2250853    1.4777769   364481 
 6535000   0.81769599   -3.2251521   -1.7476526  0.052150924   -3.2251521    1.4774995   364485 
 6536000   0.81740817   -3.2228323   -1.7459258  0.051672191   -3.2228323    1.4769065   364503 
 6537000    0.8183399   -3.2248772    -1.746267  0.051648094   -3.2248772    1.4786102   364498 
 6538000   0.81781055   -3.2237867   -1.7461451  0.048947669   -3.2237867    1.4776416   364501 
 6539000   0.81754881   -3.2246264   -1.7473725  0.047464685   -3.2246264    1.4772538   364480 
 6540000    0.8158893   -3.2225974   -1.7482249  0.052370304   -3.2225974    1.4743725   364451 
 6541000   0.81677764   -3.2218818   -1.7456691  0.052590249   -3.2218818    1.4762127   364393 
 6542000   0.81715272   -3.2233143    -1.746375  0.056014425   -3.2233143    1.4769393   364381 
 6543000   0.81715843   -3.2236173   -1.7466029  0.049517152   -3.2236173    1.4770144   364365 
 6544000   0.81720246   -3.2244158   -1.7470704  0.050652011   -3.2244158    1.4773454   364303 
 6545000   0.81796059   -3.2261077   -1.7472903  0.049061285   -3.2261077    1.4788174   364278 
 6546000   0.81815556   -3.2263904   -1.7470823  0.053820113   -3.2263904     1.479308   364244 
 6547000   0.81975333   -3.2283954   -1.7463246  0.052018501   -3.2283954    1.4820708   364275 
 6548000   0.81910473   -3.2269924    -1.746021  0.053345614   -3.2269924    1.4809714   364257 
 6549000    0.8169446   -3.2233938   -1.7462105  0.058309624   -3.2233938    1.4771834   364228 
 6550000   0.81899498   -3.2267235    -1.745792  0.054441192   -3.2267235    1.4809315   364218 
 6551000    0.8185441   -3.2276736   -1.7474395  0.051643642   -3.2276736    1.4802341   364189 
 6552000   0.81770086   -3.2265438   -1.7477899  0.050048609   -3.2265438    1.4787538   364178 
 6553000   0.81739371    -3.227825    -1.749578  0.051032481    -3.227825    1.4782471   364166 
 6554000   0.81746314   -3.2270924   -1.7485777  0.054436695   -3.2270924    1.4785147   364131 
 6555000   0.81824991   -3.2273897   -1.7475048  0.051991561   -3.2273897    1.4798849   364144 
 6556000    0.8186729   -3.2265411   -1.7459481  0.049847707   -3.2265411     1.480593   364158 
 6557000   0.81698257    -3.226037   -1.7484929  0.055535679    -3.226037    1.4775441   364156 
 6558000   0.81599914   -3.2248213   -1.7487477  0.050320421   -3.2248213    1.4760736   364080 
 6559000   0.81686428   -3.2270472   -1.7492869  0.052094797   -3.2270472    1.4777603   364050 
 6560000   0.81641023   -3.2254473   -1.7486017  0.053167506   -3.2254473    1.4768456   364073 
 6561000   0.81716381   -3.2267422   -1.7484278  0.051890287   -3.2267422    1.4783144   364047 
 6562000   0.81714887   -3.2281592   -1.7497581  0.053136777   -3.2281592    1.4784011   364019 
 6563000   0.81701092   -3.2263143   -1.7480573  0.045237987   -3.2263143    1.4782571   363993 
 6564000   0.81698578   -3.2256687    -1.747315  0.054285568   -3.2256687    1.4783537   363958 
 6565000   0.81772995   -3.2277488   -1.7479875  0.053760778   -3.2277488    1.4797613   363943 
 6566000   0.81784783   -3.2272739   -1.7473319  0.050627443   -3.2272739    1.4799421   363951 
 6567000   0.81729748   -3.2272027   -1.7480492  0.054679049   -3.2272027    1.4791535   363900 
 6568000   0.81601759   -3.2246676    -1.747725  0.054306397   -3.2246676    1.4769426   363874 
 6569000   0.81682984   -3.2265525   -1.7479447  0.054067135   -3.2265525    1.4786078   363826 
 6570000   0.81629526   -3.2272888   -1.7494862  0.048185816   -3.2272888    1.4778026   363786 
 6571000   0.81512178   -3.2247753   -1.7491174  0.050361407   -3.2247753    1.4756579   363791 
 6572000   0.81709664   -3.2288015   -1.7494587  0.051596869   -3.2288015    1.4793429   363764 
 6573000    0.8165585    -3.228645   -1.7500447   0.04900928    -3.228645    1.4786003   363707 
 6574000   0.81688455    -3.228622   -1.7492443  0.054239936    -3.228622    1.4793778   363661 
 6575000   0.81631919   -3.2286564    -1.750335   0.04941644   -3.2286564    1.4783214   363669 
 6576000   0.81658398   -3.2278285   -1.7489341  0.048960088   -3.2278285    1.4788944   363646 
 6577000   0.81694056   -3.2284588   -1.7487477  0.054021017   -3.2284588    1.4797111   363604 
 6578000   0.81769059   -3.2300655   -1.7488777  0.050820149   -3.2300655    1.4811878   363575 
 6579000   0.81616583   -3.2283921   -1.7499216  0.055526144   -3.2283921    1.4784705   363564 
 6580000    0.8163712   -3.2277999   -1.7490062  0.053938581   -3.2277999    1.4787937   363576 
 6581000   0.81674471   -3.2284985   -1.7489793  0.053734464   -3.2284985    1.4795191   363564 
 6582000   0.81499876   -3.2285244   -1.7521315  0.056050211   -3.2285244    1.4763929   363555 
 6583000   0.81656729   -3.2300911   -1.7507428  0.044611429   -3.2300911    1.4793483   363527 
 6584000   0.81618522   -3.2293497   -1.7506041  0.054207644   -3.2293497    1.4787456   363505 
 6585000   0.81566204   -3.2277221   -1.7501398  0.051000015   -3.2277221    1.4775823   363558 
 6586000   0.81580654   -3.2295935   -1.7515461  0.053361763   -3.2295935    1.4780473   363508 
 6587000   0.81535696   -3.2289342   -1.7516324  0.051402422   -3.2289342    1.4773019   363491 
 6588000   0.81555179   -3.2308191   -1.7530219  0.045738799   -3.2308191    1.4777972   363456 
 6589000   0.81445477   -3.2299282   -1.7541188  0.048906987   -3.2299282    1.4758094   363456 
 6590000   0.81576558   -3.2328434   -1.7546914  0.049304998   -3.2328434     1.478152   363464 
 6591000   0.81467636   -3.2296949   -1.7534109  0.050886743   -3.2296949     1.476284   363438 
 6592000   0.81461626   -3.2289216   -1.7526084  0.047486261   -3.2289216    1.4763132   363404 
 6593000     0.814366   -3.2276076   -1.7519266   0.05088666   -3.2276076     1.475681   363448 
 6594000   0.81529037   -3.2302007    -1.752739  0.054495912   -3.2302007    1.4774617   363422 
 6595000   0.81548132   -3.2303664    -1.752579  0.053886731   -3.2303664    1.4777874   363427 
 6596000    0.8152757   -3.2308394    -1.753262  0.055293277   -3.2308394    1.4775774   363387 
 6597000   0.81453299    -3.229625   -1.7532677  0.057283264    -3.229625    1.4763573   363356 
 6598000    0.8155818   -3.2310596   -1.7528623  0.053638912   -3.2310596    1.4781973   363371 
 6599000    0.8166794   -3.2310183   -1.7508154  0.052578148   -3.2310183    1.4802029   363367 
 6600000   0.81703334   -3.2324753   -1.7514882  0.053447517   -3.2324753    1.4809871   363332 
 6601000   0.81698728   -3.2318075   -1.7509039  0.054822279   -3.2318075    1.4809036   363332 
 6602000   0.81703667   -3.2316296   -1.7506651  0.055572178   -3.2316296    1.4809645   363339 
 6603000   0.81743099   -3.2322737   -1.7505577  0.051790614   -3.2322737     1.481716   363330 
 6604000   0.81629656    -3.229673   -1.7499441  0.058888498    -3.229673    1.4797289   363313 
 6605000   0.81587237   -3.2297758    -1.750771  0.048367086   -3.2297758    1.4790047   363302 
 6606000   0.81648505   -3.2296663   -1.7495957  0.050805706   -3.2296663    1.4800706   363313 
 6607000   0.81576868   -3.2297282   -1.7507201  0.057929296   -3.2297282    1.4790081   363255 
 6608000   0.81548207   -3.2303517   -1.7516067  0.050224015   -3.2303517    1.4787449   363192 
 6609000   0.81528152   -3.2277239   -1.7491838  0.054694142   -3.2277239    1.4785401   363153 
 6610000   0.81495536   -3.2275327   -1.7497143   0.04525306   -3.2275327    1.4778183   363185 
 6611000   0.81499013   -3.2271878   -1.7492779  0.057234917   -3.2271878    1.4779099   363178 
 6612000   0.81759013    -3.230194   -1.7477243   0.04956853    -3.230194    1.4824696   363216 
 6613000   0.81481684   -3.2267721   -1.7490747  0.052830876   -3.2267721    1.4776973   363153 
 6614000   0.81537162   -3.2281688   -1.7493309  0.049978238   -3.2281688    1.4788378   363120 
 6615000   0.81499633    -3.225946   -1.7478377  0.050759021    -3.225946    1.4781083   363132 
 6616000   0.81539668    -3.226479   -1.7473879  0.049901343    -3.226479     1.479091   363069 
 6617000   0.81516679    -3.227049   -1.7482284  0.052120578    -3.227049    1.4788206   363033 
 6618000   0.81491543   -3.2248052   -1.7463754  0.050974104   -3.2248052    1.4784298   363017 
 6619000    0.8144356   -3.2262327   -1.7485431   0.04896375   -3.2262327    1.4776896   362985 
 6620000   0.81576528    -3.227228   -1.7470852  0.050047454    -3.227228    1.4801429   362975 
 6621000   0.81492083   -3.2261369    -1.747461  0.050496214   -3.2261369    1.4786759   362959 
 6622000   0.81247807   -3.2238041   -1.7495322  0.049948134   -3.2238041    1.4742719   362952 
 6623000     0.813144   -3.2226134   -1.7468648  0.048141476   -3.2226134    1.4757486   362886 
 6624000   0.81201859   -3.2204834   -1.7467366   0.05565973   -3.2204834    1.4737467   362876 
 6625000   0.81455145   -3.2253967   -1.7469267  0.050951682   -3.2253967      1.47847   362845 
 6626000   0.81387867   -3.2228334   -1.7456944  0.049477289   -3.2228334    1.4771389   362872 
 6627000   0.81453623   -3.2243348   -1.7457539  0.051159575   -3.2243348    1.4785809   362811 
 6628000   0.81558676   -3.2247003   -1.7442287  0.051941772   -3.2247003    1.4804716   362815 
 6629000   0.81461215   -3.2238773   -1.7451546    0.0495768   -3.2238773    1.4787228   362810 
 6630000   0.81423504   -3.2228315   -1.7446139  0.050960346   -3.2228315    1.4782175   362766 
 6631000   0.81292061   -3.2210613   -1.7450552  0.046327967   -3.2210613    1.4760062   362723 
 6632000    0.8121106   -3.2210598   -1.7465854  0.048861791   -3.2210598    1.4744745   362738 
 6633000   0.81261552   -3.2233216   -1.7478654  0.051428801   -3.2233216    1.4754563   362722 
 6634000   0.81279046   -3.2231775   -1.7473425  0.045650407   -3.2231775     1.475835   362707 
 6635000   0.81251862   -3.2211205   -1.7457263  0.052664062   -3.2211205    1.4753942   362694 
 6636000   0.81349024   -3.2224687   -1.7451798  0.049388197   -3.2224687    1.4772889   362662 
 6637000   0.81333648   -3.2235385   -1.7465899  0.048886658   -3.2235385    1.4769486   362677 
 6638000   0.81325698   -3.2230869   -1.7463153  0.051601593   -3.2230869    1.4767716   362685 
 6639000   0.81374059   -3.2233729   -1.7456864   0.04675179   -3.2233729    1.4776865   362676 
 6640000   0.81368051   -3.2226686    -1.745018  0.050846701   -3.2226686    1.4776507   362658 
 6641000   0.81536694   -3.2226017   -1.7420599  0.057722471   -3.2226017    1.4805418   362700 
 6642000    0.8161897   -3.2238383   -1.7417985  0.053668997   -3.2238383    1.4820399   362699 
 6643000   0.81520081   -3.2221356    -1.741924  0.058035105   -3.2221356    1.4802116   362707 
 6644000   0.81488276   -3.2214317   -1.7415651   0.05357278   -3.2214317    1.4798666   362650 
 6645000   0.81577318   -3.2233859   -1.7418328  0.054165148   -3.2233859    1.4815531   362633 
 6646000   0.81511651   -3.2204109   -1.7398829  0.055762331   -3.2204109    1.4805279   362592 
 6647000   0.81399087   -3.2205154   -1.7419056  0.050599927   -3.2205154    1.4786098   362561 
 6648000   0.81431509    -3.220688   -1.7411995  0.053578522    -3.220688    1.4794885   362490 
 6649000   0.81547818   -3.2234058   -1.7417633  0.053652559   -3.2234058    1.4816425   362480 
 6650000   0.81442372   -3.2209416   -1.7411129  0.050225201   -3.2209416    1.4798287   362455 
 6651000   0.81283553   -3.2171371   -1.7399048  0.050440677   -3.2171371    1.4772323   362384 
 6652000   0.81293115     -3.21756   -1.7400194  0.052490531     -3.21756    1.4775406   362351 
 6653000    0.8130145   -3.2182266   -1.7404448  0.050965617   -3.2182266    1.4777818   362329 
 6654000   0.81165994   -3.2170273   -1.7415813  0.052008403   -3.2170273     1.475446   362298 
 6655000   0.81060815   -3.2158773    -1.742266  0.051985035   -3.2158773    1.4736113   362279 
 6656000   0.81002981   -3.2159678   -1.7432982  0.046820187   -3.2159678    1.4726697   362252 
 6657000   0.81101594     -3.21712   -1.7426901  0.048480818     -3.21712    1.4744299   362260 
 6658000   0.81150473   -3.2175775   -1.7419779  0.050114744   -3.2175775    1.4755996   362191 
 6659000   0.81256021   -3.2185293   -1.7409697  0.050067119   -3.2185293    1.4775596   362181 
 6660000   0.81282391   -3.2181589    -1.740336  0.054375491   -3.2181589    1.4778229   362234 
 6661000   0.81223332   -3.2176581   -1.7409456   0.04978304   -3.2176581    1.4767124   362243 
 6662000   0.81442116   -3.2218959   -1.7410382  0.051559478   -3.2218959    1.4808577   362202 
 6663000   0.81443213   -3.2210769   -1.7401829  0.052390631   -3.2210769     1.480894   362198 
 6664000    0.8127723   -3.2202344   -1.7423055  0.046960991   -3.2202344     1.477929   362185 
 6665000   0.81143642   -3.2189212   -1.7433725  0.049693457   -3.2189212    1.4755487   362173 
 6666000   0.81155664   -3.2190259   -1.7431567  0.050044792   -3.2190259    1.4758692   362148 
 6667000   0.81272557   -3.2202118   -1.7423433   0.04712318   -3.2202118    1.4778685   362179 
 6668000   0.81014613   -3.2175011   -1.7441319  0.050861949   -3.2175011    1.4733692   362132 
 6669000    0.8127136   -3.2216083   -1.7436555  0.051274826   -3.2216083    1.4779528   362153 
 6670000   0.81258818   -3.2221355   -1.7443577  0.050665738   -3.2221355    1.4777778   362140 
 6671000   0.81231475    -3.220268    -1.743065  0.052837727    -3.220268     1.477203   362159 
 6672000   0.81315138   -3.2204791   -1.7416118  0.053163536   -3.2204791    1.4788674   362124 
 6673000   0.81490092   -3.2237442   -1.7416622  0.053986478   -3.2237442     1.482082   362116 
 6674000   0.81257457   -3.2200967   -1.7422212  0.050545854   -3.2200967    1.4778755   362110 
 6675000    0.8138927   -3.2222856   -1.7419024  0.052849981   -3.2222856    1.4803832   362083 
 6676000   0.81288492   -3.2211635   -1.7424786  0.051543098   -3.2211635    1.4786849   362050 
 6677000   0.81228181   -3.2209318   -1.7434093  0.053717899   -3.2209318    1.4775225   362066 
 6678000   0.81239924   -3.2217559   -1.7439871  0.051859713   -3.2217559    1.4777688   362058 
 6679000   0.81046191   -3.2186871   -1.7442998  0.053613054   -3.2186871    1.4743873   362023 
 6680000   0.81050562   -3.2178869    -1.743583  0.047959989   -3.2178869    1.4743039   362063 
 6681000   0.81112897   -3.2192237    -1.743737  0.049120858   -3.2192237    1.4754867   362051 
 6682000   0.81226949   -3.2210286   -1.7434673  0.042709008   -3.2210286    1.4775614   362051 
 6683000   0.81226971   -3.2199555   -1.7424183  0.049999181   -3.2199555    1.4775373   362057 
 6684000   0.81277426   -3.2207778   -1.7423186  0.051161275   -3.2207778    1.4784591   362056 
 6685000   0.81246012   -3.2198046   -1.7419373  0.050933951   -3.2198046    1.4778673   362061 
 6686000   0.81160564   -3.2193067   -1.7428795  0.050713434   -3.2193067    1.4764272   362033 
 6687000    0.8128411   -3.2203414   -1.7415606  0.050509108   -3.2203414    1.4787808   362007 
 6688000   0.81227424   -3.2203418   -1.7424901  0.053261198   -3.2203418    1.4778516   361982 
 6689000   0.81204433   -3.2207418   -1.7429329  0.055505907   -3.2207418    1.4778089   361890 
 6690000   0.81161304    -3.220955   -1.7438289  0.049955023    -3.220955    1.4771261   361865 
 6691000   0.81168647   -3.2208019   -1.7433339  0.055933375   -3.2208019     1.477468   361814 
 6692000   0.81156684   -3.2212892   -1.7440186  0.049994292   -3.2212892    1.4772706   361809 
 6693000   0.81163276   -3.2221924   -1.7448467  0.049608706   -3.2221924    1.4773457   361820 
 6694000   0.81253664   -3.2227841   -1.7436787  0.049031122   -3.2227841    1.4791054   361792 
 6695000   0.81236939   -3.2220031   -1.7429937  0.046038652   -3.2220031    1.4790095   361741 
 6696000   0.81168954   -3.2206684   -1.7429048  0.053949678   -3.2206684    1.4777635   361743 
 6697000   0.81031083   -3.2211354   -1.7457718  0.049088843   -3.2211354    1.4753636   361716 
 6698000   0.81017312    -3.221568   -1.7462308  0.049898409    -3.221568    1.4753372   361661 
 6699000   0.81100721   -3.2214603   -1.7445675  0.050337095   -3.2214603    1.4768928   361652 
 6700000   0.81042125   -3.2213748   -1.7454348  0.049120628   -3.2213748      1.47594   361624 
 6701000    0.8101451   -3.2204975   -1.7450155   0.04726254   -3.2204975     1.475482   361613 
 6702000   0.80996227   -3.2214425   -1.7461752  0.050078282   -3.2214425    1.4752673   361584 
 6703000   0.81030395   -3.2228121   -1.7466653  0.049664843   -3.2228121    1.4761468   361521 
 6704000   0.80989589   -3.2210364   -1.7456043   0.05049847   -3.2210364     1.475432   361514 
 6705000   0.81006641   -3.2204025   -1.7446231  0.048036828   -3.2204025    1.4757794   361505 
 6706000   0.81007908   -3.2195889   -1.7437741  0.052423489   -3.2195889    1.4758147   361502 
 6707000   0.80927005   -3.2194698   -1.7451698  0.052620353   -3.2194698    1.4743001   361512 
 6708000   0.81186766   -3.2217453   -1.7425576  0.052107203   -3.2217453    1.4791878   361474 
 6709000   0.81072789   -3.2212331   -1.7440361  0.057262324   -3.2212331     1.477197   361453 
 6710000   0.81112446   -3.2204001   -1.7423701  0.051910659   -3.2204001      1.47803   361426 
 6711000   0.80943934    -3.219869   -1.7447587  0.054123966    -3.219869    1.4751103   361389 
 6712000   0.81029483   -3.2221663   -1.7453253   0.04901134   -3.2221663     1.476841   361347 
 6713000   0.81050586   -3.2209659   -1.7439732  0.048769221   -3.2209659    1.4769926   361404 
 6714000   0.80667072   -3.2164498   -1.7466087  0.056889395   -3.2164498    1.4698412   361444 
 6715000   0.80918202   -3.2211286   -1.7465157  0.047906873   -3.2211286    1.4746128   361396 
 6716000   0.80923263   -3.2206696   -1.7459155  0.049177778   -3.2206696     1.474754   361384 
 6717000   0.80982743    -3.220349   -1.7444701  0.050375535    -3.220349    1.4758789   361374 
 6718000   0.81050806   -3.2215968   -1.7443999  0.047364287   -3.2215968    1.4771969   361355 
 6719000   0.81007063   -3.2205689   -1.7442918  0.054178693   -3.2205689    1.4762771   361385 
 6720000   0.80977736   -3.2207928   -1.7449317  0.047986967   -3.2207928    1.4758611   361356 
 6721000   0.80905469   -3.2197583   -1.7451041  0.047839185   -3.2197583    1.4746542   361329 
 6722000   0.81040062   -3.2215675   -1.7442965  0.046867113   -3.2215675     1.477271   361289 
 6723000   0.81008319     -3.22254   -1.7460438  0.049419618     -3.22254    1.4764961   361337 
 6724000   0.80891467    -3.220752    -1.746406  0.053642119    -3.220752    1.4743459   361342 
 6725000   0.80905696   -3.2226513   -1.7479358  0.043067411   -3.2226513    1.4747155   361315 
 6726000   0.80783586    -3.220843   -1.7482269  0.047884171    -3.220843     1.472616   361284 
 6727000   0.80932152   -3.2222034    -1.746826  0.049534273   -3.2222034    1.4753774   361271 
 6728000   0.80875454   -3.2232655   -1.7489217  0.046074829   -3.2232655    1.4743438   361271 
 6729000   0.80845209   -3.2222779   -1.7484977  0.050321026   -3.2222779    1.4737802   361274 
 6730000   0.80998488   -3.2237909   -1.7471675  0.056493928   -3.2237909    1.4766234   361262 
 6731000   0.81038751   -3.2257446   -1.7483913  0.050484494   -3.2257446    1.4773534   361263 
 6732000   0.81043727    -3.225108   -1.7475248  0.049030985    -3.225108    1.4775832   361229 
 6733000   0.81135363    -3.227141   -1.7479813  0.050455879    -3.227141    1.4791597   361252 
 6734000   0.81232234   -3.2291898   -1.7481698   0.05420106   -3.2291898      1.48102   361229 
 6735000   0.81118818   -3.2273507   -1.7483371  0.049511116   -3.2273507    1.4790136   361214 
 6736000   0.81143663    -3.226048    -1.746565  0.055899495    -3.226048     1.479483   361210 
 6737000   0.81147328   -3.2256703   -1.7461902  0.052648822   -3.2256703    1.4794802   361227 
 6738000   0.81116565   -3.2260147   -1.7469766  0.053026553   -3.2260147    1.4790381   361198 
 6739000   0.80962997    -3.225884   -1.7494703  0.055330444    -3.225884    1.4764137   361155 
 6740000   0.80883462   -3.2264077   -1.7514852  0.053966707   -3.2264077    1.4749225   361165 
 6741000   0.80808381   -3.2243227   -1.7506305  0.048134961   -3.2243227    1.4736921   361131 
 6742000   0.81034758   -3.2274533   -1.7495059  0.050670667   -3.2274533    1.4779474   361100 
 6743000   0.80934742   -3.2243716   -1.7482769  0.051601789   -3.2243716    1.4760947   361107 
 6744000   0.80920982   -3.2226496    -1.746814  0.052373383   -3.2226496    1.4758355   361109 
 6745000   0.80964696   -3.2249415   -1.7483864  0.047805354   -3.2249415    1.4765551   361128 
 6746000   0.80991019   -3.2248409   -1.7476094   0.05059897   -3.2248409    1.4772315   361080 
 6747000   0.80991453    -3.223794   -1.7465095  0.050859261    -3.223794    1.4772844   361069 
 6748000   0.80948836   -3.2234342   -1.7470212  0.051469191   -3.2234342     1.476413   361092 
 6749000   0.81034714   -3.2237747    -1.745521   0.05326312   -3.2237747    1.4782536   361025 
 6750000   0.80874789   -3.2212148   -1.7459113  0.057139805   -3.2212148    1.4753036   361033 
 6751000   0.80875889   -3.2222323   -1.7468842  0.046080383   -3.2222323    1.4753482   361027 
 6752000   0.80742594   -3.2216217   -1.7484154  0.046853614   -3.2216217    1.4732063   360956 
 6753000   0.80714531   -3.2213657   -1.7484307  0.049553752   -3.2213657     1.472935   360897 
 6754000    0.8078146   -3.2226296   -1.7484242  0.047956819   -3.2226296    1.4742054   360885 
 6755000   0.80815592   -3.2205361   -1.7458181  0.041600629   -3.2205361     1.474718   360912 
 6756000   0.80921651   -3.2215819   -1.7448426  0.047771881   -3.2215819    1.4767392   360891 
 6757000   0.80987911   -3.2217529    -1.743825  0.048574205   -3.2217529    1.4779279   360896 
 6758000   0.80846167   -3.2200221   -1.7445296    0.0527054   -3.2200221    1.4754926   360859 
 6759000   0.80832994   -3.2200371   -1.7445641  0.049410463   -3.2200371    1.4754729   360805 
 6760000   0.80843425   -3.2200089    -1.744231  0.051317495   -3.2200089    1.4757779   360777 
 6761000   0.80978071   -3.2221877   -1.7438167  0.052022714   -3.2221877     1.478371   360744 
 6762000   0.80821304   -3.2197852   -1.7442885  0.050683996   -3.2197852    1.4754967   360747 
 6763000   0.80728169   -3.2179209   -1.7440672  0.047710616   -3.2179209    1.4738536   360733 
 6764000   0.80924661   -3.2211595   -1.7435792  0.044335196   -3.2211595    1.4775803   360699 
 6765000   0.80714206   -3.2170106   -1.7432648  0.049062196   -3.2170106    1.4737458   360697 
 6766000    0.8066414   -3.2164573   -1.7436706  0.047444592   -3.2164573    1.4727867   360708 
 6767000    0.8077044    -3.217286   -1.7426361  0.045611217    -3.217286    1.4746499   360727 
 6768000   0.80903802   -3.2204389   -1.7433132  0.052537677   -3.2204389    1.4771257   360717 
 6769000    0.8087889   -3.2203242   -1.7434241  0.050742891   -3.2203242    1.4769001   360661 
 6770000   0.80794762   -3.2189467   -1.7438241  0.048425625   -3.2189467    1.4751226   360720 
 6771000   0.80883545   -3.2183565   -1.7416334  0.051119731   -3.2183565    1.4767231   360725 
 6772000   0.80865824   -3.2176182   -1.7413659  0.053424443   -3.2176182    1.4762522   360761 
 6773000   0.80785745   -3.2167908   -1.7419351  0.052497657   -3.2167908    1.4748557   360745 
 6774000    0.8088341   -3.2176471   -1.7409264  0.057031851   -3.2176471    1.4767206   360725 
 6775000   0.80836994   -3.2189146   -1.7427959  0.048869072   -3.2189146    1.4761187   360665 
 6776000   0.80911022   -3.2208903    -1.743555  0.049701984   -3.2208903    1.4773353   360698 
 6777000   0.80851342   -3.2195446   -1.7432498  0.051251935   -3.2195446    1.4762948   360686 
 6778000   0.80971075   -3.2213265   -1.7430586  0.049696135   -3.2213265    1.4782679   360738 
 6779000   0.81059805   -3.2209718   -1.7409691  0.047481421   -3.2209718    1.4800027   360710 
 6780000   0.80906976   -3.2197464   -1.7423621  0.047330028   -3.2197464    1.4773843   360668 
 6781000   0.80865343   -3.2211646   -1.7444095  0.047313123   -3.2211646    1.4767551   360636 
 6782000   0.80824624   -3.2203315   -1.7443732  0.047183819   -3.2203315    1.4759583   360649 
 6783000    0.8091107   -3.2206229   -1.7431229  0.054076743   -3.2206229    1.4775001   360658 
 6784000   0.80811531     -3.21964   -1.7439413  0.050265621     -3.21964    1.4756988   360654 
 6785000   0.80900418   -3.2215021    -1.744045  0.052697988   -3.2215021    1.4774571   360621 
 6786000   0.80889425   -3.2214597   -1.7441869  0.054870885   -3.2214597    1.4772727   360617 
 6787000   0.80873033   -3.2222453   -1.7453988   0.04709832   -3.2222453    1.4768464   360648 
 6788000   0.80877975   -3.2226719   -1.7456615  0.047460087   -3.2226719    1.4770104   360630 
 6789000   0.80781282   -3.2219162   -1.7466716  0.048660326   -3.2219162    1.4752446   360630 
 6790000    0.8073452   -3.2212791    -1.746819  0.053284662   -3.2212791    1.4744601   360613 
 6791000     0.808344     -3.22121   -1.7451223  0.052315421     -3.22121    1.4760877   360661 
 6792000   0.80838568   -3.2202916   -1.7440337  0.055593642   -3.2202916     1.476258   360638 
 6793000   0.80769227   -3.2213384    -1.746408  0.049899848   -3.2213384    1.4749303   360653 
 6794000   0.80917315    -3.223347   -1.7457042  0.046818786    -3.223347    1.4776428   360651 
 6795000    0.8086166   -3.2214918    -1.744849  0.057508648   -3.2214918    1.4766428   360647 
 6796000   0.80929814   -3.2256151    -1.747449   0.04924789   -3.2256151    1.4781661   360579 
 6797000   0.80882952   -3.2219543   -1.7446113  0.055218044   -3.2219543     1.477343   360571 
 6798000   0.80816897   -3.2236936   -1.7474835  0.053861738   -3.2236936    1.4762102   360553 
 6799000   0.80905834   -3.2251244   -1.7471709  0.050678383   -3.2251244    1.4779536   360524 
 6800000   0.80872655   -3.2242489   -1.7468686   0.04586794   -3.2242489    1.4773803   360516 
 6801000   0.80788504   -3.2209664   -1.7451438  0.050893992   -3.2209664    1.4758225   360521 
 6802000   0.80831435   -3.2217692    -1.745015  0.049277258   -3.2217692    1.4767542   360485 
 6803000   0.80679409   -3.2201618   -1.7460623  0.055274801   -3.2201618    1.4740994   360455 
 6804000   0.80893245    -3.223216   -1.7450947   0.04585669    -3.223216    1.4781213   360427 
 6805000   0.80922526   -3.2241211    -1.745194  0.048100259   -3.2241211    1.4789271   360361 
 6806000    0.8078374   -3.2225081   -1.7460396  0.054612883   -3.2225081    1.4764686   360342 
 6807000   0.80791112    -3.222239   -1.7456193  0.049956531    -3.222239    1.4766197   360338 
 6808000   0.80809532   -3.2225137   -1.7455369  0.048805741   -3.2225137    1.4769768   360333 
 6809000    0.8087455   -3.2249682   -1.7468358  0.048025706   -3.2249682    1.4781324   360341 
 6810000   0.80757715   -3.2240932   -1.7479487  0.054023371   -3.2240932    1.4761445   360305 
 6811000   0.80706091   -3.2214768    -1.746194  0.053818813   -3.2214768    1.4752827   360285 
 6812000   0.80684327   -3.2217232   -1.7470307  0.048852524   -3.2217232    1.4746925   360332 
 6813000   0.80714797   -3.2209068   -1.7456328  0.052102783   -3.2209068     1.475274   360326 
 6814000   0.80832876   -3.2232297   -1.7458467  0.051643516   -3.2232297     1.477383   360338 
 6815000   0.80734952   -3.2210902   -1.7454314  0.046901632   -3.2210902    1.4756588   360322 
 6816000   0.80713158   -3.2207423   -1.7456211  0.054255556   -3.2207423    1.4751212   360356 
 6817000    0.8081135    -3.222116    -1.745065  0.051264086    -3.222116    1.4770511   360323 
 6818000   0.80905387   -3.2236543   -1.7448599  0.053933747   -3.2236543    1.4787945   360317 
 6819000   0.80787464   -3.2233369   -1.7464314  0.054209755   -3.2233369    1.4769055   360252 
 6820000   0.80903365   -3.2232456   -1.7442829   0.05289637   -3.2232456    1.4789627   360267 
 6821000   0.80794123   -3.2213933   -1.7444071  0.052025246   -3.2213933    1.4769862   360262 
 6822000   0.80965455    -3.223824   -1.7436564  0.052536852    -3.223824    1.4801676   360250 
 6823000   0.80872637   -3.2226495   -1.7442854  0.051574665   -3.2226495    1.4783641   360276 
 6824000   0.80891196   -3.2223373   -1.7435765  0.052774161   -3.2223373    1.4787608   360262 
 6825000   0.80825499   -3.2213074   -1.7437312  0.052821924   -3.2213074    1.4775762   360258 
 6826000   0.80629815   -3.2188421   -1.7445854  0.052547374   -3.2188421    1.4742567   360195 
 6827000    0.8080853   -3.2220638   -1.7445805  0.050673839   -3.2220638    1.4774834   360205 
 6828000    0.8075071    -3.219979   -1.7434175  0.052726126    -3.219979    1.4765615   360172 
 6829000   0.80827364   -3.2223732   -1.7443527  0.047647598   -3.2223732    1.4780206   360158 
 6830000   0.80827508   -3.2209047   -1.7427953  0.050546431   -3.2209047    1.4781094   360137 
 6831000   0.80681436   -3.2198306    -1.744331  0.051972381   -3.2198306    1.4754996   360122 
 6832000   0.80658245   -3.2194433   -1.7444088  0.049387706   -3.2194433    1.4750345   360132 
 6833000   0.80612747   -3.2175853   -1.7430757  0.050645212   -3.2175853    1.4745096   360057 
 6834000   0.80745279   -3.2186389   -1.7416682  0.048659247   -3.2186389    1.4769707   360048 
 6835000   0.80813363   -3.2193249   -1.7411335  0.048435815   -3.2193249    1.4781914   360054 
 6836000   0.80479515    -3.214619   -1.7423787   0.04865748    -3.214619    1.4722402   360016 
 6837000   0.80611808    -3.216392   -1.7416989  0.053193127    -3.216392    1.4746931   360008 
 6838000   0.80791664   -3.2194557   -1.7414231  0.045264533   -3.2194557    1.4780326   359996 
 6839000   0.80628538   -3.2168932   -1.7416851  0.053565552   -3.2168932    1.4752081   359957 
 6840000   0.80523222   -3.2160763   -1.7427583  0.052684011   -3.2160763     1.473318   359948 
 6841000   0.80613722   -3.2156185   -1.7405708  0.051540976   -3.2156185    1.4750477   359930 
 6842000   0.80467722   -3.2141391   -1.7417792  0.051008739   -3.2141391    1.4723599   359934 
 6843000   0.80607894   -3.2173949    -1.742253  0.050239111   -3.2173949    1.4751419   359881 
 6844000   0.80687341    -3.217171   -1.7407147  0.052061405    -3.217171    1.4764563   359915 
 6845000   0.80721311   -3.2165832   -1.7393781   0.04898574   -3.2165832    1.4772051   359884 
 6846000   0.80732139   -3.2175118   -1.7400593  0.055977856   -3.2175118    1.4774525   359872 
 6847000   0.80789449   -3.2190249   -1.7406057  0.052039664   -3.2190249    1.4784192   359892 
 6848000   0.80775654   -3.2209463   -1.7425907  0.050177604   -3.2209463    1.4783557   359846 
 6849000   0.80769771   -3.2208956   -1.7425202  0.047934338   -3.2208956    1.4783754   359815 
 6850000   0.80731018   -3.2184735   -1.7407335  0.051836304   -3.2184735      1.47774   359797 
 6851000   0.80773068   -3.2196719   -1.7411334  0.050163747   -3.2196719    1.4785384   359790 
 6852000   0.80599218   -3.2162812   -1.7409579  0.054689232   -3.2162812    1.4753233   359798 
 6853000   0.80701296   -3.2173873   -1.7403269  0.052044323   -3.2173873    1.4770605   359830 
 6854000   0.80735293   -3.2196063   -1.7418045  0.057028822   -3.2196063    1.4778018   359801 
 6855000   0.80749232   -3.2207964   -1.7426819  0.050832121   -3.2207964    1.4781145   359787 
 6856000   0.80545405   -3.2180138   -1.7435935  0.052436615   -3.2180138    1.4744203   359778 
 6857000   0.80686396    -3.220057   -1.7429942  0.051609054    -3.220057    1.4770628   359763 
 6858000   0.80688611   -3.2188856   -1.7417413  0.053400639   -3.2188856    1.4771444   359753 
 6859000   0.80917649   -3.2221434   -1.7408061  0.049291912   -3.2221434    1.4813373   359753 
 6860000   0.80729954   -3.2180904   -1.7402713  0.052140824   -3.2180904    1.4778191   359773 
 6861000    0.8076497   -3.2194095    -1.741044  0.052021085   -3.2194095    1.4783656   359796 
 6862000   0.80727792   -3.2191846    -1.741516  0.054237593   -3.2191846    1.4776686   359800 
 6863000   0.80688695   -3.2180315    -1.741058  0.050881458   -3.2180315    1.4769735   359795 
 6864000   0.80599272   -3.2176653    -1.742304   0.05215972   -3.2176653    1.4753612   359789 
 6865000   0.80626952   -3.2184867   -1.7424218  0.052590187   -3.2184867    1.4760649   359741 
 6866000   0.80669204      -3.2193   -1.7422769  0.045193907      -3.2193    1.4770231   359696 
 6867000   0.80569282   -3.2180025   -1.7426899  0.054700722   -3.2180025    1.4753125   359667 
 6868000   0.80509298   -3.2182849   -1.7440749  0.052064446   -3.2182849    1.4742101   359668 
 6869000    0.8050586   -3.2185579   -1.7443247  0.050671997   -3.2185579    1.4742332   359647 
 6870000   0.80594596   -3.2178336   -1.7420411  0.047081611   -3.2178336    1.4757925   359663 
 6871000   0.80308907   -3.2147174   -1.7439845  0.049649561   -3.2147174    1.4707329   359621 
 6872000   0.80439354   -3.2176776   -1.7445926  0.049370921   -3.2176776    1.4730849   359630 
 6873000   0.80692661   -3.2205532   -1.7428458  0.048756383   -3.2205532    1.4777073   359634 
 6874000   0.80613507   -3.2203657    -1.743997  0.049390274   -3.2203657    1.4763686   359607 
 6875000   0.80599469   -3.2197117    -1.743592   0.05358736   -3.2197117    1.4761197   359605 
 6876000   0.80568654   -3.2185416   -1.7430723  0.054880853   -3.2185416    1.4754692   359626 
 6877000   0.80526399   -3.2167844    -1.742212  0.051111105   -3.2167844    1.4745724   359656 
 6878000    0.8062449   -3.2196554   -1.7431841  0.052170905   -3.2196554    1.4764712   359631 
 6879000    0.8062925   -3.2200275   -1.7434527  0.043918666   -3.2200275    1.4765748   359627 
 6880000   0.80639576   -3.2165433    -1.739804  0.052144771   -3.2165433    1.4767393   359633 
 6881000   0.80549667   -3.2172855   -1.7421353  0.044664019   -3.2172855    1.4751502   359619 
 6882000   0.80491893   -3.2171118   -1.7429582  0.052707694   -3.2171118    1.4741537   359604 
 6883000   0.80654381   -3.2182677   -1.7411218  0.048934327   -3.2182677     1.477146   359600 
 6884000   0.80628466   -3.2160355   -1.7394668  0.054870784   -3.2160355    1.4765687   359625 
 6885000   0.80730634   -3.2208323   -1.7422939   0.04961081   -3.2208323    1.4785384   359601 
 6886000   0.80684168   -3.2193413   -1.7414937  0.051375694   -3.2193413    1.4778477   359562 
 6887000   0.80491476     -3.21609   -1.7416938  0.053898187     -3.21609    1.4743962   359543 
 6888000    0.8047791   -3.2162094   -1.7420823  0.050252779   -3.2162094    1.4741271   359548 
 6889000   0.80559846    -3.216232   -1.7405589   0.04951578    -3.216232    1.4756731   359537 
 6890000   0.80652696   -3.2167023   -1.7392297  0.050799288   -3.2167023    1.4774725   359513 
 6891000   0.80620654   -3.2166062   -1.7396795  0.045703287   -3.2166062    1.4769267   359503 
 6892000   0.80545779   -3.2168861   -1.7411136  0.050441332   -3.2168861    1.4757725   359450 
 6893000   0.80661978    -3.219044   -1.7411383  0.045993663    -3.219044    1.4779057   359449 
 6894000   0.80570149   -3.2171642   -1.7408425  0.053565895   -3.2171642    1.4763217   359425 
 6895000   0.80618239   -3.2171579    -1.739918  0.053378195   -3.2171579    1.4772399   359416 
 6896000    0.8038171   -3.2133864   -1.7403987  0.053746053   -3.2133864    1.4729877   359396 
 6897000   0.80477082   -3.2149198   -1.7401597  0.055421149   -3.2149198    1.4747601   359390 
 6898000   0.80379998   -3.2139525   -1.7407173  0.048730092   -3.2139525    1.4732351   359328 
 6899000   0.80498167   -3.2145722   -1.7390521  0.050290346   -3.2145722      1.47552   359299 
 6900000   0.80426267   -3.2137388   -1.7395039  0.050610462   -3.2137388     1.474235   359291 
 6901000   0.80597012   -3.2174772   -1.7401453  0.054302441   -3.2174772    1.4773319   359299 
 6902000   0.80713517    -3.218025   -1.7384465  0.050310955    -3.218025    1.4795786   359272 
 6903000   0.80662062   -3.2173415   -1.7388008  0.052041129   -3.2173415    1.4785407   359295 
 6904000   0.80673289   -3.2164766   -1.7376478  0.051291716   -3.2164766    1.4788288   359275 
 6905000   0.80409072    -3.211938   -1.7379075  0.053288623    -3.211938    1.4740305   359264 
 6906000   0.80598773   -3.2164877   -1.7387781  0.049647701   -3.2164877    1.4777096   359215 
 6907000   0.80519645   -3.2145531   -1.7383066  0.053491621   -3.2145531    1.4762465   359218 
 6908000   0.80438189   -3.2134263   -1.7385746  0.051904972   -3.2134263    1.4748517   359194 
 6909000   0.80682291   -3.2174319   -1.7378574  0.047448257   -3.2174319    1.4795745   359134 
 6910000   0.80493162   -3.2136551   -1.7372447  0.050987053   -3.2136551    1.4764104   359060 
 6911000   0.80494773   -3.2152089   -1.7387854  0.053468106   -3.2152089    1.4764235   359064 
 6912000   0.80428891   -3.2152555   -1.7400898  0.047416238   -3.2152555    1.4751658   359076 
 6913000   0.80422323   -3.2129965   -1.7379964  0.052891846   -3.2129965    1.4750001   359087 
 6914000   0.80553611   -3.2139543   -1.7365175  0.048603282   -3.2139543    1.4774369   359080 
 6915000   0.80505374   -3.2115869   -1.7350471  0.049095752   -3.2115869    1.4765398   359083 
 6916000   0.80555105   -3.2133614    -1.735893  0.049578143   -3.2133614    1.4774684   359079 
 6917000   0.80462357   -3.2130142    -1.737136  0.050734726   -3.2130142    1.4758782   359052 
 6918000   0.80360156   -3.2116146   -1.7374509  0.053404332   -3.2116146    1.4741638   359013 
 6919000    0.8044832   -3.2149629   -1.7391242  0.051612809   -3.2149629    1.4758386   358999 
 6920000   0.80399814   -3.2121331   -1.7371515  0.052905708   -3.2121331    1.4749816   358991 
 6921000   0.80520775    -3.214388   -1.7371955  0.053120806    -3.214388    1.4771925   358993 
 6922000   0.80508582   -3.2149761   -1.7380402  0.054482382   -3.2149761    1.4769359   359001 
 6923000   0.80406209   -3.2146032   -1.7394221  0.054099418   -3.2146032    1.4751812   358971 
 6924000    0.8052992    -3.216773   -1.7392152  0.051129702    -3.216773    1.4775578   358945 
 6925000   0.80456318   -3.2147122   -1.7384678  0.053377831   -3.2147122    1.4762444   358936 
 6926000   0.80501687    -3.215326   -1.7380928  0.054227648    -3.215326    1.4772333   358898 
 6927000    0.8062018   -3.2176887    -1.738244   0.04761679   -3.2176887    1.4794447   358889 
 6928000   0.80503935   -3.2162004   -1.7386707  0.055553151   -3.2162004    1.4775298   358836 
 6929000   0.80431729   -3.2145364   -1.7383401  0.051630491   -3.2145364    1.4761963   358838 
 6930000   0.80509682   -3.2157615   -1.7378956  0.057752739   -3.2157615    1.4778659   358780 
 6931000   0.80495814   -3.2168665   -1.7392923   0.04969096   -3.2168665    1.4775742   358789 
 6932000   0.80495272   -3.2179336   -1.7404064  0.050176906   -3.2179336    1.4775272   358798 
 6933000   0.80461414   -3.2168167   -1.7397216  0.048668498   -3.2168167    1.4770951   358752 
 6934000   0.80444005   -3.2147583    -1.737921  0.052321976   -3.2147583    1.4768373   358737 
 6935000   0.80340977    -3.214706   -1.7396245   0.05263998    -3.214706    1.4750815   358704 
 6936000   0.80471328   -3.2156361   -1.7380295  0.050025599   -3.2156361    1.4776066   358672 
 6937000   0.80376354   -3.2137197   -1.7378241  0.052567079   -3.2137197    1.4758956   358664 
 6938000   0.80438303   -3.2162757    -1.739086  0.052958928   -3.2162757    1.4771897   358626 
 6939000   0.80373909   -3.2159078   -1.7399871  0.050899766   -3.2159078    1.4759207   358647 
 6940000   0.80318446    -3.216431   -1.7413808  0.048102293    -3.216431    1.4750503   358611 
 6941000   0.80272833   -3.2154433   -1.7408853  0.046387221   -3.2154433     1.474558   358527 
 6942000     0.803062   -3.2143792   -1.7392206  0.050416184   -3.2143792    1.4751586   358530 
 6943000    0.8026629   -3.2137564   -1.7393885  0.047858199   -3.2137564    1.4743679   358544 
 6944000    0.8031387   -3.2149571     -1.73967  0.053882027   -3.2149571    1.4752871   358533 
 6945000   0.80315435   -3.2153221   -1.7398869  0.049321446   -3.2153221    1.4754352   358504 
 6946000   0.80482972   -3.2178681   -1.7392231   0.05423544   -3.2178681    1.4786449   358472 
 6947000   0.80349479   -3.2163087   -1.7399392  0.052772106   -3.2163087    1.4763695   358429 
 6948000   0.80412443   -3.2167433   -1.7391138  0.051579953   -3.2167433    1.4776295   358404 
 6949000   0.80343426   -3.2154636   -1.7390694  0.056077454   -3.2154636    1.4763942   358396 
 6950000   0.80427111   -3.2164647   -1.7384462   0.05330405   -3.2164647    1.4780186   358375 
 6951000   0.80350332   -3.2160673   -1.7393773   0.05203536   -3.2160673      1.47669   358355 
 6952000   0.80373079   -3.2187467   -1.7414242  0.047617348   -3.2187467    1.4773224   358303 
 6953000   0.80320011   -3.2170581   -1.7407894   0.04912348   -3.2170581    1.4762687   358322 
 6954000   0.80257443   -3.2185797   -1.7433169   0.04845563   -3.2185797    1.4752628   358287 
 6955000   0.80413928   -3.2202103   -1.7419678  0.047727788   -3.2202103    1.4782424   358262 
 6956000   0.80415163   -3.2186338   -1.7402077  0.053636509   -3.2186338    1.4784261   358223 
 6957000   0.80379525   -3.2182629   -1.7404095  0.052115484   -3.2182629    1.4778534   358203 
 6958000   0.80204168   -3.2171317   -1.7423748  0.051306194   -3.2171317    1.4747569   358172 
 6959000   0.80330835   -3.2171177   -1.7398255  0.056545839   -3.2171177    1.4772922   358122 
 6960000   0.80285708   -3.2153575   -1.7388787  0.055424587   -3.2153575    1.4764788   358118 
 6961000   0.80221792   -3.2173416   -1.7419558  0.052239514   -3.2173416    1.4753858   358098 
 6962000   0.80054807   -3.2159231   -1.7434768  0.049380325   -3.2159231    1.4724463   358066 
 6963000    0.8013066   -3.2165967   -1.7424712  0.047854494   -3.2165967    1.4741255   357997 
 6964000   0.80109705   -3.2174364   -1.7434823  0.052338638   -3.2174364    1.4739541   357945 
 6965000   0.80120381   -3.2160572   -1.7416636  0.053687121   -3.2160572    1.4743936   357886 
 6966000    0.8016861   -3.2151599   -1.7399572  0.049253063   -3.2151599    1.4752028   357905 
 6967000   0.80380768   -3.2202255   -1.7409948  0.052663401   -3.2202255    1.4792307   357875 
 6968000   0.80199194   -3.2174065   -1.7414925   0.05048675   -3.2174065     1.475914   357869 
 6969000    0.8029431   -3.2196824   -1.7421087   0.04385217   -3.2196824    1.4775736   357891 
 6970000   0.80085086   -3.2148649    -1.741092  0.054906002   -3.2148649    1.4737729   357879 
 6971000   0.80107831   -3.2135478   -1.7395828  0.050145405   -3.2135478    1.4739649   357934 
 6972000   0.80187545   -3.2143964   -1.7389936  0.050211439   -3.2143964    1.4754028   357941 
 6973000   0.80226249    -3.214415   -1.7383661  0.051248794    -3.214415    1.4760489   357957 
 6974000   0.80096636   -3.2125251   -1.7386055  0.049467743   -3.2125251    1.4739195   357895 
 6975000   0.80107469   -3.2128656   -1.7386479  0.049735073   -3.2128656    1.4742177   357871 
 6976000   0.80386647   -3.2167064   -1.7372435  0.050049684   -3.2167064    1.4794629   357845 
 6977000   0.80160378   -3.2126647   -1.7373743  0.052838223   -3.2126647    1.4752904   357847 
 6978000   0.80221355   -3.2131165   -1.7365471  0.048897132   -3.2131165    1.4765694   357809 
 6979000   0.80404237   -3.2150645   -1.7349841  0.051481084   -3.2150645    1.4800803   357774 
 6980000   0.80196316   -3.2127833   -1.7366541  0.051184269   -3.2127833    1.4761292   357804 
 6981000   0.80211979   -3.2134709   -1.7369379  0.052017514   -3.2134709     1.476533   357776 
 6982000   0.80034145    -3.211535   -1.7381396  0.054332351    -3.211535    1.4733954   357743 
 6983000   0.80170713   -3.2133194   -1.7374016   0.05010577   -3.2133194    1.4759178   357741 
 6984000   0.80251363   -3.2136924   -1.7362816  0.048615779   -3.2136924    1.4774108   357739 
 6985000   0.80163869   -3.2137664   -1.7377395  0.051369077   -3.2137664     1.476027   357684 
 6986000   0.80216703   -3.2148391    -1.737703  0.050438521   -3.2148391    1.4771361   357651 
 6987000   0.80081082   -3.2140228   -1.7393387  0.049810901   -3.2140228     1.474684   357640 
 6988000   0.80116879   -3.2134192   -1.7379852  0.046422586   -3.2134192     1.475434   357618 
 6989000   0.80028202   -3.2125013   -1.7385272  0.051620324   -3.2125013     1.473974   357576 
 6990000   0.80169217   -3.2128949   -1.7362782  0.049615107   -3.2128949    1.4766167   357565 
 6991000   0.80080493   -3.2097025    -1.734753   0.05226785   -3.2097025    1.4749495   357573 
 6992000    0.8027861   -3.2142001   -1.7354031  0.053859882   -3.2142001     1.478797   357525 
 6993000   0.80357998   -3.2152792   -1.7351357   0.05102424   -3.2152792    1.4801435   357553 
 6994000   0.80327965   -3.2153858   -1.7356921  0.054710502   -3.2153858    1.4796937   357528 
 6995000   0.80237304    -3.213516   -1.7354468  0.055185634    -3.213516    1.4780692   357517 
 6996000   0.80305565    -3.214971   -1.7356361  0.052718664    -3.214971    1.4793349   357515 
 6997000   0.80224639   -3.2137917   -1.7360633  0.045126514   -3.2137917    1.4777284   357543 
 6998000   0.80320065   -3.2142547   -1.7348596  0.052960028   -3.2142547    1.4793951   357565 
 6999000   0.80260554   -3.2131112   -1.7349196  0.050894057   -3.2131112    1.4781915   357591 
 7000000   0.80270758   -3.2141735   -1.7356989  0.051784144   -3.2141735    1.4784745   357568 
 7001000   0.80226778   -3.2130188   -1.7353791  0.050301998   -3.2130188    1.4776397   357574 
 7002000   0.80314605   -3.2132545   -1.7339889  0.052221963   -3.2132545    1.4792656   357572 
 7003000   0.80293545   -3.2139529   -1.7349305  0.051689379   -3.2139529    1.4790225   357537 
 7004000   0.80184811   -3.2127397    -1.735654  0.050367033   -3.2127397    1.4770857   357521 
 7005000   0.80188404   -3.2126516   -1.7355907  0.047570783   -3.2126516     1.477061   357543 
 7006000   0.80261263   -3.2155347   -1.7369911  0.047401825   -3.2155347    1.4785436   357509 
 7007000   0.80033572   -3.2109207   -1.7365385  0.061234995   -3.2109207    1.4743822   357501 
 7008000   0.80274203   -3.2139006   -1.7347752  0.053766973   -3.2139006    1.4791254   357426 
 7009000   0.80022355   -3.2115556   -1.7369511  0.053798511   -3.2115556    1.4746045   357397 
 7010000   0.80183927    -3.213122   -1.7353086  0.050179435    -3.213122    1.4778134   357341 
 7011000   0.80071024   -3.2114554   -1.7356898  0.049806551   -3.2114554    1.4757656   357333 
 7012000   0.80097079   -3.2122255    -1.735897  0.048452672   -3.2122255    1.4763285   357313 
 7013000   0.80016128   -3.2128975   -1.7378836   0.05176062   -3.2128975    1.4750139   357270 
 7014000   0.80047067   -3.2118733   -1.7363139  0.049506442   -3.2118733    1.4755594   357276 
 7015000   0.79967733   -3.2106738   -1.7365397  0.051769588   -3.2106738    1.4741342   357267 
 7016000   0.79995113   -3.2102762   -1.7357322  0.049465035   -3.2102762     1.474544   357290 
 7017000   0.79878199   -3.2085081   -1.7361728  0.050629868   -3.2085081    1.4723353   357303 
 7018000   0.80034263   -3.2120741   -1.7367342  0.048417925   -3.2120741    1.4753399   357272 
 7019000     0.800432   -3.2121313    -1.736639  0.053297186   -3.2121313    1.4754923   357275 
 7020000   0.79968891   -3.2111022   -1.7368559  0.045197478   -3.2111022    1.4742463   357245 
 7021000    0.7982453   -3.2099079   -1.7380922  0.054876726   -3.2099079    1.4718157   357189 
 7022000   0.79989156   -3.2113749   -1.7364866  0.050519551   -3.2113749    1.4748882   357180 
 7023000   0.80041817   -3.2136179   -1.7376801  0.056543955   -3.2136179    1.4759378   357161 
 7024000   0.80161076   -3.2144497   -1.7362425  0.048719454   -3.2144497    1.4782072   357144 
 7025000    0.8023008   -3.2137827   -1.7343568  0.046833557   -3.2137827    1.4794258   357157 
 7026000   0.80126724   -3.2125227   -1.7349407  0.051705991   -3.2125227     1.477582   357142 
 7027000    0.8011075   -3.2112654   -1.7337504  0.053301379   -3.2112654     1.477515   357087 
 7028000   0.79955434   -3.2101056   -1.7353478  0.057310975   -3.2101056    1.4747578   357061 
 7029000   0.79900955   -3.2109849   -1.7371329  0.055989795   -3.2109849     1.473852   357037 
 7030000   0.79958721   -3.2110016   -1.7361419  0.054584588   -3.2110016    1.4748597   357051 
 7031000   0.80023141   -3.2115595   -1.7355364  0.057950097   -3.2115595    1.4760232   357057 
 7032000   0.80058712   -3.2115855   -1.7349476  0.050604132   -3.2115855    1.4766379   357067 
 7033000   0.80129853   -3.2110604   -1.7331311  0.054107797   -3.2110604    1.4779294   357072 
 7034000     0.800884   -3.2110993   -1.7337234  0.047306697   -3.2110993    1.4773758   357021 
 7035000   0.80116481   -3.2134329   -1.7353113  0.050834341   -3.2134329    1.4781215   356966 
 7036000   0.80067905   -3.2116764   -1.7343724   0.04873282   -3.2116764     1.477304   356947 
 7037000   0.80073089   -3.2104142   -1.7327993  0.051296707   -3.2104142    1.4776149   356895 
 7038000   0.80080953   -3.2099306    -1.732125  0.056135696   -3.2099306    1.4778055   356884 
 7039000   0.80165828   -3.2115811   -1.7321968   0.05277158   -3.2115811    1.4793842   356881 
 7040000   0.80074817   -3.2104251   -1.7328074  0.049129988   -3.2104251    1.4776178   356902 
 7041000   0.79972158   -3.2092004   -1.7334852  0.053043142   -3.2092004    1.4757151   356904 
 7042000   0.80054785   -3.2106015   -1.7331837  0.049439482   -3.2106015    1.4774178   356861 
 7043000   0.79809484   -3.2063681    -1.733242  0.050821421   -3.2063681    1.4731261   356804 
 7044000    0.7987977   -3.2064556   -1.7320363  0.048323333   -3.2064556    1.4744193   356805 
 7045000   0.79871509   -3.2073604   -1.7329861  0.051489688   -3.2073604    1.4743743   356779 
 7046000   0.79996338   -3.2083974   -1.7317644  0.054148677   -3.2083974     1.476633   356790 
 7047000   0.79898326   -3.2060848   -1.7313561  0.051533437   -3.2060848    1.4747287   356813 
 7048000   0.79884867   -3.2062003   -1.7316786  0.048421251   -3.2062003    1.4745216   356803 
 7049000    0.7989523   -3.2070529   -1.7322078  0.047388018   -3.2070529    1.4748452   356771 
 7050000   0.80004989   -3.2058279   -1.7290477  0.049047593   -3.2058279    1.4767803   356793 
 7051000   0.80002908   -3.2046149   -1.7277364  0.052736423   -3.2046149    1.4768784   356760 
 7052000   0.79973044   -3.2065338   -1.7301073  0.052320012   -3.2065338    1.4764265   356736 
 7053000   0.79956893   -3.2069477   -1.7306869  0.053471849   -3.2069477    1.4762607   356704 
 7054000   0.79939191   -3.2068919   -1.7308504  0.053625926   -3.2068919    1.4760415   356678 
 7055000   0.80120062   -3.2090729    -1.729754  0.052501714   -3.2090729    1.4793189   356693 
 7056000   0.80126146   -3.2102407   -1.7307389   0.05020941   -3.2102407    1.4795018   356676 
 7057000    0.7999603     -3.20889   -1.7318197  0.055528828     -3.20889    1.4770703   356683 
 7058000   0.80019144   -3.2086972   -1.7311007  0.055537704   -3.2086972    1.4775965   356659 
 7059000   0.79973994   -3.2088661   -1.7320454  0.051898337   -3.2088661    1.4768207   356645 
 7060000   0.79915086   -3.2092419   -1.7334387  0.051487304   -3.2092419    1.4758033   356628 
 7061000   0.79943388   -3.2095891   -1.7331514  0.047624605   -3.2095891    1.4764377   356601 
 7062000    0.7984595   -3.2098211   -1.7351209  0.047876276   -3.2098211    1.4747002   356586 
 7063000   0.79830883    -3.209686   -1.7351359  0.053631628    -3.209686    1.4745501   356555 
 7064000   0.80006164   -3.2122564   -1.7344811  0.050217055   -3.2122564    1.4777753   356558 
 7065000   0.79931849    -3.210602   -1.7341166  0.050907041    -3.210602    1.4764854   356538 
 7066000   0.79916917   -3.2098143   -1.7334018  0.054410423   -3.2098143    1.4764125   356489 
 7067000   0.79978981    -3.211623   -1.7340224  0.049224866    -3.211623    1.4776006   356479 
 7068000   0.79999904   -3.2113531   -1.7334738  0.048219015   -3.2113531    1.4778793   356505 
 7069000   0.80026103   -3.2120165   -1.7335495  0.051706213   -3.2120165     1.478467   356480 
 7070000   0.79914782   -3.2125646   -1.7361046  0.053476575   -3.2125646    1.4764601   356468 
 7071000   0.79984195   -3.2123798   -1.7344507  0.050975681   -3.2123798    1.4779291   356423 
 7072000   0.80010457   -3.2123228   -1.7338338  0.052789384   -3.2123228     1.478489   356405 
 7073000    0.7985103   -3.2114143   -1.7357513  0.054264786   -3.2114143    1.4756631   356376 
 7074000   0.79798699    -3.209767   -1.7350792  0.046845783    -3.209767    1.4746877   356378 
 7075000   0.79751705   -3.2102779   -1.7364091   0.05049949   -3.2102779    1.4738689   356366 
 7076000    0.7982121   -3.2097547   -1.7345061  0.051474093   -3.2097547    1.4752486   356343 
 7077000   0.79837361   -3.2108975   -1.7354415  0.052344527   -3.2108975     1.475456   356365 
 7078000   0.79966561   -3.2128917   -1.7350148  0.051015739   -3.2128917    1.4778769   356357 
 7079000   0.80029173   -3.2131667    -1.734087   0.05026375   -3.2131667    1.4790797   356346 
 7080000   0.79958058   -3.2111644   -1.7332166  0.050237693   -3.2111644    1.4779478   356302 
 7081000    0.7992462   -3.2112481   -1.7337898  0.050835844   -3.2112481    1.4774583   356271 
 7082000   0.79780133    -3.211045   -1.7360672  0.053599847    -3.211045    1.4749778   356225 
 7083000   0.79890737   -3.2125499   -1.7356143   0.04909059   -3.2125499    1.4769356   356246 
 7084000    0.7993927   -3.2127928    -1.735072  0.045071988   -3.2127928    1.4777208   356273 
 7085000   0.79744094   -3.2091866   -1.7349081   0.05042546   -3.2091866    1.4742784   356233 
 7086000   0.79754392    -3.210033   -1.7354938  0.048676149    -3.210033    1.4745392   356216 
 7087000   0.79759992   -3.2093223   -1.7346548  0.048548482   -3.2093223    1.4746676   356210 
 7088000   0.79916193   -3.2110028   -1.7331901  0.055092363   -3.2110028    1.4778127   356148 
 7089000   0.79888769   -3.2120558   -1.7348166  0.055538858   -3.2120558    1.4772393   356164 
 7090000    0.7992171   -3.2122054   -1.7343736  0.054113423   -3.2122054    1.4778318   356168 
 7091000   0.79847235   -3.2101359   -1.7338097  0.049089941   -3.2101359    1.4763262   356199 
 7092000   0.79885353   -3.2111815   -1.7342376  0.048621268   -3.2111815    1.4769439   356220 
 7093000   0.79678656   -3.2086118   -1.7353612   0.04630807   -3.2086118    1.4732506   356189 
 7094000    0.7978956    -3.210639   -1.7352881  0.046757837    -3.210639    1.4753509   356177 
 7095000   0.79840727    -3.210982   -1.7345689  0.051214572    -3.210982    1.4764131   356149 
 7096000    0.7984926   -3.2091208   -1.7326784  0.054463275   -3.2091208    1.4764424   356180 
 7097000   0.79803197   -3.2098662   -1.7342134  0.052172518   -3.2098662    1.4756528   356165 
 7098000    0.7988829   -3.2117561   -1.7344676  0.052824189   -3.2117561    1.4772885   356150 
 7099000    0.7976112   -3.2088539   -1.7338922  0.051910895   -3.2088539    1.4749617   356144 
 7100000   0.79700581    -3.208326   -1.7345003  0.055534005    -3.208326    1.4738257   356148 
 7101000    0.7984577   -3.2111994   -1.7345397  0.048002146   -3.2111994    1.4766598   356112 
 7102000    0.7970782   -3.2103275   -1.7359871  0.052243274   -3.2103275    1.4743404   356056 
 7103000   0.79616245   -3.2095934   -1.7369262  0.053645572   -3.2095934    1.4726672   356051 
 7104000   0.79763172   -3.2117486   -1.7362683  0.051273874   -3.2117486    1.4754802   356028 
 7105000   0.79779592   -3.2113983   -1.7354361  0.054545089   -3.2113983    1.4759622   355985 
 7106000   0.79800028   -3.2109276   -1.7344877  0.049725067   -3.2109276    1.4764399   355961 
 7107000   0.79740559   -3.2124431   -1.7369129  0.055530645   -3.2124431    1.4755303   355915 
 7108000   0.79802481    -3.212585   -1.7358385  0.049986722    -3.212585    1.4767466   355898 
 7109000   0.79682383   -3.2121805    -1.737416  0.051491877   -3.2121805    1.4747645   355840 
 7110000   0.79590409   -3.2096728   -1.7366106  0.048776406   -3.2096728    1.4730623   355840 
 7111000   0.79810278    -3.212298   -1.7351913  0.049911703    -3.212298    1.4771067   355846 
 7112000    0.7979308   -3.2129033   -1.7361107  0.052803525   -3.2129033    1.4767926   355845 
 7113000    0.7960018   -3.2092506   -1.7360448  0.049859152   -3.2092506    1.4732058   355849 
 7114000   0.79771106   -3.2118927   -1.7357018  0.052906226   -3.2118927    1.4761909   355892 
 7115000   0.79615337   -3.2104702   -1.7370583  0.049658956   -3.2104702    1.4734118   355867 
 7116000   0.79571762    -3.210734   -1.7380086  0.043225048    -3.210734    1.4727254   355838 
 7117000   0.79546802   -3.2093793   -1.7372358  0.053093297   -3.2093793    1.4721435   355867 
 7118000   0.79680893   -3.2092347   -1.7345144  0.055851683   -3.2092347    1.4747204   355844 
 7119000   0.79638122   -3.2113217    -1.737248  0.050281241   -3.2113217    1.4740738   355809 
 7120000   0.79821716    -3.214865   -1.7373224  0.047557803    -3.214865    1.4775426   355792 
 7121000   0.79832034   -3.2116129   -1.7337215  0.050322828   -3.2116129    1.4778914   355754 
 7122000   0.79742877   -3.2110593   -1.7348516  0.050712491   -3.2110593    1.4762077   355762 
 7123000   0.79777412   -3.2115404   -1.7346602    0.0523388   -3.2115404    1.4768802   355754 
 7124000   0.79868613    -3.213141   -1.7345059  0.053220054    -3.213141    1.4786351   355738 
 7125000   0.79932886   -3.2134884   -1.7335718  0.048088509   -3.2134884    1.4799165   355716 
 7126000   0.79587684   -3.2087063    -1.735152  0.055719254   -3.2087063    1.4735543   355709 
 7127000   0.79628125   -3.2096529   -1.7352089  0.047820253   -3.2096529     1.474444   355675 
 7128000   0.79705042    -3.212077   -1.7361506    0.0480043    -3.212077    1.4759263   355661 
 7129000   0.79568134   -3.2080749   -1.7347997  0.050909259   -3.2080749    1.4732752   355689 
 7130000    0.7951155   -3.2109078   -1.7385934  0.047960547   -3.2109078    1.4723144   355668 
 7131000   0.79616861   -3.2119142   -1.7376664  0.051415139   -3.2119142    1.4742479   355672 
 7132000    0.7971965   -3.2117268   -1.7354553  0.047675491   -3.2117268    1.4762716   355643 
 7133000   0.79620903   -3.2091506    -1.734546  0.053592876   -3.2091506    1.4746046   355604 
 7134000   0.79724294   -3.2110647   -1.7345286   0.04821159   -3.2110647    1.4765361   355600 
 7135000   0.79708056    -3.208967   -1.7328105  0.057082987    -3.208967    1.4761565   355619 
 7136000    0.7978104   -3.2122037   -1.7347496  0.047722107   -3.2122037    1.4774541   355632 
 7137000    0.7968682   -3.2105768   -1.7349132  0.052729234   -3.2105768    1.4756636   355643 
 7138000   0.79700637   -3.2113009   -1.7353607   0.05077638   -3.2113009    1.4759402   355638 
 7139000    0.7964543   -3.2090471   -1.7340629  0.047143892   -3.2090471    1.4749842   355622 
 7140000    0.7958725   -3.2076804   -1.7336119  0.048086032   -3.2076804    1.4740684   355583 
 7141000   0.79709788   -3.2097373   -1.7333495  0.050372132   -3.2097373    1.4763878   355571 
 7142000   0.79599161    -3.208395   -1.7337992  0.053196881    -3.208395    1.4745959   355509 
 7143000   0.79700482   -3.2093314   -1.7327339  0.049258773   -3.2093314    1.4765975   355479 
 7144000   0.79662443   -3.2094143   -1.7333429  0.046228092   -3.2094143    1.4760713   355436 
 7145000   0.79718097   -3.2095069   -1.7323961  0.045686282   -3.2095069    1.4771108   355434 
 7146000   0.79729787   -3.2094561   -1.7320746  0.049003404   -3.2094561    1.4773815   355421 
 7147000   0.79774679   -3.2107582   -1.7325075  0.049192023   -3.2107582    1.4782508   355412 
 7148000   0.79612797   -3.2071255   -1.7319284  0.054279879   -3.2071255    1.4751971   355425 
 7149000   0.79712694   -3.2083181   -1.7313323   0.05573715   -3.2083181    1.4769858   355440 
 7150000   0.79752337   -3.2079323   -1.7301828  0.049399634   -3.2079323    1.4777494   355433 
 7151000   0.79719461   -3.2074816    -1.730308  0.049946814   -3.2074816    1.4771735   355425 
 7152000   0.79734118   -3.2063068     -1.72887   0.05269415   -3.2063068    1.4774368   355427 
 7153000    0.7971892   -3.2066469   -1.7295083  0.052148032   -3.2066469    1.4771386   355431 
 7154000   0.79675687   -3.2050203   -1.7285126  0.056553949   -3.2050203    1.4765078   355390 
 7155000   0.79626126   -3.2032283   -1.7275518  0.053318312   -3.2032283    1.4756766   355369 
 7156000   0.79807562    -3.207063   -1.7280823  0.048759284    -3.207063    1.4789808   355383 
 7157000   0.79706105   -3.2056265    -1.728555  0.051955802   -3.2056265    1.4770715   355390 
 7158000   0.79664696   -3.2070833   -1.7306837  0.050686273   -3.2070833    1.4763997   355367 
 7159000   0.79600725   -3.2054871   -1.7301692  0.049104707   -3.2054871    1.4753179   355342 
 7160000   0.79649151   -3.2040581   -1.7278759  0.053165031   -3.2040581    1.4761822   355350 
 7161000   0.79624266   -3.2045759   -1.7287178  0.050499297   -3.2045759    1.4758581   355317 
 7162000   0.79529266   -3.2033937   -1.7293711  0.050636074   -3.2033937    1.4740225   355335 
 7163000   0.79604366   -3.2042716   -1.7288447  0.045585093   -3.2042716    1.4754269   355332 
 7164000    0.7969446   -3.2046813   -1.7274972  0.050659007   -3.2046813    1.4771841   355311 
 7165000   0.79810319      -3.2068   -1.7275434  0.053960479      -3.2068    1.4792566   355329 
 7166000    0.8001853   -3.2090022   -1.7258155  0.054648065   -3.2090022    1.4831867   355312 
 7167000   0.79870994   -3.2051756   -1.7247944  0.050178564   -3.2051756    1.4803812   355329 
 7168000   0.79961478   -3.2095931   -1.7274806  0.056707492   -3.2095931    1.4821125   355316 
 7169000   0.79700308   -3.2043937   -1.7272385  0.054583825   -3.2043937    1.4771553   355344 
 7170000    0.7953002   -3.2021564   -1.7280369  0.053856556   -3.2021564    1.4741195   355315 
 7171000   0.79573527   -3.2018013   -1.7268131  0.048644103   -3.2018013    1.4749882   355300 
 7172000   0.79731015   -3.2038053   -1.7259104  0.051587121   -3.2038053    1.4778949   355303 
 7173000   0.79802216    -3.207255   -1.7278488  0.044993886    -3.207255    1.4794062   355257 
 7174000   0.79691072   -3.2024643   -1.7250104  0.054385886   -3.2024643    1.4774539   355231 
 7175000   0.79678917   -3.2036934   -1.7264066  0.054907211   -3.2036934    1.4772868   355217 
 7176000   0.79889756   -3.2056984   -1.7246318  0.056338061   -3.2056984    1.4810666   355248 
 7177000   0.79892312   -3.2059401   -1.7247761  0.051062599   -3.2059401     1.481164   355236 
 7178000   0.79856436   -3.2046574   -1.7240502   0.05547516   -3.2046574    1.4806072   355210 
 7179000   0.79767433   -3.2035508   -1.7246479  0.054712242   -3.2035508    1.4789029   355223 
 7180000   0.79787757   -3.2048682   -1.7256259  0.053178041   -3.2048682    1.4792423   355232 
 7181000   0.79788677    -3.206283   -1.7267905  0.055898235    -3.206283    1.4794926   355176 
 7182000   0.79661625   -3.2048379   -1.7277802  0.053778362   -3.2048379    1.4770577   355195 
 7183000   0.79707573   -3.2052671   -1.7274074  0.053592302   -3.2052671    1.4778597   355207 
 7184000   0.79649735   -3.2052512   -1.7285013  0.050695332   -3.2052512    1.4767499   355216 
 7185000   0.79530309    -3.202699   -1.7277315  0.052332627    -3.202699    1.4749675   355112 
 7186000   0.79690944   -3.2046188   -1.7265514  0.049842697   -3.2046188    1.4780673   355083 
 7187000   0.79740379    -3.205039   -1.7260256  0.050288955    -3.205039    1.4790134   355076 
 7188000   0.79793058    -3.208552   -1.7284406  0.053515844    -3.208552    1.4801114   355047 
 7189000   0.79820836   -3.2064783    -1.725935   0.05340155   -3.2064783    1.4805432   355067 
 7190000    0.7975386   -3.2059567   -1.7265891  0.048080786   -3.2059567    1.4793676   355051 
 7191000   0.79800021   -3.2066721   -1.7264316  0.051941989   -3.2066721    1.4802405   355047 
 7192000   0.79676345   -3.2041879   -1.7261208  0.055920325   -3.2041879    1.4780671   355018 
 7193000   0.79673969   -3.2043059   -1.7262578  0.056810716   -3.2043059     1.478048   355012 
 7194000   0.79613349   -3.2033146   -1.7263496  0.056603859   -3.2033146    1.4769651   355002 
 7195000   0.79530999    -3.201682   -1.7262862   0.05514248    -3.201682    1.4753958   355012 
 7196000   0.79633258   -3.2047601   -1.7274631  0.053042404   -3.2047601     1.477297   355011 
 7197000   0.79475882    -3.204673   -1.7300629  0.050185382    -3.204673    1.4746101   354955 
 7198000   0.79625458   -3.2051548   -1.7278569  0.052983688   -3.2051548    1.4772979   354976 
 7199000   0.79625861   -3.2057719   -1.7283874  0.052465364   -3.2057719    1.4773845   354957 
 7200000   0.79565507   -3.2035338   -1.7272858  0.051002685   -3.2035338     1.476248   354961 
 7201000   0.79792123   -3.2052248   -1.7247471  0.053554008   -3.2052248    1.4804777   354955 
 7202000   0.79616832    -3.202556   -1.7252433  0.057074968    -3.202556    1.4773127   354934 
 7203000   0.79628359   -3.2035355     -1.72578  0.058770567   -3.2035355    1.4777555   354879 
 7204000   0.79694952   -3.2056169   -1.7265339  0.048637443   -3.2056169    1.4790831   354857 
 7205000    0.7971358   -3.2055506   -1.7262885  0.052121531   -3.2055506    1.4792621   354897 
 7206000   0.79460028   -3.2019262   -1.7273029  0.051350634   -3.2019262    1.4746233   354881 
 7207000    0.7969363   -3.2031508    -1.724088  0.054250105   -3.2031508    1.4790627   354856 
 7208000   0.79677419   -3.2044267   -1.7256399  0.051476222   -3.2044267    1.4787869   354850 
 7209000   0.79731969   -3.2046318   -1.7247032   0.04727718   -3.2046318    1.4799286   354819 
 7210000   0.79758861   -3.2039505   -1.7235228  0.053321553   -3.2039505    1.4804277   354819 
 7211000   0.79640578   -3.2028142   -1.7244611  0.048937566   -3.2028142    1.4783531   354790 
 7212000   0.79613703   -3.2015137   -1.7237512  0.050839539   -3.2015137    1.4777626   354812 
 7213000   0.79685058   -3.2018769   -1.7228774  0.055424784   -3.2018769    1.4789995   354833 
 7214000   0.79681847   -3.2028131   -1.7238607  0.053343985   -3.2028131    1.4789524   354830 
 7215000   0.79694813   -3.2036753    -1.724478  0.049159625   -3.2036753    1.4791972   354829 
 7216000   0.79731362   -3.2037212    -1.723758  0.052933449   -3.2037212    1.4799632   354808 
 7217000   0.79740359   -3.2026803   -1.7225251   0.04633164   -3.2026803    1.4801552   354802 
 7218000   0.79719055   -3.2027726   -1.7230504  0.055233016   -3.2027726    1.4797222   354811 
 7219000   0.79919652   -3.2035469   -1.7201222  0.056093469   -3.2035469    1.4834247   354816 
 7220000   0.79795288   -3.2039418   -1.7228505  0.057454683   -3.2039418    1.4810913   354822 
 7221000   0.79703601   -3.2019943   -1.7224254  0.052866998   -3.2019943    1.4795688   354779 
 7222000   0.79776211   -3.2018019   -1.7208977  0.052293953   -3.2018019    1.4809042   354782 
 7223000   0.79861293   -3.2059223   -1.7233259   0.04667106   -3.2059223    1.4825964   354755 
 7224000   0.79684117   -3.2029917   -1.7237012  0.050226259   -3.2029917    1.4792905   354759 
 7225000   0.79456961   -3.1978866   -1.7228131   0.05195612   -3.1978866    1.4750735   354759 
 7226000    0.7950458   -3.2007159   -1.7244463  0.053468095   -3.2007159    1.4762696   354684 
 7227000   0.79625264   -3.2035075   -1.7246676  0.048961383   -3.2035075    1.4788399   354605 
 7228000   0.79620297   -3.2035229   -1.7247044  0.051204218   -3.2035229    1.4788186   354588 
 7229000   0.79606317   -3.2033998   -1.7246866  0.056754844   -3.2033998    1.4787132   354551 
 7230000   0.79547489   -3.2023048   -1.7247843  0.050310784   -3.2023048    1.4775204   354575 
 7231000   0.79635982   -3.2026911   -1.7235312  0.052037753   -3.2026911    1.4791599   354576 
 7232000    0.7958617   -3.2024614     -1.72411  0.053340494   -3.2024614    1.4783515   354548 
 7233000   0.79369386   -3.1986609   -1.7242988  0.049896207   -3.1986609     1.474362   354539 
 7234000   0.79711381   -3.2046022   -1.7237118  0.047658891   -3.2046022    1.4808903   354497 
 7235000    0.7956746    -3.202114   -1.7237973  0.056912624    -3.202114    1.4783166   354473 
 7236000    0.7967779   -3.2034219   -1.7231848  0.050327155   -3.2034219    1.4802371   354504 
 7237000   0.79573176   -3.2020049   -1.7236112  0.051771118   -3.2020049    1.4783937   354480 
 7238000   0.79519995   -3.2006981   -1.7232509  0.055341721   -3.2006981    1.4774473   354470 
 7239000   0.79673621   -3.2033422    -1.723074   0.05038328   -3.2033422    1.4802682   354478 
 7240000    0.7968558   -3.2053127   -1.7246218  0.051028859   -3.2053127    1.4806909   354430 
 7241000   0.79617516   -3.2034244   -1.7239356  0.050112594   -3.2034244    1.4794887   354415 
 7242000   0.79533874   -3.2042539    -1.726332  0.051661579   -3.2042539    1.4779219   354418 
 7243000   0.79597213   -3.2042484   -1.7250535  0.050305586   -3.2042484    1.4791949   354395 
 7244000   0.79384275   -3.2018029   -1.7263819  0.051389074   -3.2018029     1.475421   354351 
 7245000   0.79378119   -3.1995329   -1.7240223  0.054341893   -3.1995329    1.4755106   354302 
 7246000     0.794017   -3.2008321   -1.7248916  0.052752037   -3.2008321    1.4759406   354304 
 7247000   0.79591035   -3.2055959   -1.7259396  0.048641383   -3.2055959    1.4796563   354257 
 7248000   0.79388348   -3.2029258   -1.7269376  0.054918463   -3.2029258    1.4759882   354233 
 7249000   0.79399593   -3.2011755   -1.7249949  0.054076065   -3.2011755    1.4761806   354237 
 7250000   0.79487765   -3.2027011   -1.7247811  0.053483304   -3.2027011      1.47792   354213 
 7251000   0.79556583   -3.2045526   -1.7252403  0.051574267   -3.2045526    1.4793123   354186 
 7252000   0.79470838   -3.2023177   -1.7244329  0.052066494   -3.2023177    1.4778848   354146 
 7253000   0.79456239    -3.203069   -1.7252387  0.051895653    -3.203069    1.4778303   354094 
 7254000   0.79497377   -3.2047322   -1.7260824  0.051007833   -3.2047322    1.4786497   354081 
 7255000   0.79379567   -3.2020036   -1.7255201  0.049041067   -3.2020036    1.4764835   354075 
 7256000   0.79488286   -3.2035221   -1.7249245  0.050713159   -3.2035221    1.4785976   354053 
 7257000   0.79458507   -3.2029081   -1.7248603  0.054006692   -3.2029081    1.4780478   354052 
 7258000   0.79468541   -3.2022065    -1.724114  0.049925658   -3.2022065    1.4780925   354086 
 7259000    0.7946179   -3.2029842   -1.7250715  0.053033833   -3.2029842    1.4779127   354099 
 7260000   0.79335072   -3.2006628   -1.7251778  0.051188294   -3.2006628     1.475485   354116 
 7261000   0.79545526   -3.2031059   -1.7237152  0.054590533   -3.2031059    1.4793907   354118 
 7262000   0.79485422    -3.201734   -1.7232524  0.051436491    -3.201734    1.4784817   354068 
 7263000   0.79490098   -3.2025809   -1.7240666  0.049591391   -3.2025809    1.4785143   354081 
 7264000   0.79503387   -3.2024983   -1.7236282  0.050695736   -3.2024983    1.4788701   354055 
 7265000    0.7955573   -3.2027021   -1.7227455  0.056666299   -3.2027021    1.4799566   354028 
 7266000    0.7944799   -3.2019783   -1.7240051  0.053387435   -3.2019783    1.4779732   354023 
 7267000    0.7944964   -3.2024934   -1.7244018  0.046631661   -3.2024934    1.4780916   354002 
 7268000   0.79251719   -3.2006512   -1.7261793  0.052651929   -3.2006512    1.4744719   353987 
 7269000   0.79269416    -3.202304   -1.7273987  0.049187016    -3.202304    1.4749053   353962 
 7270000   0.79442953   -3.2034313   -1.7252093  0.049796048   -3.2034313    1.4782219   353941 
 7271000   0.79259953    -3.199156   -1.7244684   0.05374208    -3.199156    1.4746876   353972 
 7272000   0.79354268    -3.200731   -1.7242928  0.053495351    -3.200731    1.4764382   353973 
 7273000   0.79320768   -3.2023419   -1.7264143  0.050419451   -3.2023419    1.4759275   353946 
 7274000   0.79390483   -3.2038055   -1.7263136  0.054295689   -3.2038055    1.4774919   353882 
 7275000   0.79366273   -3.2020186   -1.7246851  0.052257194   -3.2020186    1.4773335   353812 
 7276000   0.79437888   -3.2021006   -1.7233755  0.053555858   -3.2021006    1.4787251   353798 
 7277000    0.7951942   -3.2033069   -1.7229763  0.050847501   -3.2033069    1.4803307   353777 
 7278000   0.79452696   -3.2041902   -1.7250556  0.052397294   -3.2041902    1.4791346   353766 
 7279000   0.79333651   -3.2020511   -1.7251327   0.05463803   -3.2020511    1.4769183   353766 
 7280000   0.79365222   -3.2002804   -1.7229998  0.056018438   -3.2002804    1.4772806   353820 
 7281000   0.79445854   -3.2014564   -1.7226332  0.056052622   -3.2014564    1.4788232   353810 
 7282000   0.79397319   -3.2032897   -1.7251067  0.052781344   -3.2032897     1.478183   353747 
 7283000   0.79325902   -3.2016743   -1.7245913  0.049830023   -3.2016743    1.4770831   353692 
 7284000    0.7915585   -3.2008745   -1.7268538  0.050057462   -3.2008745    1.4740208   353667 
 7285000   0.79091821   -3.1998937   -1.7268903  0.048899227   -3.1998937    1.4730034   353625 
 7286000   0.79231364   -3.2020101    -1.726266  0.053889957   -3.2020101    1.4757441   353591 
 7287000    0.7923008   -3.2049708   -1.7292548  0.047488483   -3.2049708     1.475716   353592 
 7288000   0.79138444   -3.2037025   -1.7296473  0.049769106   -3.2037025    1.4740551   353581 
 7289000   0.79259989   -3.2040628   -1.7275182   0.05660836   -3.2040628    1.4765445   353527 
 7290000   0.79291168   -3.2021264    -1.724838  0.047697125   -3.2021264    1.4772883   353488 
 7291000   0.79288701   -3.2015112   -1.7242353  0.050763152   -3.2015112    1.4772758   353480 
 7292000   0.79238744   -3.2009059   -1.7243395  0.051100119   -3.2009059    1.4765664   353427 
 7293000   0.79284832   -3.2019577   -1.7244656  0.053735835   -3.2019577    1.4774921   353411 
 7294000   0.79287947   -3.2028574   -1.7250856  0.055919099   -3.2028574    1.4777718   353358 
 7295000   0.79333695   -3.2029509   -1.7240126  0.057725227   -3.2029509    1.4789384   353283 
 7296000   0.79259147   -3.2020013   -1.7243439  0.053681234   -3.2020013    1.4776574   353257 
 7297000   0.79225521    -3.202396   -1.7252108  0.049352239    -3.202396    1.4771852   353220 
 7298000   0.79110717   -3.2000903   -1.7247993  0.053853328   -3.2000903    1.4752911   353161 
 7299000   0.79190886   -3.2019202   -1.7252679  0.049870315   -3.2019202    1.4766523   353193 
 7300000   0.79179396   -3.2010776   -1.7247064  0.054900708   -3.2010776    1.4763712   353209 
 7301000    0.7917939   -3.2020205    -1.725687  0.048533358   -3.2020205    1.4763334   353218 
 7302000   0.79365861   -3.2044803   -1.7247664   0.04787668   -3.2044803    1.4797139   353241 
 7303000   0.79311108   -3.2018178   -1.7232043  0.049637506   -3.2018178    1.4786136   353260 
 7304000     0.792746   -3.2007234   -1.7227696   0.05063937   -3.2007234    1.4779538   353255 
 7305000   0.79112931   -3.1978533   -1.7229511  0.046194459   -3.1978533    1.4749022   353264 
 7306000   0.79128069   -3.1959828   -1.7207023  0.054310235   -3.1959828    1.4752805   353241 
 7307000   0.79202906   -3.1990316   -1.7221426  0.051900562   -3.1990316     1.476889   353190 
 7308000   0.79044961   -3.1976975   -1.7234532  0.050815507   -3.1976975    1.4742443   353118 
 7309000   0.79186249   -3.1991763    -1.722255  0.048979257   -3.1991763    1.4769213   353108 
 7310000   0.79093303   -3.1973251   -1.7219995  0.052493149   -3.1973251    1.4753256   353075 
 7311000   0.79046078   -3.1973708   -1.7227381  0.051084477   -3.1973708    1.4746327   353030 
 7312000   0.79001204   -3.1971235   -1.7233655  0.046686189   -3.1971235    1.4737579   353039 
 7313000   0.78931954   -3.1957722   -1.7232227  0.044718705   -3.1957722    1.4725495   353019 
 7314000   0.78911524   -3.1946665   -1.7224731   0.05082034   -3.1946665    1.4721934   353013 
 7315000   0.78838371   -3.1958025    -1.724903  0.047741068   -3.1958025    1.4708995   352996 
 7316000   0.78966147   -3.1977164   -1.7243913  0.050776097   -3.1977164    1.4733251   352986 
 7317000   0.78787306   -3.1967749   -1.7266532  0.051154458   -3.1967749    1.4701217   352954 
 7318000   0.78825965   -3.1979655    -1.726885  0.051495128   -3.1979655    1.4710806   352897 
 7319000   0.78980771   -3.1994215   -1.7252806  0.052316529   -3.1994215    1.4741409   352856 
 7320000   0.79087776   -3.2000916   -1.7237945  0.048105264   -3.2000916    1.4762971   352818 
 7321000    0.7914289    -3.200015   -1.7225341  0.054312493    -3.200015    1.4774808   352781 
 7322000   0.79083985   -3.2009258   -1.7244777  0.050007339   -3.2009258    1.4764481   352765 
 7323000   0.79199665   -3.2014741   -1.7229962  0.053653855   -3.2014741    1.4784779   352796 
 7324000   0.79196666   -3.2022688   -1.7236877  0.052544889   -3.2022688    1.4785811   352758 
 7325000   0.79083643   -3.2022944   -1.7258778  0.052583449   -3.2022944    1.4764166   352771 
 7326000   0.79253275   -3.2033107    -1.723786  0.052861286   -3.2033107    1.4795248   352785 
 7327000   0.79130738   -3.2023185   -1.7249975  0.052108376   -3.2023185     1.477321   352765 
 7328000   0.79051872   -3.2020751   -1.7261554  0.052478719   -3.2020751    1.4759197   352748 
 7329000   0.78968935   -3.2003073   -1.7258232  0.052718183   -3.2003073    1.4744841   352721 
 7330000   0.78958904   -3.1993618   -1.7248894  0.057642584   -3.1993618    1.4744724   352679 
 7331000   0.79029163     -3.19933   -1.7233824  0.055245811     -3.19933    1.4759476   352640 
 7332000   0.78997598   -3.1998397   -1.7245276  0.050935478   -3.1998397    1.4753121   352651 
 7333000   0.78945192   -3.1985279   -1.7241569  0.050521848   -3.1985279     1.474371   352642 
 7334000     0.789228   -3.1988285   -1.7247921   0.05106424   -3.1988285    1.4740364   352622 
 7335000   0.79033751   -3.2001855   -1.7239722  0.049097824   -3.2001855    1.4762133   352597 
 7336000   0.79184615   -3.2005982    -1.721588  0.047172669   -3.2005982    1.4790102   352602 
 7337000   0.79055876   -3.2002084   -1.7235693  0.052242558   -3.2002084    1.4766391   352594 
 7338000   0.79070389   -3.1982366   -1.7212678  0.056377005   -3.1982366    1.4769688   352580 
 7339000   0.78982526   -3.1987474   -1.7230347  0.048304992   -3.1987474    1.4757127   352488 
 7340000   0.79154605   -3.1997963   -1.7206461  0.058860469   -3.1997963    1.4791502   352435 
 7341000   0.79002269   -3.1996809   -1.7232139  0.048382002   -3.1996809    1.4764669   352396 
 7342000   0.78942211    -3.200013   -1.7247145  0.051516632    -3.200013    1.4752985   352407 
 7343000   0.79068111   -3.2012691   -1.7235129  0.051129398   -3.2012691    1.4777562   352382 
 7344000   0.78850917   -3.1992711   -1.7255659  0.048149745   -3.1992711    1.4737052   352380 
 7345000   0.78889069   -3.1990194   -1.7244839  0.053504926   -3.1990194    1.4745355   352352 
 7346000   0.78943932   -3.1985673   -1.7229897  0.047869198   -3.1985673    1.4755777   352348 
 7347000    0.7896016   -3.2003386   -1.7244241  0.047058094   -3.2003386    1.4759145   352340 
 7348000   0.78810286    -3.197492   -1.7241866  0.045184156    -3.197492    1.4733054   352294 
 7349000   0.78743198   -3.1958301   -1.7236702  0.054444577   -3.1958301    1.4721599   352268 
 7350000   0.79043758   -3.2004788   -1.7226116  0.047955993   -3.2004788    1.4778672   352247 
 7351000   0.78914942    -3.200157    -1.724648  0.049888743    -3.200157     1.475509   352235 
 7352000   0.78913049   -3.2011599    -1.725636  0.045549098   -3.2011599    1.4755239   352223 
 7353000   0.78944425   -3.1997219   -1.7235401  0.052213364   -3.1997219    1.4761818   352206 
 7354000   0.78876865   -3.1971229   -1.7221835  0.053961055   -3.1971229    1.4749394   352201 
 7355000    0.7890937   -3.1984713   -1.7227439  0.049120127   -3.1984713    1.4757274   352158 
 7356000   0.78956834   -3.2000336   -1.7235485  0.050573736   -3.2000336    1.4764851   352189 
 7357000   0.78995806   -3.2006262   -1.7233032  0.056915083   -3.2006262    1.4773229   352163 
 7358000   0.78955864   -3.2000162   -1.7232474  0.046049966   -3.2000162    1.4767689   352117 
 7359000   0.78890057   -3.1995954   -1.7239442  0.057090162   -3.1995954    1.4756512   352090 
 7360000   0.78862803   -3.2019579   -1.7266866   0.04875414   -3.2019579    1.4752713   352059 
 7361000   0.78818848   -3.2020899   -1.7275236  0.049791997   -3.2020899    1.4745663   352031 
 7362000   0.78879574   -3.2020468   -1.7263193  0.046849502   -3.2020468    1.4757275   352025 
 7363000   0.78872808   -3.2019283   -1.7262603  0.055425655   -3.2019283     1.475668   352009 
 7364000   0.78945191   -3.2032247   -1.7262905  0.051409682   -3.2032247    1.4769342   352030 
 7365000   0.78996946   -3.2033598   -1.7254279  0.051143059   -3.2033598    1.4779318   352023 
 7366000   0.79072908   -3.2028819   -1.7235584  0.052474185   -3.2028819    1.4793235   352030 
 7367000   0.78913638    -3.202784   -1.7263101  0.052730277    -3.202784    1.4764739   351999 
 7368000   0.78906161   -3.2024669   -1.7259022  0.051613993   -3.2024669    1.4765647   351944 
 7369000   0.78813105   -3.2034781   -1.7285291  0.050916498   -3.2034781    1.4749491   351914 
 7370000   0.78932644   -3.2055757   -1.7281167  0.051613261   -3.2055757    1.4774591   351849 
 7371000    0.7879343   -3.2038399   -1.7289908   0.05000949   -3.2038399    1.4748491   351850 
 7372000   0.78760928   -3.2045869   -1.7303336  0.050123118   -3.2045869    1.4742533   351847 
 7373000   0.78738336   -3.2038467   -1.7300414  0.048684733   -3.2038467    1.4738053   351853 
 7374000   0.78801555   -3.2041804   -1.7293008  0.049887688   -3.2041804    1.4748796   351879 
 7375000   0.78853801   -3.2042687    -1.728449  0.052775279   -3.2042687    1.4758197   351888 
 7376000   0.78827194   -3.2035846   -1.7282419  0.052440674   -3.2035846    1.4753427   351883 
 7377000    0.7889751   -3.2041323   -1.7272847  0.051072137   -3.2041323    1.4768476   351838 
 7378000   0.79031985   -3.2049082   -1.7254467  0.055204236   -3.2049082    1.4794615   351815 
 7379000   0.79010614   -3.2054996    -1.726434  0.052506434   -3.2054996    1.4790656   351814 
 7380000   0.78932493   -3.2042164    -1.726651  0.053053207   -3.2042164    1.4775654   351823 
 7381000   0.78953866   -3.2026876   -1.7246339  0.049224653   -3.2026876    1.4780538   351802 
 7382000   0.78798012   -3.2016058   -1.7261971  0.052924378   -3.2016058    1.4754087   351737 
 7383000   0.78968218    -3.203376   -1.7245239  0.056506714    -3.203376    1.4788521   351676 
 7384000   0.78825414    -3.201507   -1.7250857   0.06016006    -3.201507    1.4764213   351618 
 7385000   0.78774516   -3.2015807   -1.7259281  0.053636844   -3.2015807    1.4756526   351574 
 7386000   0.78844947   -3.2033383   -1.7263538  0.047155116   -3.2033383    1.4769846   351571 
 7387000   0.78801931   -3.2024821   -1.7261816  0.050157307   -3.2024821    1.4763005   351542 
 7388000    0.7870978   -3.2016978     -1.72696  0.047908299   -3.2016978    1.4747377   351503 
 7389000   0.78545514     -3.19914    -1.727346   0.05219912     -3.19914     1.471794   351471 
 7390000    0.7852373    -3.199723   -1.7283623  0.048685941    -3.199723    1.4713607   351477 
 7391000   0.78658584   -3.2016219   -1.7276296  0.048939567   -3.2016219    1.4739924   351452 
 7392000   0.78839999   -3.2024228   -1.7250351  0.047194144   -3.2024228    1.4773877   351453 
 7393000   0.78907822   -3.2019983   -1.7233312  0.048544318   -3.2019983    1.4786671   351451 
 7394000   0.78779174   -3.2000792   -1.7237221  0.051979228   -3.2000792    1.4763571   351427 
 7395000   0.78746475   -3.1997605   -1.7239532  0.052581793   -3.1997605    1.4758073   351412 
 7396000   0.78755544   -3.2010595   -1.7250192  0.050388248   -3.2010595    1.4760403   351397 
 7397000   0.78879688   -3.2040034   -1.7254934  0.046912418   -3.2040034    1.4785101   351363 
 7398000     0.786273   -3.2010498   -1.7272201  0.050294173   -3.2010498    1.4738297   351351 
 7399000     0.786581   -3.2023212    -1.727889  0.048095439   -3.2023212    1.4744322   351345 
 7400000   0.78628889   -3.2024656    -1.728388  0.051898593   -3.2024656    1.4740776   351299 
 7401000   0.78690216   -3.2030062   -1.7276907  0.050896833   -3.2030062    1.4753155   351278 
 7402000   0.78538419    -3.200732   -1.7282246  0.052238386    -3.200732    1.4725073   351269 
 7403000    0.7859033   -3.2015125   -1.7281284  0.051919361   -3.2015125    1.4733841   351292 
 7404000   0.78653815   -3.2038865   -1.7294087  0.048863204   -3.2038865    1.4744778   351315 
 7405000   0.78635689   -3.2031927   -1.7290044  0.050802183   -3.2031927    1.4741883   351303 
 7406000    0.7869373    -3.202948   -1.7276674  0.056164352    -3.202948    1.4752806   351302 
 7407000    0.7866969   -3.2012544   -1.7265713  0.053984292   -3.2012544     1.474683   351337 
 7408000   0.78781031   -3.2044194   -1.7275862  0.051378257   -3.2044194    1.4768332   351322 
 7409000   0.78807494   -3.2045539   -1.7269555  0.051693958   -3.2045539    1.4775985   351258 
 7410000    0.7883075   -3.2067314   -1.7286507  0.052914764   -3.2067314    1.4780808   351247 
 7411000   0.78743211   -3.2056594   -1.7289929   0.04889368   -3.2056594    1.4766664   351193 
 7412000   0.78673808   -3.2043834   -1.7287916  0.053036756   -3.2043834    1.4755918   351139 
 7413000   0.78791034   -3.2050283   -1.7271704  0.051292192   -3.2050283    1.4778578   351123 
 7414000   0.78703589   -3.2042999   -1.7278973  0.050933427   -3.2042999    1.4764026   351079 
 7415000   0.78781353   -3.2056328   -1.7277546  0.052108549   -3.2056328    1.4778783   351075 
 7416000   0.78595083   -3.2038455   -1.7293271  0.049139655   -3.2038455    1.4745184   351043 
 7417000   0.78636241    -3.204135   -1.7288823  0.053582318    -3.204135    1.4752527   351052 
 7418000   0.78788896   -3.2063566    -1.728122  0.053998434   -3.2063566    1.4782345   351024 
 7419000     0.786728   -3.2043814   -1.7280643  0.053508353   -3.2043814    1.4763171   350962 
 7420000   0.78907681   -3.2076507   -1.7267614  0.049764344   -3.2076507    1.4808892   350923 
 7421000   0.78546671   -3.2029233   -1.7286455  0.048368175   -3.2029233    1.4742779   350884 
 7422000   0.78476393   -3.2018757   -1.7289211  0.051356792   -3.2018757    1.4729546   350885 
 7423000   0.78509364   -3.2035758   -1.7300653   0.04698309   -3.2035758    1.4735105   350900 
 7424000   0.78473677   -3.2020268   -1.7289847  0.050127204   -3.2020268    1.4730422   350852 
 7425000   0.78515668   -3.2032497   -1.7294907  0.051585834   -3.2032497     1.473759   350869 
 7426000   0.78511884    -3.201556   -1.7279143  0.051593581    -3.201556    1.4736417   350880 
 7427000   0.78473974   -3.2017932   -1.7287496  0.045936533   -3.2017932    1.4730435   350853 
 7428000    0.7855325   -3.2032181   -1.7286654  0.050903153   -3.2032181    1.4745527   350848 
 7429000   0.78489701   -3.2020457   -1.7287322  0.052490354   -3.2020457    1.4733136   350859 
 7430000   0.78429339   -3.2022134    -1.729928  0.049893329   -3.2022134    1.4722854   350834 
 7431000   0.78601595   -3.2043045   -1.7287477  0.048686382   -3.2043045    1.4755569   350825 
 7432000   0.78445957   -3.1999591   -1.7272106   0.04850414   -3.1999591    1.4727485   350798 
 7433000   0.78591333    -3.202004   -1.7266019  0.048736799    -3.202004    1.4754021   350816 
 7434000   0.78531129   -3.2016456   -1.7273569  0.051674189   -3.2016456    1.4742887   350812 
 7435000   0.78561403   -3.2009776   -1.7260785  0.049676268   -3.2009776    1.4748991   350802 
 7436000   0.78592447    -3.200746   -1.7251253  0.049861475    -3.200746    1.4756207   350769 
 7437000   0.78489258   -3.2004326   -1.7267662  0.050710586   -3.2004326    1.4736665   350773 
 7438000    0.7854496   -3.1991269   -1.7243095  0.050230615   -3.1991269    1.4748174   350748 
 7439000   0.78665424   -3.2024549    -1.725405  0.055323045   -3.2024549    1.4770498   350755 
 7440000   0.78612919    -3.202817    -1.726652  0.054545212    -3.202817     1.476165   350731 
 7441000   0.78523611   -3.2040604   -1.7294463  0.047083312   -3.2040604    1.4746141   350701 
 7442000    0.7856036    -3.203889   -1.7284417  0.043810542    -3.203889    1.4754473   350667 
 7443000   0.78414622   -3.2002676   -1.7276289   0.04951934   -3.2002676    1.4726388   350684 
 7444000   0.78371893    -3.201612   -1.7296708  0.049730453    -3.201612    1.4719413   350659 
 7445000   0.78297537   -3.2012032   -1.7304991  0.049833283   -3.2012032    1.4707041   350621 
 7446000   0.78518353   -3.2051543   -1.7304497  0.047928392   -3.2051543    1.4747046   350656 
 7447000   0.78538316   -3.2063265   -1.7310871  0.054994448   -3.2063265    1.4752394   350618 
 7448000   0.78571023   -3.2067343   -1.7307585  0.053152023   -3.2067343    1.4759759   350589 
 7449000   0.78594584   -3.2083754   -1.7317801  0.048934332   -3.2083754    1.4765953   350547 
 7450000    0.7850953    -3.207532   -1.7324168  0.054018892    -3.207532    1.4751152   350519 
 7451000   0.78559399   -3.2092681   -1.7331064   0.05090886   -3.2092681    1.4761617   350493 
 7452000   0.78688822   -3.2104675   -1.7317431   0.05011205   -3.2104675    1.4787244   350462 
 7453000    0.7862655   -3.2104637   -1.7329222  0.055446394   -3.2104637    1.4775415   350465 
 7454000   0.78441046    -3.206867   -1.7326642  0.051766698    -3.206867    1.4742028   350430 
 7455000   0.78578749   -3.2101852   -1.7333776  0.049258524   -3.2101852    1.4768076   350426 
 7456000   0.78607103   -3.2100954   -1.7324935  0.054142315   -3.2100954    1.4776019   350364 
 7457000   0.78613053   -3.2106615   -1.7327622  0.054868103   -3.2106615    1.4778994   350320 
 7458000   0.78669205   -3.2104749   -1.7312961  0.051753268   -3.2104749    1.4791788   350267 
 7459000    0.7853872   -3.2097859   -1.7329846  0.055295954   -3.2097859    1.4768012   350249 
 7460000   0.78566553   -3.2099527   -1.7324551  0.054880233   -3.2099527    1.4774976   350208 
 7461000   0.78508929   -3.2083534     -1.73191  0.051314291   -3.2083534    1.4764434   350201 
 7462000   0.78418323   -3.2065163   -1.7315284   0.05025481   -3.2065163     1.474988   350142 
 7463000   0.78387676   -3.2061192   -1.7317161  0.053515293   -3.2061192    1.4744031   350144 
 7464000   0.78310643   -3.2048199   -1.7317984  0.046464508   -3.2048199    1.4730215   350128 
 7465000   0.78123819   -3.2030663   -1.7333533  0.052246556   -3.2030663     1.469713   350079 
 7466000   0.78201967   -3.2039654    -1.732736  0.046847283   -3.2039654    1.4712294   350068 
 7467000    0.7829676     -3.20537   -1.7323235  0.046195084     -3.20537    1.4730464   350060 
 7468000   0.78284343   -3.2053442   -1.7325229  0.049344309   -3.2053442    1.4728212   350058 
 7469000   0.78217363   -3.2049437    -1.733391  0.044736129   -3.2049437    1.4715527   350060 
 7470000    0.7827595   -3.2059689   -1.7331752  0.046138038   -3.2059689    1.4727938   350027 
 7471000   0.78197753   -3.2038387   -1.7324616   0.04882733   -3.2038387    1.4713771   350014 
 7472000   0.78312996   -3.2060695    -1.732364  0.049160705   -3.2060695    1.4737055   349976 
 7473000   0.78315092   -3.2042442   -1.7303266  0.048758221   -3.2042442    1.4739176   349935 
 7474000   0.78324549   -3.2054859   -1.7311923   0.05203578   -3.2054859    1.4742936   349888 
 7475000   0.78416367   -3.2064004   -1.7301718  0.051777098   -3.2064004    1.4762286   349839 
 7476000   0.78382061   -3.2050381   -1.7294848  0.053822864   -3.2050381    1.4755533   349846 
 7477000   0.78504494   -3.2073418   -1.7295175  0.052887236   -3.2073418    1.4778243   349854 
 7478000   0.78279518   -3.2048241   -1.7312518  0.055740372   -3.2048241    1.4735724   349858 
 7479000   0.78137407   -3.2038993   -1.7327372  0.055542895   -3.2038993    1.4711621   349795 
 7480000   0.78294317     -3.20703   -1.7329684  0.049925368     -3.20703    1.4740616   349808 
 7481000   0.78164076   -3.2053612   -1.7336801  0.049144551   -3.2053612    1.4716811   349791 
 7482000   0.78271695   -3.2085674   -1.7347506  0.049868377   -3.2085674    1.4738169   349765 
 7483000    0.7822104   -3.2054609    -1.732842  0.057048644   -3.2054609    1.4726189   349823 
 7484000   0.78276941   -3.2044186   -1.7307432  0.047007575   -3.2044186    1.4736755   349822 
 7485000   0.78483852   -3.2091511    -1.731369  0.051705579   -3.2091511    1.4777821   349772 
 7486000   0.78266283   -3.2062442   -1.7324324   0.05442693   -3.2062442    1.4738119   349742 
 7487000   0.78371064   -3.2082213   -1.7324406  0.053355282   -3.2082213    1.4757808   349743 
 7488000   0.78274577   -3.2060958   -1.7320645  0.050391126   -3.2060958    1.4740313   349727 
 7489000   0.78319551   -3.2061149   -1.7312198  0.049162108   -3.2061149    1.4748951   349723 
 7490000   0.78409099   -3.2078988   -1.7313934  0.053935814   -3.2078988    1.4765054   349741 
 7491000   0.78372726   -3.2075957   -1.7316486  0.053227049   -3.2075957    1.4759471   349711 
 7492000   0.78451254   -3.2090414   -1.7314718  0.051586605   -3.2090414    1.4775696   349677 
 7493000   0.78117151   -3.2045795   -1.7331551  0.052268804   -3.2045795    1.4714243   349642 
 7494000   0.78163129   -3.2052493   -1.7328831  0.050084395   -3.2052493    1.4723662   349624 
 7495000   0.78316005   -3.2080896    -1.732717    0.0479239   -3.2080896    1.4753725   349594 
 7496000   0.78177971   -3.2068348   -1.7341006  0.050223213   -3.2068348    1.4727342   349603 
 7497000   0.78276666   -3.2096177   -1.7348386  0.051531093   -3.2096177    1.4747791   349559 
 7498000   0.78290053   -3.2076889   -1.7325184  0.051167553   -3.2076889    1.4751705   349526 
 7499000   0.78138813   -3.2050152   -1.7326396  0.054738234   -3.2050152    1.4723756   349513 
 7500000   0.78137038    -3.203322   -1.7310599  0.046948312    -3.203322    1.4722621   349532 
 7501000   0.78110164   -3.2022108   -1.7304592  0.049040479   -3.2022108    1.4717515   349533 
 7502000   0.78153176   -3.2028495   -1.7303549  0.050397764   -3.2028495    1.4724946   349549 
 7503000   0.78229237   -3.2047436   -1.7306472  0.049699558   -3.2047436    1.4740963   349509 
 7504000   0.78266357   -3.2051578    -1.730189  0.053438828   -3.2051578    1.4749688   349468 
 7505000   0.78315778    -3.204404   -1.7285588  0.050649217    -3.204404    1.4758453   349481 
 7506000   0.78101788   -3.2026371   -1.7306812   0.05315655   -3.2026371    1.4719559   349447 
 7507000   0.78313876   -3.2067464   -1.7306751  0.051571274   -3.2067464    1.4760713   349419 
 7508000   0.78080313   -3.2050626   -1.7333135  0.051261718   -3.2050626    1.4717491   349400 
 7509000   0.77934885   -3.2039762   -1.7349767   0.04841514   -3.2039762    1.4689995   349402 
 7510000   0.77968525   -3.2040477   -1.7344646  0.043644644   -3.2040477    1.4695831   349414 
 7511000   0.77988456   -3.2039183   -1.7340942  0.050149284   -3.2039183    1.4698242   349446 
 7512000   0.78110697   -3.2052798   -1.7329538  0.044957885   -3.2052798     1.472326   349399 
 7513000   0.78192492   -3.2052971    -1.731307  0.056287417   -3.2052971    1.4739901   349370 
 7514000   0.78220321   -3.2059922   -1.7315323  0.050451056   -3.2059922    1.4744599   349383 
 7515000   0.78321776   -3.2078113    -1.731177  0.049631266   -3.2078113    1.4766343   349321 
 7516000   0.78238418   -3.2054436   -1.7303808  0.053783887   -3.2054436    1.4750628   349321 
 7517000   0.78331085    -3.206714   -1.7297731  0.055667286    -3.206714    1.4769409   349290 
 7518000   0.78289222   -3.2051237   -1.7289721  0.055891714   -3.2051237    1.4761516   349290 
 7519000   0.78216896   -3.2026557   -1.7278341  0.053211251   -3.2026557    1.4748217   349282 
 7520000   0.78215292   -3.2045823   -1.7297275  0.053870668   -3.2045823    1.4748547   349267 
 7521000   0.78297505    -3.208013   -1.7314896   0.05288747    -3.208013    1.4765234   349239 
 7522000   0.78342441   -3.2068497   -1.7295382  0.050419635   -3.2068497    1.4773115   349253 
 7523000   0.78187595   -3.2059174   -1.7314794  0.050347422   -3.2059174     1.474438   349242 
 7524000   0.78323947   -3.2069807   -1.7300095  0.055856351   -3.2069807    1.4769712   349251 
 7525000   0.78221653    -3.205686   -1.7307324  0.051055494    -3.205686    1.4749536   349272 
 7526000   0.78132533   -3.2050769   -1.7318291  0.050092086   -3.2050769    1.4732478   349278 
 7527000   0.78172688   -3.2059712   -1.7318903   0.05294974   -3.2059712    1.4740809   349260 
 7528000   0.78057593   -3.2036562   -1.7318257  0.048364437   -3.2036562    1.4718305   349279 
 7529000   0.77950293   -3.2014419   -1.7315968  0.048355216   -3.2014419    1.4698452   349270 
 7530000   0.77949512   -3.2020828   -1.7320082  0.047335975   -3.2020828    1.4700746   349212 
 7531000    0.7799054   -3.2024566   -1.7315998   0.04587884   -3.2024566    1.4708568   349210 
 7532000   0.78145447   -3.2047089    -1.730918  0.052072065   -3.2047089    1.4737909   349207 
 7533000   0.78060116   -3.2036006   -1.7313853  0.045696419   -3.2036006    1.4722153   349199 
 7534000   0.78033137   -3.2011422    -1.729149  0.049582259   -3.2011422    1.4719931   349131 
 7535000   0.77981603   -3.2009089     -1.72993  0.048644574   -3.2009089    1.4709789   349141 
 7536000   0.78010551   -3.2004393   -1.7287921  0.050798748   -3.2004393    1.4716472   349112 
 7537000   0.78127276   -3.2026569   -1.7287909  0.056475196   -3.2026569     1.473866   349108 
 7538000   0.78120748   -3.2022102   -1.7283111  0.055550487   -3.2022102    1.4738991   349071 
 7539000   0.78075463   -3.2016037   -1.7286392  0.049429773   -3.2016037    1.4729645   349090 
 7540000   0.78013028   -3.2013612   -1.7294607   0.04890733   -3.2013612    1.4719005   349063 
 7541000   0.78075031   -3.2038749   -1.7307666  0.048843247   -3.2038749    1.4731083   349054 
 7542000   0.78195843   -3.2040977   -1.7286254  0.053316568   -3.2040977    1.4754723   349034 
 7543000   0.78094992    -3.202926   -1.7291962  0.047503604    -3.202926    1.4737298   348996 
 7544000    0.7811026   -3.2044134   -1.7304588  0.050653827   -3.2044134    1.4739546   349011 
 7545000   0.78180915   -3.2057431   -1.7305271  0.048311836   -3.2057431     1.475216   349028 
 7546000   0.78134941   -3.2043696   -1.7300465  0.049715012   -3.2043696    1.4743231   349034 
 7547000   0.78126061   -3.2046703   -1.7304133  0.047660309   -3.2046703     1.474257   349010 
 7548000   0.78147607   -3.2056713   -1.7309401  0.052456741   -3.2056713    1.4747311   348994 
 7549000   0.78163861   -3.2043725   -1.7293727  0.047964824   -3.2043725    1.4749998   349003 
 7550000   0.78180305   -3.2044115   -1.7289914  0.050741252   -3.2044115    1.4754201   348977 
 7551000   0.78233583   -3.2065447   -1.7300007  0.049442254   -3.2065447     1.476544   348949 
 7552000   0.78250004   -3.2066023   -1.7296637  0.050506833   -3.2066023    1.4769386   348929 
 7553000   0.78265498   -3.2057539    -1.728489  0.051165847   -3.2057539    1.4772649   348921 
 7554000   0.78176851    -3.204031   -1.7284436   0.05207095    -3.204031    1.4755874   348922 
 7555000   0.78117585   -3.2053793   -1.7308302  0.056767772   -3.2053793    1.4745491   348903 
 7556000   0.78212706   -3.2069503   -1.7307115   0.05287972   -3.2069503    1.4762388   348928 
 7557000   0.78122056   -3.2054907    -1.730836  0.051088217   -3.2054907    1.4746546   348898 
 7558000   0.78000788   -3.2039066   -1.7312879  0.052805437   -3.2039066    1.4726188   348838 
 7559000   0.78138686   -3.2073434    -1.732265  0.051117966   -3.2073434    1.4750785   348872 
 7560000   0.78124893   -3.2068126   -1.7319185  0.053197195   -3.2068126    1.4748942   348854 
 7561000    0.7824489   -3.2080189   -1.7307916  0.053343667   -3.2080189    1.4772273   348838 
 7562000   0.78131049   -3.2067445   -1.7314423   0.05238017   -3.2067445    1.4753022   348785 
 7563000   0.78047731   -3.2038453   -1.7300403  0.048568178   -3.2038453     1.473805   348767 
 7564000   0.78015092   -3.2042632   -1.7310196  0.051093995   -3.2042632    1.4732436   348754 
 7565000     0.780721   -3.2039179   -1.7297669  0.049469444   -3.2039179    1.4741511   348794 
 7566000   0.77898515   -3.2011912    -1.730284  0.048444771   -3.2011912    1.4709072   348786 
 7567000   0.78079318   -3.2024041   -1.7279308  0.050784832   -3.2024041    1.4744733   348750 
 7568000   0.78047993   -3.2031044   -1.7291507  0.050420749   -3.2031044    1.4739536   348733 
 7569000   0.77994042   -3.2019853   -1.7289491  0.050149806   -3.2019853    1.4730362   348709 
 7570000   0.77984074   -3.2021045   -1.7290877  0.050917323   -3.2021045    1.4730169   348669 
 7571000   0.78045956   -3.2038943   -1.7295014  0.051226582   -3.2038943    1.4743929   348620 
 7572000   0.78077147   -3.2032765    -1.728197  0.050726694   -3.2032765    1.4750795   348597 
 7573000   0.78173395   -3.2040783   -1.7270872  0.052013742   -3.2040783    1.4769911   348575 
 7574000   0.78215074   -3.2055659    -1.727728  0.047877151   -3.2055659    1.4778379   348561 
 7575000   0.78135173   -3.2034166   -1.7271901  0.052699235   -3.2034166    1.4762266   348585 
 7576000   0.78057828   -3.2012051   -1.7262579  0.052415456   -3.2012051    1.4749472   348542 
 7577000   0.78093327   -3.2034725   -1.7276428  0.049089631   -3.2034725    1.4758297   348492 
 7578000   0.78030864   -3.2038515    -1.729143  0.048201453   -3.2038515    1.4747085   348478 
 7579000    0.7806183    -3.203129   -1.7278311  0.045573158    -3.203129     1.475298   348477 
 7580000   0.77926749   -3.2014822   -1.7287245  0.047880633   -3.2014822    1.4727577   348474 
 7581000   0.77947433   -3.2024184   -1.7291387  0.049327955   -3.2024184    1.4732797   348443 
 7582000    0.7798287   -3.2010664   -1.7270535  0.048985489   -3.2010664     1.474013   348428 
 7583000   0.77928034   -3.2004712   -1.7275244   0.04903087   -3.2004712    1.4729469   348435 
 7584000    0.7784702   -3.2012573   -1.7298375  0.048257565   -3.2012573    1.4714198   348434 
 7585000   0.77918589   -3.2031401   -1.7302281  0.047851315   -3.2031401    1.4729121   348401 
 7586000   0.77864791   -3.2007596   -1.7287209  0.052098275   -3.2007596    1.4720388   348367 
 7587000   0.77975624   -3.2032976   -1.7292354  0.051290514   -3.2032976    1.4740621   348384 
 7588000   0.77967826   -3.2028712   -1.7286391  0.050652275   -3.2028712    1.4742321   348309 
 7589000    0.7804142   -3.2043564    -1.728754  0.052631443   -3.2043564    1.4756024   348314 
 7590000   0.77956512   -3.2031123   -1.7291153  0.049635333   -3.2031123     1.473997   348314 
 7591000   0.77910566   -3.2022505    -1.729008  0.050929588   -3.2022505    1.4732425   348287 
 7592000   0.77900405    -3.201757    -1.728584  0.054810953    -3.201757     1.473173   348258 
 7593000   0.77986858   -3.2039166    -1.728952  0.047185224   -3.2039166    1.4749646   348221 
 7594000   0.77906904   -3.2040516   -1.7306203  0.053988362   -3.2040516    1.4734313   348226 
 7595000   0.77915826   -3.2041383   -1.7304875  0.051880267   -3.2041383    1.4736508   348214 
 7596000   0.77941934    -3.204962   -1.7307158  0.053014282    -3.204962    1.4742462   348190 
 7597000   0.77972905   -3.2058229   -1.7308172  0.054274368   -3.2058229    1.4750057   348149 
 7598000   0.77938757   -3.2052063   -1.7308254  0.049511975   -3.2052063    1.4743809   348144 
 7599000   0.77940362   -3.2060406   -1.7314811  0.051473427   -3.2060406    1.4745595   348109 
 7600000   0.77991405   -3.2058626    -1.730312  0.051712824   -3.2058626    1.4755506   348103 
 7601000   0.78048681   -3.2085715   -1.7318058  0.054493458   -3.2085715    1.4767658   348072 
 7602000   0.77906025   -3.2056298   -1.7315124  0.055125697   -3.2056298    1.4741174   348060 
 7603000   0.78094391   -3.2069382   -1.7292269  0.052089565   -3.2069382    1.4777113   348053 
 7604000   0.77946276   -3.2054438   -1.7304886  0.049343113   -3.2054438    1.4749553   348042 
 7605000   0.77964329    -3.205461     -1.73002  0.050916609    -3.205461     1.475441   348008 
 7606000   0.78036297   -3.2069647   -1.7299113  0.051741402   -3.2069647    1.4770534   347949 
 7607000   0.77896956   -3.2045438   -1.7300346  0.049241037   -3.2045438    1.4745092   347927 
 7608000   0.77852748   -3.2025854   -1.7289596  0.053143059   -3.2025854    1.4736258   347938 
 7609000   0.77995259   -3.2049472    -1.728556  0.050996595   -3.2049472    1.4763912   347922 
 7610000   0.78014042   -3.2062955   -1.7296294  0.056986507   -3.2062955    1.4766661   347941 
 7611000    0.7799991   -3.2066074    -1.730056  0.049875333   -3.2066074    1.4765514   347905 
 7612000   0.77928415    -3.205211   -1.7299197  0.049663945    -3.205211    1.4752913   347883 
 7613000   0.77929951   -3.2030964   -1.7276106  0.051064264   -3.2030964    1.4754857   347844 
 7614000   0.78042093   -3.2052957   -1.7275125   0.05151929   -3.2052957    1.4777832   347803 
 7615000   0.77961212   -3.2031935   -1.7268952  0.051167262   -3.2031935    1.4762983   347792 
 7616000   0.77959887   -3.2034013   -1.7271068  0.049367881   -3.2034013    1.4762945   347787 
 7617000   0.77967943   -3.2030172   -1.7267951  0.049684288   -3.2030172     1.476222   347840 
 7618000   0.77790063   -3.2018659   -1.7288297  0.049917432   -3.2018659    1.4730362   347797 
 7619000   0.77987689   -3.2030276   -1.7263171  0.051456935   -3.2030276    1.4767105   347813 
 7620000   0.77946876   -3.2051449   -1.7290247  0.048820915   -3.2051449    1.4761202   347770 
 7621000   0.77839648   -3.2021518   -1.7280155  0.051206426   -3.2021518    1.4741362   347759 
 7622000   0.77815038   -3.2024348   -1.7286884  0.049289034   -3.2024348    1.4737464   347741 
 7623000   0.77862618   -3.2024935    -1.727846  0.046632913   -3.2024935    1.4746476   347741 
 7624000   0.77657626   -3.1988145   -1.7279309  0.049860189   -3.1988145    1.4708836   347713 
 7625000   0.77708716   -3.2002518   -1.7283455  0.050805977   -3.2002518    1.4719063   347700 
 7626000   0.77595983   -3.1991946   -1.7294531  0.047062577   -3.1991946    1.4697414   347707 
 7627000   0.77825126   -3.2030843   -1.7290833  0.053084321   -3.2030843    1.4740011   347726 
 7628000   0.77883544   -3.2046804   -1.7294838  0.048386603   -3.2046804    1.4751966   347705 
 7629000   0.77717648   -3.2034975    -1.731295  0.052761991   -3.2034975    1.4722025   347670 
 7630000   0.77841744   -3.2041905   -1.7296244  0.051725182   -3.2041905     1.474566   347667 
 7631000   0.77787753   -3.2037333   -1.7301603   0.05401315   -3.2037333    1.4735729   347660 
 7632000   0.77872908   -3.2061473   -1.7309315  0.050302686   -3.2061473    1.4752158   347653 
 7633000    0.7781097   -3.2043541   -1.7301082  0.053545142   -3.2043541     1.474246   347605 
 7634000   0.77853264   -3.2053428   -1.7302064  0.054379994   -3.2053428    1.4751364   347584 
 7635000   0.77865121   -3.2079451   -1.7325246  0.052876977   -3.2079451    1.4754205   347570 
 7636000   0.77811236   -3.2071463   -1.7327977  0.052000632   -3.2071463    1.4743485   347582 
 7637000   0.77940328   -3.2093704   -1.7323931  0.050468279   -3.2093704    1.4769773   347539 
 7638000   0.77748213   -3.2045957   -1.7311319  0.052487681   -3.2045957    1.4734639   347509 
 7639000   0.77691902   -3.2044316   -1.7320222  0.053851702   -3.2044316    1.4724094   347506 
 7640000   0.77801546   -3.2075922   -1.7329987  0.051636681   -3.2075922    1.4745934   347481 
 7641000    0.7784612   -3.2077295   -1.7321724  0.053604535   -3.2077295    1.4755572   347453 
 7642000   0.77883623   -3.2089551   -1.7324618  0.052506851   -3.2089551    1.4764932   347400 
 7643000   0.78015975   -3.2101604   -1.7311836  0.052091277   -3.2101604    1.4789768   347406 
 7644000   0.77952471   -3.2098877   -1.7319786  0.054070062   -3.2098877     1.477909   347374 
 7645000   0.77920889   -3.2082991   -1.7310271  0.051078193   -3.2082991     1.477272   347383 
 7646000   0.77844042   -3.2061958    -1.730198  0.054511535   -3.2061958    1.4759978   347340 
 7647000   0.77876597   -3.2076483    -1.730944  0.051935766   -3.2076483    1.4767043   347319 
 7648000   0.77868251   -3.2065325   -1.7298588   0.05310891   -3.2065325    1.4766737   347289 
 7649000   0.77808485   -3.2055553   -1.7298749  0.053723463   -3.2055553    1.4756805   347256 
 7650000   0.77790471   -3.2059238   -1.7304108  0.053453053   -3.2059238    1.4755131   347215 
 7651000   0.77787241   -3.2047194   -1.7291104  0.053703164   -3.2047194     1.475609   347178 
 7652000   0.77771825   -3.2024541    -1.727044  0.052761268   -3.2024541    1.4754101   347156 
 7653000   0.77877507   -3.2045956   -1.7271636  0.049984603   -3.2045956     1.477432   347152 
 7654000   0.77606726   -3.2000081   -1.7277937  0.050527367   -3.2000081    1.4722144   347171 
 7655000   0.77725948   -3.2021906   -1.7277189  0.046314254   -3.2021906    1.4744718   347172 
 7656000   0.77671314    -3.200434   -1.7270368  0.050473427    -3.200434    1.4733972   347181 
 7657000   0.77578319   -3.1990112   -1.7271323  0.050577259   -3.1990112     1.471879   347123 
 7658000   0.77515416   -3.1976135   -1.7268051  0.045427232   -3.1976135    1.4708084   347094 
 7659000    0.7750754   -3.1974344   -1.7267203  0.043648689   -3.1974344    1.4707141   347081 
 7660000   0.77612292   -3.1980258   -1.7253792  0.046971724   -3.1980258    1.4726466   347094 
 7661000   0.77575584    -3.198334   -1.7260998  0.047123289    -3.198334    1.4722343   347027 
 7662000   0.77677743   -3.1994956   -1.7252164  0.050384721   -3.1994956    1.4742793   347002 
 7663000   0.77701697   -3.1991257   -1.7243323  0.050982075   -3.1991257    1.4747934   346988 
 7664000   0.77664489   -3.1980595   -1.7239299  0.050827354   -3.1980595    1.4741297   346978 
 7665000   0.77612977    -3.197745   -1.7246058  0.051056886    -3.197745    1.4731392   346981 
 7666000   0.77577387   -3.1975206   -1.7252182  0.051061506   -3.1975206    1.4723024   347019 
 7667000   0.77650615   -3.1987915   -1.7250951  0.046932725   -3.1987915    1.4736964   347018 
 7668000   0.77667568   -3.1999801   -1.7259194  0.049624953   -3.1999801    1.4740606   347008 
 7669000   0.77799173   -3.2028543   -1.7261555   0.04534916   -3.2028543    1.4766988   346975 
 7670000   0.77725739    -3.201435   -1.7259812  0.048991714    -3.201435    1.4754538   346940 
 7671000   0.77766248    -3.203531   -1.7270359    0.0519983    -3.203531    1.4764952   346876 
 7672000   0.77919258   -3.2065937   -1.7269546  0.051461866   -3.2065937    1.4796391   346820 
 7673000   0.77916715   -3.2058928   -1.7261697  0.051064405   -3.2058928    1.4797231   346789 
 7674000   0.77727191   -3.2036547   -1.7275692  0.053690451   -3.2036547    1.4760855   346798 
 7675000   0.77786966   -3.2048882   -1.7276079  0.051425733   -3.2048882    1.4772803   346784 
 7676000   0.77657819   -3.2044374   -1.7292396  0.054016464   -3.2044374    1.4751977   346697 
 7677000   0.77664345   -3.2038238   -1.7283617  0.052286939   -3.2038238    1.4754621   346664 
 7678000   0.77483461   -3.2006935    -1.728706  0.052849619   -3.2006935    1.4719875   346673 
 7679000   0.77633313   -3.2041566   -1.7292032   0.04880757   -3.2041566    1.4749535   346645 
 7680000   0.77638938    -3.204537   -1.7295405  0.050094322    -3.204537    1.4749965   346660 
 7681000   0.77569919   -3.2022407   -1.7282875  0.054972604   -3.2022407    1.4739531   346597 
 7682000    0.7751999   -3.2020036   -1.7287399  0.050292185   -3.2020036    1.4732637   346536 
 7683000   0.77607933    -3.205064   -1.7301417  0.048915417    -3.205064    1.4749223   346539 
 7684000   0.77474493   -3.2007064   -1.7281842  0.049106678   -3.2007064    1.4725222   346507 
 7685000   0.77496844   -3.2018075   -1.7287329  0.051132339   -3.2018075    1.4730746   346477 
 7686000   0.77568255    -3.203965   -1.7294011  0.045199123    -3.203965    1.4745639   346446 
 7687000   0.77552237   -3.2030665   -1.7287134  0.047940904   -3.2030665     1.474353   346424 
 7688000   0.77463658   -3.2001341   -1.7277329   0.04814623   -3.2001341    1.4724013   346487 
 7689000   0.77698328   -3.2022467   -1.7253764  0.050291064   -3.2022467    1.4768703   346485 
 7690000   0.77662851   -3.2004273   -1.7242186  0.051337128   -3.2004273    1.4762088   346482 
 7691000   0.77634882   -3.2026458   -1.7269985  0.049985424   -3.2026458    1.4756473   346489 
 7692000   0.77567809    -3.200281   -1.7259383  0.052669839    -3.200281    1.4743427   346496 
 7693000   0.77628362   -3.2001937   -1.7248364  0.053230829   -3.2001937    1.4753573   346528 
 7694000   0.77616573   -3.1975853   -1.7222179  0.054621093   -3.1975853    1.4753675   346473 
 7695000   0.77555388   -3.1974187   -1.7232398  0.047545693   -3.1974187    1.4741789   346479 
 7696000   0.77452776   -3.1956896   -1.7235121  0.046078109   -3.1956896    1.4721774   346491 
 7697000   0.77501319   -3.1966771    -1.723577  0.051879804   -3.1966771    1.4731001   346491 
 7698000    0.7752114   -3.1968562   -1.7233283  0.050150421   -3.1968562    1.4735279   346479 
 7699000   0.77584912   -3.1960117   -1.7214163  0.045700174   -3.1960117    1.4745954   346513 
 7700000   0.77725225   -3.2003636   -1.7231995   0.04817378   -3.2003636    1.4771642   346536 
 7701000   0.77720772   -3.1997227   -1.7226773  0.055123879   -3.1997227    1.4770454   346544 
 7702000   0.77549391   -3.1975605   -1.7236572  0.051082932   -3.1975605    1.4739032   346517 
 7703000   0.77597132   -3.1980711   -1.7232392  0.051920145   -3.1980711    1.4748319   346512 
 7704000   0.77529479   -3.1982453   -1.7245632  0.050609274   -3.1982453    1.4736822   346480 
 7705000   0.77556027   -3.1973192   -1.7233196  0.048955487   -3.1973192    1.4739996   346524 
 7706000   0.77496291   -3.1977047   -1.7246449  0.051078226   -3.1977047    1.4730598   346478 
 7707000   0.77585323    -3.199906   -1.7249367  0.050358225    -3.199906    1.4749693   346427 
 7708000   0.77498686   -3.1980336   -1.7245838  0.052873042   -3.1980336    1.4734498   346397 
 7709000   0.77556371   -3.1995338   -1.7247829  0.049137768   -3.1995338    1.4747509   346349 
 7710000   0.77612418   -3.1997313   -1.7240382  0.047803734   -3.1997313    1.4756931   346378 
 7711000   0.77438566   -3.1978089   -1.7250557  0.050722055   -3.1978089    1.4727532   346292 
 7712000   0.77510083   -3.1998035   -1.7255156  0.047564063   -3.1998035    1.4742879   346251 
 7713000   0.77521718   -3.1991052   -1.7244214  0.054918238   -3.1991052    1.4746838   346210 
 7714000   0.77563887   -3.1986883   -1.7232066  0.055326769   -3.1986883    1.4754817   346211 
 7715000   0.77701074   -3.2023566   -1.7242524  0.050315499   -3.2023566    1.4781042   346208 
 7716000   0.77670593   -3.2018884   -1.7241634  0.055144869   -3.2018884     1.477725   346161 
 7717000   0.77422091   -3.1984478    -1.725489  0.050552376   -3.1984478    1.4729588   346170 
 7718000   0.77560104    -3.200584   -1.7249228  0.050723036    -3.200584    1.4756612   346152 
 7719000   0.77341207   -3.1975687   -1.7258724  0.054558743   -3.1975687    1.4716963   346105 
 7720000   0.77433042   -3.1991109   -1.7256331  0.047363739   -3.1991109    1.4734779   346097 
 7721000   0.77395187   -3.1987653   -1.7259482  0.051574211   -3.1987653    1.4728171   346083 
 7722000   0.77557096   -3.1994287   -1.7234537   0.05197611   -3.1994287     1.475975   346065 
 7723000   0.77575964   -3.1995082   -1.7231102  0.049837202   -3.1995082     1.476398   346050 
 7724000    0.7751902   -3.1984383    -1.722979  0.052773908   -3.1984383    1.4754593   346016 
 7725000   0.77597653   -3.1994305   -1.7224276  0.050581085   -3.1994305    1.4770029   346005 
 7726000   0.77604579   -3.1987149   -1.7216144  0.047105681   -3.1987149    1.4771006   346013 
 7727000   0.77531084   -3.1969011   -1.7210245  0.047945281   -3.1969011    1.4758766   345972 
 7728000   0.77500043   -3.1969833   -1.7216081   0.04887143   -3.1969833    1.4753752   345951 
 7729000   0.77417618   -3.1947576   -1.7209729  0.048503558   -3.1947576    1.4737848   345956 
 7730000   0.77394479   -3.1964683    -1.722992  0.049814828   -3.1964683    1.4734763   345925 
 7731000   0.77241036   -3.1924502   -1.7219462  0.047027858   -3.1924502     1.470504   345937 
 7732000   0.77405076   -3.1946734   -1.7209144  0.050625379   -3.1946734     1.473759   345906 
 7733000   0.77402184    -3.193563   -1.7198505  0.048560665    -3.193563    1.4737125   345904 
 7734000    0.7746322   -3.1952788   -1.7203786  0.046270885   -3.1952788    1.4749002   345898 
 7735000    0.7744844    -3.194769   -1.7198646  0.050071414    -3.194769    1.4749044   345831 
 7736000   0.77441893   -3.1943275   -1.7194923  0.054189487   -3.1943275    1.4748352   345818 
 7737000   0.77469541   -3.1936396   -1.7181754  0.056305542   -3.1936396    1.4754641   345794 
 7738000   0.77446161   -3.1949244   -1.7198159  0.052543382   -3.1949244    1.4751084   345773 
 7739000   0.77404014    -3.195617   -1.7213199  0.048613923    -3.195617    1.4742971   345775 
 7740000   0.77450061   -3.1956657    -1.720419  0.052183801   -3.1956657    1.4752467   345758 
 7741000   0.77415327   -3.1968499   -1.7222989  0.049181113   -3.1968499     1.474551   345766 
 7742000   0.77481902   -3.1983253   -1.7225531  0.049621281   -3.1983253    1.4757721   345777 
 7743000   0.77433552    -3.194878     -1.72024  0.051940486    -3.194878     1.474638   345827 
 7744000   0.77530853   -3.1959294   -1.7194512  0.050818016   -3.1959294    1.4764782   345830 
 7745000   0.77464752   -3.1961254   -1.7206543  0.050756952   -3.1961254    1.4754711   345771 
 7746000    0.7753865   -3.1976153   -1.7205957  0.056270427   -3.1976153    1.4770196   345738 
 7747000   0.77453204   -3.1985414   -1.7230812  0.050869418   -3.1985414    1.4754602   345722 
 7748000   0.77456465   -3.1980639    -1.722469  0.048594091   -3.1980639    1.4755949   345705 
 7749000   0.77505612   -3.1978026   -1.7213013   0.04875897   -3.1978026    1.4765013   345712 
 7750000   0.77432518   -3.1962497   -1.7210768  0.049717238   -3.1962497    1.4751728   345697 
 7751000   0.77530594    -3.199533   -1.7224191  0.052944843    -3.199533    1.4771139   345680 
 7752000   0.77401456   -3.1973885   -1.7227051  0.050628026   -3.1973885    1.4746834   345673 
 7753000    0.7735535   -3.1957187   -1.7218113   0.05215668   -3.1957187    1.4739073   345649 
 7754000   0.77322263   -3.1959205   -1.7228567  0.048200764   -3.1959205    1.4730638   345699 
 7755000   0.77419576   -3.1974202   -1.7225793   0.05026032   -3.1974202    1.4748409   345717 
 7756000   0.77288273   -3.1962711   -1.7239102  0.049854114   -3.1962711    1.4723609   345712 
 7757000   0.77471704   -3.1974681    -1.721711  0.048684858   -3.1974681    1.4757571   345735 
 7758000    0.7738805   -3.1956307   -1.7213519  0.051651087   -3.1956307    1.4742788   345708 
 7759000   0.77463222   -3.1972954   -1.7216273  0.051699877   -3.1972954    1.4756681   345718 
 7760000   0.77520887   -3.1986085   -1.7217607  0.049626358   -3.1986085    1.4768478   345699 
 7761000   0.77444621   -3.1977556   -1.7222199  0.052214053   -3.1977556    1.4755357   345666 
 7762000   0.77496985   -3.1979562   -1.7214868  0.052809132   -3.1979562    1.4764693   345681 
 7763000    0.7743089   -3.1959952   -1.7207979  0.050374221   -3.1959952    1.4751973   345684 
 7764000   0.77594375   -3.1994293   -1.7211686  0.054701389   -3.1994293    1.4782606   345696 
 7765000   0.77389909   -3.1961069   -1.7216307  0.051092712   -3.1961069    1.4744762   345670 
 7766000   0.77340496   -3.1921398   -1.7188479   0.05439354   -3.1921398    1.4732919   345727 
 7767000   0.77537124    -3.195996   -1.7189371   0.04822469    -3.195996    1.4770589   345722 
 7768000   0.77389154   -3.1945934   -1.7202723  0.049409458   -3.1945934    1.4743211   345703 
 7769000   0.77403862   -3.1936687   -1.7189821  0.050506736   -3.1936687    1.4746866   345683 
 7770000   0.77400671   -3.1944247    -1.719577  0.052465444   -3.1944247    1.4748477   345631 
 7771000   0.77386309   -3.1931052   -1.7184799  0.051404081   -3.1931052    1.4746252   345619 
 7772000   0.77398828   -3.1951703   -1.7202938  0.050816436   -3.1951703    1.4748766   345616 
 7773000    0.7737126   -3.1954431   -1.7211046  0.054399198   -3.1954431    1.4743385   345619 
 7774000   0.77356481   -3.1945278   -1.7203515  0.045331868   -3.1945278    1.4741763   345591 
 7775000   0.77321731   -3.1949093    -1.721165  0.046812039   -3.1949093    1.4737443   345537 
 7776000   0.77310735     -3.19606   -1.7224912  0.046390463     -3.19606    1.4735688   345529 
 7777000   0.77518401   -3.1987607   -1.7212678  0.049760456   -3.1987607    1.4774928   345537 
 7778000   0.77371405    -3.196666   -1.7218896  0.050619758    -3.196666    1.4747764   345517 
 7779000   0.77377627   -3.1972885   -1.7223422  0.047380062   -3.1972885    1.4749463   345505 
 7780000   0.77411905   -3.1961232   -1.7206346  0.050290036   -3.1961232    1.4754886   345531 
 7781000   0.77436935    -3.196003   -1.7199091  0.052822254    -3.196003    1.4760939   345501 
 7782000   0.77382222   -3.1939002   -1.7188749  0.052289087   -3.1939002    1.4750253   345507 
 7783000   0.77501397   -3.1967183   -1.7194342   0.05116697   -3.1967183    1.4772842   345510 
 7784000   0.77400445   -3.1953602   -1.7199362   0.04994018   -3.1953602    1.4754239   345495 
 7785000   0.77459678   -3.1969429   -1.7204283   0.04730143   -3.1969429    1.4765146   345504 
 7786000   0.77255072   -3.1944403   -1.7217705   0.04916243   -3.1944403    1.4726698   345491 
 7787000    0.7726658   -3.1937679   -1.7210109  0.048772438   -3.1937679    1.4727571   345522 
 7788000   0.77430575   -3.1977327   -1.7217899  0.049172282   -3.1977327    1.4759427   345508 
 7789000   0.77375922   -3.1969923   -1.7220315  0.046916971   -3.1969923    1.4749607   345494 
 7790000   0.77375172   -3.1964215   -1.7213854  0.051123513   -3.1964215    1.4750361   345473 
 7791000   0.77352634   -3.1955468   -1.7207482  0.049494786   -3.1955468    1.4747986   345428 
 7792000   0.77281918   -3.1935708   -1.7203167  0.053875807   -3.1935708    1.4732541   345474 
 7793000   0.77298352   -3.1944986   -1.7207734  0.051503913   -3.1944986    1.4737252   345437 
 7794000   0.77366104   -3.1939168   -1.7188615  0.050651927   -3.1939168    1.4750554   345428 
 7795000   0.77422727    -3.196085   -1.7198817   0.05184082    -3.196085    1.4762033   345412 
 7796000   0.77380614    -3.196503   -1.7211198  0.052466008    -3.196503    1.4753833   345416 
 7797000   0.77218022   -3.1933278   -1.7209509  0.050394224   -3.1933278     1.472377   345394 
 7798000   0.77358414   -3.1965596   -1.7213989   0.05158304   -3.1965596    1.4751607   345369 
 7799000   0.77253315   -3.1945544   -1.7212997  0.055040897   -3.1945544    1.4732547   345346 
 7800000   0.77480383   -3.1964508   -1.7187888  0.049681654   -3.1964508     1.477662   345328 
 7801000   0.77411486   -3.1953342   -1.7189861  0.051962944   -3.1953342     1.476348   345328 
 7802000   0.77408991   -3.1951938   -1.7189233  0.051960405   -3.1951938    1.4762705   345335 
 7803000   0.77324835   -3.1935635   -1.7185862  0.053734677   -3.1935635    1.4749774   345262 
 7804000    0.7735561   -3.1953855   -1.7195518  0.051082122   -3.1953855    1.4758337   345199 
 7805000   0.77438323   -3.1964912   -1.7189254  0.052707213   -3.1964912    1.4775658   345163 
 7806000   0.77386652   -3.1966903   -1.7201104  0.050099854   -3.1966903    1.4765799   345163 
 7807000   0.77287669   -3.1968793   -1.7220897  0.052855245   -3.1968793    1.4747895   345140 
 7808000   0.77385158   -3.1980736   -1.7213297  0.047686935   -3.1980736    1.4767439   345118 
 7809000   0.77370517   -3.1985233   -1.7220759  0.050611012   -3.1985233    1.4764474   345122 
 7810000   0.77303807   -3.1947725   -1.7196323  0.053830125   -3.1947725    1.4751402   345130 
 7811000   0.77407292   -3.1965682    -1.719603  0.053385381   -3.1965682    1.4769652   345165 
 7812000   0.77302411   -3.1940963   -1.7191707  0.048046551   -3.1940963    1.4749255   345174 
 7813000   0.77450758   -3.1941551    -1.716489  0.051640227   -3.1941551    1.4776661   345195 
 7814000   0.77347038   -3.1937091   -1.7178295  0.052470091   -3.1937091    1.4758796   345150 
 7815000   0.77418679   -3.1948927   -1.7177573   0.04966516   -3.1948927    1.4771354   345176 
 7816000    0.7746013    -3.195904   -1.7180078  0.050189981    -3.195904    1.4778963   345183 
 7817000   0.77252207   -3.1932849    -1.719155  0.049465193   -3.1932849    1.4741299   345136 
 7818000   0.77188302   -3.1914484   -1.7184739  0.049212543   -3.1914484    1.4729745   345121 
 7819000   0.77159252   -3.1916869     -1.71919  0.043397969   -3.1916869     1.472497   345103 
 7820000   0.77235261   -3.1895984   -1.7157192  0.050952628   -3.1895984    1.4738792   345119 
 7821000   0.77322305    -3.189741   -1.7140126  0.049137892    -3.189741    1.4757284   345075 
 7822000   0.77318013   -3.1894139   -1.7136734  0.049818892   -3.1894139    1.4757405   345053 
 7823000   0.77174975   -3.1881494   -1.7150151  0.052741015   -3.1881494    1.4731342   345024 
 7824000   0.77346444   -3.1913115     -1.71487  0.049387092   -3.1913115    1.4764415   345016 
 7825000   0.77180309   -3.1895322    -1.716121  0.054835646   -3.1895322    1.4734111   344983 
 7826000   0.77019889   -3.1877413   -1.7172648  0.049517525   -3.1877413    1.4704765   344953 
 7827000   0.77012804   -3.1878984   -1.7174591  0.051265157   -3.1878984    1.4704393   344930 
 7828000   0.77159624   -3.1886201   -1.7154586  0.044552188   -3.1886201    1.4731614   344949 
 7829000   0.77129489   -3.1879705   -1.7153716  0.050548214   -3.1879705    1.4725989   344946 
 7830000   0.77227585   -3.1884296   -1.7139322  0.049304842   -3.1884296    1.4744974   344940 
 7831000    0.7732718   -3.1897271   -1.7131654  0.053843778   -3.1897271    1.4765617   344902 
 7832000   0.77416228   -3.1905173   -1.7120109  0.054946781   -3.1905173    1.4785064   344845 
 7833000   0.77207243   -3.1862509   -1.7116074  0.056762697   -3.1862509    1.4746434   344815 
 7834000   0.77267416    -3.189038   -1.7131725  0.052594741    -3.189038    1.4758655   344798 
 7835000   0.77265624   -3.1900961   -1.7143547  0.051036439   -3.1900961    1.4757414   344819 
 7836000   0.77215597   -3.1894769   -1.7146396  0.049650213   -3.1894769    1.4748372   344807 
 7837000   0.77180211   -3.1901634   -1.7160192  0.049161638   -3.1901634    1.4741442   344811 
 7838000   0.77240574   -3.1891078   -1.7137251  0.055450582   -3.1891078    1.4753828   344791 
 7839000   0.77165911    -3.189811   -1.7157775  0.051887808    -3.189811    1.4740336   344773 
 7840000   0.77250172   -3.1900609   -1.7143578  0.052585267   -3.1900609    1.4757031   344759 
 7841000   0.77253674   -3.1917911   -1.7157343  0.050080683   -3.1917911    1.4760568   344692 
 7842000   0.77277566   -3.1912327   -1.7145866   0.04876359   -3.1912327    1.4766461   344661 
 7843000   0.77239427   -3.1914614   -1.7154841  0.051645272   -3.1914614    1.4759773   344647 
 7844000   0.77329754   -3.1932804   -1.7155385  0.047541652   -3.1932804    1.4777419   344638 
 7845000   0.77129978   -3.1900424    -1.716054  0.058112338   -3.1900424    1.4739885   344623 
 7846000   0.77191249    -3.190446   -1.7151368  0.053285896    -3.190446    1.4753092   344588 
 7847000   0.77366207   -3.1938342   -1.7151726  0.052976706   -3.1938342    1.4786616   344586 
 7848000   0.77242102   -3.1921203   -1.7157492  0.053390133   -3.1921203    1.4763711   344567 
 7849000   0.77174397   -3.1928046   -1.7176548  0.051565082   -3.1928046    1.4751498   344550 
 7850000   0.77097492   -3.1928051   -1.7189884  0.051605736   -3.1928051    1.4738167   344518 
 7851000   0.77089895   -3.1931379    -1.719552  0.050540149   -3.1931379    1.4735859   344538 
 7852000   0.77248915   -3.1944957    -1.717733  0.050886534   -3.1944957    1.4767628   344506 
 7853000   0.77236677   -3.1943054   -1.7178752  0.047411766   -3.1943054    1.4764302   344529 
 7854000   0.77344815   -3.1940104   -1.7153285  0.053201927   -3.1940104    1.4786819   344486 
 7855000   0.77234835   -3.1921863   -1.7155127  0.057175105   -3.1921863    1.4766736   344464 
 7856000   0.77321375   -3.1947359   -1.7163477  0.056120067   -3.1947359    1.4783883   344450 
 7857000   0.77186833   -3.1941784   -1.7181911  0.054681861   -3.1941784    1.4759872   344410 
 7858000   0.77252748   -3.1943216   -1.7170138  0.057007599   -3.1943216    1.4773077   344396 
 7859000   0.77285332   -3.1950776   -1.7171596   0.05654306   -3.1950776     1.477918   344399 
 7860000   0.77225585    -3.195605   -1.7188167  0.050593567    -3.195605    1.4767883   344396 
 7861000   0.77142758   -3.1957645    -1.720303  0.052923851   -3.1957645    1.4754614   344336 
 7862000   0.77123431   -3.1946752   -1.7194935  0.051815844   -3.1946752    1.4751818   344315 
 7863000   0.77019784   -3.1946276    -1.721454  0.050850547   -3.1946276    1.4731736   344321 
 7864000   0.77031234   -3.1930234    -1.719648   0.04918481   -3.1930234    1.4733754   344325 
 7865000   0.77030097   -3.1923449   -1.7189912  0.051609928   -3.1923449    1.4733537   344325 
 7866000   0.77107849   -3.1946584   -1.7193676  0.056609593   -3.1946584    1.4752907   344220 
 7867000    0.7704324   -3.1932918   -1.7193228  0.051961519   -3.1932918     1.473969   344240 
 7868000   0.77160831   -3.1942764   -1.7181606  0.050449076   -3.1942764    1.4761158   344264 
 7869000   0.77257903   -3.1939793   -1.7158133  0.054617729   -3.1939793     1.478166   344219 
 7870000   0.77138621   -3.1936218   -1.7176308  0.049734153   -3.1936218     1.475991   344194 
 7871000   0.77228568    -3.195409   -1.7175381  0.046236626    -3.195409    1.4778709   344157 
 7872000   0.77216728   -3.1968457   -1.7192915  0.046071552   -3.1968457    1.4775542   344178 
 7873000   0.77070134   -3.1933126   -1.7185035  0.050796682   -3.1933126    1.4748091   344164 
 7874000   0.77015483   -3.1916422   -1.7179175  0.050821857   -3.1916422    1.4737247   344173 
 7875000   0.77056248   -3.1938296   -1.7191662  0.047520105   -3.1938296    1.4746633   344136 
 7876000   0.76969683   -3.1919348   -1.7190179  0.048890565   -3.1919348    1.4729168   344157 
 7877000   0.77122456   -3.1942717   -1.7182641  0.050380103   -3.1942717    1.4760076   344118 
 7878000   0.77055421   -3.1932369   -1.7184823  0.053873276   -3.1932369    1.4747546   344111 
 7879000   0.77114675   -3.1935852   -1.7176707  0.054421078   -3.1935852    1.4759144   344105 
 7880000   0.77140987   -3.1954548   -1.7189853  0.058267416   -3.1954548    1.4764695   344093 
 7881000   0.77192317   -3.1948805   -1.7172525  0.053379595   -3.1948805     1.477628   344052 
 7882000   0.77091726   -3.1926081   -1.7168284  0.057788107   -3.1926081    1.4757797   344034 
 7883000   0.77131158   -3.1944633   -1.7178386  0.056373095   -3.1944633    1.4766247   344013 
 7884000    0.7700012   -3.1919458   -1.7178425  0.056252954   -3.1919458    1.4741032   344016 
 7885000   0.77074468   -3.1953807    -1.719764  0.048461157   -3.1953807    1.4756166   343995 
 7886000   0.76990776   -3.1935082   -1.7192539  0.049771809   -3.1935082    1.4742543   343939 
 7887000   0.77053095   -3.1926392   -1.7170157  0.049555095   -3.1926392    1.4756235   343898 
 7888000   0.77134685   -3.1942203   -1.7171503   0.05416248   -3.1942203    1.4770701   343925 
 7889000   0.77038533   -3.1932398   -1.7178823  0.051972298   -3.1932398    1.4753575   343895 
 7890000   0.77174047   -3.1931201   -1.7150986  0.054535718   -3.1931201    1.4780215   343879 
 7891000   0.77130847   -3.1933131    -1.716119  0.049384023   -3.1933131    1.4771941   343879 
 7892000   0.77142167   -3.1930925   -1.7157546  0.052545802   -3.1930925    1.4773379   343896 
 7893000   0.77018499   -3.1909205   -1.7157879  0.049744262   -3.1909205    1.4751326   343858 
 7894000   0.77106308   -3.1916746   -1.7148086  0.050747614   -3.1916746    1.4768659   343846 
 7895000   0.76973906   -3.1917196   -1.7170937   0.04911049   -3.1917196    1.4746258   343777 
 7896000   0.76877655   -3.1905799   -1.7178151  0.051026939   -3.1905799    1.4727648   343781 
 7897000   0.76946353   -3.1916041   -1.7176047  0.050098482   -3.1916041    1.4739994   343800 
 7898000   0.77104687   -3.1936171   -1.7165631  0.052398402   -3.1936171    1.4770539   343795 
 7899000   0.76978309   -3.1909668   -1.7160807  0.055981732   -3.1909668    1.4748861   343736 
 7900000   0.76901295   -3.1908958    -1.717511  0.050022983   -3.1908958    1.4733848   343742 
 7901000    0.7700043   -3.1923294   -1.7168693  0.056375396   -3.1923294    1.4754602   343701 
 7902000   0.77012946   -3.1925719   -1.7168934  0.052583045   -3.1925719    1.4756785   343706 
 7903000   0.77070906   -3.1954313   -1.7184101  0.048631739   -3.1954313    1.4770212   343652 
 7904000   0.76948398    -3.196225   -1.7213756  0.051898858    -3.196225    1.4748493   343611 
 7905000   0.76880177   -3.1936306    -1.720136  0.054230018   -3.1936306    1.4734946   343622 
 7906000   0.77118682   -3.1971949   -1.7191162  0.049679496   -3.1971949    1.4780787   343619 
 7907000   0.77279786   -3.1996598   -1.7185494  0.050646765   -3.1996598    1.4811104   343632 
 7908000   0.77149049   -3.1995532   -1.7206859  0.058724471   -3.1995532    1.4788673   343571 
 7909000   0.77157884    -3.199161   -1.7199779  0.052003662    -3.199161     1.479183   343537 
 7910000   0.77130661   -3.1989377   -1.7201732  0.052757559   -3.1989377    1.4787645   343513 
 7911000   0.77122559    -3.197754    -1.719218    0.0536309    -3.197754     1.478536   343530 
 7912000   0.77170783   -3.1990603   -1.7195825  0.053938559   -3.1990603    1.4794777   343526 
 7913000   0.77114024   -3.1976584   -1.7193032  0.053492624   -3.1976584    1.4783551   343534 
 7914000   0.77245848   -3.1990542   -1.7182064  0.057444564   -3.1990542    1.4808479   343542 
 7915000   0.77205128   -3.1965969    -1.716534  0.054977443   -3.1965969    1.4800629   343543 
 7916000   0.76962747   -3.1935846   -1.7180995  0.056520046   -3.1935846    1.4754851   343527 
 7917000   0.77105413   -3.1970891   -1.7187785  0.055739385   -3.1970891    1.4783105   343506 
 7918000    0.7700658   -3.1942917    -1.718005  0.049947905   -3.1942917    1.4762867   343536 
 7919000   0.77055679   -3.1942091   -1.7172476  0.052607593   -3.1942091    1.4769614   343598 
 7920000   0.76956166   -3.1908336   -1.7155992  0.052348403   -3.1908336    1.4752344   343556 
 7921000   0.77120932   -3.1923155   -1.7140517  0.052556525   -3.1923155    1.4782638   343586 
 7922000    0.7703104   -3.1903682   -1.7138962  0.051526041   -3.1903682     1.476472   343602 
 7923000   0.77065256   -3.1921682     -1.71492  0.048937162   -3.1921682    1.4772482   343574 
 7924000   0.77174074   -3.1926207   -1.7131445  0.053856865   -3.1926207    1.4794762   343541 
 7925000   0.77004703   -3.1906431   -1.7142893  0.053223282   -3.1906431    1.4763539   343512 
 7926000   0.77133651   -3.1922098   -1.7133837  0.052826556   -3.1922098    1.4788261   343512 
 7927000   0.76996015   -3.1887315   -1.7125958  0.048370924   -3.1887315    1.4761357   343524 
 7928000   0.76984239   -3.1874862    -1.711486  0.053725254   -3.1874862    1.4760002   343503 
 7929000   0.77089932    -3.189907   -1.7116954  0.049273928    -3.189907    1.4782117   343460 
 7930000   0.76988088   -3.1895899    -1.713503  0.048807638   -3.1895899    1.4760869   343500 
 7931000    0.7707047   -3.1913852   -1.7134219  0.048925834   -3.1913852    1.4779633   343431 
 7932000   0.76801154   -3.1874088   -1.7144214  0.048225294   -3.1874088    1.4729874   343387 
 7933000   0.76838175   -3.1868925   -1.7131994  0.047394407   -3.1868925    1.4736931   343388 
 7934000   0.76985454   -3.1894027   -1.7128376  0.047979144   -3.1894027    1.4765651   343377 
 7935000   0.76946766   -3.1884462   -1.7125285   0.04453283   -3.1884462    1.4759176   343355 
 7936000   0.76969571   -3.1878148   -1.7113995  0.051196258   -3.1878148    1.4764153   343341 
 7937000   0.76927594   -3.1882921    -1.712682  0.049232969   -3.1882921    1.4756101   343341 
 7938000   0.77113477   -3.1918855   -1.7127055  0.051583873   -3.1918855      1.47918   343340 
 7939000   0.77052643   -3.1896176   -1.7113893   0.05207451   -3.1896176    1.4782283   343290 
 7940000   0.77037744   -3.1903319   -1.7124325  0.054705171   -3.1903319    1.4778994   343300 
 7941000   0.77065662   -3.1925756   -1.7139597  0.054928879   -3.1925756    1.4786159   343258 
 7942000   0.76969349   -3.1915658   -1.7146558  0.050248396   -3.1915658      1.47691   343225 
 7943000   0.76851093   -3.1906041   -1.7158902  0.053638902   -3.1906041    1.4747139   343208 
 7944000   0.76799207   -3.1905081   -1.7167211  0.047763936   -3.1905081     1.473787   343192 
 7945000   0.76801468   -3.1923515   -1.7184954  0.049543356   -3.1923515    1.4738561   343186 
 7946000   0.76860773   -3.1923436   -1.7173666  0.051801548   -3.1923436     1.474977   343190 
 7947000    0.7693086   -3.1939564   -1.7175871  0.052191327   -3.1939564    1.4763693   343179 
 7948000   0.76919875    -3.194848   -1.7187626  0.051437059    -3.194848    1.4760854   343196 
 7949000   0.76830859   -3.1924048   -1.7178256  0.053035705   -3.1924048    1.4745791   343149 
 7950000   0.76890571   -3.1940572   -1.7182503  0.057002377   -3.1940572    1.4758069   343130 
 7951000   0.77038945   -3.1960227   -1.7173249  0.050441744   -3.1960227    1.4786978   343120 
 7952000   0.76950989   -3.1919514   -1.7149935  0.053927765   -3.1919514    1.4769579   343132 
 7953000   0.76929935   -3.1910729   -1.7145062  0.056010039   -3.1910729    1.4765667   343129 
 7954000   0.76897209   -3.1917885   -1.7158284  0.053781614   -3.1917885    1.4759601   343124 
 7955000   0.77015594   -3.1936457   -1.7154392  0.052302552   -3.1936457    1.4782065   343130 
 7956000   0.76874406   -3.1914703   -1.7159565  0.056804448   -3.1914703    1.4755138   343126 
 7957000   0.76936434   -3.1930123   -1.7162089  0.052030385   -3.1930123    1.4768034   343103 
 7958000   0.76690368   -3.1908129   -1.7186084  0.051261962   -3.1908129    1.4722045   343074 
 7959000   0.76819851   -3.1909342   -1.7161968  0.054761488   -3.1909342    1.4747375   343063 
 7960000   0.76870908   -3.1896941    -1.713899  0.049672544   -3.1896941     1.475795   343045 
 7961000   0.76812398   -3.1892706   -1.7143968  0.051089159   -3.1892706    1.4748738   342998 
 7962000   0.76774158   -3.1888856    -1.714832  0.054949962   -3.1888856    1.4740536   343018 
 7963000   0.76806426   -3.1886825   -1.7138373  0.051316365   -3.1886825    1.4748452   342978 
 7964000   0.76765741   -3.1885055   -1.7142653  0.052301819   -3.1885055    1.4742401   342937 
 7965000   0.76729214   -3.1888836   -1.7150355  0.052101832   -3.1888836    1.4738481   342865 
 7966000   0.76726068   -3.1904896    -1.716689   0.05096887   -3.1904896    1.4738006   342862 
 7967000   0.76668917   -3.1895533   -1.7168032  0.045700791   -3.1895533      1.47275   342851 
 7968000   0.76758652   -3.1895822    -1.715001  0.044137883   -3.1895822    1.4745813   342826 
 7969000   0.76534998   -3.1856683   -1.7153149  0.050107404   -3.1856683    1.4703534   342810 
 7970000   0.76656668   -3.1885554   -1.7156798  0.049290667   -3.1885554    1.4728756   342767 
 7971000   0.76785817   -3.1900607   -1.7145659  0.049482163   -3.1900607    1.4754948   342735 
 7972000   0.76765729   -3.1912306   -1.7161907  0.046570774   -3.1912306    1.4750399   342751 
 7973000   0.76830271   -3.1908152   -1.7143412  0.046735101   -3.1908152     1.476474   342706 
 7974000   0.76773845   -3.1903059   -1.7148905   0.05323218   -3.1903059    1.4754154   342700 
 7975000    0.7676601   -3.1902357     -1.71479  0.050017145   -3.1902357    1.4754457   342658 
 7976000   0.76860074   -3.1928438   -1.7153574  0.051860077   -3.1928438    1.4774864   342604 
 7977000   0.76759418   -3.1904337   -1.7147961  0.050611044   -3.1904337    1.4756377   342584 
 7978000   0.76783535   -3.1897873   -1.7136602  0.051927249   -3.1897873    1.4761271   342578 
 7979000   0.76751143   -3.1889385   -1.7136279   0.04816583   -3.1889385    1.4753106   342623 
 7980000   0.76913256   -3.1918186   -1.7133617  0.054410828   -3.1918186     1.478457   342616 
 7981000   0.76769495   -3.1908105   -1.7151212  0.054364942   -3.1908105    1.4756892   342617 
 7982000   0.76802418   -3.1912957   -1.7149736  0.049410842   -3.1912957    1.4763221   342617 
 7983000   0.76827659   -3.1908441   -1.7141704  0.049231756   -3.1908441    1.4766737   342648 
 7984000   0.76843232   -3.1904196   -1.7132613  0.053671034   -3.1904196    1.4771584   342605 
 7985000   0.76671354   -3.1874564   -1.7136236  0.053395112   -3.1874564    1.4738328   342610 
 7986000   0.76796816   -3.1896269   -1.7132531  0.051748907   -3.1896269    1.4763738   342580 
 7987000   0.76851077    -3.191271    -1.713785  0.055561598    -3.191271     1.477486   342564 
 7988000   0.76910045   -3.1933249   -1.7147311  0.049049305   -3.1933249    1.4785938   342570 
 7989000   0.76765991   -3.1903817   -1.7144152  0.055495938   -3.1903817    1.4759665   342537 
 7990000   0.76722073   -3.1892469   -1.7139784   0.05060637   -3.1892469    1.4752685   342503 
 7991000   0.76693383   -3.1883327    -1.713547  0.047581431   -3.1883327    1.4747858   342487 
 7992000   0.76666624    -3.186796   -1.7124301  0.050791292    -3.186796    1.4743659   342465 
 7993000   0.76703629   -3.1881613   -1.7129503  0.051360717   -3.1881613    1.4752111   342434 
 7994000    0.7668587   -3.1869404   -1.7120579  0.047482996   -3.1869404    1.4748825   342431 
 7995000   0.76708038   -3.1882699   -1.7127758   0.05252129   -3.1882699    1.4754941   342388 
 7996000   0.76760254   -3.1878083   -1.7113918  0.051503682   -3.1878083    1.4764165   342407 
 7997000   0.76758885   -3.1868957   -1.7103847  0.049643995   -3.1868957     1.476511   342379 
 7998000   0.76655305   -3.1847045   -1.7101817  0.048228765   -3.1847045    1.4745228   342378 
 7999000   0.76853454   -3.1883935    -1.710003  0.045911527   -3.1883935    1.4783905   342365 
 8000000   0.76807796   -3.1881162   -1.7107032  0.048213548   -3.1881162    1.4774129   342388 
Loop time of 9583.95 on 192 procs for 5000000 steps with 342388 atoms

Performance: 225376.700 tau/day, 521.705 timesteps/s
99.1% CPU use with 192 MPI tasks x 1 OpenMP threads

MPI task timing breakdown:
Section |  min time  |  avg time  |  max time  |%varavg|  %CPU | %total
-----------------------------------------------------------------------
Pair    | 1126.3     | 2699.3     | 3054.4     |1103.5 |  99.1 | 28.17
Bond    | 3.1257     | 3.347      | 3.6187     |   4.7 | 100.0 |  0.03
Neigh   | 719.19     | 1316.8     | 1471.3     | 587.6 |  99.5 | 13.74
Comm    | 1297.9     | 1930.8     | 4170.7     |1851.7 |  98.9 | 20.15
Output  | 283.9      | 288.74     | 288.78     |   2.1 |  98.7 |  3.01
Modify  | 3173.8     | 3255.2     | 3604.7     | 249.2 |  99.2 | 33.96
Other   |            | 89.66      |            |       |       |  0.94

Nlocal:        1783.27 ave        2066 max        1582 min
Histogram: 3 4 13 51 90 27 2 0 1 1
Nghost:        2948.61 ave        3315 max        2079 min
Histogram: 1 22 21 4 1 1 8 9 69 56
Neighs:        47359.6 ave       56909 max        7994 min
Histogram: 13 10 1 0 0 0 0 3 72 93

Total # of neighbors = 9093037
Ave neighs/atom = 26.557698
Ave special neighs/atom = 0.0000000
Neighbor list builds = 505000
Dangerous builds = 450000

write_restart   restart_write.dat
System init for write_restart ...
write_data	data.write
System init for write_data ...
WARNING: Not all mixed pair coeffs generated from mixing. Use write_data with 'pair ij' option to store all pair coeffs. (src/write_data.cpp:312)

Total wall time: 2:39:47
