LAMMPS (24 Dec 2020)
OMP_NUM_THREADS environment is not set. Defaulting to 1 thread. (src/comm.cpp:94)
  using 1 OpenMP thread(s) per MPI task
#Read the equilibrated lj fluid and add nanocubes

units           lj
atom_style      full
atom_modify     map array first cubes
dimension       3
boundary        p p f
pair_style      lj/cut/opt 2.5

variable        sigma           equal 1.0
variable        epsilon         equal 1.0
read_restart 	restart.dat.1000000
Reading restart file ...
  restart file = 24 Dec 2020, LAMMPS = 24 Dec 2020
  restoring atom style full from restart
  orthogonal box = (0.0000000 0.0000000 0.0000000) to (160.00000 160.00000 320.00000)
  5 by 4 by 12 MPI processor grid
  restoring pair style lj/cut/opt from restart
  4233413 atoms
Finding 1-2 1-3 1-4 neighbors ...
  special bond factors lj:    0        0        0       
  special bond factors coul:  0        0        0       
     0 = max # of 1-2 neighbors
     0 = max # of 1-3 neighbors
     0 = max # of 1-4 neighbors
     1 = max # of special neighbors
  special bonds CPU = 1.919 seconds
  read_restart CPU = 3.642 seconds

group		solvent type 1
3648197 atoms in group solvent

neighbor      0.4 bin
neigh_modify  exclude molecule/intra cubes


pair_modify   shift yes

pair_coeff    1 1 1.0 1.0 #solvent
pair_coeff    2 2 0.6 1.0 #np
pair_coeff    3 3 0.0 0.0 0.0 #dummy
pair_coeff    2 3 0.0 0.0 0.0 #np dummy
pair_coeff    1 2 0.8 1.0 #np solvent
pair_coeff    1 3 0.0 0.0 0.0 #dummy solvent


comm_modify   mode multi cutoff/multi 1 2.5 cutoff/multi 2 2.5 cutoff/multi 3 6.95

reset_timestep 	0

balance 	1.05 shift z 10 1.05
Balancing ...
Unused restart file global fix info:
  fix style: rigid/nvt/small, fix ID: 1
  fix style: STORE, fix ID: msd_COMPUTE_STORE
Neighbor list info ...
  update every 1 steps, delay 10 steps, check yes
  max neighbors/atom: 2000, page size: 100000
  master list distance cutoff = 2.9
  ghost atom cutoff = 6.95
  binsize = 1.45, bins = 111 111 221
  1 neighbor lists, perpetual/occasional/extra = 1 0 0
  (1) pair lj/cut/opt, perpetual
      attributes: half, newton on
      pair build: half/bin/newton
      stencil: half/bin/3d/newton
      bin: standard
 rebalancing time: 0.072 seconds
  iteration count = 5
  initial/final maximal load/proc = 30462.000 20559.000
  initial/final imbalance factor  = 1.7269470 1.1655277
  x cuts: 0.0000000 0.20000000 0.40000000 0.60000000 0.80000000 1.0000000
  y cuts: 0.0000000 0.25000000 0.50000000 0.75000000 1.0000000
  z cuts: 0.0000000 0.054687500 0.10677083 0.16145833 0.21354167 0.26562500 0.32031250 0.37239583 0.42447917 0.46875000 0.53125000 0.59375000 1.0000000

####################### WALLS ###########################

variable       epsilonWall equal 2*${epsilon}
variable       epsilonWall equal 2*1

variable       cutoffTop   equal   0.7147*${sigma}
variable       cutoffTop   equal   0.7147*1

variable       cutoffLow   equal   3*${sigma}
variable       cutoffLow   equal   3*1

region         lowWall block EDGE EDGE EDGE EDGE EDGE 2


fix            topWall all wall/lj93 zhi EDGE 	       ${epsilonWall} ${sigma} ${cutoffTop} units box
fix            topWall all wall/lj93 zhi EDGE 	       2 ${sigma} ${cutoffTop} units box
fix            topWall all wall/lj93 zhi EDGE 	       2 1 ${cutoffTop} units box
fix            topWall all wall/lj93 zhi EDGE 	       2 1 0.7147 units box

fix            lowWall all wall/lj93 zlo EDGE                ${epsilonWall} ${sigma} ${cutoffLow} units box
fix            lowWall all wall/lj93 zlo EDGE                2 ${sigma} ${cutoffLow} units box
fix            lowWall all wall/lj93 zlo EDGE                2 1 ${cutoffLow} units box
fix            lowWall all wall/lj93 zlo EDGE                2 1 3 units box


######################  FIXES ############################


fix             1 cubes rigid/nvt/small molecule temp 0.8 0.8 0.25
  create bodies CPU = 0.005 seconds
  512 rigid bodies with 585216 atoms
  6.9282032 = max distance from body owner to body atom

fix             2 solvent nve


## Thermostat

region          regthermo block EDGE EDGE EDGE EDGE 0 20

group           thermo dynamic solvent region regthermo every 1000
dynamic group thermo defined

fix             3 thermo langevin ${startTemp} ${temp} 0.1 156453
fix             3 thermo langevin 0.8 ${temp} 0.1 156453
fix             3 thermo langevin 0.8 0.8 0.1 156453


#### Load balancing

fix             bal all balance 1000 1.05 shift z 10 1.05

############### Diagnostics and computes ###################

compute        com cubes          rigid/local   1 mol x y z
compute        quat cubes         rigid/local   1 mol quatw quati quatj quatk
compute 	cc2 cubes chunk/atom molecule

compute 	msd cubes msd/chunk cc2

thermo          1000
thermo_style    custom step temp epair evdwl etotal press pe ke vol

dump            1 all custom 100000 dump.lammpstrj id mol type x y z
dump            2 all image 10000 image.*.png type type

dump_modify     2 pad 8


dump		image cubes image 10000 image_cubes.*.png type type

dump_modify	image pad 8


dump            3 all movie 5000 movie.avi type type
dump		4 cubes movie 5000 movie_cubes.avi type type zoom 2.0

dump           com cubes local 1000 dump.*.xyz c_com[*]
dump           quat cubes      local 1000 dump.*.quat c_quat[*]


restart         500000 restart.dat
timestep        0.0025
timer           full
New timer settings: style=full  mode=nosync  timeout=off

run            1000000
Per MPI rank memory allocation (min/avg/max) = 43.38 | 55.30 | 60.09 Mbytes
Step Temp E_pair E_vdwl TotEng Press PotEng KinEng Volume 
       0   0.79541568   -3.8760093   -3.8760093   -2.8475318  0.050668848   -3.8760093    1.0284775      8192000 
    1000   0.79534124   -3.8760845   -3.8760845   -2.8477032  0.023267833   -3.8760845    1.0283813      8192000 
    2000   0.79560281   -3.8761516   -3.8761516   -2.8474321  0.026385045   -3.8761516    1.0287195      8192000 
    3000   0.79568075   -3.8762637   -3.8762637   -2.8474434  0.024047823   -3.8762637    1.0288203      8192000 
    4000   0.79624219    -3.876885    -3.876885   -2.8473387   0.02318813    -3.876885    1.0295462      8192000 
    5000    0.7957834   -3.8764714   -3.8764714   -2.8475184  0.027862086   -3.8764714     1.028953      8192000 
    6000   0.79578422   -3.8767237   -3.8767237   -2.8477696   0.02658624   -3.8767237    1.0289541      8192000 
    7000   0.79593925   -3.8764916   -3.8764916   -2.8473371  0.026512544   -3.8764916    1.0291545      8192000 
    8000   0.79576128   -3.8764718   -3.8764718   -2.8475474  0.027320898   -3.8764718    1.0289244      8192000 
    9000    0.7953385   -3.8764969   -3.8764969   -2.8481192  0.026568422   -3.8764969    1.0283778      8192000 
   10000   0.79584615   -3.8767475   -3.8767475   -2.8477133  0.030572044   -3.8767475    1.0290341      8192000 
   11000   0.79580563   -3.8761531   -3.8761531   -2.8471713   0.02861214   -3.8761531    1.0289818      8192000 
   12000   0.79607702   -3.8767955   -3.8767955   -2.8474629  0.027449141   -3.8767955    1.0293327      8192000 
   13000    0.7958541    -3.876786    -3.876786   -2.8477416  0.025574986    -3.876786    1.0290444      8192000 
   14000   0.79579551   -3.8763092   -3.8763092   -2.8473405  0.028809309   -3.8763092    1.0289687      8192000 
   15000   0.79601595   -3.8765889   -3.8765889   -2.8473352  0.029031356   -3.8765889    1.0292537      8192000 
   16000   0.79589708   -3.8765366   -3.8765366   -2.8474366  0.026875161   -3.8765366       1.0291      8192000 
   17000   0.79636049   -3.8768287   -3.8768287   -2.8471295  0.025818219   -3.8768287    1.0296992      8192000 
   18000   0.79588835    -3.876381    -3.876381   -2.8472923   0.02854127    -3.876381    1.0290887      8192000 
   19000   0.79608247    -3.876482    -3.876482   -2.8471423  0.026164089    -3.876482    1.0293397      8192000 
   20000   0.79565564     -3.87614     -3.87614   -2.8473522  0.028272166     -3.87614    1.0287878      8192000 
   21000   0.79660754   -3.8772689   -3.8772689   -2.8472503   0.02686832   -3.8772689    1.0300186      8192000 
   22000    0.7960848   -3.8770574   -3.8770574   -2.8477146  0.028236583   -3.8770574    1.0293427      8192000 
   23000   0.79641374   -3.8772171   -3.8772171   -2.8474491  0.026513623   -3.8772171     1.029768      8192000 
   24000   0.79654276   -3.8768204   -3.8768204   -2.8468855  0.026592901   -3.8768204    1.0299349      8192000 
   25000    0.7962863     -3.87688     -3.87688   -2.8472768  0.029031541     -3.87688    1.0296033      8192000 
   26000   0.79646737   -3.8772843   -3.8772843   -2.8474469  0.027920664   -3.8772843    1.0298374      8192000 
   27000   0.79636013   -3.8772228   -3.8772228   -2.8475241  0.026992832   -3.8772228    1.0296987      8192000 
   28000   0.79587302   -3.8767295   -3.8767295   -2.8476606  0.030100167   -3.8767295    1.0290689      8192000 
   29000   0.79606623   -3.8769197   -3.8769197    -2.847601   0.02987608   -3.8769197    1.0293187      8192000 
   30000   0.79598534     -3.87671     -3.87671   -2.8474959  0.032431113     -3.87671    1.0292141      8192000 
   31000    0.7964098    -3.877422    -3.877422   -2.8476591  0.027552606    -3.877422    1.0297629      8192000 
   32000   0.79661524   -3.8775935   -3.8775935   -2.8475649  0.027918952   -3.8775935    1.0300286      8192000 
   33000   0.79652861   -3.8776164   -3.8776164   -2.8476998  0.026243967   -3.8776164    1.0299166      8192000 
   34000    0.7961582   -3.8768138   -3.8768138   -2.8473762   0.02865119   -3.8768138    1.0294376      8192000 
   35000   0.79644595   -3.8770354   -3.8770354   -2.8472257   0.02876892   -3.8770354    1.0298097      8192000 
   36000   0.79594211   -3.8768384   -3.8768384   -2.8476802  0.029872113   -3.8768384    1.0291582      8192000 
   37000   0.79644106   -3.8770749   -3.8770749   -2.8472716   0.02802828   -3.8770749    1.0298034      8192000 
   38000   0.79626238   -3.8767141   -3.8767141   -2.8471418  0.030104724   -3.8767141    1.0295723      8192000 
   39000   0.79602689   -3.8767163   -3.8767163   -2.8474485  0.026891889   -3.8767163    1.0292678      8192000 
   40000   0.79588041   -3.8766548   -3.8766548   -2.8475763  0.028114622   -3.8766548    1.0290784      8192000 
   41000   0.79561802   -3.8763006   -3.8763006   -2.8475614  0.029576872   -3.8763006    1.0287392      8192000 
   42000   0.79565725   -3.8764602   -3.8764602   -2.8476703  0.028150719   -3.8764602    1.0287899      8192000 
   43000   0.79603056   -3.8766768   -3.8766768   -2.8474042  0.027798819   -3.8766768    1.0292726      8192000 
   44000   0.79630401   -3.8770662   -3.8770662   -2.8474401  0.027169246   -3.8770662    1.0296262      8192000 
   45000   0.79585846   -3.8764854   -3.8764854   -2.8474353  0.027146879   -3.8764854    1.0290501      8192000 
   46000   0.79567916    -3.876221    -3.876221   -2.8474028  0.026336195    -3.876221    1.0288182      8192000 
   47000    0.7957459    -3.876357    -3.876357   -2.8474525  0.026286093    -3.876357    1.0289045      8192000 
   48000   0.79580711   -3.8763274   -3.8763274   -2.8473437  0.026384115   -3.8763274    1.0289837      8192000 
   49000   0.79587867   -3.8762691   -3.8762691   -2.8471929  0.028566839   -3.8762691    1.0290762      8192000 
   50000   0.79669173   -3.8768872   -3.8768872   -2.8467597  0.027521349   -3.8768872    1.0301275      8192000 
   51000   0.79604731   -3.8765634   -3.8765634   -2.8472692  0.026856076   -3.8765634    1.0292942      8192000 
   52000    0.7960482   -3.8766017   -3.8766017   -2.8473063  0.027358653   -3.8766017    1.0292954      8192000 
   53000   0.79616356   -3.8766752   -3.8766752   -2.8472307  0.025517903   -3.8766752    1.0294446      8192000 
   54000   0.79614346   -3.8762883   -3.8762883   -2.8468698  0.027939465   -3.8762883    1.0294186      8192000 
   55000   0.79588934   -3.8763948   -3.8763948   -2.8473048  0.025983063   -3.8763948      1.02909      8192000 
   56000   0.79580646   -3.8761643   -3.8761643   -2.8471815  0.027120893   -3.8761643    1.0289828      8192000 
   57000   0.79577096   -3.8764227   -3.8764227   -2.8474858  0.026509183   -3.8764227    1.0289369      8192000 
   58000    0.7958546   -3.8764447   -3.8764447   -2.8473997  0.026489353   -3.8764447    1.0290451      8192000 
   59000   0.79585011   -3.8761643   -3.8761643   -2.8471251  0.027386482   -3.8761643    1.0290393      8192000 
   60000   0.79572057   -3.8763651   -3.8763651   -2.8474933  0.028468203   -3.8763651    1.0288718      8192000 
   61000   0.79577152   -3.8763265   -3.8763265   -2.8473889  0.026339681   -3.8763265    1.0289376      8192000 
   62000   0.79597431   -3.8762439   -3.8762439    -2.847044  0.027405085   -3.8762439    1.0291999      8192000 
   63000   0.79543684   -3.8761544   -3.8761544   -2.8476494  0.027531608   -3.8761544    1.0285049      8192000 
   64000   0.79579496   -3.8764972   -3.8764972   -2.8475292  0.027244814   -3.8764972     1.028968      8192000 
   65000   0.79557298   -3.8761563   -3.8761563   -2.8474754  0.027472746   -3.8761563    1.0286809      8192000 
   66000   0.79552629   -3.8759842   -3.8759842   -2.8473636  0.026939088   -3.8759842    1.0286206      8192000 
   67000   0.79600996   -3.8766243   -3.8766243   -2.8473784  0.024466616   -3.8766243     1.029246      8192000 
   68000   0.79523675   -3.8758933   -3.8758933   -2.8476471  0.027177198   -3.8758933    1.0282462      8192000 
   69000   0.79544996   -3.8759649   -3.8759649    -2.847443  0.026068322   -3.8759649    1.0285219      8192000 
   70000   0.79592419   -3.8763848   -3.8763848   -2.8472498  0.027653475   -3.8763848    1.0291351      8192000 
   71000   0.79576041   -3.8763202   -3.8763202    -2.847397  0.027072142   -3.8763202    1.0289233      8192000 
   72000   0.79584917   -3.8765323   -3.8765323   -2.8474942  0.028694607   -3.8765323     1.029038      8192000 
   73000   0.79609323   -3.8764743   -3.8764743   -2.8471206   0.02753589   -3.8764743    1.0293536      8192000 
   74000   0.79563091   -3.8763782   -3.8763782   -2.8476223  0.028786179   -3.8763782    1.0287558      8192000 
   75000   0.79629755    -3.877049    -3.877049   -2.8474312  0.025797309    -3.877049    1.0296178      8192000 
   76000   0.79632975   -3.8775527   -3.8775527   -2.8478932  0.027548522   -3.8775527    1.0296594      8192000 
   77000   0.79594611   -3.8769671   -3.8769671   -2.8478037  0.026073481   -3.8769671    1.0291634      8192000 
   78000   0.79569953   -3.8765368   -3.8765368   -2.8476922  0.027194333   -3.8765368    1.0288446      8192000 
   79000    0.7960719   -3.8768367   -3.8768367   -2.8475107  0.029583731   -3.8768367     1.029326      8192000 
   80000   0.79599267   -3.8771405   -3.8771405   -2.8479169  0.028876942   -3.8771405    1.0292236      8192000 
   81000   0.79614136   -3.8771672   -3.8771672   -2.8477514  0.027258659   -3.8771672    1.0294159      8192000 
   82000   0.79602908   -3.8768987   -3.8768987    -2.847628  0.028371126   -3.8768987    1.0292707      8192000 
   83000    0.7959719   -3.8768276   -3.8768276   -2.8476308  0.027864253   -3.8768276    1.0291967      8192000 
   84000   0.79652256   -3.8768979   -3.8768979   -2.8469891  0.027324914   -3.8768979    1.0299088      8192000 
   85000   0.79631761   -3.8768376   -3.8768376   -2.8471938   0.02915552   -3.8768376    1.0296438      8192000 
   86000   0.79605091   -3.8766097   -3.8766097   -2.8473108  0.029509976   -3.8766097    1.0292989      8192000 
   87000   0.79603774   -3.8769274   -3.8769274   -2.8476456  0.027733811   -3.8769274    1.0292819      8192000 
   88000   0.79597754    -3.877079    -3.877079   -2.8478749  0.022308865    -3.877079     1.029204      8192000 
   89000   0.79621099   -3.8772624   -3.8772624   -2.8477566  0.027081858   -3.8772624    1.0295059      8192000 
   90000   0.79608604    -3.876933    -3.876933   -2.8475887  0.028212711    -3.876933    1.0293443      8192000 
   91000   0.79653917   -3.8775821   -3.8775821   -2.8476519  0.025622304   -3.8775821    1.0299302      8192000 
   92000   0.79620139   -3.8771384   -3.8771384   -2.8476449  0.030373412   -3.8771384    1.0294935      8192000 
   93000   0.79628684   -3.8771644   -3.8771644   -2.8475604  0.026754244   -3.8771644     1.029604      8192000 
   94000   0.79617168   -3.8773745   -3.8773745   -2.8479194  0.029596063   -3.8773745    1.0294551      8192000 
   95000   0.79599915   -3.8766141   -3.8766141   -2.8473821  0.030301569   -3.8766141     1.029232      8192000 
   96000   0.79626998    -3.877074    -3.877074   -2.8474918   0.02864976    -3.877074    1.0295822      8192000 
   97000   0.79602213   -3.8771034   -3.8771034   -2.8478417  0.027117971   -3.8771034    1.0292617      8192000 
   98000   0.79614977   -3.8770972   -3.8770972   -2.8476705  0.026432398   -3.8770972    1.0294267      8192000 
   99000   0.79605013   -3.8769549   -3.8769549    -2.847657   0.02723199   -3.8769549    1.0292979      8192000 
  100000   0.79611583   -3.8772319   -3.8772319    -2.847849  0.027754409   -3.8772319    1.0293828      8192000 
  101000   0.79660856   -3.8774706   -3.8774706   -2.8474507  0.027747785   -3.8774706    1.0300199      8192000 
  102000   0.79626538   -3.8771618   -3.8771618   -2.8475856  0.027878337   -3.8771618    1.0295762      8192000 
  103000   0.79647568   -3.8772622   -3.8772622   -2.8474141  0.028654921   -3.8772622    1.0298481      8192000 
  104000   0.79635596   -3.8772017   -3.8772017   -2.8475084  0.027996186   -3.8772017    1.0296933      8192000 
  105000   0.79645359   -3.8775161   -3.8775161   -2.8476965   0.03028289   -3.8775161    1.0298196      8192000 
  106000   0.79657519   -3.8774885   -3.8774885   -2.8475117  0.028004597   -3.8774885    1.0299768      8192000 
  107000   0.79596013   -3.8769252   -3.8769252   -2.8477437   0.03104155   -3.8769252    1.0291815      8192000 
  108000   0.79604377   -3.8771478   -3.8771478   -2.8478582  0.029795336   -3.8771478    1.0292897      8192000 
  109000   0.79613524   -3.8769906   -3.8769906   -2.8475827  0.027707151   -3.8769906    1.0294079      8192000 
  110000   0.79590161   -3.8772125   -3.8772125   -2.8481066  0.026875797   -3.8772125    1.0291059      8192000 
  111000   0.79592733   -3.8768846   -3.8768846   -2.8477455  0.027968499   -3.8768846    1.0291391      8192000 
  112000   0.79604533   -3.8771377   -3.8771377   -2.8478461  0.026857638   -3.8771377    1.0292917      8192000 
  113000   0.79605423   -3.8769241   -3.8769241   -2.8476209  0.029100989   -3.8769241    1.0293032      8192000 
  114000   0.79581913   -3.8771166   -3.8771166   -2.8481174  0.025880874   -3.8771166    1.0289992      8192000 
  115000    0.7957702   -3.8767121   -3.8767121   -2.8477761  0.025012367   -3.8767121    1.0289359      8192000 
  116000   0.79529021   -3.8763404   -3.8763404   -2.8480251  0.026458835   -3.8763404    1.0283153      8192000 
  117000   0.79604988   -3.8773839   -3.8773839   -2.8480864   0.02543899   -3.8773839    1.0292976      8192000 
  118000   0.79568089    -3.876435    -3.876435   -2.8476145  0.028692875    -3.876435    1.0288205      8192000 
  119000   0.79589587    -3.876512    -3.876512   -2.8474136  0.026433161    -3.876512    1.0290984      8192000 
  120000   0.79596602   -3.8767624   -3.8767624   -2.8475733  0.027137738   -3.8767624    1.0291891      8192000 
  121000   0.79610758   -3.8768047   -3.8768047   -2.8474325  0.026151744   -3.8768047    1.0293722      8192000 
  122000    0.7958077   -3.8766814   -3.8766814    -2.847697  0.026668217   -3.8766814    1.0289844      8192000 
  123000   0.79606222    -3.877091    -3.877091   -2.8477775  0.025151298    -3.877091    1.0293135      8192000 
  124000   0.79564252    -3.876729    -3.876729   -2.8479582  0.026353619    -3.876729    1.0287709      8192000 
  125000   0.79589942   -3.8768335   -3.8768335   -2.8477305  0.024835639   -3.8768335     1.029103      8192000 
  126000    0.7958126   -3.8767352   -3.8767352   -2.8477445  0.026223725   -3.8767352    1.0289908      8192000 
  127000   0.79588222   -3.8765544   -3.8765544   -2.8474736  0.026981064   -3.8765544    1.0290808      8192000 
  128000   0.79600669   -3.8768872   -3.8768872   -2.8476455  0.028160259   -3.8768872    1.0292417      8192000 
  129000   0.79602038    -3.876732    -3.876732   -2.8474725  0.027438388    -3.876732    1.0292594      8192000 
  130000    0.7962361   -3.8772068   -3.8772068   -2.8476684  0.029468057   -3.8772068    1.0295384      8192000 
  131000   0.79639821   -3.8767521   -3.8767521   -2.8470041  0.027590656   -3.8767521     1.029748      8192000 
  132000   0.79608454   -3.8763947   -3.8763947   -2.8470524   0.02642831   -3.8763947    1.0293424      8192000 
  133000   0.79580815    -3.876423    -3.876423    -2.847438  0.027806971    -3.876423     1.028985      8192000 
  134000   0.79611909   -3.8766566   -3.8766566   -2.8472696  0.026142709   -3.8766566    1.0293871      8192000 
  135000   0.79542804   -3.8760469   -3.8760469   -2.8475533  0.027028779   -3.8760469    1.0284935      8192000 
  136000   0.79621106   -3.8767563   -3.8767563   -2.8472503  0.023443478   -3.8767563     1.029506      8192000 
  137000   0.79591853   -3.8765284   -3.8765284   -2.8474007  0.027456604   -3.8765284    1.0291277      8192000 
  138000    0.7951966   -3.8755244   -3.8755244   -2.8473301  0.027286162   -3.8755244    1.0281943      8192000 
  139000   0.79564996   -3.8757677   -3.8757677   -2.8469872  0.029027241   -3.8757677    1.0287805      8192000 
  140000   0.79545021   -3.8758415   -3.8758415   -2.8473193   0.02826161   -3.8758415    1.0285222      8192000 
  141000    0.7955749   -3.8761148   -3.8761148   -2.8474314  0.026945792   -3.8761148    1.0286834      8192000 
  142000    0.7956243    -3.876004    -3.876004   -2.8472567  0.024920204    -3.876004    1.0287473      8192000 
  143000   0.79574669   -3.8763565   -3.8763565   -2.8474509  0.028048853   -3.8763565    1.0289055      8192000 
  144000   0.79586035   -3.8765032   -3.8765032   -2.8474507  0.025345743   -3.8765032    1.0290525      8192000 
  145000   0.79586184   -3.8763656   -3.8763656   -2.8473112  0.029338779   -3.8763656    1.0290544      8192000 
  146000    0.7958876     -3.87653     -3.87653   -2.8474422  0.028812447     -3.87653    1.0290877      8192000 
  147000   0.79618085    -3.876526    -3.876526   -2.8470591  0.026133359    -3.876526    1.0294669      8192000 
  148000    0.7964274    -3.876823    -3.876823   -2.8470373  0.027084745    -3.876823    1.0297857      8192000 
  149000   0.79609479   -3.8766348   -3.8766348   -2.8472791  0.027169589   -3.8766348    1.0293556      8192000 
  150000   0.79636107    -3.877132    -3.877132   -2.8474321  0.023130979    -3.877132    1.0296999      8192000 
  151000   0.79579309   -3.8762059   -3.8762059   -2.8472404  0.025738812   -3.8762059    1.0289655      8192000 
  152000   0.79645872   -3.8771173   -3.8771173   -2.8472911  0.025692597   -3.8771173    1.0298262      8192000 
  153000   0.79636003   -3.8766422   -3.8766422   -2.8469436  0.029593658   -3.8766422    1.0296986      8192000 
  154000   0.79596929    -3.876476    -3.876476   -2.8472827  0.026310389    -3.876476    1.0291934      8192000 
  155000    0.7961595   -3.8767972   -3.8767972   -2.8473579  0.024900071   -3.8767972    1.0294393      8192000 
  156000   0.79594589   -3.8766051   -3.8766051    -2.847442   0.02569442   -3.8766051    1.0291631      8192000 
  157000   0.79627782   -3.8769192   -3.8769192   -2.8473269  0.024182957   -3.8769192    1.0295923      8192000 
  158000   0.79617666   -3.8764456   -3.8764456   -2.8469841  0.027430445   -3.8764456    1.0294615      8192000 
  159000   0.79589748   -3.8765161   -3.8765161   -2.8474156  0.025100325   -3.8765161    1.0291005      8192000 
  160000   0.79614408   -3.8767827   -3.8767827   -2.8473634  0.025886273   -3.8767827    1.0294194      8192000 
  161000   0.79610384   -3.8766825   -3.8766825   -2.8473152  0.026992047   -3.8766825    1.0293673      8192000 
  162000   0.79617942   -3.8770014   -3.8770014   -2.8475363  0.026916188   -3.8770014    1.0294651      8192000 
  163000   0.79568832   -3.8764173   -3.8764173   -2.8475872   0.02949644   -3.8764173    1.0288301      8192000 
  164000    0.7958474   -3.8768513   -3.8768513   -2.8478155  0.025782414   -3.8768513    1.0290358      8192000 
  165000   0.79604507   -3.8768528   -3.8768528   -2.8475614  0.024118743   -3.8768528    1.0292914      8192000 
  166000   0.79576018   -3.8765294   -3.8765294   -2.8476064  0.027639287   -3.8765294     1.028923      8192000 
  167000   0.79637105   -3.8768601   -3.8768601   -2.8471473  0.028136472   -3.8768601    1.0297128      8192000 
  168000   0.79613439   -3.8769311   -3.8769311   -2.8475242  0.026637577   -3.8769311    1.0294068      8192000 
  169000   0.79624062   -3.8770209   -3.8770209   -2.8474767  0.025271665   -3.8770209    1.0295442      8192000 
  170000   0.79636831   -3.8771898   -3.8771898   -2.8474805  0.027368973   -3.8771898    1.0297093      8192000 
  171000   0.79566684   -3.8768489   -3.8768489   -2.8480466  0.027511825   -3.8768489    1.0288023      8192000 
  172000   0.79613647   -3.8770213   -3.8770213   -2.8476118  0.026032592   -3.8770213    1.0294095      8192000 
  173000   0.79582948   -3.8763814   -3.8763814   -2.8473688  0.028973204   -3.8763814    1.0290126      8192000 
  174000   0.79536491   -3.8760217   -3.8760217   -2.8476098  0.031629159   -3.8760217    1.0284119      8192000 
  175000    0.7958887   -3.8769027   -3.8769027   -2.8478136  0.027097499   -3.8769027    1.0290892      8192000 
  176000   0.79622782   -3.8770637   -3.8770637   -2.8475361  0.029411943   -3.8770637    1.0295276      8192000 
  177000    0.7958786   -3.8769829   -3.8769829   -2.8479068  0.026169426   -3.8769829    1.0290761      8192000 
  178000   0.79638613   -3.8770213   -3.8770213   -2.8472889  0.028293231   -3.8770213    1.0297323      8192000 
  179000   0.79593764   -3.8768586   -3.8768586   -2.8477061  0.026918356   -3.8768586    1.0291524      8192000 
  180000    0.7958119   -3.8765853   -3.8765853   -2.8475955  0.028724357   -3.8765853    1.0289899      8192000 
  181000   0.79605446   -3.8767834   -3.8767834   -2.8474799  0.029121707   -3.8767834    1.0293035      8192000 
  182000   0.79591231   -3.8767767   -3.8767767    -2.847657  0.029273603   -3.8767767    1.0291197      8192000 
  183000   0.79592327   -3.8764018   -3.8764018   -2.8472679  0.031312996   -3.8764018    1.0291339      8192000 
  184000   0.79589722   -3.8762857   -3.8762857   -2.8471856  0.028583491   -3.8762857    1.0291002      8192000 
  185000   0.79621103   -3.8769217   -3.8769217   -2.8474158  0.026874577   -3.8769217    1.0295059      8192000 
  186000   0.79608322   -3.8768261   -3.8768261   -2.8474854  0.024870469   -3.8768261    1.0293407      8192000 
  187000   0.79587995     -3.87657     -3.87657   -2.8474921   0.02923938     -3.87657    1.0290778      8192000 
  188000   0.79571692   -3.8766013   -3.8766013   -2.8477343  0.028677063   -3.8766013    1.0288671      8192000 
  189000   0.79603809   -3.8768609   -3.8768609   -2.8475786  0.028860408   -3.8768609    1.0292823      8192000 
  190000   0.79603499   -3.8771581   -3.8771581   -2.8478798   0.02970197   -3.8771581    1.0292783      8192000 
  191000   0.79603592   -3.8768903   -3.8768903   -2.8476108  0.028940189   -3.8768903    1.0292795      8192000 
  192000   0.79634677   -3.8771566   -3.8771566   -2.8474752  0.026898107   -3.8771566    1.0296815      8192000 
  193000   0.79594828   -3.8766122   -3.8766122    -2.847446  0.029239809   -3.8766122    1.0291662      8192000 
  194000    0.7963273   -3.8770853   -3.8770853    -2.847429  0.027864644   -3.8770853    1.0296563      8192000 
  195000   0.79617989   -3.8770884   -3.8770884   -2.8476228  0.026053631   -3.8770884    1.0294657      8192000 
  196000   0.79554463   -3.8763288   -3.8763288   -2.8476845  0.028782663   -3.8763288    1.0286443      8192000 
  197000   0.79624151   -3.8768284   -3.8768284    -2.847283  0.028127686   -3.8768284    1.0295453      8192000 
  198000   0.79584179   -3.8764121   -3.8764121   -2.8473836  0.028683875   -3.8764121    1.0290285      8192000 
  199000   0.79599546   -3.8768297   -3.8768297   -2.8476025  0.028975948   -3.8768297    1.0292272      8192000 
  200000   0.79660379   -3.8773789   -3.8773789   -2.8473651  0.027919625   -3.8773789    1.0300138      8192000 
  201000   0.79623561   -3.8769348   -3.8769348   -2.8473971  0.028130374   -3.8769348    1.0295377      8192000 
  202000   0.79608304   -3.8769413   -3.8769413   -2.8476009  0.026080522   -3.8769413    1.0293404      8192000 
  203000   0.79661358   -3.8774582   -3.8774582   -2.8474317  0.025911541   -3.8774582    1.0300264      8192000 
  204000   0.79612148    -3.876854    -3.876854   -2.8474638   0.03005228    -3.876854    1.0293902      8192000 
  205000   0.79618639   -3.8773507   -3.8773507   -2.8478767  0.024207062   -3.8773507    1.0294741      8192000 
  206000   0.79611467   -3.8768959   -3.8768959   -2.8475146  0.027584443   -3.8768959    1.0293813      8192000 
  207000   0.79636336   -3.8773936   -3.8773936   -2.8476907  0.026018726   -3.8773936    1.0297029      8192000 
  208000   0.79584989    -3.876885    -3.876885    -2.847846  0.028990224    -3.876885     1.029039      8192000 
  209000   0.79619235   -3.8771366   -3.8771366   -2.8476548  0.027398126   -3.8771366    1.0294818      8192000 
  210000   0.79590662   -3.8768928   -3.8768928   -2.8477805  0.024965513   -3.8768928    1.0291123      8192000 
  211000   0.79600098   -3.8767294   -3.8767294   -2.8474951  0.026881121   -3.8767294    1.0292343      8192000 
  212000   0.79603434   -3.8768134   -3.8768134    -2.847536  0.025456984   -3.8768134    1.0292775      8192000 
  213000   0.79616665   -3.8766741   -3.8766741   -2.8472256  0.026538238   -3.8766741    1.0294486      8192000 
  214000   0.79548467   -3.8762284   -3.8762284   -2.8476617  0.026080811   -3.8762284    1.0285667      8192000 
  215000   0.79606317   -3.8767542   -3.8767542   -2.8474394  0.026635344   -3.8767542    1.0293148      8192000 
  216000   0.79581872   -3.8763937   -3.8763937    -2.847395  0.029103518   -3.8763937    1.0289987      8192000 
  217000   0.79606094   -3.8769449   -3.8769449    -2.847633  0.024001603   -3.8769449    1.0293119      8192000 
  218000   0.79614215   -3.8770884   -3.8770884   -2.8476715  0.026317584   -3.8770884    1.0294169      8192000 
  219000   0.79606754   -3.8768371   -3.8768371   -2.8475167  0.027519757   -3.8768371    1.0293204      8192000 
  220000   0.79559086   -3.8761898   -3.8761898   -2.8474857  0.026315019   -3.8761898    1.0287041      8192000 
  221000   0.79642391    -3.877114    -3.877114   -2.8473328  0.027892087    -3.877114    1.0297812      8192000 
  222000   0.79652991   -3.8770113   -3.8770113   -2.8470931  0.025975964   -3.8770113    1.0299183      8192000 
  223000   0.79597479   -3.8767308   -3.8767308   -2.8475303  0.028870917   -3.8767308    1.0292005      8192000 
  224000   0.79639679   -3.8773519   -3.8773519   -2.8476058  0.026896136   -3.8773519    1.0297461      8192000 
  225000   0.79631889   -3.8770539   -3.8770539   -2.8474085  0.025423769   -3.8770539    1.0296454      8192000 
  226000   0.79572764    -3.876615    -3.876615   -2.8477341  0.027438608    -3.876615    1.0288809      8192000 
  227000   0.79575776    -3.876369    -3.876369   -2.8474492   0.02766862    -3.876369    1.0289199      8192000 
  228000   0.79619525    -3.876657    -3.876657   -2.8471714  0.030123091    -3.876657    1.0294855      8192000 
  229000   0.79654575   -3.8771078   -3.8771078   -2.8471691   0.02931197   -3.8771078    1.0299387      8192000 
  230000    0.7964087   -3.8768689   -3.8768689   -2.8471074  0.028073433   -3.8768689    1.0297615      8192000 
  231000   0.79605542   -3.8765284   -3.8765284   -2.8472237  0.027780536   -3.8765284    1.0293047      8192000 
  232000   0.79587544   -3.8764918   -3.8764918   -2.8474198  0.029572633   -3.8764918     1.029072      8192000 
  233000   0.79604883   -3.8765584   -3.8765584   -2.8472622  0.030773111   -3.8765584    1.0292962      8192000 
  234000   0.79622824    -3.877078    -3.877078   -2.8475498  0.029055223    -3.877078    1.0295282      8192000 
  235000     0.796038   -3.8768652   -3.8768652    -2.847583  0.027870818   -3.8768652    1.0292822      8192000 
  236000   0.79602364   -3.8765356   -3.8765356    -2.847272  0.028271726   -3.8765356    1.0292636      8192000 
  237000   0.79582338   -3.8764417   -3.8764417    -2.847437   0.02579703   -3.8764417    1.0290047      8192000 
  238000   0.79587868   -3.8763811   -3.8763811   -2.8473049  0.029324496   -3.8763811    1.0290762      8192000 
  239000   0.79618799   -3.8769125   -3.8769125   -2.8474364   0.02858434   -3.8769125    1.0294761      8192000 
  240000   0.79612585   -3.8767321   -3.8767321   -2.8473363  0.025395883   -3.8767321    1.0293958      8192000 
  241000   0.79579137   -3.8764449   -3.8764449   -2.8474816  0.029102063   -3.8764449    1.0289633      8192000 
  242000   0.79601076   -3.8767942   -3.8767942   -2.8475472  0.025426265   -3.8767942     1.029247      8192000 
  243000   0.79574187   -3.8762975   -3.8762975   -2.8473982  0.027731201   -3.8762975    1.0288993      8192000 
  244000   0.79687066   -3.8774782   -3.8774782   -2.8471193  0.026487654   -3.8774782    1.0303588      8192000 
  245000   0.79595911   -3.8765536   -3.8765536   -2.8473734   0.02694949   -3.8765536    1.0291802      8192000 
  246000   0.79604567   -3.8768431   -3.8768431   -2.8475509  0.027261155   -3.8768431    1.0292921      8192000 
  247000   0.79589746   -3.8764824   -3.8764824   -2.8473819  0.028045201   -3.8764824    1.0291005      8192000 
  248000   0.79642036   -3.8770159   -3.8770159   -2.8472393  0.027310711   -3.8770159    1.0297766      8192000 
  249000    0.7959365   -3.8763398   -3.8763398   -2.8471888  0.028150687   -3.8763398     1.029151      8192000 
  250000   0.79594275   -3.8763858   -3.8763858   -2.8472267  0.028436608   -3.8763858    1.0291591      8192000 
  251000   0.79569145   -3.8762171   -3.8762171    -2.847383  0.030482572   -3.8762171    1.0288341      8192000 
  252000   0.79658192   -3.8773817   -3.8773817   -2.8473962  0.025244152   -3.8773817    1.0299855      8192000 
  253000   0.79605802   -3.8764852   -3.8764852   -2.8471771  0.026679867   -3.8764852    1.0293081      8192000 
  254000   0.79595455   -3.8765951   -3.8765951   -2.8474208  0.027673068   -3.8765951    1.0291743      8192000 
  255000   0.79666342   -3.8771506   -3.8771506   -2.8470597  0.028336801   -3.8771506    1.0300909      8192000 
  256000   0.79654657    -3.877192    -3.877192   -2.8472522  0.026836379    -3.877192    1.0299398      8192000 
  257000    0.7963193   -3.8763784   -3.8763784   -2.8467324  0.027740039   -3.8763784    1.0296459      8192000 
  258000   0.79636822   -3.8766847   -3.8766847   -2.8469755   0.02802938   -3.8766847    1.0297092      8192000 
  259000   0.79641641   -3.8766619   -3.8766619   -2.8468904  0.027253977   -3.8766619    1.0297715      8192000 
  260000   0.79590386   -3.8762302   -3.8762302   -2.8471214  0.028480578   -3.8762302    1.0291088      8192000 
  261000   0.79597986   -3.8764053   -3.8764053   -2.8471982  0.026906941   -3.8764053     1.029207      8192000 
  262000   0.79638282   -3.8770533   -3.8770533   -2.8473252  0.023348056   -3.8770533    1.0297281      8192000 
  263000   0.79611684   -3.8767457   -3.8767457   -2.8473615  0.026755454   -3.8767457    1.0293842      8192000 
  264000   0.79584125   -3.8762235   -3.8762235   -2.8471957  0.026339709   -3.8762235    1.0290278      8192000 
  265000   0.79616641   -3.8763983   -3.8763983   -2.8469501  0.026217996   -3.8763983    1.0294482      8192000 
  266000   0.79601348   -3.8761214   -3.8761214   -2.8468709  0.026168714   -3.8761214    1.0292505      8192000 
  267000   0.79569642   -3.8759132   -3.8759132   -2.8470727  0.030140537   -3.8759132    1.0288405      8192000 
  268000    0.7959193   -3.8760703   -3.8760703   -2.8469416  0.026871704   -3.8760703    1.0291287      8192000 
  269000   0.79611226   -3.8761354   -3.8761354   -2.8467572  0.028815692   -3.8761354    1.0293782      8192000 
  270000   0.79613004   -3.8764458   -3.8764458   -2.8470445   0.02580912   -3.8764458    1.0294012      8192000 
  271000   0.79588439   -3.8760682   -3.8760682   -2.8469846  0.028715329   -3.8760682    1.0290836      8192000 
  272000   0.79611255   -3.8767844   -3.8767844   -2.8474058  0.025260123   -3.8767844    1.0293786      8192000 
  273000   0.79591106   -3.8760886   -3.8760886   -2.8469705  0.028663476   -3.8760886    1.0291181      8192000 
  274000   0.79630332   -3.8769024   -3.8769024   -2.8472771   0.02638304   -3.8769024    1.0296253      8192000 
  275000   0.79633964   -3.8764212   -3.8764212    -2.846749  0.027261864   -3.8764212    1.0296722      8192000 
  276000   0.79576867   -3.8761221   -3.8761221   -2.8471882  0.028458293   -3.8761221     1.028934      8192000 
  277000   0.79613781   -3.8762745   -3.8762745   -2.8468632  0.027609272   -3.8762745    1.0294113      8192000 
  278000   0.79594907   -3.8762633   -3.8762633   -2.8470961   0.02720338   -3.8762633    1.0291672      8192000 
  279000   0.79567807   -3.8756798   -3.8756798    -2.846863  0.029279884   -3.8756798    1.0288168      8192000 
  280000   0.79629328      -3.8766      -3.8766   -2.8469877  0.024173898      -3.8766    1.0296123      8192000 
  281000   0.79628914   -3.8766083   -3.8766083   -2.8470014  0.026187572   -3.8766083    1.0296069      8192000 
  282000    0.7958415   -3.8760001   -3.8760001    -2.846972  0.028814136   -3.8760001    1.0290281      8192000 
  283000   0.79582069    -3.876026    -3.876026   -2.8470248  0.030168808    -3.876026    1.0290012      8192000 
  284000   0.79577426   -3.8757456   -3.8757456   -2.8468044  0.029428145   -3.8757456    1.0289412      8192000 
  285000   0.79604288   -3.8762925   -3.8762925    -2.847004  0.027745651   -3.8762925    1.0292885      8192000 
  286000   0.79630062   -3.8765892   -3.8765892   -2.8469674  0.027063448   -3.8765892    1.0296218      8192000 
  287000   0.79635295   -3.8767546   -3.8767546   -2.8470652  0.027927178   -3.8767546    1.0296894      8192000 
  288000   0.79615289   -3.8763778   -3.8763778    -2.846947   0.02734013   -3.8763778    1.0294308      8192000 
  289000   0.79601011   -3.8764334   -3.8764334   -2.8471873  0.029220178   -3.8764334    1.0292462      8192000 
  290000   0.79595397   -3.8765543   -3.8765543   -2.8473808  0.027337694   -3.8765543    1.0291736      8192000 
  291000   0.79633286   -3.8769588   -3.8769588   -2.8472954  0.025689296   -3.8769588    1.0296635      8192000 
  292000   0.79587169   -3.8759733   -3.8759733   -2.8469061  0.027708163   -3.8759733    1.0290672      8192000 
  293000   0.79638504   -3.8770745   -3.8770745   -2.8473435  0.025306052   -3.8770745    1.0297309      8192000 
  294000   0.79622135   -3.8767095   -3.8767095   -2.8471902  0.028088971   -3.8767095    1.0295193      8192000 
  295000   0.79638744   -3.8766832   -3.8766832   -2.8469491  0.022821879   -3.8766832     1.029734      8192000 
  296000   0.79603056   -3.8763032   -3.8763032   -2.8470306  0.025645621   -3.8763032    1.0292726      8192000 
  297000    0.7966081   -3.8768614   -3.8768614    -2.846842  0.027220827   -3.8768614    1.0300194      8192000 
  298000   0.79592468    -3.876191    -3.876191   -2.8470554  0.029434882    -3.876191    1.0291357      8192000 
  299000   0.79580404   -3.8759669   -3.8759669   -2.8469872  0.027806885   -3.8759669    1.0289797      8192000 
  300000   0.79621385   -3.8764919   -3.8764919   -2.8469823  0.026495182   -3.8764919    1.0295096      8192000 
  301000   0.79605286   -3.8762853   -3.8762853   -2.8469839  0.026635536   -3.8762853    1.0293014      8192000 
  302000   0.79602544   -3.8765845   -3.8765845   -2.8473185  0.028101157   -3.8765845     1.029266      8192000 
  303000   0.79593523   -3.8767376   -3.8767376   -2.8475883  0.024675397   -3.8767376    1.0291493      8192000 
  304000    0.7965845    -3.876967    -3.876967   -2.8469782   0.02805049    -3.876967    1.0299888      8192000 
  305000    0.7960438   -3.8764306   -3.8764306   -2.8471409  0.027002354   -3.8764306    1.0292897      8192000 
  306000   0.79636567   -3.8769571   -3.8769571   -2.8472512  0.027302398   -3.8769571    1.0297059      8192000 
  307000   0.79632286   -3.8769387   -3.8769387   -2.8472882  0.030131023   -3.8769387    1.0296505      8192000 
  308000   0.79635482   -3.8767652   -3.8767652   -2.8470734  0.030989291   -3.8767652    1.0296919      8192000 
  309000   0.79645327   -3.8771133   -3.8771133   -2.8472941  0.027825732   -3.8771133    1.0298192      8192000 
  310000   0.79634857   -3.8770804   -3.8770804   -2.8473966  0.025532995   -3.8770804    1.0296838      8192000 
  311000   0.79624354   -3.8769919   -3.8769919    -2.847444  0.027349211   -3.8769919     1.029548      8192000 
  312000   0.79594973   -3.8764485   -3.8764485   -2.8472804  0.029016003   -3.8764485    1.0291681      8192000 
  313000   0.79649108   -3.8771904   -3.8771904   -2.8473223  0.027683895   -3.8771904     1.029868      8192000 
  314000   0.79614173   -3.8770093   -3.8770093    -2.847593  0.024788307   -3.8770093    1.0294163      8192000 
  315000   0.79603816   -3.8767515   -3.8767515   -2.8474691  0.028084921   -3.8767515    1.0292824      8192000 
  316000    0.7962871   -3.8769952   -3.8769952   -2.8473909  0.027251183   -3.8769952    1.0296043      8192000 
  317000      0.79602   -3.8764672   -3.8764672   -2.8472083  0.030008746   -3.8764672    1.0292589      8192000 
  318000    0.7963417   -3.8771252   -3.8771252   -2.8474503  0.029172304   -3.8771252    1.0296749      8192000 
  319000   0.79602969   -3.8764677   -3.8764677   -2.8471962  0.028078776   -3.8764677    1.0292715      8192000 
  320000   0.79581899    -3.876676    -3.876676    -2.847677  0.030325078    -3.876676     1.028999      8192000 
  321000   0.79577329   -3.8764423   -3.8764423   -2.8475024  0.028268414   -3.8764423    1.0289399      8192000 
  322000    0.7961623   -3.8768728   -3.8768728   -2.8474299  0.027314114   -3.8768728    1.0294429      8192000 
  323000   0.79591047   -3.8769175   -3.8769175   -2.8478002  0.025771374   -3.8769175    1.0291173      8192000 
  324000    0.7964535   -3.8771149   -3.8771149   -2.8472954  0.028048859   -3.8771149    1.0298195      8192000 
  325000   0.79591697   -3.8769461   -3.8769461   -2.8478203  0.030794013   -3.8769461    1.0291257      8192000 
  326000    0.7965911   -3.8774106   -3.8774106   -2.8474133  0.030043555   -3.8774106    1.0299974      8192000 
  327000   0.79689188   -3.8778126   -3.8778126   -2.8474263  0.026628048   -3.8778126    1.0303863      8192000 
  328000   0.79654856   -3.8773733   -3.8773733   -2.8474309  0.025840154   -3.8773733    1.0299424      8192000 
  329000   0.79658785   -3.8774187   -3.8774187   -2.8474256  0.031232365   -3.8774187    1.0299932      8192000 
  330000   0.79635404   -3.8769231   -3.8769231   -2.8472323  0.031921493   -3.8769231    1.0296908      8192000 
  331000   0.79643123   -3.8770172   -3.8770172   -2.8472266  0.029143576   -3.8770172    1.0297907      8192000 
  332000    0.7964327    -3.876958    -3.876958   -2.8471654  0.030339249    -3.876958    1.0297926      8192000 
  333000   0.79652551   -3.8772627   -3.8772627   -2.8473502  0.029769376   -3.8772627    1.0299126      8192000 
  334000   0.79622886   -3.8769296   -3.8769296   -2.8474006  0.029855875   -3.8769296     1.029529      8192000 
  335000   0.79640136   -3.8774148   -3.8774148   -2.8476628  0.028459452   -3.8774148     1.029752      8192000 
  336000   0.79637434   -3.8773896   -3.8773896   -2.8476725  0.029960341   -3.8773896    1.0297171      8192000 
  337000   0.79587019   -3.8769424   -3.8769424   -2.8478772  0.031105142   -3.8769424    1.0290652      8192000 
  338000   0.79602969   -3.8769172   -3.8769172   -2.8476457  0.029803495   -3.8769172    1.0292715      8192000 
  339000   0.79611211   -3.8770058   -3.8770058   -2.8476278  0.026509777   -3.8770058     1.029378      8192000 
  340000   0.79595402   -3.8767645   -3.8767645   -2.8475909  0.030750901   -3.8767645    1.0291736      8192000 
  341000   0.79639344   -3.8773113   -3.8773113   -2.8475695  0.025775932   -3.8773113    1.0297418      8192000 
  342000   0.79610222   -3.8768575   -3.8768575   -2.8474922  0.026922031   -3.8768575    1.0293652      8192000 
  343000   0.79616231   -3.8770394   -3.8770394   -2.8475964   0.02796586   -3.8770394    1.0294429      8192000 
  344000   0.79622182   -3.8771545   -3.8771545   -2.8476346  0.029018828   -3.8771545    1.0295199      8192000 
  345000   0.79623046    -3.876918    -3.876918    -2.847387  0.028332549    -3.876918    1.0295311      8192000 
  346000   0.79634819   -3.8769214   -3.8769214   -2.8472381  0.026290508   -3.8769214    1.0296833      8192000 
  347000   0.79659182   -3.8771555   -3.8771555   -2.8471572  0.027604105   -3.8771555    1.0299983      8192000 
  348000   0.79588207   -3.8762862   -3.8762862   -2.8472056   0.03116807   -3.8762862    1.0290806      8192000 
  349000   0.79617239   -3.8766187   -3.8766187   -2.8471627  0.027004922   -3.8766187     1.029456      8192000 
  350000   0.79599596   -3.8765677   -3.8765677   -2.8473398   0.02803983   -3.8765677    1.0292279      8192000 
  351000   0.79602114   -3.8763867   -3.8763867   -2.8471263  0.028393921   -3.8763867    1.0292604      8192000 
  352000   0.79583839    -3.876452    -3.876452   -2.8474279   0.02989011    -3.876452    1.0290241      8192000 
  353000   0.79631782   -3.8764106   -3.8764106   -2.8467666  0.029004935   -3.8764106     1.029644      8192000 
  354000   0.79643671   -3.8770266   -3.8770266   -2.8472289  0.024302005   -3.8770266    1.0297977      8192000 
  355000    0.7959631     -3.87641     -3.87641   -2.8472246   0.03288012     -3.87641    1.0291854      8192000 
  356000    0.7963771   -3.8767861   -3.8767861   -2.8470654  0.027715343   -3.8767861    1.0297207      8192000 
  357000   0.79618703   -3.8765873   -3.8765873   -2.8471124  0.027692062   -3.8765873    1.0294749      8192000 
  358000    0.7963343   -3.8765642   -3.8765642   -2.8468989  0.027753249   -3.8765642    1.0296653      8192000 
  359000   0.79615502   -3.8764914   -3.8764914   -2.8470579  0.031969483   -3.8764914    1.0294335      8192000 
  360000   0.79616035   -3.8766679   -3.8766679   -2.8472275  0.029357718   -3.8766679    1.0294404      8192000 
  361000   0.79597738   -3.8761894   -3.8761894   -2.8469856  0.030117366   -3.8761894    1.0292038      8192000 
  362000   0.79606491   -3.8764371   -3.8764371   -2.8471201   0.02862181   -3.8764371     1.029317      8192000 
  363000   0.79607119   -3.8765929   -3.8765929   -2.8472677   0.02621867   -3.8765929    1.0293251      8192000 
  364000   0.79602526   -3.8765733   -3.8765733   -2.8473076  0.024070619   -3.8765733    1.0292657      8192000 
  365000   0.79593318   -3.8764053   -3.8764053   -2.8472586  0.025911517   -3.8764053    1.0291467      8192000 
  366000   0.79573827   -3.8761426   -3.8761426   -2.8472479  0.024269717   -3.8761426    1.0288947      8192000 
  367000   0.79551199   -3.8755919   -3.8755919   -2.8469898  0.027220711   -3.8755919    1.0286021      8192000 
  368000   0.79580701   -3.8760926   -3.8760926   -2.8471091  0.027456091   -3.8760926    1.0289835      8192000 
  369000   0.79552359   -3.8755347   -3.8755347   -2.8469176  0.028139757   -3.8755347    1.0286171      8192000 
  370000   0.79542951   -3.8757126   -3.8757126   -2.8472171  0.026202672   -3.8757126    1.0284954      8192000 
  371000   0.79561522   -3.8758412   -3.8758412   -2.8471057  0.027749562   -3.8758412    1.0287356      8192000 
  372000   0.79601956   -3.8764334   -3.8764334    -2.847175  0.025404684   -3.8764334    1.0292584      8192000 
  373000   0.79621435   -3.8767493   -3.8767493   -2.8472391  0.026028121   -3.8767493    1.0295102      8192000 
  374000   0.79554191   -3.8757254   -3.8757254   -2.8470846   0.02372459   -3.8757254    1.0286408      8192000 
  375000    0.7957515   -3.8763403   -3.8763403   -2.8474285  0.026685162   -3.8763403    1.0289118      8192000 
  376000   0.79576207   -3.8761289   -3.8761289   -2.8472035  0.028344679   -3.8761289    1.0289254      8192000 
  377000   0.79552788   -3.8760147   -3.8760147    -2.847392  0.023918277   -3.8760147    1.0286226      8192000 
  378000   0.79562884   -3.8762481   -3.8762481   -2.8474949   0.02512951   -3.8762481    1.0287532      8192000 
  379000    0.7959516     -3.87617     -3.87617   -2.8469995  0.024741809     -3.87617    1.0291705      8192000 
  380000   0.79583638   -3.8759775   -3.8759775    -2.846956  0.028185331   -3.8759775    1.0290215      8192000 
  381000   0.79609471    -3.876598    -3.876598   -2.8472425  0.026329118    -3.876598    1.0293555      8192000 
  382000   0.79587121   -3.8762169   -3.8762169   -2.8471503  0.026617571   -3.8762169    1.0290666      8192000 
  383000   0.79610741   -3.8764265   -3.8764265   -2.8470545  0.026633724   -3.8764265     1.029372      8192000 
  384000   0.79572693   -3.8759333   -3.8759333   -2.8470533    0.0275076   -3.8759333      1.02888      8192000 
  385000   0.79563696   -3.8760061   -3.8760061   -2.8472425  0.029044503   -3.8760061    1.0287637      8192000 
  386000   0.79610441   -3.8762172   -3.8762172   -2.8468491  0.026193598   -3.8762172    1.0293681      8192000 
  387000   0.79566573   -3.8756501   -3.8756501   -2.8468492  0.026943078   -3.8756501    1.0288009      8192000 
  388000   0.79615411   -3.8757905   -3.8757905   -2.8463581  0.027861709   -3.8757905    1.0294323      8192000 
  389000   0.79638304   -3.8760385   -3.8760385   -2.8463101  0.028010712   -3.8760385    1.0297284      8192000 
  390000   0.79593646   -3.8757273   -3.8757273   -2.8465764  0.028172369   -3.8757273    1.0291509      8192000 
  391000   0.79637843   -3.8763119   -3.8763119   -2.8465896  0.024037928   -3.8763119    1.0297224      8192000 
  392000   0.79597265   -3.8757973   -3.8757973   -2.8465996  0.028121037   -3.8757973    1.0291977      8192000 
  393000   0.79627818   -3.8759445   -3.8759445   -2.8463517  0.027828692   -3.8759445    1.0295928      8192000 
  394000   0.79672581   -3.8765085   -3.8765085   -2.8463369  0.028835156   -3.8765085    1.0301716      8192000 
  395000   0.79653404   -3.8765125   -3.8765125   -2.8465889  0.026634516   -3.8765125    1.0299236      8192000 
  396000   0.79610503   -3.8758884   -3.8758884   -2.8465195  0.027805092   -3.8758884    1.0293689      8192000 
  397000   0.79610319   -3.8756908   -3.8756908   -2.8463243  0.028053787   -3.8756908    1.0293665      8192000 
  398000   0.79604181   -3.8760489   -3.8760489   -2.8467617  0.026038276   -3.8760489    1.0292871      8192000 
  399000   0.79654098   -3.8761533   -3.8761533   -2.8462207  0.026804697   -3.8761533    1.0299326      8192000 
  400000   0.79658755   -3.8761674   -3.8761674   -2.8461746  0.027344602   -3.8761674    1.0299928      8192000 
  401000   0.79669451   -3.8766195   -3.8766195   -2.8464885  0.028159956   -3.8766195    1.0301311      8192000 
  402000   0.79660517    -3.876192    -3.876192   -2.8461764  0.031230028    -3.876192    1.0300156      8192000 
  403000   0.79666641   -3.8763939   -3.8763939   -2.8462992  0.026226864   -3.8763939    1.0300947      8192000 
  404000    0.7963247   -3.8761729   -3.8761729     -2.84652  0.025882586   -3.8761729    1.0296529      8192000 
  405000   0.79675466   -3.8764145   -3.8764145   -2.8462057  0.028142851   -3.8764145    1.0302089      8192000 
  406000   0.79707499   -3.8766133   -3.8766133   -2.8459902  0.029881475   -3.8766133     1.030623      8192000 
  407000   0.79665126   -3.8765772   -3.8765772    -2.846502  0.029445116   -3.8765772    1.0300752      8192000 
  408000   0.79696098   -3.8768026   -3.8768026    -2.846327  0.031012457   -3.8768026    1.0304756      8192000 
  409000   0.79661265   -3.8767509   -3.8767509   -2.8467257  0.028294509   -3.8767509    1.0300252      8192000 
  410000   0.79631118     -3.87618     -3.87618   -2.8465445  0.030243216     -3.87618    1.0296354      8192000 
  411000   0.79601313   -3.8758781   -3.8758781   -2.8466281  0.031229055   -3.8758781      1.02925      8192000 
  412000   0.79623946   -3.8765152   -3.8765152   -2.8469725  0.028005603   -3.8765152    1.0295427      8192000 
  413000   0.79621948   -3.8764446   -3.8764446   -2.8469278  0.026612944   -3.8764446    1.0295169      8192000 
  414000   0.79603155   -3.8757114   -3.8757114   -2.8464375  0.026901478   -3.8757114    1.0292739      8192000 
  415000    0.7960845   -3.8758416   -3.8758416   -2.8464993  0.027811624   -3.8758416    1.0293423      8192000 
  416000   0.79586696   -3.8756759   -3.8756759   -2.8466148  0.027482022   -3.8756759     1.029061      8192000 
  417000   0.79553816   -3.8757217   -3.8757217   -2.8470858  0.028663215   -3.8757217    1.0286359      8192000 
  418000   0.79608212   -3.8757999   -3.8757999   -2.8464607  0.024465143   -3.8757999    1.0293393      8192000 
  419000   0.79623383   -3.8760355   -3.8760355   -2.8465001  0.024509452   -3.8760355    1.0295354      8192000 
  420000   0.79596682    -3.875578    -3.875578   -2.8463878  0.024888809    -3.875578    1.0291902      8192000 
  421000   0.79619409   -3.8761449   -3.8761449   -2.8466609  0.028705476   -3.8761449     1.029484      8192000 
  422000   0.79610597   -3.8760938   -3.8760938   -2.8467237  0.025190375   -3.8760938    1.0293701      8192000 
  423000   0.79624058   -3.8761695   -3.8761695   -2.8466253  0.026398716   -3.8761695    1.0295441      8192000 
  424000   0.79579934   -3.8758743   -3.8758743   -2.8469006  0.027028227   -3.8758743    1.0289736      8192000 
  425000   0.79634978   -3.8761879   -3.8761879   -2.8465026  0.026826062   -3.8761879    1.0296853      8192000 
  426000   0.79634289   -3.8760712   -3.8760712   -2.8463948  0.027439927   -3.8760712    1.0296764      8192000 
  427000   0.79626818   -3.8761162   -3.8761162   -2.8465363  0.026841941   -3.8761162    1.0295798      8192000 
  428000   0.79677039   -3.8762102   -3.8762102    -2.845981  0.027399481   -3.8762102    1.0302292      8192000 
  429000   0.79652664   -3.8759582   -3.8759582   -2.8460441  0.027950342   -3.8759582     1.029914      8192000 
  430000   0.79625236    -3.875667    -3.875667   -2.8461077  0.028281837    -3.875667    1.0295594      8192000 
  431000   0.79633159   -3.8762223   -3.8762223   -2.8465604  0.024774826   -3.8762223    1.0296618      8192000 
  432000   0.79630279   -3.8759443   -3.8759443   -2.8463197  0.026060719   -3.8759443    1.0296246      8192000 
  433000   0.79611196   -3.8755884   -3.8755884   -2.8462106  0.027575033   -3.8755884    1.0293778      8192000 
  434000   0.79611937   -3.8754465   -3.8754465    -2.846059  0.028394893   -3.8754465    1.0293874      8192000 
  435000   0.79606296   -3.8755947   -3.8755947   -2.8462802  0.027862414   -3.8755947    1.0293145      8192000 
  436000   0.79608957   -3.8755888   -3.8755888   -2.8462399  0.028461898   -3.8755888    1.0293489      8192000 
  437000   0.79635571   -3.8756934   -3.8756934   -2.8460003  0.025429586   -3.8756934     1.029693      8192000 
  438000   0.79650009   -3.8761346   -3.8761346   -2.8462549  0.025273296   -3.8761346    1.0298797      8192000 
  439000   0.79619061   -3.8755484   -3.8755484   -2.8460689  0.028445917   -3.8755484    1.0294795      8192000 
  440000   0.79599548   -3.8758048   -3.8758048   -2.8465776  0.026052178   -3.8758048    1.0292272      8192000 
  441000   0.79582021   -3.8754352   -3.8754352   -2.8464346  0.028446213   -3.8754352    1.0290006      8192000 
  442000   0.79581843   -3.8755487   -3.8755487   -2.8465504  0.027706665   -3.8755487    1.0289983      8192000 
  443000   0.79587406   -3.8756254   -3.8756254   -2.8465552  0.025853035   -3.8756254    1.0290702      8192000 
  444000   0.79583927   -3.8753042   -3.8753042   -2.8462789   0.02365593   -3.8753042    1.0290252      8192000 
  445000   0.79602341   -3.8755537   -3.8755537   -2.8462904  0.026381207   -3.8755537    1.0292633      8192000 
  446000   0.79587043    -3.875178    -3.875178   -2.8461125  0.030584263    -3.875178    1.0290655      8192000 
  447000   0.79587241   -3.8755568   -3.8755568   -2.8464887   0.02632542   -3.8755568    1.0290681      8192000 
  448000   0.79552677   -3.8752423   -3.8752423   -2.8466211  0.028282385   -3.8752423    1.0286212      8192000 
  449000   0.79609047   -3.8758814   -3.8758814   -2.8465314  0.028420778   -3.8758814    1.0293501      8192000 
  450000   0.79609781   -3.8759693   -3.8759693   -2.8466098  0.027728534   -3.8759693    1.0293595      8192000 
  451000   0.79670379   -3.8761485   -3.8761485   -2.8460054  0.028081058   -3.8761485    1.0301431      8192000 
  452000   0.79629363   -3.8758786   -3.8758786   -2.8462659  0.030547927   -3.8758786    1.0296127      8192000 
  453000    0.7964331   -3.8758186   -3.8758186   -2.8460255  0.026787151   -3.8758186    1.0297931      8192000 
  454000   0.79634501   -3.8762287   -3.8762287   -2.8465495  0.026284353   -3.8762287    1.0296792      8192000 
  455000   0.79668566   -3.8761489   -3.8761489   -2.8460292  0.027966007   -3.8761489    1.0301196      8192000 
  456000   0.79664258   -3.8764366   -3.8764366   -2.8463726  0.027662302   -3.8764366    1.0300639      8192000 
  457000   0.79650667   -3.8760268   -3.8760268   -2.8461386   0.02618087   -3.8760268    1.0298882      8192000 
  458000   0.79614687   -3.8757898   -3.8757898   -2.8463668  0.027950484   -3.8757898     1.029423      8192000 
  459000   0.79637468   -3.8759435   -3.8759435   -2.8462259  0.030666254   -3.8759435    1.0297175      8192000 
  460000   0.79685456    -3.876184    -3.876184   -2.8458459   0.03090267    -3.876184     1.030338      8192000 
  461000   0.79643581   -3.8757383   -3.8757383   -2.8459417  0.027541423   -3.8757383    1.0297966      8192000 
  462000   0.79677445   -3.8763061   -3.8763061   -2.8460717  0.030191454   -3.8763061    1.0302344      8192000 
  463000   0.79659413   -3.8760264   -3.8760264   -2.8460251  0.030067355   -3.8760264    1.0300013      8192000 
  464000   0.79603848   -3.8757337   -3.8757337   -2.8464508  0.030278346   -3.8757337    1.0292828      8192000 
  465000   0.79658862   -3.8759247   -3.8759247   -2.8459305   0.02765193   -3.8759247    1.0299942      8192000 
  466000   0.79660417   -3.8763005   -3.8763005   -2.8462862  0.028557237   -3.8763005    1.0300143      8192000 
  467000   0.79692305   -3.8763027   -3.8763027   -2.8458761  0.028298997   -3.8763027    1.0304266      8192000 
  468000   0.79669482   -3.8763078   -3.8763078   -2.8461764  0.029649899   -3.8763078    1.0301315      8192000 
  469000   0.79682727   -3.8760411   -3.8760411   -2.8457383  0.030301921   -3.8760411    1.0303027      8192000 
  470000   0.79651772   -3.8758118   -3.8758118   -2.8459093   0.02903581   -3.8758118    1.0299025      8192000 
  471000   0.79644578   -3.8758905   -3.8758905   -2.8460811    0.0289436   -3.8758905    1.0298095      8192000 
  472000    0.7961979   -3.8758944   -3.8758944   -2.8464055  0.032307507   -3.8758944     1.029489      8192000 
  473000   0.79625182   -3.8759622   -3.8759622   -2.8464035  0.027430421   -3.8759622    1.0295587      8192000 
  474000   0.79629832   -3.8759853   -3.8759853   -2.8463665  0.027646438   -3.8759853    1.0296188      8192000 
  475000     0.795941   -3.8757525   -3.8757525   -2.8465957  0.027291813   -3.8757525    1.0291568      8192000 
  476000   0.79589324   -3.8753449   -3.8753449   -2.8462499  0.030225793   -3.8753449     1.029095      8192000 
  477000   0.79592417   -3.8752411   -3.8752411   -2.8461061  0.028579425   -3.8752411     1.029135      8192000 
  478000   0.79598404   -3.8759252   -3.8759252   -2.8467128  0.026984933   -3.8759252    1.0292124      8192000 
  479000   0.79634385   -3.8755869   -3.8755869   -2.8459092  0.027623656   -3.8755869    1.0296777      8192000 
  480000    0.7960437   -3.8757723   -3.8757723   -2.8464827  0.029973042   -3.8757723    1.0292896      8192000 
  481000   0.79633407   -3.8758277   -3.8758277   -2.8461627  0.026995362   -3.8758277     1.029665      8192000 
  482000   0.79623193   -3.8756941   -3.8756941   -2.8461611  0.028701317   -3.8756941     1.029533      8192000 
  483000   0.79656147   -3.8760835   -3.8760835   -2.8461244  0.027808192   -3.8760835    1.0299591      8192000 
  484000   0.79656578   -3.8761747   -3.8761747     -2.84621  0.024440375   -3.8761747    1.0299646      8192000 
  485000   0.79649601   -3.8760344   -3.8760344     -2.84616  0.026167052   -3.8760344    1.0298744      8192000 
  486000   0.79633284   -3.8758817   -3.8758817   -2.8462183  0.028985147   -3.8758817    1.0296634      8192000 
  487000   0.79620874   -3.8753326   -3.8753326   -2.8458297  0.027742302   -3.8753326     1.029503      8192000 
  488000   0.79639653   -3.8757046   -3.8757046   -2.8459588  0.026959474   -3.8757046    1.0297458      8192000 
  489000    0.7971291   -3.8762387   -3.8762387   -2.8455457  0.025005132   -3.8762387     1.030693      8192000 
  490000    0.7961687   -3.8753815   -3.8753815   -2.8459302  0.025565971   -3.8753815    1.0294512      8192000 
  491000   0.79609566    -3.875638    -3.875638   -2.8462812  0.026110719    -3.875638    1.0293568      8192000 
  492000   0.79616997   -3.8757538   -3.8757538   -2.8463009  0.027444118   -3.8757538    1.0294528      8192000 
  493000   0.79639661   -3.8760486   -3.8760486   -2.8463027  0.025002322   -3.8760486    1.0297459      8192000 
  494000   0.79593029   -3.8752485   -3.8752485   -2.8461055  0.030259203   -3.8752485    1.0291429      8192000 
  495000   0.79583331   -3.8751527   -3.8751527   -2.8461351    0.0285813   -3.8751527    1.0290175      8192000 
  496000   0.79662587   -3.8760566   -3.8760566   -2.8460142  0.025550582   -3.8760566    1.0300423      8192000 
  497000   0.79647941   -3.8759445   -3.8759445   -2.8460915  0.024960162   -3.8759445     1.029853      8192000 
  498000   0.79614932   -3.8757418   -3.8757418   -2.8463157  0.024402311   -3.8757418    1.0294261      8192000 
  499000   0.79605716   -3.8754709   -3.8754709   -2.8461639  0.026317183   -3.8754709     1.029307      8192000 
  500000   0.79624295   -3.8756532   -3.8756532   -2.8461059   0.02652513   -3.8756532    1.0295472      8192000 
  501000   0.79605928   -3.8754858   -3.8754858   -2.8461761  0.024894454   -3.8754858    1.0293097      8192000 
  502000   0.79588319   -3.8751362   -3.8751362   -2.8460541  0.026971534   -3.8751362     1.029082      8192000 
  503000   0.79583018   -3.8753191   -3.8753191   -2.8463057  0.026436459   -3.8753191    1.0290135      8192000 
  504000   0.79625445   -3.8751588   -3.8751588   -2.8455967  0.027593698   -3.8751588    1.0295621      8192000 
  505000   0.79582499   -3.8752723   -3.8752723   -2.8462655  0.028383968   -3.8752723    1.0290068      8192000 
  506000   0.79621375   -3.8755606   -3.8755606   -2.8460511  0.028467573   -3.8755606    1.0295095      8192000 
  507000   0.79593379   -3.8751774   -3.8751774   -2.8460299  0.028102732   -3.8751774    1.0291475      8192000 
  508000   0.79654959    -3.876315    -3.876315   -2.8463713   0.02161555    -3.876315    1.0299437      8192000 
  509000     0.796628   -3.8759477   -3.8759477   -2.8459026  0.026286017   -3.8759477    1.0300451      8192000 
  510000   0.79629661   -3.8757403   -3.8757403   -2.8461237  0.027596065   -3.8757403    1.0296166      8192000 
  511000   0.79620364   -3.8754336   -3.8754336   -2.8459373  0.025915718   -3.8754336    1.0294964      8192000 
  512000   0.79625607   -3.8760408   -3.8760408   -2.8464767  0.031333501   -3.8760408    1.0295642      8192000 
  513000    0.7958137   -3.8754865   -3.8754865   -2.8464943  0.026076397   -3.8754865    1.0289922      8192000 
  514000   0.79614111   -3.8753723   -3.8753723   -2.8459568  0.029487131   -3.8753723    1.0294155      8192000 
  515000   0.79654639   -3.8758335   -3.8758335    -2.845894  0.027833765   -3.8758335    1.0299396      8192000 
  516000   0.79621088   -3.8753404   -3.8753404   -2.8458346  0.030294617   -3.8753404    1.0295057      8192000 
  517000   0.79577148   -3.8751071   -3.8751071   -2.8461695  0.028046654   -3.8751071    1.0289376      8192000 
  518000   0.79624523   -3.8756429   -3.8756429   -2.8460927  0.029208889   -3.8756429    1.0295502      8192000 
  519000   0.79610733   -3.8754397   -3.8754397   -2.8460678  0.025921518   -3.8754397    1.0293719      8192000 
  520000   0.79672011   -3.8759785   -3.8759785   -2.8458143  0.028475309   -3.8759785    1.0301642      8192000 
  521000   0.79630449   -3.8756931   -3.8756931   -2.8460663   0.02509609   -3.8756931    1.0296268      8192000 
  522000   0.79652162   -3.8759149   -3.8759149   -2.8460074  0.026756813   -3.8759149    1.0299075      8192000 
  523000   0.79629051   -3.8754613   -3.8754613   -2.8458526  0.027796241   -3.8754613    1.0296087      8192000 
  524000   0.79624506   -3.8757659   -3.8757659   -2.8462159  0.027675225   -3.8757659    1.0295499      8192000 
  525000   0.79602396   -3.8751713   -3.8751713   -2.8459072  0.031790548   -3.8751713    1.0292641      8192000 
  526000   0.79640296   -3.8759727   -3.8759727   -2.8462186  0.031715766   -3.8759727    1.0297541      8192000 
  527000   0.79643395   -3.8759579   -3.8759579   -2.8461637  0.030412403   -3.8759579    1.0297942      8192000 
  528000   0.79675882   -3.8759784   -3.8759784   -2.8457642  0.027804916   -3.8759784    1.0302142      8192000 
  529000   0.79636941   -3.8756679   -3.8756679   -2.8459572  0.028632517   -3.8756679    1.0297107      8192000 
  530000   0.79647164   -3.8763707   -3.8763707   -2.8465278  0.026584254   -3.8763707    1.0298429      8192000 
  531000   0.79620716    -3.875544    -3.875544   -2.8460431  0.031942347    -3.875544    1.0295009      8192000 
  532000   0.79636982   -3.8758902   -3.8758902    -2.846179   0.02767214   -3.8758902    1.0297113      8192000 
  533000   0.79619863   -3.8758376   -3.8758376   -2.8463477  0.028984437   -3.8758376    1.0294899      8192000 
  534000   0.79669395   -3.8760022   -3.8760022   -2.8458719  0.030857156   -3.8760022    1.0301304      8192000 
  535000   0.79634334   -3.8757884   -3.8757884   -2.8461114  0.027971955   -3.8757884     1.029677      8192000 
  536000   0.79661849   -3.8760683   -3.8760683   -2.8460355  0.029399271   -3.8760683    1.0300328      8192000 
  537000   0.79686246   -3.8765704   -3.8765704   -2.8462222  0.027914903   -3.8765704    1.0303482      8192000 
  538000   0.79660726   -3.8758065   -3.8758065   -2.8457882     0.030943   -3.8758065    1.0300183      8192000 
  539000   0.79701874   -3.8762564   -3.8762564   -2.8457061  0.029472283   -3.8762564    1.0305503      8192000 
  540000   0.79662559   -3.8757272   -3.8757272   -2.8456852  0.028614701   -3.8757272     1.030042      8192000 
  541000   0.79679328   -3.8759167   -3.8759167   -2.8456579  0.028014159   -3.8759167    1.0302588      8192000 
  542000   0.79658091   -3.8758821   -3.8758821    -2.845898  0.028701604   -3.8758821    1.0299842      8192000 
  543000   0.79667746   -3.8760073   -3.8760073   -2.8458983  0.029358546   -3.8760073     1.030109      8192000 
  544000   0.79689718   -3.8759851   -3.8759851   -2.8455919  0.030502371   -3.8759851    1.0303931      8192000 
  545000   0.79611967   -3.8754754   -3.8754754   -2.8460876  0.028340858   -3.8754754    1.0293878      8192000 
  546000   0.79666021   -3.8759505   -3.8759505   -2.8458637   0.02994002   -3.8759505    1.0300867      8192000 
  547000   0.79654073   -3.8760329   -3.8760329   -2.8461007   0.02864547   -3.8760329    1.0299322      8192000 
  548000   0.79669813    -3.876188    -3.876188   -2.8460522  0.026824034    -3.876188    1.0301358      8192000 
  549000   0.79628553   -3.8755274   -3.8755274   -2.8459251  0.027906411   -3.8755274    1.0296023      8192000 
  550000   0.79600528   -3.8753924   -3.8753924   -2.8461525  0.028998999   -3.8753924    1.0292399      8192000 
  551000   0.79624277   -3.8752917   -3.8752917   -2.8457447  0.030038831   -3.8752917     1.029547      8192000 
  552000   0.79603002   -3.8753961   -3.8753961   -2.8461242  0.031158517   -3.8753961    1.0292719      8192000 
  553000   0.79605431   -3.8756732   -3.8756732   -2.8463699  0.025322925   -3.8756732    1.0293033      8192000 
  554000   0.79629432   -3.8758708   -3.8758708   -2.8462572  0.027304005   -3.8758708    1.0296136      8192000 
  555000   0.79587606   -3.8754134   -3.8754134   -2.8463405  0.026811999   -3.8754134    1.0290728      8192000 
  556000    0.7959909   -3.8752998   -3.8752998   -2.8460785  0.027753076   -3.8752998    1.0292213      8192000 
  557000   0.79573145   -3.8748973   -3.8748973   -2.8460115  0.028530375   -3.8748973    1.0288858      8192000 
  558000   0.79601171   -3.8752482   -3.8752482       -2.846  0.028221442   -3.8752482    1.0292482      8192000 
  559000   0.79588228   -3.8753519   -3.8753519    -2.846271  0.025744544   -3.8753519    1.0290809      8192000 
  560000   0.79639317    -3.875575    -3.875575   -2.8458336   0.02442143    -3.875575    1.0297415      8192000 
  561000   0.79617051   -3.8755017   -3.8755017   -2.8460482  0.026588664   -3.8755017    1.0294535      8192000 
  562000   0.79660148   -3.8756518   -3.8756518    -2.845641  0.025424638   -3.8756518    1.0300108      8192000 
  563000   0.79627148   -3.8757286   -3.8757286   -2.8461445  0.025382659   -3.8757286    1.0295841      8192000 
  564000   0.79606714   -3.8750164   -3.8750164   -2.8456965  0.030441625   -3.8750164    1.0293199      8192000 
  565000   0.79619914   -3.8756181   -3.8756181   -2.8461275  0.026940212   -3.8756181    1.0294906      8192000 
  566000   0.79565242   -3.8743491   -3.8743491   -2.8455655   0.02693911   -3.8743491    1.0287837      8192000 
  567000   0.79612208   -3.8748824   -3.8748824   -2.8454914  0.029713637   -3.8748824    1.0293909      8192000 
  568000   0.79651418   -3.8754015   -3.8754015   -2.8455036  0.026348355   -3.8754015    1.0298979      8192000 
  569000   0.79633078   -3.8753323   -3.8753323   -2.8456716  0.028141929   -3.8753323    1.0296608      8192000 
  570000   0.79613306   -3.8754927   -3.8754927   -2.8460876  0.028528041   -3.8754927    1.0294051      8192000 
  571000   0.79612896   -3.8749409   -3.8749409    -2.845541  0.032418807   -3.8749409    1.0293998      8192000 
  572000   0.79664109   -3.8756198   -3.8756198   -2.8455578  0.029791845   -3.8756198     1.030062      8192000 
  573000   0.79639387   -3.8750538   -3.8750538   -2.8453115  0.029715573   -3.8750538    1.0297424      8192000 
  574000   0.79610635   -3.8750436   -3.8750436    -2.845673  0.028821756   -3.8750436    1.0293706      8192000 
  575000    0.7961655   -3.8749305   -3.8749305   -2.8454835  0.029057055   -3.8749305    1.0294471      8192000 
  576000   0.79633936   -3.8752059   -3.8752059    -2.845534  0.030806696   -3.8752059    1.0296719      8192000 
  577000   0.79609946   -3.8751216   -3.8751216   -2.8457599  0.027643319   -3.8751216    1.0293617      8192000 
  578000   0.79564414   -3.8743508   -3.8743508   -2.8455778  0.030630358   -3.8743508     1.028773      8192000 
  579000    0.7960685   -3.8751321   -3.8751321   -2.8458105  0.029123349   -3.8751321    1.0293216      8192000 
  580000   0.79656181   -3.8755606   -3.8755606   -2.8456011   0.02772976   -3.8755606    1.0299595      8192000 
  581000   0.79681206   -3.8754868   -3.8754868   -2.8452037  0.024990984   -3.8754868    1.0302831      8192000 
  582000   0.79605992   -3.8749356   -3.8749356    -2.845625  0.026910939   -3.8749356    1.0293105      8192000 
  583000   0.79611778   -3.8749138   -3.8749138   -2.8455284  0.031111813   -3.8749138    1.0293854      8192000 
  584000   0.79636769   -3.8753595   -3.8753595    -2.845651  0.028207827   -3.8753595    1.0297085      8192000 
  585000   0.79657373   -3.8754875   -3.8754875   -2.8455126  0.028458906   -3.8754875    1.0299749      8192000 
  586000   0.79617567   -3.8752752   -3.8752752    -2.845815   0.02860512   -3.8752752    1.0294602      8192000 
  587000    0.7961643    -3.875055    -3.875055   -2.8456095   0.02923735    -3.875055    1.0294455      8192000 
  588000   0.79616132    -3.874866    -3.874866   -2.8454244  0.028403697    -3.874866    1.0294417      8192000 
  589000   0.79619206   -3.8752896   -3.8752896   -2.8458081  0.026742098   -3.8752896    1.0294814      8192000 
  590000   0.79576224   -3.8744246   -3.8744246   -2.8454989  0.030207436   -3.8744246    1.0289256      8192000 
  591000   0.79619957   -3.8753788   -3.8753788   -2.8458877  0.026483084   -3.8753788    1.0294911      8192000 
  592000   0.79612709   -3.8745306   -3.8745306   -2.8451332  0.025785561   -3.8745306    1.0293974      8192000 
  593000   0.79594211   -3.8750155   -3.8750155   -2.8458573  0.027545083   -3.8750155    1.0291582      8192000 
  594000   0.79654225   -3.8754232   -3.8754232    -2.845489  0.027979856   -3.8754232    1.0299342      8192000 
  595000   0.79641514   -3.8749886   -3.8749886   -2.8452187  0.028676092   -3.8749886    1.0297698      8192000 
  596000   0.79614811   -3.8750204   -3.8750204   -2.8455958  0.030503606   -3.8750204    1.0294246      8192000 
  597000   0.79605479   -3.8748544   -3.8748544   -2.8455505  0.029805783   -3.8748544    1.0293039      8192000 
  598000   0.79631325   -3.8750777   -3.8750777   -2.8454396  0.027997637   -3.8750777    1.0296381      8192000 
  599000   0.79611208   -3.8747008   -3.8747008   -2.8453228     0.029758   -3.8747008     1.029378      8192000 
  600000   0.79602343   -3.8748871   -3.8748871   -2.8456237  0.027193316   -3.8748871    1.0292634      8192000 
  601000   0.79640123    -3.875285    -3.875285   -2.8455331  0.024541586    -3.875285    1.0297519      8192000 
  602000   0.79608401   -3.8747211   -3.8747211   -2.8453794  0.029170892   -3.8747211    1.0293417      8192000 
  603000   0.79566796   -3.8747401   -3.8747401   -2.8459364  0.029487424   -3.8747401    1.0288037      8192000 
  604000   0.79592601   -3.8747541   -3.8747541   -2.8456167  0.030150398   -3.8747541    1.0291374      8192000 
  605000     0.796284   -3.8753206   -3.8753206   -2.8457203   0.02656812   -3.8753206    1.0296003      8192000 
  606000   0.79594265    -3.874641    -3.874641   -2.8454821  0.028852417    -3.874641    1.0291589      8192000 
  607000   0.79614142   -3.8749132   -3.8749132   -2.8454973  0.028291748   -3.8749132    1.0294159      8192000 
  608000    0.7961363   -3.8745724   -3.8745724   -2.8451631  0.031854971   -3.8745724    1.0294093      8192000 
  609000   0.79624429   -3.8748273   -3.8748273   -2.8452784  0.026790376   -3.8748273    1.0295489      8192000 
  610000   0.79592111   -3.8742673   -3.8742673   -2.8451362  0.030252249   -3.8742673    1.0291311      8192000 
  611000   0.79597609   -3.8747093   -3.8747093   -2.8455071  0.026647788   -3.8747093    1.0292022      8192000 
  612000   0.79609065   -3.8748866   -3.8748866   -2.8455363  0.027506635   -3.8748866    1.0293503      8192000 
  613000   0.79624616   -3.8751642   -3.8751642   -2.8456128  0.025570703   -3.8751642    1.0295514      8192000 
  614000   0.79614758   -3.8751726   -3.8751726   -2.8457487  0.025789212   -3.8751726    1.0294239      8192000 
  615000    0.7958977   -3.8748484   -3.8748484   -2.8457476  0.026227414   -3.8748484    1.0291008      8192000 
  616000   0.79604201    -3.874673    -3.874673   -2.8453856  0.027138219    -3.874673    1.0292874      8192000 
  617000   0.79617081     -3.87487     -3.87487   -2.8454161  0.027447737     -3.87487    1.0294539      8192000 
  618000    0.7960405   -3.8747794   -3.8747794   -2.8454939  0.027322679   -3.8747794    1.0292854      8192000 
  619000   0.79651894   -3.8753615   -3.8753615   -2.8454575  0.029937478   -3.8753615    1.0299041      8192000 
  620000   0.79626409   -3.8748342   -3.8748342   -2.8452597  0.027701274   -3.8748342    1.0295745      8192000 
  621000   0.79652011   -3.8752681   -3.8752681   -2.8453625  0.028439762   -3.8752681    1.0299056      8192000 
  622000   0.79665948   -3.8752968   -3.8752968    -2.845211  0.025454454   -3.8752968    1.0300858      8192000 
  623000   0.79631004   -3.8747825   -3.8747825   -2.8451486  0.029404473   -3.8747825     1.029634      8192000 
  624000   0.79661797    -3.875219    -3.875219   -2.8451869  0.028459615    -3.875219    1.0300321      8192000 
  625000    0.7965409   -3.8752536   -3.8752536   -2.8453211  0.029092602   -3.8752536    1.0299325      8192000 
  626000   0.79643162   -3.8750644   -3.8750644   -2.8452732  0.028622662   -3.8750644    1.0297912      8192000 
  627000   0.79639881     -3.87494     -3.87494   -2.8451912  0.031900294     -3.87494    1.0297487      8192000 
  628000   0.79642832   -3.8753584   -3.8753584   -2.8455715   0.02852578   -3.8753584    1.0297869      8192000 
  629000   0.79663596   -3.8757598   -3.8757598   -2.8457044  0.028994033   -3.8757598    1.0300554      8192000 
  630000   0.79640178   -3.8754088   -3.8754088   -2.8456562  0.030271428   -3.8754088    1.0297526      8192000 
  631000    0.7963499   -3.8749647   -3.8749647   -2.8452792  0.028976812   -3.8749647    1.0296855      8192000 
  632000   0.79674016   -3.8754174   -3.8754174   -2.8452273  0.027979787   -3.8754174    1.0301901      8192000 
  633000   0.79662583   -3.8754623   -3.8754623     -2.84542  0.027705881   -3.8754623    1.0300423      8192000 
  634000   0.79671837   -3.8753379   -3.8753379    -2.845176  0.029728532   -3.8753379    1.0301619      8192000 
  635000   0.79646902   -3.8753523   -3.8753523   -2.8455128  0.028607235   -3.8753523    1.0298395      8192000 
  636000   0.79646791   -3.8750862   -3.8750862   -2.8452481  0.029639208   -3.8750862    1.0298381      8192000 
  637000   0.79684463   -3.8757439   -3.8757439   -2.8454187  0.026478464   -3.8757439    1.0303252      8192000 
  638000   0.79673378   -3.8755988   -3.8755988    -2.845417  0.028488096   -3.8755988    1.0301819      8192000 
  639000   0.79639644   -3.8749798   -3.8749798   -2.8452342  0.028966067   -3.8749798    1.0297457      8192000 
  640000   0.79684983   -3.8755829   -3.8755829    -2.845251  0.029488626   -3.8755829    1.0303319      8192000 
  641000   0.79645741   -3.8752158   -3.8752158   -2.8453913  0.030000378   -3.8752158    1.0298245      8192000 
  642000   0.79622545   -3.8748371   -3.8748371   -2.8453126  0.033105386   -3.8748371    1.0295246      8192000 
  643000   0.79682333   -3.8754942   -3.8754942   -2.8451965  0.029278585   -3.8754942    1.0302976      8192000 
  644000   0.79618479   -3.8749622   -3.8749622   -2.8454902  0.029161549   -3.8749622     1.029472      8192000 
  645000   0.79626503   -3.8755925   -3.8755925   -2.8460168  0.027469861   -3.8755925    1.0295758      8192000 
  646000   0.79623587    -3.874969    -3.874969    -2.845431   0.02818853    -3.874969    1.0295381      8192000 
  647000    0.7964599   -3.8754705   -3.8754705   -2.8456428  0.027487147   -3.8754705    1.0298277      8192000 
  648000    0.7963346   -3.8750915   -3.8750915   -2.8454258  0.029385873   -3.8750915    1.0296657      8192000 
  649000   0.79598052   -3.8745631   -3.8745631   -2.8453552  0.029464697   -3.8745631    1.0292079      8192000 
  650000   0.79605697   -3.8747718   -3.8747718   -2.8454651  0.026714046   -3.8747718    1.0293067      8192000 
  651000   0.79675163   -3.8755595   -3.8755595   -2.8453545  0.026908741   -3.8755595    1.0302049      8192000 
  652000   0.79622644   -3.8749331   -3.8749331   -2.8454073  0.029049675   -3.8749331    1.0295259      8192000 
  653000   0.79609107   -3.8750196   -3.8750196   -2.8456688  0.029474811   -3.8750196    1.0293508      8192000 
  654000   0.79646317   -3.8753174   -3.8753174   -2.8454855  0.028939314   -3.8753174     1.029832      8192000 
  655000   0.79628377   -3.8753289   -3.8753289   -2.8457289  0.028405182   -3.8753289       1.0296      8192000 
  656000   0.79603196    -3.875089    -3.875089   -2.8458146  0.025799994    -3.875089    1.0292744      8192000 
  657000   0.79610247   -3.8751118   -3.8751118   -2.8457463  0.028472733   -3.8751118    1.0293656      8192000 
  658000    0.7961914   -3.8750554   -3.8750554   -2.8455749  0.028222842   -3.8750554    1.0294806      8192000 
  659000   0.79587066   -3.8751284   -3.8751284   -2.8460626  0.030114936   -3.8751284    1.0290658      8192000 
  660000   0.79599809   -3.8747695   -3.8747695   -2.8455389  0.029512089   -3.8747695    1.0292306      8192000 
  661000   0.79653036   -3.8753353   -3.8753353   -2.8454165  0.027229416   -3.8753353    1.0299188      8192000 
  662000   0.79556248   -3.8744134   -3.8744134   -2.8457461  0.027245352   -3.8744134    1.0286674      8192000 
  663000   0.79628541   -3.8752151   -3.8752151    -2.845613  0.024857964   -3.8752151    1.0296021      8192000 
  664000   0.79608039   -3.8743504   -3.8743504   -2.8450134  0.028840434   -3.8743504     1.029337      8192000 
  665000   0.79653799   -3.8752448   -3.8752448   -2.8453161  0.025468341   -3.8752448    1.0299287      8192000 
  666000   0.79630262   -3.8751106   -3.8751106   -2.8454863  0.028095165   -3.8751106    1.0296244      8192000 
  667000    0.7958601   -3.8743015   -3.8743015   -2.8452493  0.029982376   -3.8743015    1.0290522      8192000 
  668000   0.79603189   -3.8746189   -3.8746189   -2.8453446  0.026061074   -3.8746189    1.0292743      8192000 
  669000   0.79607131   -3.8746831   -3.8746831   -2.8453579  0.027849044   -3.8746831    1.0293253      8192000 
  670000    0.7961776   -3.8746908   -3.8746908    -2.845228  0.027905758   -3.8746908    1.0294627      8192000 
  671000    0.7961634   -3.8750239   -3.8750239   -2.8455796  0.028866448   -3.8750239    1.0294443      8192000 
  672000   0.79646112   -3.8753397   -3.8753397   -2.8455104  0.029398056   -3.8753397    1.0298293      8192000 
  673000   0.79621419   -3.8749024   -3.8749024   -2.8453924   0.03038307   -3.8749024      1.02951      8192000 
  674000   0.79627949   -3.8750112   -3.8750112   -2.8454167  0.031186176   -3.8750112    1.0295945      8192000 
  675000   0.79638135    -3.875083    -3.875083   -2.8453569  0.027127513    -3.875083    1.0297262      8192000 
  676000   0.79625156   -3.8753932   -3.8753932   -2.8458348  0.025507551   -3.8753932    1.0295583      8192000 
  677000   0.79644747   -3.8754527   -3.8754527    -2.845641  0.029548527   -3.8754527    1.0298117      8192000 
  678000   0.79609723   -3.8752328   -3.8752328    -2.845874  0.027947357   -3.8752328    1.0293588      8192000 
  679000   0.79634749   -3.8749237   -3.8749237   -2.8452413  0.027838059   -3.8749237    1.0296824      8192000 
  680000   0.79640145   -3.8751901   -3.8751901    -2.845438   0.02960705   -3.8751901    1.0297522      8192000 
  681000   0.79659761   -3.8752527   -3.8752527   -2.8452469  0.028676326   -3.8752527    1.0300058      8192000 
  682000   0.79633488   -3.8750608   -3.8750608   -2.8453947  0.027877922   -3.8750608    1.0296661      8192000 
  683000   0.79613787   -3.8749918   -3.8749918   -2.8455805  0.029316274   -3.8749918    1.0294113      8192000 
  684000   0.79598382   -3.8743024   -3.8743024   -2.8450903  0.028942823   -3.8743024    1.0292122      8192000 
  685000     0.795739   -3.8743716   -3.8743716    -2.845476  0.027734179   -3.8743716    1.0288956      8192000 
  686000   0.79664601   -3.8754652   -3.8754652   -2.8453968  0.027654247   -3.8754652    1.0300684      8192000 
  687000   0.79589725   -3.8746077   -3.8746077   -2.8455075  0.030332718   -3.8746077    1.0291002      8192000 
  688000   0.79652028    -3.875632    -3.875632   -2.8457262  0.028595406    -3.875632    1.0299058      8192000 
  689000   0.79634708     -3.87534     -3.87534   -2.8456582  0.029524294     -3.87534    1.0296819      8192000 
  690000   0.79648814   -3.8750469   -3.8750469   -2.8451827  0.028106219   -3.8750469    1.0298642      8192000 
  691000   0.79683053   -3.8756812   -3.8756812   -2.8453743  0.028133393   -3.8756812     1.030307      8192000 
  692000   0.79601032   -3.8748281   -3.8748281   -2.8455817  0.028842458   -3.8748281    1.0292464      8192000 
  693000   0.79670572   -3.8754693   -3.8754693   -2.8453238   0.02866869   -3.8754693    1.0301456      8192000 
  694000   0.79665749   -3.8754324   -3.8754324   -2.8453492   0.02996637   -3.8754324    1.0300832      8192000 
  695000   0.79679693   -3.8753367   -3.8753367   -2.8450732  0.031438412   -3.8753367    1.0302635      8192000 
  696000   0.79641981   -3.8754008   -3.8754008   -2.8456249  0.026788823   -3.8754008    1.0297759      8192000 
  697000   0.79606697   -3.8749585   -3.8749585   -2.8456389  0.031050272   -3.8749585    1.0293197      8192000 
  698000   0.79626126   -3.8749943   -3.8749943   -2.8454234  0.030820923   -3.8749943    1.0295709      8192000 
  699000   0.79650365   -3.8752078   -3.8752078   -2.8453235  0.028742049   -3.8752078    1.0298843      8192000 
  700000   0.79665078    -3.875319    -3.875319   -2.8452444  0.026517969    -3.875319    1.0300745      8192000 
  701000   0.79698259    -3.875738    -3.875738   -2.8452345  0.029680988    -3.875738    1.0305036      8192000 
  702000   0.79681542   -3.8755298   -3.8755298   -2.8452424    0.0294336   -3.8755298    1.0302874      8192000 
  703000   0.79667955   -3.8753564   -3.8753564   -2.8452447  0.028922276   -3.8753564    1.0301117      8192000 
  704000   0.79721673   -3.8757484   -3.8757484   -2.8449421   0.02762204   -3.8757484    1.0308063      8192000 
  705000   0.79699292   -3.8755342   -3.8755342   -2.8450173  0.029559452   -3.8755342    1.0305169      8192000 
  706000   0.79657848    -3.875225    -3.875225   -2.8452439  0.028301665    -3.875225    1.0299811      8192000 
  707000   0.79647121   -3.8745693   -3.8745693   -2.8447269  0.029101178   -3.8745693    1.0298424      8192000 
  708000   0.79658923   -3.8749238   -3.8749238   -2.8449288  0.029836683   -3.8749238     1.029995      8192000 
  709000   0.79680177      -3.8753      -3.8753   -2.8450303  0.027334528      -3.8753    1.0302698      8192000 
  710000   0.79668439   -3.8752883   -3.8752883   -2.8451703  0.028729438   -3.8752883     1.030118      8192000 
  711000   0.79663155   -3.8747198   -3.8747198   -2.8446701  0.030573978   -3.8747198    1.0300497      8192000 
  712000   0.79654506   -3.8746958   -3.8746958    -2.844758  0.031051941   -3.8746958    1.0299378      8192000 
  713000   0.79648552     -3.87488     -3.87488   -2.8450191  0.028367915     -3.87488    1.0298609      8192000 
  714000    0.7963841   -3.8749295   -3.8749295   -2.8451998  0.028562835   -3.8749295    1.0297297      8192000 
  715000   0.79661327    -3.874673    -3.874673   -2.8446469  0.028832872    -3.874673     1.030026      8192000 
  716000   0.79643386    -3.874861    -3.874861   -2.8450669  0.028765509    -3.874861    1.0297941      8192000 
  717000   0.79655448   -3.8750673   -3.8750673   -2.8451173  0.028378589   -3.8750673      1.02995      8192000 
  718000   0.79687096   -3.8754755   -3.8754755   -2.8451163  0.027512087   -3.8754755    1.0303592      8192000 
  719000   0.79705968   -3.8756834   -3.8756834   -2.8450802   0.02569781   -3.8756834    1.0306032      8192000 
  720000   0.79667886   -3.8748338   -3.8748338   -2.8447229   0.02838432   -3.8748338    1.0301108      8192000 
  721000    0.7965905    -3.875153    -3.875153   -2.8451564  0.026727816    -3.875153    1.0299966      8192000 
  722000   0.79631177   -3.8744796   -3.8744796   -2.8448434  0.030098058   -3.8744796    1.0296362      8192000 
  723000   0.79657909   -3.8751432   -3.8751432   -2.8451614  0.029313814   -3.8751432    1.0299818      8192000 
  724000   0.79655588   -3.8750473   -3.8750473   -2.8450955  0.026638021   -3.8750473    1.0299518      8192000 
  725000   0.79622026   -3.8743774   -3.8743774   -2.8448596  0.029679142   -3.8743774    1.0295179      8192000 
  726000   0.79640981   -3.8741705   -3.8741705   -2.8444076  0.026244049   -3.8741705     1.029763      8192000 
  727000    0.7963974   -3.8746524   -3.8746524   -2.8449055  0.025296813   -3.8746524    1.0297469      8192000 
  728000   0.79642456   -3.8743517   -3.8743517   -2.8445696  0.029308392   -3.8743517     1.029782      8192000 
  729000   0.79658789   -3.8746398   -3.8746398   -2.8446466  0.026303566   -3.8746398    1.0299932      8192000 
  730000   0.79640692   -3.8746761   -3.8746761   -2.8449169  0.027186226   -3.8746761    1.0297592      8192000 
  731000    0.7963865   -3.8745336   -3.8745336   -2.8448008  0.027604549   -3.8745336    1.0297328      8192000 
  732000   0.79668644   -3.8748259   -3.8748259   -2.8447052  0.027985595   -3.8748259    1.0301206      8192000 
  733000   0.79642306   -3.8747248   -3.8747248   -2.8449447  0.027416968   -3.8747248    1.0297801      8192000 
  734000   0.79649085   -3.8748227   -3.8748227    -2.844955  0.027096813   -3.8748227    1.0298678      8192000 
  735000   0.79613966   -3.8739526   -3.8739526   -2.8445389   0.03159394   -3.8739526    1.0294137      8192000 
  736000   0.79633232   -3.8743625   -3.8743625   -2.8446997  0.027094682   -3.8743625    1.0296628      8192000 
  737000   0.79650273   -3.8749232   -3.8749232     -2.84504  0.026534892   -3.8749232    1.0298831      8192000 
  738000   0.79633985   -3.8743933   -3.8743933   -2.8447208  0.026688306   -3.8743933    1.0296725      8192000 
  739000   0.79624306   -3.8741472   -3.8741472   -2.8445998  0.027134579   -3.8741472    1.0295474      8192000 
  740000   0.79603326   -3.8741616   -3.8741616   -2.8448855  0.028631393   -3.8741616    1.0292761      8192000 
  741000   0.79603015   -3.8739328   -3.8739328   -2.8446608  0.026970327   -3.8739328    1.0292721      8192000 
  742000   0.79587264   -3.8735565   -3.8735565   -2.8444881  0.025058153   -3.8735565    1.0290684      8192000 
  743000   0.79643877   -3.8740449   -3.8740449   -2.8442445  0.024207587   -3.8740449    1.0298004      8192000 
  744000    0.7961925   -3.8739899   -3.8739899    -2.844508  0.027037143   -3.8739899     1.029482      8192000 
  745000   0.79585853   -3.8736774   -3.8736774   -2.8446273  0.027704123   -3.8736774    1.0290501      8192000 
  746000    0.7963707   -3.8740854   -3.8740854    -2.844373  0.025685901   -3.8740854    1.0297124      8192000 
  747000   0.79615528    -3.873946    -3.873946   -2.8445122  0.025215673    -3.873946    1.0294338      8192000 
  748000   0.79624253   -3.8738852   -3.8738852   -2.8443386  0.028103258   -3.8738852    1.0295467      8192000 
  749000   0.79618526   -3.8739509   -3.8739509   -2.8444783  0.027320501   -3.8739509    1.0294726      8192000 
  750000    0.7965479   -3.8746518   -3.8746518   -2.8447103  0.026690876   -3.8746518    1.0299415      8192000 
  751000   0.79657183   -3.8745143   -3.8745143   -2.8445419  0.027738876   -3.8745143    1.0299725      8192000 
  752000   0.79643496   -3.8742625   -3.8742625    -2.844467  0.025783489   -3.8742625    1.0297955      8192000 
  753000   0.79668172   -3.8744319   -3.8744319   -2.8443173  0.023753748   -3.8744319    1.0301145      8192000 
  754000   0.79679145   -3.8745785   -3.8745785    -2.844322  0.026511824   -3.8745785    1.0302564      8192000 
  755000    0.7969175   -3.8748087   -3.8748087   -2.8443893  0.027529113   -3.8748087    1.0304194      8192000 
  756000   0.79601252   -3.8737372   -3.8737372    -2.844488  0.027312175   -3.8737372    1.0292493      8192000 
  757000     0.796547   -3.8744491   -3.8744491   -2.8445087  0.026402369   -3.8744491    1.0299403      8192000 
  758000    0.7966565   -3.8746106   -3.8746106   -2.8445287  0.027639737   -3.8746106    1.0300819      8192000 
  759000    0.7966242   -3.8745584   -3.8745584   -2.8445182  0.028502574   -3.8745584    1.0300402      8192000 
  760000   0.79627237   -3.8746447   -3.8746447   -2.8450594  0.027969354   -3.8746447    1.0295853      8192000 
  761000   0.79594469   -3.8741505   -3.8741505   -2.8449889  0.027601832   -3.8741505    1.0291616      8192000 
  762000   0.79630618    -3.874857    -3.874857    -2.845228  0.026471584    -3.874857     1.029629      8192000 
  763000   0.79636215   -3.8749957   -3.8749957   -2.8452944  0.028693779   -3.8749957    1.0297013      8192000 
  764000   0.79634913    -3.874859    -3.874859   -2.8451745  0.026227874    -3.874859    1.0296845      8192000 
  765000    0.7966234    -3.874658    -3.874658   -2.8446188  0.028765864    -3.874658    1.0300391      8192000 
  766000   0.79664251   -3.8746044   -3.8746044   -2.8445406  0.028902854   -3.8746044    1.0300638      8192000 
  767000    0.7960561   -3.8742581   -3.8742581   -2.8449525  0.032278888   -3.8742581    1.0293056      8192000 
  768000   0.79662956   -3.8749239   -3.8749239   -2.8448768  0.027696764   -3.8749239    1.0300471      8192000 
  769000   0.79645384   -3.8744717   -3.8744717   -2.8446518  0.031728845   -3.8744717    1.0298199      8192000 
  770000   0.79677796   -3.8752319   -3.8752319   -2.8449929  0.029269835   -3.8752319     1.030239      8192000 
  771000   0.79644782   -3.8751391   -3.8751391    -2.845327  0.029060027   -3.8751391    1.0298121      8192000 
  772000   0.79653002   -3.8748028   -3.8748028   -2.8448844  0.029139731   -3.8748028    1.0299184      8192000 
  773000   0.79637197   -3.8747702   -3.8747702   -2.8450561  0.026801648   -3.8747702     1.029714      8192000 
  774000   0.79623224   -3.8746294   -3.8746294   -2.8450961  0.032073153   -3.8746294    1.0295334      8192000 
  775000   0.79626819   -3.8746794   -3.8746794   -2.8450995  0.031209005   -3.8746794    1.0295798      8192000 
  776000   0.79672187   -3.8751132   -3.8751132   -2.8449468  0.030707146   -3.8751132    1.0301665      8192000 
  777000   0.79646567   -3.8751873   -3.8751873   -2.8453521  0.029511126   -3.8751873    1.0298352      8192000 
  778000   0.79711168   -3.8755365   -3.8755365    -2.844866  0.029001117   -3.8755365    1.0306705      8192000 
  779000   0.79676097   -3.8753536   -3.8753536   -2.8451366  0.029515483   -3.8753536     1.030217      8192000 
  780000    0.7970429   -3.8755757   -3.8755757   -2.8449942  0.032294739   -3.8755757    1.0305815      8192000 
  781000    0.7969544   -3.8751847   -3.8751847   -2.8447176  0.030498903   -3.8751847    1.0304671      8192000 
  782000   0.79649539   -3.8746275   -3.8746275   -2.8447539  0.030378279   -3.8746275    1.0298736      8192000 
  783000   0.79665189   -3.8751536   -3.8751536   -2.8450776  0.030415398   -3.8751536     1.030076      8192000 
  784000   0.79692625   -3.8754291   -3.8754291   -2.8449984  0.028704663   -3.8754291    1.0304307      8192000 
  785000   0.79689251   -3.8757986   -3.8757986   -2.8454115  0.026235537   -3.8757986    1.0303871      8192000 
  786000   0.79659494   -3.8751644   -3.8751644    -2.845162  0.028797617   -3.8751644    1.0300023      8192000 
  787000   0.79652134   -3.8752184   -3.8752184   -2.8453112   0.02810845   -3.8752184    1.0299072      8192000 
  788000   0.79675983   -3.8753847   -3.8753847   -2.8451691  0.028229082   -3.8753847    1.0302155      8192000 
  789000   0.79683649   -3.8748635   -3.8748635   -2.8445488  0.031042591   -3.8748635    1.0303147      8192000 
  790000   0.79614642   -3.8748111   -3.8748111   -2.8453887  0.030694418   -3.8748111    1.0294224      8192000 
  791000   0.79637643   -3.8747145   -3.8747145   -2.8449947  0.029985998   -3.8747145    1.0297198      8192000 
  792000   0.79672452   -3.8751352   -3.8751352   -2.8449653  0.027757645   -3.8751352    1.0301699      8192000 
  793000   0.79649187   -3.8750708   -3.8750708   -2.8452017  0.028374182   -3.8750708    1.0298691      8192000 
  794000   0.79649679   -3.8753424   -3.8753424    -2.845467  0.026567992   -3.8753424    1.0298754      8192000 
  795000   0.79688876   -3.8754799   -3.8754799   -2.8450976  0.028355706   -3.8754799    1.0303823      8192000 
  796000   0.79699318   -3.8751943   -3.8751943   -2.8446771  0.027955712   -3.8751943    1.0305173      8192000 
  797000   0.79646557   -3.8751001   -3.8751001   -2.8452651  0.027402467   -3.8751001    1.0298351      8192000 
  798000   0.79702525   -3.8755131   -3.8755131   -2.8449544  0.027424723   -3.8755131    1.0305587      8192000 
  799000   0.79664702   -3.8750873   -3.8750873   -2.8450176  0.030440761   -3.8750873    1.0300697      8192000 
  800000   0.79647123   -3.8743472   -3.8743472   -2.8445048  0.028597767   -3.8743472    1.0298424      8192000 
  801000   0.79650278   -3.8743554   -3.8743554   -2.8444722  0.028441022   -3.8743554    1.0298832      8192000 
  802000   0.79671398   -3.8746467   -3.8746467   -2.8444905  0.029250001   -3.8746467    1.0301563      8192000 
  803000   0.79670339   -3.8748744   -3.8748744   -2.8447318  0.029715773   -3.8748744    1.0301426      8192000 
  804000    0.7970246   -3.8752361   -3.8752361   -2.8446782  0.029240341   -3.8752361    1.0305579      8192000 
  805000   0.79658186   -3.8744474   -3.8744474    -2.844462  0.028704631   -3.8744474    1.0299854      8192000 
  806000   0.79698449   -3.8747246   -3.8747246   -2.8442186  0.028333397   -3.8747246     1.030506      8192000 
  807000   0.79648261   -3.8740517   -3.8740517   -2.8441947  0.033573877   -3.8740517    1.0298571      8192000 
  808000   0.79693378   -3.8743958   -3.8743958   -2.8439553  0.030754805   -3.8743958    1.0304405      8192000 
  809000   0.79676797   -3.8744258   -3.8744258   -2.8441997  0.030448877   -3.8744258    1.0302261      8192000 
  810000   0.79682746   -3.8742076   -3.8742076   -2.8439046  0.029725126   -3.8742076     1.030303      8192000 
  811000   0.79665824   -3.8741892   -3.8741892    -2.844105  0.030402273   -3.8741892    1.0300842      8192000 
  812000    0.7966232   -3.8745485   -3.8745485   -2.8445096  0.028314689   -3.8745485    1.0300389      8192000 
  813000   0.79658239   -3.8743092   -3.8743092   -2.8443231  0.026825762   -3.8743092    1.0299861      8192000 
  814000   0.79657036    -3.874334    -3.874334   -2.8443634    0.0308019    -3.874334    1.0299706      8192000 
  815000   0.79659378   -3.8747327   -3.8747327   -2.8447318   0.02521947   -3.8747327    1.0300008      8192000 
  816000   0.79662892   -3.8746955   -3.8746955   -2.8446493  0.025763308   -3.8746955    1.0300463      8192000 
  817000   0.79681606   -3.8745005   -3.8745005   -2.8442123  0.027292206   -3.8745005    1.0302882      8192000 
  818000   0.79628349   -3.8742679   -3.8742679   -2.8446683  0.027186086   -3.8742679    1.0295996      8192000 
  819000   0.79609628    -3.874027    -3.874027   -2.8446694  0.026020929    -3.874027    1.0293576      8192000 
  820000   0.79630423   -3.8741759   -3.8741759   -2.8445494  0.026820638   -3.8741759    1.0296264      8192000 
  821000   0.79589634   -3.8737578   -3.8737578   -2.8446588  0.025825564   -3.8737578     1.029099      8192000 
  822000   0.79594225   -3.8736155   -3.8736155   -2.8444571  0.027825769   -3.8736155    1.0291584      8192000 
  823000     0.796278   -3.8737978   -3.8737978   -2.8442053  0.026659012   -3.8737978    1.0295925      8192000 
  824000    0.7965487   -3.8740086   -3.8740086    -2.844066  0.026389556   -3.8740086    1.0299425      8192000 
  825000   0.79645239   -3.8738636   -3.8738636   -2.8440456  0.026909028   -3.8738636     1.029818      8192000 
  826000   0.79638579   -3.8736287   -3.8736287   -2.8438967  0.027733093   -3.8736287    1.0297319      8192000 
  827000   0.79618726   -3.8734264   -3.8734264   -2.8439512  0.026124454   -3.8734264    1.0294752      8192000 
  828000   0.79639228   -3.8737573   -3.8737573    -2.844017  0.026634906   -3.8737573    1.0297403      8192000 
  829000   0.79655924   -3.8742659   -3.8742659   -2.8443098  0.027602278   -3.8742659    1.0299562      8192000 
  830000   0.79651326   -3.8739156   -3.8739156   -2.8440188  0.029030238   -3.8739156    1.0298967      8192000 
  831000   0.79675175   -3.8741312   -3.8741312   -2.8439261  0.028299663   -3.8741312    1.0302051      8192000 
  832000   0.79631611   -3.8739059   -3.8739059   -2.8442641  0.026725587   -3.8739059    1.0296418      8192000 
  833000   0.79640632   -3.8740626   -3.8740626   -2.8443042   0.02843916   -3.8740626    1.0297585      8192000 
  834000   0.79649284    -3.873889    -3.873889   -2.8440187  0.029244373    -3.873889    1.0298703      8192000 
  835000   0.79656108   -3.8742788   -3.8742788   -2.8443202  0.025812959   -3.8742788    1.0299586      8192000 
  836000   0.79690743   -3.8741674   -3.8741674    -2.843761  0.029028679   -3.8741674    1.0304064      8192000 
  837000   0.79685321   -3.8739852   -3.8739852   -2.8436489  0.028200897   -3.8739852    1.0303363      8192000 
  838000   0.79675375   -3.8744415   -3.8744415   -2.8442338  0.027310175   -3.8744415    1.0302077      8192000 
  839000   0.79655839   -3.8741268   -3.8741268   -2.8441717  0.026635827   -3.8741268    1.0299551      8192000 
  840000   0.79647748   -3.8741585   -3.8741585    -2.844308    0.0288917   -3.8741585    1.0298505      8192000 
  841000   0.79639424   -3.8742123   -3.8742123   -2.8444695  0.024252537   -3.8742123    1.0297428      8192000 
  842000   0.79634149   -3.8739967   -3.8739967   -2.8443221   0.02627164   -3.8739967    1.0296746      8192000 
  843000   0.79675701   -3.8746461   -3.8746461   -2.8444342  0.027045835   -3.8746461    1.0302119      8192000 
  844000   0.79651793   -3.8744752   -3.8744752   -2.8445724  0.028710342   -3.8744752    1.0299028      8192000 
  845000   0.79621578   -3.8739901   -3.8739901    -2.844478  0.027775846   -3.8739901    1.0295121      8192000 
  846000   0.79670053   -3.8747672   -3.8747672   -2.8446283  0.027523777   -3.8747672    1.0301389      8192000 
  847000   0.79658283   -3.8744011   -3.8744011   -2.8444144  0.028921123   -3.8744011    1.0299867      8192000 
  848000    0.7967087   -3.8745162   -3.8745162   -2.8443668  0.028026509   -3.8745162    1.0301494      8192000 
  849000   0.79641152   -3.8741237   -3.8741237   -2.8443585  0.029313512   -3.8741237    1.0297652      8192000 
  850000    0.7966637   -3.8744799   -3.8744799   -2.8443887  0.032411247   -3.8744799    1.0300912      8192000 
  851000   0.79683178   -3.8748711   -3.8748711   -2.8445625  0.028980876   -3.8748711    1.0303086      8192000 
  852000   0.79674632    -3.874465    -3.874465   -2.8442669  0.028437616    -3.874465    1.0301981      8192000 
  853000   0.79640015    -3.874385    -3.874385   -2.8446346  0.028818716    -3.874385    1.0297505      8192000 
  854000    0.7967431   -3.8746466   -3.8746466   -2.8444527  0.029632227   -3.8746466    1.0301939      8192000 
  855000   0.79663711   -3.8747192   -3.8747192   -2.8446623  0.027593927   -3.8747192    1.0300569      8192000 
  856000    0.7969314   -3.8748829   -3.8748829   -2.8444455  0.026908114   -3.8748829    1.0304374      8192000 
  857000   0.79666191   -3.8749516   -3.8749516   -2.8448627  0.027233829   -3.8749516    1.0300889      8192000 
  858000   0.79716464   -3.8748735   -3.8748735   -2.8441346  0.029407669   -3.8748735     1.030739      8192000 
  859000   0.79692172   -3.8749926   -3.8749926   -2.8445677  0.028131082   -3.8749926    1.0304249      8192000 
  860000   0.79666902   -3.8745147   -3.8745147   -2.8444166  0.028403461   -3.8745147    1.0300981      8192000 
  861000   0.79715678   -3.8750124   -3.8750124   -2.8442835  0.029426013   -3.8750124    1.0307288      8192000 
  862000   0.79724509   -3.8750703   -3.8750703   -2.8442273  0.031930886   -3.8750703     1.030843      8192000 
  863000   0.79689448   -3.8750327   -3.8750327    -2.844643  0.030153239   -3.8750327    1.0303896      8192000 
  864000   0.79675321   -3.8746583   -3.8746583   -2.8444513  0.031378449   -3.8746583     1.030207      8192000 
  865000   0.79640202   -3.8740158   -3.8740158   -2.8442629  0.030899036   -3.8740158    1.0297529      8192000 
  866000   0.79660098   -3.8743323   -3.8743323   -2.8443222  0.027910091   -3.8743323    1.0300101      8192000 
  867000   0.79636747   -3.8742155   -3.8742155   -2.8445073  0.030171087   -3.8742155    1.0297082      8192000 
  868000   0.79713513   -3.8754037   -3.8754037   -2.8447028  0.028234651   -3.8754037    1.0307008      8192000 
  869000   0.79662722   -3.8746318   -3.8746318   -2.8445877  0.031885634   -3.8746318    1.0300441      8192000 
  870000   0.79664443   -3.8748113   -3.8748113   -2.8447449  0.027888713   -3.8748113    1.0300663      8192000 
  871000   0.79712222   -3.8747948   -3.8747948   -2.8441107  0.031197458   -3.8747948    1.0306841      8192000 
  872000   0.79675694   -3.8747306   -3.8747306   -2.8445188  0.029354402   -3.8747306    1.0302118      8192000 
  873000   0.79683371   -3.8747896   -3.8747896   -2.8444785   0.03076212   -3.8747896    1.0303111      8192000 
  874000    0.7970754   -3.8747776   -3.8747776    -2.844154  0.028251782   -3.8747776    1.0306236      8192000 
  875000   0.79673517   -3.8742737   -3.8742737     -2.84409  0.031586233   -3.8742737    1.0301837      8192000 
  876000   0.79671733   -3.8746611   -3.8746611   -2.8445005   0.02933083   -3.8746611    1.0301606      8192000 
  877000   0.79714776   -3.8753031   -3.8753031   -2.8445859  0.028015835   -3.8753031    1.0307171      8192000 
  878000   0.79668382   -3.8743014   -3.8743014   -2.8441842  0.030868559   -3.8743014    1.0301173      8192000 
  879000   0.79705857   -3.8747065   -3.8747065   -2.8441046  0.029303988   -3.8747065    1.0306018      8192000 
  880000   0.79706209   -3.8746481   -3.8746481   -2.8440417  0.031329122   -3.8746481    1.0306064      8192000 
  881000   0.79706677   -3.8747274   -3.8747274   -2.8441149  0.026203498   -3.8747274    1.0306124      8192000 
  882000   0.79677998   -3.8744057   -3.8744057   -2.8441641  0.026002219   -3.8744057    1.0302416      8192000 
  883000   0.79641162   -3.8738383   -3.8738383    -2.844073  0.028988543   -3.8738383    1.0297653      8192000 
  884000   0.79714745   -3.8745631   -3.8745631   -2.8438463  0.026435075   -3.8745631    1.0307167      8192000 
  885000   0.79711219   -3.8744183   -3.8744183   -2.8437472   0.02935966   -3.8744183    1.0306711      8192000 
  886000   0.79667345   -3.8739798   -3.8739798    -2.843876  0.029740429   -3.8739798    1.0301038      8192000 
  887000    0.7968602   -3.8742345   -3.8742345   -2.8438892  0.028804541   -3.8742345    1.0303453      8192000 
  888000   0.79725566   -3.8747622   -3.8747622   -2.8439055  0.027380196   -3.8747622    1.0308567      8192000 
  889000    0.7970021   -3.8743061   -3.8743061   -2.8437774  0.029239121   -3.8743061    1.0305288      8192000 
  890000   0.79671631   -3.8741976   -3.8741976   -2.8440383   0.02899417   -3.8741976    1.0301593      8192000 
  891000   0.79667149   -3.8740945   -3.8740945   -2.8439932  0.027975082   -3.8740945    1.0301013      8192000 
  892000   0.79690675   -3.8738356   -3.8738356   -2.8434301  0.028168968   -3.8738356    1.0304055      8192000 
  893000   0.79688534    -3.874036    -3.874036   -2.8436582  0.025873432    -3.874036    1.0303778      8192000 
  894000    0.7963699   -3.8735649   -3.8735649   -2.8438536  0.027607943   -3.8735649    1.0297114      8192000 
  895000   0.79662336   -3.8738278   -3.8738278   -2.8437887  0.027452912   -3.8738278    1.0300391      8192000 
  896000   0.79632614   -3.8735865   -3.8735865   -2.8439317  0.028280347   -3.8735865    1.0296548      8192000 
  897000   0.79683633   -3.8740991   -3.8740991   -2.8437846  0.026698484   -3.8740991    1.0303145      8192000 
  898000   0.79635223   -3.8736447   -3.8736447   -2.8439562   0.02933967   -3.8736447    1.0296885      8192000 
  899000   0.79658314     -3.87355     -3.87355   -2.8435629  0.030895385     -3.87355    1.0299871      8192000 
  900000   0.79685106    -3.873595    -3.873595   -2.8432615  0.025606032    -3.873595    1.0303335      8192000 
  901000   0.79705152   -3.8739565   -3.8739565   -2.8433638  0.026068221   -3.8739565    1.0305927      8192000 
  902000    0.7964422   -3.8733506   -3.8733506   -2.8435458  0.026679965   -3.8733506    1.0298048      8192000 
  903000   0.79622769   -3.8731226   -3.8731226   -2.8435951  0.028116967   -3.8731226    1.0295275      8192000 
  904000   0.79640458   -3.8732618   -3.8732618   -2.8435056  0.026285937   -3.8732618    1.0297562      8192000 
  905000   0.79649035   -3.8734667   -3.8734667   -2.8435996  0.027804812   -3.8734667    1.0298671      8192000 
  906000    0.7962192   -3.8729474   -3.8729474   -2.8434309  0.030204336   -3.8729474    1.0295165      8192000 
  907000   0.79679579   -3.8738755   -3.8738755   -2.8436134  0.028987463   -3.8738755     1.030262      8192000 
  908000   0.79678008    -3.873844    -3.873844   -2.8436023   0.02585286    -3.873844    1.0302417      8192000 
  909000   0.79699773   -3.8740374   -3.8740374   -2.8435143  0.026847623   -3.8740374    1.0305231      8192000 
  910000   0.79662243    -3.873086    -3.873086   -2.8430482  0.028328775    -3.873086    1.0300379      8192000 
  911000   0.79662358    -3.873266    -3.873266   -2.8432266   0.02793858    -3.873266    1.0300394      8192000 
  912000   0.79698673   -3.8739341   -3.8739341   -2.8434251  0.025649078   -3.8739341    1.0305089      8192000 
  913000   0.79671535   -3.8732817   -3.8732817   -2.8431237  0.025991742   -3.8732817     1.030158      8192000 
  914000   0.79686861   -3.8736198   -3.8736198   -2.8432636  0.027390793   -3.8736198    1.0303562      8192000 
  915000   0.79667794   -3.8726785   -3.8726785   -2.8425688  0.030877873   -3.8726785    1.0301097      8192000 
  916000   0.79718907   -3.8737168   -3.8737168   -2.8429462  0.026026127   -3.8737168    1.0307706      8192000 
  917000   0.79718365   -3.8736053   -3.8736053   -2.8428417  0.029781911   -3.8736053    1.0307635      8192000 
  918000   0.79738351   -3.8734103   -3.8734103   -2.8423884  0.027739078   -3.8734103     1.031022      8192000 
  919000   0.79730905   -3.8735759   -3.8735759   -2.8426502   0.02662104   -3.8735759    1.0309257      8192000 
  920000   0.79703636   -3.8731415   -3.8731415   -2.8425684  0.027657133   -3.8731415    1.0305731      8192000 
  921000    0.7968301   -3.8733831   -3.8733831   -2.8430767  0.028865858   -3.8733831    1.0303064      8192000 
  922000   0.79691622   -3.8731343   -3.8731343   -2.8427166  0.027615276   -3.8731343    1.0304177      8192000 
  923000   0.79683612   -3.8731697   -3.8731697   -2.8428555   0.03044443   -3.8731697    1.0303142      8192000 
  924000   0.79703501   -3.8734143   -3.8734143   -2.8428429  0.027024819   -3.8734143    1.0305714      8192000 
  925000   0.79694608   -3.8733753   -3.8733753   -2.8429189    0.0274328   -3.8733753    1.0304564      8192000 
  926000   0.79665292   -3.8731875   -3.8731875   -2.8431101  0.027309721   -3.8731875    1.0300773      8192000 
  927000   0.79656782   -3.8727383   -3.8727383   -2.8427711  0.026424337   -3.8727383    1.0299673      8192000 
  928000   0.79699858   -3.8736882   -3.8736882   -2.8431639  0.027336501   -3.8736882    1.0305242      8192000 
  929000   0.79690298   -3.8732007   -3.8732007      -2.8428  0.031005503   -3.8732007    1.0304006      8192000 
  930000     0.796773   -3.8727511   -3.8727511   -2.8425186  0.029319541   -3.8727511    1.0302326      8192000 
  931000   0.79622328   -3.8724909   -3.8724909   -2.8429691  0.025660428   -3.8724909    1.0295218      8192000 
  932000   0.79683732   -3.8729198   -3.8729198    -2.842604  0.027778241   -3.8729198    1.0303157      8192000 
  933000   0.79685965   -3.8730743   -3.8730743   -2.8427297   0.02697933   -3.8730743    1.0303446      8192000 
  934000   0.79681734   -3.8729478   -3.8729478   -2.8426579  0.027374447   -3.8729478    1.0302899      8192000 
  935000   0.79715639   -3.8735376   -3.8735376   -2.8428093   0.02683789   -3.8735376    1.0307283      8192000 
  936000   0.79676043   -3.8728713   -3.8728713    -2.842655  0.029573766   -3.8728713    1.0302163      8192000 
  937000   0.79657055   -3.8730163   -3.8730163   -2.8430455   0.02648008   -3.8730163    1.0299708      8192000 
  938000   0.79647094    -3.872742    -3.872742      -2.8429  0.028599385    -3.872742     1.029842      8192000 
  939000   0.79678222   -3.8731165   -3.8731165    -2.842872  0.025822809   -3.8731165    1.0302445      8192000 
  940000   0.79650394   -3.8727574   -3.8727574   -2.8428727  0.027675857   -3.8727574    1.0298847      8192000 
  941000   0.79686315   -3.8734668   -3.8734668   -2.8431177  0.026529097   -3.8734668    1.0303491      8192000 
  942000   0.79613594   -3.8728501   -3.8728501   -2.8434413  0.026751815   -3.8728501    1.0294088      8192000 
  943000   0.79628868   -3.8725871   -3.8725871   -2.8429807  0.028166381   -3.8725871    1.0296063      8192000 
  944000   0.79626771   -3.8726687   -3.8726687   -2.8430894  0.025781437   -3.8726687    1.0295792      8192000 
  945000   0.79624447   -3.8729148   -3.8729148   -2.8433656   0.02771769   -3.8729148    1.0295492      8192000 
  946000   0.79657331   -3.8729807   -3.8729807   -2.8430063  0.025937241   -3.8729807    1.0299744      8192000 
  947000   0.79662927   -3.8732057   -3.8732057   -2.8431589  0.025496764   -3.8732057    1.0300467      8192000 
  948000   0.79692548   -3.8735182   -3.8735182   -2.8430885   0.02570347   -3.8735182    1.0304297      8192000 
  949000     0.796715   -3.8730797   -3.8730797   -2.8429221  0.029513711   -3.8730797    1.0301576      8192000 
  950000   0.79618761   -3.8727277   -3.8727277   -2.8432521  0.029806538   -3.8727277    1.0294757      8192000 
  951000    0.7967631   -3.8735604   -3.8735604   -2.8433406  0.026792881   -3.8735604    1.0302198      8192000 
  952000   0.79678863   -3.8734982   -3.8734982   -2.8432454  0.029793453   -3.8734982    1.0302528      8192000 
  953000   0.79688647   -3.8739789   -3.8739789   -2.8435996  0.025826046   -3.8739789    1.0303793      8192000 
  954000   0.79639642   -3.8730124   -3.8730124   -2.8432667  0.027735298   -3.8730124    1.0297457      8192000 
  955000   0.79651431   -3.8733237   -3.8733237   -2.8434256  0.024063327   -3.8733237    1.0298981      8192000 
  956000   0.79655958   -3.8732999   -3.8732999   -2.8433433  0.027460937   -3.8732999    1.0299566      8192000 
  957000    0.7964121   -3.8728968   -3.8728968   -2.8431309  0.027330374   -3.8728968    1.0297659      8192000 
  958000   0.79678137   -3.8733627   -3.8733627   -2.8431193  0.026539334   -3.8733627    1.0302434      8192000 
  959000   0.79626857    -3.872751    -3.872751   -2.8431706  0.029707073    -3.872751    1.0295803      8192000 
  960000   0.79682604   -3.8733448   -3.8733448   -2.8430437  0.027760444   -3.8733448    1.0303011      8192000 
  961000   0.79693613   -3.8733512   -3.8733512   -2.8429077  0.028012423   -3.8733512    1.0304435      8192000 
  962000   0.79686517    -3.873254    -3.873254   -2.8429023  0.028737201    -3.873254    1.0303517      8192000 
  963000   0.79725429   -3.8737237   -3.8737237   -2.8428688  0.029960586   -3.8737237    1.0308549      8192000 
  964000   0.79707471   -3.8734167   -3.8734167    -2.842794  0.031307539   -3.8734167    1.0306227      8192000 
  965000   0.79734174   -3.8738613   -3.8738613   -2.8428933  0.026578775   -3.8738613    1.0309679      8192000 
  966000   0.79730034   -3.8739818   -3.8739818   -2.8430674  0.029282623   -3.8739818    1.0309144      8192000 
  967000    0.7969093     -3.87328     -3.87328   -2.8428712  0.030562806     -3.87328    1.0304088      8192000 
  968000   0.79738043   -3.8740764   -3.8740764   -2.8430584  0.027349646   -3.8740764     1.031018      8192000 
  969000    0.7973534   -3.8740456   -3.8740456   -2.8430626  0.031875405   -3.8740456     1.030983      8192000 
  970000   0.79682932   -3.8735423   -3.8735423   -2.8432369  0.031436495   -3.8735423    1.0303054      8192000 
  971000     0.797331   -3.8741499   -3.8741499   -2.8431959  0.027942043   -3.8741499    1.0309541      8192000 
  972000   0.79678977   -3.8733478   -3.8733478   -2.8430936  0.033163345   -3.8733478    1.0302543      8192000 
  973000   0.79676703   -3.8733771   -3.8733771   -2.8431523  0.027928598   -3.8733771    1.0302248      8192000 
  974000   0.79711418   -3.8739264   -3.8739264   -2.8432526  0.026451607   -3.8739264    1.0306737      8192000 
  975000   0.79714613   -3.8739587   -3.8739587   -2.8432437  0.028291853   -3.8739587     1.030715      8192000 
  976000   0.79702505   -3.8736405   -3.8736405    -2.843082  0.030166092   -3.8736405    1.0305585      8192000 
  977000   0.79703264   -3.8735421   -3.8735421   -2.8429739  0.027333631   -3.8735421    1.0305683      8192000 
  978000   0.79678569   -3.8733848   -3.8733848   -2.8431358   0.02928337   -3.8733848     1.030249      8192000 
  979000    0.7967081   -3.8730941   -3.8730941   -2.8429454  0.029066177   -3.8730941    1.0301487      8192000 
  980000   0.79657726   -3.8727363   -3.8727363   -2.8427568  0.028819584   -3.8727363    1.0299795      8192000 
  981000   0.79682924   -3.8732128   -3.8732128   -2.8429075  0.029167123   -3.8732128    1.0303053      8192000 
  982000   0.79709575   -3.8738917   -3.8738917   -2.8432418   0.02634733   -3.8738917    1.0306499      8192000 
  983000   0.79648145   -3.8727598   -3.8727598   -2.8429042  0.027593409   -3.8727598    1.0298556      8192000 
  984000   0.79696095   -3.8734241   -3.8734241   -2.8429485  0.029086514   -3.8734241    1.0304756      8192000 
  985000   0.79689392    -3.873372    -3.873372   -2.8429831  0.025764934    -3.873372    1.0303889      8192000 
  986000   0.79642693   -3.8733359   -3.8733359   -2.8435508   0.02929181   -3.8733359    1.0297851      8192000 
  987000   0.79669905   -3.8731187   -3.8731187   -2.8429817   0.02949544   -3.8731187    1.0301369      8192000 
  988000   0.79684732    -3.873733    -3.873733   -2.8434044  0.028912051    -3.873733    1.0303287      8192000 
  989000   0.79668433   -3.8732289   -3.8732289    -2.843111  0.026192144   -3.8732289    1.0301179      8192000 
  990000   0.79704858   -3.8734401   -3.8734401   -2.8428512  0.027645674   -3.8734401    1.0305889      8192000 
  991000   0.79702064   -3.8736186   -3.8736186   -2.8430659  0.024315113   -3.8736186    1.0305528      8192000 
  992000   0.79681583   -3.8733129   -3.8733129   -2.8430249  0.028439267   -3.8733129    1.0302879      8192000 
  993000   0.79704951     -3.87306     -3.87306   -2.8424699  0.026865865     -3.87306    1.0305901      8192000 
  994000    0.7968018   -3.8728561   -3.8728561   -2.8425863  0.027676478   -3.8728561    1.0302698      8192000 
  995000   0.79700368   -3.8730333   -3.8730333   -2.8425024  0.027823947   -3.8730333    1.0305308      8192000 
  996000   0.79657433   -3.8728372   -3.8728372   -2.8428615  0.028724298   -3.8728372    1.0299757      8192000 
  997000   0.79632846   -3.8730238   -3.8730238    -2.843366  0.024161423   -3.8730238    1.0296578      8192000 
  998000   0.79699739   -3.8736915   -3.8736915   -2.8431688  0.025134795   -3.8736915    1.0305227      8192000 
  999000   0.79720755     -3.87368     -3.87368   -2.8428856  0.026067444     -3.87368    1.0307944      8192000 
 1000000   0.79635283   -3.8727258   -3.8727258   -2.8430365   0.02949516   -3.8727258    1.0296893      8192000 
Loop time of 16782.4 on 240 procs for 1000000 steps with 4233413 atoms

Performance: 12870.619 tau/day, 59.586 timesteps/s
98.4% CPU use with 240 MPI tasks x 1 OpenMP threads

MPI task timing breakdown:
Section |  min time  |  avg time  |  max time  |%varavg|  %CPU | %total
-----------------------------------------------------------------------
Pair    | 6537.4     | 7595.5     | 8957.6     | 663.3 |  99.5 | 45.26
Bond    | 0.78734    | 0.90795    | 1.0096     |   4.0 | 100.0 |  0.01
Neigh   | 2811.7     | 3812.8     | 4728.5     | 626.7 |  99.6 | 22.72
Comm    | 1433.1     | 3009       | 4815.4     |1365.9 |  96.1 | 17.93
Output  | 56.578     | 58.839     | 63.406     |  26.2 |  93.9 |  0.35
Modify  | 1455.9     | 2023.8     | 2732.8     | 708.2 |  96.1 | 12.06
Other   |            | 281.5      |            |       |       |  1.68

Nlocal:        17639.2 ave       19917 max       16310 min
Histogram: 11 26 42 71 40 33 13 0 2 2
Nghost:        16143.7 ave       21190 max        9694 min
Histogram: 26 9 5 20 15 28 47 58 25 7
Neighs:        570279.0 ave      653140 max      489254 min
Histogram: 6 8 10 74 76 6 0 17 23 20

Total # of neighbors = 1.3686688e+08
Ave neighs/atom = 32.330150
Ave special neighs/atom = 0.0000000
Neighbor list builds = 63010
Dangerous builds = 0
Total wall time: 4:39:47
