LAMMPS (24 Dec 2020)
OMP_NUM_THREADS environment is not set. Defaulting to 1 thread. (src/comm.cpp:94)
  using 1 OpenMP thread(s) per MPI task
#Read the equilibrated lj fluid and add nanocubes

units           lj
atom_style      full
atom_modify     map array first cubes
dimension       3
boundary        p p f
pair_style      lj/cut/opt 2.5

variable        sigma           equal 1.0
variable        epsilon         equal 1.0
read_restart	restart.dat.3000000
Reading restart file ...
  restart file = 29 Oct 2020, LAMMPS = 24 Dec 2020
  restoring atom style full from restart
  orthogonal box = (0.0000000 0.0000000 0.0000000) to (100.00000 100.00000 200.00000)
  4 by 5 by 12 MPI processor grid
  restoring pair style lj/cut/opt from restart
  1010000 atoms
Finding 1-2 1-3 1-4 neighbors ...
  special bond factors lj:    0        0        0       
  special bond factors coul:  0        0        0       
     0 = max # of 1-2 neighbors
     0 = max # of 1-3 neighbors
     0 = max # of 1-4 neighbors
     1 = max # of special neighbors
  special bonds CPU = 1.848 seconds
  read_restart CPU = 2.419 seconds

group		solvent type 1
1010000 atoms in group solvent
read_data	data490_500.cubes group cubes add append
Reading data file ...
  orthogonal box = (0.0000000 0.0000000 0.0000000) to (100.00000 100.00000 200.00000)
  4 by 5 by 12 MPI processor grid
  reading atoms ...
  560070 atoms
  reading velocities ...
  560070 velocities
Finding 1-2 1-3 1-4 neighbors ...
  special bond factors lj:    0        0        0       
  special bond factors coul:  0        0        0       
     0 = max # of 1-2 neighbors
     0 = max # of 1-3 neighbors
     0 = max # of 1-4 neighbors
     1 = max # of special neighbors
  special bonds CPU = 0.007 seconds
  read_data CPU = 1.448 seconds

group 		hull  type 2
218540 atoms in group hull
group 		dummy type 3
341530 atoms in group dummy

neighbor      0.4 bin
neigh_modify  exclude molecule/intra cubes


pair_modify   shift yes

pair_coeff    1 1 1.0 1.0 #solvent
pair_coeff    2 2 0.6 1.0 0.7147 #np
pair_coeff    3 3 0.0 0.0 0.0 #dummy
pair_coeff    2 3 0.0 0.0 0.0 #np dummy
pair_coeff    1 2 0.8 1.0 #np solvent
pair_coeff    1 3 0.0 0.0 2.5 #dummy solvent

# delete solvent where the cubes are
delete_atoms  overlap 1.0 solvent cubes
System init for delete_atoms ...
Neighbor list info ...
  update every 1 steps, delay 10 steps, check yes
  max neighbors/atom: 2000, page size: 100000
  master list distance cutoff = 2.9
  ghost atom cutoff = 2.9
  binsize = 1.45, bins = 69 69 138
  2 neighbor lists, perpetual/occasional/extra = 1 1 0
  (1) command delete_atoms, occasional
      attributes: full, newton on
      pair build: full/bin
      stencil: full/bin/3d
      bin: standard
  (2) pair lj/cut/opt, perpetual
      attributes: half, newton on
      pair build: half/bin/newton
      stencil: half/bin/3d/newton
      bin: standard
WARNING: Delete_atoms cutoff > minimum neighbor cutoff (src/delete_atoms.cpp:307)
WARNING: Ignoring 'compress yes' for molecular system (src/delete_atoms.cpp:125)
Deleted 499530 atoms, new total = 1070540


pair_coeff    1 1 1.0 1.0 #solvent
pair_coeff    2 2 0.6 1.0 0.7147 #np
pair_coeff    3 3 0.0 0.0 0.0 #dummy
pair_coeff    2 3 0.0 0.0 0.0 #np dummy
pair_coeff    1 2 0.8 1.0 #np solvent
pair_coeff    1 3 0.0 0.0 0.0 #dummy solvent


comm_modify   mode multi cutoff/multi 1 2.5 cutoff/multi 2 2.5 cutoff/multi 3 6.95

reset_timestep 	0

balance 	1.05 shift z 10 1.05
Balancing ...
Neighbor list info ...
  update every 1 steps, delay 10 steps, check yes
  max neighbors/atom: 2000, page size: 100000
  master list distance cutoff = 2.9
  ghost atom cutoff = 6.95
  binsize = 1.45, bins = 69 69 138
  1 neighbor lists, perpetual/occasional/extra = 1 0 0
  (1) pair lj/cut/opt, perpetual
      attributes: half, newton on
      pair build: half/bin/newton
      stencil: half/bin/3d/newton
      bin: standard
 rebalancing time: 0.016 seconds
  iteration count = 5
  initial/final maximal load/proc = 6759.0000 5358.0000
  initial/final imbalance factor  = 1.5152727 1.2011882
  x cuts: 0.0000000 0.25000000 0.50000000 0.75000000 1.0000000
  y cuts: 0.0000000 0.20000000 0.40000000 0.60000000 0.80000000 1.0000000
  z cuts: 0.0000000 0.059895833 0.11718750 0.17447917 0.23437500 0.28645833 0.34895833 0.40364583 0.47135417 0.52343750 0.57291667 0.63541667 1.0000000

####################### WALLS ###########################

variable       epsilonWall equal 2*${epsilon}
variable       epsilonWall equal 2*1
variable       repulsive   equal   0.7147*${sigma}
variable       repulsive   equal   0.7147*1
variable       full	   equal   3*${sigma}
variable       full	   equal   3*1
region         lowWall block EDGE EDGE EDGE EDGE EDGE 2

fix            topWall all wall/lj93 zhi EDGE 	       ${epsilonWall} ${sigma} ${repulsive} units box
fix            topWall all wall/lj93 zhi EDGE 	       2 ${sigma} ${repulsive} units box
fix            topWall all wall/lj93 zhi EDGE 	       2 1 ${repulsive} units box
fix            topWall all wall/lj93 zhi EDGE 	       2 1 0.7147 units box
fix            lowSol solvent wall/lj93 zlo EDGE                ${epsilonWall} ${sigma} ${full} units box
fix            lowSol solvent wall/lj93 zlo EDGE                2 ${sigma} ${full} units box
fix            lowSol solvent wall/lj93 zlo EDGE                2 1 ${full} units box
fix            lowSol solvent wall/lj93 zlo EDGE                2 1 3 units box
fix 	       lowCub cubes wall/lj93 zlo EDGE                ${epsilonWall} ${sigma} ${repulsive} units box
fix 	       lowCub cubes wall/lj93 zlo EDGE                2 ${sigma} ${repulsive} units box
fix 	       lowCub cubes wall/lj93 zlo EDGE                2 1 ${repulsive} units box
fix 	       lowCub cubes wall/lj93 zlo EDGE                2 1 0.7147 units box


###################### COMPUTES ##########################

compute        bin1 solvent chunk/atom bin/1d z upper 1.0


######################  FIXES ############################


fix             peclet solvent ave/chunk 10000 1 10000 bin1 density/number norm                  none ave one file density.profile

fix              temp solvent ave/chunk 10000 1 10000 bin1 temp norm                  none ave one file temp.profile

fix             1 cubes rigid/nve/small molecule #temp ${temp} ${temp} 10
  create bodies CPU = 0.047 seconds
  490 rigid bodies with 560070 atoms
  6.9283411 = max distance from body owner to body atom

fix             2 solvent nvt temp ${temp} ${temp} 10
fix             2 solvent nvt temp .9 ${temp} 10
fix             2 solvent nvt temp .9 .9 10

#### Load balancing

fix             bal all balance 1000 1.05 shift z 10 1.05

############### Diagnostics and computes ###################

compute        	com cubes          rigid/local   1 mol x y z
compute        	quat cubes         rigid/local   1 mol quatw quati quatj quatk

compute 	cc2 cubes 	   chunk/atom 	 molecule
compute 	msd cubes 	   msd/chunk 	 cc2

fix 		msd all ave/time  1 1 10000 c_msd[*] file dump.msd ave one mode vector

dump            1 all custom 500000 dump.lammpstrj id mol type x y z
dump		cubetrj hull custom 500000 cubes.lammpstrj id mol type x y z
dump            com cubes local 10000 dump.*.xyz c_com[*]
dump	        xyz hull xyz 100000 cubes.xyz
dump            quat cubes      local 10000 dump.*.quat c_quat[*]
#dump		mol cubes molfile 10000 mol.xyz xyz


dump            2 all image 10000 image.*.png type type
dump_modify     2 pad 8
dump		image cubes image 10000 image_cubes.*.png type type
dump_modify	image pad 8
dump            3 all movie 5000 movie.avi type type
dump		4 cubes movie 5000 movie_cubes.avi type type


thermo          1000
thermo_style    custom step temp epair evdwl etotal press pe ke atoms

restart         1000000 restart.dat
timestep        0.005
timer           full
New timer settings: style=full  mode=nosync  timeout=off

#equilibration run with nvt on
run            2000000
Per MPI rank memory allocation (min/avg/max) = 19.34 | 29.04 | 32.49 Mbytes
Step Temp E_pair E_vdwl TotEng Press PotEng KinEng Atoms 
       0   0.85367057   -1.9697504   -1.9697504   -1.3579905  -0.35004369   -1.9697504    0.6117599  1070540 
    1000   0.86210243   -1.9723937   -1.9723937   -1.3545913 -0.043204093   -1.9723937   0.61780236  1070540 
    2000   0.87111334   -1.9735403   -1.9735403   -1.3492805  -0.02426336   -1.9735403   0.62425979  1070540 
    3000    0.8802442   -1.9744738   -1.9744738   -1.3436706 -0.014305258   -1.9744738   0.63080317  1070540 
    4000   0.88627589   -1.9737794   -1.9737794   -1.3386538 -0.0089952697   -1.9737794   0.63512561  1070540 
    5000   0.89211475   -1.9733442   -1.9733442   -1.3340343 0.0060317225   -1.9733442   0.63930988  1070540 
    6000   0.89781334   -1.9734075   -1.9734075   -1.3300138  0.015744571   -1.9734075   0.64339361  1070540 
    7000   0.90168533    -1.973061    -1.973061   -1.3268926   0.02249338    -1.973061   0.64616837  1070540 
    8000   0.90624107   -1.9743455   -1.9743455   -1.3249124  0.026639772   -1.9743455   0.64943312  1070540 
    9000   0.90783985   -1.9755535   -1.9755535   -1.3249747  0.037599798   -1.9755535   0.65057885  1070540 
   10000   0.91027299   -1.9800832   -1.9800832   -1.3277607  0.042501105   -1.9800832   0.65232248  1070540 
   11000   0.91089007   -1.9845835   -1.9845835   -1.3318188  0.040341147   -1.9845835    0.6527647  1070540 
   12000   0.91024941   -1.9883212   -1.9883212   -1.3360156  0.043078202   -1.9883212   0.65230559  1070540 
   13000   0.90936384   -1.9923231   -1.9923231   -1.3406521   0.04739156   -1.9923231   0.65167097  1070540 
   14000   0.90759277   -1.9952097   -1.9952097   -1.3448079  0.046947632   -1.9952097   0.65040178  1070540 
   15000     0.904741   -1.9971706   -1.9971706   -1.3488125  0.037131387   -1.9971706   0.64835814  1070540 
   16000   0.90263207   -1.9991949   -1.9991949   -1.3523481  0.037811021   -1.9991949   0.64684683  1070540 
   17000   0.89895237   -1.9994003   -1.9994003   -1.3551904  0.031283944   -1.9994003   0.64420987  1070540 
   18000   0.89800631   -2.0009473   -2.0009473   -1.3574154  0.032789065   -2.0009473    0.6435319  1070540 
   19000   0.89767606   -2.0018728   -2.0018728   -1.3585776  0.022104356   -2.0018728   0.64329524  1070540 
   20000   0.89653761   -2.0014348   -2.0014348   -1.3589554  0.026326434   -2.0014348    0.6424794  1070540 
   21000   0.89798113   -2.0017087   -2.0017087   -1.3581949  0.021010476   -2.0017087   0.64351386  1070540 
   22000     0.898102   -2.0003396   -2.0003396   -1.3567391  0.025226304   -2.0003396   0.64360048  1070540 
   23000   0.89979573   -1.9998037   -1.9998037   -1.3549895  0.020308824   -1.9998037   0.64481424  1070540 
   24000   0.90042105   -1.9986586   -1.9986586   -1.3533962  0.024815423   -1.9986586   0.64526236  1070540 
   25000   0.90115807   -1.9977091   -1.9977091   -1.3519186  0.019122089   -1.9977091   0.64579053  1070540 
   26000   0.90012454   -1.9960419   -1.9960419    -1.350992  0.020508594   -1.9960419   0.64504988  1070540 
   27000   0.90071417   -1.9954482   -1.9954482   -1.3499758  0.020189547   -1.9954482   0.64547242  1070540 
   28000    0.8981098   -1.9926321   -1.9926321   -1.3490261  0.017044943   -1.9926321   0.64360607  1070540 
   29000   0.90066933   -1.9933333   -1.9933333    -1.347893 0.0056207072   -1.9933333   0.64544029  1070540 
   30000     0.900476   -1.9919787   -1.9919787    -1.346677  0.015270638   -1.9919787   0.64530174  1070540 
   31000   0.90011351   -1.9904721   -1.9904721   -1.3454301  0.023661187   -1.9904721   0.64504197  1070540 
   32000   0.90077558   -1.9897303   -1.9897303   -1.3442138  0.021576931   -1.9897303   0.64551643  1070540 
   33000    0.9001605   -1.9883564   -1.9883564   -1.3432807  0.020156776   -1.9883564   0.64507564  1070540 
   34000   0.90094332   -1.9883171   -1.9883171   -1.3426804  0.020025659   -1.9883171   0.64563663  1070540 
   35000   0.89899426   -1.9866014   -1.9866014   -1.3423615  0.016364227   -1.9866014   0.64423989  1070540 
   36000   0.90035578   -1.9872388   -1.9872388   -1.3420233 0.0093934452   -1.9872388   0.64521559  1070540 
   37000   0.89855303   -1.9854291   -1.9854291   -1.3415054  0.013972294   -1.9854291    0.6439237  1070540 
   38000   0.90020644   -1.9855414   -1.9855414   -1.3404328  0.013417298   -1.9855414   0.64510857  1070540 
   39000   0.90124213   -1.9852888   -1.9852888    -1.339438  0.020949617   -1.9852888   0.64585076  1070540 
   40000   0.90101049   -1.9842803   -1.9842803   -1.3385955   0.01311942   -1.9842803   0.64568476  1070540 
   41000   0.90155802   -1.9845274   -1.9845274   -1.3384502  0.020097217   -1.9845274   0.64607714  1070540 
   42000   0.90245368   -1.9853282   -1.9853282   -1.3386092  0.013471985   -1.9853282   0.64671899  1070540 
   43000   0.90102547   -1.9853192   -1.9853192   -1.3396237  0.023349571   -1.9853192    0.6456955  1070540 
   44000   0.90049255   -1.9864563   -1.9864563   -1.3411427  0.011296946   -1.9864563    0.6453136  1070540 
   45000   0.90074225   -1.9883425   -1.9883425   -1.3428499  0.017256019   -1.9883425   0.64549254  1070540 
   46000   0.90084974   -1.9899796   -1.9899796     -1.34441 0.0089579856   -1.9899796   0.64556957  1070540 
   47000   0.89864083   -1.9897554   -1.9897554   -1.3457688  0.010412143   -1.9897554   0.64398661  1070540 
   48000   0.89975901   -1.9914682   -1.9914682   -1.3466803  0.015804433   -1.9914682   0.64478793  1070540 
   49000   0.89878033   -1.9913172   -1.9913172   -1.3472306  0.016733714   -1.9913172   0.64408658  1070540 
   50000   0.89988038   -1.9925037   -1.9925037   -1.3476288  0.010845449   -1.9925037    0.6448749  1070540 
   51000    0.9004601    -1.993314    -1.993314   -1.3480237   0.01737336    -1.993314   0.64529035  1070540 
   52000   0.90145081   -1.9945595   -1.9945595   -1.3485592  0.025204787   -1.9945595   0.64600031  1070540 
   53000   0.90287088   -1.9965641   -1.9965641   -1.3495461  0.021653042   -1.9965641   0.64701797  1070540 
   54000   0.90014303   -1.9961404   -1.9961404   -1.3510773  0.024504122   -1.9961404   0.64506313  1070540 
   55000   0.90104576    -1.998698    -1.998698    -1.352988  0.022788458    -1.998698   0.64571004  1070540 
   56000   0.89955796   -1.9990027   -1.9990027   -1.3543588  0.015982325   -1.9990027   0.64464385  1070540 
   57000    0.8998096   -2.0003966   -2.0003966   -1.3555725  0.015582204   -2.0003966   0.64482418  1070540 
   58000   0.89770454   -1.9995404   -1.9995404   -1.3562247  0.020880071   -1.9995404   0.64331564  1070540 
   59000   0.89955901   -2.0012876   -2.0012876    -1.356643  0.026109106   -2.0012876    0.6446446  1070540 
   60000   0.89876338   -2.0009473   -2.0009473   -1.3568729  0.032243298   -2.0009473   0.64407444  1070540 
   61000   0.90043547    -2.002531    -2.002531   -1.3572583  0.017245764    -2.002531    0.6452727  1070540 
   62000    0.9003464   -2.0028993   -2.0028993   -1.3576904  0.026247514   -2.0028993   0.64520887  1070540 
   63000   0.89969694   -2.0028974   -2.0028974   -1.3581539  0.029274104   -2.0028974   0.64474345  1070540 
   64000   0.89913086   -2.0029868   -2.0029868    -1.358649  0.025475767   -2.0029868   0.64433778  1070540 
   65000   0.90023623   -2.0042119   -2.0042119   -1.3590819  0.029040657   -2.0042119   0.64512992  1070540 
   66000   0.89802296   -2.0028609   -2.0028609   -1.3593171  0.025153223   -2.0028609   0.64354383  1070540 
   67000   0.89931892   -2.0034661   -2.0034661   -1.3589936  0.011093847   -2.0034661   0.64447255  1070540 
   68000   0.89865048   -2.0020411   -2.0020411   -1.3580475  0.020573759   -2.0020411   0.64399353  1070540 
   69000   0.90035931   -2.0021381   -2.0021381     -1.35692  0.024408541   -2.0021381   0.64521812  1070540 
   70000   0.89983243    -2.000515    -2.000515   -1.3556744  0.025086574    -2.000515   0.64484054  1070540 
   71000   0.90138038   -2.0007902   -2.0007902   -1.3548403  0.023958333   -2.0007902   0.64594984  1070540 
   72000   0.90012811   -1.9990442   -1.9990442   -1.3539918  0.024451161   -1.9990442   0.64505244  1070540 
   73000   0.90108925   -1.9988833   -1.9988833   -1.3531421  0.021481606   -1.9988833   0.64574121  1070540 
   74000   0.90078605   -1.9982926   -1.9982926   -1.3527687  0.014651872   -1.9982926   0.64552393  1070540 
   75000   0.90048494    -1.997696    -1.997696   -1.3523879  0.020254918    -1.997696   0.64530815  1070540 
   76000   0.89966776   -1.9967673   -1.9967673   -1.3520448  0.013746992   -1.9967673   0.64472254  1070540 
   77000    0.8991872   -1.9959896   -1.9959896   -1.3516114  0.021421676   -1.9959896   0.64437815  1070540 
   78000   0.89844983   -1.9950373   -1.9950373   -1.3511876  0.022091294   -1.9950373   0.64384974  1070540 
   79000   0.89980848   -1.9951601   -1.9951601   -1.3503367   0.01671996   -1.9951601   0.64482338  1070540 
   80000   0.90023988   -1.9946557   -1.9946557   -1.3495232  0.020851149   -1.9946557   0.64513253  1070540 
   81000   0.90033225   -1.9940313   -1.9940313   -1.3488326  0.018002271   -1.9940313   0.64519872  1070540 
   82000   0.89937003   -1.9925935   -1.9925935   -1.3480843  0.019825341   -1.9925935   0.64450918  1070540 
   83000   0.90115183   -1.9932351   -1.9932351    -1.347449  0.017927707   -1.9932351   0.64578605  1070540 
   84000   0.89980225   -1.9918811   -1.9918811   -1.3470622  0.015353684   -1.9918811   0.64481891  1070540 
   85000   0.89974221   -1.9918244   -1.9918244   -1.3470485  0.015899732   -1.9918244   0.64477589  1070540 
   86000   0.90030923   -1.9924442   -1.9924442   -1.3472619  0.013870056   -1.9924442   0.64518223  1070540 
   87000   0.89990517    -1.992343    -1.992343   -1.3474504  0.010789204    -1.992343   0.64489267  1070540 
   88000   0.90122034   -1.9934563   -1.9934563   -1.3476212  0.014883108   -1.9934563   0.64583515  1070540 
   89000   0.90045121   -1.9931273   -1.9931273   -1.3478433   0.01721937   -1.9931273   0.64528398  1070540 
   90000     0.899555   -1.9929942   -1.9929942   -1.3483524  0.012333526   -1.9929942   0.64464173  1070540 
   91000   0.90106535   -1.9946201   -1.9946201    -1.348896  0.015546515   -1.9946201   0.64572408  1070540 
   92000   0.90011659   -1.9943344   -1.9943344   -1.3492903  0.017627817   -1.9943344   0.64504418  1070540 
   93000   0.90044044   -1.9951323   -1.9951323    -1.349856  0.015660923   -1.9951323   0.64527626  1070540 
   94000   0.89945405   -1.9947607   -1.9947607   -1.3501914  0.016170952   -1.9947607   0.64456939  1070540 
   95000   0.90003888   -1.9951979   -1.9951979   -1.3502094  0.016041096   -1.9951979   0.64498849  1070540 
   96000   0.90186066   -1.9966505   -1.9966505   -1.3503565  0.015375751   -1.9966505   0.64629402  1070540 
   97000   0.90119677   -1.9964201   -1.9964201   -1.3506018  0.018833358   -1.9964201   0.64581826  1070540 
   98000   0.90029819   -1.9964601   -1.9964601   -1.3512858   0.02221752   -1.9964601   0.64517432  1070540 
   99000   0.90166972   -1.9983339   -1.9983339   -1.3521767  0.026715767   -1.9983339   0.64615719  1070540 
  100000   0.90057822   -1.9985515   -1.9985515   -1.3531765  0.015494837   -1.9985515   0.64537499  1070540 
  101000   0.90074466   -1.9993724   -1.9993724   -1.3538781  0.016417494   -1.9993724   0.64549427  1070540 
  102000   0.89980692   -1.9994954   -1.9994954   -1.3546732  0.023820301   -1.9994954   0.64482226  1070540 
  103000   0.90094797   -2.0009403   -2.0009403   -1.3553004  0.012615644   -2.0009403   0.64563996  1070540 
  104000    0.9001309   -2.0009909   -2.0009909   -1.3559364  0.015683956   -2.0009909   0.64505443  1070540 
  105000   0.90022108   -2.0014901   -2.0014901    -1.356371   0.02176317   -2.0014901   0.64511906  1070540 
  106000   0.89993509   -2.0017355   -2.0017355   -1.3568214  0.027868494   -2.0017355   0.64491411  1070540 
  107000    0.9003596   -2.0025598   -2.0025598   -1.3573415  0.019656604   -2.0025598   0.64521833  1070540 
  108000   0.89935837   -2.0024052   -2.0024052   -1.3579044  0.026463798   -2.0024052   0.64450082  1070540 
  109000   0.89970139   -2.0032138   -2.0032138   -1.3584672  0.026703228   -2.0032138   0.64474664  1070540 
  110000   0.89853157   -2.0026603   -2.0026603   -1.3587519  0.022325854   -2.0026603   0.64390832  1070540 
  111000   0.89892461   -2.0029497   -2.0029497   -1.3587597  0.029573821   -2.0029497   0.64418998  1070540 
  112000          0.9   -2.0033676   -2.0033676    -1.358407  0.025484753   -2.0033676   0.64496063  1070540 
  113000   0.90109787   -2.0027963   -2.0027963   -1.3570489  0.031004562   -2.0027963   0.64574739  1070540 
  114000   0.90138626   -2.0020835   -2.0020835   -1.3561295  0.030130832   -2.0020835   0.64595405  1070540 
  115000   0.90205107   -2.0026146   -2.0026146   -1.3561841  0.028030806   -2.0026146   0.64643047  1070540 
  116000   0.90027335   -2.0017249   -2.0017249   -1.3565684  0.028269136   -2.0017249   0.64515651  1070540 
  117000    0.8994262   -2.0014595   -2.0014595   -1.3569101   0.01560012   -2.0014595   0.64454943  1070540 
  118000    0.8999779   -2.0021409   -2.0021409   -1.3571961  0.019444349   -2.0021409   0.64494479  1070540 
  119000    0.8984208   -2.0010656   -2.0010656   -1.3572367  0.024911245   -2.0010656   0.64382894  1070540 
  120000   0.89800526   -2.0002676   -2.0002676   -1.3567364   0.01363196   -2.0002676   0.64353115  1070540 
  121000   0.89925233   -1.9998506   -1.9998506   -1.3554258  0.016899227   -1.9998506   0.64442483  1070540 
  122000   0.90088784   -2.0002156   -2.0002156   -1.3546187  0.019063671   -2.0002156   0.64559687  1070540 
  123000    0.8993259   -1.9988854   -1.9988854   -1.3544079   0.02421218   -1.9988854   0.64447755  1070540 
  124000   0.89982222   -1.9989767   -1.9989767   -1.3541435  0.025277219   -1.9989767   0.64483323  1070540 
  125000   0.89978683   -1.9988203   -1.9988203   -1.3540124  0.017746136   -1.9988203   0.64480786  1070540 
  126000   0.90041691   -1.9992095   -1.9992095   -1.3539501  0.021727907   -1.9992095   0.64525939  1070540 
  127000   0.89931686    -1.998067    -1.998067    -1.353596  0.015038756    -1.998067   0.64447107  1070540 
  128000   0.89991342   -1.9977678   -1.9977678   -1.3528692  0.018195253   -1.9977678   0.64489858  1070540 
  129000   0.89952124   -1.9965502   -1.9965502   -1.3519327  0.021321422   -1.9965502   0.64461754  1070540 
  130000   0.90075837   -1.9967203   -1.9967203   -1.3512162  0.020937782   -1.9967203   0.64550409  1070540 
  131000   0.90018279    -1.996294    -1.996294   -1.3512023  0.014985406    -1.996294   0.64509162  1070540 
  132000   0.90090989   -1.9968423   -1.9968423   -1.3512297  0.022370218   -1.9968423   0.64561267  1070540 
  133000   0.90111396   -1.9973361   -1.9973361   -1.3515772  0.014078587   -1.9973361   0.64575892  1070540 
  134000   0.90116235   -1.9978454   -1.9978454   -1.3520518 0.0090465736   -1.9978454    0.6457936  1070540 
  135000   0.90041419   -1.9979243   -1.9979243   -1.3526668  0.016165569   -1.9979243   0.64525745  1070540 
  136000   0.90027035   -1.9988157   -1.9988157   -1.3536613  0.021140262   -1.9988157   0.64515437  1070540 
  137000    0.8981083   -1.9981915   -1.9981915   -1.3545866  0.011013954   -1.9981915     0.643605  1070540 
  138000   0.89933155   -1.9990991   -1.9990991   -1.3546175  0.018611155   -1.9990991    0.6444816  1070540 
  139000   0.90203638   -2.0009711   -2.0009711   -1.3545512  0.016193108   -2.0009711   0.64641995  1070540 
  140000   0.90020566   -1.9996856   -1.9996856   -1.3545776  0.025714967   -1.9996856   0.64510801  1070540 
  141000   0.90067475   -2.0001669   -2.0001669   -1.3547227  0.021052885   -2.0001669   0.64544417  1070540 
  142000   0.90039198   -2.0000175   -2.0000175    -1.354776  0.023263039   -2.0000175   0.64524153  1070540 
  143000   0.89939477   -1.9995849   -1.9995849    -1.355058   0.02827288   -1.9995849    0.6445269  1070540 
  144000   0.90005439   -2.0003943   -2.0003943   -1.3553947  0.025994257   -2.0003943   0.64499961  1070540 
  145000   0.89898267    -2.000366    -2.000366   -1.3561344 0.0098868731    -2.000366   0.64423158  1070540 
  146000   0.89855365   -2.0008257   -2.0008257   -1.3569015  0.024454146   -2.0008257   0.64392414  1070540 
  147000   0.89931765   -2.0019222   -2.0019222   -1.3574505  0.021941459   -2.0019222   0.64447164  1070540 
  148000   0.90020055   -2.0027546   -2.0027546   -1.3576502  0.024244929   -2.0027546   0.64510434  1070540 
  149000   0.89985511   -2.0025713   -2.0025713   -1.3577145  0.023936476   -2.0025713    0.6448568  1070540 
  150000   0.89998031   -2.0028794   -2.0028794   -1.3579329  0.021737112   -2.0028794   0.64494651  1070540 
  151000   0.89968608   -2.0026855   -2.0026855   -1.3579499  0.017413326   -2.0026855   0.64473566  1070540 
  152000   0.90064771   -2.0034549   -2.0034549   -1.3580301  0.016804289   -2.0034549   0.64542479  1070540 
  153000   0.89978216   -2.0024673   -2.0024673   -1.3576628  0.025455378   -2.0024673   0.64480452  1070540 
  154000   0.89963064   -2.0021135   -2.0021135   -1.3574176  0.037002469   -2.0021135   0.64469593  1070540 
  155000   0.90090531   -2.0028646   -2.0028646   -1.3572552  0.014385599   -2.0028646   0.64560939  1070540 
  156000   0.90067659   -2.0021539   -2.0021539   -1.3567084  0.029744894   -2.0021539   0.64544549  1070540 
  157000   0.90046222   -2.0015476   -2.0015476   -1.3562557  0.029921762   -2.0015476   0.64529186  1070540 
  158000   0.90126311   -2.0017506   -2.0017506   -1.3558848  0.024392378   -2.0017506    0.6458658  1070540 
  159000   0.89903177   -2.0000607   -2.0000607   -1.3557939  0.026900231   -2.0000607   0.64426677  1070540 
  160000   0.89984674   -2.0007975   -2.0007975   -1.3559467   0.02471566   -2.0007975   0.64485079  1070540 
  161000   0.89968521   -2.0010705   -2.0010705   -1.3563354  0.028699837   -2.0010705   0.64473504  1070540 
  162000   0.89956486   -2.0015562   -2.0015562   -1.3569074  0.021956216   -2.0015562    0.6446488  1070540 
  163000    0.8985229   -2.0012734   -2.0012734   -1.3573713  0.014542194   -2.0012734   0.64390211  1070540 
  164000    0.8964117   -1.9995826   -1.9995826   -1.3571934  0.019837241   -1.9995826   0.64238917  1070540 
  165000   0.89911262   -2.0005208   -2.0005208   -1.3561961  0.017066301   -2.0005208   0.64432471  1070540 
  166000   0.89808199   -1.9988531   -1.9988531    -1.355267  0.028800255   -1.9988531   0.64358614  1070540 
  167000   0.90081983   -2.0001609   -2.0001609   -1.3546128  0.017943271   -2.0001609   0.64554813  1070540 
  168000   0.89996926    -1.999245    -1.999245   -1.3543064  0.026818783    -1.999245    0.6449386  1070540 
  169000   0.89925936   -1.9984993   -1.9984993   -1.3540695  0.021664238   -1.9984993   0.64442986  1070540 
  170000   0.89884021   -1.9978196   -1.9978196   -1.3536901  0.023122094   -1.9978196   0.64412949  1070540 
  171000   0.89961253   -1.9980459   -1.9980459   -1.3533629  0.025598537   -1.9980459   0.64468296  1070540 
  172000   0.90056579   -1.9980522   -1.9980522   -1.3526861  0.021603393   -1.9980522   0.64536609  1070540 
  173000   0.90202823    -1.998519    -1.998519   -1.3521049  0.024187718    -1.998519    0.6464141  1070540 
  174000    0.9007572   -1.9973951   -1.9973951   -1.3518919  0.025168254   -1.9973951   0.64550325  1070540 
  175000     0.901174   -1.9980505   -1.9980505   -1.3522485  0.019520972   -1.9980505   0.64580194  1070540 
  176000   0.89847242    -1.997178    -1.997178    -1.353312  0.015918232    -1.997178   0.64386593  1070540 
  177000   0.89897257   -1.9985146   -1.9985146   -1.3542903  0.011569703   -1.9985146   0.64422435  1070540 
  178000   0.89818251   -1.9977623   -1.9977623   -1.3541042  0.014166932   -1.9977623   0.64365817  1070540 
  179000   0.89870998    -1.997889    -1.997889   -1.3538528  0.022832637    -1.997889   0.64403617  1070540 
  180000   0.90021308   -1.9985842   -1.9985842   -1.3534709  0.015004718   -1.9985842   0.64511333  1070540 
  181000   0.90035659   -1.9982849   -1.9982849   -1.3530687   0.02597276   -1.9982849   0.64521617  1070540 
  182000   0.90109805   -1.9985729   -1.9985729   -1.3528254  0.025163984   -1.9985729   0.64574752  1070540 
  183000   0.90003371   -1.9979314   -1.9979314   -1.3529466  0.021630982   -1.9979314   0.64498478  1070540 
  184000   0.89966517   -1.9981187   -1.9981187   -1.3533981  0.019644995   -1.9981187   0.64472068  1070540 
  185000   0.89872254   -1.9978145   -1.9978145   -1.3537694   0.02069087   -1.9978145   0.64404517  1070540 
  186000   0.89952734   -1.9991406   -1.9991406   -1.3545187  0.011274556   -1.9991406   0.64462191  1070540 
  187000   0.89929769   -2.0000468   -2.0000468   -1.3555895  0.014316541   -2.0000468   0.64445733  1070540 
  188000   0.89931796   -2.0005409   -2.0005409   -1.3560691  0.021804965   -2.0005409   0.64447186  1070540 
  189000   0.89929943   -2.0007941   -2.0007941   -1.3563356   0.02208525   -2.0007941   0.64445858  1070540 
  190000   0.89959449   -2.0008044   -2.0008044   -1.3561344  0.024169873   -2.0008044   0.64467003  1070540 
  191000   0.90102075   -2.0015327   -2.0015327   -1.3558406  0.026228596   -2.0015327   0.64569212  1070540 
  192000   0.90105352   -2.0013981   -2.0013981   -1.3556825  0.027048059   -2.0013981   0.64571561  1070540 
  193000   0.89974174   -2.0007992   -2.0007992   -1.3560236  0.027269848   -2.0007992   0.64477555  1070540 
  194000   0.89808035   -2.0007653   -2.0007653   -1.3571804  0.032922565   -2.0007653   0.64358497  1070540 
  195000   0.89781495   -2.0018083   -2.0018083   -1.3584135  0.023573588   -2.0018083   0.64339477  1070540 
  196000   0.89975111   -2.0035422   -2.0035422   -1.3587599  0.020614029   -2.0035422   0.64478227  1070540 
  197000   0.89851514   -2.0022561   -2.0022561   -1.3583596  0.022530751   -2.0022561   0.64389654  1070540 
  198000   0.90133444   -2.0036013   -2.0036013   -1.3576843  0.020812657   -2.0036013   0.64591692  1070540 
  199000   0.90051731   -2.0024403   -2.0024403   -1.3571089  0.021687196   -2.0024403   0.64533135  1070540 
  200000   0.89973017   -2.0016201   -2.0016201   -1.3568529  0.024098681   -2.0016201   0.64476726  1070540 
  201000   0.90143642   -2.0025504   -2.0025504   -1.3565604  0.023866991   -2.0025504      0.64599  1070540 
  202000   0.90153677   -2.0024768   -2.0024768   -1.3564149  0.022901077   -2.0024768   0.64606191  1070540 
  203000   0.90128662   -2.0021685   -2.0021685   -1.3562858  0.013595034   -2.0021685   0.64588265  1070540 
  204000   0.90026969   -2.0013124   -2.0013124   -1.3561585  0.033249772   -2.0013124    0.6451539  1070540 
  205000   0.90071172   -2.0014425   -2.0014425   -1.3559718  0.025106456   -2.0014425   0.64547066  1070540 
  206000   0.90050063   -2.0011122   -2.0011122   -1.3557928  0.023295276   -2.0011122   0.64531939  1070540 
  207000   0.90009425   -2.0007327   -2.0007327   -1.3557045  0.030352383   -2.0007327   0.64502817  1070540 
  208000   0.90048235   -2.0009461   -2.0009461   -1.3556399   0.02244097   -2.0009461   0.64530629  1070540 
  209000   0.89932911    -2.000288    -2.000288   -1.3558081  0.029008147    -2.000288   0.64447985  1070540 
  210000   0.89941043   -2.0004492   -2.0004492    -1.355911  0.021574143   -2.0004492   0.64453812  1070540 
  211000   0.89877337   -2.0000124   -2.0000124   -1.3559308  0.021244807   -2.0000124    0.6440816  1070540 
  212000    0.9001903   -2.0005401   -2.0005401   -1.3554431  0.015606691   -2.0005401     0.645097  1070540 
  213000   0.90064533   -1.9999836   -1.9999836   -1.3545605  0.021406595   -1.9999836   0.64542309  1070540 
  214000   0.90052246   -1.9990935   -1.9990935   -1.3537585  0.021126278   -1.9990935   0.64533503  1070540 
  215000   0.89998313   -1.9979987   -1.9979987   -1.3530501  0.021889674   -1.9979987   0.64494854  1070540 
  216000   0.90026153   -1.9981014   -1.9981014   -1.3529533  0.021239183   -1.9981014   0.64514805  1070540 
  217000   0.90189159   -1.9991065   -1.9991065   -1.3527904  0.016866869   -1.9991065   0.64631619  1070540 
  218000   0.90057196   -1.9983532   -1.9983532   -1.3529827  0.019550707   -1.9983532   0.64537051  1070540 
  219000   0.89915043   -1.9978976   -1.9978976   -1.3535458   0.02447213   -1.9978976    0.6443518  1070540 
  220000   0.89971683   -1.9989243   -1.9989243   -1.3541666  0.019453592   -1.9989243    0.6447577  1070540 
  221000    0.8987631   -1.9990455   -1.9990455   -1.3549713  0.020902066   -1.9990455   0.64407424  1070540 
  222000   0.89762274   -1.9989147   -1.9989147   -1.3556576  0.018280636   -1.9989147   0.64325703  1070540 
  223000   0.89827616   -1.9994743   -1.9994743    -1.355749  0.019643164   -1.9994743   0.64372528  1070540 
  224000   0.90010284   -2.0002613   -2.0002613    -1.355227  0.019215047   -2.0002613   0.64503433  1070540 
  225000   0.90028766   -1.9990597   -1.9990597   -1.3538929  0.026337353   -1.9990597   0.64516677  1070540 
  226000   0.90097524   -1.9988844   -1.9988844   -1.3532249  0.025278197   -1.9988844   0.64565951  1070540 
  227000   0.90282867   -2.0001458   -2.0001458    -1.353158  0.024588158   -2.0001458   0.64698772  1070540 
  228000   0.90201402   -2.0002226   -2.0002226   -1.3538187  0.026988534   -2.0002226   0.64640392  1070540 
  229000   0.89975741   -1.9993549   -1.9993549   -1.3545681  0.024282723   -1.9993549   0.64478678  1070540 
  230000   0.89902383   -1.9991717   -1.9991717   -1.3549107   0.03095839   -1.9991717   0.64426108  1070540 
  231000   0.90046597   -2.0007069   -2.0007069   -1.3554124  0.020390756   -2.0007069   0.64529455  1070540 
  232000   0.89966101   -2.0004807   -2.0004807    -1.355763  0.024843224   -2.0004807    0.6447177  1070540 
  233000   0.90087553   -2.0018702   -2.0018702   -1.3562821  0.028306033   -2.0018702   0.64558805  1070540 
  234000   0.90097749   -2.0027381   -2.0027381    -1.357077  0.025753049   -2.0027381   0.64566112  1070540 
  235000    0.9004695   -2.0028442   -2.0028442   -1.3575471  0.026936703   -2.0028442   0.64529708  1070540 
  236000   0.89918916    -2.001987    -2.001987   -1.3576074  0.021029547    -2.001987   0.64437956  1070540 
  237000   0.89927082   -2.0019163   -2.0019163   -1.3574782  0.013462378   -2.0019163   0.64443808  1070540 
  238000   0.89801643   -2.0005177   -2.0005177   -1.3569786  0.031698242   -2.0005177   0.64353916  1070540 
  239000   0.89981274   -2.0014664   -2.0014664     -1.35664  0.021606111   -2.0014664   0.64482643  1070540 
  240000   0.90115566   -2.0019916   -2.0019916   -1.3562028  0.026814581   -2.0019916    0.6457888  1070540 
  241000   0.90231244    -2.002645    -2.002645   -1.3560272  0.027316484    -2.002645   0.64661777  1070540 
  242000   0.90044842   -2.0014731   -2.0014731   -1.3561912  0.029919132   -2.0014731   0.64528198  1070540 
  243000   0.90038768   -2.0021255   -2.0021255    -1.356887  0.030643995   -2.0021255   0.64523845  1070540 
  244000   0.89957688   -2.0029522   -2.0029522   -1.3582948  0.021263847   -2.0029522   0.64465741  1070540 
  245000   0.89672727   -2.0012845   -2.0012845   -1.3586692   0.02538737   -2.0012845   0.64261531  1070540 
  246000   0.89811597   -2.0020407   -2.0020407   -1.3584302  0.020626801   -2.0020407   0.64361049  1070540 
  247000   0.89847472   -2.0013537   -2.0013537   -1.3574861  0.022956293   -2.0013537   0.64386757  1070540 
  248000   0.90050599   -2.0021085   -2.0021085   -1.3567852  0.017175209   -2.0021085   0.64532323  1070540 
  249000   0.89957131   -2.0009221   -2.0009221   -1.3562687  0.024566978   -2.0009221   0.64465342  1070540 
  250000   0.90033686   -2.0012032   -2.0012032   -1.3560012  0.029246876   -2.0012032   0.64520203  1070540 
  251000   0.89988192   -2.0006742   -2.0006742   -1.3557982  0.026189609   -2.0006742   0.64487601  1070540 
  252000   0.89975437    -2.000434    -2.000434   -1.3556494   0.03151727    -2.000434    0.6447846  1070540 
  253000   0.89982138   -2.0004763   -2.0004763   -1.3556437  0.020350476   -2.0004763   0.64483262  1070540 
  254000   0.89961015   -2.0004672   -2.0004672    -1.355786  0.018448672   -2.0004672   0.64468125  1070540 
  255000   0.89990027   -2.0001274   -2.0001274   -1.3552383  0.027342845   -2.0001274   0.64488916  1070540 
  256000    0.9014304   -2.0005783   -2.0005783   -1.3545926  0.031087493   -2.0005783   0.64598569  1070540 
  257000   0.90161632   -2.0001553   -2.0001553   -1.3540364  0.028539701   -2.0001553   0.64611892  1070540 
  258000   0.90079912   -1.9998107   -1.9998107   -1.3542774   0.03340062   -1.9998107   0.64553329  1070540 
  259000   0.90064515   -2.0001884   -2.0001884   -1.3547654   0.01973189   -2.0001884   0.64542296  1070540 
  260000   0.89810043   -1.9992469   -1.9992469   -1.3556475  0.027033369   -1.9992469   0.64359935  1070540 
  261000   0.89792064   -1.9992994   -1.9992994   -1.3558289  0.017698858   -1.9992994   0.64347051  1070540 
  262000   0.89821126   -1.9992904   -1.9992904   -1.3556116  0.021025186   -1.9992904   0.64367878  1070540 
  263000   0.89986549   -1.9993365   -1.9993365   -1.3544723  0.021266718   -1.9993365   0.64486424  1070540 
  264000   0.89990293    -1.998618    -1.998618   -1.3537269  0.022730925    -1.998618   0.64489107  1070540 
  265000   0.89981209   -1.9983504   -1.9983504   -1.3535245  0.028653124   -1.9983504   0.64482597  1070540 
  266000   0.89923768   -1.9975867   -1.9975867   -1.3531724   0.02590185   -1.9975867   0.64441433  1070540 
  267000   0.89971836   -1.9975483   -1.9975483   -1.3527895  0.023034463   -1.9975483    0.6447588  1070540 
  268000   0.90151333    -1.998404    -1.998404   -1.3523589  0.021713162    -1.998404   0.64604512  1070540 
  269000   0.90164982    -1.998572    -1.998572   -1.3524291  0.018742025    -1.998572   0.64614292  1070540 
  270000   0.90109967   -1.9984953   -1.9984953   -1.3527466  0.021955363   -1.9984953   0.64574868  1070540 
  271000   0.90033293   -1.9986614   -1.9986614   -1.3534622  0.017423272   -1.9986614   0.64519921  1070540 
  272000   0.89934092   -1.9985156   -1.9985156   -1.3540273  0.021561072   -1.9985156   0.64448832  1070540 
  273000   0.89887914   -1.9986704   -1.9986704    -1.354513  0.013471273   -1.9986704   0.64415739  1070540 
  274000   0.89987091    -1.999457    -1.999457   -1.3545889  0.018142331    -1.999457   0.64486812  1070540 
  275000   0.89976467   -1.9991482   -1.9991482   -1.3543562  0.025301419   -1.9991482   0.64479198  1070540 
  276000   0.90028992   -1.9994073   -1.9994073   -1.3542389  0.025537488   -1.9994073   0.64516839  1070540 
  277000   0.90226485   -2.0004446   -2.0004446   -1.3538609  0.019752962   -2.0004446   0.64658367  1070540 
  278000   0.90104184   -1.9994601   -1.9994601   -1.3537529  0.019132922   -1.9994601   0.64570723  1070540 
  279000   0.90041344   -1.9992156   -1.9992156   -1.3539587  0.019553317   -1.9992156   0.64525691  1070540 
  280000    0.9003895   -1.9996053   -1.9996053   -1.3543656  0.023159196   -1.9996053   0.64523975  1070540 
  281000   0.89954827   -1.9997116   -1.9997116   -1.3550747  0.027209941   -1.9997116   0.64463691  1070540 
  282000   0.90012325   -2.0004746   -2.0004746   -1.3554256  0.021185209   -2.0004746   0.64504895  1070540 
  283000    0.9010423   -2.0014992   -2.0014992   -1.3557916  0.017147151   -2.0014992   0.64570757  1070540 
  284000   0.89981943   -2.0006705   -2.0006705   -1.3558393  0.029110258   -2.0006705   0.64483123  1070540 
  285000   0.89916488   -2.0004409   -2.0004409   -1.3560787  0.027424565   -2.0004409   0.64436216  1070540 
  286000    0.8990146    -2.000353    -2.000353   -1.3560985   0.03026068    -2.000353   0.64425447  1070540 
  287000   0.89859829   -2.0000581   -2.0000581    -1.356102  0.020154557   -2.0000581   0.64395613  1070540 
  288000   0.90029001   -2.0004195   -2.0004195    -1.355251  0.030109803   -2.0004195   0.64516846  1070540 
  289000   0.90069514   -1.9998287   -1.9998287   -1.3543699  0.028298627   -1.9998287   0.64545878  1070540 
  290000   0.90187798   -2.0001983   -2.0001983   -1.3538919  0.018340448   -2.0001983   0.64630643  1070540 
  291000   0.90225286   -2.0004462   -2.0004462   -1.3538711  0.027995182   -2.0004462   0.64657508  1070540 
  292000   0.89998484    -1.999216    -1.999216   -1.3542662  0.030136945    -1.999216   0.64494977  1070540 
  293000   0.90075188   -2.0002992   -2.0002992   -1.3547997  0.023408004   -2.0002992   0.64549944  1070540 
  294000   0.89911308    -1.999895    -1.999895     -1.35557  0.030072683    -1.999895   0.64432504  1070540 
  295000   0.89928378   -2.0004296   -2.0004296   -1.3559822  0.023531693   -2.0004296   0.64444737  1070540 
  296000   0.89887168   -2.0003836   -2.0003836   -1.3562316  0.014947425   -2.0003836   0.64415205  1070540 
  297000   0.90021746   -2.0009499   -2.0009499   -1.3558334  0.026697135   -2.0009499   0.64511647  1070540 
  298000   0.89953173   -1.9994942   -1.9994942   -1.3548691  0.021366488   -1.9994942   0.64462505  1070540 
  299000   0.90031505   -1.9982214   -1.9982214    -1.353035  0.029331558   -1.9982214    0.6451864  1070540 
  300000   0.90114726   -1.9985838   -1.9985838    -1.352801  0.023276293   -1.9985838   0.64578278  1070540 
  301000    0.9009459   -1.9985136   -1.9985136   -1.3528751  0.022186728   -1.9985136   0.64563848  1070540 
  302000   0.90040516   -1.9983922   -1.9983922   -1.3531413  0.019278618   -1.9983922   0.64525098  1070540 
  303000   0.89982125   -1.9983499   -1.9983499   -1.3535174  0.026574448   -1.9983499   0.64483253  1070540 
  304000   0.89939144   -1.9983224   -1.9983224   -1.3537979  0.019864949   -1.9983224   0.64452452  1070540 
  305000   0.89897655   -1.9984555   -1.9984555   -1.3542283  0.022535473   -1.9984555    0.6442272  1070540 
  306000   0.89944309    -1.998834    -1.998834   -1.3542725  0.023760498    -1.998834   0.64456153  1070540 
  307000   0.89980254    -1.999044    -1.999044   -1.3542249  0.030463824    -1.999044   0.64481912  1070540 
  308000   0.90021511   -1.9986752   -1.9986752   -1.3535604  0.022904318   -1.9986752   0.64511478  1070540 
  309000   0.90035337   -1.9978327   -1.9978327   -1.3526188  0.023237363   -1.9978327   0.64521386  1070540 
  310000   0.89919756   -1.9962536   -1.9962536    -1.351868  0.026139234   -1.9962536   0.64438558  1070540 
  311000    0.9013905   -1.9973655   -1.9973655   -1.3514084  0.020801633   -1.9973655   0.64595709  1070540 
  312000   0.90076157   -1.9968324   -1.9968324    -1.351326  0.027264405   -1.9968324   0.64550639  1070540 
  313000   0.90077812    -1.997255    -1.997255   -1.3517368  0.018674672    -1.997255   0.64551824  1070540 
  314000   0.90073322   -1.9977097   -1.9977097   -1.3522236  0.022918836   -1.9977097   0.64548607  1070540 
  315000   0.90017213   -1.9979963   -1.9979963   -1.3529124  0.023761044   -1.9979963   0.64508398  1070540 
  316000   0.89893258   -1.9973955   -1.9973955   -1.3531998  0.032473584   -1.9973955   0.64419569  1070540 
  317000   0.90027928   -1.9982927   -1.9982927   -1.3531319  0.022286971   -1.9982927   0.64516076  1070540 
  318000   0.90128013   -1.9990739   -1.9990739   -1.3531959  0.025530619   -1.9990739     0.645878  1070540 
  319000   0.89891349   -1.9973712   -1.9973712   -1.3531892  0.024621573   -1.9973712   0.64418201  1070540 
  320000   0.90041001   -1.9984333   -1.9984333   -1.3531789  0.022290305   -1.9984333   0.64525445  1070540 
  321000    0.9013693   -1.9989917   -1.9989917   -1.3530498  0.020125503   -1.9989917    0.6459419  1070540 
  322000   0.90063933   -1.9984281   -1.9984281   -1.3530093  0.024685164   -1.9984281   0.64541879  1070540 
  323000   0.89941879   -1.9978922   -1.9978922    -1.353348  0.025803617   -1.9978922   0.64454412  1070540 
  324000   0.90085763   -1.9997102   -1.9997102    -1.354135  0.026708207   -1.9997102   0.64557522  1070540 
  325000   0.89822656   -1.9985941   -1.9985941   -1.3549044  0.021810008   -1.9985941   0.64368974  1070540 
  326000   0.89833041   -1.9988996   -1.9988996   -1.3551354  0.020598289   -1.9988996   0.64376416  1070540 
  327000   0.89901535   -1.9995028   -1.9995028   -1.3552478  0.029079609   -1.9995028   0.64425501  1070540 
  328000   0.89994843    -1.999857    -1.999857   -1.3549333  0.021229824    -1.999857   0.64492367  1070540 
  329000   0.90024314   -1.9994418   -1.9994418    -1.354307  0.023348817   -1.9994418   0.64513486  1070540 
  330000   0.90040924   -1.9988324   -1.9988324   -1.3535785  0.026329727   -1.9988324    0.6452539  1070540 
  331000   0.90196764   -1.9993841   -1.9993841   -1.3530135  0.027618819   -1.9993841   0.64637068  1070540 
  332000   0.90050155   -1.9981216   -1.9981216   -1.3528016  0.028795695   -1.9981216   0.64532005  1070540 
  333000   0.90143663   -1.9990737   -1.9990737   -1.3530836  0.022379822   -1.9990737   0.64599015  1070540 
  334000   0.90090932   -2.0000591   -2.0000591   -1.3544469  0.033124535   -2.0000591   0.64561227  1070540 
  335000   0.89915827   -1.9998479   -1.9998479   -1.3554904  0.023966179   -1.9998479   0.64435743  1070540 
  336000   0.89936157   -2.0002743   -2.0002743   -1.3557711  0.023294999   -2.0002743   0.64450311  1070540 
  337000   0.89897474    -1.999839    -1.999839   -1.3556131  0.029308525    -1.999839   0.64422591  1070540 
  338000   0.89912068   -1.9995209   -1.9995209   -1.3551904  0.023389724   -1.9995209   0.64433049  1070540 
  339000   0.90016471    -1.999764    -1.999764   -1.3546853  0.029671224    -1.999764   0.64507866  1070540 
  340000   0.90158651   -2.0002778   -2.0002778   -1.3541803  0.024813163   -2.0002778   0.64609755  1070540 
  341000   0.90110623   -1.9996927   -1.9996927   -1.3539393  0.027067939   -1.9996927   0.64575338  1070540 
  342000   0.89998466   -1.9988474   -1.9988474   -1.3538978  0.024958954   -1.9988474   0.64494964  1070540 
  343000   0.90002063   -1.9986884   -1.9986884    -1.353713  0.029111956   -1.9986884   0.64497541  1070540 
  344000    0.9000135   -1.9987199   -1.9987199   -1.3537496  0.025183839   -1.9987199    0.6449703  1070540 
  345000   0.90024054   -1.9992145   -1.9992145   -1.3540815  0.017517482   -1.9992145     0.645133  1070540 
  346000   0.89938471   -1.9986777   -1.9986777    -1.354158  0.016914733   -1.9986777    0.6445197  1070540 
  347000   0.89923018   -1.9982571   -1.9982571   -1.3538481  0.021955202   -1.9982571   0.64440895  1070540 
  348000   0.89991604   -1.9979015   -1.9979015   -1.3530011  0.027235341   -1.9979015   0.64490046  1070540 
  349000   0.90026371   -1.9974928   -1.9974928   -1.3523432  0.024954148   -1.9974928   0.64514961  1070540 
  350000    0.9010129   -1.9977128   -1.9977128   -1.3520263  0.023313736   -1.9977128   0.64568649  1070540 
  351000   0.89952237   -1.9961923   -1.9961923   -1.3515739  0.025224102   -1.9961923   0.64461835  1070540 
  352000   0.90057132   -1.9964947   -1.9964947   -1.3511247  0.021519276   -1.9964947   0.64537005  1070540 
  353000   0.89956543   -1.9953433   -1.9953433   -1.3506941  0.031628564   -1.9953433    0.6446492  1070540 
  354000   0.90130841   -1.9961455   -1.9961455   -1.3502473  0.019522229   -1.9961455   0.64589827  1070540 
  355000   0.90134471   -1.9957311   -1.9957311   -1.3498068    0.0292774   -1.9957311   0.64592428  1070540 
  356000   0.90174147   -1.9953144   -1.9953144   -1.3491057  0.024682072   -1.9953144   0.64620861  1070540 
  357000   0.90169644   -1.9951655   -1.9951655   -1.3489892  0.031209776   -1.9951655   0.64617634  1070540 
  358000   0.90155962   -1.9959012   -1.9959012   -1.3498229  0.022259288   -1.9959012   0.64607829  1070540 
  359000   0.90134063   -1.9967661   -1.9967661   -1.3508447  0.022082516   -1.9967661   0.64592135  1070540 
  360000   0.90028366   -1.9966762   -1.9966762   -1.3515123  0.021044427   -1.9966762    0.6451639  1070540 
  361000   0.89888982   -1.9961231   -1.9961231   -1.3519581  0.028543112   -1.9961231   0.64416505  1070540 
  362000   0.90038797    -1.997316    -1.997316   -1.3520774  0.014166228    -1.997316   0.64523865  1070540 
  363000   0.90110241   -1.9976531   -1.9976531   -1.3519025  0.024063138   -1.9976531   0.64575064  1070540 
  364000   0.90061128   -1.9975932   -1.9975932   -1.3521945  0.026692587   -1.9975932   0.64539869  1070540 
  365000   0.89894558   -1.9966945   -1.9966945   -1.3524895  0.022540458   -1.9966945     0.644205  1070540 
  366000   0.89905721   -1.9971979   -1.9971979   -1.3529128  0.020293333   -1.9971979   0.64428501  1070540 
  367000   0.89888747   -1.9977179   -1.9977179   -1.3535545  0.024138087   -1.9977179   0.64416336  1070540 
  368000   0.90035344   -1.9993644   -1.9993644   -1.3541504  0.016409536   -1.9993644   0.64521391  1070540 
  369000   0.89842049   -1.9983142   -1.9983142   -1.3544855   0.02316292   -1.9983142   0.64382871  1070540 
  370000   0.89798145   -1.9980722   -1.9980722   -1.3545581  0.024621874   -1.9980722   0.64351409  1070540 
  371000   0.89977586   -1.9990615   -1.9990615   -1.3542615  0.022582501   -1.9990615       0.6448  1070540 
  372000    0.9008972   -1.9990698   -1.9990698   -1.3534662  0.022339853   -1.9990698   0.64560358  1070540 
  373000   0.90236106   -1.9993435   -1.9993435   -1.3526908  0.028023389   -1.9993435   0.64665262  1070540 
  374000    0.9018171   -1.9987754   -1.9987754   -1.3525126  0.029694516   -1.9987754    0.6462628  1070540 
  375000    0.9015937   -1.9992544   -1.9992544   -1.3531517  0.028023882   -1.9992544   0.64610271  1070540 
  376000   0.90030375    -1.999334    -1.999334   -1.3541557  0.026952471    -1.999334    0.6451783  1070540 
  377000   0.90051648   -2.0000376   -2.0000376   -1.3547069  0.026503697   -2.0000376   0.64533075  1070540 
  378000   0.90113461   -2.0006484   -2.0006484   -1.3548747  0.023064155   -2.0006484   0.64577371  1070540 
  379000   0.89945386   -1.9997183   -1.9997183   -1.3551491  0.030898809   -1.9997183   0.64456925  1070540 
  380000   0.90046385   -2.0004853   -2.0004853   -1.3551923   0.03273642   -2.0004853   0.64529303  1070540 
  381000   0.89964722   -2.0004707   -2.0004707   -1.3557629  0.027128944   -2.0004707   0.64470781  1070540 
  382000   0.89935761   -2.0007655   -2.0007655   -1.3562652  0.022879798   -2.0007655   0.64450028  1070540 
  383000   0.89923899   -2.0008584   -2.0008584   -1.3564432  0.016824581   -2.0008584   0.64441527  1070540 
  384000   0.89756297   -1.9995194   -1.9995194   -1.3563052  0.028379291   -1.9995194   0.64321419  1070540 
  385000   0.89791828   -1.9983271   -1.9983271   -1.3548583  0.022597407   -1.9983271   0.64346882  1070540 
  386000   0.90035833   -1.9989653   -1.9989653   -1.3537479  0.023662804   -1.9989653   0.64521742  1070540 
  387000   0.90000785   -1.9983702   -1.9983702    -1.353404  0.030125228   -1.9983702   0.64496625  1070540 
  388000   0.89965859   -1.9978101   -1.9978101   -1.3530941  0.024157786   -1.9978101   0.64471596  1070540 
  389000   0.90112527   -1.9984679   -1.9984679   -1.3527008  0.026226932   -1.9984679   0.64576702  1070540 
  390000   0.90028428   -1.9977546   -1.9977546   -1.3525903  0.023891306   -1.9977546   0.64516435  1070540 
  391000   0.90012901   -1.9979427   -1.9979427   -1.3528896  0.031728925   -1.9979427   0.64505308  1070540 
  392000   0.89933453   -1.9979663   -1.9979663   -1.3534826  0.020216964   -1.9979663   0.64448374  1070540 
  393000   0.90018918   -1.9990198   -1.9990198   -1.3539236  0.020121066   -1.9990198    0.6450962  1070540 
  394000   0.89927143   -1.9988058   -1.9988058   -1.3543673  0.016844388   -1.9988058   0.64443852  1070540 
  395000   0.89943795   -1.9992639   -1.9992639    -1.354706  0.022856309   -1.9992639   0.64455785  1070540 
  396000   0.89893283   -1.9989069   -1.9989069   -1.3547111  0.023821078   -1.9989069   0.64419587  1070540 
  397000   0.90030361   -1.9990026   -1.9990026   -1.3538244  0.021654761   -1.9990026    0.6451782  1070540 
  398000   0.89985165   -1.9976978   -1.9976978   -1.3528435  0.022910992   -1.9976978   0.64485432  1070540 
  399000   0.90089425   -1.9979236   -1.9979236   -1.3523221  0.028548319   -1.9979236   0.64560147  1070540 
  400000   0.90138368   -1.9983037   -1.9983037   -1.3523515  0.023031162   -1.9983037    0.6459522  1070540 
  401000    0.9010408   -1.9985931   -1.9985931   -1.3528866  0.024624801   -1.9985931   0.64570649  1070540 
  402000   0.89971853   -1.9982697   -1.9982697   -1.3535108  0.022060436   -1.9982697   0.64475892  1070540 
  403000   0.89948365   -1.9984915   -1.9984915   -1.3539009   0.02925404   -1.9984915    0.6445906  1070540 
  404000   0.90002071   -1.9990266   -1.9990266   -1.3540512  0.016912875   -1.9990266   0.64497547  1070540 
  405000   0.89945462   -1.9986976   -1.9986976   -1.3541278  0.025864892   -1.9986976    0.6445698  1070540 
  406000   0.90075707   -1.9998564   -1.9998564   -1.3543532   0.02933418   -1.9998564   0.64550316  1070540 
  407000   0.90061963   -2.0000953   -2.0000953   -1.3546906  0.023164687   -2.0000953   0.64540467  1070540 
  408000   0.90125204   -2.0009384   -2.0009384   -1.3550805  0.010261111   -2.0009384   0.64585787  1070540 
  409000   0.89951396   -2.0002408   -2.0002408   -1.3556285  0.027300964   -2.0002408   0.64461232  1070540 
  410000    0.8993239   -2.0004495   -2.0004495   -1.3559734  0.015767649   -2.0004495   0.64447612  1070540 
  411000   0.89876554   -2.0003068   -2.0003068   -1.3562308  0.026735197   -2.0003068   0.64407599  1070540 
  412000   0.89815909   -2.0003408   -2.0003408   -1.3566994  0.021467748   -2.0003408   0.64364139  1070540 
  413000   0.89737033   -1.9999935   -1.9999935   -1.3569174  0.027340074   -1.9999935   0.64307615  1070540 
  414000   0.90060352    -2.001939    -2.001939   -1.3565459  0.026900137    -2.001939   0.64539312  1070540 
  415000   0.89882117   -1.9999866   -1.9999866   -1.3558707  0.028278484   -1.9999866   0.64411585  1070540 
  416000   0.90093797   -2.0008043   -2.0008043   -1.3551715  0.030254756   -2.0008043    0.6456328  1070540 
  417000   0.90179049   -2.0011661   -2.0011661   -1.3549223  0.027298037   -2.0011661   0.64624373  1070540 
  418000   0.90010923   -1.9999432   -1.9999432   -1.3549043  0.030040502   -1.9999432    0.6450389  1070540 
  419000   0.89923532   -1.9997248   -1.9997248   -1.3553122  0.028013959   -1.9997248   0.64441264  1070540 
  420000   0.89819454   -1.9992573   -1.9992573   -1.3555905  0.025049622   -1.9992573   0.64366679  1070540 
  421000   0.89816739   -1.9990244   -1.9990244   -1.3553771   0.02389502   -1.9990244   0.64364734  1070540 
  422000   0.90029976   -1.9999552   -1.9999552   -1.3547797  0.023757111   -1.9999552   0.64517544  1070540 
  423000   0.90072395   -1.9994443   -1.9994443   -1.3539649  0.023554414   -1.9994443   0.64547943  1070540 
  424000   0.90079297   -1.9989601   -1.9989601   -1.3534312  0.021104431   -1.9989601   0.64552889  1070540 
  425000    0.9009558    -1.999124    -1.999124   -1.3534784  0.032723123    -1.999124   0.64564558  1070540 
  426000   0.90021438   -1.9988898   -1.9988898   -1.3537756  0.016510341   -1.9988898   0.64511425  1070540 
  427000   0.90082388   -1.9999734   -1.9999734   -1.3544224  0.017124535   -1.9999734   0.64555104  1070540 
  428000   0.89789392   -1.9990831   -1.9990831   -1.3556318  0.028956769   -1.9990831   0.64345136  1070540 
  429000   0.89668579   -1.9986923   -1.9986923   -1.3561067  0.016570029   -1.9986923   0.64258559  1070540 
  430000   0.89762588   -1.9990327   -1.9990327   -1.3557734  0.018269105   -1.9990327   0.64325928  1070540 
  431000   0.89777424   -1.9984443   -1.9984443   -1.3550787  0.026847056   -1.9984443   0.64336559  1070540 
  432000   0.89860304   -1.9983974   -1.9983974   -1.3544379  0.023024375   -1.9983974   0.64395953  1070540 
  433000   0.90068742   -1.9994621   -1.9994621   -1.3540088  0.025553765   -1.9994621   0.64545325  1070540 
  434000   0.90092087    -1.999333    -1.999333   -1.3537125  0.026263583    -1.999333   0.64562054  1070540 
  435000    0.9009495   -1.9993801   -1.9993801    -1.353739  0.029216094   -1.9993801   0.64564106  1070540 
  436000   0.90094295   -1.9998683   -1.9998683   -1.3542319  0.027714134   -1.9998683   0.64563637  1070540 
  437000   0.89989689   -1.9999624   -1.9999624   -1.3550756  0.025989347   -1.9999624   0.64488674  1070540 
  438000   0.90029516   -2.0009359   -2.0009359   -1.3557638  0.027104652   -2.0009359   0.64517215  1070540 
  439000   0.89998656   -2.0011717   -2.0011717   -1.3562207  0.029479352   -2.0011717   0.64495099  1070540 
  440000   0.90015594    -2.001487    -2.001487   -1.3564146  0.029696286    -2.001487   0.64507238  1070540 
  441000    0.8998279   -2.0013822   -2.0013822   -1.3565449  0.028849691   -2.0013822    0.6448373  1070540 
  442000   0.90015252   -2.0013318   -2.0013318   -1.3562619  0.018338138   -2.0013318   0.64506993  1070540 
  443000   0.90006962   -2.0010441   -2.0010441   -1.3560336  0.023816372   -2.0010441   0.64501052  1070540 
  444000   0.90008175   -2.0006528   -2.0006528   -1.3556336  0.022022832   -2.0006528   0.64501921  1070540 
  445000   0.90065839   -2.0003293   -2.0003293   -1.3548968  0.023981933   -2.0003293   0.64543245  1070540 
  446000   0.90180728   -1.9998639   -1.9998639   -1.3536082   0.02537077   -1.9998639   0.64625577  1070540 
  447000   0.90225178   -1.9994535   -1.9994535   -1.3528792  0.034551229   -1.9994535    0.6465743  1070540 
  448000   0.90276455   -2.0000791   -2.0000791   -1.3531373  0.029218653   -2.0000791   0.64694177  1070540 
  449000   0.90119606   -1.9996206   -1.9996206   -1.3538029  0.024182709   -1.9996206   0.64581775  1070540 
  450000   0.90024319   -1.9995481   -1.9995481   -1.3544132  0.029583855   -1.9995481    0.6451349  1070540 
  451000   0.90011695   -1.9999916   -1.9999916   -1.3549471   0.02647335   -1.9999916   0.64504444  1070540 
  452000   0.90063941   -2.0005347   -2.0005347   -1.3551158   0.01812078   -2.0005347   0.64541885  1070540 
  453000   0.89799132   -1.9986453   -1.9986453   -1.3551242  0.020663508   -1.9986453   0.64352116  1070540 
  454000   0.89880446   -1.9985701   -1.9985701   -1.3544663  0.025676513   -1.9985701   0.64410388  1070540 
  455000   0.89941847   -1.9981011   -1.9981011   -1.3535572  0.021960844   -1.9981011   0.64454389  1070540 
  456000   0.90115753   -1.9986342   -1.9986342   -1.3528441  0.025876421   -1.9986342   0.64579014  1070540 
  457000   0.90067691   -1.9982925   -1.9982925   -1.3528468  0.020709297   -1.9982925   0.64544572  1070540 
  458000   0.90082215   -1.9983216   -1.9983216   -1.3527718  0.022380482   -1.9983216    0.6455498  1070540 
  459000   0.90012737   -1.9978921   -1.9978921   -1.3528402  0.026795299   -1.9978921    0.6450519  1070540 
  460000   0.90093942   -1.9986801   -1.9986801   -1.3530462  0.026019325   -1.9986801   0.64563384  1070540 
  461000   0.90107312   -1.9993475   -1.9993475   -1.3536179  0.024997384   -1.9993475   0.64572965  1070540 
  462000   0.89834955   -1.9979943   -1.9979943   -1.3542164  0.024597105   -1.9979943   0.64377787  1070540 
  463000   0.89791414   -1.9979973   -1.9979973   -1.3545314  0.020634321   -1.9979973   0.64346585  1070540 
  464000   0.89972457   -1.9990518   -1.9990518   -1.3542886  0.026813111   -1.9990518   0.64476325  1070540 
  465000   0.90031563   -1.9982718   -1.9982718    -1.353085  0.022866885   -1.9982718   0.64518682  1070540 
  466000   0.90085351   -1.9978135   -1.9978135   -1.3522412  0.033252785   -1.9978135   0.64557227  1070540 
  467000   0.90203344   -1.9985365   -1.9985365   -1.3521187  0.024025154   -1.9985365   0.64641784  1070540 
  468000   0.90109233   -1.9985002   -1.9985002   -1.3527568  0.031487604   -1.9985002   0.64574342  1070540 
  469000   0.90046803     -1.99878     -1.99878    -1.353484  0.022135663     -1.99878   0.64529603  1070540 
  470000    0.8979852   -1.9973547   -1.9973547   -1.3538379   0.02459909   -1.9973547   0.64351678  1070540 
  471000   0.89962977    -1.998719    -1.998719   -1.3540236  0.027120697    -1.998719   0.64469531  1070540 
  472000   0.90060772   -1.9993324   -1.9993324   -1.3539363  0.024352584   -1.9993324   0.64539614  1070540 
  473000   0.90071948   -1.9997083   -1.9997083   -1.3542321  0.018134779   -1.9997083   0.64547623  1070540 
  474000   0.90035803   -1.9997494   -1.9997494   -1.3545322  0.029852027   -1.9997494    0.6452172  1070540 
  475000   0.89991827   -2.0000405   -2.0000405   -1.3551385  0.023800546   -2.0000405   0.64490206  1070540 
  476000   0.89836343   -1.9998764   -1.9998764   -1.3560886  0.029089941   -1.9998764   0.64378782  1070540 
  477000   0.89696009   -1.9996921   -1.9996921     -1.35691  0.029247038   -1.9996921   0.64278216  1070540 
  478000   0.89804632   -2.0003224   -2.0003224   -1.3567618  0.025648594   -2.0003224   0.64356058  1070540 
  479000   0.89896887   -2.0000486   -2.0000486   -1.3558269  0.026100209   -2.0000486   0.64422169  1070540 
  480000    0.8989609   -1.9988158   -1.9988158   -1.3545998  0.028994651   -1.9988158   0.64421598  1070540 
  481000   0.90146469   -2.0004965   -2.0004965   -1.3544862  0.028716649   -2.0004965   0.64601026  1070540 
  482000   0.90048046    -1.999986    -1.999986   -1.3546811  0.031232862    -1.999986   0.64530494  1070540 
  483000   0.89836956   -1.9987036   -1.9987036   -1.3549113  0.036493667   -1.9987036   0.64379222  1070540 
  484000   0.89927767   -1.9997618   -1.9997618   -1.3553188  0.027406866   -1.9997618   0.64444299  1070540 
  485000   0.90082918    -2.001179    -2.001179   -1.3556241  0.023814023    -2.001179   0.64555484  1070540 
  486000   0.89949564    -2.000478    -2.000478   -1.3558788  0.019900482    -2.000478   0.64459919  1070540 
  487000   0.89967988   -2.0002836   -2.0002836   -1.3555524  0.027107242   -2.0002836   0.64473122  1070540 
  488000    0.9000337   -1.9998827   -1.9998827   -1.3548979  0.034139558   -1.9998827   0.64498478  1070540 
  489000    0.9008722   -1.9997835   -1.9997835   -1.3541978  0.031647016   -1.9997835   0.64558567  1070540 
  490000   0.90107322   -1.9995983   -1.9995983   -1.3538685  0.030445508   -1.9995983   0.64572972  1070540 
  491000   0.90106121   -1.9998765   -1.9998765   -1.3541554  0.029542743   -1.9998765   0.64572111  1070540 
  492000   0.89934234     -1.99936     -1.99936   -1.3548707  0.036628731     -1.99936   0.64448933  1070540 
  493000   0.89771414   -1.9993027   -1.9993027   -1.3559802  0.022334948   -1.9993027   0.64332253  1070540 
  494000   0.89797966   -1.9997609   -1.9997609   -1.3562481  0.026384712   -1.9997609   0.64351281  1070540 
  495000     0.898755   -2.0003374   -2.0003374    -1.356269  0.026778072   -2.0003374   0.64406843  1070540 
  496000   0.89966159   -2.0006737   -2.0006737   -1.3559555  0.028048377   -2.0006737   0.64471812  1070540 
  497000   0.89891604   -1.9997697   -1.9997697   -1.3555858  0.017986263   -1.9997697   0.64418384  1070540 
  498000   0.89905659   -1.9995507   -1.9995507   -1.3552661  0.028809284   -1.9995507   0.64428456  1070540 
  499000   0.90006416   -2.0000089   -2.0000089   -1.3550023  0.029447098   -2.0000089   0.64500661  1070540 
  500000   0.90036316   -1.9999573   -1.9999573   -1.3547364   0.01899554   -1.9999573   0.64522088  1070540 
  501000   0.89926683   -1.9988849   -1.9988849   -1.3544496  0.039982595   -1.9988849   0.64443522  1070540 
  502000   0.90153814   -2.0000209   -2.0000209    -1.353958  0.023934354   -2.0000209   0.64606289  1070540 
  503000   0.90116304   -1.9989085   -1.9989085   -1.3531144  0.029329183   -1.9989085   0.64579409  1070540 
  504000   0.90287002   -1.9992937   -1.9992937   -1.3522764  0.021359473   -1.9992937   0.64701735  1070540 
  505000   0.90260397   -1.9988975   -1.9988975   -1.3520708  0.034251754   -1.9988975    0.6468267  1070540 
  506000   0.90135552   -1.9984156   -1.9984156   -1.3524835  0.031019212   -1.9984156   0.64593203  1070540 
  507000   0.89966334   -1.9985234   -1.9985234    -1.353804  0.028935115   -1.9985234   0.64471937  1070540 
  508000   0.89971435   -1.9993481   -1.9993481   -1.3545922  0.030083919   -1.9993481   0.64475593  1070540 
  509000   0.89979353   -1.9995733   -1.9995733   -1.3547606  0.023224723   -1.9995733   0.64481266  1070540 
  510000   0.89890902   -1.9988946   -1.9988946   -1.3547158  0.018110919   -1.9988946   0.64417881  1070540 
  511000   0.89895686   -1.9986701   -1.9986701    -1.354457  0.016998637   -1.9986701   0.64421309  1070540 
  512000   0.89892071   -1.9980124   -1.9980124   -1.3538252  0.019105258   -1.9980124   0.64418718  1070540 
  513000   0.90063102   -1.9985347   -1.9985347   -1.3531219  0.028634518   -1.9985347   0.64541283  1070540 
  514000   0.90074097    -1.998127    -1.998127   -1.3526354   0.02500874    -1.998127   0.64549163  1070540 
  515000    0.9007935   -1.9979591   -1.9979591   -1.3524298  0.027505498   -1.9979591   0.64552927  1070540 
  516000   0.89991501   -1.9973772   -1.9973772   -1.3524775  0.026433096   -1.9973772   0.64489972  1070540 
  517000   0.90228366    -1.999452    -1.999452   -1.3528548  0.028183552    -1.999452   0.64659715  1070540 
  518000   0.89989734   -1.9985616   -1.9985616   -1.3536745  0.033137882   -1.9985616   0.64488706  1070540 
  519000   0.90007762   -1.9996743   -1.9996743   -1.3546581  0.023346501   -1.9996743   0.64501625  1070540 
  520000   0.89964828   -1.9993573   -1.9993573   -1.3546487  0.025926561   -1.9993573   0.64470857  1070540 
  521000    0.8988849   -1.9988414   -1.9988414   -1.3546799  0.022824829   -1.9988414   0.64416152  1070540 
  522000   0.89931673   -1.9989991   -1.9989991   -1.3545281  0.017960975   -1.9989991   0.64447098  1070540 
  523000   0.89999197   -1.9991539   -1.9991539    -1.354199  0.027109298   -1.9991539   0.64495487  1070540 
  524000   0.90046208   -1.9992204   -1.9992204   -1.3539286   0.02643718   -1.9992204   0.64529176  1070540 
  525000     0.900093   -1.9986756   -1.9986756   -1.3536483  0.023394663   -1.9986756   0.64502727  1070540 
  526000   0.90152584   -1.9994297   -1.9994297   -1.3533756  0.030296847   -1.9994297   0.64605408  1070540 
  527000   0.90034745   -1.9985628   -1.9985628   -1.3533532  0.026358102   -1.9985628   0.64520962  1070540 
  528000   0.89893664   -1.9976255   -1.9976255   -1.3534269  0.032340002   -1.9976255    0.6441986  1070540 
  529000   0.89910139   -1.9981856   -1.9981856    -1.353869   0.02627174   -1.9981856   0.64431667  1070540 
  530000   0.89999084   -1.9993916   -1.9993916   -1.3544375  0.026833647   -1.9993916   0.64495406  1070540 
  531000   0.89900154   -1.9992307   -1.9992307   -1.3549856  0.025218218   -1.9992307   0.64424511  1070540 
  532000   0.89848341   -1.9993253   -1.9993253   -1.3554515  0.029643205   -1.9993253   0.64387381  1070540 
  533000   0.89817404   -1.9992933   -1.9992933   -1.3556412  0.027634319   -1.9992933    0.6436521  1070540 
  534000   0.89859361   -1.9991948   -1.9991948    -1.355242  0.019906774   -1.9991948   0.64395278  1070540 
  535000    0.9006516   -1.9996634   -1.9996634   -1.3542358  0.020915325   -1.9996634   0.64542758  1070540 
  536000   0.90112154   -1.9988861   -1.9988861   -1.3531217  0.026422447   -1.9988861   0.64576435  1070540 
  537000   0.90020158   -1.9980133   -1.9980133   -1.3529082  0.028437258   -1.9980133   0.64510508  1070540 
  538000   0.90086627    -1.998735    -1.998735   -1.3531536  0.032730455    -1.998735   0.64558142  1070540 
  539000   0.90077293   -1.9990237   -1.9990237   -1.3535092  0.029350403   -1.9990237   0.64551453  1070540 
  540000   0.90028119   -1.9990609   -1.9990609   -1.3538988  0.029254727   -1.9990609   0.64516213  1070540 
  541000   0.89891987   -1.9986061   -1.9986061   -1.3544195   0.02755767   -1.9986061   0.64418658  1070540 
  542000   0.89876686   -1.9988087   -1.9988087   -1.3547317  0.023542896   -1.9988087   0.64407693  1070540 
  543000   0.89878577   -1.9989408   -1.9989408   -1.3548503   0.03091295   -1.9989408   0.64409048  1070540 
  544000   0.90010773    -1.999433    -1.999433   -1.3543952   0.01847092    -1.999433   0.64503783  1070540 
  545000   0.90008442   -1.9982349   -1.9982349   -1.3532137  0.030305853   -1.9982349   0.64502112  1070540 
  546000   0.90125046   -1.9981211   -1.9981211   -1.3522644  0.030483076   -1.9981211   0.64585674  1070540 
  547000   0.90144377   -1.9980761   -1.9980761   -1.3520808  0.027149211   -1.9980761   0.64599526  1070540 
  548000   0.89998187   -1.9972884   -1.9972884   -1.3523408  0.026918526   -1.9972884   0.64494764  1070540 
  549000   0.90091166   -1.9983521   -1.9983521   -1.3527382  0.025609321   -1.9983521   0.64561395  1070540 
  550000   0.89826064   -1.9969194   -1.9969194   -1.3532052  0.028320804   -1.9969194   0.64371416  1070540 
  551000   0.89938428   -1.9981246   -1.9981246   -1.3536053  0.021518832   -1.9981246   0.64451939  1070540 
  552000   0.90006073    -1.998893    -1.998893   -1.3538889  0.027535086    -1.998893   0.64500415  1070540 
  553000   0.89983181   -1.9990705   -1.9990705   -1.3542304  0.028532316   -1.9990705    0.6448401  1070540 
  554000   0.89922016   -1.9997853   -1.9997853   -1.3553835   0.02002166   -1.9997853   0.64440178  1070540 
  555000   0.89818188   -1.9997737   -1.9997737    -1.356116  0.020676789   -1.9997737   0.64365772  1070540 
  556000    0.8984898   -1.9996336   -1.9996336   -1.3557552  0.016162103   -1.9996336   0.64387838  1070540 
  557000   0.89967108   -1.9997622   -1.9997622   -1.3550372   0.02369348   -1.9997622   0.64472491  1070540 
  558000   0.89972235   -1.9990297   -1.9990297    -1.354268  0.019203061   -1.9990297   0.64476166  1070540 
  559000   0.90184392   -2.0002122   -2.0002122   -1.3539302  0.024472681   -2.0002122   0.64628202  1070540 
  560000   0.90114067   -1.9998432   -1.9998432   -1.3540651  0.029660259   -1.9998432   0.64577806  1070540 
  561000   0.90128389   -2.0001141   -2.0001141   -1.3542334  0.026838565   -2.0001141   0.64588069  1070540 
  562000   0.90018356   -1.9999639   -1.9999639   -1.3548718  0.029502345   -1.9999639   0.64509217  1070540 
  563000   0.89848085    -1.999225    -1.999225   -1.3553531  0.030478089    -1.999225   0.64387197  1070540 
  564000   0.89912774   -1.9997732   -1.9997732   -1.3554377  0.024826498   -1.9997732   0.64433555  1070540 
  565000   0.89890469   -1.9994826   -1.9994826   -1.3553069   0.03372921   -1.9994826    0.6441757  1070540 
  566000   0.90006684   -1.9997592   -1.9997592   -1.3547507  0.021554791   -1.9997592   0.64500853  1070540 
  567000   0.90255604   -2.0003054   -2.0003054    -1.353513  0.029919621   -2.0003054   0.64679234  1070540 
  568000   0.90247372   -1.9993196   -1.9993196   -1.3525862  0.030853803   -1.9993196   0.64673335  1070540 
  569000   0.90100632   -1.9982855   -1.9982855   -1.3526037  0.031679564   -1.9982855   0.64568178  1070540 
  570000   0.90224837   -1.9995664   -1.9995664   -1.3529946   0.02408151   -1.9995664   0.64657186  1070540 
  571000   0.90002605   -1.9983647   -1.9983647   -1.3533854  0.019662539   -1.9983647    0.6449793  1070540 
  572000   0.89983268   -1.9984206   -1.9984206   -1.3535798  0.027237493   -1.9984206   0.64484072  1070540 
  573000   0.89977089   -1.9985493   -1.9985493   -1.3537528   0.01927711   -1.9985493   0.64479644  1070540 
  574000   0.89824953    -1.997196    -1.997196   -1.3534898  0.020945113    -1.997196    0.6437062  1070540 
  575000   0.89980308   -1.9977597   -1.9977597   -1.3529402   0.02831174   -1.9977597   0.64481951  1070540 
  576000   0.90125888    -1.997969    -1.997969   -1.3521062  0.026338479    -1.997969   0.64586277  1070540 
  577000   0.90045363   -1.9969698   -1.9969698   -1.3516841  0.027522252   -1.9969698   0.64528571  1070540 
  578000   0.90122192   -1.9975365   -1.9975365   -1.3517002  0.027961437   -1.9975365   0.64583628  1070540 
  579000   0.89942463   -1.9964951   -1.9964951   -1.3519468  0.028715811   -1.9964951    0.6445483  1070540 
  580000    0.8979621   -1.9956004   -1.9956004   -1.3521002  0.018932237   -1.9956004   0.64350022  1070540 
  581000   0.89986426   -1.9968617   -1.9968617   -1.3519983  0.018742309   -1.9968617   0.64486335  1070540 
  582000   0.90089987    -1.997259    -1.997259   -1.3516535  0.016827719    -1.997259   0.64560549  1070540 
  583000    0.8999223   -1.9964706   -1.9964706   -1.3515657   0.03029645   -1.9964706   0.64490494  1070540 
  584000   0.90063869   -1.9971062   -1.9971062   -1.3516879  0.024999767   -1.9971062   0.64541832  1070540 
  585000   0.90058358   -1.9973766   -1.9973766   -1.3519977  0.026477163   -1.9973766   0.64537883  1070540 
  586000     0.899749    -1.997236    -1.997236   -1.3524553  0.030451444    -1.997236   0.64478075  1070540 
  587000   0.90097662   -1.9986743   -1.9986743   -1.3530138  0.022924993   -1.9986743    0.6456605  1070540 
  588000   0.89937665   -1.9983481   -1.9983481   -1.3538342  0.022783277   -1.9983481   0.64451392  1070540 
  589000   0.89879488   -1.9982832   -1.9982832   -1.3541862  0.025628454   -1.9982832   0.64409701  1070540 
  590000   0.90051949   -1.9996218   -1.9996218   -1.3542889  0.025381666   -1.9996218   0.64533291  1070540 
  591000   0.90046975   -1.9997341   -1.9997341   -1.3544368  0.026394058   -1.9997341   0.64529726  1070540 
  592000   0.89963214   -1.9995973   -1.9995973   -1.3549003  0.030854585   -1.9995973   0.64469701  1070540 
  593000   0.89971428   -2.0001508   -2.0001508    -1.355395  0.032365469   -2.0001508   0.64475587  1070540 
  594000   0.89909042   -2.0009239   -2.0009239   -1.3566151  0.033405714   -2.0009239    0.6443088  1070540 
  595000   0.89875465   -2.0012559   -2.0012559   -1.3571877  0.026883482   -2.0012559   0.64406818  1070540 
  596000   0.89941417   -2.0018242   -2.0018242   -1.3572834  0.031722274   -2.0018242   0.64454081  1070540 
  597000   0.89948166   -2.0016425   -2.0016425   -1.3570533  0.027616297   -2.0016425   0.64458917  1070540 
  598000   0.90071333    -2.002169    -2.002169   -1.3566972  0.036240033    -2.002169   0.64547182  1070540 
  599000   0.90085796   -2.0021731   -2.0021731   -1.3565977  0.035817414   -2.0021731   0.64557546  1070540 
  600000   0.90013395   -2.0017999   -2.0017999   -1.3567433  0.035670983   -2.0017999   0.64505662  1070540 
  601000   0.90110348   -2.0026703   -2.0026703   -1.3569189  0.020435476   -2.0026703   0.64575141  1070540 
  602000   0.90035653      -2.0027      -2.0027   -1.3574839  0.023537124      -2.0027   0.64521612  1070540 
  603000   0.89759168   -2.0017106   -2.0017106   -1.3584758   0.02484184   -2.0017106   0.64323477  1070540 
  604000   0.89770846     -2.00203     -2.00203   -1.3587115  0.028640874     -2.00203   0.64331845  1070540 
  605000   0.89882095   -2.0025003   -2.0025003   -1.3583846  0.028535183   -2.0025003    0.6441157  1070540 
  606000   0.89893743   -2.0014055   -2.0014055   -1.3572064  0.032434108   -2.0014055   0.64419917  1070540 
  607000    0.9007048   -2.0019572   -2.0019572   -1.3564915  0.025131302   -2.0019572    0.6454657  1070540 
  608000   0.89997293   -2.0010952   -2.0010952    -1.356154  0.028589147   -2.0010952   0.64494123  1070540 
  609000   0.90039998   -2.0011696   -2.0011696   -1.3559223  0.029943927   -2.0011696   0.64524726  1070540 
  610000   0.90017344   -2.0006458   -2.0006458   -1.3555609  0.019506522   -2.0006458   0.64508492  1070540 
  611000   0.89911329   -1.9995732   -1.9995732    -1.355248  0.030997135   -1.9995732   0.64432519  1070540 
  612000    0.8990636   -1.9988819   -1.9988819   -1.3545923   0.02967756   -1.9988819   0.64428958  1070540 
  613000   0.89940618   -1.9984796   -1.9984796   -1.3539445   0.02481382   -1.9984796   0.64453508  1070540 
  614000   0.90029467   -1.9985117   -1.9985117   -1.3533399  0.021449601   -1.9985117    0.6451718  1070540 
  615000   0.90038276   -1.9980746   -1.9980746   -1.3528397  0.028004949   -1.9980746   0.64523492  1070540 
  616000   0.90142396   -1.9984879   -1.9984879   -1.3525069  0.024415127   -1.9984879   0.64598107  1070540 
  617000   0.90134175   -1.9980081   -1.9980081   -1.3520859  0.026431587   -1.9980081   0.64592216  1070540 
  618000   0.90003536   -1.9967212   -1.9967212   -1.3517352  0.024970166   -1.9967212   0.64498597  1070540 
  619000   0.90091621   -1.9969601   -1.9969601   -1.3513429  0.027159919   -1.9969601   0.64561721  1070540 
  620000   0.90251262    -1.997783    -1.997783   -1.3510218   0.02502668    -1.997783   0.64676123  1070540 
  621000   0.90031364   -1.9965247   -1.9965247   -1.3513393  0.029558626   -1.9965247   0.64518539  1070540 
  622000   0.89974251   -1.9967457   -1.9967457   -1.3519696  0.022340245   -1.9967457    0.6447761  1070540 
  623000   0.89820643    -1.996325    -1.996325   -1.3526497  0.029658421    -1.996325   0.64367531  1070540 
  624000   0.89740301   -1.9960709   -1.9960709   -1.3529713  0.027614206   -1.9960709   0.64309956  1070540 
  625000   0.89959642   -1.9973199   -1.9973199   -1.3526484  0.020118721   -1.9973199   0.64467142  1070540 
  626000   0.89929903   -1.9963019   -1.9963019   -1.3518436  0.023071153   -1.9963019    0.6444583  1070540 
  627000   0.89958826   -1.9958482   -1.9958482   -1.3511826  0.034706768   -1.9958482   0.64466557  1070540 
  628000    0.9015751   -1.9969972   -1.9969972   -1.3509078  0.028317943   -1.9969972   0.64608938  1070540 
  629000   0.90077821    -1.996501    -1.996501   -1.3509827  0.028201388    -1.996501   0.64551831  1070540 
  630000   0.90208783   -1.9979334   -1.9979334   -1.3514766  0.025984792   -1.9979334   0.64645681  1070540 
  631000   0.90064465   -1.9974209   -1.9974209   -1.3519983  0.024932565   -1.9974209    0.6454226  1070540 
  632000   0.90161833   -1.9983703   -1.9983703   -1.3522499  0.025052137   -1.9983703   0.64612036  1070540 
  633000   0.90082947   -1.9981717   -1.9981717   -1.3526167  0.028357823   -1.9981717   0.64555505  1070540 
  634000   0.90054604   -1.9985923   -1.9985923   -1.3532404  0.022964295   -1.9985923   0.64535193  1070540 
  635000    0.9000708   -1.9989448   -1.9989448   -1.3539335  0.030721631   -1.9989448   0.64501136  1070540 
  636000   0.90009745   -1.9994783   -1.9994783   -1.3544478  0.020663683   -1.9994783   0.64503046  1070540 
  637000   0.89966676   -1.9993215   -1.9993215   -1.3545996  0.031787487   -1.9993215   0.64472182  1070540 
  638000   0.89974923   -1.9996059   -1.9996059    -1.354825  0.032552612   -1.9996059   0.64478092  1070540 
  639000   0.90003171   -1.9998294   -1.9998294    -1.354846  0.025334414   -1.9998294   0.64498335  1070540 
  640000   0.89936915   -1.9994365   -1.9994365    -1.354928  0.026480067   -1.9994365   0.64450855  1070540 
  641000   0.89904854   -1.9990918   -1.9990918    -1.354813  0.027573774   -1.9990918   0.64427879  1070540 
  642000   0.90054997   -1.9994599   -1.9994599   -1.3541052  0.020043625   -1.9994599   0.64535475  1070540 
  643000      0.90233   -1.9996364   -1.9996364   -1.3530061  0.028098844   -1.9996364   0.64663036  1070540 
  644000   0.90175517   -1.9988636   -1.9988636   -1.3526451    0.0293843   -1.9988636   0.64621842  1070540 
  645000   0.90183387   -1.9992327   -1.9992327   -1.3529579  0.027929673   -1.9992327   0.64627482  1070540 
  646000   0.90165555    -1.999964    -1.999964    -1.353817  0.029914621    -1.999964   0.64614703  1070540 
  647000   0.90043504   -1.9997683   -1.9997683   -1.3544959  0.031548412   -1.9997683   0.64527238  1070540 
  648000   0.89888439   -1.9991792   -1.9991792    -1.355018  0.029324961   -1.9991792   0.64416116  1070540 
  649000   0.89864751   -1.9990402   -1.9990402   -1.3550488  0.035991496   -1.9990402    0.6439914  1070540 
  650000   0.89918958   -1.9993685   -1.9993685   -1.3549886  0.028708542   -1.9993685   0.64437986  1070540 
  651000   0.89927883   -1.9990667   -1.9990667   -1.3546229  0.031218308   -1.9990667   0.64444382  1070540 
  652000   0.90021409   -1.9992312   -1.9992312   -1.3541171  0.023621501   -1.9992312   0.64511405  1070540 
  653000   0.90249136   -2.0001998   -2.0001998   -1.3534538  0.024074852   -2.0001998     0.646746  1070540 
  654000   0.90065026   -1.9981507   -1.9981507    -1.352724  0.025097291   -1.9981507   0.64542662  1070540 
  655000   0.90161462   -1.9985194   -1.9985194   -1.3524017  0.025223603   -1.9985194    0.6461177  1070540 
  656000   0.90127731   -1.9976903   -1.9976903   -1.3518143  0.025875707   -1.9976903   0.64587598  1070540 
  657000   0.90099422   -1.9967814   -1.9967814   -1.3511083  0.037536317   -1.9967814   0.64567311  1070540 
  658000   0.90226582   -1.9971425   -1.9971425   -1.3505581  0.038770199   -1.9971425   0.64658436  1070540 
  659000   0.90293425   -1.9983138   -1.9983138   -1.3512504  0.031575355   -1.9983138   0.64706338  1070540 
  660000   0.90069105   -1.9978105   -1.9978105   -1.3523547  0.035019068   -1.9978105   0.64545585  1070540 
  661000   0.90065311   -1.9986718   -1.9986718   -1.3532432  0.020073029   -1.9986718   0.64542866  1070540 
  662000   0.90061532   -1.9992591   -1.9992591   -1.3538575  0.029324983   -1.9992591   0.64540158  1070540 
  663000   0.89854176   -1.9981888   -1.9981888   -1.3542732   0.02733762   -1.9981888   0.64391562  1070540 
  664000    0.8984844   -1.9980682   -1.9980682   -1.3541937  0.020223872   -1.9980682   0.64387451  1070540 
  665000   0.89917289   -1.9984123   -1.9984123   -1.3540444  0.021162739   -1.9984123    0.6443679  1070540 
  666000   0.90007392   -1.9981954   -1.9981954   -1.3531818  0.030777097   -1.9981954    0.6450136  1070540 
  667000   0.90060727   -1.9978967   -1.9978967   -1.3525009  0.032742989   -1.9978967   0.64539581  1070540 
  668000   0.90048825   -1.9976116   -1.9976116    -1.352301  0.030439238   -1.9976116   0.64531052  1070540 
  669000   0.90116723   -1.9981917   -1.9981917   -1.3523946  0.032961617   -1.9981917   0.64579709  1070540 
  670000   0.90053548    -1.998276    -1.998276   -1.3529316  0.028693619    -1.998276   0.64534436  1070540 
  671000   0.89897803   -1.9981385   -1.9981385   -1.3539103  0.024780616   -1.9981385   0.64422826  1070540 
  672000   0.89935322   -1.9992559   -1.9992559   -1.3547587  0.026813526   -1.9992559   0.64449713  1070540 
  673000   0.89949006   -1.9996264   -1.9996264   -1.3550312  0.024256003   -1.9996264   0.64459519  1070540 
  674000   0.89932939   -1.9996315   -1.9996315   -1.3551515  0.032329352   -1.9996315   0.64448005  1070540 
  675000   0.89916639   -1.9993262   -1.9993262   -1.3549629  0.026464039   -1.9993262   0.64436324  1070540 
  676000   0.89945132   -1.9993123   -1.9993123   -1.3547449  0.025833708   -1.9993123   0.64456743  1070540 
  677000   0.89917506   -1.9988241   -1.9988241   -1.3544546  0.030618272   -1.9988241   0.64436946  1070540 
  678000   0.89965823   -1.9988584   -1.9988584   -1.3541427  0.023524915   -1.9988584   0.64471571  1070540 
  679000   0.89996199   -1.9984275   -1.9984275   -1.3534941  0.030319829   -1.9984275   0.64493339  1070540 
  680000   0.90136349   -1.9990825   -1.9990825   -1.3531448  0.022715792   -1.9990825   0.64593774  1070540 
  681000   0.90209265   -1.9993564   -1.9993564   -1.3528961  0.028558691   -1.9993564   0.64646027  1070540 
  682000   0.90113915   -1.9988761   -1.9988761   -1.3530991   0.02644344   -1.9988761   0.64577697  1070540 
  683000   0.90010342   -1.9991956   -1.9991956   -1.3541609  0.023997166   -1.9991956   0.64503474  1070540 
  684000   0.89901399    -1.999289    -1.999289    -1.355035  0.018025765    -1.999289   0.64425403  1070540 
  685000   0.89900101   -1.9995932   -1.9995932   -1.3553484  0.027900575   -1.9995932   0.64424473  1070540 
  686000   0.89888203   -1.9992008   -1.9992008   -1.3550413  0.028965024   -1.9992008   0.64415946  1070540 
  687000   0.89860849   -1.9985522   -1.9985522   -1.3545888   0.02887295   -1.9985522   0.64396344  1070540 
  688000   0.90000948   -1.9986548   -1.9986548   -1.3536874  0.030305319   -1.9986548   0.64496742  1070540 
  689000   0.89971109   -1.9979756   -1.9979756    -1.353222  0.024891676   -1.9979756   0.64475359  1070540 
  690000   0.90014649   -1.9978721   -1.9978721   -1.3528065   0.03404256   -1.9978721    0.6450656  1070540 
  691000    0.9005051   -1.9980252   -1.9980252   -1.3527027  0.028930332   -1.9980252   0.64532259  1070540 
  692000   0.89992242    -1.997736    -1.997736   -1.3528309  0.030811003    -1.997736   0.64490503  1070540 
  693000   0.89924837   -1.9976201   -1.9976201   -1.3531981  0.033190191   -1.9976201   0.64442199  1070540 
  694000   0.89887511   -1.9980085   -1.9980085    -1.353854  0.023187169   -1.9980085   0.64415451  1070540 
  695000   0.89751008   -1.9981788   -1.9981788   -1.3550025  0.025625251   -1.9981788   0.64317629  1070540 
  696000   0.89672823    -1.998044    -1.998044    -1.355428  0.030350658    -1.998044     0.642616  1070540 
  697000   0.89837021   -1.9991128   -1.9991128   -1.3553202   0.03077398   -1.9991128   0.64379269  1070540 
  698000   0.89810569   -1.9981323   -1.9981323   -1.3545292  0.024531818   -1.9981323   0.64360312  1070540 
  699000   0.89999515   -1.9984442   -1.9984442   -1.3534871  0.022619839   -1.9984442   0.64495715  1070540 
  700000   0.90056114   -1.9982406   -1.9982406   -1.3528778  0.020075347   -1.9982406   0.64536275  1070540 
  701000    0.8998836   -1.9974782   -1.9974782    -1.352601  0.032813421   -1.9974782   0.64487721  1070540 
  702000   0.90071602   -1.9978454   -1.9978454   -1.3523717  0.028144102   -1.9978454   0.64547374  1070540 
  703000   0.90118166   -1.9983142   -1.9983142   -1.3525068  0.023388193   -1.9983142   0.64580744  1070540 
  704000   0.89961977   -1.9974719   -1.9974719   -1.3527838  0.020008695   -1.9974719   0.64468814  1070540 
  705000   0.90070646   -1.9987795   -1.9987795   -1.3533126  0.029753572   -1.9987795   0.64546689  1070540 
  706000   0.89952641   -1.9985924   -1.9985924   -1.3539711  0.029492678   -1.9985924   0.64462124  1070540 
  707000   0.89851497   -1.9985516   -1.9985516   -1.3546552  0.031132182   -1.9985516   0.64389642  1070540 
  708000   0.89785919   -1.9988215   -1.9988215   -1.3553951  0.028284896   -1.9988215   0.64342648  1070540 
  709000   0.89864692   -1.9995369   -1.9995369   -1.3555459  0.022172416   -1.9995369   0.64399098  1070540 
  710000   0.89922577   -1.9994942   -1.9994942   -1.3550884  0.028818595   -1.9994942    0.6444058  1070540 
  711000   0.90178765   -2.0001382   -2.0001382   -1.3538965  0.030872594   -2.0001382    0.6462417  1070540 
  712000   0.90178159   -1.9993353   -1.9993353   -1.3530979  0.035297337   -1.9993353   0.64623736  1070540 
  713000   0.90173456   -1.9993663   -1.9993663   -1.3531626  0.038445507   -1.9993663   0.64620365  1070540 
  714000   0.90188021    -1.999929    -1.999929    -1.353621  0.021320642    -1.999929   0.64630803  1070540 
  715000   0.89987225   -1.9991113   -1.9991113   -1.3542422  0.030214736   -1.9991113   0.64486908  1070540 
  716000   0.89933147   -1.9992339   -1.9992339   -1.3547523  0.030311859   -1.9992339   0.64448155  1070540 
  717000    0.8996089   -1.9996187   -1.9996187   -1.3549384  0.029542677   -1.9996187   0.64468036  1070540 
  718000   0.89933771   -1.9994628   -1.9994628   -1.3549768  0.026644809   -1.9994628   0.64448602  1070540 
  719000   0.89992625   -1.9994188   -1.9994188    -1.354511  0.024210321   -1.9994188   0.64490777  1070540 
  720000   0.90123294   -1.9993428   -1.9993428   -1.3534987  0.025850545   -1.9993428   0.64584418  1070540 
  721000   0.90026141   -1.9980714   -1.9980714   -1.3529235  0.039635593   -1.9980714   0.64514796  1070540 
  722000   0.89961409   -1.9974653   -1.9974653   -1.3527812  0.039849084   -1.9974653   0.64468407  1070540 
  723000   0.89993921   -1.9977906   -1.9977906   -1.3528735  0.030691521   -1.9977906   0.64491706  1070540 
  724000    0.9005428   -1.9982857   -1.9982857   -1.3529361  0.024452628   -1.9982857   0.64534961  1070540 
  725000    0.9000177   -1.9977389   -1.9977389   -1.3527656   0.03370428   -1.9977389   0.64497331  1070540 
  726000    0.9000115    -1.997611    -1.997611   -1.3526421   0.01945517    -1.997611   0.64496887  1070540 
  727000   0.89980834   -1.9971353   -1.9971353    -1.352312   0.03072573   -1.9971353   0.64482328  1070540 
  728000   0.89979392   -1.9966039   -1.9966039   -1.3517909  0.026087163   -1.9966039   0.64481294  1070540 
  729000   0.90026335   -1.9954225   -1.9954225   -1.3502731  0.027523186   -1.9954225   0.64514935  1070540 
  730000   0.90232175   -1.9960223   -1.9960223   -1.3493979  0.028467269   -1.9960223   0.64662444  1070540 
  731000   0.90196293   -1.9957974   -1.9957974   -1.3494301  0.022737826   -1.9957974   0.64636731  1070540 
  732000    0.9017542   -1.9960233   -1.9960233   -1.3498055  0.025325618   -1.9960233   0.64621773  1070540 
  733000   0.89986824   -1.9953251   -1.9953251   -1.3504589  0.030724491   -1.9953251    0.6448662  1070540 
  734000    0.9016015   -1.9972062   -1.9972062   -1.3510979  0.021735991   -1.9972062    0.6461083  1070540 
  735000   0.89888996   -1.9957213   -1.9957213   -1.3515562  0.026305445   -1.9957213   0.64416515  1070540 
  736000   0.89913696   -1.9962344   -1.9962344   -1.3518923   0.02898207   -1.9962344   0.64434215  1070540 
  737000   0.89904962   -1.9960833   -1.9960833   -1.3518037  0.026852566   -1.9960833   0.64427956  1070540 
  738000   0.90054154   -1.9970948   -1.9970948   -1.3517461  0.017180061   -1.9970948   0.64534871  1070540 
  739000   0.90049302   -1.9964279   -1.9964279    -1.351114  0.023512086   -1.9964279   0.64531394  1070540 
  740000   0.90110331   -1.9957242   -1.9957242   -1.3499729   0.02380017   -1.9957242   0.64575128  1070540 
  741000   0.90201184    -1.995397    -1.995397   -1.3489947  0.028347337    -1.995397   0.64640235  1070540 
  742000   0.90234612    -1.995675    -1.995675   -1.3490331  0.026813833    -1.995675   0.64664191  1070540 
  743000   0.90203475   -1.9962805   -1.9962805   -1.3498617  0.034340059   -1.9962805   0.64641877  1070540 
  744000   0.90057417   -1.9961482   -1.9961482   -1.3507761  0.026709134   -1.9961482   0.64537209  1070540 
  745000   0.90174448   -1.9977321   -1.9977321   -1.3515214  0.027796163   -1.9977321   0.64621076  1070540 
  746000   0.90139474   -1.9980369   -1.9980369   -1.3520768   0.02492829   -1.9980369   0.64596013  1070540 
  747000   0.89972131   -1.9975498   -1.9975498   -1.3527889  0.030599659   -1.9975498   0.64476091  1070540 
  748000   0.89799132   -1.9966956   -1.9966956   -1.3531745  0.032282844   -1.9966956   0.64352116  1070540 
  749000    0.8990238    -1.997664    -1.997664   -1.3534029  0.021025589    -1.997664   0.64426106  1070540 
  750000   0.89989511   -1.9983362   -1.9983362   -1.3534507   0.03291068   -1.9983362   0.64488546  1070540 
  751000   0.90024661   -1.9985309   -1.9985309   -1.3533935  0.034715377   -1.9985309   0.64513736  1070540 
  752000   0.89966105   -1.9979914   -1.9979914   -1.3532736  0.038877159   -1.9979914   0.64471773  1070540 
  753000   0.89941747    -1.997763    -1.997763   -1.3532198  0.023334595    -1.997763   0.64454317  1070540 
  754000   0.89993548   -1.9983698   -1.9983698   -1.3534554  0.031962203   -1.9983698   0.64491439  1070540 
  755000   0.90011865   -1.9986123   -1.9986123   -1.3535667  0.030303698   -1.9986123   0.64504566  1070540 
  756000   0.89974114   -1.9986218   -1.9986218   -1.3538467   0.02383728   -1.9986218   0.64477512  1070540 
  757000   0.89968498   -1.9990458   -1.9990458    -1.354311  0.029467518   -1.9990458   0.64473488  1070540 
  758000    0.9005899    -1.999822    -1.999822   -1.3544386  0.020019105    -1.999822   0.64538336  1070540 
  759000   0.90024797   -1.9998256   -1.9998256   -1.3546873  0.027605294   -1.9998256   0.64513833  1070540 
  760000   0.89935049   -1.9996331   -1.9996331   -1.3551379  0.029855887   -1.9996331   0.64449518  1070540 
  761000   0.90080226   -2.0011598   -2.0011598   -1.3556243  0.024992477   -2.0011598   0.64553554  1070540 
  762000   0.89956226   -2.0007906   -2.0007906   -1.3561437  0.029733602   -2.0007906   0.64464693  1070540 
  763000   0.89804167   -2.0001188   -2.0001188   -1.3565616   0.02924088   -2.0001188   0.64355724  1070540 
  764000   0.89866905   -2.0004214   -2.0004214   -1.3564146  0.023938592   -2.0004214   0.64400684  1070540 
  765000   0.89974574   -2.0001782   -2.0001782   -1.3553998  0.032023746   -2.0001782   0.64477842  1070540 
  766000   0.90043602   -1.9996943   -1.9996943   -1.3544213  0.027242395   -1.9996943   0.64527309  1070540 
  767000   0.90118559   -1.9997092   -1.9997092   -1.3538989  0.031298436   -1.9997092   0.64581025  1070540 
  768000   0.90139325   -1.9999454   -1.9999454   -1.3539863  0.031601733   -1.9999454   0.64595906  1070540 
  769000   0.90000578   -1.9994049   -1.9994049   -1.3544402  0.035330044   -1.9994049   0.64496477  1070540 
  770000   0.89969764   -1.9997984   -1.9997984   -1.3550545  0.029827668   -1.9997984   0.64474395  1070540 
  771000    0.8981323   -1.9989175   -1.9989175   -1.3552953  0.027996428   -1.9989175   0.64362219  1070540 
  772000   0.89864245   -1.9993671   -1.9993671   -1.3553793  0.029101163   -1.9993671   0.64398777  1070540 
  773000   0.89992431   -1.9999824   -1.9999824   -1.3550761  0.027813821   -1.9999824   0.64490638  1070540 
  774000   0.89930302   -1.9986957   -1.9986957   -1.3542345  0.029237476   -1.9986957   0.64446115  1070540 
  775000   0.90185971   -1.9994434   -1.9994434     -1.35315  0.026669428   -1.9994434   0.64629334  1070540 
  776000   0.90154506   -1.9987907   -1.9987907   -1.3527229  0.034069653   -1.9987907   0.64606785  1070540 
  777000   0.90082454   -1.9984235   -1.9984235    -1.352872  0.035968783   -1.9984235   0.64555151  1070540 
  778000    0.8995311   -1.9977598   -1.9977598   -1.3531352  0.025975043   -1.9977598    0.6446246  1070540 
  779000   0.89882562   -1.9974151   -1.9974151   -1.3532961  0.025338499   -1.9974151   0.64411904  1070540 
  780000   0.89987247   -1.9982015   -1.9982015   -1.3533323  0.022247739   -1.9982015   0.64486923  1070540 
  781000   0.90066693   -1.9988156   -1.9988156    -1.353377  0.027786536   -1.9988156   0.64543857  1070540 
  782000   0.90005689   -1.9983117   -1.9983117   -1.3533103  0.026521885   -1.9983117    0.6450014  1070540 
  783000   0.89961859   -1.9976941   -1.9976941   -1.3530068  0.020748477   -1.9976941    0.6446873  1070540 
  784000   0.89917189   -1.9966027   -1.9966027   -1.3522355    0.0290308   -1.9966027   0.64436719  1070540 
  785000   0.90055447   -1.9964364   -1.9964364   -1.3510784  0.032473547   -1.9964364   0.64535797  1070540 
  786000   0.90029372   -1.9957469   -1.9957469   -1.3505758  0.028921535   -1.9957469   0.64517111  1070540 
  787000    0.9008187   -1.9961434   -1.9961434   -1.3505961  0.024478946   -1.9961434   0.64554733  1070540 
  788000   0.90064743   -1.9962209   -1.9962209   -1.3507964  0.028023469   -1.9962209   0.64542459  1070540 
  789000   0.90078929   -1.9967518   -1.9967518   -1.3512255  0.024738705   -1.9967518   0.64552625  1070540 
  790000   0.89992983   -1.9965869   -1.9965869   -1.3516766  0.020007613   -1.9965869   0.64491034  1070540 
  791000   0.89944254   -1.9967033   -1.9967033   -1.3521422  0.032470972   -1.9967033   0.64456114  1070540 
  792000   0.89874432   -1.9964991   -1.9964991   -1.3524384  0.024692629   -1.9964991   0.64406078  1070540 
  793000   0.89900519   -1.9974067   -1.9974067   -1.3531589  0.029164676   -1.9974067   0.64424773  1070540 
  794000   0.89973395   -1.9990337   -1.9990337   -1.3542638  0.028371992   -1.9990337   0.64476997  1070540 
  795000    0.8982398   -1.9985834   -1.9985834   -1.3548842  0.023199282   -1.9985834   0.64369923  1070540 
  796000   0.89865705   -1.9988547   -1.9988547   -1.3548564  0.028179734   -1.9988547   0.64399824  1070540 
  797000   0.89979307   -1.9991365   -1.9991365   -1.3543242  0.021831614   -1.9991365   0.64481234  1070540 
  798000   0.90073475   -1.9988994   -1.9988994   -1.3534122  0.031149002   -1.9988994   0.64548716  1070540 
  799000   0.90162029   -1.9990372   -1.9990372   -1.3529154  0.030030208   -1.9990372   0.64612176  1070540 
  800000   0.90117389   -1.9987431   -1.9987431   -1.3529413  0.033425792   -1.9987431   0.64580187  1070540 
  801000   0.90155058   -1.9994469   -1.9994469   -1.3533751  0.030980827   -1.9994469   0.64607181  1070540 
  802000   0.90186352   -2.0000475   -2.0000475   -1.3537514  0.035244867   -2.0000475   0.64629607  1070540 
  803000   0.90065094   -1.9998096   -1.9998096   -1.3543825  0.030377811   -1.9998096    0.6454271  1070540 
  804000   0.90060057   -2.0003454   -2.0003454   -1.3549544  0.031593826   -2.0003454   0.64539101  1070540 
  805000   0.90113178   -2.0010832   -2.0010832   -1.3553115  0.026806525   -2.0010832   0.64577168  1070540 
  806000   0.89914866   -1.9999584   -1.9999584   -1.3556079  0.031585667   -1.9999584   0.64435053  1070540 
  807000   0.89935595   -2.0004353   -2.0004353   -1.3559362    0.0266703   -2.0004353   0.64449908  1070540 
  808000   0.89933239   -2.0003641   -2.0003641   -1.3558819  0.029803919   -2.0003641   0.64448221  1070540 
  809000   0.90030562   -2.0009833   -2.0009833   -1.3558036   0.02888531   -2.0009833   0.64517964  1070540 
  810000   0.90079551    -2.001141    -2.001141   -1.3556103  0.037378231    -2.001141   0.64553071  1070540 
  811000   0.89919876   -2.0001721   -2.0001721   -1.3557857  0.032621078   -2.0001721   0.64438644  1070540 
  812000   0.90030355   -2.0008959   -2.0008959   -1.3557178  0.026498777   -2.0008959   0.64517815  1070540 
  813000   0.89907194   -1.9998877   -1.9998877   -1.3555921  0.028684818   -1.9998877   0.64429556  1070540 
  814000   0.89887747   -1.9993096   -1.9993096   -1.3551534  0.029368717   -1.9993096   0.64415619  1070540 
  815000   0.89990563   -1.9992318   -1.9992318   -1.3543388  0.028284978   -1.9992318     0.644893  1070540 
  816000    0.8997935   -1.9981903   -1.9981903   -1.3533777     0.029917   -1.9981903   0.64481265  1070540 
  817000   0.90045098   -1.9981516   -1.9981516   -1.3528678   0.02645003   -1.9981516   0.64528381  1070540 
  818000   0.90108552   -1.9981948   -1.9981948   -1.3524562  0.031544499   -1.9981948   0.64573854  1070540 
  819000   0.90110765   -1.9981263   -1.9981263   -1.3523719  0.030903218   -1.9981263   0.64575439  1070540 
  820000   0.90038861   -1.9974481   -1.9974481    -1.352209  0.024689829   -1.9974481   0.64523912  1070540 
  821000   0.90113746    -1.997996    -1.997996   -1.3522203  0.024561989    -1.997996   0.64577576  1070540 
  822000   0.90022435   -1.9975461   -1.9975461   -1.3524247  0.018976604   -1.9975461    0.6451214  1070540 
  823000   0.89872171   -1.9965347   -1.9965347   -1.3524901  0.021051319   -1.9965347   0.64404458  1070540 
  824000   0.89983055   -1.9968304   -1.9968304   -1.3519912  0.023872616   -1.9968304    0.6448392  1070540 
  825000   0.90050467    -1.996604    -1.996604   -1.3512817  0.026294321    -1.996604   0.64532229  1070540 
  826000   0.90143363   -1.9965121   -1.9965121   -1.3505241   0.02425589   -1.9965121     0.645988  1070540 
  827000   0.90033235    -1.995528    -1.995528   -1.3503292  0.032296069    -1.995528   0.64519879  1070540 
  828000   0.90130945   -1.9964186   -1.9964186   -1.3505196  0.028198306   -1.9964186   0.64589901  1070540 
  829000   0.90064304   -1.9964831   -1.9964831   -1.3510617  0.027660889   -1.9964831   0.64542144  1070540 
  830000   0.89990142     -1.99695     -1.99695     -1.35206  0.022162204     -1.99695   0.64488998  1070540 
  831000   0.89820348   -1.9961742   -1.9961742    -1.352501  0.035152111   -1.9961742    0.6436732  1070540 
  832000   0.89889548   -1.9969367   -1.9969367   -1.3527676  0.027850672   -1.9969367   0.64416911  1070540 
  833000   0.89924309   -1.9972125   -1.9972125   -1.3527943  0.032234878   -1.9972125   0.64441821  1070540 
  834000   0.89910463   -1.9968999   -1.9968999   -1.3525809  0.030819359   -1.9968999   0.64431899  1070540 
  835000   0.90022231   -1.9975925   -1.9975925   -1.3524726  0.027480139   -1.9975925   0.64511994  1070540 
  836000    0.9002131   -1.9975801   -1.9975801   -1.3524668  0.030588324   -1.9975801   0.64511334  1070540 
  837000   0.90090909   -1.9983452   -1.9983452    -1.352733  0.028075824   -1.9983452   0.64561211  1070540 
  838000   0.89955374   -1.9983496   -1.9983496   -1.3537087  0.025651497   -1.9983496   0.64464082  1070540 
  839000    0.8979494   -1.9984661   -1.9984661    -1.354975  0.024402312   -1.9984661   0.64349112  1070540 
  840000   0.89922492   -1.9997426   -1.9997426   -1.3553374  0.023841188   -1.9997426   0.64440519  1070540 
  841000   0.89880127   -1.9992808   -1.9992808   -1.3551792  0.033232357   -1.9992808   0.64410159  1070540 
  842000   0.89996007   -1.9997234   -1.9997234   -1.3547914  0.037550245   -1.9997234   0.64493201  1070540 
  843000   0.90016981    -1.999479    -1.999479   -1.3543967  0.024920627    -1.999479   0.64508232  1070540 
  844000   0.90120303   -1.9999961   -1.9999961   -1.3541733  0.030362068   -1.9999961   0.64582275  1070540 
  845000   0.89931521   -1.9985796   -1.9985796   -1.3541097  0.029963951   -1.9985796   0.64446989  1070540 
  846000   0.90148454   -2.0003541   -2.0003541   -1.3543297  0.030622515   -2.0003541   0.64602448  1070540 
  847000   0.89929791   -1.9996877   -1.9996877   -1.3552302  0.039110359   -1.9996877   0.64445749  1070540 
  848000   0.89863993   -2.0002992   -2.0002992   -1.3563132   0.02626874   -2.0002992   0.64398597  1070540 
  849000   0.89929441   -2.0009491   -2.0009491   -1.3564941  0.023403514   -2.0009491   0.64445499  1070540 
  850000   0.90001323   -2.0013565   -2.0013565   -1.3563864  0.030778042   -2.0013565   0.64497011  1070540 
  851000   0.89991058   -2.0011134   -2.0011134   -1.3562168  0.033881945   -2.0011134   0.64489655  1070540 
  852000    0.8989847   -2.0000974   -2.0000974   -1.3558643  0.034281947   -2.0000974   0.64423304  1070540 
  853000   0.89902502   -1.9993761   -1.9993761   -1.3551142  0.028165517   -1.9993761   0.64426193  1070540 
  854000   0.90011937   -1.9992176   -1.9992176   -1.3541714  0.026888386   -1.9992176   0.64504617  1070540 
  855000    0.8998362   -1.9982873   -1.9982873    -1.353444  0.037247347   -1.9982873   0.64484324  1070540 
  856000    0.8999948   -1.9982719   -1.9982719    -1.353315  0.031350149   -1.9982719    0.6449569  1070540 
  857000   0.90021058   -1.9982446   -1.9982446   -1.3531331  0.029851982   -1.9982446   0.64511153  1070540 
  858000   0.89925208   -1.9975126   -1.9975126   -1.3530879   0.03139828   -1.9975126   0.64442465  1070540 
  859000   0.89956138   -1.9975439   -1.9975439   -1.3528976  0.030270014   -1.9975439    0.6446463  1070540 
  860000   0.90029227   -1.9978257   -1.9978257   -1.3526556  0.028204467   -1.9978257   0.64517008  1070540 
  861000   0.90024475   -1.9975587   -1.9975587   -1.3524227  0.025720314   -1.9975587   0.64513602  1070540 
  862000   0.90030505   -1.9971884   -1.9971884   -1.3520092  0.021642722   -1.9971884   0.64517923  1070540 
  863000   0.90058001   -1.9967962   -1.9967962   -1.3514199  0.029069424   -1.9967962   0.64537627  1070540 
  864000    0.9007476   -1.9958835   -1.9958835   -1.3503871  0.026824342   -1.9958835   0.64549637  1070540 
  865000   0.90270387   -1.9967766   -1.9967766   -1.3498783  0.023675926   -1.9967766   0.64689828  1070540 
  866000      0.90179   -1.9960035   -1.9960035   -1.3497602  0.028285772   -1.9960035   0.64624338  1070540 
  867000   0.90001102   -1.9949943   -1.9949943   -1.3500258  0.030143399   -1.9949943   0.64496852  1070540 
  868000   0.90037014   -1.9961739   -1.9961739    -1.350948  0.025927984   -1.9961739   0.64522588  1070540 
  869000   0.89929426   -1.9964151   -1.9964151   -1.3519602  0.023333603   -1.9964151   0.64445488  1070540 
  870000   0.89927482   -1.9968635   -1.9968635   -1.3524225  0.022936733   -1.9968635   0.64444095  1070540 
  871000   0.89886509   -1.9965841   -1.9965841   -1.3524368  0.028059917   -1.9965841   0.64414732  1070540 
  872000   0.89952097   -1.9968876   -1.9968876   -1.3522702  0.032178682   -1.9968876   0.64461735  1070540 
  873000   0.89974905     -1.99682     -1.99682   -1.3520392  0.025614458     -1.99682   0.64478079  1070540 
  874000   0.90095905    -1.997426    -1.997426   -1.3517781  0.038377315    -1.997426    0.6456479  1070540 
  875000   0.90101714   -1.9974649   -1.9974649   -1.3517754  0.030413583   -1.9974649   0.64568954  1070540 
  876000   0.90039573   -1.9975596   -1.9975596   -1.3523154  0.029804102   -1.9975596   0.64524421  1070540 
  877000   0.90024365   -1.9984445   -1.9984445   -1.3533093  0.018655797   -1.9984445   0.64513523  1070540 
  878000   0.89919113    -1.998451    -1.998451   -1.3540701   0.02953692    -1.998451   0.64438097  1070540 
  879000    0.9002524   -1.9992836   -1.9992836   -1.3541421  0.029258614   -1.9992836    0.6451415  1070540 
  880000   0.90078437   -1.9998277   -1.9998277    -1.354305  0.030113112   -1.9998277   0.64552272  1070540 
  881000   0.89881078   -1.9986055   -1.9986055   -1.3544971  0.033517155   -1.9986055   0.64410841  1070540 
  882000   0.90003266   -1.9997982   -1.9997982   -1.3548142  0.026751518   -1.9997982   0.64498403  1070540 
  883000   0.90052885   -2.0002155   -2.0002155   -1.3548759  0.024246914   -2.0002155   0.64533962  1070540 
  884000   0.90047384   -2.0000649   -2.0000649   -1.3547647  0.028940116   -2.0000649   0.64530019  1070540 
  885000   0.89963683   -1.9991213   -1.9991213   -1.3544209  0.035640917   -1.9991213   0.64470037  1070540 
  886000   0.90128193   -1.9997437   -1.9997437   -1.3538644  0.035957267   -1.9997437   0.64587928  1070540 
  887000   0.90087162   -1.9990342   -1.9990342    -1.353449   0.02878359   -1.9990342   0.64558525  1070540 
  888000   0.90168798   -1.9992739   -1.9992739   -1.3531036   0.02114913   -1.9992739   0.64617027  1070540 
  889000   0.90104255   -1.9988806   -1.9988806   -1.3531729  0.035801959   -1.9988806   0.64570774  1070540 
  890000   0.90092142   -1.9995704   -1.9995704   -1.3539495  0.034594442   -1.9995704   0.64562094  1070540 
  891000    0.8997199   -1.9996135   -1.9996135   -1.3548536  0.026362863   -1.9996135    0.6447599  1070540 
  892000    0.8996847   -2.0000756   -2.0000756   -1.3553409  0.022860627   -2.0000756   0.64473468  1070540 
  893000    0.8987983   -1.9996416   -1.9996416   -1.3555421   0.02800586   -1.9996416   0.64409946  1070540 
  894000   0.89968462   -2.0000123   -2.0000123   -1.3552777  0.029318827   -2.0000123   0.64473462  1070540 
  895000    0.8993011   -1.9995419   -1.9995419   -1.3550822  0.032406128   -1.9995419   0.64445978  1070540 
  896000   0.90051442     -1.99988     -1.99988   -1.3545507  0.021409374     -1.99988   0.64532927  1070540 
  897000   0.90138532   -1.9999647   -1.9999647   -1.3540113   0.02908121   -1.9999647   0.64595338  1070540 
  898000   0.90173874   -1.9994811   -1.9994811   -1.3532744  0.028387383   -1.9994811   0.64620665  1070540 
  899000   0.90047583   -1.9977611   -1.9977611   -1.3524595  0.041272319   -1.9977611   0.64530162  1070540 
  900000   0.90153475   -1.9977477   -1.9977477   -1.3516872  0.030157523   -1.9977477   0.64606047  1070540 
  901000   0.90206761   -1.9974552   -1.9974552   -1.3510129  0.029850103   -1.9974552   0.64644232  1070540 
  902000   0.90204472   -1.9972883   -1.9972883   -1.3508624  0.030550474   -1.9972883   0.64642592  1070540 
  903000   0.90078876   -1.9966866   -1.9966866   -1.3511607  0.028216704   -1.9966866   0.64552587  1070540 
  904000   0.90059124   -1.9975345   -1.9975345   -1.3521502  0.023261948   -1.9975345   0.64538432  1070540 
  905000    0.8985761   -1.9968807   -1.9968807   -1.3529405  0.025786028   -1.9968807   0.64394023  1070540 
  906000   0.89950867   -1.9979053   -1.9979053   -1.3532967  0.023738185   -1.9979053   0.64460853  1070540 
  907000   0.89834622   -1.9969516   -1.9969516   -1.3531761  0.018589041   -1.9969516   0.64377549  1070540 
  908000   0.89972434   -1.9974283   -1.9974283   -1.3526652  0.024979345   -1.9974283   0.64476308  1070540 
  909000   0.89979825   -1.9966911   -1.9966911   -1.3518751  0.026480342   -1.9966911   0.64481605  1070540 
  910000   0.89930861   -1.9955884   -1.9955884   -1.3511232  0.025973158   -1.9955884   0.64446516  1070540 
  911000   0.90033877   -1.9960601   -1.9960601   -1.3508568  0.022515683   -1.9960601   0.64520339  1070540 
  912000   0.90010849   -1.9955515   -1.9955515   -1.3505131  0.028410962   -1.9955515   0.64503837  1070540 
  913000   0.90099325   -1.9961578   -1.9961578   -1.3504854  0.022776141   -1.9961578   0.64567241  1070540 
  914000   0.90144526   -1.9967261   -1.9967261   -1.3507298   0.02261639   -1.9967261   0.64599633  1070540 
  915000   0.90024183   -1.9966328   -1.9966328   -1.3514989  0.025762761   -1.9966328   0.64513393  1070540 
  916000   0.89947329   -1.9968545   -1.9968545   -1.3522714  0.028131197   -1.9968545   0.64458317  1070540 
  917000   0.89986898   -1.9976638   -1.9976638   -1.3527971  0.032051142   -1.9976638   0.64486674  1070540 
  918000   0.89817891   -1.9966249   -1.9966249   -1.3529693   0.03030764   -1.9966249   0.64365559  1070540 
  919000   0.90062873   -1.9984316   -1.9984316   -1.3530204  0.018389706   -1.9984316   0.64541119  1070540 
  920000   0.90075746   -1.9984713   -1.9984713   -1.3529679  0.025334306   -1.9984713   0.64550344  1070540 
  921000   0.90074956   -1.9982658   -1.9982658   -1.3527681  0.035527585   -1.9982658   0.64549778  1070540 
  922000   0.90065938   -1.9982806   -1.9982806   -1.3528474  0.034289752   -1.9982806   0.64543315  1070540 
  923000   0.89981408   -1.9982366   -1.9982366   -1.3534093  0.029074134   -1.9982366   0.64482739  1070540 
  924000   0.89966799   -1.9992754   -1.9992754   -1.3545527  0.030869258   -1.9992754    0.6447227  1070540 
  925000   0.89777242    -1.998598    -1.998598   -1.3552337  0.029456576    -1.998598   0.64336429  1070540 
  926000   0.89966297   -2.0000531   -2.0000531    -1.355334  0.031134604   -2.0000531    0.6447191  1070540 
  927000   0.89979674   -2.0000561   -2.0000561   -1.3552411  0.028070751   -2.0000561   0.64481497  1070540 
  928000    0.8997606   -1.9996469   -1.9996469   -1.3548578  0.029951839   -1.9996469   0.64478907  1070540 
  929000   0.90007634   -1.9993754   -1.9993754   -1.3543601  0.035426736   -1.9993754   0.64501533  1070540 
  930000   0.90174908   -1.9998046   -1.9998046   -1.3535905  0.027791582   -1.9998046   0.64621405  1070540 
  931000   0.90112274   -1.9987207   -1.9987207   -1.3529555  0.028769175   -1.9987207   0.64576521  1070540 
  932000   0.90110845   -1.9982483   -1.9982483   -1.3524934  0.038625657   -1.9982483   0.64575497  1070540 
  933000   0.90056285      -1.9979      -1.9979    -1.352536  0.036719404      -1.9979   0.64536398  1070540 
  934000   0.90101914   -1.9981223   -1.9981223   -1.3524313  0.030652027   -1.9981223   0.64569097  1070540 
  935000   0.90021119   -1.9975863   -1.9975863   -1.3524743  0.022130323   -1.9975863   0.64511197  1070540 
  936000   0.89986972    -1.997808    -1.997808   -1.3529407   0.02826839    -1.997808   0.64486726  1070540 
  937000   0.89919837   -1.9974192   -1.9974192   -1.3530331  0.024902115   -1.9974192   0.64438616  1070540 
  938000   0.90068757   -1.9982811   -1.9982811   -1.3528278  0.028347099   -1.9982811   0.64545336  1070540 
  939000   0.89955049   -1.9970554   -1.9970554   -1.3524169  0.029384003   -1.9970554    0.6446385  1070540 
  940000   0.90101378   -1.9971955   -1.9971955   -1.3515084   0.02624483   -1.9971955   0.64568712  1070540 
  941000   0.90097237   -1.9968437   -1.9968437   -1.3511863  0.027930307   -1.9968437   0.64565745  1070540 
  942000   0.90052199   -1.9962472   -1.9962472   -1.3509125  0.020703818   -1.9962472    0.6453347  1070540 
  943000   0.90089455   -1.9963059   -1.9963059   -1.3507042  0.031325557   -1.9963059   0.64560168  1070540 
  944000   0.90089346   -1.9960635   -1.9960635   -1.3504626  0.033514801   -1.9960635    0.6456009  1070540 
  945000   0.90077908   -1.9960849   -1.9960849    -1.350566   0.03043344   -1.9960849   0.64551894  1070540 
  946000   0.90050874   -1.9962286   -1.9962286   -1.3509034  0.024034995   -1.9962286    0.6453252  1070540 
  947000   0.89886773   -1.9959775   -1.9959775   -1.3518283  0.030134096   -1.9959775   0.64414922  1070540 
  948000   0.89890888    -1.996679    -1.996679   -1.3525003  0.031536828    -1.996679    0.6441787  1070540 
  949000   0.89955138   -1.9973395   -1.9973395   -1.3527004  0.021261411   -1.9973395   0.64463914  1070540 
  950000   0.89857165   -1.9963577   -1.9963577   -1.3524207  0.028558909   -1.9963577   0.64393704  1070540 
  951000   0.90032581   -1.9968579   -1.9968579   -1.3516638   0.03404952   -1.9968579   0.64519411  1070540 
  952000   0.90171076   -1.9973589   -1.9973589   -1.3511723  0.025717858   -1.9973589   0.64618659  1070540 
  953000   0.90071797   -1.9963206   -1.9963206   -1.3508455  0.035508142   -1.9963206   0.64547514  1070540 
  954000   0.90165181   -1.9968775   -1.9968775   -1.3507331  0.031971608   -1.9968775   0.64614436  1070540 
  955000   0.89994958   -1.9964009   -1.9964009   -1.3514764  0.028846913   -1.9964009   0.64492449  1070540 
  956000   0.90006272   -1.9977895   -1.9977895   -1.3527839  0.030447893   -1.9977895   0.64500558  1070540 
  957000   0.90031083   -1.9987851   -1.9987851   -1.3536018  0.031650249   -1.9987851   0.64518338  1070540 
  958000   0.89910287   -1.9984512   -1.9984512   -1.3541334  0.027778439   -1.9984512   0.64431772  1070540 
  959000   0.89890345   -1.9984737   -1.9984737   -1.3542989  0.032783614   -1.9984737   0.64417481  1070540 
  960000   0.89950235   -1.9985469   -1.9985469   -1.3539429  0.030026816   -1.9985469     0.644604  1070540 
  961000   0.90061844   -1.9987225   -1.9987225   -1.3533187  0.028547503   -1.9987225   0.64540381  1070540 
  962000   0.90014559   -1.9977698   -1.9977698   -1.3527048    0.0281818   -1.9977698   0.64506496  1070540 
  963000   0.90191349   -1.9984909   -1.9984909    -1.352159  0.023675396   -1.9984909   0.64633188  1070540 
  964000   0.90121067   -1.9976701   -1.9976701   -1.3518418  0.023635763   -1.9976701   0.64582822  1070540 
  965000   0.90027079   -1.9968309   -1.9968309   -1.3516762  0.032183479   -1.9968309   0.64515468  1070540 
  966000   0.89981248   -1.9967056   -1.9967056   -1.3518794  0.030317768   -1.9967056   0.64482625  1070540 
  967000   0.90071377   -1.9981622   -1.9981622   -1.3526901  0.024958152   -1.9981622   0.64547213  1070540 
  968000   0.89933935   -1.9982653   -1.9982653   -1.3537781  0.021078094   -1.9982653   0.64448719  1070540 
  969000   0.89877668   -1.9983886   -1.9983886   -1.3543047  0.027727666   -1.9983886   0.64408397  1070540 
  970000   0.89891662   -1.9982539   -1.9982539   -1.3540696  0.024919049   -1.9982539   0.64418425  1070540 
  971000   0.89938926   -1.9979923   -1.9979923   -1.3534693  0.027476013   -1.9979923   0.64452296  1070540 
  972000   0.89985388   -1.9975808   -1.9975808   -1.3527248  0.024826231   -1.9975808   0.64485591  1070540 
  973000   0.90067277   -1.9975465   -1.9975465   -1.3521038  0.031332404   -1.9975465   0.64544275  1070540 
  974000   0.89971141   -1.9965997   -1.9965997   -1.3518459  0.035423382   -1.9965997   0.64475382  1070540 
  975000    0.9009648   -1.9973284   -1.9973284   -1.3516764  0.026570729   -1.9973284   0.64565202  1070540 
  976000   0.90026189   -1.9968298   -1.9968298   -1.3516815  0.034677432   -1.9968298    0.6451483  1070540 
  977000   0.90123728   -1.9977508   -1.9977508   -1.3519035  0.028388089   -1.9977508   0.64584729  1070540 
  978000   0.90078321   -1.9981602   -1.9981602   -1.3526383  0.019578622   -1.9981602    0.6455219  1070540 
  979000   0.89986365   -1.9987118   -1.9987118   -1.3538489  0.026525569   -1.9987118   0.64486291  1070540 
  980000   0.89957862   -1.9991953   -1.9991953   -1.3545366  0.026534107   -1.9991953   0.64465865  1070540 
  981000   0.90013106   -1.9996153   -1.9996153   -1.3545608  0.025036825   -1.9996153   0.64505455  1070540 
  982000   0.89938437   -1.9990826   -1.9990826   -1.3545632  0.038413333   -1.9990826   0.64451945  1070540 
  983000   0.89942236   -1.9989201   -1.9989201   -1.3543734  0.031739764   -1.9989201   0.64454668  1070540 
  984000   0.90004563   -1.9991238   -1.9991238   -1.3541305  0.031495275   -1.9991238   0.64499333  1070540 
  985000   0.90018771   -1.9988029   -1.9988029   -1.3537077  0.031608266   -1.9988029   0.64509514  1070540 
  986000   0.90025263   -1.9985179   -1.9985179   -1.3533762  0.033765518   -1.9985179   0.64514167  1070540 
  987000   0.90165678      -1.9994      -1.9994   -1.3532521  0.028575447      -1.9994   0.64614791  1070540 
  988000   0.90145628   -1.9990867   -1.9990867   -1.3530825   0.03685964   -1.9990867   0.64600423  1070540 
  989000   0.90139216   -1.9995053   -1.9995053    -1.353547  0.031203082   -1.9995053   0.64595828  1070540 
  990000     0.899316   -1.9989835   -1.9989835    -1.354513  0.025233029   -1.9989835   0.64447046  1070540 
  991000   0.89894927   -1.9992422   -1.9992422   -1.3550345  0.031069885   -1.9992422   0.64420765  1070540 
  992000   0.89826198   -1.9988151   -1.9988151   -1.3550999  0.029370969   -1.9988151   0.64371512  1070540 
  993000   0.89999594   -1.9999334   -1.9999334   -1.3549757  0.026620978   -1.9999334   0.64495772  1070540 
  994000   0.89917259    -1.998736    -1.998736   -1.3543683   0.02675602    -1.998736   0.64436769  1070540 
  995000   0.90064241      -1.9988      -1.9988   -1.3533791  0.033569318      -1.9988   0.64542099  1070540 
  996000   0.90084755   -1.9982941   -1.9982941   -1.3527261  0.035557822   -1.9982941     0.645568  1070540 
  997000   0.90069821   -1.9981614   -1.9981614   -1.3527004   0.02534077   -1.9981614   0.64546098  1070540 
  998000   0.90128872   -1.9986194   -1.9986194   -1.3527353  0.024828199   -1.9986194   0.64588415  1070540 
  999000   0.89968347   -1.9976978   -1.9976978    -1.352964  0.037046827   -1.9976978   0.64473379  1070540 
 1000000   0.89968835   -1.9978982   -1.9978982   -1.3531609  0.031316048   -1.9978982   0.64473729  1070540 
 1001000    0.8990599   -1.9975513   -1.9975513   -1.3532643  0.030416439   -1.9975513   0.64428693  1070540 
 1002000   0.90014582   -1.9984793   -1.9984793   -1.3534141   0.02733136   -1.9984793   0.64506512  1070540 
 1003000   0.90077965   -1.9992034   -1.9992034   -1.3536841  0.028712115   -1.9992034   0.64551934  1070540 
 1004000   0.89916417   -1.9984717   -1.9984717     -1.35411  0.027725138   -1.9984717   0.64436165  1070540 
 1005000   0.89718371   -1.9978806   -1.9978806   -1.3549382  0.031405006   -1.9978806   0.64294241  1070540 
 1006000   0.89841882   -1.9992402   -1.9992402   -1.3554127  0.029309885   -1.9992402   0.64382752  1070540 
 1007000   0.89854024   -1.9992329   -1.9992329   -1.3553184  0.027990526   -1.9992329   0.64391453  1070540 
 1008000   0.89858899   -1.9982766   -1.9982766   -1.3543271  0.031537975   -1.9982766   0.64394947  1070540 
 1009000   0.90036932   -1.9985624   -1.9985624   -1.3533371  0.026553799   -1.9985624   0.64522529  1070540 
 1010000   0.90125442   -1.9984383   -1.9984383   -1.3525787  0.027249203   -1.9984383   0.64585957  1070540 
 1011000   0.90136311   -1.9982827   -1.9982827   -1.3523453  0.023736722   -1.9982827   0.64593746  1070540 
 1012000   0.90125866   -1.9981637   -1.9981637   -1.3523011   0.02706399   -1.9981637   0.64586261  1070540 
 1013000   0.90174027   -1.9988043   -1.9988043   -1.3525966  0.025469145   -1.9988043   0.64620774  1070540 
 1014000   0.90010556   -1.9984873   -1.9984873    -1.353451  0.028361513   -1.9984873   0.64503627  1070540 
 1015000   0.90060289   -1.9994799   -1.9994799   -1.3540872  0.023627888   -1.9994799   0.64539267  1070540 
 1016000   0.89941867   -1.9990824   -1.9990824   -1.3545383   0.02699257   -1.9990824   0.64454403  1070540 
 1017000   0.89897794   -1.9987537   -1.9987537   -1.3545255  0.025502697   -1.9987537   0.64422819  1070540 
 1018000   0.89908694   -1.9986209   -1.9986209   -1.3543146  0.028221868   -1.9986209   0.64430631  1070540 
 1019000   0.89943868   -1.9984895   -1.9984895   -1.3539312  0.028810078   -1.9984895   0.64455837  1070540 
 1020000   0.89960866   -1.9984263   -1.9984263   -1.3537461  0.034486096   -1.9984263   0.64468018  1070540 
 1021000   0.90023897   -1.9985396   -1.9985396   -1.3534077  0.024256727   -1.9985396   0.64513188  1070540 
 1022000   0.89914176   -1.9976508   -1.9976508   -1.3533052  0.036285772   -1.9976508   0.64434559  1070540 
 1023000   0.90016087   -1.9983042   -1.9983042   -1.3532283  0.026132305   -1.9983042   0.64507591  1070540 
 1024000   0.89968892   -1.9978628   -1.9978628   -1.3531251  0.023028579   -1.9978628    0.6447377  1070540 
 1025000   0.90019988   -1.9983788   -1.9983788   -1.3532749   0.03137822   -1.9983788   0.64510387  1070540 
 1026000   0.90074346   -1.9987635   -1.9987635     -1.35327  0.023088762   -1.9987635   0.64549341  1070540 
 1027000   0.89972049    -1.998534    -1.998534   -1.3537736  0.028777756    -1.998534   0.64476032  1070540 
 1028000   0.89980655   -1.9994024   -1.9994024   -1.3545804  0.027121102   -1.9994024     0.644822  1070540 
 1029000   0.89940486   -2.0001547   -2.0001547   -1.3556206  0.025444617   -2.0001547   0.64453413  1070540 
 1030000   0.89892438   -2.0003048   -2.0003048    -1.356115  0.024415809   -2.0003048   0.64418982  1070540 
 1031000   0.89874773   -2.0000258   -2.0000258   -1.3559626   0.02476738   -2.0000258   0.64406322  1070540 
 1032000    0.8989439   -1.9994675   -1.9994675   -1.3552637  0.027903676   -1.9994675    0.6442038  1070540 
 1033000   0.90086318   -1.9999112   -1.9999112    -1.354332  0.028180852   -1.9999112    0.6455792  1070540 
 1034000   0.89896555   -1.9981086   -1.9981086   -1.3538893  0.032167895   -1.9981086   0.64421932  1070540 
 1035000   0.90019192   -1.9988333   -1.9988333   -1.3537351  0.024679469   -1.9988333   0.64509816  1070540 
 1036000   0.90016167   -1.9984933   -1.9984933   -1.3534168  0.025693075   -1.9984933   0.64507649  1070540 
 1037000    0.9004394    -1.998609    -1.998609   -1.3533335  0.037009147    -1.998609   0.64527551  1070540 
 1038000   0.90059658   -1.9990902   -1.9990902    -1.353702  0.027863324   -1.9990902   0.64538815  1070540 
 1039000   0.89843533   -1.9980887   -1.9980887   -1.3542493  0.032385301   -1.9980887   0.64383935  1070540 
 1040000   0.89952239    -1.999376    -1.999376   -1.3547576  0.027761868    -1.999376   0.64461836  1070540 
 1041000   0.89872133   -1.9992638   -1.9992638   -1.3552195  0.018000125   -1.9992638   0.64404431  1070540 
 1042000   0.89841189   -1.9991552   -1.9991552   -1.3553326  0.020845685   -1.9991552   0.64382255  1070540 
 1043000   0.89792522   -1.9984093   -1.9984093   -1.3549355  0.033262568   -1.9984093   0.64347379  1070540 
 1044000   0.89937672   -1.9982283   -1.9982283   -1.3537143   0.02858548   -1.9982283   0.64451397  1070540 
 1045000   0.90088717   -1.9984174   -1.9984174    -1.352821  0.033783456   -1.9984174    0.6455964  1070540 
 1046000   0.90069096   -1.9980302   -1.9980302   -1.3525744  0.028485822   -1.9980302   0.64545579  1070540 
 1047000   0.90100591   -1.9982768   -1.9982768   -1.3525954    0.0301404   -1.9982768   0.64568149  1070540 
 1048000   0.90064982     -1.99829     -1.99829   -1.3528636  0.028895512     -1.99829    0.6454263  1070540 
 1049000   0.90030574   -1.9985589   -1.9985589   -1.3533791  0.030321342   -1.9985589   0.64517973  1070540 
 1050000    0.9001401   -1.9991739   -1.9991739   -1.3541129  0.039001742   -1.9991739   0.64506102  1070540 
 1051000   0.89796054   -1.9981932   -1.9981932   -1.3546941  0.032595521   -1.9981932    0.6434991  1070540 
 1052000    0.8990999    -1.999363    -1.999363   -1.3550475  0.030553377    -1.999363   0.64431559  1070540 
 1053000   0.89889661   -1.9992437   -1.9992437   -1.3550738  0.028769804   -1.9992437   0.64416991  1070540 
 1054000   0.89874772   -1.9987574   -1.9987574   -1.3546942  0.036295186   -1.9987574   0.64406322  1070540 
 1055000   0.90009884   -1.9985419   -1.9985419   -1.3535105  0.028728367   -1.9985419   0.64503146  1070540 
 1056000   0.90144059    -1.998107    -1.998107    -1.352114  0.026727005    -1.998107   0.64599299  1070540 
 1057000    0.9021909   -1.9985796   -1.9985796   -1.3520489   0.02152654   -1.9985796   0.64653068  1070540 
 1058000   0.90059688   -1.9977029   -1.9977029   -1.3523145  0.034067306   -1.9977029   0.64538837  1070540 
 1059000   0.90022775   -1.9977661   -1.9977661   -1.3526422  0.020657711   -1.9977661   0.64512384  1070540 
 1060000   0.89857615   -1.9968119   -1.9968119   -1.3528716  0.028512817   -1.9968119   0.64394026  1070540 
 1061000   0.90039065   -1.9980883   -1.9980883   -1.3528478  0.021070695   -1.9980883   0.64524058  1070540 
 1062000   0.89896722    -1.996757    -1.996757   -1.3525365  0.025180794    -1.996757   0.64422051  1070540 
 1063000   0.89999552   -1.9968318   -1.9968318   -1.3518744  0.034603479   -1.9968318   0.64495742  1070540 
 1064000   0.90112766   -1.9967992   -1.9967992   -1.3510305  0.031565007   -1.9967992   0.64576873  1070540 
 1065000   0.90148692   -1.9965691   -1.9965691    -1.350543  0.032301521   -1.9965691   0.64602619  1070540 
 1066000   0.90119585   -1.9961533   -1.9961533   -1.3503357  0.027023839   -1.9961533    0.6458176  1070540 
 1067000   0.90069526   -1.9959862   -1.9959862   -1.3505273   0.02849338   -1.9959862   0.64545887  1070540 
 1068000   0.89821827   -1.9947796   -1.9947796   -1.3510958  0.034841714   -1.9947796    0.6436838  1070540 
 1069000   0.89907865   -1.9964259   -1.9964259   -1.3521255  0.021993698   -1.9964259   0.64430036  1070540 
 1070000   0.89816167   -1.9968463   -1.9968463   -1.3532031  0.029635275   -1.9968463   0.64364324  1070540 
 1071000   0.89891478   -1.9976776   -1.9976776   -1.3534946   0.03009503   -1.9976776   0.64418293  1070540 
 1072000   0.89926977   -1.9976919   -1.9976919   -1.3532546  0.029019781   -1.9976919   0.64443733  1070540 
 1073000    0.8990687   -1.9972141   -1.9972141   -1.3529209  0.031194173   -1.9972141   0.64429324  1070540 
 1074000   0.89962605   -1.9970565   -1.9970565   -1.3523639   0.02347105   -1.9970565   0.64469265  1070540 
 1075000   0.90102027   -1.9976771   -1.9976771   -1.3519853  0.022429739   -1.9976771   0.64569178  1070540 
 1076000   0.90038971   -1.9972192   -1.9972192   -1.3519793  0.038348732   -1.9972192    0.6452399  1070540 
 1077000   0.90091382   -1.9975936   -1.9975936   -1.3519781  0.021685524   -1.9975936   0.64561549  1070540 
 1078000   0.90026303   -1.9971938   -1.9971938   -1.3520447  0.022814097   -1.9971938   0.64514912  1070540 
 1079000   0.89912968   -1.9962375   -1.9962375   -1.3519005    0.0210872   -1.9962375   0.64433694  1070540 
 1080000    0.9001617   -1.9970575   -1.9970575   -1.3519809   0.02978543   -1.9970575   0.64507651  1070540 
 1081000   0.89998423   -1.9973415   -1.9973415   -1.3523921  0.031504649   -1.9973415   0.64494933  1070540 
 1082000   0.89967627   -1.9982545   -1.9982545   -1.3535258  0.028823593   -1.9982545   0.64472864  1070540 
 1083000   0.89816323   -1.9980148   -1.9980148   -1.3543704  0.026680335   -1.9980148   0.64364436  1070540 
 1084000   0.89856469   -1.9986605   -1.9986605   -1.3547285  0.036224093   -1.9986605   0.64393205  1070540 
 1085000   0.90007391   -2.0000465   -2.0000465   -1.3550329  0.027187244   -2.0000465   0.64501359  1070540 
 1086000   0.89961425   -1.9997539   -1.9997539   -1.3550698  0.031840925   -1.9997539   0.64468419  1070540 
 1087000   0.89984407    -1.999818    -1.999818   -1.3549691   0.03581174    -1.999818   0.64484888  1070540 
 1088000    0.9007089   -2.0001918   -2.0001918   -1.3547231  0.035022977   -2.0001918   0.64546864  1070540 
 1089000   0.90108722   -2.0003135   -2.0003135   -1.3545738  0.033531477   -2.0003135   0.64573975  1070540 
 1090000   0.90031459   -1.9999691   -1.9999691    -1.354783  0.034109861   -1.9999691   0.64518607  1070540 
 1091000   0.90105437   -2.0006496   -2.0006496   -1.3549333  0.028711146   -2.0006496   0.64571621  1070540 
 1092000   0.89966113   -2.0002365   -2.0002365   -1.3555187  0.030137833   -2.0002365   0.64471779  1070540 
 1093000   0.89812285   -1.9994262   -1.9994262   -1.3558108  0.020061551   -1.9994262   0.64361542  1070540 
 1094000   0.89915184   -2.0000907   -2.0000907   -1.3557379  0.026915891   -2.0000907   0.64435281  1070540 
 1095000   0.90041518   -2.0004536   -2.0004536   -1.3551955  0.032618111   -2.0004536   0.64525816  1070540 
 1096000   0.90002076   -1.9994753   -1.9994753   -1.3544998    0.0328549   -1.9994753    0.6449755  1070540 
 1097000   0.90050757   -1.9991343   -1.9991343   -1.3538099  0.036980502   -1.9991343   0.64532436  1070540 
 1098000   0.90090713   -1.9990165   -1.9990165   -1.3534058   0.03129172   -1.9990165   0.64561069  1070540 
 1099000   0.90053609   -1.9986159   -1.9986159   -1.3532711  0.026389479   -1.9986159    0.6453448  1070540 
 1100000   0.90072624   -1.9985263   -1.9985263   -1.3530453  0.028348558   -1.9985263   0.64548107  1070540 
 1101000   0.90115406   -1.9985873   -1.9985873   -1.3527997    0.0225776   -1.9985873   0.64578765  1070540 
 1102000   0.89984704   -1.9976864   -1.9976864   -1.3528354  0.029486839   -1.9976864   0.64485101  1070540 
 1103000   0.90089061   -1.9986853   -1.9986853   -1.3530865  0.024339257   -1.9986853   0.64559886  1070540 
 1104000    0.8993547   -1.9979913   -1.9979913   -1.3534931  0.034665995   -1.9979913   0.64449819  1070540 
 1105000   0.90023638   -1.9987826   -1.9987826   -1.3536525  0.027403356   -1.9987826   0.64513002  1070540 
 1106000   0.89880776   -1.9980766   -1.9980766   -1.3539704  0.033692582   -1.9980766   0.64410624  1070540 
 1107000   0.90024114   -1.9992355   -1.9992355    -1.354102  0.022833939   -1.9992355   0.64513343  1070540 
 1108000   0.89878082   -1.9979673   -1.9979673   -1.3538803  0.033587157   -1.9979673   0.64408694  1070540 
 1109000   0.89963584   -1.9979626   -1.9979626    -1.353263  0.028287035   -1.9979626   0.64469967  1070540 
 1110000   0.90209064   -1.9988741   -1.9988741   -1.3524153  0.023252897   -1.9988741   0.64645883  1070540 
 1111000   0.90133187   -1.9978351   -1.9978351     -1.35192  0.034368052   -1.9978351   0.64591507  1070540 
 1112000   0.90011709    -1.996857    -1.996857   -1.3518124  0.037376375    -1.996857   0.64504454  1070540 
 1113000    0.9004539   -1.9973733   -1.9973733   -1.3520874   0.03359886   -1.9973733    0.6452859  1070540 
 1114000   0.90121601   -1.9983567   -1.9983567   -1.3525246  0.030790287   -1.9983567   0.64583205  1070540 
 1115000   0.90039546   -1.9984043   -1.9984043   -1.3531603  0.028314607   -1.9984043   0.64524403  1070540 
 1116000   0.89840699     -1.99766     -1.99766    -1.353841   0.03316237     -1.99766   0.64381904  1070540 
 1117000   0.89852781   -1.9977733   -1.9977733   -1.3538677   0.02137947   -1.9977733   0.64390562  1070540 
 1118000   0.89975398   -1.9985297   -1.9985297   -1.3537453  0.033733251   -1.9985297   0.64478433  1070540 
 1119000    0.8996039    -1.998146    -1.998146   -1.3534692  0.031485238    -1.998146   0.64467677  1070540 
 1120000   0.90102776    -1.998957    -1.998957   -1.3532599  0.024292069    -1.998957   0.64569714  1070540 
 1121000   0.90016543   -1.9981625   -1.9981625   -1.3530833  0.026670349   -1.9981625   0.64507918  1070540 
 1122000   0.90039857   -1.9983546   -1.9983546   -1.3531083  0.027864682   -1.9983546   0.64524625  1070540 
 1123000   0.89950527   -1.9980408   -1.9980408   -1.3534347  0.039864235   -1.9980408   0.64460609  1070540 
 1124000   0.89955526   -1.9982717   -1.9982717   -1.3536298  0.033675061   -1.9982717   0.64464192  1070540 
 1125000   0.89945662   -1.9986149   -1.9986149   -1.3540436  0.034065002   -1.9986149   0.64457123  1070540 
 1126000   0.89995255   -1.9994451   -1.9994451   -1.3545185  0.029416091   -1.9994451   0.64492662  1070540 
 1127000   0.89866498   -1.9991876   -1.9991876   -1.3551836  0.020603025   -1.9991876   0.64400392  1070540 
 1128000   0.89830191   -1.9991279   -1.9991279   -1.3553841  0.024675287   -1.9991279   0.64374374  1070540 
 1129000   0.89892209   -1.9993409   -1.9993409   -1.3551528  0.024588941   -1.9993409   0.64418817  1070540 
 1130000   0.90005873   -1.9992806   -1.9992806   -1.3542779   0.03255439   -1.9992806   0.64500272  1070540 
 1131000   0.90169094   -1.9995905   -1.9995905   -1.3534181  0.024432387   -1.9995905   0.64617239  1070540 
 1132000   0.90004902   -1.9979514   -1.9979514   -1.3529557  0.037851998   -1.9979514   0.64499576  1070540 
 1133000   0.90038694   -1.9980506   -1.9980506   -1.3528127  0.029622542   -1.9980506   0.64523792  1070540 
 1134000   0.90025924   -1.9982507   -1.9982507   -1.3531043  0.030958876   -1.9982507    0.6451464  1070540 
 1135000   0.89990262   -1.9982385   -1.9982385   -1.3533476   0.03446509   -1.9982385   0.64489084  1070540 
 1136000   0.89893982   -1.9977474   -1.9977474   -1.3535466  0.030458136   -1.9977474   0.64420088  1070540 
 1137000   0.89979131   -1.9985625   -1.9985625   -1.3537514  0.030100785   -1.9985625   0.64481107  1070540 
 1138000   0.89965624   -1.9985107   -1.9985107   -1.3537965  0.027298531   -1.9985107   0.64471428  1070540 
 1139000   0.89897972   -1.9982402   -1.9982402   -1.3540107  0.034753606   -1.9982402   0.64422947  1070540 
 1140000   0.89769631   -1.9974455   -1.9974455   -1.3541358   0.03622358   -1.9974455   0.64330975  1070540 
 1141000   0.89912032   -1.9982717   -1.9982717   -1.3539415  0.030050447   -1.9982717   0.64433023  1070540 
 1142000   0.89914958    -1.997685    -1.997685   -1.3533338  0.029502403    -1.997685   0.64435119  1070540 
 1143000   0.90039028   -1.9979805   -1.9979805   -1.3527402  0.031394625   -1.9979805   0.64524031  1070540 
 1144000   0.90203334   -1.9985646   -1.9985646   -1.3521469  0.034442202   -1.9985646   0.64641776  1070540 
 1145000   0.90049816   -1.9972693   -1.9972693   -1.3519516  0.021627548   -1.9972693   0.64531762  1070540 
 1146000   0.90049654   -1.9970896   -1.9970896   -1.3517731  0.034761644   -1.9970896   0.64531646  1070540 
 1147000    0.8997438   -1.9967186   -1.9967186   -1.3519416  0.028294723   -1.9967186   0.64477703  1070540 
 1148000    0.9000604   -1.9973962   -1.9973962   -1.3523923  0.027110393   -1.9973962   0.64500391  1070540 
 1149000   0.89893021   -1.9976799   -1.9976799   -1.3534859  0.032867698   -1.9976799   0.64419399  1070540 
 1150000   0.89931236   -1.9986285   -1.9986285   -1.3541607  0.016919025   -1.9986285   0.64446785  1070540 
 1151000    0.8976133    -1.997592    -1.997592   -1.3543417  0.032798763    -1.997592   0.64325026  1070540 
 1152000     0.899465   -1.9987963   -1.9987963    -1.354219  0.024905351   -1.9987963   0.64457723  1070540 
 1153000   0.90124194   -1.9993875   -1.9993875   -1.3535369  0.027185862   -1.9993875   0.64585063  1070540 
 1154000    0.9005003   -1.9984459   -1.9984459   -1.3531267   0.02758698   -1.9984459   0.64531916  1070540 
 1155000   0.90027766   -1.9980131   -1.9980131   -1.3528535  0.034392823   -1.9980131   0.64515961  1070540 
 1156000   0.89986744   -1.9978626   -1.9978626    -1.352997  0.029412074   -1.9978626   0.64486563  1070540 
 1157000   0.90117885   -1.9987635   -1.9987635   -1.3529581  0.021205798   -1.9987635   0.64580542  1070540 
 1158000   0.90032226   -1.9980076   -1.9980076    -1.352816  0.028398154   -1.9980076   0.64519156  1070540 
 1159000   0.90077013   -1.9981061   -1.9981061   -1.3525935   0.02844802   -1.9981061   0.64551252  1070540 
 1160000   0.89996627   -1.9970376   -1.9970376   -1.3521012  0.028528958   -1.9970376   0.64493646  1070540 
 1161000   0.90068314   -1.9971877   -1.9971877   -1.3517375  0.030547018   -1.9971877   0.64545018  1070540 
 1162000   0.90078133    -1.997231    -1.997231   -1.3517104  0.034166696    -1.997231   0.64552055  1070540 
 1163000   0.90063383   -1.9974906   -1.9974906   -1.3520758  0.033714595   -1.9974906   0.64541484  1070540 
 1164000   0.89991071   -1.9975316   -1.9975316    -1.352635  0.029622504   -1.9975316   0.64489664  1070540 
 1165000    0.8996734   -1.9980392   -1.9980392   -1.3533126  0.023187824   -1.9980392   0.64472658  1070540 
 1166000    0.8990365   -1.9980987   -1.9980987   -1.3538285  0.036382208   -1.9980987   0.64427016  1070540 
 1167000   0.89925776   -1.9984967   -1.9984967    -1.354068  0.024017918   -1.9984967   0.64442872  1070540 
 1168000   0.89810308   -1.9972805   -1.9972805   -1.3536792  0.025819161   -1.9972805   0.64360125  1070540 
 1169000   0.89990701   -1.9976476   -1.9976476   -1.3527536  0.022787941   -1.9976476   0.64489399  1070540 
 1170000   0.90037675   -1.9972437   -1.9972437   -1.3520131  0.032279947   -1.9972437   0.64523062  1070540 
 1171000    0.9003055   -1.9968291   -1.9968291   -1.3516496  0.029955241   -1.9968291   0.64517956  1070540 
 1172000   0.90113081   -1.9974807   -1.9974807   -1.3517097  0.024087286   -1.9974807   0.64577099  1070540 
 1173000   0.90106983   -1.9975292   -1.9975292   -1.3518019  0.033261368   -1.9975292   0.64572729  1070540 
 1174000   0.89963588   -1.9968592   -1.9968592   -1.3521596  0.035703772   -1.9968592   0.64469969  1070540 
 1175000   0.90016557   -1.9977876   -1.9977876   -1.3527083  0.023499564   -1.9977876   0.64507928  1070540 
 1176000   0.90013929   -1.9983432   -1.9983432   -1.3532828  0.033619065   -1.9983432   0.64506045  1070540 
 1177000   0.89925516   -1.9980689   -1.9980689    -1.353642  0.032646295   -1.9980689   0.64442686  1070540 
 1178000   0.89946309   -1.9984168   -1.9984168    -1.353841  0.033908804   -1.9984168   0.64457587  1070540 
 1179000   0.89975648   -1.9985547   -1.9985547   -1.3537685  0.035277095   -1.9985547   0.64478612  1070540 
 1180000   0.89973295   -1.9984832   -1.9984832   -1.3537139   0.02497289   -1.9984832   0.64476925  1070540 
 1181000   0.90037873   -1.9987323   -1.9987323   -1.3535003  0.032923889   -1.9987323   0.64523203  1070540 
 1182000   0.90024029    -1.998181    -1.998181   -1.3530482  0.027022076    -1.998181   0.64513282  1070540 
 1183000   0.90039404   -1.9981299   -1.9981299   -1.3528869  0.033519618   -1.9981299     0.645243  1070540 
 1184000   0.90157829   -1.9990835   -1.9990835   -1.3529919  0.033268577   -1.9990835   0.64609167  1070540 
 1185000   0.89930783   -1.9978388   -1.9978388   -1.3533742  0.035335399   -1.9978388    0.6444646  1070540 
 1186000   0.89944734   -1.9985897   -1.9985897   -1.3540251   0.03588946   -1.9985897   0.64456458  1070540 
 1187000   0.89873647   -1.9994298   -1.9994298   -1.3553747  0.027921103   -1.9994298   0.64405515  1070540 
 1188000   0.89817037   -1.9998797   -1.9998797   -1.3562302  0.024880794   -1.9998797   0.64364947  1070540 
 1189000   0.89814999   -1.9996692   -1.9996692   -1.3560343  0.026093457   -1.9996692   0.64363487  1070540 
 1190000   0.89687054   -1.9984259   -1.9984259    -1.355708  0.034886073   -1.9984259   0.64271799  1070540 
 1191000   0.89973062   -1.9996019   -1.9996019   -1.3548344  0.031924739   -1.9996019   0.64476758  1070540 
 1192000   0.89957091   -1.9990202   -1.9990202   -1.3543671  0.020586469   -1.9990202   0.64465313  1070540 
 1193000   0.90075086   -1.9994098   -1.9994098   -1.3539111  0.030541689   -1.9994098   0.64549871  1070540 
 1194000   0.90089732     -1.99908     -1.99908   -1.3534763  0.031824968     -1.99908   0.64560367  1070540 
 1195000   0.90074684   -1.9990613   -1.9990613   -1.3535655  0.032385211   -1.9990613   0.64549583  1070540 
 1196000   0.90140461   -1.9998777   -1.9998777   -1.3539105  0.027602857   -1.9998777    0.6459672  1070540 
 1197000   0.89987441   -1.9992601   -1.9992601   -1.3543895  0.027261225   -1.9992601   0.64487062  1070540 
 1198000   0.89910708   -1.9995234   -1.9995234   -1.3552027  0.035647371   -1.9995234   0.64432074  1070540 
 1199000   0.89781451   -1.9993399   -1.9993399   -1.3559455  0.027945052   -1.9993399   0.64339446  1070540 
 1200000   0.89755683   -1.9991391   -1.9991391   -1.3559293  0.029448449   -1.9991391    0.6432098  1070540 
 1201000    0.8989504   -1.9995253   -1.9995253   -1.3553168  0.025519132   -1.9995253   0.64420846  1070540 
 1202000   0.90091184   -1.9999515   -1.9999515   -1.3543374  0.027162377   -1.9999515   0.64561408  1070540 
 1203000   0.89933256   -1.9982782   -1.9982782   -1.3537959  0.030403587   -1.9982782   0.64448232  1070540 
 1204000   0.90028155   -1.9987783   -1.9987783   -1.3536159  0.027871415   -1.9987783    0.6451624  1070540 
 1205000   0.90117346    -1.999143    -1.999143   -1.3533414  0.032621336    -1.999143   0.64580156  1070540 
 1206000   0.90029029    -1.998453    -1.998453   -1.3532843  0.031131997    -1.998453   0.64516866  1070540 
 1207000   0.90055416   -1.9986311   -1.9986311   -1.3532733  0.027164975   -1.9986311   0.64535775  1070540 
 1208000   0.89972798   -1.9980909   -1.9980909   -1.3533252  0.033056927   -1.9980909   0.64476569  1070540 
 1209000   0.90041537   -1.9985496   -1.9985496   -1.3532913  0.028088457   -1.9985496   0.64525829  1070540 
 1210000   0.89849587   -1.9970296   -1.9970296   -1.3531469  0.028845823   -1.9970296   0.64388274  1070540 
 1211000   0.89964537   -1.9975571   -1.9975571   -1.3528506  0.029783465   -1.9975571   0.64470649  1070540 
 1212000   0.89956004   -1.9968951   -1.9968951   -1.3522498  0.031875422   -1.9968951   0.64464534  1070540 
 1213000    0.9000144   -1.9966703   -1.9966703   -1.3516994   0.03177882   -1.9966703   0.64497095  1070540 
 1214000   0.90052172   -1.9964164   -1.9964164   -1.3510819  0.027101013   -1.9964164    0.6453345  1070540 
 1215000   0.90065162   -1.9961691   -1.9961691   -1.3507415  0.036195549   -1.9961691    0.6454276  1070540 
 1216000   0.90098741   -1.9964337   -1.9964337   -1.3507655  0.023035631   -1.9964337   0.64566823  1070540 
 1217000   0.90012479   -1.9962338   -1.9962338   -1.3511838    0.0299593   -1.9962338   0.64505005  1070540 
 1218000     0.900452   -1.9974573   -1.9974573   -1.3521727  0.026364491   -1.9974573   0.64528454  1070540 
 1219000   0.89962349   -1.9977841   -1.9977841   -1.3530933  0.026076589   -1.9977841   0.64469081  1070540 
 1220000   0.89877256   -1.9974569   -1.9974569   -1.3533759  0.025070496   -1.9974569   0.64408101  1070540 
 1221000   0.89955855   -1.9978746   -1.9978746   -1.3532303  0.029747838   -1.9978746   0.64464428  1070540 
 1222000    0.8992106    -1.997178    -1.997178   -1.3527831  0.033450642    -1.997178   0.64439493  1070540 
 1223000   0.89953474   -1.9969456   -1.9969456   -1.3523184  0.028613762   -1.9969456   0.64462721  1070540 
 1224000   0.90101592   -1.9972449   -1.9972449   -1.3515562  0.027548107   -1.9972449   0.64568866  1070540 
 1225000   0.90186762   -1.9976515   -1.9976515   -1.3513525  0.028654077   -1.9976515   0.64629901  1070540 
 1226000   0.90030211    -1.996644    -1.996644   -1.3514669  0.031641322    -1.996644   0.64517712  1070540 
 1227000   0.90013842   -1.9967397   -1.9967397   -1.3516799  0.036761967   -1.9967397   0.64505982  1070540 
 1228000   0.90170685   -1.9983172   -1.9983172   -1.3521334  0.020171799   -1.9983172    0.6461838  1070540 
 1229000   0.90099464   -1.9980379   -1.9980379   -1.3523645  0.025419064   -1.9980379   0.64567341  1070540 
 1230000   0.90046559   -1.9981366   -1.9981366   -1.3528423  0.033837401   -1.9981366   0.64529428  1070540 
 1231000   0.89970464   -1.9981806   -1.9981806   -1.3534317  0.028348592   -1.9981806   0.64474896  1070540 
 1232000   0.89994492    -1.998775    -1.998775   -1.3538538  0.021780451    -1.998775   0.64492116  1070540 
 1233000   0.89952692   -1.9985955   -1.9985955   -1.3539739  0.024242855   -1.9985955   0.64462161  1070540 
 1234000   0.89997997    -1.999051    -1.999051   -1.3541048  0.031852841    -1.999051   0.64494627  1070540 
 1235000   0.90047564   -1.9993421   -1.9993421   -1.3540406  0.027417965   -1.9993421   0.64530149  1070540 
 1236000   0.90017467   -1.9991092   -1.9991092   -1.3540234   0.03279704   -1.9991092    0.6450858  1070540 
 1237000   0.90039178   -1.9991575   -1.9991575   -1.3539161  0.037375672   -1.9991575   0.64524139  1070540 
 1238000    0.9002322   -1.9990024   -1.9990024   -1.3538754  0.037438139   -1.9990024   0.64512703  1070540 
 1239000   0.90026203   -1.9993566   -1.9993566   -1.3542082  0.033899324   -1.9993566    0.6451484  1070540 
 1240000   0.90074111   -2.0001451   -2.0001451   -1.3546533  0.036338684   -2.0001451   0.64549172  1070540 
 1241000   0.89944698   -2.0007223   -2.0007223   -1.3561579  0.031283787   -2.0007223   0.64456432  1070540 
 1242000   0.89836101   -2.0005926   -2.0005926   -1.3568065  0.028634849   -2.0005926   0.64378609  1070540 
 1243000   0.89905788   -2.0010572   -2.0010572   -1.3567717  0.025465544   -2.0010572   0.64428548  1070540 
 1244000   0.89880924   -2.0003892   -2.0003892   -1.3562819  0.026303358   -2.0003892    0.6441073  1070540 
 1245000   0.89844954   -1.9995361   -1.9995361   -1.3556865  0.035467151   -1.9995361   0.64384953  1070540 
 1246000   0.90041877   -1.9999944   -1.9999944   -1.3547337  0.027446164   -1.9999944   0.64526073  1070540 
 1247000   0.90016448   -1.9995048   -1.9995048   -1.3544263  0.032952539   -1.9995048    0.6450785  1070540 
 1248000    0.9000761    -1.999287    -1.999287   -1.3542718  0.026791508    -1.999287   0.64501517  1070540 
 1249000   0.89998315   -1.9993947   -1.9993947   -1.3544462  0.027825041   -1.9993947   0.64494855  1070540 
 1250000   0.90011522   -1.9996281   -1.9996281   -1.3545849   0.03353911   -1.9996281   0.64504319  1070540 
 1251000   0.90058913    -2.000429    -2.000429   -1.3550462  0.030566665    -2.000429   0.64538281  1070540 
 1252000    0.8986006   -1.9999759   -1.9999759   -1.3560181  0.023243606   -1.9999759   0.64395778  1070540 
 1253000   0.89715604   -1.9997159   -1.9997159   -1.3567934   0.02543353   -1.9997159   0.64292258  1070540 
 1254000    0.8982735   -2.0004638   -2.0004638   -1.3567405  0.028093034   -2.0004638   0.64372337  1070540 
 1255000   0.89952438   -2.0008287   -2.0008287   -1.3562089  0.039870137   -2.0008287   0.64461979  1070540 
 1256000   0.89865396   -1.9995556   -1.9995556   -1.3555596  0.034179994   -1.9995556   0.64399602  1070540 
 1257000   0.89968084   -1.9998075   -1.9998075   -1.3550756  0.035380841   -1.9998075   0.64473191  1070540 
 1258000   0.90042238   -2.0001048   -2.0001048   -1.3548415  0.025417191   -2.0001048   0.64526332  1070540 
 1259000   0.90110593   -2.0005233   -2.0005233   -1.3547701  0.028148858   -2.0005233   0.64575316  1070540 
 1260000   0.89981175   -1.9995838   -1.9995838   -1.3547581  0.037681778   -1.9995838   0.64482573  1070540 
 1261000   0.90041962   -2.0001137   -2.0001137   -1.3548524  0.034480267   -2.0001137   0.64526134  1070540 
 1262000   0.89950737   -1.9998056   -1.9998056    -1.355198  0.024282556   -1.9998056    0.6446076  1070540 
 1263000   0.89984605   -2.0003377   -2.0003377   -1.3554874  0.033232841   -2.0003377    0.6448503  1070540 
 1264000   0.90070166   -2.0014564   -2.0014564   -1.3559929  0.027523231   -2.0014564   0.64546345  1070540 
 1265000   0.89903501   -2.0008372   -2.0008372   -1.3565681  0.026541946   -2.0008372   0.64426909  1070540 
 1266000   0.89789838   -2.0006412   -2.0006412   -1.3571867  0.029244778   -2.0006412   0.64345456  1070540 
 1267000   0.89825649   -2.0009226   -2.0009226   -1.3572114  0.034490801   -2.0009226   0.64371119  1070540 
 1268000   0.89822318    -2.000192    -2.000192   -1.3565047  0.029070668    -2.000192   0.64368732  1070540 
 1269000   0.89985559   -2.0002706   -2.0002706   -1.3554135  0.032151774   -2.0002706   0.64485714  1070540 
 1270000   0.90055925   -2.0002306   -2.0002306   -1.3548692  0.028106277   -2.0002306    0.6453614  1070540 
 1271000   0.90083169   -2.0001799   -2.0001799   -1.3546232  0.032495236   -2.0001799   0.64555664  1070540 
 1272000   0.90058045   -2.0000264   -2.0000264   -1.3546498  0.029501018   -2.0000264   0.64537659  1070540 
 1273000    0.9000466   -1.9998342   -1.9998342   -1.3548402  0.034513071   -1.9998342   0.64499402  1070540 
 1274000   0.89953817    -1.999911    -1.999911   -1.3552813  0.034487285    -1.999911   0.64462967  1070540 
 1275000   0.89953237   -2.0003733   -2.0003733   -1.3557478  0.026086353   -2.0003733   0.64462552  1070540 
 1276000   0.89941538   -2.0001955   -2.0001955   -1.3556539  0.023625074   -2.0001955   0.64454167  1070540 
 1277000    0.8989902   -1.9996027   -1.9996027   -1.3553657  0.034101688   -1.9996027   0.64423698  1070540 
 1278000   0.89909208   -1.9986131   -1.9986131   -1.3543031  0.025378987   -1.9986131   0.64430999  1070540 
 1279000   0.90066758   -1.9987287   -1.9987287   -1.3532897  0.028309957   -1.9987287   0.64543903  1070540 
 1280000   0.90100351   -1.9988548   -1.9988548    -1.353175  0.033271406   -1.9988548   0.64567976  1070540 
 1281000   0.90090655   -1.9988778   -1.9988778   -1.3532675  0.031484072   -1.9988778   0.64561028  1070540 
 1282000   0.89950829   -1.9983039   -1.9983039   -1.3536957  0.038938741   -1.9983039   0.64460826  1070540 
 1283000   0.89888652   -1.9984396   -1.9984396   -1.3542769    0.0312678   -1.9984396   0.64416268  1070540 
 1284000   0.89901524   -1.9988352   -1.9988352   -1.3545802  0.025677682   -1.9988352   0.64425493  1070540 
 1285000    0.8997003   -1.9992816   -1.9992816   -1.3545358   0.02799334   -1.9992816   0.64474586  1070540 
 1286000   0.90021691   -1.9994298   -1.9994298   -1.3543138  0.033866311   -1.9994298   0.64511607  1070540 
 1287000    0.8995049   -1.9978758   -1.9978758     -1.35327  0.035418686   -1.9978758   0.64460582  1070540 
 1288000   0.90251823   -1.9987729   -1.9987729   -1.3520076  0.026271412   -1.9987729   0.64676525  1070540 
 1289000   0.90106144   -1.9975328   -1.9975328   -1.3518115  0.032943128   -1.9975328   0.64572128  1070540 
 1290000   0.90072636    -1.997616    -1.997616   -1.3521349  0.027052103    -1.997616   0.64548116  1070540 
 1291000   0.89951468   -1.9971889   -1.9971889   -1.3525761  0.029543036   -1.9971889   0.64461283  1070540 
 1292000   0.90105877   -1.9985581   -1.9985581   -1.3528387  0.019243086   -1.9985581   0.64571937  1070540 
 1293000   0.89968234     -1.99767     -1.99767   -1.3529371  0.028409407     -1.99767   0.64473298  1070540 
 1294000   0.90050172   -1.9982521   -1.9982521   -1.3529319   0.03199019   -1.9982521   0.64532017  1070540 
 1295000   0.89978163   -1.9979037   -1.9979037   -1.3530996  0.030838567   -1.9979037   0.64480413  1070540 
 1296000    0.9002553   -1.9982833   -1.9982833   -1.3531397  0.025729946   -1.9982833   0.64514358  1070540 
 1297000   0.90026774   -1.9984743   -1.9984743   -1.3533218  0.029636611   -1.9984743   0.64515249  1070540 
 1298000   0.90110608   -1.9990021   -1.9990021   -1.3532489  0.030748562   -1.9990021   0.64575327  1070540 
 1299000   0.89950292   -1.9981759   -1.9981759   -1.3535715  0.027166096   -1.9981759   0.64460441  1070540 
 1300000   0.89923704    -1.998311    -1.998311   -1.3538971  0.027488183    -1.998311   0.64441387  1070540 
 1301000   0.89953977   -1.9986624   -1.9986624   -1.3540316  0.031110906   -1.9986624   0.64463082  1070540 
 1302000   0.89976389   -1.9987775   -1.9987775   -1.3539861  0.025150033   -1.9987775   0.64479143  1070540 
 1303000   0.90024874   -1.9986595   -1.9986595   -1.3535207  0.033764689   -1.9986595   0.64513888  1070540 
 1304000   0.90145041   -1.9991236   -1.9991236   -1.3531236  0.023809247   -1.9991236   0.64600002  1070540 
 1305000   0.90095809   -1.9983771   -1.9983771   -1.3527299   0.03312582   -1.9983771   0.64564722  1070540 
 1306000   0.90141332   -1.9984147   -1.9984147   -1.3524412  0.029684423   -1.9984147   0.64597344  1070540 
 1307000   0.90146387   -1.9989378   -1.9989378   -1.3529281  0.041323643   -1.9989378   0.64600967  1070540 
 1308000   0.89960567   -1.9987351   -1.9987351   -1.3540571  0.035472756   -1.9987351   0.64467804  1070540 
 1309000   0.89928293   -1.9992112   -1.9992112   -1.3547645  0.032136986   -1.9992112   0.64444676  1070540 
 1310000   0.90032163   -2.0002517   -2.0002517   -1.3550605  0.032732633   -2.0002517   0.64519111  1070540 
 1311000   0.90008509   -2.0001942   -2.0001942   -1.3551726  0.026404472   -2.0001942    0.6450216  1070540 
 1312000   0.90047019   -2.0005112   -2.0005112   -1.3552136  0.027955097   -2.0005112   0.64529757  1070540 
 1313000   0.89923176   -1.9995465   -1.9995465   -1.3551364  0.031648096   -1.9995465   0.64441009  1070540 
 1314000   0.90029255   -1.9995547   -1.9995547   -1.3543844  0.031717086   -1.9995547   0.64517027  1070540 
 1315000   0.90095815   -1.9990798   -1.9990798   -1.3534325  0.035485735   -1.9990798   0.64564726  1070540 
 1316000    0.9012724   -1.9985634   -1.9985634    -1.352691  0.029357362   -1.9985634   0.64587246  1070540 
 1317000   0.90063202   -1.9979696   -1.9979696   -1.3525561  0.039525143   -1.9979696   0.64541355  1070540 
 1318000   0.90080272   -1.9982819   -1.9982819    -1.352746  0.028750149   -1.9982819   0.64553588  1070540 
 1319000     0.899928   -1.9978588   -1.9978588   -1.3529498  0.034958629   -1.9978588   0.64490903  1070540 
 1320000   0.90063095   -1.9990062   -1.9990062   -1.3535934  0.027846754   -1.9990062   0.64541278  1070540 
 1321000   0.90007336   -1.9990526   -1.9990526   -1.3540394  0.032814594   -1.9990526    0.6450132  1070540 
 1322000   0.89782261   -1.9977126   -1.9977126   -1.3543123  0.028878825   -1.9977126   0.64340026  1070540 
 1323000   0.89787937    -1.997527    -1.997527   -1.3540861  0.029658702    -1.997527   0.64344094  1070540 
 1324000   0.89797883   -1.9969868   -1.9969868   -1.3534746  0.034759676   -1.9969868   0.64351221  1070540 
 1325000   0.89901621   -1.9970297   -1.9970297   -1.3527741  0.028828739   -1.9970297   0.64425562  1070540 
 1326000   0.89955172   -1.9970157   -1.9970157   -1.3523763   0.02900637   -1.9970157   0.64463938  1070540 
 1327000   0.89978914   -1.9968084   -1.9968084   -1.3519988  0.033452677   -1.9968084   0.64480952  1070540 
 1328000   0.90046748   -1.9973259   -1.9973259   -1.3520303  0.029861227   -1.9973259   0.64529563  1070540 
 1329000   0.90064381   -1.9975265   -1.9975265   -1.3521045  0.025512836   -1.9975265   0.64542199  1070540 
 1330000   0.89980192   -1.9971011   -1.9971011   -1.3522824  0.026547264   -1.9971011   0.64481868  1070540 
 1331000   0.90047473   -1.9977567   -1.9977567   -1.3524559  0.022772712   -1.9977567   0.64530083  1070540 
 1332000   0.89943131   -1.9968689   -1.9968689   -1.3523158  0.025417771   -1.9968689   0.64455309  1070540 
 1333000   0.90047535   -1.9970321   -1.9970321   -1.3517309  0.025371951   -1.9970321   0.64530127  1070540 
 1334000   0.90031348   -1.9961412   -1.9961412    -1.350956  0.037129215   -1.9961412   0.64518527  1070540 
 1335000    0.9020175   -1.9967135   -1.9967135    -1.350307  0.029295183   -1.9967135   0.64640642  1070540 
 1336000   0.90206449   -1.9966388   -1.9966388   -1.3501987  0.034633298   -1.9966388   0.64644008  1070540 
 1337000   0.90082354   -1.9964041   -1.9964041   -1.3508533  0.031736915   -1.9964041   0.64555079  1070540 
 1338000   0.90046352   -1.9972106   -1.9972106   -1.3519179  0.039526927   -1.9972106    0.6452928  1070540 
 1339000    0.8996259   -1.9972053   -1.9972053   -1.3525128  0.029779027   -1.9972053   0.64469254  1070540 
 1340000   0.89938085    -1.997306    -1.997306   -1.3527891  0.029418657    -1.997306   0.64451693  1070540 
 1341000   0.90059607   -1.9982213   -1.9982213   -1.3528335  0.026158604   -1.9982213   0.64538779  1070540 
 1342000   0.89861208   -1.9968582   -1.9968582   -1.3528922  0.029512325   -1.9968582   0.64396601  1070540 
 1343000   0.89961359   -1.9974096   -1.9974096   -1.3527258  0.031194473   -1.9974096   0.64468372  1070540 
 1344000   0.89984657   -1.9972205   -1.9972205   -1.3523699    0.0240118   -1.9972205   0.64485068  1070540 
 1345000   0.90076762   -1.9973828   -1.9973828    -1.351872  0.028676589   -1.9973828   0.64551072  1070540 
 1346000   0.90067571   -1.9968063   -1.9968063   -1.3513614  0.029923768   -1.9968063   0.64544485  1070540 
 1347000   0.90165663   -1.9973571   -1.9973571   -1.3512093  0.031787554   -1.9973571   0.64614781  1070540 
 1348000   0.89998256   -1.9962068   -1.9962068   -1.3512587  0.033169103   -1.9962068   0.64494813  1070540 
 1349000   0.90032706   -1.9970382   -1.9970382   -1.3518432  0.025503611   -1.9970382   0.64519501  1070540 
 1350000    0.8999744   -1.9975168   -1.9975168   -1.3525745  0.024853955   -1.9975168   0.64494228  1070540 
 1351000   0.89827301   -1.9969409   -1.9969409   -1.3532178  0.027471843   -1.9969409   0.64372303  1070540 
 1352000   0.89811424   -1.9971801   -1.9971801   -1.3535709  0.032393151   -1.9971801   0.64360925  1070540 
 1353000   0.90009628   -1.9982611   -1.9982611   -1.3532315   0.02665787   -1.9982611   0.64502962  1070540 
 1354000    0.9005195   -1.9983723   -1.9983723   -1.3530394  0.030465666   -1.9983723   0.64533291  1070540 
 1355000   0.89957542   -1.9972548   -1.9972548   -1.3525984  0.038091488   -1.9972548   0.64465637  1070540 
 1356000   0.90180822    -1.998447    -1.998447   -1.3521906  0.028216411    -1.998447   0.64625644  1070540 
 1357000   0.90110336   -1.9975221   -1.9975221   -1.3517708  0.029617025   -1.9975221   0.64575132  1070540 
 1358000   0.90187542   -1.9975831   -1.9975831   -1.3512785  0.034169352   -1.9975831    0.6463046  1070540 
 1359000   0.90167239   -1.9975221   -1.9975221    -1.351363  0.032081444   -1.9975221    0.6461591  1070540 
 1360000   0.90134491   -1.9981846   -1.9981846   -1.3522602  0.030035627   -1.9981846   0.64592442  1070540 
 1361000   0.89891387   -1.9975007   -1.9975007   -1.3533184  0.029799826   -1.9975007   0.64418228  1070540 
 1362000   0.89865507   -1.9977738   -1.9977738    -1.353777  0.030982846   -1.9977738   0.64399682  1070540 
 1363000   0.89941024   -1.9986166   -1.9986166   -1.3540786  0.032455396   -1.9986166     0.644538  1070540 
 1364000   0.89996851   -1.9991796   -1.9991796   -1.3542415  0.029002561   -1.9991796   0.64493806  1070540 
 1365000   0.89935829   -1.9988532   -1.9988532   -1.3543524  0.023901976   -1.9988532   0.64450076  1070540 
 1366000   0.89919545   -1.9983985   -1.9983985   -1.3540144   0.03006855   -1.9983985   0.64438407  1070540 
 1367000   0.89886439   -1.9973458   -1.9973458    -1.353199  0.028090923   -1.9973458   0.64414682  1070540 
 1368000    0.9004827   -1.9975309   -1.9975309   -1.3522244  0.032502363   -1.9975309   0.64530654  1070540 
 1369000   0.90204601   -1.9983283   -1.9983283   -1.3519015   0.03419236   -1.9983283   0.64642685  1070540 
 1370000   0.90170722   -1.9984769   -1.9984769   -1.3522929  0.031742763   -1.9984769   0.64618406  1070540 
 1371000   0.90096704   -1.9986998   -1.9986998   -1.3530462  0.035115723   -1.9986998   0.64565363  1070540 
 1372000   0.89998673   -1.9984115   -1.9984115   -1.3534604  0.031727477   -1.9984115   0.64495112  1070540 
 1373000   0.90013486   -1.9990858   -1.9990858   -1.3540285  0.027961308   -1.9990858   0.64505727  1070540 
 1374000   0.89917482   -1.9984985   -1.9984985   -1.3541292  0.031066233   -1.9984985   0.64436928  1070540 
 1375000   0.90036068   -1.9993046   -1.9993046   -1.3540855   0.02916958   -1.9993046    0.6452191  1070540 
 1376000   0.89942476   -1.9986376   -1.9986376   -1.3540892  0.026772412   -1.9986376    0.6445484  1070540 
 1377000   0.90069169   -1.9993399   -1.9993399   -1.3538836  0.021367585   -1.9993399   0.64545631  1070540 
 1378000   0.90100154   -1.9989088   -1.9989088   -1.3532305  0.032941821   -1.9989088   0.64567835  1070540 
 1379000   0.90101031   -1.9981263   -1.9981263   -1.3524416  0.031205334   -1.9981263   0.64568464  1070540 
 1380000    0.8997532   -1.9967294   -1.9967294   -1.3519457  0.037845691   -1.9967294   0.64478377  1070540 
 1381000   0.90152664   -1.9977668   -1.9977668   -1.3517121  0.029947067   -1.9977668   0.64605465  1070540 
 1382000   0.90061124   -1.9974367   -1.9974367   -1.3520381  0.031684406   -1.9974367   0.64539866  1070540 
 1383000   0.90023612   -1.9979844   -1.9979844   -1.3528545  0.028980035   -1.9979844   0.64512984  1070540 
 1384000   0.90016796   -1.9989214   -1.9989214   -1.3538404  0.024879326   -1.9989214   0.64508099  1070540 
 1385000   0.89885154   -1.9985359   -1.9985359   -1.3543983  0.027511355   -1.9985359   0.64413762  1070540 
 1386000   0.90119698   -2.0002259   -2.0002259   -1.3544075  0.028266818   -2.0002259   0.64581841  1070540 
 1387000   0.89832976   -1.9981446   -1.9981446   -1.3543809  0.031129826   -1.9981446   0.64376369  1070540 
 1388000   0.89896303   -1.9985308   -1.9985308   -1.3543133   0.02687745   -1.9985308   0.64421751  1070540 
 1389000   0.89988023   -1.9986746   -1.9986746   -1.3537998  0.027770702   -1.9986746    0.6448748  1070540 
 1390000   0.90042815   -1.9980993   -1.9980993   -1.3528319  0.022982266   -1.9980993   0.64526745  1070540 
 1391000   0.90022034   -1.9970963   -1.9970963   -1.3519777  0.032592418   -1.9970963   0.64511853  1070540 
 1392000   0.90159708   -1.9979589   -1.9979589   -1.3518538  0.032285228   -1.9979589   0.64610513  1070540 
 1393000   0.90113399   -1.9980742   -1.9980742   -1.3523009  0.033826183   -1.9980742   0.64577327  1070540 
 1394000   0.90127852   -1.9986205   -1.9986205   -1.3527436  0.038748769   -1.9986205   0.64587685  1070540 
 1395000    0.9006841   -1.9988115   -1.9988115   -1.3533606   0.03001796   -1.9988115   0.64545087  1070540 
 1396000   0.89876008   -1.9980169   -1.9980169   -1.3539448  0.028584783   -1.9980169   0.64407207  1070540 
 1397000   0.89906726   -1.9985773   -1.9985773   -1.3542851  0.028262235   -1.9985773    0.6442922  1070540 
 1398000   0.89952451   -1.9989221   -1.9989221   -1.3543022  0.032256583   -1.9989221   0.64461988  1070540 
 1399000   0.89999456   -1.9989607   -1.9989607    -1.354004   0.02460524   -1.9989607   0.64495673  1070540 
 1400000   0.90210631   -2.0000587   -2.0000587   -1.3535887  0.023023775   -2.0000587   0.64647006  1070540 
 1401000   0.90135791   -1.9986973   -1.9986973   -1.3527636  0.031880602   -1.9986973   0.64593374  1070540 
 1402000   0.90174426   -1.9981868   -1.9981868   -1.3519762  0.030622569   -1.9981868    0.6462106  1070540 
 1403000   0.90191228   -1.9978477   -1.9978477   -1.3515167  0.030344801   -1.9978477   0.64633101  1070540 
 1404000   0.90055912   -1.9969291   -1.9969291   -1.3515678  0.032421514   -1.9969291   0.64536131  1070540 
 1405000    0.8993968   -1.9969468   -1.9969468   -1.3524185  0.029139333   -1.9969468   0.64452836  1070540 
 1406000   0.89842419   -1.9975605   -1.9975605   -1.3537292  0.022309998   -1.9975605   0.64383137  1070540 
 1407000   0.89888222   -1.9981719   -1.9981719   -1.3540123  0.024701569   -1.9981719    0.6441596  1070540 
 1408000   0.89945924   -1.9984464   -1.9984464   -1.3538733  0.031493313   -1.9984464    0.6445731  1070540 
 1409000    0.8997715   -1.9982656   -1.9982656   -1.3534687  0.036024937   -1.9982656   0.64479688  1070540 
 1410000   0.90010113   -1.9982135   -1.9982135   -1.3531804  0.042625953   -1.9982135    0.6450331  1070540 
 1411000   0.90145888   -1.9990651   -1.9990651    -1.353059  0.028104004   -1.9990651   0.64600609  1070540 
 1412000   0.89976734   -1.9979592   -1.9979592   -1.3531653  0.027924183   -1.9979592    0.6447939  1070540 
 1413000   0.89917618   -1.9976687   -1.9976687   -1.3532984  0.031011525   -1.9976687   0.64437026  1070540 
 1414000   0.89957548    -1.997983    -1.997983   -1.3533266   0.03298394    -1.997983   0.64465641  1070540 
 1415000    0.9005659   -1.9986596   -1.9986596   -1.3532934  0.031987775   -1.9986596   0.64536616  1070540 
 1416000     0.900767   -1.9986177   -1.9986177   -1.3531074  0.027270248   -1.9986177   0.64551028  1070540 
 1417000   0.89907231   -1.9974528   -1.9974528    -1.353157  0.038619185   -1.9974528   0.64429583  1070540 
 1418000   0.90059782   -1.9989644   -1.9989644   -1.3535754  0.027919787   -1.9989644   0.64538904  1070540 
 1419000   0.89981828   -1.9988369   -1.9988369   -1.3540065  0.026872457   -1.9988369    0.6448304  1070540 
 1420000   0.89889444   -1.9983458   -1.9983458   -1.3541775  0.028510206   -1.9983458   0.64416836  1070540 
 1421000   0.89821061   -1.9974379   -1.9974379   -1.3537596  0.025337637   -1.9974379   0.64367831  1070540 
 1422000   0.89979718   -1.9975829   -1.9975829   -1.3527677  0.033115158   -1.9975829   0.64481528  1070540 
 1423000   0.89932556   -1.9965246   -1.9965246   -1.3520473  0.042157144   -1.9965246   0.64447731  1070540 
 1424000   0.90051383   -1.9971696   -1.9971696   -1.3518407  0.033643919   -1.9971696   0.64532885  1070540 
 1425000   0.90105871   -1.9977304   -1.9977304   -1.3520111  0.027817695   -1.9977304   0.64571932  1070540 
 1426000   0.89994553   -1.9970856   -1.9970856    -1.352164    0.0303596   -1.9970856    0.6449216  1070540 
 1427000   0.89914121   -1.9970767   -1.9970767   -1.3527315  0.037125247   -1.9970767    0.6443452  1070540 
 1428000     0.899848   -1.9977507   -1.9977507    -1.352899  0.029569813   -1.9977507    0.6448517  1070540 
 1429000   0.89922315     -1.99762     -1.99762   -1.3532161  0.029021048     -1.99762   0.64440392  1070540 
 1430000   0.89878316   -1.9978715   -1.9978715   -1.3537829   0.02900207   -1.9978715   0.64408861  1070540 
 1431000   0.89844284   -1.9983752   -1.9983752   -1.3545305  0.023947599   -1.9983752   0.64384473  1070540 
 1432000   0.89672368   -1.9970993   -1.9970993   -1.3544866  0.027484963   -1.9970993   0.64261274  1070540 
 1433000   0.89930721   -1.9983276   -1.9983276   -1.3538634  0.026218756   -1.9983276   0.64446416  1070540 
 1434000   0.90029226   -1.9980107   -1.9980107   -1.3528406  0.034996565   -1.9980107   0.64517007  1070540 
 1435000   0.90135758    -1.998448    -1.998448   -1.3525145  0.034437399    -1.998448    0.6459335  1070540 
 1436000   0.90045667   -1.9976723   -1.9976723   -1.3523844  0.037410177   -1.9976723   0.64528789  1070540 
 1437000   0.90057601   -1.9981931   -1.9981931   -1.3528197  0.028435385   -1.9981931   0.64537341  1070540 
 1438000   0.89975896   -1.9981118   -1.9981118   -1.3533239  0.030789843   -1.9981118   0.64478789  1070540 
 1439000    0.8987119   -1.9979858   -1.9979858   -1.3539483  0.030760126   -1.9979858   0.64403754  1070540 
 1440000   0.89843221   -1.9979667   -1.9979667   -1.3541296  0.029393426   -1.9979667   0.64383711  1070540 
 1441000   0.89961732   -1.9987655   -1.9987655   -1.3540791    0.0333405   -1.9987655   0.64468639  1070540 
 1442000   0.90061712   -1.9985048   -1.9985048    -1.353102  0.033144602   -1.9985048   0.64540287  1070540 
 1443000   0.90173993   -1.9981057   -1.9981057   -1.3518982  0.045098577   -1.9981057    0.6462075  1070540 
 1444000   0.90122908   -1.9971993   -1.9971993   -1.3513579  0.034274722   -1.9971993   0.64584142  1070540 
 1445000   0.90024334   -1.9968372   -1.9968372   -1.3517022  0.034151704   -1.9968372   0.64513501  1070540 
 1446000   0.89961414   -1.9967975   -1.9967975   -1.3521134   0.03062699   -1.9967975   0.64468411  1070540 
 1447000   0.89869233   -1.9965021   -1.9965021   -1.3524786   0.02550574   -1.9965021   0.64402352  1070540 
 1448000   0.89895276   -1.9967002   -1.9967002   -1.3524901  0.027059843   -1.9967002   0.64421015  1070540 
 1449000   0.90019579   -1.9972579   -1.9972579    -1.352157  0.025056835   -1.9972579   0.64510094  1070540 
 1450000    0.8992901   -1.9957242   -1.9957242   -1.3512723  0.034446473   -1.9957242    0.6444519  1070540 
 1451000   0.90228625   -1.9968589   -1.9968589   -1.3502599  0.038480987   -1.9968589   0.64659901  1070540 
 1452000   0.90217039   -1.9965234   -1.9965234   -1.3500074  0.026532475   -1.9965234   0.64651598  1070540 
 1453000   0.90030315    -1.995536    -1.995536   -1.3503581  0.026188122    -1.995536   0.64517787  1070540 
 1454000   0.90013869   -1.9960992   -1.9960992   -1.3510392  0.033410929   -1.9960992   0.64506001  1070540 
 1455000   0.89899763   -1.9956949   -1.9956949   -1.3514526  0.028163097   -1.9956949    0.6442423  1070540 
 1456000   0.90041251   -1.9966719   -1.9966719   -1.3514157  0.023264725   -1.9966719   0.64525624  1070540 
 1457000   0.89912199   -1.9959312   -1.9959312   -1.3515998  0.027093331   -1.9959312   0.64433143  1070540 
 1458000   0.90096483   -1.9971368   -1.9971368   -1.3514847  0.030487699   -1.9971368   0.64565205  1070540 
 1459000   0.90126616   -1.9977066   -1.9977066   -1.3518386  0.031130223   -1.9977066   0.64586799  1070540 
 1460000   0.90157467   -1.9986412   -1.9986412   -1.3525521  0.026339499   -1.9986412   0.64608907  1070540 
 1461000   0.90093681   -1.9990082   -1.9990082   -1.3533763   0.02581385   -1.9990082   0.64563197  1070540 
 1462000   0.90074858   -1.9993552   -1.9993552   -1.3538581  0.029974029   -1.9993552   0.64549708  1070540 
 1463000   0.90011187   -1.9990913   -1.9990913   -1.3540505  0.025195594   -1.9990913   0.64504079  1070540 
 1464000   0.89903503   -1.9983752   -1.9983752   -1.3541061  0.034551271   -1.9983752   0.64426911  1070540 
 1465000   0.89963851   -1.9986801   -1.9986801   -1.3539785   0.02828138   -1.9986801   0.64470158  1070540 
 1466000   0.89984802   -1.9986064   -1.9986064   -1.3537547  0.035356571   -1.9986064   0.64485172  1070540 
 1467000   0.90064972   -1.9991492   -1.9991492    -1.353723   0.03470698   -1.9991492   0.64542623  1070540 
 1468000   0.89958635   -1.9988588   -1.9988588   -1.3541946   0.03547963   -1.9988588    0.6446642  1070540 
 1469000   0.89922564     -1.99979     -1.99979   -1.3553843  0.036897463     -1.99979    0.6444057  1070540 
 1470000   0.89898418   -2.0003585   -2.0003585   -1.3561258  0.031823464   -2.0003585   0.64423267  1070540 
 1471000   0.89945264   -2.0009075   -2.0009075   -1.3563392  0.030795085   -2.0009075   0.64456838  1070540 
 1472000   0.89921342   -2.0005591   -2.0005591   -1.3561622  0.034115714   -2.0005591   0.64439695  1070540 
 1473000   0.89972776   -2.0006399   -2.0006399   -1.3558744  0.033850838   -2.0006399   0.64476553  1070540 
 1474000   0.90129809   -2.0010662   -2.0010662   -1.3551753   0.03744704   -2.0010662   0.64589087  1070540 
 1475000   0.90191898   -2.0008918   -2.0008918    -1.354556  0.027582971   -2.0008918   0.64633581  1070540 
 1476000   0.89936153   -1.9983071   -1.9983071    -1.353804   0.03951034   -1.9983071   0.64450308  1070540 
 1477000   0.90034161   -1.9985493   -1.9985493   -1.3533439  0.030255348   -1.9985493   0.64520543  1070540 
 1478000   0.90113155   -1.9989267   -1.9989267   -1.3531551  0.028347784   -1.9989267   0.64577153  1070540 
 1479000   0.90031934   -1.9985105   -1.9985105    -1.353321  0.021566708   -1.9985105   0.64518947  1070540 
 1480000   0.90058043   -1.9993073   -1.9993073   -1.3539307  0.034384575   -1.9993073   0.64537658  1070540 
 1481000     0.898554   -1.9986575   -1.9986575   -1.3547331  0.023886048   -1.9986575   0.64392439  1070540 
 1482000   0.89709042   -1.9981276   -1.9981276    -1.355252   0.03167083   -1.9981276   0.64287555  1070540 
 1483000   0.89818884   -1.9987905   -1.9987905   -1.3551278  0.029434449   -1.9987905   0.64366271  1070540 
 1484000   0.89833022   -1.9979731   -1.9979731   -1.3542091  0.022153018   -1.9979731   0.64376402  1070540 
 1485000   0.89827562   -1.9969294   -1.9969294   -1.3532045  0.029775613   -1.9969294    0.6437249  1070540 
 1486000   0.89889469   -1.9967245   -1.9967245   -1.3525559  0.029523937   -1.9967245   0.64416854  1070540 
 1487000   0.90127698    -1.997955    -1.997955   -1.3520793   0.02828891    -1.997955   0.64587574  1070540 
 1488000   0.90034856   -1.9968742   -1.9968742   -1.3516638  0.033392001   -1.9968742   0.64521041  1070540 
 1489000   0.90213917   -1.9981782   -1.9981782   -1.3516846  0.029432237   -1.9981782   0.64649361  1070540 
 1490000   0.90021654   -1.9969232   -1.9969232   -1.3518074  0.033989249   -1.9969232    0.6451158  1070540 
 1491000   0.90075869   -1.9977712   -1.9977712   -1.3522669  0.031522674   -1.9977712   0.64550432  1070540 
 1492000   0.90091841   -1.9985296   -1.9985296   -1.3529108  0.031140957   -1.9985296   0.64561878  1070540 
 1493000   0.89921462   -1.9979487   -1.9979487   -1.3535509  0.032310156   -1.9979487   0.64439781  1070540 
 1494000   0.89887881   -1.9979262   -1.9979262   -1.3537691  0.024414096   -1.9979262   0.64415715  1070540 
 1495000   0.89926402   -1.9980415   -1.9980415   -1.3536083  0.035590618   -1.9980415   0.64443321  1070540 
 1496000   0.89809527   -1.9966397   -1.9966397   -1.3530441  0.037532934   -1.9966397   0.64359566  1070540 
 1497000   0.90014057   -1.9967012   -1.9967012   -1.3516399  0.034066352   -1.9967012   0.64506136  1070540 
 1498000   0.90193216   -1.9973902   -1.9973902   -1.3510449   0.02974781   -1.9973902   0.64634526  1070540 
 1499000   0.90154584   -1.9969946   -1.9969946   -1.3509262   0.03023461   -1.9969946   0.64606841  1070540 
 1500000   0.90119758   -1.9971367   -1.9971367   -1.3513178  0.034105539   -1.9971367   0.64581884  1070540 
 1501000   0.90040972   -1.9970303   -1.9970303   -1.3517761  0.033866027   -1.9970303   0.64525424  1070540 
 1502000   0.90000331   -1.9975075   -1.9975075   -1.3525445  0.038863679   -1.9975075     0.644963  1070540 
 1503000   0.89935323    -1.997675    -1.997675   -1.3531778  0.032719332    -1.997675   0.64449714  1070540 
 1504000   0.89914751   -1.9977326   -1.9977326   -1.3533829  0.026523064   -1.9977326   0.64434972  1070540 
 1505000   0.89967963   -1.9978752   -1.9978752   -1.3531441  0.030955545   -1.9978752   0.64473104  1070540 
 1506000   0.89912448   -1.9970872   -1.9970872    -1.352754  0.024667978   -1.9970872   0.64433321  1070540 
 1507000   0.90132565   -1.9982918   -1.9982918   -1.3523812  0.028073712   -1.9982918   0.64591062  1070540 
 1508000   0.90055768   -1.9976158   -1.9976158   -1.3522555  0.031621047   -1.9976158   0.64536027  1070540 
 1509000   0.90086231    -1.997656    -1.997656   -1.3520774  0.024122362    -1.997656   0.64557858  1070540 
 1510000   0.89991601   -1.9969405   -1.9969405   -1.3520401  0.029079676   -1.9969405   0.64490044  1070540 
 1511000   0.90013646    -1.996959    -1.996959   -1.3519006  0.029864543    -1.996959   0.64505842  1070540 
 1512000   0.90006583   -1.9967297   -1.9967297   -1.3517219  0.025479811   -1.9967297    0.6450078  1070540 
 1513000   0.90137288   -1.9977104   -1.9977104   -1.3517659  0.030527801   -1.9977104   0.64594446  1070540 
 1514000   0.90072953   -1.9973261   -1.9973261   -1.3518427  0.025715743   -1.9973261   0.64548343  1070540 
 1515000    0.8991133   -1.9965057   -1.9965057   -1.3521805  0.030633275   -1.9965057    0.6443252  1070540 
 1516000   0.89969073   -1.9970943   -1.9970943   -1.3523553  0.026856795   -1.9970943     0.644739  1070540 
 1517000   0.89918666   -1.9970358   -1.9970358    -1.352658  0.023673503   -1.9970358   0.64437777  1070540 
 1518000   0.89934735   -1.9970198   -1.9970198   -1.3525269  0.030965925   -1.9970198   0.64449292  1070540 
 1519000   0.89980456   -1.9973139   -1.9973139   -1.3524934  0.026925393   -1.9973139   0.64482057  1070540 
 1520000   0.90012285   -1.9973974   -1.9973974   -1.3523487  0.041566017   -1.9973974   0.64504867  1070540 
 1521000   0.90095302   -1.9984439   -1.9984439   -1.3528003  0.035923366   -1.9984439   0.64564358  1070540 
 1522000   0.90068307   -1.9990083   -1.9990083   -1.3535581   0.02877141   -1.9990083   0.64545013  1070540 
 1523000   0.89932055   -1.9987584   -1.9987584   -1.3542847  0.029615111   -1.9987584   0.64447372  1070540 
 1524000   0.89786392   -1.9979984   -1.9979984   -1.3545685  0.034162678   -1.9979984   0.64342987  1070540 
 1525000     0.899567   -1.9990535   -1.9990535   -1.3544032  0.029833731   -1.9990535   0.64465033  1070540 
 1526000   0.89938427   -1.9981941   -1.9981941   -1.3536747  0.041571824   -1.9981941   0.64451938  1070540 
 1527000   0.90060327   -1.9981713   -1.9981713   -1.3527784  0.029042638   -1.9981713   0.64539295  1070540 
 1528000   0.89978213   -1.9970787   -1.9970787   -1.3522742  0.031693047   -1.9970787   0.64480449  1070540 
 1529000   0.90013922   -1.9970872   -1.9970872   -1.3520268  0.037135194   -1.9970872   0.64506039  1070540 
 1530000   0.89955365   -1.9968453   -1.9968453   -1.3522045  0.042075103   -1.9968453   0.64464076  1070540 
 1531000    0.8997531   -1.9973381   -1.9973381   -1.3525544  0.041362498   -1.9973381   0.64478369  1070540 
 1532000   0.90006857   -1.9978168   -1.9978168    -1.352807  0.035614991   -1.9978168   0.64500977  1070540 
 1533000   0.90072947   -1.9989079   -1.9989079   -1.3534245  0.030946932   -1.9989079   0.64548338  1070540 
 1534000   0.89890273   -1.9981124   -1.9981124   -1.3539381  0.027735994   -1.9981124    0.6441743  1070540 
 1535000   0.89869343   -1.9982863   -1.9982863    -1.354262   0.02860054   -1.9982863   0.64402431  1070540 
 1536000   0.89969999   -1.9989097   -1.9989097   -1.3541641  0.030284477   -1.9989097   0.64474563  1070540 
 1537000   0.90053981   -1.9990278   -1.9990278   -1.3536804  0.025104486   -1.9990278   0.64534747  1070540 
 1538000   0.90019141   -1.9976166   -1.9976166   -1.3525188  0.029415048   -1.9976166    0.6450978  1070540 
 1539000    0.9013128    -1.997421    -1.997421   -1.3515196  0.029713763    -1.997421   0.64590141  1070540 
 1540000   0.90241853   -1.9983002   -1.9983002   -1.3516064   0.02993422   -1.9983002    0.6466938  1070540 
 1541000   0.90143274   -1.9979159   -1.9979159   -1.3519286  0.034127387   -1.9979159   0.64598736  1070540 
 1542000   0.89962747   -1.9970215   -1.9970215   -1.3523278  0.028722327   -1.9970215   0.64469367  1070540 
 1543000   0.90047686   -1.9980311   -1.9980311   -1.3527288  0.026157758   -1.9980311   0.64530236  1070540 
 1544000   0.90039723   -1.9982606   -1.9982606   -1.3530153  0.022480832   -1.9982606   0.64524529  1070540 
 1545000   0.89948634   -1.9976393   -1.9976393   -1.3530467   0.03394116   -1.9976393   0.64459253  1070540 
 1546000   0.89929079   -1.9971653   -1.9971653   -1.3527129  0.032119607   -1.9971653   0.64445239  1070540 
 1547000   0.89985999   -1.9971393   -1.9971393    -1.352279  0.027488061   -1.9971393   0.64486029  1070540 
 1548000    0.8997971   -1.9962913   -1.9962913   -1.3514761  0.025524263   -1.9962913   0.64481522  1070540 
 1549000   0.90156576   -1.9968315   -1.9968315   -1.3507488  0.036210329   -1.9968315   0.64608268  1070540 
 1550000   0.90134873   -1.9964629   -1.9964629   -1.3505357  0.028592659   -1.9964629   0.64592716  1070540 
 1551000   0.90140923   -1.9966587   -1.9966587   -1.3506882  0.029152209   -1.9966587   0.64597051  1070540 
 1552000   0.89982047   -1.9964076   -1.9964076   -1.3515757   0.03115019   -1.9964076   0.64483197  1070540 
 1553000   0.89931153   -1.9972345   -1.9972345   -1.3527672  0.031740748   -1.9972345   0.64446725  1070540 
 1554000   0.89957959   -1.9977175   -1.9977175   -1.3530582  0.026236825   -1.9977175   0.64465935  1070540 
 1555000   0.90031943   -1.9982351   -1.9982351   -1.3530456  0.023973998   -1.9982351   0.64518954  1070540 
 1556000   0.89948715   -1.9972775   -1.9972775   -1.3526844  0.029044529   -1.9972775   0.64459311  1070540 
 1557000   0.90057679   -1.9977833   -1.9977833   -1.3524093  0.028851923   -1.9977833   0.64537397  1070540 
 1558000   0.90013737   -1.9970611   -1.9970611    -1.352002  0.033535508   -1.9970611   0.64505907  1070540 
 1559000   0.90132386   -1.9973369   -1.9973369   -1.3514276  0.027912465   -1.9973369   0.64590934  1070540 
 1560000    0.9014154   -1.9969322   -1.9969322   -1.3509573  0.039290803   -1.9969322   0.64597493  1070540 
 1561000   0.90060204   -1.9963737   -1.9963737   -1.3509816  0.025050876   -1.9963737   0.64539206  1070540 
 1562000   0.90104817   -1.9974077   -1.9974077    -1.351696  0.025408072   -1.9974077   0.64571177  1070540 
 1563000   0.89911108   -1.9971733   -1.9971733   -1.3528497  0.032329635   -1.9971733   0.64432361  1070540 
 1564000   0.89846647   -1.9975341   -1.9975341   -1.3536724  0.029765228   -1.9975341   0.64386166  1070540 
 1565000   0.89891694    -1.997819    -1.997819   -1.3536345  0.030654069    -1.997819   0.64418448  1070540 
 1566000   0.89837582   -1.9970581   -1.9970581   -1.3532614  0.033769204   -1.9970581    0.6437967  1070540 
 1567000   0.89965126   -1.9973813   -1.9973813   -1.3526706  0.036646984   -1.9973813   0.64471072  1070540 
 1568000   0.90056264   -1.9973698   -1.9973698    -1.352006  0.030775625   -1.9973698   0.64536383  1070540 
 1569000   0.90086716   -1.9972057   -1.9972057   -1.3516237  0.034026142   -1.9972057   0.64558205  1070540 
 1570000    0.9006873   -1.9969095   -1.9969095   -1.3514563   0.03181763   -1.9969095   0.64545317  1070540 
 1571000   0.90113422   -1.9973989   -1.9973989   -1.3516254  0.035557538   -1.9973989   0.64577344  1070540 
 1572000    0.9006937   -1.9973507   -1.9973507    -1.351893  0.036002896   -1.9973507   0.64545775  1070540 
 1573000   0.90065668   -1.9976209   -1.9976209   -1.3521897  0.031608956   -1.9976209   0.64543122  1070540 
 1574000   0.89965771   -1.9973299   -1.9973299   -1.3526146  0.035768323   -1.9973299   0.64471534  1070540 
 1575000   0.89879441   -1.9967186   -1.9967186   -1.3526219  0.032413264   -1.9967186   0.64409667  1070540 
 1576000   0.89973969   -1.9973663   -1.9973663   -1.3525922  0.019788847   -1.9973663   0.64477409  1070540 
 1577000   0.89933087   -1.9968074   -1.9968074   -1.3523263  0.032807503   -1.9968074   0.64448111  1070540 
 1578000   0.89985743   -1.9968241   -1.9968241   -1.3519657  0.024263632   -1.9968241   0.64485846  1070540 
 1579000   0.90049335   -1.9966034   -1.9966034   -1.3512892  0.028442765   -1.9966034   0.64531418  1070540 
 1580000   0.90117676   -1.9964517   -1.9964517   -1.3506477  0.032423986   -1.9964517   0.64580392  1070540 
 1581000   0.90153613   -1.9962281   -1.9962281   -1.3501666   0.02808573   -1.9962281   0.64606145  1070540 
 1582000   0.90106293   -1.9960975   -1.9960975   -1.3503751  0.038728726   -1.9960975   0.64572235  1070540 
 1583000   0.90029092   -1.9967906   -1.9967906   -1.3516215  0.028107771   -1.9967906   0.64516911  1070540 
 1584000   0.89848605   -1.9965036   -1.9965036   -1.3526279  0.021897158   -1.9965036    0.6438757  1070540 
 1585000   0.89919056   -1.9973793   -1.9973793   -1.3529987  0.026116819   -1.9973793   0.64438057  1070540 
 1586000   0.89942639   -1.9972682   -1.9972682   -1.3527186  0.031582125   -1.9972682   0.64454956  1070540 
 1587000   0.90129979   -1.9984614   -1.9984614   -1.3525693  0.031273212   -1.9984614   0.64589209  1070540 
 1588000   0.90005992   -1.9972747   -1.9972747   -1.3522712  0.029198618   -1.9972747   0.64500357  1070540 
 1589000   0.90014388   -1.9971542   -1.9971542   -1.3520904  0.029258844   -1.9971542   0.64506373  1070540 
 1590000   0.89924873   -1.9959206   -1.9959206   -1.3514983  0.029492401   -1.9959206   0.64442225  1070540 
 1591000   0.90118345   -1.9963759   -1.9963759   -1.3505672  0.035928392   -1.9963759   0.64580871  1070540 
 1592000   0.90332886   -1.9975216   -1.9975216   -1.3501754  0.026720079   -1.9975216   0.64734617  1070540 
 1593000   0.90205176   -1.9969721   -1.9969721   -1.3505411  0.034771438   -1.9969721   0.64643097  1070540 
 1594000   0.90022323   -1.9968485   -1.9968485   -1.3517279  0.029254727   -1.9968485    0.6451206  1070540 
 1595000   0.89943578   -1.9968091   -1.9968091   -1.3522528  0.028064599   -1.9968091    0.6445563  1070540 
 1596000   0.89961427   -1.9971654   -1.9971654   -1.3524812   0.02887335   -1.9971654    0.6446842  1070540 
 1597000   0.89933821   -1.9970157   -1.9970157   -1.3525293  0.031954875   -1.9970157   0.64448638  1070540 
 1598000   0.89979852   -1.9972853   -1.9972853    -1.352469  0.021708694   -1.9972853   0.64481624  1070540 
 1599000      0.89948   -1.9966688   -1.9966688   -1.3520808  0.034252019   -1.9966688   0.64458799  1070540 
 1600000   0.90086278   -1.9972035   -1.9972035   -1.3516246  0.032455982   -1.9972035   0.64557892  1070540 
 1601000   0.90037678   -1.9965414   -1.9965414   -1.3513107   0.03133785   -1.9965414   0.64523064  1070540 
 1602000   0.90049536    -1.996582    -1.996582   -1.3512664  0.032263675    -1.996582   0.64531562  1070540 
 1603000   0.90087576   -1.9972093   -1.9972093   -1.3516211   0.02417097   -1.9972093   0.64558821  1070540 
 1604000   0.89952855   -1.9970265   -1.9970265   -1.3524037  0.028002343   -1.9970265   0.64462278  1070540 
 1605000   0.89926767   -1.9977837   -1.9977837   -1.3533478  0.021993452   -1.9977837   0.64443582  1070540 
 1606000    0.8988616   -1.9978645   -1.9978645   -1.3537197  0.023401443   -1.9978645   0.64414482  1070540 
 1607000   0.89957371   -1.9983594   -1.9983594   -1.3537043  0.020080939   -1.9983594   0.64465514  1070540 
 1608000   0.89940967   -1.9978005   -1.9978005    -1.353263  0.029292347   -1.9978005   0.64453759  1070540 
 1609000   0.90069639   -1.9981002   -1.9981002   -1.3526406  0.028598809   -1.9981002   0.64545968  1070540 
 1610000   0.90001487   -1.9971193   -1.9971193    -1.352148  0.035100052   -1.9971193   0.64497129  1070540 
 1611000   0.90047597   -1.9974753   -1.9974753   -1.3521735   0.03332821   -1.9974753   0.64530172  1070540 
 1612000   0.90154539   -1.9985334   -1.9985334   -1.3524653  0.030574203   -1.9985334   0.64606809  1070540 
 1613000   0.89941454   -1.9983542   -1.9983542   -1.3538132  0.033856117   -1.9983542   0.64454108  1070540 
 1614000   0.89900563   -1.9991975   -1.9991975   -1.3549494  0.023356748   -1.9991975   0.64424804  1070540 
 1615000   0.89934117   -1.9994318   -1.9994318   -1.3549433  0.028251715   -1.9994318   0.64448849  1070540 
 1616000   0.89921079   -1.9992498   -1.9992498   -1.3548547  0.037648322   -1.9992498   0.64439506  1070540 
 1617000   0.90008933   -1.9994184   -1.9994184   -1.3543937  0.033176725   -1.9994184   0.64502464  1070540 
 1618000   0.89871505   -1.9980324   -1.9980324   -1.3539926  0.039297637   -1.9980324   0.64403981  1070540 
 1619000    0.8996858   -1.9980641   -1.9980641   -1.3533286  0.036798118   -1.9980641   0.64473546  1070540 
 1620000   0.90013925   -1.9976907   -1.9976907   -1.3526303  0.036276023   -1.9976907   0.64506042  1070540 
 1621000   0.90018352   -1.9974306   -1.9974306   -1.3523385   0.03918647   -1.9974306   0.64509214  1070540 
 1622000   0.90022578   -1.9974235   -1.9974235    -1.352301  0.036883342   -1.9974235   0.64512243  1070540 
 1623000   0.90067976   -1.9979856   -1.9979856   -1.3525378  0.032692152   -1.9979856   0.64544776  1070540 
 1624000   0.89976006   -1.9980817   -1.9980817    -1.353293  0.029959014   -1.9980817   0.64478868  1070540 
 1625000    0.8990835   -1.9985716   -1.9985716   -1.3542678  0.034967671   -1.9985716   0.64430384  1070540 
 1626000   0.89847299   -1.9986975   -1.9986975   -1.3548311  0.025382562   -1.9986975   0.64386634  1070540 
 1627000   0.89924348   -1.9992396   -1.9992396   -1.3548211  0.021420654   -1.9992396   0.64441849  1070540 
 1628000   0.89988381   -1.9992925   -1.9992925   -1.3544152  0.025565962   -1.9992925   0.64487736  1070540 
 1629000   0.89998931     -1.99885     -1.99885   -1.3538971  0.025214327     -1.99885   0.64495297  1070540 
 1630000   0.89949086   -1.9983007   -1.9983007   -1.3537049  0.042142712   -1.9983007   0.64459576  1070540 
 1631000   0.90064696   -1.9992313   -1.9992313    -1.353807  0.029970724   -1.9992313   0.64542425  1070540 
 1632000   0.89900365   -1.9981415   -1.9981415   -1.3538949    0.0343326   -1.9981415   0.64424662  1070540 
 1633000   0.89845288   -1.9978445   -1.9978445   -1.3539926  0.028443849   -1.9978445   0.64385192  1070540 
 1634000   0.90035166   -1.9989402   -1.9989402   -1.3537276  0.032090297   -1.9989402   0.64521263  1070540 
 1635000   0.90164644   -1.9997352   -1.9997352   -1.3535947  0.030924879   -1.9997352    0.6461405  1070540 
 1636000   0.90017402   -1.9988674   -1.9988674   -1.3537821  0.043664026   -1.9988674   0.64508534  1070540 
 1637000    0.8996746   -1.9995397   -1.9995397   -1.3548123  0.028376424   -1.9995397   0.64472744  1070540 
 1638000   0.89892426   -1.9998383   -1.9998383   -1.3556485  0.032189526   -1.9998383   0.64418973  1070540 
 1639000   0.89826674   -1.9995708   -1.9995708   -1.3558523  0.039046733   -1.9995708   0.64371854  1070540 
 1640000   0.89813435   -1.9991753   -1.9991753   -1.3555516  0.035554031   -1.9991753   0.64362366  1070540 
 1641000   0.89967663   -1.9997217   -1.9997217   -1.3549928  0.038952229   -1.9997217    0.6447289  1070540 
 1642000   0.90066232   -1.9997005   -1.9997005   -1.3542653  0.034839281   -1.9997005   0.64543526  1070540 
 1643000   0.90029426   -1.9990486   -1.9990486   -1.3538771  0.029452333   -1.9990486    0.6451715  1070540 
 1644000   0.90064851   -1.9991279   -1.9991279   -1.3537025  0.038141383   -1.9991279   0.64542537  1070540 
 1645000   0.90123193   -1.9996226   -1.9996226   -1.3537791  0.029622298   -1.9996226   0.64584345  1070540 
 1646000   0.90010333   -1.9989057   -1.9989057    -1.353871  0.038164827   -1.9989057   0.64503467  1070540 
 1647000   0.90065704   -1.9994266   -1.9994266   -1.3539952  0.036280503   -1.9994266   0.64543148  1070540 
 1648000   0.89981959    -1.998838    -1.998838   -1.3540067  0.026493894    -1.998838   0.64483134  1070540 
 1649000   0.89964706   -1.9986122   -1.9986122   -1.3539045  0.034106913   -1.9986122    0.6447077  1070540 
 1650000   0.89948312   -1.9984577   -1.9984577   -1.3538675  0.033208561   -1.9984577   0.64459022  1070540 
 1651000   0.90105593   -1.9994281   -1.9994281   -1.3537108  0.025535901   -1.9994281   0.64571733  1070540 
 1652000   0.89962498   -1.9982439   -1.9982439    -1.353552  0.030394724   -1.9982439   0.64469188  1070540 
 1653000   0.90090205   -1.9990516   -1.9990516   -1.3534446  0.030567253   -1.9990516   0.64560706  1070540 
 1654000   0.89977583   -1.9981869   -1.9981869   -1.3533869  0.026669101   -1.9981869   0.64479998  1070540 
 1655000   0.90052791   -1.9988332   -1.9988332   -1.3534943  0.029725213   -1.9988332   0.64533894  1070540 
 1656000   0.89994975   -1.9986902   -1.9986902   -1.3537656  0.026088642   -1.9986902   0.64492462  1070540 
 1657000   0.90062231   -1.9994466   -1.9994466     -1.35404  0.031623787   -1.9994466   0.64540659  1070540 
 1658000   0.90045788   -1.9998734   -1.9998734   -1.3545847    0.0287841   -1.9998734   0.64528876  1070540 
 1659000   0.89918854   -1.9995208   -1.9995208   -1.3551416  0.034161524   -1.9995208   0.64437911  1070540 
 1660000   0.90001174   -2.0005967   -2.0005967   -1.3556277  0.031436845   -2.0005967   0.64496904  1070540 
 1661000   0.89941969   -2.0002861   -2.0002861   -1.3557413  0.032809798   -2.0002861   0.64454476  1070540 
 1662000   0.89951899   -2.0004143   -2.0004143   -1.3557984  0.025459176   -2.0004143   0.64461593  1070540 
 1663000   0.89983912   -2.0005015   -2.0005015   -1.3556562  0.027622774   -2.0005015   0.64484534  1070540 
 1664000   0.90087427   -2.0004043   -2.0004043   -1.3548172  0.032749905   -2.0004043   0.64558715  1070540 
 1665000   0.89998757   -1.9988944   -1.9988944   -1.3539427  0.031479978   -1.9988944   0.64495172  1070540 
 1666000   0.90141601   -1.9993117   -1.9993117   -1.3533363  0.040888803   -1.9993117   0.64597537  1070540 
 1667000   0.90126714   -1.9992157   -1.9992157    -1.353347  0.032690812   -1.9992157   0.64586869  1070540 
 1668000   0.90106636   -1.9995069   -1.9995069   -1.3537821  0.037086229   -1.9995069   0.64572481  1070540 
 1669000   0.90174498   -2.0008379   -2.0008379   -1.3546267  0.034455136   -2.0008379   0.64621112  1070540 
 1670000   0.89965073   -1.9999856   -1.9999856   -1.3552753  0.031320007   -1.9999856   0.64471033  1070540 
 1671000   0.89976739   -2.0001901   -2.0001901   -1.3553962  0.030576999   -2.0001901   0.64479393  1070540 
 1672000   0.89868915      -1.9994      -1.9994   -1.3553788  0.031971669      -1.9994   0.64402124  1070540 
 1673000   0.89847723   -1.9988104   -1.9988104    -1.354941  0.032628787   -1.9988104   0.64386937  1070540 
 1674000    0.9018099   -2.0004811   -2.0004811   -1.3542235  0.031193896   -2.0004811   0.64625764  1070540 
 1675000    0.9010534    -1.999344    -1.999344   -1.3536285  0.031019113    -1.999344   0.64571552  1070540 
 1676000   0.90105728   -1.9990759   -1.9990759   -1.3533576  0.029942786   -1.9990759    0.6457183  1070540 
 1677000    0.9005678   -1.9986146   -1.9986146   -1.3532471  0.037419374   -1.9986146   0.64536752  1070540 
 1678000   0.90039182   -1.9985745   -1.9985745   -1.3533331  0.033803757   -1.9985745   0.64524141  1070540 
 1679000    0.9002204    -1.998815    -1.998815   -1.3536965  0.033080492    -1.998815   0.64511857  1070540 
 1680000   0.90019659   -1.9997807   -1.9997807   -1.3546792  0.024317187   -1.9997807   0.64510151  1070540 
 1681000   0.89769648   -1.9990123   -1.9990123   -1.3557024  0.026254828   -1.9990123   0.64330987  1070540 
 1682000   0.89775876   -1.9991436   -1.9991436   -1.3557891  0.023931996   -1.9991436   0.64335451  1070540 
 1683000   0.89750117   -1.9979243   -1.9979243   -1.3547544   0.02823284   -1.9979243   0.64316991  1070540 
 1684000   0.89939356   -1.9984583   -1.9984583   -1.3539323  0.032610236   -1.9984583   0.64452604  1070540 
 1685000    0.8984565     -1.99713     -1.99713   -1.3532755   0.03046897     -1.99713   0.64385452  1070540 
 1686000   0.90018174   -1.9979749   -1.9979749   -1.3528841  0.031793799   -1.9979749   0.64509086  1070540 
 1687000   0.90042808   -1.9977356   -1.9977356   -1.3524682  0.026315658   -1.9977356    0.6452674  1070540 
 1688000   0.90103201   -1.9978529   -1.9978529   -1.3521527  0.027410003   -1.9978529   0.64570019  1070540 
 1689000   0.90024596   -1.9970838   -1.9970838   -1.3519469   0.03529294   -1.9970838   0.64513688  1070540 
 1690000   0.90044191     -1.99728     -1.99728   -1.3520027  0.033450958     -1.99728   0.64527731  1070540 
 1691000   0.90070248   -1.9976261   -1.9976261    -1.352162  0.032435886   -1.9976261   0.64546404  1070540 
 1692000   0.90125793   -1.9989478   -1.9989478   -1.3530857  0.032864695   -1.9989478   0.64586209  1070540 
 1693000    0.8995856    -1.998754    -1.998754   -1.3540903  0.024265292    -1.998754   0.64466366  1070540 
 1694000   0.89964845   -1.9991512   -1.9991512   -1.3544425  0.030453268   -1.9991512    0.6447087  1070540 
 1695000   0.89950802   -1.9991658   -1.9991658   -1.3545577  0.028405905   -1.9991658   0.64460806  1070540 
 1696000    0.8998393   -1.9992004   -1.9992004   -1.3543549   0.02771515   -1.9992004   0.64484547  1070540 
 1697000   0.90013164   -1.9989629   -1.9989629   -1.3539079  0.029315412   -1.9989629   0.64505496  1070540 
 1698000   0.90051385    -1.998816    -1.998816   -1.3534872  0.029707994    -1.998816   0.64532887  1070540 
 1699000   0.90142962   -1.9991995   -1.9991995   -1.3532143  0.032854726   -1.9991995   0.64598513  1070540 
 1700000   0.90090222   -1.9987357   -1.9987357   -1.3531285  0.030342344   -1.9987357   0.64560718  1070540 
 1701000   0.90135226   -1.9993977   -1.9993977    -1.353468  0.032706313   -1.9993977   0.64592969  1070540 
 1702000    0.9008101   -2.0000618   -2.0000618   -1.3545206  0.044452638   -2.0000618   0.64554116  1070540 
 1703000   0.90072909   -2.0010578   -2.0010578   -1.3555747  0.023218229   -2.0010578   0.64548311  1070540 
 1704000   0.89842723   -1.9999527   -1.9999527   -1.3561191  0.032861873   -1.9999527   0.64383354  1070540 
 1705000   0.89995607   -2.0010927   -2.0010927   -1.3561636  0.031378662   -2.0010927   0.64492915  1070540 
 1706000   0.89842255   -1.9997538   -1.9997538   -1.3559236  0.031864294   -1.9997538   0.64383019  1070540 
 1707000   0.89990225   -2.0001243   -2.0001243   -1.3552337  0.044567116   -2.0001243   0.64489058  1070540 
 1708000   0.90056801   -1.9999418   -1.9999418   -1.3545741  0.033059633   -1.9999418   0.64536768  1070540 
 1709000   0.90021602   -1.9992496   -1.9992496   -1.3541341  0.030064967   -1.9992496   0.64511543  1070540 
 1710000    0.8994542   -1.9983779   -1.9983779   -1.3538084  0.036491939   -1.9983779    0.6445695  1070540 
 1711000   0.89954645   -1.9983127   -1.9983127   -1.3536771   0.02787595   -1.9983127    0.6446356  1070540 
 1712000   0.90022436   -1.9983771   -1.9983771   -1.3532557   0.03368487   -1.9983771   0.64512141  1070540 
 1713000   0.90036148   -1.9975611   -1.9975611   -1.3523414   0.03484253   -1.9975611   0.64521967  1070540 
 1714000   0.90231987   -1.9976884   -1.9976884   -1.3510653  0.037520722   -1.9976884    0.6466231  1070540 
 1715000   0.90128251   -1.9967623   -1.9967623   -1.3508826  0.030637206   -1.9967623    0.6458797  1070540 
 1716000   0.90070405   -1.9966027   -1.9966027   -1.3511375  0.031336018   -1.9966027   0.64546517  1070540 
 1717000   0.89989191   -1.9965465   -1.9965465   -1.3516633  0.020384452   -1.9965465   0.64488316  1070540 
 1718000   0.89966052   -1.9966665   -1.9966665   -1.3519491  0.022963588   -1.9966665   0.64471734  1070540 
 1719000    0.9002045    -1.997142    -1.997142   -1.3520348  0.021441466    -1.997142   0.64510718  1070540 
 1720000    0.9002834   -1.9970269   -1.9970269   -1.3518632  0.023109388   -1.9970269   0.64516372  1070540 
 1721000   0.90161337   -1.9972006   -1.9972006   -1.3510838  0.024272618   -1.9972006    0.6461168  1070540 
 1722000   0.90096975   -1.9954484   -1.9954484   -1.3497929    0.0321282   -1.9954484   0.64565557  1070540 
 1723000   0.90238003   -1.9958228   -1.9958228   -1.3491566  0.031937172   -1.9958228   0.64666621  1070540 
 1724000   0.90069338   -1.9949239   -1.9949239   -1.3494663  0.031063731   -1.9949239   0.64545752  1070540 
 1725000   0.90189277   -1.9962684   -1.9962684   -1.3499513  0.020477974   -1.9962684   0.64631703  1070540 
 1726000   0.89973102   -1.9953704   -1.9953704   -1.3506025  0.027354553   -1.9953704   0.64476787  1070540 
 1727000   0.90096217   -1.9968439   -1.9968439   -1.3511938  0.028505258   -1.9968439   0.64565014  1070540 
 1728000   0.90032328   -1.9969567   -1.9969567   -1.3517644  0.026344109   -1.9969567    0.6451923  1070540 
 1729000   0.90048241   -1.9975343   -1.9975343    -1.352228  0.031954757   -1.9975343   0.64530634  1070540 
 1730000   0.89984028   -1.9974016   -1.9974016   -1.3525555  0.029656957   -1.9974016   0.64484617  1070540 
 1731000   0.89845448   -1.9964966   -1.9964966   -1.3526435  0.029483562   -1.9964966   0.64385307  1070540 
 1732000   0.89968027   -1.9972636   -1.9972636   -1.3525321  0.038571924   -1.9972636    0.6447315  1070540 
 1733000   0.89997585   -1.9973719   -1.9973719   -1.3524285  0.036322365   -1.9973719   0.64494332  1070540 
 1734000   0.89941263   -1.9970474   -1.9970474   -1.3525077  0.037373998   -1.9970474   0.64453971  1070540 
 1735000   0.90084328    -1.998258    -1.998258   -1.3526931  0.031625236    -1.998258   0.64556494  1070540 
 1736000   0.90192738   -1.9998914   -1.9998914   -1.3535495  0.026808243   -1.9998914   0.64634183  1070540 
 1737000   0.90003301     -1.99966     -1.99966   -1.3546757    0.0273503     -1.99966   0.64498428  1070540 
 1738000   0.89848878   -1.9991055   -1.9991055   -1.3552279  0.029386175   -1.9991055   0.64387765  1070540 
 1739000    0.8998698    -2.000341    -2.000341   -1.3554736  0.029756331    -2.000341   0.64486733  1070540 
 1740000   0.89985226   -2.0004537   -2.0004537    -1.355599  0.040207424   -2.0004537   0.64485475  1070540 
 1741000    0.8992749   -1.9999381   -1.9999381   -1.3554971  0.032534577   -1.9999381     0.644441  1070540 
 1742000   0.89988097   -2.0000383   -2.0000383   -1.3551629  0.034822767   -2.0000383   0.64487533  1070540 
 1743000   0.89923173   -1.9992187   -1.9992187   -1.3548086  0.033323782   -1.9992187   0.64441007  1070540 
 1744000   0.90014951   -1.9991315   -1.9991315   -1.3540637  0.037660725   -1.9991315   0.64506777  1070540 
 1745000    0.9010789   -1.9994053   -1.9994053   -1.3536715  0.031292703   -1.9994053   0.64573379  1070540 
 1746000    0.9014569   -1.9994839   -1.9994839   -1.3534792  0.029855013   -1.9994839   0.64600467  1070540 
 1747000   0.89997731    -1.998536    -1.998536   -1.3535917  0.035594326    -1.998536   0.64494437  1070540 
 1748000   0.90030158   -1.9991946   -1.9991946   -1.3540179   0.03217439   -1.9991946   0.64517674  1070540 
 1749000   0.89873145   -1.9989065   -1.9989065    -1.354855   0.02992123   -1.9989065   0.64405156  1070540 
 1750000   0.89708254   -1.9981103   -1.9981103   -1.3552404  0.034395073   -1.9981103   0.64286991  1070540 
 1751000   0.89789926   -1.9986586   -1.9986586   -1.3552034  0.030281923   -1.9986586   0.64345519  1070540 
 1752000   0.89906879   -1.9988663   -1.9988663    -1.354573  0.033492407   -1.9988663    0.6442933  1070540 
 1753000   0.90032634   -1.9987687   -1.9987687   -1.3535742  0.025054202   -1.9987687   0.64519449  1070540 
 1754000   0.90114722   -1.9987624   -1.9987624   -1.3529796  0.030578309   -1.9987624   0.64578275  1070540 
 1755000   0.90005842   -1.9977634   -1.9977634   -1.3527609  0.035000282   -1.9977634   0.64500249  1070540 
 1756000   0.90040409   -1.9978937   -1.9978937   -1.3526435  0.029754459   -1.9978937   0.64525021  1070540 
 1757000   0.90137507   -1.9986858   -1.9986858   -1.3527398  0.026572243   -1.9986858   0.64594603  1070540 
 1758000   0.89995099   -1.9974692   -1.9974692   -1.3525437  0.034595064   -1.9974692   0.64492551  1070540 
 1759000   0.89937127   -1.9969919   -1.9969919   -1.3524819  0.034812803   -1.9969919   0.64451007  1070540 
 1760000   0.90053949   -1.9977799   -1.9977799   -1.3524326  0.029716978   -1.9977799   0.64534724  1070540 
 1761000   0.90055161    -1.997716    -1.997716   -1.3523601  0.026916379    -1.997716   0.64535592  1070540 
 1762000   0.90096994    -1.998202    -1.998202   -1.3525463  0.034108504    -1.998202   0.64565571  1070540 
 1763000   0.89961216   -1.9973336   -1.9973336   -1.3526509   0.03186375   -1.9973336   0.64468269  1070540 
 1764000    0.8984462   -1.9969464   -1.9969464   -1.3530992  0.030323683   -1.9969464   0.64384714  1070540 
 1765000   0.89836014   -1.9969861   -1.9969861   -1.3532007  0.033455285   -1.9969861   0.64378547  1070540 
 1766000    0.9009074   -1.9989101   -1.9989101   -1.3532992  0.025554379   -1.9989101   0.64561089  1070540 
 1767000   0.89928244   -1.9975138   -1.9975138   -1.3530674  0.027345451   -1.9975138    0.6444464  1070540 
 1768000    0.8987343   -1.9966998   -1.9966998   -1.3526462  0.034670074   -1.9966998    0.6440536  1070540 
 1769000   0.90118335   -1.9976605   -1.9976605   -1.3518519  0.037234002   -1.9976605   0.64580864  1070540 
 1770000   0.90170081   -1.9974801   -1.9974801   -1.3513007  0.032697208   -1.9974801   0.64617946  1070540 
 1771000   0.90152324   -1.9973221   -1.9973221   -1.3512698  0.033694194   -1.9973221   0.64605222  1070540 
 1772000   0.90019772   -1.9970509   -1.9970509   -1.3519486  0.027293709   -1.9970509   0.64510232  1070540 
 1773000    0.8992732    -1.997494    -1.997494   -1.3530543   0.02700422    -1.997494   0.64443978  1070540 
 1774000   0.89984337      -1.9985      -1.9985   -1.3536517  0.030703117      -1.9985   0.64484838  1070540 
 1775000   0.89985888   -1.9987028   -1.9987028   -1.3538433  0.026972149   -1.9987028    0.6448595  1070540 
 1776000   0.89976144   -1.9987083   -1.9987083   -1.3539186  0.028922198   -1.9987083   0.64478967  1070540 
 1777000   0.89905234   -1.9982931   -1.9982931   -1.3540116  0.031927263   -1.9982931   0.64428151  1070540 
 1778000   0.90047254   -1.9990937   -1.9990937   -1.3537945  0.034310396   -1.9990937   0.64529926  1070540 
 1779000   0.90039179   -1.9987097   -1.9987097   -1.3534683  0.025678764   -1.9987097   0.64524139  1070540 
 1780000   0.90150124   -1.9988755   -1.9988755    -1.352839  0.025847739   -1.9988755   0.64603645  1070540 
 1781000   0.90243043   -1.9991018   -1.9991018   -1.3523995  0.033337455   -1.9991018   0.64670233  1070540 
 1782000   0.90063878   -1.9976846   -1.9976846   -1.3522662  0.034119738   -1.9976846   0.64541839  1070540 
 1783000   0.90205707   -1.9995318   -1.9995318    -1.353097  0.023729972   -1.9995318   0.64643477  1070540 
 1784000   0.89845454   -1.9980906   -1.9980906   -1.3542375  0.030363105   -1.9980906   0.64385312  1070540 
 1785000   0.89943256   -1.9993172   -1.9993172   -1.3547632  0.026394277   -1.9993172   0.64455399  1070540 
 1786000   0.89963575   -1.9994718   -1.9994718   -1.3547722  0.033592814   -1.9994718    0.6446996  1070540 
 1787000   0.89867828   -1.9984319   -1.9984319   -1.3544184  0.031152056   -1.9984319   0.64401345  1070540 
 1788000   0.89967538   -1.9984354   -1.9984354   -1.3537074  0.028414995   -1.9984354   0.64472799  1070540 
 1789000   0.90036839    -1.998395    -1.998395   -1.3531703  0.031219067    -1.998395   0.64522462  1070540 
 1790000    0.8996355   -1.9975218   -1.9975218   -1.3528224  0.029856596   -1.9975218   0.64469942  1070540 
 1791000   0.90146554   -1.9987618   -1.9987618   -1.3527509  0.029299007   -1.9987618   0.64601087  1070540 
 1792000   0.90136642   -1.9989171   -1.9989171   -1.3529772  0.024698258   -1.9989171   0.64593984  1070540 
 1793000     0.900478   -1.9984781   -1.9984781    -1.353175   0.03135201   -1.9984781   0.64530317  1070540 
 1794000    0.9004785   -1.9986989   -1.9986989   -1.3533954  0.022798267   -1.9986989   0.64530353  1070540 
 1795000   0.90042533   -1.9987696   -1.9987696   -1.3535041  0.025468397   -1.9987696   0.64526543  1070540 
 1796000   0.89874417   -1.9975765   -1.9975765   -1.3535158  0.037007939   -1.9975765   0.64406067  1070540 
 1797000   0.89904658   -1.9975394   -1.9975394   -1.3532621  0.031296856   -1.9975394   0.64427739  1070540 
 1798000   0.90088296   -1.9986023   -1.9986023    -1.353009   0.02810426   -1.9986023   0.64559338  1070540 
 1799000   0.89944037   -1.9974188   -1.9974188   -1.3528592  0.030577572   -1.9974188   0.64455958  1070540 
 1800000   0.89982725   -1.9973119   -1.9973119   -1.3524751  0.032574761   -1.9973119   0.64483683  1070540 
 1801000   0.90118229   -1.9980844   -1.9980844   -1.3522765  0.030873327   -1.9980844   0.64580788  1070540 
 1802000   0.90163128    -1.998134    -1.998134   -1.3520043  0.027266704    -1.998134   0.64612964  1070540 
 1803000    0.9011588   -1.9976578   -1.9976578   -1.3518668  0.035810782   -1.9976578   0.64579105  1070540 
 1804000   0.90073212    -1.997816    -1.997816   -1.3523307  0.034946091    -1.997816   0.64548528  1070540 
 1805000   0.89986337   -1.9983033   -1.9983033   -1.3534406  0.023372887   -1.9983033   0.64486272  1070540 
 1806000   0.89786323   -1.9973193   -1.9973193   -1.3538899  0.026270913   -1.9973193   0.64342937  1070540 
 1807000   0.89929162    -1.998393    -1.998393     -1.35394     0.019117    -1.998393   0.64445299  1070540 
 1808000   0.89863697   -1.9974004   -1.9974004   -1.3534165  0.030500549   -1.9974004   0.64398385  1070540 
 1809000   0.90009692   -1.9975692   -1.9975692   -1.3525391  0.030564933   -1.9975692   0.64503008  1070540 
 1810000   0.90042526   -1.9971975   -1.9971975   -1.3519321  0.026060328   -1.9971975   0.64526537  1070540 
 1811000   0.89959515   -1.9964191   -1.9964191   -1.3517486  0.033043893   -1.9964191    0.6446705  1070540 
 1812000   0.90085292   -1.9973334   -1.9973334   -1.3517616  0.040054247   -1.9973334   0.64557185  1070540 
 1813000   0.90125946   -1.9980879   -1.9980879   -1.3522247  0.034195883   -1.9980879   0.64586318  1070540 
 1814000   0.90078838   -1.9981725   -1.9981725   -1.3526469  0.026335244   -1.9981725    0.6455256  1070540 
 1815000   0.89965573    -1.997695    -1.997695   -1.3529811  0.025278519    -1.997695   0.64471392  1070540 
 1816000   0.89902276   -1.9973467   -1.9973467   -1.3530864   0.02909652   -1.9973467   0.64426032  1070540 
 1817000   0.90043365   -1.9982488   -1.9982488   -1.3529774  0.028777885   -1.9982488   0.64527139  1070540 
 1818000   0.89955767    -1.997565    -1.997565   -1.3529213   0.02831326    -1.997565   0.64464364  1070540 
 1819000    0.8999743   -1.9971119   -1.9971119   -1.3521697  0.035842104   -1.9971119   0.64494221  1070540 
 1820000   0.90239391   -1.9974673   -1.9974673   -1.3507911  0.031554619   -1.9974673   0.64667616  1070540 
 1821000   0.90219731    -1.996778    -1.996778   -1.3502427  0.033878754    -1.996778   0.64653527  1070540 
 1822000   0.90141293   -1.9963351   -1.9963351   -1.3503619  0.039941845   -1.9963351   0.64597317  1070540 
 1823000   0.90257043   -1.9978767   -1.9978767    -1.351074  0.037347893   -1.9978767   0.64680266  1070540 
 1824000   0.90043123   -1.9974206   -1.9974206    -1.352151  0.033709262   -1.9974206   0.64526966  1070540 
 1825000    0.8998874   -1.9975676   -1.9975676   -1.3526877  0.032010213   -1.9975676   0.64487993  1070540 
 1826000   0.90056005   -1.9982895   -1.9982895   -1.3529275  0.029788372   -1.9982895   0.64536197  1070540 
 1827000   0.89986979   -1.9980025   -1.9980025   -1.3531352  0.021311762   -1.9980025   0.64486732  1070540 
 1828000   0.89922101    -1.997205    -1.997205   -1.3528026  0.028322947    -1.997205   0.64440238  1070540 
 1829000   0.90017483   -1.9974124   -1.9974124   -1.3523265  0.030103064   -1.9974124   0.64508591  1070540 
 1830000   0.90124987   -1.9975004   -1.9975004    -1.351644   0.03163661   -1.9975004   0.64585631  1070540 
 1831000   0.90185452    -1.997363    -1.997363   -1.3510734  0.029156648    -1.997363   0.64628962  1070540 
 1832000   0.90047912   -1.9963145   -1.9963145   -1.3510105  0.043110795   -1.9963145   0.64530397  1070540 
 1833000   0.90168207   -1.9974888   -1.9974888   -1.3513227  0.025604696   -1.9974888   0.64616604  1070540 
 1834000   0.89899425   -1.9970239   -1.9970239    -1.352784  0.030912833   -1.9970239   0.64423988  1070540 
 1835000   0.90019442   -1.9988841   -1.9988841   -1.3537841   0.03231988   -1.9988841   0.64509995  1070540 
 1836000    0.8997552   -1.9988495   -1.9988495   -1.3540643  0.030823612   -1.9988495    0.6447852  1070540 
 1837000   0.89893513   -1.9981677   -1.9981677   -1.3539702  0.025495895   -1.9981677   0.64419752  1070540 
 1838000   0.90055116   -1.9986076   -1.9986076    -1.353252  0.028654136   -1.9986076    0.6453556  1070540 
 1839000   0.90094141   -1.9982595   -1.9982595   -1.3526242  0.022622231   -1.9982595   0.64563526  1070540 
 1840000   0.90122536   -1.9980257   -1.9980257    -1.352187  0.034703523   -1.9980257   0.64583875  1070540 
 1841000   0.90128842   -1.9979772   -1.9979772   -1.3520932  0.029509459   -1.9979772   0.64588394  1070540 
 1842000   0.90180314    -1.998752    -1.998752   -1.3524992  0.026055717    -1.998752    0.6462528  1070540 
 1843000   0.90025062   -1.9986467   -1.9986467   -1.3535065  0.037356988   -1.9986467   0.64514023  1070540 
 1844000   0.89949031   -1.9990514   -1.9990514    -1.354456  0.034093013   -1.9990514   0.64459537  1070540 
 1845000   0.89758738   -1.9979076   -1.9979076   -1.3546759   0.03166295   -1.9979076   0.64323169  1070540 
 1846000   0.89838594   -1.9981242   -1.9981242   -1.3543202  0.033915871   -1.9981242   0.64380396  1070540 
 1847000   0.89972151   -1.9986946   -1.9986946   -1.3539336  0.037342293   -1.9986946   0.64476106  1070540 
 1848000   0.90126083    -1.999636    -1.999636   -1.3537718  0.042728672    -1.999636   0.64586417  1070540 
 1849000   0.90020997   -1.9990797   -1.9990797   -1.3539686  0.031538732   -1.9990797   0.64511109  1070540 
 1850000   0.89916292   -1.9987635   -1.9987635   -1.3544028  0.031865333   -1.9987635   0.64436076  1070540 
 1851000   0.89812483   -1.9986593   -1.9986593   -1.3550425  0.037169147   -1.9986593   0.64361684  1070540 
 1852000   0.89774996   -1.9989036   -1.9989036   -1.3555554  0.027764826   -1.9989036    0.6433482  1070540 
 1853000    0.8987434   -1.9993678   -1.9993678   -1.3553077  0.032445355   -1.9993678   0.64406012  1070540 
 1854000   0.90004758   -1.9991713   -1.9991713   -1.3541765  0.038720431   -1.9991713   0.64499473  1070540 
 1855000   0.90202827   -1.9996586   -1.9996586   -1.3532444   0.03828926   -1.9996586   0.64641413  1070540 
 1856000   0.90290774    -2.000081    -2.000081   -1.3530366   0.03764767    -2.000081   0.64704438  1070540 
 1857000   0.90064762   -1.9987125   -1.9987125   -1.3532878  0.036336217   -1.9987125   0.64542472  1070540 
 1858000   0.89945089   -1.9984607   -1.9984607   -1.3538936  0.035005677   -1.9984607   0.64456712  1070540 
 1859000   0.90024044   -1.9990998   -1.9990998   -1.3539668  0.028782539   -1.9990998   0.64513293  1070540 
 1860000   0.90137719   -2.0000028   -2.0000028   -1.3540552  0.022557541   -2.0000028   0.64594756  1070540 
 1861000   0.89845627   -1.9979754   -1.9979754   -1.3541211  0.033539829   -1.9979754   0.64385435  1070540 
 1862000     0.898984   -1.9976965   -1.9976965    -1.353464  0.026116454   -1.9976965   0.64423254  1070540 
 1863000   0.90131302   -1.9980148   -1.9980148   -1.3521133  0.029545121   -1.9980148   0.64590157  1070540 
 1864000   0.90100579    -1.997023    -1.997023   -1.3513416  0.022137631    -1.997023    0.6456814  1070540 
 1865000   0.90089665   -1.9966998   -1.9966998   -1.3510966  0.030850127   -1.9966998   0.64560319  1070540 
 1866000   0.89915882    -1.995431    -1.995431   -1.3510732  0.031407591    -1.995431   0.64435782  1070540 
 1867000   0.89973215   -1.9960086   -1.9960086   -1.3512399  0.020228857   -1.9960086   0.64476868  1070540 
 1868000   0.90066166   -1.9967529   -1.9967529   -1.3513181   0.01972664   -1.9967529   0.64543479  1070540 
 1869000   0.89938544   -1.9958861   -1.9958861   -1.3513659  0.023625736   -1.9958861   0.64452022  1070540 
 1870000   0.89961027   -1.9963532   -1.9963532   -1.3516718  0.031727195   -1.9963532   0.64468133  1070540 
 1871000   0.89964123    -1.996626    -1.996626   -1.3519225  0.028240458    -1.996626   0.64470352  1070540 
 1872000   0.90075684   -1.9976209   -1.9976209   -1.3521179  0.027413984   -1.9976209     0.645503  1070540 
 1873000   0.89946241   -1.9968467   -1.9968467   -1.3522713  0.034436759   -1.9968467   0.64457538  1070540 
 1874000   0.90011679   -1.9971384   -1.9971384   -1.3520941  0.025726102   -1.9971384   0.64504433  1070540 
 1875000   0.89957759   -1.9968697   -1.9968697   -1.3522118   0.03544406   -1.9968697   0.64465792  1070540 
 1876000   0.89968083   -1.9969504   -1.9969504   -1.3522185  0.042106412   -1.9969504    0.6447319  1070540 
 1877000    0.9009857   -1.9980605   -1.9980605   -1.3523935  0.034527784   -1.9980605     0.645667  1070540 
 1878000   0.90051503   -1.9984725   -1.9984725   -1.3531428  0.032605588   -1.9984725   0.64532971  1070540 
 1879000   0.89955802   -1.9986205   -1.9986205   -1.3539766   0.02656997   -1.9986205   0.64464389  1070540 
 1880000   0.90048465   -1.9997476   -1.9997476   -1.3544397  0.027156923   -1.9997476   0.64530794  1070540 
 1881000   0.90009326   -1.9998828   -1.9998828   -1.3548553  0.030680498   -1.9998828   0.64502746  1070540 
 1882000   0.89854642   -1.9989948   -1.9989948   -1.3550758  0.032248798   -1.9989948   0.64391896  1070540 
 1883000   0.89871629   -1.9989676   -1.9989676   -1.3549269  0.036619825   -1.9989676   0.64404069  1070540 
 1884000   0.89991945   -1.9994295   -1.9994295   -1.3545266  0.032774732   -1.9994295    0.6449029  1070540 
 1885000   0.90047797   -1.9990082   -1.9990082   -1.3537051  0.045095969   -1.9990082   0.64530315  1070540 
 1886000   0.90167035   -1.9989004   -1.9989004   -1.3527428   0.04471668   -1.9989004   0.64615764  1070540 
 1887000   0.90146108   -1.9981118   -1.9981118   -1.3521041  0.035380141   -1.9981118   0.64600767  1070540 
 1888000   0.89942964   -1.9965485   -1.9965485   -1.3519966  0.039243706   -1.9965485    0.6445519  1070540 
 1889000   0.90049049   -1.9972279   -1.9972279   -1.3519158  0.031517229   -1.9972279   0.64531212  1070540 
 1890000   0.89969449    -1.996804    -1.996804   -1.3520624  0.025849643    -1.996804   0.64474169  1070540 
 1891000   0.90068113    -1.997442    -1.997442   -1.3519933  0.021146353    -1.997442   0.64544874  1070540 
 1892000   0.89981065   -1.9967534   -1.9967534   -1.3519284  0.027417487   -1.9967534   0.64482494  1070540 
 1893000   0.89974466   -1.9965109   -1.9965109   -1.3517333   0.02491519   -1.9965109   0.64477765  1070540 
 1894000   0.90038451   -1.9967893   -1.9967893   -1.3515531  0.021618895   -1.9967893   0.64523618  1070540 
 1895000   0.90037131    -1.996433    -1.996433   -1.3512062  0.031864837    -1.996433   0.64522671  1070540 
 1896000    0.8994911   -1.9956964   -1.9956964   -1.3511005  0.035535234   -1.9956964   0.64459594  1070540 
 1897000   0.89936896   -1.9950971   -1.9950971   -1.3505887    0.0285187   -1.9950971   0.64450841  1070540 
 1898000   0.89992361   -1.9949924   -1.9949924   -1.3500865  0.028505545   -1.9949924   0.64490588  1070540 
 1899000   0.90109761   -1.9954963   -1.9954963   -1.3497491  0.037524206   -1.9954963    0.6457472  1070540 
 1900000   0.90282531    -1.996947    -1.996947   -1.3499617  0.025235527    -1.996947   0.64698531  1070540 
 1901000   0.90081316   -1.9965167   -1.9965167   -1.3509733  0.038375607   -1.9965167   0.64554336  1070540 
 1902000   0.90078036   -1.9977543   -1.9977543   -1.3522344  0.031019994   -1.9977543   0.64551985  1070540 
 1903000   0.89855597    -1.996581    -1.996581   -1.3526552  0.029545411    -1.996581    0.6439258  1070540 
 1904000   0.90105371   -1.9983795   -1.9983795   -1.3526637  0.022088609   -1.9983795   0.64571574  1070540 
 1905000   0.90084129    -1.998168    -1.998168   -1.3526045   0.03100023    -1.998168   0.64556352  1070540 
 1906000   0.90004926   -1.9977062   -1.9977062   -1.3527103  0.032889609   -1.9977062   0.64499593  1070540 
 1907000    0.8999064   -1.9979082   -1.9979082   -1.3530146  0.037700891   -1.9979082   0.64489355  1070540 
 1908000   0.90036483   -1.9986664   -1.9986664   -1.3534443  0.026305136   -1.9986664   0.64522207  1070540 
 1909000   0.89931326   -1.9981798   -1.9981798   -1.3537113  0.025063878   -1.9981798   0.64446849  1070540 
 1910000   0.89970067   -1.9987092   -1.9987092   -1.3539631  0.033244635   -1.9987092   0.64474612  1070540 
 1911000   0.90005156   -1.9987621   -1.9987621   -1.3537645    0.0314965   -1.9987621   0.64499758  1070540 
 1912000   0.89994325   -1.9983292   -1.9983292   -1.3534093  0.039392053   -1.9983292   0.64491996  1070540 
 1913000   0.90247882   -1.9997727   -1.9997727   -1.3530357  0.031164426   -1.9997727   0.64673701  1070540 
 1914000   0.90106085   -1.9984797   -1.9984797   -1.3527589  0.032053127   -1.9984797   0.64572085  1070540 
 1915000   0.90081839   -1.9983969   -1.9983969   -1.3528498  0.032544274   -1.9983969    0.6455471  1070540 
 1916000    0.9000945   -1.9983782   -1.9983782   -1.3533499  0.030714819   -1.9983782   0.64502835  1070540 
 1917000   0.89841191    -1.998127    -1.998127   -1.3543045  0.032396641    -1.998127   0.64382256  1070540 
 1918000   0.89788153   -1.9982909   -1.9982909   -1.3548484  0.028576733   -1.9982909   0.64344249  1070540 
 1919000   0.89851002   -1.9984643   -1.9984643   -1.3545715  0.033465061   -1.9984643   0.64389287  1070540 
 1920000   0.89948153   -1.9984255   -1.9984255   -1.3538364   0.03236322   -1.9984255   0.64458908  1070540 
 1921000   0.89986968   -1.9979809   -1.9979809   -1.3531136   0.02939267   -1.9979809   0.64486724  1070540 
 1922000   0.90040159   -1.9978978   -1.9978978   -1.3526494  0.033997177   -1.9978978   0.64524842  1070540 
 1923000   0.90104701   -1.9984241   -1.9984241   -1.3527132  0.036432128   -1.9984241   0.64571094  1070540 
 1924000   0.90142768   -1.9989169   -1.9989169   -1.3529332  0.034700295   -1.9989169   0.64598374  1070540 
 1925000   0.89883292   -1.9976486   -1.9976486   -1.3535243  0.035365318   -1.9976486   0.64412427  1070540 
 1926000   0.89903511    -1.998485    -1.998485   -1.3542158   0.03545087    -1.998485   0.64426916  1070540 
 1927000   0.89957394   -1.9991284   -1.9991284   -1.3544731  0.029682844   -1.9991284    0.6446553  1070540 
 1928000    0.8996776   -1.9994484   -1.9994484   -1.3547188  0.036106969   -1.9994484   0.64472959  1070540 
 1929000   0.90014719   -1.9998152   -1.9998152   -1.3547491  0.035379112   -1.9998152    0.6450661  1070540 
 1930000   0.89962635   -1.9996177   -1.9996177   -1.3549249  0.037850979   -1.9996177   0.64469286  1070540 
 1931000   0.90134323   -2.0010389   -2.0010389   -1.3551157  0.027947421   -2.0010389   0.64592322  1070540 
 1932000   0.89919854    -1.999718    -1.999718   -1.3553317  0.030576125    -1.999718   0.64438628  1070540 
 1933000   0.89950769   -1.9998966   -1.9998966   -1.3552888  0.023512749   -1.9998966   0.64460783  1070540 
 1934000   0.89894869   -1.9988775   -1.9988775   -1.3546703  0.033448915   -1.9988775   0.64420724  1070540 
 1935000   0.89972155   -1.9986615   -1.9986615   -1.3539005  0.030054258   -1.9986615   0.64476109  1070540 
 1936000   0.90046043   -1.9985065   -1.9985065    -1.353216  0.040578202   -1.9985065   0.64529058  1070540 
 1937000   0.89960426   -1.9973386   -1.9973386   -1.3526615   0.02665656   -1.9973386   0.64467703  1070540 
 1938000   0.89968181   -1.9970333   -1.9970333   -1.3523007  0.036641979   -1.9970333    0.6447326  1070540 
 1939000   0.90042509   -1.9971091   -1.9971091   -1.3518439  0.034275983   -1.9971091   0.64526526  1070540 
 1940000   0.90057104   -1.9970479   -1.9970479   -1.3516781  0.032363661   -1.9970479   0.64536985  1070540 
 1941000   0.90022785   -1.9968464   -1.9968464   -1.3517225  0.029784792   -1.9968464   0.64512391  1070540 
 1942000   0.90040822   -1.9974544   -1.9974544   -1.3522013  0.031083239   -1.9974544   0.64525317  1070540 
 1943000   0.89857788     -1.99689     -1.99689   -1.3529485  0.021930318     -1.99689   0.64394151  1070540 
 1944000   0.89810204   -1.9970758   -1.9970758   -1.3534753  0.020962928   -1.9970758    0.6436005  1070540 
 1945000   0.89904516    -1.997839    -1.997839   -1.3535626  0.034579274    -1.997839   0.64427636  1070540 
 1946000   0.89888048   -1.9975003   -1.9975003   -1.3533419  0.026573706   -1.9975003   0.64415835  1070540 
 1947000   0.89985881   -1.9974593   -1.9974593   -1.3525998  0.032728093   -1.9974593   0.64485944  1070540 
 1948000    0.9005925   -1.9968627   -1.9968627   -1.3514775  0.030598812   -1.9968627   0.64538523  1070540 
 1949000   0.90183538   -1.9973652   -1.9973652   -1.3510893  0.036545293   -1.9973652    0.6462759  1070540 
 1950000   0.90068121   -1.9965983   -1.9965983   -1.3511495  0.036738211   -1.9965983    0.6454488  1070540 
 1951000   0.90133754   -1.9974571   -1.9974571    -1.351538  0.031500455   -1.9974571   0.64591914  1070540 
 1952000   0.90137123   -1.9978512   -1.9978512    -1.351908  0.027011512   -1.9978512   0.64594328  1070540 
 1953000   0.90098787   -1.9981206   -1.9981206    -1.352452  0.031986286   -1.9981206   0.64566856  1070540 
 1954000   0.90055652   -1.9982558   -1.9982558   -1.3528963  0.018658445   -1.9982558   0.64535944  1070540 
 1955000   0.90049468   -1.9986098   -1.9986098   -1.3532947  0.026286275   -1.9986098   0.64531512  1070540 
 1956000   0.90150262   -1.9995263   -1.9995263   -1.3534889  0.031534792   -1.9995263   0.64603744  1070540 
 1957000    0.8992022   -1.9982038   -1.9982038   -1.3538149  0.030696597   -1.9982038   0.64438891  1070540 
 1958000   0.89979774   -1.9989621   -1.9989621   -1.3541464  0.039352023   -1.9989621   0.64481568  1070540 
 1959000   0.90003945   -1.9994495   -1.9994495   -1.3544606  0.041756244   -1.9994495    0.6449889  1070540 
 1960000   0.89907452   -1.9989705   -1.9989705   -1.3546731  0.037654055   -1.9989705   0.64429741  1070540 
 1961000   0.89993072   -1.9998331   -1.9998331   -1.3549222  0.036804956   -1.9998331   0.64491098  1070540 
 1962000   0.89976672   -1.9997479   -1.9997479   -1.3549544  0.035307719   -1.9997479   0.64479345  1070540 
 1963000   0.89864914   -1.9989764   -1.9989764   -1.3549838  0.036542667   -1.9989764   0.64399257  1070540 
 1964000   0.90072174   -2.0000991   -2.0000991   -1.3546213  0.029361461   -2.0000991   0.64547785  1070540 
 1965000   0.90035926   -1.9989506   -1.9989506   -1.3537325  0.033877772   -1.9989506   0.64521808  1070540 
 1966000   0.90183167   -1.9995092   -1.9995092   -1.3532359  0.029892027   -1.9995092   0.64627324  1070540 
 1967000   0.90099392   -1.9988682   -1.9988682   -1.3531953  0.029207455   -1.9988682   0.64567289  1070540 
 1968000   0.90074369   -1.9986675   -1.9986675   -1.3531739  0.039726942   -1.9986675   0.64549357  1070540 
 1969000   0.90129602    -1.999272    -1.999272   -1.3533827  0.030326262    -1.999272   0.64588938  1070540 
 1970000   0.89877575   -1.9980542   -1.9980542   -1.3539709  0.032926739   -1.9980542    0.6440833  1070540 
 1971000   0.89965858   -1.9988969   -1.9988969   -1.3541809  0.032139768   -1.9988969   0.64471596  1070540 
 1972000   0.89889882    -1.998549    -1.998549   -1.3543775   0.02633065    -1.998549   0.64417149  1070540 
 1973000   0.89840021   -1.9979388   -1.9979388   -1.3541246  0.028820064   -1.9979388   0.64381418  1070540 
 1974000   0.90132093   -1.9989634   -1.9989634   -1.3530562  0.023912115   -1.9989634   0.64590723  1070540 
 1975000    0.9015829   -1.9982892   -1.9982892   -1.3521942  0.020773079   -1.9982892   0.64609497  1070540 
 1976000   0.90036553   -1.9971253   -1.9971253   -1.3519027  0.032278065   -1.9971253   0.64522258  1070540 
 1977000   0.89973806    -1.996811    -1.996811   -1.3520381  0.038391344    -1.996811   0.64477292  1070540 
 1978000   0.89941329   -1.9967018   -1.9967018   -1.3521616  0.030930193   -1.9967018   0.64454018  1070540 
 1979000   0.90044938   -1.9977473   -1.9977473   -1.3524646  0.036011974   -1.9977473   0.64528266  1070540 
 1980000    0.9001909   -1.9979903   -1.9979903   -1.3528929   0.02627573   -1.9979903   0.64509743  1070540 
 1981000   0.90019061   -1.9989382   -1.9989382   -1.3538409  0.029519228   -1.9989382   0.64509722  1070540 
 1982000   0.89900218   -1.9990519   -1.9990519   -1.3548063  0.030342997   -1.9990519   0.64424556  1070540 
 1983000   0.89949481   -1.9997139   -1.9997139   -1.3551153  0.021506352   -1.9997139    0.6445986  1070540 
 1984000   0.89856652   -1.9989536   -1.9989536   -1.3550202  0.029364891   -1.9989536   0.64393336  1070540 
 1985000   0.89909726   -1.9989416   -1.9989416   -1.3546279  0.033271074   -1.9989416    0.6443137  1070540 
 1986000   0.89948418    -1.998837    -1.998837   -1.3542461  0.036545988    -1.998837   0.64459098  1070540 
 1987000   0.90102462    -1.999762    -1.999762   -1.3540671  0.029657299    -1.999762    0.6456949  1070540 
 1988000   0.90091997   -1.9995023   -1.9995023   -1.3538824  0.041482279   -1.9995023    0.6456199  1070540 
 1989000   0.90069258   -1.9997729   -1.9997729   -1.3543159  0.036923026   -1.9997729   0.64545694  1070540 
 1990000   0.90018381   -1.9999383   -1.9999383    -1.354846  0.032183906   -1.9999383   0.64509235  1070540 
 1991000   0.89932592   -1.9998533   -1.9998533   -1.3553757  0.032428315   -1.9998533   0.64447757  1070540 
 1992000   0.90015122   -2.0006698   -2.0006698   -1.3556008  0.040624938   -2.0006698     0.645069  1070540 
 1993000   0.90045929    -2.000794    -2.000794   -1.3555042  0.030048324    -2.000794   0.64528977  1070540 
 1994000   0.90037173   -2.0007997   -2.0007997   -1.3555727  0.036426875   -2.0007997   0.64522702  1070540 
 1995000   0.90012683   -2.0004238   -2.0004238   -1.3553723  0.035886025   -2.0004238   0.64505151  1070540 
 1996000   0.89948789   -1.9996334   -1.9996334   -1.3550398  0.028766257   -1.9996334   0.64459364  1070540 
 1997000     0.899571   -1.9991286   -1.9991286   -1.3544754  0.035001871   -1.9991286   0.64465319  1070540 
 1998000   0.90129878   -1.9994889   -1.9994889   -1.3535975  0.042887718   -1.9994889   0.64589136  1070540 
 1999000   0.90085822    -1.998496    -1.998496   -1.3529204  0.028719449    -1.998496   0.64557565  1070540 
 2000000    0.9011694   -1.9982705   -1.9982705   -1.3524719  0.032791602   -1.9982705   0.64579864  1070540 
Loop time of 7836.82 on 240 procs for 2000000 steps with 1070540 atoms

Performance: 110248.759 tau/day, 255.205 timesteps/s
96.3% CPU use with 240 MPI tasks x 1 OpenMP threads

MPI task timing breakdown:
Section |  min time  |  avg time  |  max time  |%varavg|  %CPU | %total
-----------------------------------------------------------------------
Pair    | 1304.4     | 1711.6     | 2214.5     | 427.6 |  98.0 | 21.84
Bond    | 1.3804     | 1.5429     | 1.8763     |   7.5 | 100.0 |  0.02
Neigh   | 1098.8     | 1995.4     | 2430.5     | 511.4 |  99.5 | 25.46
Comm    | 2312.7     | 2943.3     | 4161.6     | 550.7 |  94.3 | 37.56
Output  | 67.995     | 68.127     | 68.138     |   0.1 |  89.4 |  0.87
Modify  | 798.23     | 1025.2     | 1556.8     | 528.6 |  94.4 | 13.08
Other   |            | 91.66      |            |       |       |  1.17

Nlocal:        4460.58 ave        5202 max        3892 min
Histogram: 5 6 22 69 66 49 16 2 3 2
Nghost:        10872.0 ave       13371 max        5188 min
Histogram: 5 11 14 12 1 6 18 74 80 19
Neighs:        77931.7 ave      118040 max       58700 min
Histogram: 13 35 60 62 41 17 8 3 0 1

Total # of neighbors = 18703611
Ave neighs/atom = 17.471193
Ave special neighs/atom = 0.0000000
Neighbor list builds = 200000
Dangerous builds = 198000

#real run at target temp with nve+langevin
unfix 	       2
fix 	       2 solvent nve

## Thermostat
region          regthermo block EDGE EDGE EDGE EDGE 0 10
group           thermo dynamic solvent region regthermo every 1000
dynamic group thermo defined
fix             3 thermo langevin ${temp} ${temp} 10 156453
fix             3 thermo langevin .9 ${temp} 10 156453
fix             3 thermo langevin .9 .9 10 156453

run 		2000000
Per MPI rank memory allocation (min/avg/max) = 19.64 | 29.90 | 32.56 Mbytes
Step Temp E_pair E_vdwl TotEng Press PotEng KinEng Atoms 
 2000000    0.9011694   -1.9982705   -1.9982705   -1.3524719  0.042202491   -1.9982705   0.64579864  1070540 
 2001000   0.89928004   -1.9968668   -1.9968668   -1.3524221  0.042864527   -1.9968668   0.64444469  1070540 
 2002000   0.89987988   -1.9976058   -1.9976058   -1.3527313  0.027780025   -1.9976058   0.64487455  1070540 
 2003000   0.89910019   -1.9971379   -1.9971379   -1.3528221  0.034566852   -1.9971379    0.6443158  1070540 
 2004000   0.89959082   -1.9975708   -1.9975708   -1.3529034  0.026652852   -1.9975708    0.6446674  1070540 
 2005000   0.90022396   -1.9980021   -1.9980021    -1.352881  0.024260069   -1.9980021   0.64512112  1070540 
 2006000   0.89801961   -1.9963719   -1.9963719   -1.3528305  0.040100467   -1.9963719   0.64354144  1070540 
 2007000   0.89847807   -1.9969882   -1.9969882   -1.3531182  0.026951671   -1.9969882   0.64386998  1070540 
 2008000   0.89978098   -1.9977142   -1.9977142   -1.3529105  0.031090658   -1.9977142   0.64480367  1070540 
 2009000   0.89899002   -1.9972203   -1.9972203   -1.3529834  0.032929817   -1.9972203   0.64423685  1070540 
 2010000   0.89955601   -1.9976994   -1.9976994   -1.3530569  0.033795854   -1.9976994   0.64464245  1070540 
 2011000   0.89956962   -1.9973393   -1.9973393   -1.3526871  0.031604994   -1.9973393   0.64465221  1070540 
 2012000   0.89985484   -1.9978852   -1.9978852   -1.3530286  0.024220477   -1.9978852    0.6448566  1070540 
 2013000   0.89952288   -1.9976611   -1.9976611   -1.3530424  0.031812158   -1.9976611   0.64461871  1070540 
 2014000    0.9008478   -1.9985846   -1.9985846   -1.3530164  0.036441248   -1.9985846   0.64556818  1070540 
 2015000    0.9011794   -1.9984971   -1.9984971   -1.3526913  0.041170662   -1.9984971   0.64580581  1070540 
 2016000   0.90124886   -1.9988172   -1.9988172   -1.3529616  0.032898654   -1.9988172   0.64585559  1070540 
 2017000   0.90350101   -2.0006657   -2.0006657   -1.3531962  0.033419972   -2.0006657   0.64746953  1070540 
 2018000   0.90350794   -2.0005064   -2.0005064   -1.3530319  0.036969613   -2.0005064    0.6474745  1070540 
 2019000   0.90146866    -1.999092    -1.999092   -1.3530789  0.035382004    -1.999092    0.6460131  1070540 
 2020000   0.90138167   -1.9992263   -1.9992263   -1.3532755  0.025648346   -1.9992263   0.64595076  1070540 
 2021000   0.90035951   -1.9986263   -1.9986263    -1.353408  0.033386217   -1.9986263   0.64521826  1070540 
 2022000   0.90124097   -1.9992539   -1.9992539   -1.3534039  0.025743902   -1.9992539   0.64584993  1070540 
 2023000   0.90089599   -1.9988948   -1.9988948    -1.353292  0.028938155   -1.9988948   0.64560271  1070540 
 2024000   0.90011112   -1.9982807   -1.9982807   -1.3532404  0.033637052   -1.9982807   0.64504026  1070540 
 2025000   0.89953297   -1.9982472   -1.9982472   -1.3536213  0.041961455   -1.9982472   0.64462594  1070540 
 2026000   0.90146345   -1.9998422   -1.9998422   -1.3538328  0.025920548   -1.9998422   0.64600937  1070540 
 2027000   0.89994224   -1.9987873   -1.9987873   -1.3538681  0.032159037   -1.9987873   0.64491923  1070540 
 2028000   0.90067912   -1.9993201   -1.9993201   -1.3538728  0.025764541   -1.9993201    0.6454473  1070540 
 2029000   0.89893045   -1.9976736   -1.9976736   -1.3534794   0.03159507   -1.9976736   0.64419416  1070540 
 2030000   0.89901717   -1.9977959   -1.9977959   -1.3535396  0.027159606   -1.9977959   0.64425631  1070540 
 2031000   0.89986753   -1.9984442   -1.9984442   -1.3535785  0.025610258   -1.9984442    0.6448657  1070540 
 2032000   0.89777218   -1.9970817   -1.9970817   -1.3537176   0.03419619   -1.9970817   0.64336412  1070540 
 2033000    0.8979435   -1.9977481   -1.9977481   -1.3542612  0.033063966   -1.9977481   0.64348689  1070540 
 2034000   0.89806549   -1.9975653   -1.9975653    -1.353991   0.03392389   -1.9975653   0.64357431  1070540 
 2035000   0.89986928   -1.9987069   -1.9987069   -1.3538399  0.024547777   -1.9987069   0.64486695  1070540 
 2036000   0.89882617   -1.9979595   -1.9979595   -1.3538401  0.032422057   -1.9979595   0.64411943  1070540 
 2037000   0.89909631   -1.9981918   -1.9981918   -1.3538788  0.032930635   -1.9981918   0.64431302  1070540 
 2038000   0.89880816   -1.9980991   -1.9980991   -1.3539925  0.025090523   -1.9980991   0.64410653  1070540 
 2039000    0.8988546   -1.9980315   -1.9980315   -1.3538917  0.031591617   -1.9980315   0.64413981  1070540 
 2040000   0.89949562   -1.9984869   -1.9984869   -1.3538877  0.034851353   -1.9984869   0.64459918  1070540 
 2041000    0.8991746   -1.9986285   -1.9986285   -1.3542593  0.031706568   -1.9986285   0.64436913  1070540 
 2042000   0.89957545   -1.9983844   -1.9983844    -1.353728  0.037139901   -1.9983844   0.64465639  1070540 
 2043000   0.89986862   -1.9983956   -1.9983956   -1.3535291  0.026570894   -1.9983956   0.64486648  1070540 
 2044000   0.90067837     -1.99893     -1.99893   -1.3534833  0.032594244     -1.99893   0.64544676  1070540 
 2045000    0.8995002   -1.9979667   -1.9979667   -1.3533642  0.031665299   -1.9979667   0.64460246  1070540 
 2046000   0.90101661   -1.9990874   -1.9990874   -1.3533983   0.02533788   -1.9990874   0.64568915  1070540 
 2047000      0.90033   -1.9989348   -1.9989348   -1.3537377  0.032162061   -1.9989348   0.64519711  1070540 
 2048000   0.90094295   -1.9993905   -1.9993905   -1.3537542    0.0358101   -1.9993905   0.64563636  1070540 
 2049000   0.89998817   -1.9987325   -1.9987325   -1.3537803  0.034823603   -1.9987325   0.64495215  1070540 
 2050000   0.89890403   -1.9980469   -1.9980469   -1.3538717  0.035150621   -1.9980469   0.64417523  1070540 
 2051000   0.90015619   -1.9987433   -1.9987433   -1.3536707  0.039778187   -1.9987433   0.64507255  1070540 
 2052000   0.89920887   -1.9982895   -1.9982895   -1.3538958  0.034988451   -1.9982895   0.64439369  1070540 
 2053000   0.89999705   -1.9991029   -1.9991029   -1.3541444  0.032678966   -1.9991029   0.64495851  1070540 
 2054000   0.89871611   -1.9981698   -1.9981698   -1.3541293   0.03864296   -1.9981698   0.64404056  1070540 
 2055000   0.89983841   -1.9991855   -1.9991855   -1.3543406  0.022101606   -1.9991855   0.64484483  1070540 
 2056000   0.90068107   -1.9994435   -1.9994435   -1.3539948  0.025761034   -1.9994435    0.6454487  1070540 
 2057000   0.89963655   -1.9984558   -1.9984558   -1.3537556  0.029082582   -1.9984558   0.64470017  1070540 
 2058000   0.89964299   -1.9985786   -1.9985786   -1.3538738  0.029122483   -1.9985786   0.64470479  1070540 
 2059000   0.89813121   -1.9974101   -1.9974101   -1.3537887  0.038718316   -1.9974101   0.64362141  1070540 
 2060000   0.90044695   -1.9992463   -1.9992463   -1.3539654  0.029684475   -1.9992463   0.64528092  1070540 
 2061000   0.90055251   -1.9991126   -1.9991126    -1.353756  0.027941143   -1.9991126   0.64535657  1070540 
 2062000   0.90015091   -1.9988745   -1.9988745   -1.3538057  0.029098258   -1.9988745   0.64506878  1070540 
 2063000   0.89953165   -1.9985177   -1.9985177   -1.3538927  0.032906011   -1.9985177   0.64462499  1070540 
 2064000   0.89951553   -1.9985789   -1.9985789   -1.3539655  0.036189419   -1.9985789   0.64461345  1070540 
 2065000   0.89850491   -1.9978571   -1.9978571   -1.3539679  0.030612952   -1.9978571   0.64388921  1070540 
 2066000   0.89930727   -1.9982003   -1.9982003   -1.3537361  0.032455903   -1.9982003    0.6444642  1070540 
 2067000    0.8991567   -1.9981678   -1.9981678   -1.3538115   0.02409301   -1.9981678    0.6443563  1070540 
 2068000   0.89907274   -1.9978893   -1.9978893   -1.3535931  0.029816856   -1.9978893   0.64429613  1070540 
 2069000   0.89824069   -1.9974442   -1.9974442   -1.3537444  0.035033681   -1.9974442   0.64369987  1070540 
 2070000   0.89958505   -1.9984539   -1.9984539   -1.3537906  0.029463944   -1.9984539   0.64466327  1070540 
 2071000   0.89926646   -1.9982487   -1.9982487   -1.3538138  0.022853327   -1.9982487   0.64443495  1070540 
 2072000   0.90018402   -1.9987118   -1.9987118   -1.3536193  0.033999898   -1.9987118    0.6450925  1070540 
 2073000   0.90100564   -1.9992438   -1.9992438   -1.3535625  0.022513421   -1.9992438   0.64568129  1070540 
 2074000   0.89966352   -1.9982374   -1.9982374   -1.3535179  0.037256063   -1.9982374    0.6447195  1070540 
 2075000   0.89928671   -1.9980131   -1.9980131   -1.3535637  0.026893979   -1.9980131   0.64444947  1070540 
 2076000   0.89888218   -1.9978139   -1.9978139   -1.3536544   0.03430803   -1.9978139   0.64415957  1070540 
 2077000   0.89916862   -1.9980668   -1.9980668    -1.353702  0.036278896   -1.9980668   0.64436484  1070540 
 2078000   0.89974452   -1.9991379   -1.9991379   -1.3543603  0.030012125   -1.9991379   0.64477755  1070540 
 2079000    0.8996105   -1.9987518   -1.9987518   -1.3540703  0.023950674   -1.9987518   0.64468151  1070540 
 2080000   0.89829664   -1.9976667   -1.9976667   -1.3539268  0.029974719   -1.9976667   0.64373996  1070540 
 2081000   0.89941128   -1.9982853   -1.9982853   -1.3537466  0.030017091   -1.9982853   0.64453874  1070540 
 2082000   0.89993279    -1.998497    -1.998497   -1.3535845  0.027743609    -1.998497   0.64491246  1070540 
 2083000   0.90034898   -1.9989911   -1.9989911   -1.3537804  0.028749645   -1.9989911   0.64521071  1070540 
 2084000    0.8992736    -1.998877    -1.998877    -1.354437  0.029602169    -1.998877   0.64444007  1070540 
 2085000   0.89856175    -1.998424    -1.998424   -1.3544941  0.032314988    -1.998424   0.64392995  1070540 
 2086000   0.89947661   -1.9988173   -1.9988173   -1.3542317  0.032721555   -1.9988173   0.64458555  1070540 
 2087000   0.89922974   -1.9990744   -1.9990744   -1.3546657  0.036106789   -1.9990744   0.64440864  1070540 
 2088000   0.89965256   -1.9991924   -1.9991924   -1.3544807  0.027182546   -1.9991924   0.64471165  1070540 
 2089000   0.90019374    -1.999524    -1.999524   -1.3544245   0.03636459    -1.999524   0.64509947  1070540 
 2090000   0.89959103   -1.9993896   -1.9993896    -1.354722  0.031301151   -1.9993896   0.64466755  1070540 
 2091000   0.90120629   -2.0004548   -2.0004548   -1.3546297  0.028630815   -2.0004548   0.64582508  1070540 
 2092000   0.89872035   -1.9988486   -1.9988486    -1.354805  0.037780144   -1.9988486    0.6440436  1070540 
 2093000   0.89960061   -1.9993881   -1.9993881   -1.3547136  0.038659332   -1.9993881   0.64467442  1070540 
 2094000   0.89918341   -1.9991092   -1.9991092   -1.3547338  0.037298424   -1.9991092   0.64437544  1070540 
 2095000   0.89973543   -1.9996099   -1.9996099   -1.3548389  0.031111657   -1.9996099   0.64477103  1070540 
 2096000   0.89950027   -1.9994803   -1.9994803   -1.3548778  0.033432933   -1.9994803   0.64460251  1070540 
 2097000   0.89989819   -1.9999766   -1.9999766   -1.3550889  0.032040001   -1.9999766   0.64488766  1070540 
 2098000   0.90133346   -2.0003634   -2.0003634   -1.3544472  0.031145527   -2.0003634   0.64591622  1070540 
 2099000   0.90073691    -2.000208    -2.000208   -1.3547193  0.034247402    -2.000208   0.64548871  1070540 
 2100000   0.90038358   -1.9995547   -1.9995547   -1.3543192  0.037772564   -1.9995547   0.64523551  1070540 
 2101000   0.89988049   -1.9990798   -1.9990798   -1.3542048  0.034662777   -1.9990798   0.64487499  1070540 
 2102000   0.90019371   -1.9992887   -1.9992887   -1.3541892  0.023386277   -1.9992887   0.64509944  1070540 
 2103000   0.89956523   -1.9991054   -1.9991054   -1.3544564  0.032478371   -1.9991054   0.64464906  1070540 
 2104000   0.89923313   -1.9989958   -1.9989958   -1.3545847   0.02981705   -1.9989958   0.64441107  1070540 
 2105000   0.89847036   -1.9982337   -1.9982337   -1.3543692  0.040854886   -1.9982337   0.64386445  1070540 
 2106000   0.89960348   -1.9991726   -1.9991726   -1.3544961  0.035685933   -1.9991726   0.64467647  1070540 
 2107000   0.89945104    -1.998814    -1.998814   -1.3542467  0.032356291    -1.998814   0.64456723  1070540 
 2108000   0.89922143   -1.9982955   -1.9982955   -1.3538929  0.027535051   -1.9982955   0.64440269  1070540 
 2109000   0.89877713   -1.9983263   -1.9983263   -1.3542421  0.036552056   -1.9983263   0.64408429  1070540 
 2110000   0.89905147   -1.9983217   -1.9983217   -1.3540408  0.026630578   -1.9983217   0.64428089  1070540 
 2111000   0.89981108   -1.9991468   -1.9991468   -1.3543216  0.030759467   -1.9991468   0.64482524  1070540 
 2112000   0.89961839   -1.9989597   -1.9989597   -1.3542725  0.036475077   -1.9989597   0.64468716  1070540 
 2113000   0.89958226   -1.9986497   -1.9986497   -1.3539884  0.038844863   -1.9986497   0.64466126  1070540 
 2114000   0.89900147   -1.9985962   -1.9985962   -1.3543511  0.031165142   -1.9985962   0.64424506  1070540 
 2115000   0.89937989   -1.9985777   -1.9985777   -1.3540614  0.035212959   -1.9985777   0.64451624  1070540 
 2116000   0.89942517    -1.998848    -1.998848   -1.3542993  0.028072208    -1.998848   0.64454869  1070540 
 2117000   0.89784769   -1.9978662   -1.9978662   -1.3544479  0.037209468   -1.9978662   0.64341824  1070540 
 2118000   0.90028226   -1.9994345   -1.9994345   -1.3542716  0.035285043   -1.9994345    0.6451629  1070540 
 2119000   0.89921232   -1.9987617   -1.9987617   -1.3543655  0.040992935   -1.9987617   0.64439616  1070540 
 2120000   0.90050403    -1.999762    -1.999762   -1.3544402  0.029616743    -1.999762   0.64532183  1070540 
 2121000   0.89952757    -1.998703    -1.998703   -1.3540809  0.042048087    -1.998703   0.64462207  1070540 
 2122000   0.90022358   -1.9993881   -1.9993881   -1.3542673  0.038054121   -1.9993881   0.64512085  1070540 
 2123000   0.89939827   -1.9985025   -1.9985025   -1.3539731  0.036466283   -1.9985025   0.64452942  1070540 
 2124000    0.8999546   -1.9991373   -1.9991373   -1.3542092  0.030474417   -1.9991373   0.64492809  1070540 
 2125000   0.89932094   -1.9986464   -1.9986464   -1.3541724  0.032770465   -1.9986464     0.644474  1070540 
 2126000   0.89937974   -1.9985377   -1.9985377   -1.3540216  0.034745737   -1.9985377   0.64451614  1070540 
 2127000   0.89987944   -1.9988632   -1.9988632    -1.353989  0.029136565   -1.9988632   0.64487423  1070540 
 2128000   0.89987993   -1.9989868   -1.9989868   -1.3541122  0.029227327   -1.9989868   0.64487458  1070540 
 2129000    0.8999158   -1.9995735   -1.9995735   -1.3546732  0.033981886   -1.9995735   0.64490029  1070540 
 2130000    0.8991557    -1.999098    -1.999098   -1.3547425  0.033173743    -1.999098   0.64435558  1070540 
 2131000    0.9010095   -1.9999803   -1.9999803   -1.3542963  0.035843907   -1.9999803   0.64568406  1070540 
 2132000    0.8991785   -1.9988018   -1.9988018   -1.3544298  0.031398829   -1.9988018   0.64437192  1070540 
 2133000   0.89888738    -1.998783    -1.998783   -1.3546197  0.025383348    -1.998783    0.6441633  1070540 
 2134000   0.89864716    -1.998545    -1.998545   -1.3545538  0.032218139    -1.998545   0.64399115  1070540 
 2135000   0.89974994   -1.9994793   -1.9994793   -1.3546979  0.015348325   -1.9994793   0.64478143  1070540 
 2136000   0.89790916   -1.9980762   -1.9980762   -1.3546139  0.032343572   -1.9980762   0.64346228  1070540 
 2137000   0.89836607   -1.9985931   -1.9985931   -1.3548034  0.039047399   -1.9985931   0.64378971  1070540 
 2138000   0.89879134   -1.9988978   -1.9988978   -1.3548033  0.034527068   -1.9988978   0.64409447  1070540 
 2139000   0.89952817   -1.9991879   -1.9991879   -1.3545654  0.033367516   -1.9991879    0.6446225  1070540 
 2140000   0.89886648   -1.9986227   -1.9986227   -1.3544744  0.031294845   -1.9986227   0.64414832  1070540 
 2141000   0.89982612   -1.9988953   -1.9988953   -1.3540592   0.03582426   -1.9988953   0.64483602  1070540 
 2142000   0.89976885   -1.9989661   -1.9989661   -1.3541712  0.031575093   -1.9989661   0.64479498  1070540 
 2143000   0.89956261    -1.999412    -1.999412   -1.3547648  0.036246271    -1.999412   0.64464719  1070540 
 2144000   0.90033229   -1.9998363   -1.9998363   -1.3546375  0.025594216   -1.9998363   0.64519875  1070540 
 2145000   0.90032242   -2.0002187   -2.0002187    -1.355027  0.032215341   -2.0002187   0.64519168  1070540 
 2146000   0.89921844   -1.9997752   -1.9997752   -1.3553746  0.027844533   -1.9997752   0.64440055  1070540 
 2147000   0.89919179    -1.999372    -1.999372   -1.3549906  0.042348095    -1.999372   0.64438145  1070540 
 2148000   0.90008603   -2.0001059   -2.0001059   -1.3550836  0.029044168   -2.0001059   0.64502228  1070540 
 2149000   0.89919001   -1.9995584   -1.9995584   -1.3551783  0.037177486   -1.9995584   0.64438017  1070540 
 2150000   0.89940322   -1.9992964   -1.9992964   -1.3547635  0.038514668   -1.9992964   0.64453296  1070540 
 2151000   0.90085152   -2.0001803   -2.0001803   -1.3546095  0.035822769   -2.0001803   0.64557085  1070540 
 2152000   0.89981704   -1.9994471   -1.9994471   -1.3546176  0.036659301   -1.9994471   0.64482952  1070540 
 2153000   0.90085289    -2.000423    -2.000423   -1.3548512   0.03093342    -2.000423   0.64557183  1070540 
 2154000   0.89995667     -1.99968     -1.99968   -1.3547504  0.033933267     -1.99968   0.64492958  1070540 
 2155000   0.89937041   -1.9987091   -1.9987091   -1.3541997  0.028663141   -1.9987091   0.64450945  1070540 
 2156000   0.89915628   -1.9987439   -1.9987439   -1.3543879  0.038854784   -1.9987439     0.644356  1070540 
 2157000   0.89950326   -1.9990978   -1.9990978   -1.3544932  0.026286061   -1.9990978   0.64460465  1070540 
 2158000   0.89815217   -1.9978232   -1.9978232   -1.3541868   0.03525974   -1.9978232   0.64363643  1070540 
 2159000   0.89787494   -1.9981095   -1.9981095   -1.3546717  0.033601101   -1.9981095   0.64343776  1070540 
 2160000   0.89849856   -1.9986672   -1.9986672   -1.3547825   0.02538358   -1.9986672   0.64388466  1070540 
 2161000   0.89887436    -1.998981    -1.998981    -1.354827  0.025876423    -1.998981   0.64415397  1070540 
 2162000    0.8981303   -1.9982405   -1.9982405   -1.3546197  0.035131225   -1.9982405   0.64362076  1070540 
 2163000   0.89886924   -1.9984854   -1.9984854   -1.3543351   0.02718794   -1.9984854    0.6441503  1070540 
 2164000   0.89989882   -1.9991163   -1.9991163   -1.3542282  0.026612288   -1.9991163   0.64488812  1070540 
 2165000   0.89926373    -1.998751    -1.998751    -1.354318  0.039617677    -1.998751     0.644433  1070540 
 2166000   0.90046248   -1.9995703   -1.9995703   -1.3542783  0.036325868   -1.9995703   0.64529205  1070540 
 2167000    0.8996611   -1.9992391   -1.9992391   -1.3545214  0.038864989   -1.9992391   0.64471777  1070540 
 2168000   0.89915579   -1.9991051   -1.9991051   -1.3547494  0.027466752   -1.9991051   0.64435565  1070540 
 2169000   0.89816878   -1.9982421   -1.9982421   -1.3545937   0.03206771   -1.9982421   0.64364833  1070540 
 2170000   0.89913069   -1.9987894   -1.9987894   -1.3544517  0.030319773   -1.9987894   0.64433766  1070540 
 2171000   0.89918652   -1.9989403   -1.9989403   -1.3545626  0.022785708   -1.9989403   0.64437767  1070540 
 2172000   0.89924409   -1.9988768   -1.9988768   -1.3544579  0.031268049   -1.9988768   0.64441892  1070540 
 2173000   0.89946593   -1.9992434   -1.9992434   -1.3546655  0.036683186   -1.9992434    0.6445779  1070540 
 2174000   0.90015394    -1.999689    -1.999689   -1.3546181  0.036141325    -1.999689   0.64507095  1070540 
 2175000   0.90127712   -2.0004764   -2.0004764   -1.3546006  0.030027225   -2.0004764   0.64587584  1070540 
 2176000   0.89999474   -1.9992387   -1.9992387   -1.3542819  0.027065695   -1.9992387   0.64495686  1070540 
 2177000     0.900143   -1.9993975   -1.9993975   -1.3543344  0.025052635   -1.9993975    0.6450631  1070540 
 2178000   0.90083798   -2.0001658   -2.0001658   -1.3546047  0.027022417   -2.0001658   0.64556115  1070540 
 2179000   0.90108154   -2.0000969   -2.0000969   -1.3543612  0.030542621   -2.0000969   0.64573569  1070540 
 2180000   0.90098582    -1.999948    -1.999948   -1.3542809  0.025432851    -1.999948   0.64566709  1070540 
 2181000   0.89963175    -1.998903    -1.998903   -1.3542062  0.035043024    -1.998903   0.64469673  1070540 
 2182000      0.89999   -1.9993304   -1.9993304    -1.354377  0.039015478   -1.9993304   0.64495346  1070540 
 2183000   0.90078845   -1.9997725   -1.9997725   -1.3542468  0.023924288   -1.9997725   0.64552565  1070540 
 2184000   0.90092697   -1.9992962   -1.9992962   -1.3536713  0.030920866   -1.9992962   0.64562491  1070540 
 2185000   0.89943837   -1.9982156   -1.9982156   -1.3536574  0.037223958   -1.9982156   0.64455815  1070540 
 2186000   0.90172156   -1.9996517   -1.9996517   -1.3534573  0.027744665   -1.9996517   0.64619434  1070540 
 2187000    0.8994873   -1.9983573   -1.9983573    -1.353764  0.032238324   -1.9983573   0.64459321  1070540 
 2188000   0.89883166   -1.9982441   -1.9982441   -1.3541208  0.032175522   -1.9982441   0.64412337  1070540 
 2189000   0.89926868   -1.9984708   -1.9984708   -1.3540342  0.030812201   -1.9984708   0.64443655  1070540 
 2190000   0.89806641   -1.9976962   -1.9976962   -1.3541212  0.033484819   -1.9976962   0.64357497  1070540 
 2191000    0.8993028   -1.9985391   -1.9985391   -1.3540781  0.026393204   -1.9985391     0.644461  1070540 
 2192000   0.89785133   -1.9976575   -1.9976575   -1.3542367   0.02186488   -1.9976575   0.64342084  1070540 
 2193000   0.89828345   -1.9980407   -1.9980407   -1.3543102   0.03483964   -1.9980407   0.64373051  1070540 
 2194000    0.8991093   -1.9983516   -1.9983516   -1.3540293  0.034239494   -1.9983516   0.64432233  1070540 
 2195000   0.89858413   -1.9984297   -1.9984297   -1.3544837  0.020446487   -1.9984297   0.64394598  1070540 
 2196000   0.89955789   -1.9993276   -1.9993276   -1.3546838  0.022901065   -1.9993276    0.6446438  1070540 
 2197000   0.89974654   -1.9995237   -1.9995237   -1.3547447  0.021252598   -1.9995237   0.64477899  1070540 
 2198000    0.9000756   -1.9999808   -1.9999808    -1.354966    0.0274706   -1.9999808   0.64501481  1070540 
 2199000   0.89989229   -1.9998164   -1.9998164   -1.3549329  0.034490386   -1.9998164   0.64488344  1070540 
 2200000   0.90071683   -2.0006587   -2.0006587   -1.3551844  0.031157499   -2.0006587   0.64547433  1070540 
 2201000   0.89987452   -1.9998731   -1.9998731   -1.3550024  0.033516255   -1.9998731   0.64487071  1070540 
 2202000   0.90197747   -2.0015716   -2.0015716   -1.3551938  0.027002753   -2.0015716   0.64637773  1070540 
 2203000   0.90041221   -2.0004412   -2.0004412   -1.3551852  0.041043328   -2.0004412   0.64525602  1070540 
 2204000   0.90011148   -1.9998354   -1.9998354   -1.3547949  0.042669318   -1.9998354   0.64504052  1070540 
 2205000   0.90166334   -2.0007261   -2.0007261   -1.3545734  0.030148914   -2.0007261   0.64615262  1070540 
 2206000   0.90101884   -2.0000352   -2.0000352   -1.3543444   0.03107309   -2.0000352   0.64569075  1070540 
 2207000   0.90024154   -1.9996182   -1.9996182   -1.3544845  0.030669009   -1.9996182   0.64513372  1070540 
 2208000   0.90071037   -1.9999942   -1.9999942   -1.3545245  0.038028465   -1.9999942   0.64546969  1070540 
 2209000   0.90025399   -1.9996202   -1.9996202   -1.3544776  0.034944447   -1.9996202   0.64514264  1070540 
 2210000   0.90151334   -2.0006869   -2.0006869   -1.3546418  0.036101233   -2.0006869   0.64604512  1070540 
 2211000   0.89964036   -1.9994772   -1.9994772   -1.3547743  0.043382414   -1.9994772    0.6447029  1070540 
 2212000   0.89922931   -1.9990856   -1.9990856   -1.3546773  0.023413068   -1.9990856   0.64440833  1070540 
 2213000   0.89951855   -1.9992681   -1.9992681   -1.3546525  0.022050146   -1.9992681   0.64461561  1070540 
 2214000   0.89878343   -1.9985664   -1.9985664   -1.3544776  0.028801339   -1.9985664   0.64408881  1070540 
 2215000   0.89872336   -1.9981223   -1.9981223   -1.3540765  0.029622546   -1.9981223   0.64404576  1070540 
 2216000   0.89833843   -1.9978416   -1.9978416   -1.3540717  0.032784982   -1.9978416   0.64376991  1070540 
 2217000   0.89713427   -1.9974509   -1.9974509   -1.3545439  0.022498716   -1.9974509   0.64290698  1070540 
 2218000   0.89804413   -1.9981515   -1.9981515   -1.3545925  0.029102738   -1.9981515     0.643559  1070540 
 2219000   0.89728421   -1.9978757   -1.9978757   -1.3548613  0.026829148   -1.9978757   0.64301443  1070540 
 2220000   0.89695637   -1.9975524   -1.9975524   -1.3547729  0.027061652   -1.9975524   0.64277949  1070540 
 2221000   0.89658547   -1.9973423   -1.9973423   -1.3548286  0.028234688   -1.9973423    0.6425137  1070540 
 2222000    0.8966738   -1.9973877   -1.9973877   -1.3548107  0.037973056   -1.9973877     0.642577  1070540 
 2223000   0.89784124   -1.9981596   -1.9981596    -1.354746  0.032687062   -1.9981596   0.64341361  1070540 
 2224000    0.8994577    -1.999202    -1.999202     -1.35463  0.027622859    -1.999202     0.644572  1070540 
 2225000   0.90008383   -1.9997198   -1.9997198   -1.3546991   0.03517689   -1.9997198    0.6450207  1070540 
 2226000   0.90028486   -1.9998041   -1.9998041   -1.3546393  0.036815078   -1.9998041   0.64516477  1070540 
 2227000   0.90076145   -1.9998034   -1.9998034   -1.3542971  0.034081667   -1.9998034    0.6455063  1070540 
 2228000   0.90060996   -1.9999088   -1.9999088   -1.3545111  0.039451786   -1.9999088   0.64539774  1070540 
 2229000   0.89886622   -1.9991172   -1.9991172   -1.3549691   0.03975154   -1.9991172   0.64414813  1070540 
 2230000   0.89919692   -1.9992956   -1.9992956   -1.3549105  0.027098111   -1.9992956   0.64438512  1070540 
 2231000   0.90022646   -2.0001329   -2.0001329     -1.35501  0.031814961   -2.0001329   0.64512291  1070540 
 2232000   0.89934152   -1.9991718   -1.9991718    -1.354683  0.034597281   -1.9991718   0.64448875  1070540 
 2233000    0.9009617   -2.0002604   -2.0002604   -1.3546106  0.024866075   -2.0002604    0.6456498  1070540 
 2234000   0.89959914   -1.9994133   -1.9994133   -1.3547399  0.030507154   -1.9994133   0.64467336  1070540 
 2235000   0.89963333   -1.9996264   -1.9996264   -1.3549285  0.031485216   -1.9996264   0.64469786  1070540 
 2236000   0.89970381   -1.9993656   -1.9993656   -1.3546172  0.031051464   -1.9993656   0.64474837  1070540 
 2237000   0.89902988   -1.9989778   -1.9989778   -1.3547123  0.039814592   -1.9989778   0.64426542  1070540 
 2238000   0.89824057   -1.9981148   -1.9981148    -1.354415  0.031510728   -1.9981148   0.64369978  1070540 
 2239000   0.89924223   -1.9991902   -1.9991902   -1.3547726  0.026676038   -1.9991902   0.64441759  1070540 
 2240000   0.89982908   -1.9997726   -1.9997726   -1.3549345  0.037115424   -1.9997726   0.64483814  1070540 
 2241000   0.89924871   -1.9993743   -1.9993743   -1.3549521  0.035911617   -1.9993743   0.64442223  1070540 
 2242000   0.89943313   -1.9991456   -1.9991456   -1.3545912  0.032407448   -1.9991456    0.6445544  1070540 
 2243000   0.89926408   -1.9990058   -1.9990058   -1.3545726  0.031318641   -1.9990058   0.64443325  1070540 
 2244000   0.89971128   -1.9996876   -1.9996876   -1.3549339  0.028643817   -1.9996876   0.64475372  1070540 
 2245000    0.8987144   -1.9984494   -1.9984494     -1.35441  0.031745396   -1.9984494   0.64403933  1070540 
 2246000   0.89935111   -1.9990786   -1.9990786   -1.3545829  0.029369229   -1.9990786   0.64449562  1070540 
 2247000   0.89927525    -1.998864    -1.998864   -1.3544227  0.030717671    -1.998864   0.64444126  1070540 
 2248000   0.89820876   -1.9983756   -1.9983756   -1.3546986  0.033167179   -1.9983756   0.64367699  1070540 
 2249000   0.89790703    -1.998261    -1.998261   -1.3548003  0.032555718    -1.998261   0.64346075  1070540 
 2250000   0.89776843    -1.998076    -1.998076   -1.3547145  0.033839008    -1.998076   0.64336143  1070540 
 2251000   0.89960586   -1.9993024   -1.9993024   -1.3546242  0.031501832   -1.9993024   0.64467818  1070540 
 2252000   0.89867583   -1.9984579   -1.9984579   -1.3544462  0.037074302   -1.9984579    0.6440117  1070540 
 2253000   0.89907445   -1.9988943   -1.9988943    -1.354597  0.029085481   -1.9988943   0.64429736  1070540 
 2254000   0.89910172   -1.9985845   -1.9985845   -1.3542676  0.033118075   -1.9985845    0.6443169  1070540 
 2255000   0.89929448   -1.9988938   -1.9988938   -1.3544387  0.022500584   -1.9988938   0.64445503  1070540 
 2256000   0.89937678   -1.9991833   -1.9991833   -1.3546693  0.032013585   -1.9991833   0.64451402  1070540 
 2257000   0.89931039   -1.9988404   -1.9988404   -1.3543739  0.027822433   -1.9988404   0.64446644  1070540 
 2258000   0.89963707   -1.9989358   -1.9989358   -1.3542352  0.033043827   -1.9989358   0.64470055  1070540 
 2259000   0.89937971   -1.9987287   -1.9987287   -1.3542126  0.035127411   -1.9987287   0.64451611  1070540 
 2260000   0.90026292   -1.9994722   -1.9994722   -1.3543231  0.033571425   -1.9994722   0.64514904  1070540 
 2261000   0.90004208   -1.9993982   -1.9993982   -1.3544074    0.0279471   -1.9993982   0.64499079  1070540 
 2262000    0.8998303   -1.9991474   -1.9991474   -1.3543084  0.033418951   -1.9991474   0.64483902  1070540 
 2263000   0.90008346   -1.9994307   -1.9994307   -1.3544103  0.030866568   -1.9994307   0.64502044  1070540 
 2264000   0.89987974   -2.0001655   -2.0001655   -1.3552911  0.030127986   -2.0001655   0.64487444  1070540 
 2265000   0.89858966   -1.9995726   -1.9995726   -1.3556226  0.036366961   -1.9995726   0.64394994  1070540 
 2266000   0.89958425   -1.9997445   -1.9997445   -1.3550818  0.035542114   -1.9997445   0.64466269  1070540 
 2267000   0.89887664   -1.9992403   -1.9992403   -1.3550847  0.031187455   -1.9992403   0.64415561  1070540 
 2268000   0.89875885   -1.9986658   -1.9986658   -1.3545946  0.034043154   -1.9986658   0.64407119  1070540 
 2269000   0.89915937   -1.9984919   -1.9984919   -1.3541337   0.03781356   -1.9984919   0.64435821  1070540 
 2270000   0.89925223   -1.9995386   -1.9995386   -1.3551138  0.028547521   -1.9995386   0.64442476  1070540 
 2271000   0.89872549   -1.9986915   -1.9986915   -1.3546442  0.039321137   -1.9986915   0.64404729  1070540 
 2272000   0.89914113   -1.9984235   -1.9984235   -1.3540783  0.031452814   -1.9984235   0.64434514  1070540 
 2273000   0.89904629   -1.9988877   -1.9988877   -1.3546105  0.034174719   -1.9988877   0.64427718  1070540 
 2274000    0.9006409   -1.9996646   -1.9996646   -1.3542447  0.018377329   -1.9996646   0.64541991  1070540 
 2275000    0.8990815   -1.9985109   -1.9985109   -1.3542085  0.036494983   -1.9985109   0.64430241  1070540 
 2276000   0.89942744   -1.9985752   -1.9985752   -1.3540249  0.024382625   -1.9985752   0.64455032  1070540 
 2277000   0.89875197   -1.9981683   -1.9981683    -1.354102  0.036065293   -1.9981683   0.64406626  1070540 
 2278000   0.89730264   -1.9969354   -1.9969354   -1.3539078  0.028777861   -1.9969354   0.64302763  1070540 
 2279000   0.89823455   -1.9977821   -1.9977821   -1.3540866  0.023231955   -1.9977821   0.64369546  1070540 
 2280000   0.89937774   -1.9985147   -1.9985147       -1.354  0.026652779   -1.9985147    0.6445147  1070540 
 2281000   0.89924951   -1.9983557   -1.9983557   -1.3539329  0.029092767   -1.9983557   0.64442281  1070540 
 2282000   0.89762609   -1.9975919   -1.9975919   -1.3543325  0.030520038   -1.9975919   0.64325943  1070540 
 2283000   0.89849135   -1.9981898   -1.9981898   -1.3543103  0.033125138   -1.9981898   0.64387949  1070540 
 2284000   0.89852885   -1.9977776   -1.9977776   -1.3538712  0.027013609   -1.9977776   0.64390636  1070540 
 2285000   0.89755231   -1.9967826   -1.9967826   -1.3535761  0.029775569   -1.9967826   0.64320656  1070540 
 2286000   0.89846898   -1.9972551   -1.9972551   -1.3533917  0.035999634   -1.9972551   0.64386346  1070540 
 2287000   0.89920822    -1.997864    -1.997864   -1.3534708  0.026609853    -1.997864   0.64439322  1070540 
 2288000   0.89872241   -1.9977129   -1.9977129   -1.3536678  0.032929895   -1.9977129   0.64404508  1070540 
 2289000   0.89934408   -1.9982056   -1.9982056    -1.353715  0.032742317   -1.9982056   0.64449058  1070540 
 2290000   0.89984883   -1.9984501   -1.9984501   -1.3535978  0.038138596   -1.9984501    0.6448523  1070540 
 2291000   0.89857992   -1.9980382   -1.9980382   -1.3540952  0.040540362   -1.9980382   0.64394297  1070540 
 2292000    0.8998321   -1.9986613   -1.9986613    -1.353821  0.031974275   -1.9986613   0.64484031  1070540 
 2293000   0.90061892   -1.9992279   -1.9992279   -1.3538238  0.027023923   -1.9992279   0.64540416  1070540 
 2294000   0.90016154   -1.9990167   -1.9990167   -1.3539404  0.033737909   -1.9990167   0.64507639  1070540 
 2295000   0.89873381   -1.9981238   -1.9981238   -1.3540706   0.03307864   -1.9981238   0.64405325  1070540 
 2296000   0.89984993     -1.99843     -1.99843   -1.3535769  0.041172065     -1.99843   0.64485309  1070540 
 2297000   0.90030946    -1.998473    -1.998473   -1.3532906  0.037038234    -1.998473   0.64518239  1070540 
 2298000    0.8996667   -1.9985117   -1.9985117   -1.3537899  0.029073098   -1.9985117   0.64472178  1070540 
 2299000   0.89840353   -1.9977998   -1.9977998   -1.3539832  0.033887584   -1.9977998   0.64381656  1070540 
 2300000   0.89922599    -1.998387    -1.998387   -1.3539811  0.031009004    -1.998387   0.64440595  1070540 
 2301000   0.89846638   -1.9980189   -1.9980189   -1.3541573    0.0337609   -1.9980189    0.6438616  1070540 
 2302000   0.89906213   -1.9982829   -1.9982829   -1.3539944  0.035542672   -1.9982829   0.64428853  1070540 
 2303000   0.89736692   -1.9976967   -1.9976967    -1.354623  0.028815014   -1.9976967   0.64307371  1070540 
 2304000   0.89822499   -1.9979303   -1.9979303   -1.3542417  0.027487655   -1.9979303   0.64368862  1070540 
 2305000   0.89763783   -1.9973501   -1.9973501   -1.3540822  0.030662061   -1.9973501   0.64326784  1070540 
 2306000   0.89930131   -1.9984496   -1.9984496   -1.3539897  0.033802072   -1.9984496   0.64445993  1070540 
 2307000   0.89983125   -1.9986785   -1.9986785   -1.3538388  0.027692981   -1.9986785   0.64483969  1070540 
 2308000   0.89926348   -1.9982992   -1.9982992   -1.3538664  0.028584919   -1.9982992   0.64443282  1070540 
 2309000   0.89959046   -1.9988249   -1.9988249   -1.3541578  0.031132637   -1.9988249   0.64466714  1070540 
 2310000   0.89936212   -1.9986176   -1.9986176   -1.3541141  0.034851591   -1.9986176   0.64450351  1070540 
 2311000   0.89692155   -1.9969917   -1.9969917   -1.3542371  0.033179666   -1.9969917   0.64275454  1070540 
 2312000   0.89863394   -1.9983824   -1.9983824   -1.3544007  0.037117936   -1.9983824   0.64398167  1070540 
 2313000   0.89863727   -1.9984081   -1.9984081    -1.354424  0.037386974   -1.9984081   0.64398406  1070540 
 2314000   0.89997676   -1.9994098   -1.9994098   -1.3544658  0.030670689   -1.9994098   0.64494397  1070540 
 2315000   0.89822274   -1.9985367   -1.9985367   -1.3548497  0.026395041   -1.9985367     0.643687  1070540 
 2316000   0.89923728   -1.9994983   -1.9994983   -1.3550842    0.0256943   -1.9994983   0.64441404  1070540 
 2317000   0.89942416    -1.999477    -1.999477    -1.354929   0.03427532    -1.999477   0.64454797  1070540 
 2318000   0.90119607   -2.0008622   -2.0008622   -1.3550445  0.028291392   -2.0008622   0.64581776  1070540 
 2319000   0.90003875    -2.000173    -2.000173   -1.3551846  0.037317852    -2.000173    0.6449884  1070540 
 2320000   0.89997482   -2.0000493   -2.0000493   -1.3551067  0.034939363   -2.0000493   0.64494258  1070540 
 2321000   0.89861162   -1.9992402   -1.9992402   -1.3552745  0.032531726   -1.9992402   0.64396568  1070540 
 2322000   0.89806304   -1.9988751   -1.9988751   -1.3553026  0.035896433   -1.9988751   0.64357255  1070540 
 2323000   0.89941043   -1.9997887   -1.9997887   -1.3552506  0.035646528   -1.9997887   0.64453813  1070540 
 2324000   0.89788009   -1.9990725   -1.9990725   -1.3556311  0.031050326   -1.9990725   0.64344145  1070540 
 2325000   0.89858423   -1.9993934   -1.9993934   -1.3554473  0.027520732   -1.9993934   0.64394605  1070540 
 2326000   0.89933465   -1.9994725   -1.9994725   -1.3549887   0.03640802   -1.9994725   0.64448382  1070540 
 2327000   0.89855372   -1.9992954   -1.9992954   -1.3553712  0.029991657   -1.9992954   0.64392419  1070540 
 2328000   0.89922391   -1.9995016   -1.9995016   -1.3550972  0.042155044   -1.9995016   0.64440446  1070540 
 2329000   0.89894493   -1.9989728   -1.9989728   -1.3547683   0.03427272   -1.9989728   0.64420454  1070540 
 2330000   0.89998546   -1.9998386   -1.9998386   -1.3548884  0.026331468   -1.9998386   0.64495021  1070540 
 2331000   0.89938216   -1.9993077   -1.9993077   -1.3547898  0.040226001   -1.9993077   0.64451787  1070540 
 2332000   0.89977051   -1.9995199   -1.9995199   -1.3547238  0.041141892   -1.9995199   0.64479617  1070540 
 2333000   0.90009082   -1.9995964   -1.9995964   -1.3545706  0.031170407   -1.9995964   0.64502571  1070540 
 2334000    0.8981099   -1.9982461   -1.9982461     -1.35464  0.034436555   -1.9982461   0.64360614  1070540 
 2335000   0.89815553   -1.9985927   -1.9985927   -1.3549539  0.028837873   -1.9985927   0.64363884  1070540 
 2336000   0.89898726    -1.999181    -1.999181   -1.3549461  0.019167403    -1.999181   0.64423487  1070540 
 2337000   0.89647763   -1.9975763   -1.9975763   -1.3551399  0.027893226   -1.9975763   0.64243642  1070540 
 2338000   0.89837779   -1.9986814   -1.9986814   -1.3548833  0.027384384   -1.9986814   0.64379812  1070540 
 2339000   0.89954072   -1.9992479   -1.9992479   -1.3546164   0.02157276   -1.9992479    0.6446315  1070540 
 2340000   0.89881747    -1.998778    -1.998778   -1.3546648  0.033129396    -1.998778    0.6441132  1070540 
 2341000   0.89937237   -1.9991196   -1.9991196   -1.3546088  0.028650583   -1.9991196   0.64451085  1070540 
 2342000   0.90044471   -1.9998073   -1.9998073    -1.354528  0.027924546   -1.9998073   0.64527932  1070540 
 2343000   0.89935821   -1.9988173   -1.9988173   -1.3543165  0.038795011   -1.9988173   0.64450071  1070540 
 2344000   0.89922293   -1.9992634   -1.9992634   -1.3548596  0.037213141   -1.9992634   0.64440376  1070540 
 2345000   0.89988526   -1.9995615   -1.9995615   -1.3546831  0.026578425   -1.9995615   0.64487841  1070540 
 2346000   0.90010518   -1.9999702   -1.9999702   -1.3549342  0.035479159   -1.9999702   0.64503601  1070540 
 2347000   0.89959543   -1.9994351   -1.9994351   -1.3547644  0.038019043   -1.9994351    0.6446707  1070540 
 2348000   0.89989302   -1.9997062   -1.9997062   -1.3548222  0.034776868   -1.9997062   0.64488396  1070540 
 2349000   0.89990517   -1.9994996   -1.9994996    -1.354607    0.0351591   -1.9994996   0.64489267  1070540 
 2350000    0.9000707   -1.9996676   -1.9996676   -1.3546563  0.029283281   -1.9996676   0.64501129  1070540 
 2351000   0.89992832   -1.9991443   -1.9991443   -1.3542351  0.028321474   -1.9991443   0.64490926  1070540 
 2352000   0.89796185   -1.9983288   -1.9983288   -1.3548287  0.026581319   -1.9983288   0.64350004  1070540 
 2353000   0.89891305   -1.9989834   -1.9989834   -1.3548017  0.029719304   -1.9989834   0.64418169  1070540 
 2354000   0.89930641   -1.9992077   -1.9992077   -1.3547441  0.030982741   -1.9992077   0.64446359  1070540 
 2355000   0.89995524   -1.9997484   -1.9997484   -1.3548199  0.031991618   -1.9997484   0.64492855  1070540 
 2356000   0.89932387   -1.9994355   -1.9994355   -1.3549594  0.037918264   -1.9994355    0.6444761  1070540 
 2357000   0.90041319   -2.0002424   -2.0002424   -1.3549857  0.033585756   -2.0002424   0.64525673  1070540 
 2358000   0.89999037    -2.000114    -2.000114   -1.3551603  0.031610461    -2.000114   0.64495372  1070540 
 2359000   0.89929432   -1.9995002   -1.9995002   -1.3550453   0.03116365   -1.9995002   0.64445492  1070540 
 2360000   0.89950526   -1.9999217   -1.9999217   -1.3553156  0.027612883   -1.9999217   0.64460609  1070540 
 2361000   0.89810723    -1.998785    -1.998785   -1.3551808  0.030828265    -1.998785   0.64360422  1070540 
 2362000   0.89868659   -1.9989288   -1.9989288   -1.3549094  0.027683857   -1.9989288   0.64401941  1070540 
 2363000   0.89875978   -1.9993172   -1.9993172   -1.3552454  0.031698868   -1.9993172   0.64407186  1070540 
 2364000    0.8983017    -1.998765    -1.998765   -1.3550214  0.034369625    -1.998765   0.64374359  1070540 
 2365000   0.89744414   -1.9983125   -1.9983125   -1.3551834  0.026585875   -1.9983125   0.64312904  1070540 
 2366000   0.89920154   -1.9994651   -1.9994651   -1.3550767  0.032961658   -1.9994651   0.64438844  1070540 
 2367000   0.89932688   -1.9997177   -1.9997177   -1.3552395  0.041226117   -1.9997177   0.64447826  1070540 
 2368000    0.8992508   -1.9995627   -1.9995627   -1.3551389  0.034438776   -1.9995627   0.64442374  1070540 
 2369000   0.89772084   -1.9982391   -1.9982391   -1.3549118  0.035604259   -1.9982391   0.64332733  1070540 
 2370000   0.90092597   -2.0006276   -2.0006276   -1.3550034  0.033027695   -2.0006276    0.6456242  1070540 
 2371000   0.90088626   -2.0002117   -2.0002117   -1.3546159   0.03810668   -2.0002117   0.64559574  1070540 
 2372000   0.89964763   -1.9995595   -1.9995595   -1.3548514  0.036624639   -1.9995595   0.64470811  1070540 
 2373000   0.89972435   -1.9992862   -1.9992862   -1.3545231  0.030687483   -1.9992862   0.64476309  1070540 
 2374000   0.89953337   -1.9991905   -1.9991905   -1.3545643  0.033822834   -1.9991905   0.64462623  1070540 
 2375000   0.90058155   -1.9996194   -1.9996194    -1.354242  0.028263051   -1.9996194   0.64537738  1070540 
 2376000    0.9013772   -2.0004975   -2.0004975     -1.35455  0.027686683   -2.0004975   0.64594756  1070540 
 2377000   0.89825806   -1.9984254   -1.9984254   -1.3547131  0.032679567   -1.9984254   0.64371231  1070540 
 2378000   0.89815109   -1.9981782   -1.9981782   -1.3545426   0.03111013   -1.9981782   0.64363566  1070540 
 2379000   0.89765501   -1.9977475   -1.9977475   -1.3544673  0.023747096   -1.9977475   0.64328016  1070540 
 2380000   0.89863176   -1.9986026   -1.9986026   -1.3546225   0.02715096   -1.9986026   0.64398012  1070540 
 2381000    0.8981824   -1.9985018   -1.9985018   -1.3548437  0.030280376   -1.9985018    0.6436581  1070540 
 2382000   0.89760398    -1.998013    -1.998013   -1.3547694  0.024782467    -1.998013   0.64324359  1070540 
 2383000   0.89830339    -1.997791    -1.997791   -1.3540462  0.031008236    -1.997791    0.6437448  1070540 
 2384000   0.89983964    -1.999398    -1.999398   -1.3545523   0.02809671    -1.999398   0.64484571  1070540 
 2385000   0.89883947   -1.9987179   -1.9987179    -1.354589  0.035088958   -1.9987179   0.64412897  1070540 
 2386000   0.89969945    -1.999286    -1.999286   -1.3545408  0.026181153    -1.999286   0.64474524  1070540 
 2387000     0.898914   -1.9988094   -1.9988094    -1.354627  0.024251736   -1.9988094   0.64418238  1070540 
 2388000   0.89926963   -1.9994916   -1.9994916   -1.3550543  0.033376042   -1.9994916   0.64443722  1070540 
 2389000   0.89815848   -1.9987292   -1.9987292   -1.3550883  0.027011372   -1.9987292   0.64364095  1070540 
 2390000    0.8996063   -1.9993131   -1.9993131   -1.3546346    0.0260316   -1.9993131   0.64467849  1070540 
 2391000   0.89837926   -1.9983564   -1.9983564   -1.3545573  0.034320016   -1.9983564   0.64379917  1070540 
 2392000   0.89963172   -1.9989456   -1.9989456   -1.3542489  0.037264447   -1.9989456   0.64469671  1070540 
 2393000   0.90010417   -1.9992688   -1.9992688   -1.3542335  0.033882973   -1.9992688   0.64503528  1070540 
 2394000    0.9009008   -1.9996462   -1.9996462   -1.3540401  0.034725649   -1.9996462   0.64560616  1070540 
 2395000   0.90007916   -1.9992702   -1.9992702   -1.3542528  0.029666272   -1.9992702   0.64501736  1070540 
 2396000   0.90003469   -1.9990767   -1.9990767   -1.3540912   0.03189973   -1.9990767   0.64498549  1070540 
 2397000   0.89941635   -1.9984098   -1.9984098   -1.3538674  0.037648389   -1.9984098   0.64454237  1070540 
 2398000   0.89990587    -1.998827    -1.998827   -1.3539338  0.029139245    -1.998827   0.64489317  1070540 
 2399000   0.90040914   -1.9991043   -1.9991043   -1.3538505  0.038730183   -1.9991043   0.64525382  1070540 
 2400000   0.89907882   -1.9979194   -1.9979194   -1.3536189  0.042323202   -1.9979194   0.64430049  1070540 
 2401000   0.89946857   -1.9983105   -1.9983105   -1.3537307  0.026212133   -1.9983105   0.64457979  1070540 
 2402000    0.8987534   -1.9980052   -1.9980052   -1.3539379  0.030985775   -1.9980052   0.64406729  1070540 
 2403000   0.89957653   -1.9986414   -1.9986414   -1.3539843  0.029979707   -1.9986414   0.64465716  1070540 
 2404000   0.89846982    -1.997577    -1.997577   -1.3537129  0.029207683    -1.997577   0.64386406  1070540 
 2405000    0.8972853   -1.9970607   -1.9970607   -1.3540455  0.034920082   -1.9970607   0.64301521  1070540 
 2406000    0.8981521   -1.9975004   -1.9975004   -1.3538641  0.027697864   -1.9975004   0.64363638  1070540 
 2407000   0.89795495   -1.9975698   -1.9975698   -1.3540747  0.034860657   -1.9975698    0.6434951  1070540 
 2408000   0.89875875   -1.9978493   -1.9978493   -1.3537782  0.036731092   -1.9978493   0.64407112  1070540 
 2409000   0.89915162    -1.998493    -1.998493   -1.3541403  0.027243778    -1.998493   0.64435266  1070540 
 2410000   0.89856717   -1.9980142   -1.9980142   -1.3540804   0.03756785   -1.9980142   0.64393383  1070540 
 2411000    0.8983451    -1.997789    -1.997789   -1.3540143  0.026314329    -1.997789   0.64377469  1070540 
 2412000   0.89998513   -1.9988799   -1.9988799     -1.35393   0.02754095   -1.9988799   0.64494997  1070540 
 2413000   0.89779551   -1.9973085   -1.9973085   -1.3539277  0.031265378   -1.9973085   0.64338084  1070540 
 2414000   0.89998506   -1.9988929   -1.9988929    -1.353943  0.031494129   -1.9988929   0.64494992  1070540 
 2415000   0.89859828   -1.9976056   -1.9976056   -1.3536495  0.032646671   -1.9976056   0.64395612  1070540 
 2416000   0.89848231   -1.9973003   -1.9973003   -1.3534273  0.041108219   -1.9973003   0.64387301  1070540 
 2417000   0.89934137   -1.9983123   -1.9983123   -1.3538237  0.025429669   -1.9983123   0.64448864  1070540 
 2418000   0.89990073   -1.9993352   -1.9993352   -1.3544457  0.040072502   -1.9993352   0.64488949  1070540 
 2419000   0.89954203   -1.9994708   -1.9994708   -1.3548384   0.03282656   -1.9994708   0.64463244  1070540 
 2420000   0.89868279   -1.9988866   -1.9988866   -1.3548699   0.02136557   -1.9988866   0.64401668  1070540 
 2421000   0.89789971   -1.9983098   -1.9983098   -1.3548543  0.021854171   -1.9983098   0.64345551  1070540 
 2422000   0.89931712    -1.999093    -1.999093   -1.3546218  0.033808409    -1.999093   0.64447126  1070540 
 2423000   0.89986886   -1.9995068   -1.9995068   -1.3546401  0.035829523   -1.9995068   0.64486665  1070540 
 2424000   0.89996036   -1.9990084   -1.9990084   -1.3540762  0.022778771   -1.9990084   0.64493222  1070540 
 2425000   0.89986652   -1.9987524   -1.9987524   -1.3538874  0.034044908   -1.9987524   0.64486498  1070540 
 2426000    0.8990573   -1.9983064   -1.9983064   -1.3540213  0.037980103   -1.9983064   0.64428507  1070540 
 2427000   0.90050404   -1.9994799   -1.9994799    -1.354158  0.030844755   -1.9994799   0.64532183  1070540 
 2428000    0.8994045   -1.9986974   -1.9986974   -1.3541635  0.038347455   -1.9986974   0.64453388  1070540 
 2429000   0.89904253   -1.9984248   -1.9984248   -1.3541503  0.036096912   -1.9984248   0.64427448  1070540 
 2430000   0.89870335   -1.9978823   -1.9978823   -1.3538508  0.035784472   -1.9978823   0.64403142  1070540 
 2431000    0.8991809   -1.9980649   -1.9980649   -1.3536913  0.033975025   -1.9980649   0.64437364  1070540 
 2432000   0.89953042   -1.9981754   -1.9981754   -1.3535513   0.02996668   -1.9981754   0.64462412  1070540 
 2433000   0.89895642   -1.9977228   -1.9977228     -1.35351  0.039454371   -1.9977228   0.64421277  1070540 
 2434000   0.89916457   -1.9975623   -1.9975623   -1.3532004  0.020595933   -1.9975623   0.64436194  1070540 
 2435000   0.89859667   -1.9972805   -1.9972805   -1.3533256  0.022404351   -1.9972805   0.64395497  1070540 
 2436000   0.89860179    -1.997376    -1.997376   -1.3534173  0.030938618    -1.997376   0.64395864  1070540 
 2437000   0.89894531    -1.997291    -1.997291   -1.3530861  0.030998578    -1.997291   0.64420481  1070540 
 2438000   0.89871633   -1.9973863   -1.9973863   -1.3533456  0.031906605   -1.9973863   0.64404072  1070540 
 2439000   0.89828907   -1.9967676   -1.9967676   -1.3530331  0.031727735   -1.9967676   0.64373453  1070540 
 2440000   0.89943571   -1.9973338   -1.9973338   -1.3527776   0.03184382   -1.9973338   0.64455624  1070540 
 2441000   0.89805244   -1.9968853   -1.9968853   -1.3533204  0.032235614   -1.9968853   0.64356496  1070540 
 2442000   0.89887621   -1.9975442   -1.9975442   -1.3533889  0.039678428   -1.9975442   0.64415529  1070540 
 2443000     0.898562   -1.9976196   -1.9976196   -1.3536895  0.031052044   -1.9976196   0.64393013  1070540 
 2444000   0.90033844   -1.9983669   -1.9983669   -1.3531638  0.023015762   -1.9983669   0.64520316  1070540 
 2445000   0.89987852   -1.9976504   -1.9976504   -1.3527769   0.03579349   -1.9976504   0.64487358  1070540 
 2446000   0.89973836   -1.9977929   -1.9977929   -1.3530198  0.029956559   -1.9977929   0.64477313  1070540 
 2447000   0.90027043    -1.998695    -1.998695   -1.3535406  0.039982801    -1.998695   0.64515443  1070540 
 2448000   0.90021261   -1.9987274   -1.9987274   -1.3536144  0.031686755   -1.9987274   0.64511299  1070540 
 2449000   0.90014397   -1.9984555   -1.9984555   -1.3533917  0.032250035   -1.9984555    0.6450638  1070540 
 2450000   0.89950792    -1.998014    -1.998014    -1.353406  0.041384798    -1.998014   0.64460799  1070540 
 2451000   0.90009976   -1.9983648   -1.9983648   -1.3533327  0.033027306   -1.9983648   0.64503212  1070540 
 2452000   0.89995052   -1.9987102   -1.9987102   -1.3537851  0.030721519   -1.9987102   0.64492517  1070540 
 2453000   0.90027665   -1.9986681   -1.9986681   -1.3535092  0.040135411   -1.9986681   0.64515888  1070540 
 2454000   0.90110958   -1.9994817   -1.9994817   -1.3537259  0.035119322   -1.9994817   0.64575578  1070540 
 2455000   0.90080347   -1.9992985   -1.9992985   -1.3537621  0.037369785   -1.9992985   0.64553641  1070540 
 2456000   0.90050265   -1.9988113   -1.9988113   -1.3534904  0.029825086   -1.9988113   0.64532084  1070540 
 2457000    0.8988911   -1.9974102   -1.9974102   -1.3532443  0.040324718   -1.9974102   0.64416597  1070540 
 2458000   0.89945129    -1.997613    -1.997613   -1.3530456  0.033587085    -1.997613   0.64456741  1070540 
 2459000   0.89987162   -1.9979935   -1.9979935   -1.3531249  0.025078943   -1.9979935   0.64486863  1070540 
 2460000   0.89914987   -1.9976732   -1.9976732   -1.3533218  0.030523496   -1.9976732    0.6443514  1070540 
 2461000   0.89920891   -1.9977237   -1.9977237     -1.35333  0.039058218   -1.9977237   0.64439371  1070540 
 2462000   0.89947379   -1.9978765   -1.9978765   -1.3532929  0.031824388   -1.9978765   0.64458354  1070540 
 2463000    0.8991573   -1.9974866   -1.9974866   -1.3531298  0.038819444   -1.9974866   0.64435673  1070540 
 2464000   0.90003336   -1.9984164   -1.9984164   -1.3534319  0.030519906   -1.9984164   0.64498453  1070540 
 2465000   0.89863993   -1.9974672   -1.9974672   -1.3534812  0.029639483   -1.9974672   0.64398597  1070540 
 2466000   0.89845424   -1.9974679   -1.9974679    -1.353615  0.033771783   -1.9974679    0.6438529  1070540 
 2467000   0.89764585   -1.9970827   -1.9970827   -1.3538091  0.031357251   -1.9970827   0.64327359  1070540 
 2468000   0.89693522   -1.9965358   -1.9965358   -1.3537714  0.026242724   -1.9965358   0.64276434  1070540 
 2469000   0.89770726    -1.996926    -1.996926   -1.3536084  0.029792326    -1.996926    0.6433176  1070540 
 2470000   0.89860196    -1.997257    -1.997257   -1.3532983  0.028750447    -1.997257   0.64395876  1070540 
 2471000   0.89779555    -1.996971    -1.996971   -1.3535901  0.030649544    -1.996971   0.64338087  1070540 
 2472000    0.8997161   -1.9983606   -1.9983606   -1.3536034  0.037561506   -1.9983606   0.64475718  1070540 
 2473000   0.90087824   -1.9992725   -1.9992725   -1.3536825  0.038112294   -1.9992725      0.64559  1070540 
 2474000   0.89938639   -1.9981623   -1.9981623   -1.3536414  0.035045466   -1.9981623    0.6445209  1070540 
 2475000   0.89909848   -1.9976133   -1.9976133   -1.3532987  0.030866197   -1.9976133   0.64431457  1070540 
 2476000   0.89985901   -1.9980818   -1.9980818   -1.3532222  0.034240411   -1.9980818   0.64485959  1070540 
 2477000   0.89887004   -1.9974896   -1.9974896   -1.3533387  0.034503275   -1.9974896   0.64415087  1070540 
 2478000   0.90010445   -1.9983899   -1.9983899   -1.3533544  0.031774298   -1.9983899   0.64503548  1070540 
 2479000   0.89990032   -1.9978797   -1.9978797   -1.3529905  0.031637604   -1.9978797    0.6448892  1070540 
 2480000   0.89961439    -1.998035    -1.998035   -1.3533507  0.039380781    -1.998035   0.64468429  1070540 
 2481000   0.90077253   -1.9986415   -1.9986415   -1.3531273  0.033775618   -1.9986415   0.64551424  1070540 
 2482000   0.89989348   -1.9983882   -1.9983882    -1.353504  0.031065149   -1.9983882   0.64488429  1070540 
 2483000   0.89870142   -1.9977034   -1.9977034   -1.3536733  0.033733789   -1.9977034   0.64403003  1070540 
 2484000    0.9004236    -1.998677    -1.998677   -1.3534128  0.031936356    -1.998677   0.64526419  1070540 
 2485000   0.89960203   -1.9981259   -1.9981259   -1.3534505  0.029257839   -1.9981259   0.64467543  1070540 
 2486000   0.89992997   -1.9981194   -1.9981194    -1.353209  0.035018254   -1.9981194   0.64491044  1070540 
 2487000    0.8996782   -1.9981123   -1.9981123   -1.3533822  0.030285882   -1.9981123   0.64473002  1070540 
 2488000   0.89889542   -1.9973857   -1.9973857   -1.3532167  0.029439847   -1.9973857   0.64416906  1070540 
 2489000   0.89845333   -1.9974611   -1.9974611   -1.3536088  0.035586659   -1.9974611   0.64385225  1070540 
 2490000   0.89896804   -1.9982933   -1.9982933   -1.3540722  0.028308717   -1.9982933    0.6442211  1070540 
 2491000   0.89899576   -1.9977688   -1.9977688   -1.3535279  0.031810293   -1.9977688   0.64424097  1070540 
 2492000   0.89932871     -1.99809     -1.99809   -1.3536104  0.027735785     -1.99809   0.64447957  1070540 
 2493000   0.90018473   -1.9987685   -1.9987685   -1.3536755  0.033611571   -1.9987685   0.64509301  1070540 
 2494000   0.89897602   -1.9977333   -1.9977333   -1.3535065  0.036325143   -1.9977333   0.64422682  1070540 
 2495000   0.89896715   -1.9978043   -1.9978043   -1.3535839  0.027433577   -1.9978043   0.64422047  1070540 
 2496000   0.89883531   -1.9975828   -1.9975828   -1.3534569  0.028930811   -1.9975828   0.64412598  1070540 
 2497000    0.9013111   -1.9992221   -1.9992221    -1.353322  0.032083524   -1.9992221   0.64590019  1070540 
 2498000   0.89995748    -1.998213    -1.998213   -1.3532828  0.034710539    -1.998213   0.64493016  1070540 
 2499000   0.90222289   -1.9993602   -1.9993602   -1.3528066  0.032073823   -1.9993602    0.6465536  1070540 
 2500000   0.90181409   -1.9990504   -1.9990504   -1.3527897   0.03423717   -1.9990504   0.64626065  1070540 
 2501000   0.90152634   -1.9990481   -1.9990481   -1.3529937  0.038318451   -1.9990481   0.64605444  1070540 
 2502000   0.90016866   -1.9982415   -1.9982415     -1.35316  0.033839414   -1.9982415   0.64508149  1070540 
 2503000   0.90104834   -1.9985583   -1.9985583   -1.3528464  0.036916962   -1.9985583   0.64571189  1070540 
 2504000   0.90176647   -1.9987405   -1.9987405    -1.352514  0.040191147   -1.9987405   0.64622652  1070540 
 2505000   0.89903179   -1.9973883   -1.9973883   -1.3531215   0.04020845   -1.9973883   0.64426678  1070540 
 2506000   0.89987851   -1.9981377   -1.9981377   -1.3532641   0.03278193   -1.9981377   0.64487356  1070540 
 2507000   0.90026268   -1.9983329   -1.9983329    -1.353184  0.035938248   -1.9983329   0.64514887  1070540 
 2508000    0.8994405    -1.997709    -1.997709   -1.3531493  0.032664018    -1.997709   0.64455968  1070540 
 2509000   0.89822798   -1.9970756   -1.9970756   -1.3533848  0.030322982   -1.9970756   0.64369075  1070540 
 2510000    0.8994686   -1.9977942   -1.9977942   -1.3532144  0.022716951   -1.9977942   0.64457982  1070540 
 2511000   0.89822348   -1.9968264   -1.9968264   -1.3531389  0.027814952   -1.9968264   0.64368753  1070540 
 2512000   0.89894758   -1.9971999   -1.9971999   -1.3529935  0.021406972   -1.9971999   0.64420644  1070540 
 2513000   0.89787212   -1.9965354   -1.9965354   -1.3530997  0.028756896   -1.9965354   0.64343574  1070540 
 2514000   0.89828084   -1.9972135   -1.9972135   -1.3534848  0.029844912   -1.9972135   0.64372864  1070540 
 2515000   0.89813973   -1.9966821   -1.9966821   -1.3530545  0.027954205   -1.9966821   0.64362752  1070540 
 2516000   0.89931507    -1.997625    -1.997625   -1.3531552  0.021052769    -1.997625   0.64446979  1070540 
 2517000   0.89810693   -1.9964326   -1.9964326   -1.3528286  0.030754741   -1.9964326   0.64360401  1070540 
 2518000   0.89850446   -1.9967034   -1.9967034   -1.3528145  0.030514399   -1.9967034   0.64388889  1070540 
 2519000   0.89924476   -1.9972499   -1.9972499   -1.3528305  0.028104405   -1.9972499   0.64441941  1070540 
 2520000   0.90039109   -1.9977731   -1.9977731   -1.3525322  0.031482788   -1.9977731   0.64524089  1070540 
 2521000   0.89927803   -1.9973442   -1.9973442    -1.352901   0.02751942   -1.9973442   0.64444325  1070540 
 2522000   0.90052997    -1.998367    -1.998367   -1.3530266  0.036514982    -1.998367   0.64534042  1070540 
 2523000   0.90057555    -1.998156    -1.998156   -1.3527829  0.038692777    -1.998156   0.64537308  1070540 
 2524000   0.90044335   -1.9980392   -1.9980392   -1.3527609  0.035790224   -1.9980392   0.64527834  1070540 
 2525000   0.90019995   -1.9981773   -1.9981773   -1.3530734  0.038864201   -1.9981773   0.64510392  1070540 
 2526000   0.90082227   -1.9983527   -1.9983527   -1.3528028    0.0315715   -1.9983527   0.64554989  1070540 
 2527000   0.90049937    -1.998063    -1.998063   -1.3527445  0.029189557    -1.998063   0.64531848  1070540 
 2528000   0.90082257   -1.9984257   -1.9984257   -1.3528756   0.03371492   -1.9984257    0.6455501  1070540 
 2529000   0.90134905   -1.9986403   -1.9986403   -1.3527129  0.028953046   -1.9986403   0.64592738  1070540 
 2530000   0.89945564   -1.9972388   -1.9972388   -1.3526682  0.041520621   -1.9972388   0.64457052  1070540 
 2531000   0.89864876   -1.9966253   -1.9966253    -1.352633    0.0286166   -1.9966253    0.6439923  1070540 
 2532000   0.89937658     -1.99714     -1.99714   -1.3526261  0.030982293     -1.99714   0.64451387  1070540 
 2533000   0.90128003   -1.9978985   -1.9978985   -1.3520205  0.025325683   -1.9978985   0.64587793  1070540 
 2534000   0.90057207   -1.9975857   -1.9975857   -1.3522151  0.026033574   -1.9975857   0.64537058  1070540 
 2535000   0.90028666   -1.9971732   -1.9971732   -1.3520071  0.035380119   -1.9971732   0.64516605  1070540 
 2536000   0.90058785   -1.9975933   -1.9975933   -1.3522114  0.030506989   -1.9975933   0.64538189  1070540 
 2537000   0.90047464   -1.9973797   -1.9973797   -1.3520789  0.028398682   -1.9973797   0.64530076  1070540 
 2538000   0.90077419     -1.99788     -1.99788   -1.3523646  0.032747967     -1.99788   0.64551543  1070540 
 2539000    0.8986102   -1.9966898   -1.9966898   -1.3527251  0.034000681   -1.9966898   0.64396467  1070540 
 2540000   0.89863529   -1.9966094   -1.9966094   -1.3526268  0.030276109   -1.9966094   0.64398264  1070540 
 2541000   0.90028475   -1.9975024   -1.9975024   -1.3523378  0.035237303   -1.9975024   0.64516468  1070540 
 2542000   0.89981668   -1.9970534   -1.9970534   -1.3522242  0.039032125   -1.9970534   0.64482926  1070540 
 2543000   0.89940836   -1.9967286   -1.9967286   -1.3521919  0.036226891   -1.9967286   0.64453664  1070540 
 2544000   0.89922178   -1.9968787   -1.9968787   -1.3524757  0.031419752   -1.9968787   0.64440294  1070540 
 2545000   0.90111771   -1.9980951   -1.9980951   -1.3523335  0.035592737   -1.9980951   0.64576161  1070540 
 2546000   0.90069945   -1.9976071   -1.9976071   -1.3521453    0.0339702   -1.9976071   0.64546187  1070540 
 2547000   0.90077908   -1.9980529   -1.9980529   -1.3525339  0.027933366   -1.9980529   0.64551893  1070540 
 2548000   0.89977383   -1.9974111   -1.9974111   -1.3526125  0.035108606   -1.9974111   0.64479855  1070540 
 2549000   0.90030493   -1.9980538   -1.9980538   -1.3528747  0.024721074   -1.9980538   0.64517915  1070540 
 2550000   0.89905482   -1.9971597   -1.9971597   -1.3528764   0.02878279   -1.9971597   0.64428329  1070540 
 2551000   0.89935743   -1.9972039   -1.9972039   -1.3527038   0.03339735   -1.9972039   0.64450015  1070540 
 2552000   0.90024433   -1.9979507   -1.9979507    -1.352815   0.03142118   -1.9979507   0.64513572  1070540 
 2553000    0.8990044   -1.9974778   -1.9974778   -1.3532307  0.024995534   -1.9974778   0.64424716  1070540 
 2554000    0.8986114     -1.99698     -1.99698   -1.3530144   0.03334736     -1.99698   0.64396553  1070540 
 2555000   0.89832175   -1.9969916   -1.9969916   -1.3532336  0.029994378   -1.9969916   0.64375796  1070540 
 2556000   0.89989202   -1.9978503   -1.9978503    -1.352967  0.032339686   -1.9978503   0.64488324  1070540 
 2557000   0.89986815   -1.9976324   -1.9976324   -1.3527662  0.032093799   -1.9976324   0.64486614  1070540 
 2558000   0.89971381   -1.9974816   -1.9974816   -1.3527261  0.026816287   -1.9974816   0.64475553  1070540 
 2559000   0.89906185   -1.9973602   -1.9973602   -1.3530719  0.038535468   -1.9973602   0.64428833  1070540 
 2560000   0.89969564   -1.9976464   -1.9976464   -1.3529039  0.040362273   -1.9976464   0.64474252  1070540 
 2561000   0.90046172   -1.9980792   -1.9980792   -1.3527877   0.03033593   -1.9980792   0.64529151  1070540 
 2562000    0.8997311   -1.9976557   -1.9976557   -1.3528878  0.038875866   -1.9976557   0.64476793  1070540 
 2563000   0.89995358   -1.9979966   -1.9979966   -1.3530692  0.033890153   -1.9979966   0.64492736  1070540 
 2564000   0.90025123   -1.9980913   -1.9980913   -1.3529507  0.038961966   -1.9980913   0.64514066  1070540 
 2565000   0.90021961   -1.9982984   -1.9982984   -1.3531804  0.036941096   -1.9982984     0.645118  1070540 
 2566000   0.90005175    -1.998096    -1.998096   -1.3530983  0.041222695    -1.998096   0.64499771  1070540 
 2567000   0.90086858   -1.9982581   -1.9982581   -1.3526751  0.033699064   -1.9982581   0.64558307  1070540 
 2568000   0.90103908   -1.9987165   -1.9987165   -1.3530112  0.033597173   -1.9987165   0.64570526  1070540 
 2569000   0.90149622   -1.9985615   -1.9985615   -1.3525286  0.030809038   -1.9985615   0.64603285  1070540 
 2570000   0.89917006   -1.9972231   -1.9972231   -1.3528572  0.026426882   -1.9972231   0.64436587  1070540 
 2571000   0.90023769   -1.9980352   -1.9980352   -1.3529043  0.027623964   -1.9980352   0.64513096  1070540 
 2572000   0.89959145   -1.9972268   -1.9972268    -1.352559   0.03291616   -1.9972268   0.64466785  1070540 
 2573000   0.89980928   -1.9975534   -1.9975534   -1.3527295  0.035600194   -1.9975534   0.64482395  1070540 
 2574000   0.89923351    -1.997174    -1.997174   -1.3527626  0.032874799    -1.997174   0.64441134  1070540 
 2575000   0.89838533   -1.9967267   -1.9967267   -1.3529231  0.025543976   -1.9967267   0.64380352  1070540 
 2576000   0.89903248   -1.9970146   -1.9970146   -1.3527474  0.021310377   -1.9970146   0.64426728  1070540 
 2577000   0.89944383   -1.9970328   -1.9970328   -1.3524707  0.032534155   -1.9970328   0.64456206  1070540 
 2578000   0.89965102   -1.9971443   -1.9971443   -1.3524338  0.025835142   -1.9971443   0.64471054  1070540 
 2579000   0.89943165   -1.9969391   -1.9969391   -1.3523857  0.024209141   -1.9969391   0.64455334  1070540 
 2580000   0.89974606   -1.9968648   -1.9968648   -1.3520861  0.028800506   -1.9968648   0.64477865  1070540 
 2581000   0.90054026   -1.9975382   -1.9975382   -1.3521904  0.031599402   -1.9975382   0.64534779  1070540 
 2582000   0.89878483   -1.9966763   -1.9966763   -1.3525865   0.03945211   -1.9966763   0.64408981  1070540 
 2583000   0.90140053   -1.9984654   -1.9984654   -1.3525011  0.031246763   -1.9984654   0.64596428  1070540 
 2584000   0.90105547   -1.9980481   -1.9980481   -1.3523311  0.029755872   -1.9980481     0.645717  1070540 
 2585000   0.90038845   -1.9979134   -1.9979134   -1.3526744  0.023022022   -1.9979134     0.645239  1070540 
 2586000   0.89976023   -1.9971485   -1.9971485   -1.3523597  0.027577885   -1.9971485   0.64478881  1070540 
 2587000   0.89920456   -1.9969031   -1.9969031   -1.3525125  0.032773218   -1.9969031   0.64439059  1070540 
 2588000    0.9013888   -1.9984205   -1.9984205   -1.3524646  0.031236786   -1.9984205   0.64595588  1070540 
 2589000   0.90078973   -1.9978438   -1.9978438   -1.3523172  0.028729674   -1.9978438   0.64552656  1070540 
 2590000   0.90005825   -1.9975826   -1.9975826   -1.3525802  0.037016907   -1.9975826   0.64500237  1070540 
 2591000   0.90091329   -1.9983195   -1.9983195   -1.3527043  0.030892034   -1.9983195   0.64561511  1070540 
 2592000   0.90012974   -1.9980692   -1.9980692   -1.3530156  0.025978831   -1.9980692    0.6450536  1070540 
 2593000   0.90043312   -1.9982487   -1.9982487   -1.3529777   0.03353895   -1.9982487   0.64527101  1070540 
 2594000   0.89837078   -1.9969971   -1.9969971    -1.353204  0.037199654   -1.9969971   0.64379309  1070540 
 2595000   0.89927748   -1.9978134   -1.9978134   -1.3533706  0.027253141   -1.9978134   0.64444285  1070540 
 2596000   0.89875389   -1.9977002   -1.9977002   -1.3536325  0.029315277   -1.9977002   0.64406763  1070540 
 2597000   0.89969022   -1.9981846   -1.9981846    -1.353446  0.038762969   -1.9981846   0.64473863  1070540 
 2598000   0.89991971   -1.9981359   -1.9981359   -1.3532328  0.026926329   -1.9981359   0.64490309  1070540 
 2599000   0.89967277   -1.9978625   -1.9978625   -1.3531364  0.036563134   -1.9978625   0.64472613  1070540 
 2600000   0.89950444   -1.9978386   -1.9978386   -1.3532331  0.034519118   -1.9978386    0.6446055  1070540 
 2601000   0.89883409   -1.9972505   -1.9972505   -1.3531254  0.037753628   -1.9972505   0.64412511  1070540 
 2602000   0.89977368   -1.9977724   -1.9977724    -1.352974  0.024021215   -1.9977724   0.64479844  1070540 
 2603000   0.89965607   -1.9974444   -1.9974444   -1.3527302  0.040882302   -1.9974444   0.64471416  1070540 
 2604000   0.89915467    -1.997461    -1.997461   -1.3531061  0.037652034    -1.997461   0.64435484  1070540 
 2605000   0.89975186   -1.9974537   -1.9974537   -1.3526709  0.043047282   -1.9974537    0.6447828  1070540 
 2606000   0.90103657   -1.9980125   -1.9980125    -1.352309  0.031488024   -1.9980125   0.64570346  1070540 
 2607000   0.90130041   -1.9984157   -1.9984157   -1.3525232  0.024964664   -1.9984157   0.64589253  1070540 
 2608000   0.90035029   -1.9978242   -1.9978242   -1.3526125  0.032564206   -1.9978242   0.64521165  1070540 
 2609000   0.90194164   -1.9985157   -1.9985157   -1.3521636  0.038120342   -1.9985157   0.64635205  1070540 
 2610000   0.89943837   -1.9962595   -1.9962595   -1.3517014  0.038754895   -1.9962595   0.64455815  1070540 
 2611000   0.89972025   -1.9965103   -1.9965103   -1.3517501  0.041325427   -1.9965103   0.64476015  1070540 
 2612000   0.90060804   -1.9973037   -1.9973037   -1.3519074  0.024752464   -1.9973037   0.64539636  1070540 
 2613000   0.89935701   -1.9966559   -1.9966559    -1.352156  0.035585939   -1.9966559   0.64449985  1070540 
 2614000   0.89945024   -1.9966968   -1.9966968   -1.3521302  0.028680276   -1.9966968   0.64456666  1070540 
 2615000   0.89941582    -1.996568    -1.996568    -1.352026  0.028381741    -1.996568   0.64454199  1070540 
 2616000   0.89902957   -1.9963014   -1.9963014   -1.3520363  0.028367735   -1.9963014    0.6442652  1070540 
 2617000   0.89906462   -1.9964259   -1.9964259   -1.3521355  0.029234095   -1.9964259   0.64429031  1070540 
 2618000    0.9002208   -1.9973425   -1.9973425   -1.3522237   0.02919829   -1.9973425   0.64511886  1070540 
 2619000   0.89984512   -1.9968119   -1.9968119   -1.3519623  0.026781686   -1.9968119   0.64484964  1070540 
 2620000   0.89865421   -1.9957449   -1.9957449   -1.3517487  0.032923291   -1.9957449    0.6439962  1070540 
 2621000   0.89989369   -1.9965362   -1.9965362   -1.3516517  0.029921879   -1.9965362   0.64488444  1070540 
 2622000   0.90091336     -1.99712     -1.99712   -1.3515048  0.026136816     -1.99712   0.64561516  1070540 
 2623000    0.9001887   -1.9964054   -1.9964054   -1.3513096  0.027769294   -1.9964054   0.64509585  1070540 
 2624000   0.89956469   -1.9966141   -1.9966141   -1.3519654   0.03309643   -1.9966141   0.64464867  1070540 
 2625000   0.90072679   -1.9972024   -1.9972024   -1.3517209  0.029890156   -1.9972024   0.64548146  1070540 
 2626000   0.90059835   -1.9967015   -1.9967015   -1.3513121  0.033873453   -1.9967015   0.64538942  1070540 
 2627000   0.89928803   -1.9960267   -1.9960267   -1.3515763  0.042885022   -1.9960267   0.64445041  1070540 
 2628000   0.89887084   -1.9959191   -1.9959191   -1.3517677  0.042615224   -1.9959191   0.64415145  1070540 
 2629000   0.89900245   -1.9960732   -1.9960732   -1.3518275  0.035262382   -1.9960732   0.64424576  1070540 
 2630000   0.90176043    -1.997632    -1.997632   -1.3514098  0.033091646    -1.997632   0.64622219  1070540 
 2631000   0.90099584   -1.9972054   -1.9972054   -1.3515311  0.029754362   -1.9972054   0.64567427  1070540 
 2632000   0.90026555   -1.9968434   -1.9968434   -1.3516925  0.043841519   -1.9968434   0.64515093  1070540 
 2633000   0.90086968   -1.9971479   -1.9971479    -1.351564   0.03344203   -1.9971479   0.64558386  1070540 
 2634000   0.89996756   -1.9967271   -1.9967271   -1.3517897   0.02423974   -1.9967271   0.64493738  1070540 
 2635000   0.90019266   -1.9967555   -1.9967555   -1.3516568  0.033145143   -1.9967555   0.64509869  1070540 
 2636000   0.89961077   -1.9963575   -1.9963575   -1.3516758  0.026022924   -1.9963575    0.6446817  1070540 
 2637000    0.8985466   -1.9956806   -1.9956806   -1.3517615  0.037155125   -1.9956806   0.64391909  1070540 
 2638000   0.90005747   -1.9965751   -1.9965751   -1.3515733  0.039886374   -1.9965751   0.64500182  1070540 
 2639000   0.89923596   -1.9961591   -1.9961591    -1.351746  0.034459749   -1.9961591    0.6444131  1070540 
 2640000   0.89941237   -1.9962493   -1.9962493   -1.3517098   0.02838941   -1.9962493   0.64453952  1070540 
 2641000   0.89826177   -1.9954501   -1.9954501   -1.3517352  0.034211578   -1.9954501   0.64371497  1070540 
 2642000   0.89860624   -1.9959087   -1.9959087   -1.3519468  0.025473986   -1.9959087   0.64396183  1070540 
 2643000   0.89913259   -1.9961119   -1.9961119   -1.3517728  0.021441606   -1.9961119   0.64433902  1070540 
 2644000   0.89965931   -1.9961754   -1.9961754   -1.3514589  0.032683108   -1.9961754   0.64471648  1070540 
 2645000   0.89976017   -1.9964168   -1.9964168   -1.3516281  0.033266408   -1.9964168   0.64478876  1070540 
 2646000   0.89992979   -1.9962844   -1.9962844   -1.3513741   0.02457503   -1.9962844   0.64491031  1070540 
 2647000   0.90058302   -1.9970236   -1.9970236   -1.3516452  0.037087881   -1.9970236   0.64537843  1070540 
 2648000   0.90084031   -1.9970757   -1.9970757   -1.3515129   0.03462684   -1.9970757   0.64556281  1070540 
 2649000    0.8988324   -1.9955007   -1.9955007   -1.3513768  0.036131966   -1.9955007    0.6441239  1070540 
 2650000   0.89914185   -1.9957416   -1.9957416   -1.3513959  0.035990692   -1.9957416   0.64434566  1070540 
 2651000   0.90063998    -1.996408    -1.996408   -1.3509887  0.041350698    -1.996408   0.64541925  1070540 
 2652000   0.89945467   -1.9954976   -1.9954976   -1.3509278  0.041919613   -1.9954976   0.64456983  1070540 
 2653000   0.89987729    -1.995872    -1.995872   -1.3509993  0.038557738    -1.995872   0.64487269  1070540 
 2654000   0.90244612   -1.9975122   -1.9975122   -1.3507986  0.031899419   -1.9975122   0.64671357  1070540 
 2655000    0.9003198   -1.9959662   -1.9959662   -1.3507764  0.037263855   -1.9959662   0.64518981  1070540 
 2656000   0.90029494   -1.9961403   -1.9961403   -1.3509683  0.031310823   -1.9961403   0.64517199  1070540 
 2657000   0.89966859   -1.9955185   -1.9955185   -1.3507954  0.035787347   -1.9955185   0.64472313  1070540 
 2658000   0.89850651   -1.9947832   -1.9947832   -1.3508928  0.036015567   -1.9947832   0.64389035  1070540 
 2659000    0.8990619   -1.9955274   -1.9955274    -1.351239  0.030516975   -1.9955274   0.64428837  1070540 
 2660000   0.89932471   -1.9958197   -1.9958197    -1.351343  0.030118724   -1.9958197    0.6444767  1070540 
 2661000   0.89919109   -1.9955964   -1.9955964   -1.3512155   0.02625638   -1.9955964   0.64438095  1070540 
 2662000   0.89942419   -1.9954663   -1.9954663   -1.3509183  0.031517671   -1.9954663   0.64454799  1070540 
 2663000   0.89959228   -1.9955996   -1.9955996   -1.3509311  0.032137072   -1.9955996   0.64466844  1070540 
 2664000   0.90174138   -1.9965557   -1.9965557   -1.3503472  0.021893178   -1.9965557   0.64620854  1070540 
 2665000   0.90040818   -1.9953418   -1.9953418   -1.3500886  0.028757762   -1.9953418   0.64525314  1070540 
 2666000   0.89955867   -1.9949497   -1.9949497   -1.3503053  0.038114053   -1.9949497   0.64464436  1070540 
 2667000   0.90023647   -1.9954619   -1.9954619   -1.3503318  0.033710257   -1.9954619   0.64513009  1070540 
 2668000   0.89932388   -1.9946732   -1.9946732   -1.3501971   0.03588808   -1.9946732   0.64447611  1070540 
 2669000   0.90049199    -1.995971    -1.995971   -1.3506578  0.023520107    -1.995971    0.6453132  1070540 
 2670000    0.9006146   -1.9959021   -1.9959021   -1.3505011  0.032436883   -1.9959021   0.64540106  1070540 
 2671000   0.90101912   -1.9964997   -1.9964997   -1.3508087  0.029183446   -1.9964997   0.64569095  1070540 
 2672000   0.90114939   -1.9968033   -1.9968033    -1.351019  0.037518457   -1.9968033   0.64578431  1070540 
 2673000   0.90077216   -1.9963669   -1.9963669   -1.3508529  0.036726359   -1.9963669   0.64551397  1070540 
 2674000   0.90230089   -1.9973345   -1.9973345    -1.350725  0.025810936   -1.9973345    0.6466095  1070540 
 2675000   0.90008415   -1.9959052   -1.9959052   -1.3508843  0.031011324   -1.9959052   0.64502093  1070540 
 2676000   0.90095512   -1.9964387   -1.9964387   -1.3507936  0.042015423   -1.9964387   0.64564509  1070540 
 2677000   0.90067936   -1.9966063   -1.9966063   -1.3511588  0.039377113   -1.9966063   0.64544747  1070540 
 2678000   0.90086243   -1.9970069   -1.9970069   -1.3514283  0.039275626   -1.9970069   0.64557867  1070540 
 2679000   0.90064621   -1.9968373   -1.9968373   -1.3514136  0.030227451   -1.9968373   0.64542372  1070540 
 2680000   0.90007615   -1.9961428   -1.9961428   -1.3511276    0.0381356   -1.9961428    0.6450152  1070540 
 2681000   0.90129441   -1.9969911   -1.9969911   -1.3511029  0.032907879   -1.9969911   0.64588823  1070540 
 2682000   0.90170101   -1.9972771   -1.9972771   -1.3510975  0.029604529   -1.9972771   0.64617961  1070540 
 2683000   0.90076601   -1.9963434   -1.9963434   -1.3508338   0.03271535   -1.9963434   0.64550957  1070540 
 2684000   0.90117975   -1.9965337   -1.9965337   -1.3507276  0.036678986   -1.9965337   0.64580606  1070540 
 2685000   0.90185582   -1.9970161   -1.9970161   -1.3507255  0.039303902   -1.9970161   0.64629055  1070540 
 2686000   0.90181542   -1.9970855   -1.9970855   -1.3508239  0.039090959   -1.9970855    0.6462616  1070540 
 2687000   0.90301048   -1.9980301   -1.9980301   -1.3509121  0.032468495   -1.9980301     0.647118  1070540 
 2688000   0.90058675   -1.9966116   -1.9966116   -1.3512304   0.03076251   -1.9966116   0.64538111  1070540 
 2689000   0.89984718   -1.9956664   -1.9956664   -1.3508153   0.03504434   -1.9956664   0.64485111  1070540 
 2690000   0.89983043   -1.9958839   -1.9958839   -1.3510448  0.030378649   -1.9958839   0.64483911  1070540 
 2691000   0.89965422   -1.9958351   -1.9958351   -1.3511223  0.028208335   -1.9958351   0.64471283  1070540 
 2692000   0.89995968   -1.9959268   -1.9959268    -1.350995  0.034021431   -1.9959268   0.64493173  1070540 
 2693000   0.89942079   -1.9955464   -1.9955464   -1.3510009  0.030660243   -1.9955464   0.64454555  1070540 
 2694000   0.90079249   -1.9965107   -1.9965107   -1.3509822  0.032217303   -1.9965107   0.64552854  1070540 
 2695000    0.9010777   -1.9965637   -1.9965637   -1.3508308  0.027054794   -1.9965637   0.64573293  1070540 
 2696000   0.89990576   -1.9956763   -1.9956763   -1.3507832  0.033101331   -1.9956763    0.6448931  1070540 
 2697000   0.89977103   -1.9955507   -1.9955507   -1.3507541  0.036761582   -1.9955507   0.64479654  1070540 
 2698000    0.9005358   -1.9958071   -1.9958071   -1.3504625  0.036059516   -1.9958071    0.6453446  1070540 
 2699000   0.89861829   -1.9947562   -1.9947562   -1.3507857  0.033381009   -1.9947562   0.64397046  1070540 
 2700000   0.90134969   -1.9965358   -1.9965358    -1.350608  0.033179705   -1.9965358   0.64592785  1070540 
 2701000   0.90103924   -1.9962728   -1.9962728   -1.3505675  0.027293449   -1.9962728   0.64570537  1070540 
 2702000   0.90203474   -1.9968533   -1.9968533   -1.3504346  0.031961476   -1.9968533   0.64641877  1070540 
 2703000   0.90056932    -1.995776    -1.995776   -1.3504074  0.032168243    -1.995776   0.64536862  1070540 
 2704000    0.9010503   -1.9962818   -1.9962818   -1.3505685  0.029314159   -1.9962818    0.6457133  1070540 
 2705000   0.90159541   -1.9967739   -1.9967739     -1.35067   0.03627776   -1.9967739   0.64610394  1070540 
 2706000   0.90188507   -1.9970576   -1.9970576   -1.3507461  0.032292984   -1.9970576   0.64631151  1070540 
 2707000   0.90076484   -1.9961699   -1.9961699   -1.3506612  0.031146886   -1.9961699   0.64550873  1070540 
 2708000   0.90121701   -1.9963171   -1.9963171   -1.3504844  0.036690949   -1.9963171   0.64583277  1070540 
 2709000   0.90051473   -1.9955509   -1.9955509   -1.3502214  0.041449345   -1.9955509   0.64532949  1070540 
 2710000    0.9020914   -1.9966211   -1.9966211   -1.3501617  0.035026802   -1.9966211   0.64645937  1070540 
 2711000   0.90201033   -1.9968759   -1.9968759   -1.3504746  0.026881455   -1.9968759   0.64640128  1070540 
 2712000   0.90034212   -1.9959845   -1.9959845   -1.3507787  0.038562745   -1.9959845    0.6452058  1070540 
 2713000   0.89997313   -1.9954902   -1.9954902   -1.3505488  0.041305139   -1.9954902   0.64494137  1070540 
 2714000   0.90099107   -1.9959791   -1.9959791   -1.3503082  0.026891353   -1.9959791   0.64567085  1070540 
 2715000   0.90130548   -1.9966338   -1.9966338   -1.3507376  0.037581047   -1.9966338   0.64589616  1070540 
 2716000   0.89856717   -1.9945487   -1.9945487   -1.3506148  0.036174053   -1.9945487   0.64393383  1070540 
 2717000   0.89993987   -1.9957094   -1.9957094   -1.3507918  0.029036553   -1.9957094   0.64491754  1070540 
 2718000   0.90006516   -1.9955666   -1.9955666   -1.3505593   0.03296028   -1.9955666   0.64500732  1070540 
 2719000   0.89961115    -1.995325    -1.995325   -1.3506431   0.03962535    -1.995325   0.64468197  1070540 
 2720000    0.9000221    -1.995301    -1.995301   -1.3503246  0.029774939    -1.995301   0.64497646  1070540 
 2721000   0.90047544   -1.9957004   -1.9957004   -1.3503991  0.026685683   -1.9957004   0.64530134  1070540 
 2722000   0.90062641   -1.9957111   -1.9957111   -1.3503015  0.028736312   -1.9957111   0.64540953  1070540 
 2723000   0.90032465    -1.995363    -1.995363   -1.3501698  0.034916105    -1.995363   0.64519328  1070540 
 2724000   0.90192112   -1.9965158   -1.9965158   -1.3501785  0.037122869   -1.9965158   0.64633735  1070540 
 2725000   0.90044497   -1.9959501   -1.9959501   -1.3506706   0.03806589   -1.9959501    0.6452795  1070540 
 2726000    0.9026913   -1.9971538   -1.9971538   -1.3502645  0.039278199   -1.9971538   0.64688928  1070540 
 2727000   0.90207163   -1.9967917   -1.9967917   -1.3503465   0.03641044   -1.9967917    0.6464452  1070540 
 2728000   0.90240987   -1.9968721   -1.9968721   -1.3501845  0.032714398   -1.9968721    0.6466876  1070540 
 2729000   0.90153237   -1.9963533   -1.9963533   -1.3502945  0.037783356   -1.9963533   0.64605876  1070540 
 2730000   0.90157151   -1.9968384   -1.9968384   -1.3507516  0.037654459   -1.9968384   0.64608681  1070540 
 2731000    0.9010226   -1.9964098   -1.9964098   -1.3507164  0.034883011   -1.9964098   0.64569345  1070540 
 2732000   0.90035533   -1.9958571   -1.9958571   -1.3506418   0.03644152   -1.9958571   0.64521527  1070540 
 2733000   0.90122339   -1.9967393   -1.9967393    -1.350902  0.030116594   -1.9967393   0.64583734  1070540 
 2734000   0.90100747    -1.996435    -1.996435   -1.3507524  0.037547566    -1.996435    0.6456826  1070540 
 2735000   0.90245133   -1.9972837   -1.9972837   -1.3505664  0.031352813   -1.9972837   0.64671731  1070540 
 2736000   0.90096126   -1.9960259   -1.9960259   -1.3503764  0.033379838   -1.9960259   0.64564949  1070540 
 2737000   0.90101151   -1.9963347   -1.9963347   -1.3506492  0.034288906   -1.9963347    0.6456855  1070540 
 2738000   0.90048549   -1.9959766   -1.9959766    -1.350668   0.03783212   -1.9959766   0.64530854  1070540 
 2739000   0.90066891   -1.9961931   -1.9961931   -1.3507531  0.028902853   -1.9961931   0.64543998  1070540 
 2740000   0.90015685   -1.9955519   -1.9955519   -1.3504788  0.032793635   -1.9955519   0.64507303  1070540 
 2741000   0.90108747   -1.9959189   -1.9959189    -1.350179  0.037359727   -1.9959189   0.64573993  1070540 
 2742000   0.90046056   -1.9957063   -1.9957063   -1.3504156  0.041885316   -1.9957063   0.64529067  1070540 
 2743000   0.90108578   -1.9961216   -1.9961216   -1.3503829  0.030286267   -1.9961216   0.64573872  1070540 
 2744000   0.90146208   -1.9958532   -1.9958532   -1.3498449  0.034459551   -1.9958532   0.64600839  1070540 
 2745000    0.9006483   -1.9954619   -1.9954619   -1.3500367  0.031069228   -1.9954619   0.64542522  1070540 
 2746000   0.90044212   -1.9954944   -1.9954944   -1.3502169   0.02685193   -1.9954944   0.64527746  1070540 
 2747000   0.90094814   -1.9957758   -1.9957758   -1.3501357  0.024298018   -1.9957758   0.64564009  1070540 
 2748000   0.89895792   -1.9942087   -1.9942087   -1.3499948  0.036012336   -1.9942087   0.64421385  1070540 
 2749000   0.90037542   -1.9952204   -1.9952204   -1.3499908  0.028316048   -1.9952204   0.64522967  1070540 
 2750000   0.89944409   -1.9946729   -1.9946729   -1.3501106  0.026338021   -1.9946729   0.64456225  1070540 
 2751000   0.89958828   -1.9952436   -1.9952436    -1.350578  0.029589399   -1.9952436   0.64466558  1070540 
 2752000   0.90082246   -1.9960937   -1.9960937   -1.3505437  0.027367396   -1.9960937   0.64555002  1070540 
 2753000   0.90087575   -1.9958791   -1.9958791   -1.3502909  0.033250987   -1.9958791   0.64558821  1070540 
 2754000   0.90007775   -1.9952585   -1.9952585   -1.3502422  0.037889644   -1.9952585   0.64501635  1070540 
 2755000   0.90029844    -1.995435    -1.995435   -1.3502605  0.025619897    -1.995435    0.6451745  1070540 
 2756000   0.90016544    -1.995188    -1.995188   -1.3501088  0.029447816    -1.995188   0.64507918  1070540 
 2757000   0.89998419   -1.9953061   -1.9953061   -1.3503568  0.033799949   -1.9953061    0.6449493  1070540 
 2758000   0.90004786    -1.995362    -1.995362   -1.3503671   0.03282595    -1.995362   0.64499493  1070540 
 2759000   0.90124447   -1.9961974   -1.9961974   -1.3503449  0.029491584   -1.9961974   0.64585244  1070540 
 2760000   0.90125622   -1.9960482   -1.9960482   -1.3501873  0.032989459   -1.9960482   0.64586086  1070540 
 2761000   0.90149246   -1.9957161   -1.9957161   -1.3496859   0.03452895   -1.9957161   0.64603016  1070540 
 2762000   0.90158744   -1.9962797   -1.9962797   -1.3501815  0.036045435   -1.9962797   0.64609822  1070540 
 2763000   0.90167487   -1.9966546   -1.9966546   -1.3504937  0.032978248   -1.9966546   0.64616088  1070540 
 2764000   0.90204486   -1.9968949   -1.9968949   -1.3504689  0.036347811   -1.9968949   0.64642602  1070540 
 2765000   0.90156567   -1.9962487   -1.9962487   -1.3501661   0.03449803   -1.9962487   0.64608263  1070540 
 2766000   0.90133472   -1.9962743   -1.9962743   -1.3503572  0.036441213   -1.9962743   0.64591712  1070540 
 2767000   0.90167592   -1.9961063   -1.9961063   -1.3499447   0.03190622   -1.9961063   0.64616163  1070540 
 2768000   0.90216423   -1.9963094   -1.9963094   -1.3497979  0.033564383   -1.9963094   0.64651156  1070540 
 2769000   0.90129446   -1.9956327   -1.9956327   -1.3497444  0.033647998   -1.9956327   0.64588827  1070540 
 2770000   0.90033757   -1.9952789   -1.9952789   -1.3500763  0.036734162   -1.9952789   0.64520254  1070540 
 2771000    0.9012717   -1.9961636   -1.9961636   -1.3502916  0.026541427   -1.9961636   0.64587196  1070540 
 2772000   0.90167244   -1.9964185   -1.9964185   -1.3502593  0.026661752   -1.9964185   0.64615914  1070540 
 2773000   0.90086525   -1.9955025   -1.9955025   -1.3499218  0.032392306   -1.9955025   0.64558069  1070540 
 2774000   0.89975873    -1.994882    -1.994882   -1.3500943  0.027548921    -1.994882   0.64478773  1070540 
 2775000   0.89980349   -1.9949118   -1.9949118    -1.350092  0.028092191   -1.9949118   0.64481981  1070540 
 2776000   0.90049086   -1.9957135   -1.9957135   -1.3504011  0.025359245   -1.9957135   0.64531239  1070540 
 2777000   0.90131423   -1.9962076   -1.9962076   -1.3503051  0.023954907   -1.9962076   0.64590244  1070540 
 2778000   0.89937799   -1.9949233   -1.9949233   -1.3504085   0.03627197   -1.9949233   0.64451488  1070540 
 2779000   0.90011488   -1.9953483   -1.9953483   -1.3503053   0.03996985   -1.9953483   0.64504295  1070540 
 2780000   0.90100171   -1.9954601   -1.9954601   -1.3497816  0.027072975   -1.9954601   0.64567848  1070540 
 2781000   0.90085352   -1.9953034   -1.9953034   -1.3497311  0.036705939   -1.9953034   0.64557228  1070540 
 2782000   0.90006926   -1.9948009   -1.9948009   -1.3497906  0.030464256   -1.9948009   0.64501026  1070540 
 2783000   0.89904765     -1.99377     -1.99377   -1.3494919  0.033528941     -1.99377   0.64427815  1070540 
 2784000   0.90069348    -1.994585    -1.994585   -1.3491274   0.03031387    -1.994585   0.64545759  1070540 
 2785000   0.90210192   -1.9956331   -1.9956331   -1.3491662  0.033143832   -1.9956331   0.64646691  1070540 
 2786000   0.90119944   -1.9949105   -1.9949105   -1.3490903  0.033214184   -1.9949105   0.64582017  1070540 
 2787000   0.90050931   -1.9941497   -1.9941497   -1.3488241  0.032572219   -1.9941497   0.64532561  1070540 
 2788000   0.90179855   -1.9951243   -1.9951243   -1.3488748  0.037903547   -1.9951243   0.64624951  1070540 
 2789000   0.90117732   -1.9948923   -1.9948923    -1.349088  0.034476397   -1.9948923   0.64580432  1070540 
 2790000   0.90149636   -1.9947526   -1.9947526   -1.3487197  0.022698202   -1.9947526   0.64603295  1070540 
 2791000   0.90147642   -1.9948926   -1.9948926    -1.348874  0.031933891   -1.9948926   0.64601866  1070540 
 2792000   0.90078921   -1.9940401   -1.9940401    -1.348514  0.029590034   -1.9940401    0.6455262  1070540 
 2793000   0.90149317   -1.9947429   -1.9947429   -1.3487122  0.039701342   -1.9947429   0.64603067  1070540 
 2794000   0.90148586   -1.9948257   -1.9948257   -1.3488003  0.036434984   -1.9948257   0.64602543  1070540 
 2795000   0.90165484   -1.9949919   -1.9949919   -1.3488454  0.033880999   -1.9949919   0.64614652  1070540 
 2796000   0.90068294   -1.9944964   -1.9944964   -1.3490464  0.043868357   -1.9944964   0.64545004  1070540 
 2797000   0.90042508   -1.9940056   -1.9940056   -1.3487403  0.032839397   -1.9940056   0.64526525  1070540 
 2798000   0.90201061   -1.9949881   -1.9949881   -1.3485866  0.029813875   -1.9949881   0.64640147  1070540 
 2799000   0.90109876   -1.9940815   -1.9940815   -1.3483335  0.037125563   -1.9940815   0.64574802  1070540 
 2800000   0.90292337   -1.9954799   -1.9954799   -1.3484243  0.034001307   -1.9954799   0.64705558  1070540 
 2801000   0.90039418    -1.993941    -1.993941   -1.3486979  0.037978033    -1.993941   0.64524311  1070540 
 2802000   0.90018448   -1.9938406   -1.9938406   -1.3487478  0.029593615   -1.9938406   0.64509283  1070540 
 2803000   0.89989128   -1.9935137   -1.9935137    -1.348631  0.034767999   -1.9935137   0.64488272  1070540 
 2804000   0.89999107   -1.9939483   -1.9939483    -1.348994  0.038046653   -1.9939483   0.64495423  1070540 
 2805000   0.89878874    -1.993234    -1.993234   -1.3491414   0.03278676    -1.993234   0.64409261  1070540 
 2806000   0.90085544   -1.9943979   -1.9943979   -1.3488242  0.026863725   -1.9943979   0.64557366  1070540 
 2807000   0.90040428   -1.9939983   -1.9939983   -1.3487479  0.025771754   -1.9939983   0.64525034  1070540 
 2808000   0.89884494   -1.9929179   -1.9929179    -1.348785  0.036852587   -1.9929179   0.64413288  1070540 
 2809000   0.90027515   -1.9938533   -1.9938533   -1.3486955   0.03517557   -1.9938533    0.6451578  1070540 
 2810000   0.90035902   -1.9943135   -1.9943135   -1.3490955  0.028959579   -1.9943135   0.64521791  1070540 
 2811000   0.89999308   -1.9940064   -1.9940064   -1.3490507  0.035047172   -1.9940064   0.64495567  1070540 
 2812000    0.9015188   -1.9953434   -1.9953434   -1.3492943  0.026307323   -1.9953434   0.64604903  1070540 
 2813000   0.89965892   -1.9941617   -1.9941617   -1.3494455  0.034184643   -1.9941617    0.6447162  1070540 
 2814000   0.90053751   -1.9946636   -1.9946636   -1.3493178  0.040349151   -1.9946636   0.64534582  1070540 
 2815000   0.90167595   -1.9954581   -1.9954581   -1.3492964   0.03880862   -1.9954581   0.64616165  1070540 
 2816000   0.90092764   -1.9950455   -1.9950455   -1.3494201  0.032106015   -1.9950455    0.6456254  1070540 
 2817000   0.90152931   -1.9958379   -1.9958379   -1.3497813  0.035483042   -1.9958379   0.64605657  1070540 
 2818000   0.90110371   -1.9953547   -1.9953547   -1.3496031  0.031156957   -1.9953547   0.64575157  1070540 
 2819000   0.90163309   -1.9958048   -1.9958048   -1.3496738  0.037374923   -1.9958048   0.64613094  1070540 
 2820000   0.90081559   -1.9955875   -1.9955875   -1.3500424  0.031135368   -1.9955875    0.6455451  1070540 
 2821000   0.90145611   -1.9963667   -1.9963667   -1.3503626  0.034404949   -1.9963667   0.64600411  1070540 
 2822000   0.90187853   -1.9961953   -1.9961953   -1.3498885  0.036413582   -1.9961953   0.64630683  1070540 
 2823000    0.9017635   -1.9960326   -1.9960326   -1.3498082  0.032482759   -1.9960326   0.64622439  1070540 
 2824000   0.90106745   -1.9956387   -1.9956387   -1.3499132  0.038376981   -1.9956387   0.64572558  1070540 
 2825000   0.90023527   -1.9948922   -1.9948922    -1.349763   0.02752443   -1.9948922   0.64512922  1070540 
 2826000   0.90190034   -1.9961133   -1.9961133   -1.3497908  0.028900168   -1.9961133   0.64632245  1070540 
 2827000   0.90002561   -1.9952291   -1.9952291   -1.3502501  0.031002569   -1.9952291   0.64497898  1070540 
 2828000   0.90106201    -1.995592    -1.995592   -1.3498703  0.023374828    -1.995592   0.64572169  1070540 
 2829000   0.89997379   -1.9950828   -1.9950828   -1.3501409   0.03577994   -1.9950828   0.64494184  1070540 
 2830000   0.89995388   -1.9946402   -1.9946402   -1.3497126  0.025418575   -1.9946402   0.64492758  1070540 
 2831000   0.89941786   -1.9942009   -1.9942009   -1.3496574  0.031578602   -1.9942009   0.64454345  1070540 
 2832000   0.90038739   -1.9945471   -1.9945471   -1.3493089   0.03210918   -1.9945471   0.64523824  1070540 
 2833000   0.90006521   -1.9948632   -1.9948632   -1.3498558  0.037756656   -1.9948632   0.64500736  1070540 
 2834000   0.89925959   -1.9944605   -1.9944605   -1.3500305  0.033427266   -1.9944605   0.64443003  1070540 
 2835000   0.90061315   -1.9958349   -1.9958349   -1.3504348  0.029087876   -1.9958349   0.64540002  1070540 
 2836000   0.90043204   -1.9954595   -1.9954595   -1.3501892  0.032850304   -1.9954595   0.64527024  1070540 
 2837000   0.89941902    -1.994872    -1.994872   -1.3503277  0.029797471    -1.994872   0.64454429  1070540 
 2838000   0.90171757   -1.9965003   -1.9965003   -1.3503088   0.02268733   -1.9965003   0.64619148  1070540 
 2839000   0.90079534    -1.995968    -1.995968   -1.3504374  0.031044308    -1.995968   0.64553059  1070540 
 2840000   0.90151824   -1.9958975   -1.9958975   -1.3498489  0.029729154   -1.9958975   0.64604863  1070540 
 2841000   0.90101287   -1.9953784   -1.9953784   -1.3496919  0.040210271   -1.9953784   0.64568647  1070540 
 2842000   0.90257299   -1.9965162   -1.9965162   -1.3497117  0.041592041   -1.9965162   0.64680449  1070540 
 2843000   0.90174006   -1.9958802   -1.9958802   -1.3496726  0.036544122   -1.9958802   0.64620759  1070540 
 2844000   0.90297841   -1.9968342   -1.9968342   -1.3497391  0.026403373   -1.9968342   0.64709503  1070540 
 2845000    0.9016701   -1.9959649   -1.9959649   -1.3498074  0.031371493   -1.9959649   0.64615746  1070540 
 2846000    0.9007928   -1.9955769   -1.9955769   -1.3500482  0.030039626   -1.9955769   0.64552876  1070540 
 2847000   0.90138638   -1.9957452   -1.9957452   -1.3497911  0.028313241   -1.9957452   0.64595414  1070540 
 2848000   0.90184113   -1.9957061   -1.9957061   -1.3494261   0.03283353   -1.9957061   0.64628002  1070540 
 2849000   0.90096297   -1.9952202   -1.9952202   -1.3495694  0.038598224   -1.9952202   0.64565071  1070540 
 2850000   0.90126755   -1.9954256   -1.9954256   -1.3495566  0.032202841   -1.9954256   0.64586898  1070540 
 2851000   0.90132241   -1.9954651   -1.9954651   -1.3495568  0.031858656   -1.9954651    0.6459083  1070540 
 2852000   0.90165549    -1.995345    -1.995345    -1.349198  0.030046826    -1.995345   0.64614699  1070540 
 2853000   0.90146601   -1.9951195   -1.9951195   -1.3491083  0.028718393   -1.9951195    0.6460112  1070540 
 2854000   0.90153421   -1.9950164   -1.9950164   -1.3489563  0.028984556   -1.9950164   0.64606007  1070540 
 2855000   0.90033454    -1.993973    -1.993973   -1.3487726  0.027541285    -1.993973   0.64520036  1070540 
 2856000   0.89952081   -1.9938188   -1.9938188   -1.3492016  0.033779518   -1.9938188   0.64461723  1070540 
 2857000   0.89953739    -1.993814    -1.993814   -1.3491849  0.029483596    -1.993814   0.64462911  1070540 
 2858000   0.89925264   -1.9935607   -1.9935607   -1.3491356    0.0329296   -1.9935607   0.64442505  1070540 
 2859000   0.90015118   -1.9944565   -1.9944565   -1.3493875  0.026052065   -1.9944565   0.64506897  1070540 
 2860000    0.8997729    -1.994094    -1.994094   -1.3492961  0.034758125    -1.994094   0.64479788  1070540 
 2861000   0.90067874   -1.9947786   -1.9947786   -1.3493315  0.022854277   -1.9947786   0.64544703  1070540 
 2862000   0.90050558   -1.9943814   -1.9943814   -1.3490584  0.035199736   -1.9943814   0.64532294  1070540 
 2863000   0.90291982   -1.9963714   -1.9963714   -1.3493184   0.03059243   -1.9963714   0.64705304  1070540 
 2864000   0.90158791   -1.9954569   -1.9954569   -1.3493584  0.025010683   -1.9954569   0.64609856  1070540 
 2865000   0.90138883   -1.9952389   -1.9952389    -1.349283  0.022483042   -1.9952389    0.6459559  1070540 
 2866000   0.90159008   -1.9958285   -1.9958285   -1.3497284  0.036785376   -1.9958285   0.64610012  1070540 
 2867000   0.90198876   -1.9959739   -1.9959739    -1.349588   0.03551238   -1.9959739   0.64638582  1070540 
 2868000   0.90170048   -1.9963084   -1.9963084   -1.3501291   0.03361828   -1.9963084   0.64617923  1070540 
 2869000    0.9020631   -1.9965968   -1.9965968   -1.3501578  0.033883792   -1.9965968   0.64643909  1070540 
 2870000   0.90401208   -1.9974545   -1.9974545   -1.3496187  0.031751325   -1.9974545   0.64783577  1070540 
 2871000   0.90294543    -1.996784    -1.996784   -1.3497126  0.039708921    -1.996784   0.64707139  1070540 
 2872000   0.90182752   -1.9961915   -1.9961915   -1.3499212  0.035862239   -1.9961915   0.64627027  1070540 
 2873000   0.90227238   -1.9966126   -1.9966126   -1.3500235   0.03653287   -1.9966126   0.64658907  1070540 
 2874000   0.90342676   -1.9970164   -1.9970164   -1.3496001  0.035614252   -1.9970164   0.64741632  1070540 
 2875000   0.90247707   -1.9964508   -1.9964508    -1.349715  0.037228739   -1.9964508   0.64673575  1070540 
 2876000   0.90197582   -1.9964153   -1.9964153   -1.3500388  0.039797612   -1.9964153   0.64637654  1070540 
 2877000   0.90061072   -1.9953042   -1.9953042   -1.3499059  0.034495314   -1.9953042   0.64539829  1070540 
 2878000    0.9013679   -1.9956453   -1.9956453   -1.3497044  0.034379921   -1.9956453    0.6459409  1070540 
 2879000   0.90278777   -1.9966224   -1.9966224    -1.349664  0.032949717   -1.9966224   0.64695841  1070540 
 2880000   0.90246762   -1.9961998   -1.9961998   -1.3494708  0.027999598   -1.9961998   0.64672898  1070540 
 2881000   0.90056364   -1.9945644   -1.9945644   -1.3491999  0.034148239   -1.9945644   0.64536454  1070540 
 2882000   0.90146641   -1.9948514   -1.9948514   -1.3488399  0.029861051   -1.9948514   0.64601149  1070540 
 2883000   0.89963456   -1.9937966   -1.9937966   -1.3490978  0.027695255   -1.9937966   0.64469874  1070540 
 2884000   0.90098245   -1.9947665   -1.9947665   -1.3491018  0.034352463   -1.9947665   0.64566467  1070540 
 2885000   0.90104556   -1.9950689   -1.9950689    -1.349359   0.02819824   -1.9950689    0.6457099  1070540 
 2886000   0.89955523   -1.9938338   -1.9938338   -1.3491919  0.029386113   -1.9938338    0.6446419  1070540 
 2887000   0.90038178   -1.9943207   -1.9943207   -1.3490865  0.033044435   -1.9943207   0.64523422  1070540 
 2888000   0.90050116   -1.9945207   -1.9945207   -1.3492009  0.030771803   -1.9945207   0.64531977  1070540 
 2889000    0.9009978    -1.995237    -1.995237   -1.3495614  0.024449708    -1.995237   0.64567567  1070540 
 2890000    0.9006369   -1.9945573   -1.9945573   -1.3491402  0.026825542   -1.9945573   0.64541704  1070540 
 2891000   0.90104439   -1.9951695   -1.9951695   -1.3494605   0.03303519   -1.9951695   0.64570906  1070540 
 2892000   0.90144913   -1.9954753   -1.9954753   -1.3494762  0.031893609   -1.9954753   0.64599911  1070540 
 2893000   0.90157227   -1.9956224   -1.9956224   -1.3495351  0.032699459   -1.9956224   0.64608735  1070540 
 2894000   0.90246535    -1.996223    -1.996223   -1.3494956  0.037858586    -1.996223   0.64672735  1070540 
 2895000   0.90147888   -1.9955192   -1.9955192   -1.3494988  0.031319822   -1.9955192   0.64602043  1070540 
 2896000   0.90190958   -1.9956595   -1.9956595   -1.3493304  0.031800947   -1.9956595   0.64632908  1070540 
 2897000   0.90307818   -1.9963531   -1.9963531   -1.3491866  0.034040186   -1.9963531   0.64716652  1070540 
 2898000   0.90365658   -1.9968962   -1.9968962   -1.3493152  0.033035676   -1.9968962   0.64758101  1070540 
 2899000   0.90126283   -1.9957589   -1.9957589   -1.3498933  0.034018827   -1.9957589    0.6458656  1070540 
 2900000   0.90204862   -1.9962983   -1.9962983   -1.3498695  0.035805538   -1.9962983   0.64642872  1070540 
 2901000   0.90175032   -1.9962772   -1.9962772   -1.3500623   0.03866213   -1.9962772   0.64621495  1070540 
 2902000   0.90079741   -1.9958294   -1.9958294   -1.3502973   0.03957814   -1.9958294   0.64553207  1070540 
 2903000   0.90077384   -1.9960783   -1.9960783   -1.3505632  0.033671773   -1.9960783   0.64551518  1070540 
 2904000   0.90141406   -1.9964577   -1.9964577   -1.3504837  0.034396722   -1.9964577   0.64597398  1070540 
 2905000   0.90069194   -1.9956893   -1.9956893   -1.3502328  0.031577129   -1.9956893   0.64545649  1070540 
 2906000   0.90103378   -1.9959089   -1.9959089   -1.3502074  0.037608756   -1.9959089   0.64570146  1070540 
 2907000   0.90105768   -1.9957095   -1.9957095    -1.349991  0.028710605   -1.9957095   0.64571858  1070540 
 2908000   0.90233151   -1.9967334   -1.9967334    -1.350102    0.0351011   -1.9967334   0.64663144  1070540 
 2909000   0.90314961   -1.9973005   -1.9973005   -1.3500828  0.027537351   -1.9973005   0.64721771  1070540 
 2910000    0.9016003   -1.9960417   -1.9960417   -1.3499343  0.039967293   -1.9960417   0.64610744  1070540 
 2911000   0.90202569   -1.9960966   -1.9960966   -1.3496843  0.035484424   -1.9960966   0.64641228  1070540 
 2912000   0.90217859    -1.996279    -1.996279   -1.3497571   0.03592821    -1.996279   0.64652185  1070540 
 2913000   0.90188841   -1.9963849   -1.9963849    -1.350071  0.031039628   -1.9963849   0.64631391  1070540 
 2914000     0.902769   -1.9968908   -1.9968908   -1.3499459  0.031264583   -1.9968908   0.64694495  1070540 
 2915000   0.90137865   -1.9958032   -1.9958032   -1.3498546  0.033813164   -1.9958032    0.6459486  1070540 
 2916000   0.90281898   -1.9967118   -1.9967118    -1.349731   0.02927435   -1.9967118   0.64698078  1070540 
 2917000   0.90051637   -1.9950902   -1.9950902   -1.3497596  0.035324458   -1.9950902   0.64533067  1070540 
 2918000   0.90113173   -1.9955037   -1.9955037    -1.349732  0.039602054   -1.9955037   0.64577165  1070540 
 2919000   0.90119115   -1.9955677   -1.9955677   -1.3497534  0.033975741   -1.9955677   0.64581423  1070540 
 2920000   0.90096931   -1.9955341   -1.9955341   -1.3498788   0.03494486   -1.9955341   0.64565526  1070540 
 2921000   0.89987135   -1.9950608   -1.9950608   -1.3501924  0.031002838   -1.9950608   0.64486843  1070540 
 2922000   0.90020124   -1.9952149   -1.9952149     -1.35011  0.030565452   -1.9952149   0.64510484  1070540 
 2923000   0.90090109   -1.9955508   -1.9955508   -1.3499444  0.035247724   -1.9955508   0.64560637  1070540 
 2924000   0.90140047   -1.9955108   -1.9955108   -1.3495466  0.031141413   -1.9955108   0.64596424  1070540 
 2925000   0.90052712   -1.9952005   -1.9952005   -1.3498621  0.029696678   -1.9952005   0.64533838  1070540 
 2926000   0.90207997   -1.9961788   -1.9961788   -1.3497276  0.020075186   -1.9961788   0.64645118  1070540 
 2927000   0.90232109    -1.996647    -1.996647   -1.3500231   0.02091064    -1.996647   0.64662397  1070540 
 2928000   0.90251723    -1.996722    -1.996722   -1.3499574   0.03195746    -1.996722   0.64676453  1070540 
 2929000   0.90170617   -1.9964781   -1.9964781   -1.3502948  0.033619361   -1.9964781   0.64618331  1070540 
 2930000   0.90272319   -1.9969087   -1.9969087   -1.3499966  0.032948936   -1.9969087   0.64691213  1070540 
 2931000   0.90164389   -1.9959905   -1.9959905   -1.3498519  0.035582222   -1.9959905   0.64613868  1070540 
 2932000   0.90124123   -1.9960366   -1.9960366   -1.3501865  0.028081415   -1.9960366   0.64585012  1070540 
 2933000   0.90139316    -1.995987    -1.995987    -1.350028   0.03177912    -1.995987     0.645959  1070540 
 2934000   0.90245295   -1.9965578   -1.9965578   -1.3498394   0.02827826   -1.9965578   0.64671847  1070540 
 2935000   0.90206398   -1.9964922   -1.9964922   -1.3500525  0.037805164   -1.9964922   0.64643972  1070540 
 2936000   0.90305253   -1.9969316   -1.9969316   -1.3497834  0.028178271   -1.9969316   0.64714814  1070540 
 2937000   0.90308681   -1.9967643   -1.9967643   -1.3495916  0.032406756   -1.9967643   0.64717271  1070540 
 2938000   0.90140203   -1.9959529   -1.9959529   -1.3499875   0.03898618   -1.9959529   0.64596535  1070540 
 2939000   0.90250826   -1.9968312   -1.9968312   -1.3500731  0.038095568   -1.9968312   0.64675811  1070540 
 2940000   0.90120984   -1.9959086   -1.9959086    -1.350081  0.036854992   -1.9959086   0.64582763  1070540 
 2941000   0.90069027    -1.995753    -1.995753   -1.3502977  0.030757248    -1.995753   0.64545529  1070540 
 2942000    0.9013293   -1.9960285   -1.9960285   -1.3501153  0.029963017   -1.9960285   0.64591323  1070540 
 2943000   0.90110463    -1.995855    -1.995855   -1.3501028  0.038262501    -1.995855   0.64575223  1070540 
 2944000    0.9008684   -1.9953822   -1.9953822   -1.3497993  0.035895655   -1.9953822   0.64558294  1070540 
 2945000   0.90061111   -1.9953786   -1.9953786     -1.34998  0.035268121   -1.9953786   0.64539856  1070540 
 2946000   0.90062456   -1.9957648   -1.9957648   -1.3503566  0.027032779   -1.9957648    0.6454082  1070540 
 2947000   0.90120777   -1.9959379   -1.9959379   -1.3501118  0.028680325   -1.9959379   0.64582615  1070540 
 2948000   0.90108956   -1.9958813   -1.9958813   -1.3501398   0.03428031   -1.9958813   0.64574143  1070540 
 2949000   0.90023778   -1.9951489   -1.9951489   -1.3500178  0.022154455   -1.9951489   0.64513103  1070540 
 2950000   0.89990863   -1.9948251   -1.9948251     -1.34993  0.026377119   -1.9948251   0.64489515  1070540 
 2951000   0.90009603   -1.9949466   -1.9949466   -1.3499171  0.036697966   -1.9949466   0.64502944  1070540 
 2952000   0.90073595    -1.995488    -1.995488        -1.35  0.025936409    -1.995488   0.64548802  1070540 
 2953000    0.9017987   -1.9959318   -1.9959318   -1.3496821  0.025183241   -1.9959318   0.64624962  1070540 
 2954000   0.89898904   -1.9940496   -1.9940496   -1.3498134  0.037322704   -1.9940496   0.64423615  1070540 
 2955000    0.9014157   -1.9959073   -1.9959073   -1.3499322  0.032028393   -1.9959073   0.64597515  1070540 
 2956000   0.90126876    -1.995332    -1.995332   -1.3494622  0.042333205    -1.995332   0.64586985  1070540 
 2957000   0.90105976   -1.9954656   -1.9954656   -1.3497455  0.029779796   -1.9954656   0.64572008  1070540 
 2958000   0.90088721   -1.9953458   -1.9953458   -1.3497494  0.019126615   -1.9953458   0.64559642  1070540 
 2959000    0.8997433   -1.9947952   -1.9947952   -1.3500185  0.040766962   -1.9947952   0.64477667  1070540 
 2960000   0.90144315   -1.9961225   -1.9961225   -1.3501277  0.032611488   -1.9961225   0.64599482  1070540 
 2961000   0.90031765   -1.9951233   -1.9951233    -1.349935  0.033859019   -1.9951233   0.64518826  1070540 
 2962000   0.90258241   -1.9965305   -1.9965305   -1.3497192  0.029857718   -1.9965305   0.64681124  1070540 
 2963000   0.90156348   -1.9962997   -1.9962997   -1.3502186  0.042581563   -1.9962997   0.64608105  1070540 
 2964000   0.90230993   -1.9968683   -1.9968683   -1.3502524  0.025432333   -1.9968683   0.64661598  1070540 
 2965000   0.90038707   -1.9952264   -1.9952264   -1.3499884  0.035265336   -1.9952264   0.64523801  1070540 
 2966000   0.90251525   -1.9966709   -1.9966709   -1.3499077  0.028498517   -1.9966709   0.64676312  1070540 
 2967000   0.90174184   -1.9961051   -1.9961051   -1.3498963  0.030657388   -1.9961051   0.64620887  1070540 
 2968000   0.90129601   -1.9960545   -1.9960545   -1.3501651  0.033217228   -1.9960545   0.64588938  1070540 
 2969000   0.90121382   -1.9963541   -1.9963541   -1.3505237  0.027658624   -1.9963541   0.64583048  1070540 
 2970000   0.90124097   -1.9958663   -1.9958663   -1.3500164  0.026706277   -1.9958663   0.64584994  1070540 
 2971000   0.90139495   -1.9958438   -1.9958438   -1.3498836   0.03749669   -1.9958438   0.64596028  1070540 
 2972000   0.90144467   -1.9959864   -1.9959864   -1.3499905  0.037715499   -1.9959864   0.64599591  1070540 
 2973000   0.90038393   -1.9954216   -1.9954216   -1.3501859   0.03073186   -1.9954216   0.64523576  1070540 
 2974000    0.8997533   -1.9950118   -1.9950118   -1.3502279  0.034428518   -1.9950118   0.64478384  1070540 
 2975000   0.89998768   -1.9953882   -1.9953882   -1.3504364  0.035201021   -1.9953882    0.6449518  1070540 
 2976000   0.89992707   -1.9957252   -1.9957252   -1.3508169  0.036879695   -1.9957252   0.64490836  1070540 
 2977000   0.90126585   -1.9964651   -1.9964651   -1.3505974  0.024894232   -1.9964651   0.64586777  1070540 
 2978000   0.90029014   -1.9955088   -1.9955088   -1.3503402  0.029177983   -1.9955088   0.64516855  1070540 
 2979000   0.90093388   -1.9960319   -1.9960319    -1.350402  0.030246919   -1.9960319   0.64562987  1070540 
 2980000   0.90063621   -1.9954914   -1.9954914   -1.3500749  0.040926673   -1.9954914   0.64541655  1070540 
 2981000   0.90116593   -1.9960957   -1.9960957   -1.3502995   0.02993146   -1.9960957   0.64579616  1070540 
 2982000   0.90135976   -1.9964878   -1.9964878   -1.3505528  0.027615996   -1.9964878   0.64593506  1070540 
 2983000   0.90056651   -1.9954178   -1.9954178   -1.3500512   0.03641801   -1.9954178    0.6453666  1070540 
 2984000   0.90181705   -1.9965317   -1.9965317   -1.3502689  0.030791679   -1.9965317   0.64626277  1070540 
 2985000   0.90260773   -1.9969486   -1.9969486   -1.3501192  0.029125104   -1.9969486   0.64682939  1070540 
 2986000   0.90189334   -1.9965685   -1.9965685    -1.350251  0.039409843   -1.9965685   0.64631744  1070540 
 2987000   0.90183813   -1.9963994   -1.9963994   -1.3501216   0.02935399   -1.9963994   0.64627787  1070540 
 2988000   0.90220278   -1.9969643   -1.9969643   -1.3504251  0.031057972   -1.9969643   0.64653919  1070540 
 2989000   0.90124901   -1.9959591   -1.9959591   -1.3501034  0.036864797   -1.9959591   0.64585569  1070540 
 2990000   0.90109633   -1.9956039   -1.9956039   -1.3498576    0.0433752   -1.9956039   0.64574628  1070540 
 2991000   0.90069762   -1.9955851   -1.9955851   -1.3501246  0.031559624   -1.9955851   0.64546056  1070540 
 2992000   0.90030521   -1.9954598   -1.9954598   -1.3502804  0.037641522   -1.9954598   0.64517935  1070540 
 2993000   0.90153071   -1.9966875   -1.9966875   -1.3506299   0.02070027   -1.9966875   0.64605757  1070540 
 2994000   0.89970404   -1.9952499   -1.9952499   -1.3505014  0.034183356   -1.9952499   0.64474854  1070540 
 2995000   0.90049875   -1.9958159   -1.9958159   -1.3504978  0.033450955   -1.9958159   0.64531804  1070540 
 2996000   0.89974473   -1.9955878   -1.9955878   -1.3508101  0.029949562   -1.9955878    0.6447777  1070540 
 2997000   0.90013867   -1.9957592   -1.9957592   -1.3506992  0.036424994   -1.9957592      0.64506  1070540 
 2998000   0.89938227   -1.9952296   -1.9952296   -1.3507116  0.032265441   -1.9952296   0.64451795  1070540 
 2999000   0.90065839   -1.9962834   -1.9962834   -1.3508509  0.031883796   -1.9962834   0.64543244  1070540 
 3000000   0.90002077   -1.9957273   -1.9957273   -1.3507518  0.027998224   -1.9957273   0.64497551  1070540 
 3001000   0.90157524    -1.996326    -1.996326   -1.3502365  0.039486482    -1.996326   0.64608948  1070540 
 3002000   0.90113577   -1.9962252   -1.9962252   -1.3504506  0.034356319   -1.9962252   0.64577455  1070540 
 3003000   0.90136192   -1.9961267   -1.9961267   -1.3501901  0.029249072   -1.9961267   0.64593661  1070540 
 3004000   0.90093495   -1.9958952   -1.9958952   -1.3502646  0.027565959   -1.9958952   0.64563063  1070540 
 3005000   0.90075564   -1.9957021   -1.9957021   -1.3501999  0.037114833   -1.9957021   0.64550213  1070540 
 3006000   0.90173315   -1.9963149   -1.9963149   -1.3501122  0.035898719   -1.9963149   0.64620264  1070540 
 3007000    0.9005063   -1.9955792   -1.9955792   -1.3502558  0.031644009   -1.9955792   0.64532346  1070540 
 3008000   0.90009304   -1.9949871   -1.9949871   -1.3499598  0.044421434   -1.9949871    0.6450273  1070540 
 3009000   0.90142155   -1.9960443   -1.9960443    -1.350065  0.037895563   -1.9960443   0.64597934  1070540 
 3010000   0.90090249   -1.9957805   -1.9957805   -1.3501732  0.035515234   -1.9957805   0.64560738  1070540 
 3011000    0.9026412   -1.9966214   -1.9966214    -1.349768  0.028878856   -1.9966214   0.64685337  1070540 
 3012000   0.90163846   -1.9958677   -1.9958677   -1.3497329  0.039531416   -1.9958677   0.64613478  1070540 
 3013000   0.90087833   -1.9958421   -1.9958421    -1.350252  0.029987889   -1.9958421   0.64559006  1070540 
 3014000   0.90178631   -1.9963247   -1.9963247   -1.3500839  0.031681101   -1.9963247   0.64624074  1070540 
 3015000   0.90088568   -1.9957949   -1.9957949   -1.3501996  0.033116282   -1.9957949   0.64559533  1070540 
 3016000   0.90147812    -1.996172    -1.996172   -1.3501521  0.030312096    -1.996172   0.64601988  1070540 
 3017000   0.90194225   -1.9963545   -1.9963545    -1.350002  0.033426907   -1.9963545   0.64635249  1070540 
 3018000   0.90183404    -1.996062    -1.996062    -1.349787   0.02953596    -1.996062   0.64627494  1070540 
 3019000   0.90075202   -1.9949673   -1.9949673   -1.3494677  0.034569886   -1.9949673   0.64549955  1070540 
 3020000   0.90106501   -1.9957489   -1.9957489   -1.3500251  0.027635594   -1.9957489   0.64572384  1070540 
 3021000   0.90195175   -1.9960214   -1.9960214   -1.3496621  0.027578336   -1.9960214    0.6463593  1070540 
 3022000   0.90319096   -1.9965788   -1.9965788   -1.3493314  0.036154181   -1.9965788   0.64724734  1070540 
 3023000   0.90226267    -1.995645    -1.995645   -1.3490629  0.038495083    -1.995645   0.64658211  1070540 
 3024000   0.90133579   -1.9950305   -1.9950305   -1.3491127  0.036772704   -1.9950305   0.64591788  1070540 
 3025000   0.90114326   -1.9955063   -1.9955063   -1.3497263  0.035205044   -1.9955063   0.64577992  1070540 
 3026000   0.90030357   -1.9945747   -1.9945747   -1.3493965  0.035091936   -1.9945747   0.64517818  1070540 
 3027000   0.90228734   -1.9957903   -1.9957903   -1.3491906  0.029148114   -1.9957903   0.64659979  1070540 
 3028000   0.90159226   -1.9950751   -1.9950751   -1.3489734  0.039595375   -1.9950751   0.64610168  1070540 
 3029000   0.90213758   -1.9957513   -1.9957513   -1.3492588  0.035854014   -1.9957513   0.64649246  1070540 
 3030000   0.90159996   -1.9951946   -1.9951946   -1.3490874   0.04128672   -1.9951946    0.6461072  1070540 
 3031000   0.90207588   -1.9955146   -1.9955146   -1.3490664  0.032613699   -1.9955146   0.64644825  1070540 
 3032000   0.90110594   -1.9948805   -1.9948805   -1.3491273  0.030203381   -1.9948805   0.64575317  1070540 
 3033000   0.90193223    -1.995304    -1.995304   -1.3489587  0.037167747    -1.995304   0.64634531  1070540 
 3034000   0.90118331   -1.9946209   -1.9946209   -1.3488123   0.03170196   -1.9946209   0.64580862  1070540 
 3035000   0.90109743     -1.99484     -1.99484    -1.349093  0.032316573     -1.99484   0.64574707  1070540 
 3036000   0.90166652   -1.9951598   -1.9951598   -1.3490049  0.028130337   -1.9951598   0.64615489  1070540 
 3037000   0.90145588   -1.9953288   -1.9953288   -1.3493249  0.031792705   -1.9953288   0.64600394  1070540 
 3038000   0.90107648   -1.9949303   -1.9949303   -1.3491982  0.030535921   -1.9949303   0.64573206  1070540 
 3039000    0.9018555   -1.9956423   -1.9956423    -1.349352  0.029157289   -1.9956423   0.64629032  1070540 
 3040000   0.90183773   -1.9954713   -1.9954713   -1.3491937  0.031189364   -1.9954713   0.64627758  1070540 
 3041000   0.89937094   -1.9937392   -1.9937392   -1.3492294  0.035296635   -1.9937392   0.64450983  1070540 
 3042000   0.90019377   -1.9943014   -1.9943014    -1.349202  0.023372703   -1.9943014   0.64509948  1070540 
 3043000   0.90240138   -1.9960241   -1.9960241   -1.3493426  0.031897046   -1.9960241   0.64668151  1070540 
 3044000   0.90211466   -1.9957144   -1.9957144   -1.3492384  0.028416367   -1.9957144   0.64647604  1070540 
 3045000   0.90095966   -1.9948348   -1.9948348   -1.3491864  0.031598772   -1.9948348   0.64564834  1070540 
 3046000   0.90199191   -1.9953083   -1.9953083   -1.3489202  0.036477883   -1.9953083   0.64638808  1070540 
 3047000   0.90244618    -1.995483    -1.995483   -1.3487693  0.038834838    -1.995483   0.64671362  1070540 
 3048000    0.9026542   -1.9956103   -1.9956103   -1.3487476  0.037086024   -1.9956103   0.64686269  1070540 
 3049000   0.90285422   -1.9954518   -1.9954518   -1.3484457  0.032596025   -1.9954518   0.64700602  1070540 
 3050000   0.90341499     -1.99624     -1.99624   -1.3488321  0.037743781     -1.99624   0.64740789  1070540 
 3051000   0.90424245   -1.9970692   -1.9970692   -1.3490684  0.026595117   -1.9970692   0.64800087  1070540 
 3052000   0.90144782   -1.9950488   -1.9950488   -1.3490506  0.034586934   -1.9950488   0.64599817  1070540 
 3053000   0.90251491   -1.9953362   -1.9953362   -1.3485733  0.041137247   -1.9953362   0.64676287  1070540 
 3054000   0.90253509   -1.9955175   -1.9955175   -1.3487402  0.031938273   -1.9955175   0.64677733  1070540 
 3055000    0.9013511   -1.9950918   -1.9950918   -1.3491629  0.031246291   -1.9950918   0.64592886  1070540 
 3056000   0.90118854   -1.9949807   -1.9949807   -1.3491683  0.028554553   -1.9949807   0.64581236  1070540 
 3057000   0.90099313   -1.9948287   -1.9948287   -1.3491564  0.030850307   -1.9948287   0.64567232  1070540 
 3058000   0.90085435   -1.9944191   -1.9944191   -1.3488463  0.034478739   -1.9944191   0.64557287  1070540 
 3059000    0.9012123   -1.9948714   -1.9948714    -1.349042   0.02742569   -1.9948714   0.64582939  1070540 
 3060000    0.9009291   -1.9946143   -1.9946143   -1.3489879  0.025938089   -1.9946143   0.64562644  1070540 
 3061000   0.90123738   -1.9950581   -1.9950581   -1.3492107  0.032059409   -1.9950581   0.64584736  1070540 
 3062000   0.90096416   -1.9948526   -1.9948526   -1.3492011  0.031254787   -1.9948526   0.64565157  1070540 
 3063000   0.90093983   -1.9945264   -1.9945264   -1.3488923  0.029629243   -1.9945264   0.64563413  1070540 
 3064000   0.89969383   -1.9941378   -1.9941378   -1.3493965  0.043865013   -1.9941378   0.64474122  1070540 
 3065000   0.90069455   -1.9945383   -1.9945383   -1.3490799  0.038864867   -1.9945383   0.64545836  1070540 
 3066000   0.90154872   -1.9947071   -1.9947071   -1.3486366    0.0361203   -1.9947071   0.64607048  1070540 
 3067000   0.90147299   -1.9949709   -1.9949709   -1.3489547  0.030036962   -1.9949709   0.64601621  1070540 
 3068000   0.90162801   -1.9950364   -1.9950364   -1.3489091  0.034146755   -1.9950364    0.6461273  1070540 
 3069000   0.90016411   -1.9938794   -1.9938794   -1.3488012  0.039105255   -1.9938794   0.64507824  1070540 
 3070000   0.90114741   -1.9942673   -1.9942673   -1.3484844  0.035667813   -1.9942673   0.64578289  1070540 
 3071000   0.90185188   -1.9945969   -1.9945969   -1.3483091  0.026702562   -1.9945969   0.64628773  1070540 
 3072000   0.90157129   -1.9945559   -1.9945559   -1.3484692  0.026879495   -1.9945559   0.64608665  1070540 
 3073000   0.90155032   -1.9946597   -1.9946597    -1.348588  0.031449885   -1.9946597   0.64607162  1070540 
 3074000   0.90210163   -1.9948257   -1.9948257    -1.348359  0.035496338   -1.9948257    0.6464667  1070540 
 3075000   0.90155894    -1.994646    -1.994646   -1.3485681  0.035980949    -1.994646    0.6460778  1070540 
 3076000    0.9017647   -1.9948036   -1.9948036   -1.3485783  0.035522173   -1.9948036   0.64622525  1070540 
 3077000   0.90160543   -1.9947727   -1.9947727   -1.3486616  0.026575362   -1.9947727   0.64611112  1070540 
 3078000   0.90068256   -1.9937518   -1.9937518    -1.348302  0.026573952   -1.9937518   0.64544976  1070540 
 3079000   0.90091291   -1.9941597   -1.9941597   -1.3485448  0.030456977   -1.9941597   0.64561484  1070540 
 3080000   0.90245413   -1.9948099   -1.9948099   -1.3480906  0.032188455   -1.9948099   0.64671931  1070540 
 3081000   0.90158435   -1.9943907   -1.9943907   -1.3482947  0.032958695   -1.9943907   0.64609601  1070540 
 3082000   0.90210314   -1.9949634   -1.9949634   -1.3484956  0.028819592   -1.9949634   0.64646778  1070540 
 3083000   0.90167114   -1.9946498   -1.9946498   -1.3484916  0.033178399   -1.9946498   0.64615821  1070540 
 3084000   0.90068815   -1.9938184   -1.9938184   -1.3483646  0.035960577   -1.9938184   0.64545377  1070540 
 3085000   0.90229715   -1.9947846   -1.9947846   -1.3481777   0.02853947   -1.9947846   0.64660682  1070540 
 3086000    0.8999182   -1.9934059   -1.9934059   -1.3485039  0.032581024   -1.9934059   0.64490201  1070540 
 3087000   0.90089072   -1.9940643   -1.9940643   -1.3484653  0.028438708   -1.9940643   0.64559894  1070540 
 3088000    0.8996828   -1.9935301   -1.9935301   -1.3487968  0.030276958   -1.9935301   0.64473331  1070540 
 3089000   0.90068507    -1.994145    -1.994145   -1.3486935  0.030120517    -1.994145   0.64545156  1070540 
 3090000   0.89981272   -1.9933545   -1.9933545   -1.3485281  0.031143177   -1.9933545   0.64482642  1070540 
 3091000   0.90058281   -1.9942937   -1.9942937   -1.3489155  0.025637203   -1.9942937   0.64537828  1070540 
 3092000   0.90027993   -1.9938553   -1.9938553   -1.3486941  0.028228686   -1.9938553   0.64516123  1070540 
 3093000   0.90252491    -1.995453    -1.995453   -1.3486829  0.029419233    -1.995453   0.64677004  1070540 
 3094000   0.90002489   -1.9942288   -1.9942288   -1.3492503  0.038744432   -1.9942288   0.64497847  1070540 
 3095000   0.90103375   -1.9947226   -1.9947226   -1.3490211  0.038761199   -1.9947226   0.64570143  1070540 
 3096000   0.90052555   -1.9944735   -1.9944735   -1.3491363   0.03248888   -1.9944735   0.64533725  1070540 
 3097000   0.90111866    -1.994557    -1.994557   -1.3487947  0.027333284    -1.994557   0.64576229  1070540 
 3098000   0.90172884   -1.9951842   -1.9951842   -1.3489846  0.035089272   -1.9951842   0.64619955  1070540 
 3099000   0.90281291   -1.9955246   -1.9955246   -1.3485482  0.032040956   -1.9955246   0.64697642  1070540 
 3100000   0.90107602   -1.9946233   -1.9946233   -1.3488916  0.032819357   -1.9946233   0.64573172  1070540 
 3101000   0.90194172    -1.995206    -1.995206   -1.3488539  0.039174729    -1.995206   0.64635211  1070540 
 3102000   0.90128268   -1.9948391   -1.9948391   -1.3489593  0.037736704   -1.9948391   0.64587983  1070540 
 3103000   0.90082982   -1.9947836   -1.9947836   -1.3492283   0.03133214   -1.9947836   0.64555529  1070540 
 3104000   0.90079417   -1.9948143   -1.9948143   -1.3492845  0.034764345   -1.9948143   0.64552975  1070540 
 3105000   0.89977709   -1.9939417   -1.9939417   -1.3491408  0.027486154   -1.9939417   0.64480088  1070540 
 3106000   0.90074492   -1.9946233   -1.9946233   -1.3491289   0.03225802   -1.9946233   0.64549445  1070540 
 3107000   0.90225666   -1.9955292   -1.9955292   -1.3489514  0.032272836   -1.9955292    0.6465778  1070540 
 3108000   0.90143527   -1.9952514   -1.9952514   -1.3492622  0.032070975   -1.9952514   0.64598918  1070540 
 3109000   0.90048447   -1.9947006   -1.9947006   -1.3493928  0.030903445   -1.9947006   0.64530781  1070540 
 3110000   0.90066129   -1.9949274   -1.9949274   -1.3494929  0.036519987   -1.9949274   0.64543452  1070540 
 3111000   0.90012053   -1.9941786   -1.9941786   -1.3491316  0.036074612   -1.9941786     0.645047  1070540 
 3112000   0.90078919   -1.9944169   -1.9944169   -1.3488907  0.028205405   -1.9944169   0.64552618  1070540 
 3113000   0.90164588   -1.9951982   -1.9951982   -1.3490581  0.032805118   -1.9951982    0.6461401  1070540 
 3114000   0.90007551    -1.994357    -1.994357   -1.3493423  0.030365495    -1.994357   0.64501474  1070540 
 3115000   0.90154215   -1.9950625   -1.9950625   -1.3489967  0.027315793   -1.9950625   0.64606576  1070540 
 3116000   0.90183081   -1.9952518   -1.9952518   -1.3489791   0.03120054   -1.9952518   0.64627263  1070540 
 3117000   0.90197547    -1.995679    -1.995679   -1.3493027  0.035017952    -1.995679    0.6463763  1070540 
 3118000   0.90261628   -1.9958523   -1.9958523   -1.3490168  0.029026636   -1.9958523   0.64683552  1070540 
 3119000   0.90282672   -1.9960077   -1.9960077   -1.3490213  0.027651088   -1.9960077   0.64698632  1070540 
 3120000   0.90324871   -1.9962253   -1.9962253   -1.3489366  0.039329233   -1.9962253   0.64728872  1070540 
 3121000    0.9030898   -1.9960111   -1.9960111   -1.3488363  0.039258124   -1.9960111   0.64717485  1070540 
 3122000   0.90336381   -1.9964063   -1.9964063    -1.349035  0.037847171   -1.9964063   0.64737121  1070540 
 3123000   0.90322079   -1.9963194   -1.9963194   -1.3490507  0.035667748   -1.9963194   0.64726872  1070540 
 3124000   0.90222086   -1.9958204   -1.9958204   -1.3492683  0.027750953   -1.9958204   0.64655215  1070540 
 3125000   0.90160259    -1.995079    -1.995079   -1.3489699   0.03256874    -1.995079   0.64610908  1070540 
 3126000   0.90109227   -1.9951812   -1.9951812   -1.3494378   0.03163218   -1.9951812   0.64574338  1070540 
 3127000   0.90164477   -1.9954476   -1.9954476   -1.3493083  0.036204028   -1.9954476   0.64613931  1070540 
 3128000   0.90097054   -1.9950673   -1.9950673   -1.3494111  0.036600713   -1.9950673   0.64565614  1070540 
 3129000    0.8998152   -1.9941878   -1.9941878   -1.3493596  0.042982128   -1.9941878   0.64482819  1070540 
 3130000   0.90093239   -1.9948979   -1.9948979   -1.3492691  0.040339879   -1.9948979    0.6456288  1070540 
 3131000    0.9004029   -1.9941626   -1.9941626   -1.3489132  0.033460172   -1.9941626   0.64524935  1070540 
 3132000    0.9000954   -1.9940469   -1.9940469   -1.3490179  0.026064566   -1.9940469   0.64502899  1070540 
 3133000   0.90023147   -1.9941603   -1.9941603   -1.3490338  0.029883644   -1.9941603   0.64512651  1070540 
 3134000   0.90001105   -1.9940389   -1.9940389   -1.3490704  0.028372569   -1.9940389   0.64496854  1070540 
 3135000   0.90064961   -1.9946369   -1.9946369   -1.3492108  0.034078203   -1.9946369   0.64542615  1070540 
 3136000   0.90101192   -1.9947723   -1.9947723   -1.3490865  0.033060802   -1.9947723    0.6456858  1070540 
 3137000   0.90053903   -1.9944273   -1.9944273   -1.3490804  0.033648086   -1.9944273   0.64534691  1070540 
 3138000   0.90120197    -1.994952    -1.994952     -1.34913  0.034177927    -1.994952   0.64582199  1070540 
 3139000   0.90085514   -1.9949474   -1.9949474    -1.349374  0.034324594   -1.9949474   0.64557344  1070540 
 3140000   0.90100406    -1.994956    -1.994956   -1.3492758  0.027611289    -1.994956   0.64568016  1070540 
 3141000   0.90185469    -1.995361    -1.995361   -1.3490713  0.039212576    -1.995361   0.64628974  1070540 
 3142000   0.90126236   -1.9951949   -1.9951949   -1.3493297   0.02964101   -1.9951949   0.64586526  1070540 
 3143000   0.90078358   -1.9945582   -1.9945582    -1.349036  0.027957429   -1.9945582   0.64552216  1070540 
 3144000   0.90167024   -1.9952797   -1.9952797   -1.3491221  0.031053641   -1.9952797   0.64615756  1070540 
 3145000   0.90094151   -1.9945297   -1.9945297   -1.3488944  0.021683155   -1.9945297   0.64563534  1070540 
 3146000   0.90127124   -1.9946847   -1.9946847   -1.3488131  0.034868521   -1.9946847   0.64587163  1070540 
 3147000   0.90048707   -1.9940856   -1.9940856    -1.348776  0.023485194   -1.9940856   0.64530967  1070540 
 3148000   0.90064596   -1.9943015   -1.9943015    -1.348878  0.032105396   -1.9943015   0.64542354  1070540 
 3149000   0.90051711   -1.9942756   -1.9942756   -1.3489444  0.031434383   -1.9942756    0.6453312  1070540 
 3150000   0.90009856   -1.9941039   -1.9941039   -1.3490726  0.033039698   -1.9941039   0.64503126  1070540 
 3151000   0.90162315   -1.9953899   -1.9953899    -1.349266  0.026934355   -1.9953899   0.64612382  1070540 
 3152000   0.90110003   -1.9950305   -1.9950305   -1.3492816  0.032935064   -1.9950305   0.64574893  1070540 
 3153000   0.90019472   -1.9945232   -1.9945232    -1.349423  0.026153186   -1.9945232   0.64510017  1070540 
 3154000   0.90195433   -1.9951734   -1.9951734   -1.3488123  0.029393054   -1.9951734   0.64636115  1070540 
 3155000   0.90093794    -1.994635    -1.994635   -1.3490023  0.040026647    -1.994635   0.64563278  1070540 
 3156000   0.90077862   -1.9947841   -1.9947841   -1.3492655  0.036651868   -1.9947841   0.64551861  1070540 
 3157000   0.90121019   -1.9947489   -1.9947489   -1.3489211  0.035219535   -1.9947489   0.64582788  1070540 
 3158000   0.90128421   -1.9954118   -1.9954118   -1.3495309  0.028966262   -1.9954118   0.64588092  1070540 
 3159000   0.90097806    -1.995225    -1.995225   -1.3495634  0.028689731    -1.995225   0.64566153  1070540 
 3160000   0.90107542   -1.9951499   -1.9951499   -1.3494186  0.028096893   -1.9951499    0.6457313  1070540 
 3161000   0.90077012   -1.9950844   -1.9950844   -1.3495719  0.029988346   -1.9950844   0.64551251  1070540 
 3162000   0.90058866   -1.9951586   -1.9951586   -1.3497761   0.03298079   -1.9951586   0.64538248  1070540 
 3163000   0.90014774   -1.9944552   -1.9944552   -1.3493887  0.037041044   -1.9944552    0.6450665  1070540 
 3164000   0.90125425   -1.9954195   -1.9954195     -1.34956  0.037926917   -1.9954195   0.64585945  1070540 
 3165000   0.90256038   -1.9964291   -1.9964291   -1.3496336  0.034644489   -1.9964291   0.64679546  1070540 
 3166000   0.90056628   -1.9949338   -1.9949338   -1.3495674  0.028701333   -1.9949338   0.64536644  1070540 
 3167000   0.90066614   -1.9953148   -1.9953148   -1.3498768  0.044106723   -1.9953148     0.645438  1070540 
 3168000   0.90088986   -1.9954056   -1.9954056   -1.3498073  0.041908763   -1.9954056   0.64559832  1070540 
 3169000   0.90158878    -1.995915    -1.995915   -1.3498158  0.035099804    -1.995915   0.64609918  1070540 
 3170000   0.89976025    -1.994921    -1.994921   -1.3501322  0.044651063    -1.994921   0.64478882  1070540 
 3171000   0.90126816    -1.996123    -1.996123   -1.3502536  0.038088206    -1.996123   0.64586942  1070540 
 3172000   0.90268627   -1.9968346   -1.9968346   -1.3499489  0.032343938   -1.9968346   0.64688567  1070540 
 3173000   0.90174588   -1.9959777   -1.9959777   -1.3497659  0.038655007   -1.9959777   0.64621177  1070540 
 3174000   0.90107808   -1.9957805   -1.9957805   -1.3500473  0.032257185   -1.9957805    0.6457332  1070540 
 3175000   0.90188475   -1.9965027   -1.9965027   -1.3501914  0.030193511   -1.9965027   0.64631128  1070540 
 3176000    0.9013463   -1.9956325   -1.9956325   -1.3497071  0.030219224   -1.9956325   0.64592541  1070540 
 3177000   0.90074351   -1.9953417   -1.9953417   -1.3498483  0.041342057   -1.9953417   0.64549345  1070540 
 3178000   0.90155161   -1.9958566   -1.9958566   -1.3497841  0.033074831   -1.9958566   0.64607255  1070540 
 3179000   0.90202536   -1.9961101   -1.9961101   -1.3496981  0.031455096   -1.9961101   0.64641205  1070540 
 3180000   0.90188489   -1.9963777   -1.9963777   -1.3500663   0.03598416   -1.9963777   0.64631138  1070540 
 3181000   0.90249284   -1.9965247   -1.9965247   -1.3497777  0.037360607   -1.9965247   0.64674705  1070540 
 3182000   0.90202197   -1.9960858   -1.9960858   -1.3496762  0.036792916   -1.9960858   0.64640961  1070540 
 3183000   0.90158932   -1.9954529   -1.9954529   -1.3493534  0.036843863   -1.9954529   0.64609957  1070540 
 3184000   0.90062834   -1.9947553   -1.9947553   -1.3493444  0.032136727   -1.9947553   0.64541091  1070540 
 3185000   0.89995285   -1.9940794   -1.9940794   -1.3491525  0.034863348   -1.9940794   0.64492684  1070540 
 3186000   0.90255461   -1.9957117   -1.9957117   -1.3489204   0.02945847   -1.9957117   0.64679132  1070540 
 3187000   0.90094683   -1.9948243   -1.9948243   -1.3491851  0.035183277   -1.9948243   0.64563915  1070540 
 3188000   0.90207876   -1.9950072   -1.9950072   -1.3485568  0.032570372   -1.9950072   0.64645032  1070540 
 3189000   0.90194324   -1.9949895   -1.9949895   -1.3486363  0.029795124   -1.9949895    0.6463532  1070540 
 3190000   0.90191218   -1.9946705   -1.9946705   -1.3483396  0.041259231   -1.9946705   0.64633094  1070540 
 3191000   0.89998325   -1.9936111   -1.9936111   -1.3486625  0.034115541   -1.9936111   0.64494862  1070540 
 3192000   0.90089537   -1.9940425   -1.9940425   -1.3484402  0.037230756   -1.9940425   0.64560227  1070540 
 3193000   0.90150243   -1.9942651   -1.9942651   -1.3482278  0.024536584   -1.9942651    0.6460373  1070540 
 3194000   0.90170195   -1.9946001   -1.9946001   -1.3484198  0.031446051   -1.9946001   0.64618028  1070540 
 3195000   0.90063867   -1.9937726   -1.9937726   -1.3483543  0.027336055   -1.9937726   0.64541832  1070540 
 3196000   0.89947489   -1.9930213   -1.9930213   -1.3484369  0.032570601   -1.9930213   0.64458432  1070540 
 3197000   0.90021812   -1.9934071   -1.9934071   -1.3482901  0.022836938   -1.9934071   0.64511694  1070540 
 3198000   0.89935479   -1.9929246   -1.9929246   -1.3484263  0.023449609   -1.9929246   0.64449826  1070540 
 3199000   0.89958723   -1.9931743   -1.9931743   -1.3485095  0.036741726   -1.9931743   0.64466483  1070540 
 3200000   0.90170191   -1.9946355   -1.9946355   -1.3484553  0.037023472   -1.9946355   0.64618025  1070540 
 3201000   0.89985114   -1.9935791   -1.9935791   -1.3487252  0.032733061   -1.9935791   0.64485395  1070540 
 3202000   0.90110395   -1.9942044   -1.9942044   -1.3484526  0.023899593   -1.9942044   0.64575174  1070540 
 3203000   0.90117961   -1.9940035   -1.9940035   -1.3481975   0.03962307   -1.9940035   0.64580596  1070540 
 3204000   0.90070197   -1.9936589   -1.9936589   -1.3481952   0.03384688   -1.9936589   0.64546367  1070540 
 3205000   0.90207792   -1.9944801   -1.9944801   -1.3480303   0.02854477   -1.9944801   0.64644971  1070540 
 3206000   0.90188711    -1.994321    -1.994321    -1.348008  0.033706133    -1.994321   0.64631297  1070540 
 3207000   0.90136387   -1.9944507   -1.9944507   -1.3485127  0.037202854   -1.9944507   0.64593801  1070540 
 3208000    0.9015362   -1.9945205   -1.9945205    -1.348459  0.035415799   -1.9945205    0.6460615  1070540 
 3209000   0.90204693   -1.9948723   -1.9948723   -1.3484448  0.036629704   -1.9948723   0.64642751  1070540 
 3210000   0.90239566   -1.9950944   -1.9950944    -1.348417  0.034334924   -1.9950944   0.64667741  1070540 
 3211000   0.90086279   -1.9939874   -1.9939874   -1.3484084  0.036228695   -1.9939874   0.64557892  1070540 
 3212000   0.90086654   -1.9941373   -1.9941373   -1.3485557  0.032923538   -1.9941373   0.64558161  1070540 
 3213000   0.90201393   -1.9948977   -1.9948977   -1.3484939  0.028918462   -1.9948977   0.64640386  1070540 
 3214000   0.90200228   -1.9944156   -1.9944156   -1.3480201  0.032548113   -1.9944156   0.64639551  1070540 
 3215000    0.9009888   -1.9938316   -1.9938316   -1.3481624  0.029713804   -1.9938316   0.64566923  1070540 
 3216000   0.89989967   -1.9935998   -1.9935998   -1.3487111  0.036771571   -1.9935998   0.64488873  1070540 
 3217000   0.90076603   -1.9943413   -1.9943413   -1.3488317  0.020828334   -1.9943413   0.64550958  1070540 
 3218000   0.89873455   -1.9930784   -1.9930784   -1.3490246  0.029335576   -1.9930784   0.64405378  1070540 
 3219000   0.89831321   -1.9928228   -1.9928228    -1.349071  0.025769837   -1.9928228   0.64375184  1070540 
 3220000   0.90003844   -1.9937607   -1.9937607   -1.3487725  0.033100051   -1.9937607   0.64498818  1070540 
 3221000   0.90145047   -1.9944377   -1.9944377   -1.3484376  0.031759298   -1.9944377   0.64600007  1070540 
 3222000   0.90164614   -1.9945954   -1.9945954   -1.3484551  0.029147077   -1.9945954   0.64614029  1070540 
 3223000   0.90059066   -1.9940897   -1.9940897   -1.3487058  0.032447857   -1.9940897   0.64538391  1070540 
 3224000    0.9008826   -1.9944149   -1.9944149   -1.3488218  0.040477811   -1.9944149   0.64559312  1070540 
 3225000   0.90177086     -1.99479     -1.99479   -1.3485603  0.029840992     -1.99479   0.64622967  1070540 
 3226000   0.90156662   -1.9940989   -1.9940989   -1.3480156  0.038488145   -1.9940989    0.6460833  1070540 
 3227000   0.90166975   -1.9945326   -1.9945326   -1.3483754  0.034964962   -1.9945326   0.64615721  1070540 
 3228000   0.90163006   -1.9943425   -1.9943425   -1.3482137  0.036619967   -1.9943425   0.64612876  1070540 
 3229000   0.90195886   -1.9946164   -1.9946164    -1.348252  0.036591315   -1.9946164   0.64636439  1070540 
 3230000    0.9029248   -1.9954691   -1.9954691   -1.3484125  0.036699483   -1.9954691   0.64705661  1070540 
 3231000   0.90079661    -1.993996    -1.993996   -1.3484645  0.045692692    -1.993996   0.64553149  1070540 
 3232000   0.90181766   -1.9947273   -1.9947273   -1.3484641  0.032348813   -1.9947273    0.6462632  1070540 
 3233000   0.90121037   -1.9939989   -1.9939989   -1.3481709  0.039932074   -1.9939989     0.645828  1070540 
 3234000   0.90112021   -1.9942305   -1.9942305   -1.3484671  0.040286881   -1.9942305   0.64576339  1070540 
 3235000   0.90068069    -1.994048    -1.994048   -1.3485995  0.029257019    -1.994048   0.64544843  1070540 
 3236000   0.90141501    -1.994597    -1.994597   -1.3486223  0.034123428    -1.994597   0.64597465  1070540 
 3237000   0.90188219   -1.9945926   -1.9945926   -1.3482831  0.026314615   -1.9945926   0.64630945  1070540 
 3238000   0.90013502   -1.9936998   -1.9936998   -1.3486424  0.029088297   -1.9936998   0.64505738  1070540 
 3239000    0.9000687   -1.9937805   -1.9937805   -1.3487706  0.033175054   -1.9937805   0.64500986  1070540 
 3240000   0.90135685   -1.9947091   -1.9947091   -1.3487761  0.027889088   -1.9947091   0.64593298  1070540 
 3241000   0.90034818   -1.9937564   -1.9937564   -1.3485463  0.032639829   -1.9937564   0.64521014  1070540 
 3242000   0.89991579   -1.9935255   -1.9935255   -1.3486252  0.031612474   -1.9935255   0.64490028  1070540 
 3243000   0.89999889    -1.993414    -1.993414   -1.3484541  0.030639265    -1.993414   0.64495983  1070540 
 3244000   0.89965872   -1.9929985   -1.9929985   -1.3482824  0.037209013   -1.9929985   0.64471606  1070540 
 3245000   0.90103981   -1.9940103   -1.9940103   -1.3483045  0.033459109   -1.9940103   0.64570578  1070540 
 3246000   0.90133794   -1.9944191   -1.9944191   -1.3484996  0.030829117   -1.9944191   0.64591943  1070540 
 3247000   0.90174047   -1.9949654   -1.9949654   -1.3487575  0.032726701   -1.9949654   0.64620789  1070540 
 3248000   0.90259254    -1.995893    -1.995893   -1.3490745  0.032592586    -1.995893    0.6468185  1070540 
 3249000   0.90233671   -1.9958844   -1.9958844   -1.3492492  0.035298443   -1.9958844   0.64663517  1070540 
 3250000   0.90243958    -1.995488    -1.995488   -1.3487791  0.029238011    -1.995488   0.64670889  1070540 
 3251000   0.90057629   -1.9942525   -1.9942525   -1.3488788  0.043011391   -1.9942525   0.64537361  1070540 
 3252000   0.90124451   -1.9946002   -1.9946002   -1.3487477  0.033041835   -1.9946002   0.64585247  1070540 
 3253000   0.90297242   -1.9956816   -1.9956816   -1.3485909  0.038514217   -1.9956816   0.64709073  1070540 
 3254000   0.90443889   -1.9964397   -1.9964397   -1.3482981  0.031892034   -1.9964397   0.64814164  1070540 
 3255000   0.90317873   -1.9959063   -1.9959063   -1.3486677  0.039689317   -1.9959063   0.64723858  1070540 
 3256000   0.90271367   -1.9955663   -1.9955663    -1.348661  0.038864243   -1.9955663    0.6469053  1070540 
 3257000   0.90247764   -1.9957014   -1.9957014   -1.3489652   0.04176713   -1.9957014   0.64673616  1070540 
 3258000   0.90195936   -1.9949271   -1.9949271   -1.3485623  0.033171246   -1.9949271   0.64636475  1070540 
 3259000   0.90109436   -1.9941538   -1.9941538   -1.3484089  0.039662649   -1.9941538   0.64574487  1070540 
 3260000    0.9010766    -1.994159    -1.994159   -1.3484268   0.02569116    -1.994159   0.64573214  1070540 
 3261000   0.90085995   -1.9939615   -1.9939615   -1.3483846   0.03367311   -1.9939615   0.64557689  1070540 
 3262000   0.89998212   -1.9931673   -1.9931673   -1.3482195  0.031189482   -1.9931673   0.64494781  1070540 
 3263000   0.89915719   -1.9926351   -1.9926351   -1.3482785  0.032084066   -1.9926351   0.64435665  1070540 
 3264000   0.90122738   -1.9933199   -1.9933199   -1.3474797   0.03714911   -1.9933199    0.6458402  1070540 
 3265000   0.90112843   -1.9936647   -1.9936647   -1.3478954   0.03155893   -1.9936647   0.64576928  1070540 
 3266000   0.90198386   -1.9941927   -1.9941927   -1.3478104  0.035320943   -1.9941927   0.64638231  1070540 
 3267000   0.90199684   -1.9941458   -1.9941458   -1.3477542  0.030197627   -1.9941458   0.64639161  1070540 
 3268000   0.90090351   -1.9938529   -1.9938529   -1.3482448    0.0330775   -1.9938529    0.6456081  1070540 
 3269000   0.90020155   -1.9932332   -1.9932332   -1.3481281  0.037401624   -1.9932332   0.64510506  1070540 
 3270000   0.90172784   -1.9941974   -1.9941974   -1.3479986  0.028605645   -1.9941974   0.64619884  1070540 
 3271000   0.90145404   -1.9938441   -1.9938441   -1.3478415  0.034803334   -1.9938441   0.64600262  1070540 
 3272000    0.9020939   -1.9943731   -1.9943731    -1.347912  0.028755538   -1.9943731   0.64646117  1070540 
 3273000   0.90112724   -1.9936696   -1.9936696   -1.3479011  0.034026341   -1.9936696   0.64576843  1070540 
 3274000   0.90253643   -1.9950064   -1.9950064   -1.3482281  0.028910564   -1.9950064   0.64677829  1070540 
 3275000   0.90223575    -1.994603    -1.994603   -1.3480402  0.032851682    -1.994603   0.64656282  1070540 
 3276000   0.90318251   -1.9949685   -1.9949685   -1.3477272   0.04081343   -1.9949685   0.64724129  1070540 
 3277000   0.90341035    -1.995148    -1.995148   -1.3477434  0.028922319    -1.995148   0.64740456  1070540 
 3278000    0.9021073    -1.994416    -1.994416   -1.3479452  0.034890926    -1.994416   0.64647077  1070540 
 3279000   0.90120363   -1.9940111   -1.9940111   -1.3481879  0.042327106   -1.9940111   0.64582318  1070540 
 3280000   0.90116649   -1.9942683   -1.9942683   -1.3484717  0.024785357   -1.9942683   0.64579656  1070540 
 3281000   0.90183856   -1.9947303   -1.9947303   -1.3484521  0.036965417   -1.9947303   0.64627818  1070540 
 3282000   0.90091902   -1.9940717   -1.9940717   -1.3484524  0.022506098   -1.9940717   0.64561922  1070540 
 3283000   0.90037025   -1.9934636   -1.9934636   -1.3482376  0.039585835   -1.9934636   0.64522596  1070540 
 3284000   0.89944309   -1.9932893   -1.9932893   -1.3487278  0.031622823   -1.9932893   0.64456153  1070540 
 3285000   0.90080706   -1.9940373   -1.9940373   -1.3484983  0.034830296   -1.9940373   0.64553899  1070540 
 3286000    0.9004128   -1.9936246   -1.9936246   -1.3483681  0.031395653   -1.9936246   0.64525645  1070540 
 3287000   0.90077148   -1.9937757   -1.9937757   -1.3482622  0.032042642   -1.9937757   0.64551349  1070540 
 3288000   0.90129853    -1.993995    -1.993995   -1.3481038  0.034298875    -1.993995   0.64589118  1070540 
 3289000   0.90271927   -1.9951176   -1.9951176   -1.3482083  0.033518453   -1.9951176   0.64690932  1070540 
 3290000    0.9033547   -1.9955689   -1.9955689   -1.3482042  0.030588936   -1.9955689   0.64736468  1070540 
 3291000   0.90200152   -1.9942906   -1.9942906   -1.3478956  0.038123047   -1.9942906   0.64639496  1070540 
 3292000   0.90248982    -1.994453    -1.994453   -1.3477081  0.035446599    -1.994453   0.64674489  1070540 
 3293000   0.90217725   -1.9940471   -1.9940471   -1.3475262     0.026441   -1.9940471   0.64652089  1070540 
 3294000   0.90162049    -1.994132    -1.994132   -1.3480101  0.032633883    -1.994132   0.64612191  1070540 
 3295000   0.90129293   -1.9937377   -1.9937377   -1.3478506   0.03662097   -1.9937377   0.64588717  1070540 
 3296000   0.90174202   -1.9938657   -1.9938657   -1.3476567  0.033222388   -1.9938657     0.646209  1070540 
 3297000   0.90121089   -1.9937997   -1.9937997   -1.3479713  0.034940123   -1.9937997   0.64582838  1070540 
 3298000   0.90262888   -1.9949214   -1.9949214   -1.3480769  0.034554779   -1.9949214   0.64684455  1070540 
 3299000   0.90182443   -1.9941523   -1.9941523   -1.3478843  0.040881691   -1.9941523   0.64626805  1070540 
 3300000   0.90100456    -1.993806    -1.993806   -1.3481255  0.039800338    -1.993806   0.64568052  1070540 
 3301000   0.90226828   -1.9944158   -1.9944158   -1.3478297  0.032819191   -1.9944158   0.64658613  1070540 
 3302000   0.90112859   -1.9938051   -1.9938051   -1.3480357  0.037335031   -1.9938051    0.6457694  1070540 
 3303000   0.90095765   -1.9934644   -1.9934644   -1.3478175  0.047344063   -1.9934644    0.6456469  1070540 
 3304000    0.9020272   -1.9943066   -1.9943066   -1.3478932  0.035211666   -1.9943066   0.64641337  1070540 
 3305000   0.90276472   -1.9947613   -1.9947613   -1.3478194   0.03068755   -1.9947613   0.64694189  1070540 
 3306000    0.9011588   -1.9934886   -1.9934886   -1.3476975  0.036973054   -1.9934886   0.64579105  1070540 
 3307000    0.9018034   -1.9940494   -1.9940494   -1.3477964  0.036612518   -1.9940494   0.64625298  1070540 
 3308000   0.90200588   -1.9942708   -1.9942708   -1.3478727  0.035999296   -1.9942708   0.64639808  1070540 
 3309000   0.90043695   -1.9933329   -1.9933329   -1.3480591   0.03381424   -1.9933329   0.64527376  1070540 
 3310000   0.89878428   -1.9923846   -1.9923846   -1.3482952  0.035785388   -1.9923846   0.64408941  1070540 
 3311000   0.90058733   -1.9933066   -1.9933066    -1.347925  0.036818339   -1.9933066   0.64538152  1070540 
 3312000   0.89908327   -1.9920764   -1.9920764   -1.3477727  0.038591648   -1.9920764   0.64430368  1070540 
 3313000   0.90008584   -1.9932785   -1.9932785   -1.3482563  0.037711096   -1.9932785   0.64502214  1070540 
 3314000   0.89989391   -1.9929825   -1.9929825   -1.3480979   0.03670014   -1.9929825    0.6448846  1070540 
 3315000   0.90197595   -1.9946081   -1.9946081   -1.3482315  0.023038687   -1.9946081   0.64637664  1070540 
 3316000   0.90043889    -1.993619    -1.993619   -1.3483438  0.042294293    -1.993619   0.64527515  1070540 
 3317000   0.90091505   -1.9938612   -1.9938612   -1.3482449  0.036272815   -1.9938612   0.64561638  1070540 
 3318000   0.90262728   -1.9947312   -1.9947312   -1.3478878  0.035832245   -1.9947312   0.64684339  1070540 
 3319000   0.90210227   -1.9950062   -1.9950062   -1.3485391  0.020284818   -1.9950062   0.64646716  1070540 
 3320000   0.90098468   -1.9938291   -1.9938291   -1.3481628   0.03602965   -1.9938291   0.64566627  1070540 
 3321000   0.90187351   -1.9944331   -1.9944331   -1.3481299  0.032439093   -1.9944331   0.64630323  1070540 
 3322000    0.9019212   -1.9945268   -1.9945268   -1.3481894  0.035240369   -1.9945268    0.6463374  1070540 
 3323000   0.90327208   -1.9955023   -1.9955023   -1.3481968   0.03360048   -1.9955023   0.64730547  1070540 
 3324000   0.90172453   -1.9945542   -1.9945542   -1.3483577  0.030365839   -1.9945542   0.64619646  1070540 
 3325000   0.90089226   -1.9937876   -1.9937876   -1.3481875  0.033922923   -1.9937876   0.64560004  1070540 
 3326000   0.90167388   -1.9943521   -1.9943521    -1.348192  0.035426946   -1.9943521   0.64616017  1070540 
 3327000   0.90144525   -1.9943203   -1.9943203   -1.3483239  0.041898046   -1.9943203   0.64599633  1070540 
 3328000   0.90140414   -1.9939682   -1.9939682   -1.3480014  0.035402672   -1.9939682   0.64596687  1070540 
 3329000   0.90055563   -1.9936642   -1.9936642   -1.3483054  0.036087473   -1.9936642   0.64535881  1070540 
 3330000   0.90068929   -1.9938252   -1.9938252   -1.3483706   0.03461762   -1.9938252   0.64545459  1070540 
 3331000   0.90155033   -1.9944575   -1.9944575   -1.3483858  0.032530874   -1.9944575   0.64607163  1070540 
 3332000   0.90103572   -1.9937508   -1.9937508   -1.3480479  0.034959581   -1.9937508   0.64570285  1070540 
 3333000   0.90117972   -1.9938693   -1.9938693   -1.3480632  0.034923811   -1.9938693   0.64580604  1070540 
 3334000   0.90112066   -1.9938475   -1.9938475   -1.3480837  0.034339527   -1.9938475   0.64576372  1070540 
 3335000   0.90040533   -1.9931568   -1.9931568   -1.3479057  0.036837129   -1.9931568    0.6452511  1070540 
 3336000   0.90062813   -1.9930763   -1.9930763   -1.3476656  0.036193351   -1.9930763   0.64541076  1070540 
 3337000   0.90232248   -1.9943328   -1.9943328   -1.3477078  0.027023013   -1.9943328   0.64662497  1070540 
 3338000    0.9004367   -1.9931366   -1.9931366   -1.3478631  0.035260833   -1.9931366   0.64527358  1070540 
 3339000   0.90162683   -1.9939806   -1.9939806   -1.3478541  0.030089382   -1.9939806   0.64612645  1070540 
 3340000   0.90074457    -1.993504    -1.993504   -1.3480098  0.025440329    -1.993504   0.64549421  1070540 
 3341000   0.90074119   -1.9934826   -1.9934826   -1.3479908   0.03304981   -1.9934826   0.64549178  1070540 
 3342000    0.9005477   -1.9933541   -1.9933541    -1.348001  0.042115489   -1.9933541   0.64535312  1070540 
 3343000    0.9015989   -1.9941618   -1.9941618   -1.3480554   0.03426559   -1.9941618   0.64610644  1070540 
 3344000   0.90113604   -1.9938791   -1.9938791   -1.3481044  0.029086548   -1.9938791   0.64577474  1070540 
 3345000   0.90166083   -1.9949707   -1.9949707   -1.3488199  0.031416195   -1.9949707   0.64615082  1070540 
 3346000   0.90148448    -1.994764    -1.994764   -1.3487396  0.035901326    -1.994764   0.64602444  1070540 
 3347000   0.90104691   -1.9942958   -1.9942958   -1.3485849  0.033855123   -1.9942958   0.64571087  1070540 
 3348000   0.90201791   -1.9943735   -1.9943735   -1.3479668  0.037713799   -1.9943735   0.64640671  1070540 
 3349000   0.90297447   -1.9949393   -1.9949393   -1.3478471  0.033650763   -1.9949393    0.6470922  1070540 
 3350000   0.90188324    -1.994294    -1.994294   -1.3479838  0.035050578    -1.994294    0.6463102  1070540 
 3351000   0.90159047    -1.994389    -1.994389   -1.3482886   0.04177627    -1.994389   0.64610039  1070540 
 3352000   0.90100559   -1.9939978   -1.9939978   -1.3483166  0.039543813   -1.9939978   0.64568126  1070540 
 3353000   0.90192366   -1.9948807   -1.9948807   -1.3485416  0.029210601   -1.9948807   0.64633917  1070540 
 3354000   0.90228018   -1.9952305   -1.9952305   -1.3486358  0.030408339   -1.9952305   0.64659466  1070540 
 3355000   0.90142465   -1.9941282   -1.9941282   -1.3481466   0.04008561   -1.9941282   0.64598156  1070540 
 3356000   0.90191405   -1.9948231   -1.9948231   -1.3484908  0.028309958   -1.9948231   0.64633228  1070540 
 3357000   0.90173086   -1.9945476   -1.9945476   -1.3483466  0.033322357   -1.9945476     0.646201  1070540 
 3358000   0.90098116   -1.9942438   -1.9942438   -1.3485801  0.032915643   -1.9942438   0.64566375  1070540 
 3359000   0.90001907   -1.9933883   -1.9933883    -1.348414  0.033219437   -1.9933883   0.64497429  1070540 
 3360000   0.90132561   -1.9941593   -1.9941593   -1.3482487  0.031964523   -1.9941593   0.64591059  1070540 
 3361000   0.90007577   -1.9935508   -1.9935508   -1.3485359  0.033648358   -1.9935508   0.64501492  1070540 
 3362000   0.90076174   -1.9938102   -1.9938102   -1.3483037    0.0366746   -1.9938102   0.64550651  1070540 
 3363000   0.90078501    -1.993983    -1.993983   -1.3484598  0.041196184    -1.993983   0.64552318  1070540 
 3364000   0.90099198   -1.9941724   -1.9941724   -1.3485009  0.027838948   -1.9941724    0.6456715  1070540 
 3365000   0.90181586   -1.9948157   -1.9948157   -1.3485538  0.030254357   -1.9948157   0.64626191  1070540 
 3366000   0.90065481   -1.9940369   -1.9940369    -1.348607  0.034414293   -1.9940369   0.64542988  1070540 
 3367000   0.90125738   -1.9942409   -1.9942409   -1.3483792  0.028548178   -1.9942409   0.64586169  1070540 
 3368000   0.90092582   -1.9942438   -1.9942438   -1.3486197   0.03772089   -1.9942438   0.64562409  1070540 
 3369000   0.90144659   -1.9947092   -1.9947092   -1.3487119  0.034358132   -1.9947092   0.64599729  1070540 
 3370000   0.90066929   -1.9942944   -1.9942944   -1.3488541  0.034115001   -1.9942944   0.64544026  1070540 
 3371000   0.90106388   -1.9941833   -1.9941833   -1.3484603  0.027485061   -1.9941833   0.64572303  1070540 
 3372000   0.90127504   -1.9941874   -1.9941874    -1.348313  0.040526373   -1.9941874   0.64587435  1070540 
 3373000   0.89989769   -1.9936364   -1.9936364   -1.3487491  0.038957799   -1.9936364   0.64488731  1070540 
 3374000   0.90213892   -1.9953176   -1.9953176   -1.3488242  0.030021576   -1.9953176   0.64649343  1070540 
 3375000   0.90134283   -1.9946505   -1.9946505   -1.3487276  0.038018514   -1.9946505   0.64592293  1070540 
 3376000    0.9027614   -1.9959072   -1.9959072   -1.3489677  0.029235703   -1.9959072   0.64693951  1070540 
 3377000   0.90087177   -1.9947764   -1.9947764    -1.349191  0.046310488   -1.9947764   0.64558536  1070540 
 3378000   0.90121051   -1.9950641   -1.9950641    -1.349236  0.039603267   -1.9950641   0.64582811  1070540 
 3379000   0.90077367   -1.9947654   -1.9947654   -1.3492503  0.036370712   -1.9947654   0.64551505  1070540 
 3380000   0.90032082   -1.9942779   -1.9942779   -1.3490874  0.032969624   -1.9942779   0.64519054  1070540 
 3381000    0.9012734   -1.9949587   -1.9949587   -1.3490856  0.038176927   -1.9949587   0.64587317  1070540 
 3382000   0.90062354   -1.9943436   -1.9943436   -1.3489361  0.035782702   -1.9943436   0.64540747  1070540 
 3383000   0.90205481   -1.9952634   -1.9952634   -1.3488303  0.031142079   -1.9952634   0.64643315  1070540 
 3384000   0.89961073   -1.9933166   -1.9933166   -1.3486349    0.0394764   -1.9933166   0.64468167  1070540 
 3385000   0.90266762   -1.9955511   -1.9955511   -1.3486788  0.036295755   -1.9955511   0.64687231  1070540 
 3386000   0.90082831   -1.9936909   -1.9936909   -1.3481367  0.035471131   -1.9936909   0.64555422  1070540 
 3387000   0.90240479   -1.9947124   -1.9947124   -1.3480284  0.035034908   -1.9947124   0.64668396  1070540 
 3388000   0.90298311   -1.9951772   -1.9951772   -1.3480788  0.036734274   -1.9951772   0.64709839  1070540 
 3389000   0.90144442   -1.9942278   -1.9942278   -1.3482321  0.039081295   -1.9942278   0.64599573  1070540 
 3390000   0.90099112   -1.9941613   -1.9941613   -1.3484904  0.029762179   -1.9941613   0.64567089  1070540 
 3391000   0.90075212   -1.9939023   -1.9939023   -1.3484027  0.030623993   -1.9939023   0.64549962  1070540 
 3392000    0.8992979   -1.9929208   -1.9929208   -1.3484633   0.02519773   -1.9929208   0.64445749  1070540 
 3393000   0.89992343   -1.9933892   -1.9933892   -1.3484835  0.040559998   -1.9933892   0.64490575  1070540 
 3394000   0.90095034   -1.9942162   -1.9942162   -1.3485745  0.026963102   -1.9942162   0.64564166  1070540 
 3395000   0.90091967   -1.9944267   -1.9944267    -1.348807  0.029148125   -1.9944267   0.64561968  1070540 
 3396000   0.90054526   -1.9937222   -1.9937222   -1.3483708  0.027704024   -1.9937222   0.64535137  1070540 
 3397000   0.89990093   -1.9933987   -1.9933987   -1.3485091   0.03235711   -1.9933987   0.64488963  1070540 
 3398000   0.90126469   -1.9942802   -1.9942802   -1.3484133  0.033236245   -1.9942802   0.64586693  1070540 
 3399000   0.89976825    -1.993587    -1.993587   -1.3487925  0.034437256    -1.993587   0.64479455  1070540 
 3400000    0.9006013   -1.9944089   -1.9944089   -1.3490174  0.031114142   -1.9944089   0.64539154  1070540 
 3401000   0.90068876   -1.9945059   -1.9945059   -1.3490517  0.034739003   -1.9945059   0.64545421  1070540 
 3402000   0.90009819   -1.9938816   -1.9938816   -1.3488506  0.039281527   -1.9938816   0.64503099  1070540 
 3403000   0.90148869     -1.99493     -1.99493   -1.3489025  0.029683737     -1.99493   0.64602745  1070540 
 3404000   0.90118746   -1.9945538   -1.9945538   -1.3487422  0.031692284   -1.9945538   0.64581159  1070540 
 3405000   0.90099064   -1.9945836   -1.9945836   -1.3489131  0.038703484   -1.9945836   0.64567054  1070540 
 3406000   0.90201321   -1.9957164   -1.9957164   -1.3493131  0.025681916   -1.9957164   0.64640334  1070540 
 3407000   0.90139909    -1.994636    -1.994636   -1.3486728  0.034236545    -1.994636   0.64596325  1070540 
 3408000   0.90257075   -1.9955192   -1.9955192   -1.3487163  0.042003118   -1.9955192   0.64680289  1070540 
 3409000   0.90216795   -1.9953223   -1.9953223   -1.3488081   0.02847669   -1.9953223   0.64651423  1070540 
 3410000   0.90320477   -1.9960193   -1.9960193   -1.3487621  0.032308235   -1.9960193   0.64725724  1070540 
 3411000   0.90189316   -1.9952507   -1.9952507   -1.3489334  0.032484531   -1.9952507   0.64631731  1070540 
 3412000   0.90142353   -1.9947404   -1.9947404   -1.3487596  0.032929176   -1.9947404   0.64598076  1070540 
 3413000   0.89936707   -1.9931723   -1.9931723   -1.3486652  0.025475953   -1.9931723   0.64450706  1070540 
 3414000   0.90062986   -1.9937464   -1.9937464   -1.3483344  0.029123893   -1.9937464     0.645412  1070540 
 3415000    0.9011694   -1.9940533   -1.9940533   -1.3482547  0.032708483   -1.9940533   0.64579865  1070540 
 3416000   0.90246803   -1.9952915   -1.9952915   -1.3485622  0.030670208   -1.9952915   0.64672927  1070540 
 3417000   0.90118901   -1.9947328   -1.9947328   -1.3489201  0.031299876   -1.9947328    0.6458127  1070540 
 3418000   0.90080783   -1.9941939   -1.9941939   -1.3486543  0.042348686   -1.9941939   0.64553954  1070540 
 3419000    0.9009847   -1.9941055   -1.9941055   -1.3484392  0.034711753   -1.9941055   0.64566629  1070540 
 3420000   0.90037936   -1.9938285   -1.9938285    -1.348596  0.030815528   -1.9938285   0.64523249  1070540 
 3421000   0.89911623   -1.9933098   -1.9933098   -1.3489825  0.027360748   -1.9933098    0.6443273  1070540 
 3422000    0.9012944   -1.9942602   -1.9942602    -1.348372   0.02522304   -1.9942602   0.64588823  1070540 
 3423000   0.89958478   -1.9934927   -1.9934927   -1.3488296   0.03889615   -1.9934927   0.64466307  1070540 
 3424000   0.90036075   -1.9937924   -1.9937924   -1.3485732  0.026217703   -1.9937924   0.64521915  1070540 
 3425000   0.90020115   -1.9941586   -1.9941586   -1.3490538    0.0329689   -1.9941586   0.64510478  1070540 
 3426000   0.90004026   -1.9942091   -1.9942091   -1.3492197  0.031439681   -1.9942091   0.64498948  1070540 
 3427000   0.90007618   -1.9944634   -1.9944634   -1.3494482  0.029747978   -1.9944634   0.64501522  1070540 
 3428000   0.90123714   -1.9947762   -1.9947762    -1.348929  0.031109146   -1.9947762   0.64584719  1070540 
 3429000   0.90060205   -1.9944866   -1.9944866   -1.3490946  0.035941513   -1.9944866   0.64539207  1070540 
 3430000   0.89980013   -1.9937402   -1.9937402   -1.3489228  0.027648069   -1.9937402   0.64481739  1070540 
 3431000   0.90204447   -1.9950236   -1.9950236   -1.3485979  0.031163297   -1.9950236   0.64642574  1070540 
 3432000   0.90083123   -1.9941563   -1.9941563      -1.3486   0.03591148   -1.9941563    0.6455563  1070540 
 3433000   0.90182902     -1.99474     -1.99474   -1.3484687  0.039686999     -1.99474   0.64627135  1070540 
 3434000   0.90178002   -1.9947831   -1.9947831   -1.3485468  0.029398932   -1.9947831   0.64623623  1070540 
 3435000   0.90171845   -1.9948745   -1.9948745   -1.3486824  0.032210832   -1.9948745   0.64619211  1070540 
 3436000   0.90179499   -1.9950115   -1.9950115   -1.3487645  0.039786839   -1.9950115   0.64624696  1070540 
 3437000   0.90095945   -1.9948727   -1.9948727   -1.3492245  0.036171763   -1.9948727   0.64564819  1070540 
 3438000   0.89987258   -1.9940561   -1.9940561   -1.3491868  0.034612728   -1.9940561   0.64486932  1070540 
 3439000   0.90007669   -1.9937639   -1.9937639   -1.3487483   0.03563998   -1.9937639   0.64501558  1070540 
 3440000   0.90102638   -1.9945736   -1.9945736   -1.3488775  0.033177532   -1.9945736   0.64569615  1070540 
 3441000   0.89972674    -1.993593    -1.993593   -1.3488282   0.02682121    -1.993593   0.64476481  1070540 
 3442000    0.9014258   -1.9945437   -1.9945437   -1.3485613  0.027376033   -1.9945437   0.64598238  1070540 
 3443000   0.90087424   -1.9942435   -1.9942435   -1.3486564  0.034884677   -1.9942435   0.64558713  1070540 
 3444000   0.90038596   -1.9937025   -1.9937025   -1.3484652  0.038318356   -1.9937025   0.64523722  1070540 
 3445000   0.89923212   -1.9930615   -1.9930615   -1.3486512  0.038111865   -1.9930615   0.64441035  1070540 
 3446000   0.90117482   -1.9946502   -1.9946502   -1.3488477  0.023683105   -1.9946502   0.64580253  1070540 
 3447000   0.90031669    -1.993836    -1.993836   -1.3486484  0.033752909    -1.993836   0.64518758  1070540 
 3448000   0.90074826   -1.9944219   -1.9944219   -1.3489251  0.035095227   -1.9944219   0.64549685  1070540 
 3449000    0.9017471   -1.9948399   -1.9948399   -1.3486273  0.033153535   -1.9948399   0.64621264  1070540 
 3450000   0.90139466   -1.9944727   -1.9944727   -1.3485126  0.027850586   -1.9944727   0.64596007  1070540 
 3451000   0.89997641   -1.9931686   -1.9931686   -1.3482249  0.031940803   -1.9931686   0.64494372  1070540 
 3452000   0.90097696   -1.9943244   -1.9943244   -1.3486637  0.027846525   -1.9943244   0.64566074  1070540 
 3453000   0.90132069   -1.9941896   -1.9941896   -1.3482826   0.03124531   -1.9941896   0.64590706  1070540 
 3454000   0.90175004   -1.9947265   -1.9947265   -1.3485117  0.031499643   -1.9947265   0.64621474  1070540 
 3455000   0.90250319   -1.9948784   -1.9948784   -1.3481239  0.032900527   -1.9948784   0.64675447  1070540 
 3456000   0.90218712   -1.9947441   -1.9947441   -1.3482162  0.031115643   -1.9947441   0.64652797  1070540 
 3457000   0.90283255   -1.9956782   -1.9956782   -1.3486877  0.029881332   -1.9956782    0.6469905  1070540 
 3458000   0.90224476   -1.9951081   -1.9951081   -1.3485388  0.033825528   -1.9951081   0.64656928  1070540 
 3459000   0.90308753   -1.9957364   -1.9957364   -1.3485631  0.036203029   -1.9957364   0.64717322  1070540 
 3460000   0.90179249   -1.9948885   -1.9948885   -1.3486434  0.030674999   -1.9948885   0.64624516  1070540 
 3461000   0.90098043   -1.9938229   -1.9938229   -1.3481597  0.042001742   -1.9938229   0.64566323  1070540 
 3462000   0.90240447   -1.9946735   -1.9946735   -1.3479898  0.028060941   -1.9946735   0.64668372  1070540 
 3463000   0.90092178   -1.9939487   -1.9939487   -1.3483275  0.032059505   -1.9939487   0.64562119  1070540 
 3464000   0.90094455   -1.9936287   -1.9936287   -1.3479912  0.034409205   -1.9936287   0.64563751  1070540 
 3465000   0.90197256   -1.9943234   -1.9943234   -1.3479492  0.028408287   -1.9943234   0.64637421  1070540 
 3466000    0.9012338   -1.9937178   -1.9937178    -1.347873  0.034372133   -1.9937178   0.64584479  1070540 
 3467000   0.90103113   -1.9935075   -1.9935075   -1.3478079  0.028260287   -1.9935075   0.64569956  1070540 
 3468000   0.90086808   -1.9932064   -1.9932064   -1.3476237  0.035431396   -1.9932064   0.64558271  1070540 
 3469000    0.9024274    -1.994332    -1.994332   -1.3476318  0.024929732    -1.994332   0.64670016  1070540 
 3470000   0.90152828   -1.9936026   -1.9936026   -1.3475467  0.034066888   -1.9936026   0.64605583  1070540 
 3471000   0.90102091   -1.9933091   -1.9933091   -1.3476169  0.026597881   -1.9933091   0.64569223  1070540 
 3472000   0.90066113   -1.9930929   -1.9930929   -1.3476585  0.029216387   -1.9930929   0.64543441  1070540 
 3473000   0.90054808   -1.9929376   -1.9929376   -1.3475842  0.032588557   -1.9929376   0.64535339  1070540 
 3474000   0.90057899   -1.9932561   -1.9932561   -1.3478806  0.033999885   -1.9932561   0.64537554  1070540 
 3475000    0.9008672   -1.9934129   -1.9934129   -1.3478308  0.030865321   -1.9934129   0.64558208  1070540 
 3476000   0.90173214   -1.9935893   -1.9935893   -1.3473874  0.029242901   -1.9935893   0.64620192  1070540 
 3477000   0.90079982   -1.9922448   -1.9922448    -1.346711  0.031800241   -1.9922448    0.6455338  1070540 
 3478000   0.90110612   -1.9926267   -1.9926267   -1.3468734  0.033267546   -1.9926267    0.6457533  1070540 
 3479000   0.90244931   -1.9935844   -1.9935844   -1.3468685  0.043195113   -1.9935844   0.64671586  1070540 
 3480000   0.90181419   -1.9931963   -1.9931963   -1.3469356  0.039642103   -1.9931963   0.64626072  1070540 
 3481000   0.90187471    -1.993802    -1.993802   -1.3474979  0.035071156    -1.993802   0.64630409  1070540 
 3482000   0.90256188   -1.9942131   -1.9942131   -1.3474166   0.03803111   -1.9942131   0.64679653  1070540 
 3483000   0.90276009    -1.994667    -1.994667   -1.3477284  0.034855979    -1.994667   0.64693857  1070540 
 3484000   0.90104164   -1.9930833   -1.9930833   -1.3473762  0.040122715   -1.9930833   0.64570709  1070540 
 3485000   0.90140731   -1.9933455   -1.9933455   -1.3473764   0.02853644   -1.9933455   0.64596914  1070540 
 3486000   0.90215636    -1.993819    -1.993819   -1.3473131  0.034136346    -1.993819   0.64650593  1070540 
 3487000   0.90242164   -1.9941717   -1.9941717   -1.3474757  0.038075571   -1.9941717   0.64669603  1070540 
 3488000   0.90160552   -1.9936655   -1.9936655   -1.3475543  0.032423339   -1.9936655   0.64611118  1070540 
 3489000     0.902761   -1.9943949   -1.9943949   -1.3474557  0.034874173   -1.9943949   0.64693922  1070540 
 3490000   0.90341437   -1.9945673   -1.9945673   -1.3471599  0.034508732   -1.9945673   0.64740745  1070540 
 3491000   0.90118738   -1.9933246   -1.9933246    -1.347513  0.032972041   -1.9933246   0.64581153  1070540 
 3492000   0.90109407   -1.9933434   -1.9933434   -1.3475987  0.028622597   -1.9933434   0.64574466  1070540 
 3493000   0.90129402   -1.9934799   -1.9934799   -1.3475919   0.02609053   -1.9934799   0.64588795  1070540 
 3494000   0.90111687   -1.9934699   -1.9934699   -1.3477089  0.029628953   -1.9934699     0.645761  1070540 
 3495000    0.9011829   -1.9933252   -1.9933252   -1.3475169  0.023624567   -1.9933252   0.64580832  1070540 
 3496000   0.90200152   -1.9938979   -1.9938979    -1.347503  0.029015543   -1.9938979   0.64639497  1070540 
 3497000   0.90202766   -1.9936405   -1.9936405   -1.3472268  0.033051523   -1.9936405   0.64641369  1070540 
 3498000   0.90123213    -1.993437    -1.993437   -1.3475934  0.032733081    -1.993437    0.6458436  1070540 
 3499000     0.900928   -1.9929813   -1.9929813   -1.3473556  0.027777793   -1.9929813   0.64562566  1070540 
 3500000   0.90202107   -1.9938284   -1.9938284   -1.3474195  0.037558711   -1.9938284   0.64640898  1070540 
 3501000   0.90146631   -1.9932401   -1.9932401   -1.3472287  0.037034994   -1.9932401   0.64601142  1070540 
 3502000    0.9021058   -1.9941223   -1.9941223   -1.3476526  0.034434351   -1.9941223    0.6464697  1070540 
 3503000   0.90218513   -1.9944042   -1.9944042   -1.3478776  0.033555975   -1.9944042   0.64652654  1070540 
 3504000   0.90182107   -1.9942552   -1.9942552   -1.3479896  0.030636115   -1.9942552   0.64626565  1070540 
 3505000   0.90196669   -1.9948122   -1.9948122   -1.3484422  0.031874463   -1.9948122      0.64637  1070540 
 3506000   0.90168206   -1.9944259   -1.9944259   -1.3482598  0.037058095   -1.9944259   0.64616603  1070540 
 3507000   0.90103124   -1.9940736   -1.9940736    -1.348374  0.031211428   -1.9940736   0.64569964  1070540 
 3508000   0.90182416   -1.9944085   -1.9944085   -1.3481407  0.030503088   -1.9944085   0.64626786  1070540 
 3509000   0.90172699   -1.9941726   -1.9941726   -1.3479744  0.035799281   -1.9941726   0.64619823  1070540 
 3510000   0.90153153   -1.9942452   -1.9942452    -1.348187  0.024505671   -1.9942452   0.64605816  1070540 
 3511000   0.90150353   -1.9936601   -1.9936601    -1.347622  0.031930103   -1.9936601   0.64603809  1070540 
 3512000   0.90127216   -1.9939124   -1.9939124   -1.3480401  0.032137284   -1.9939124   0.64587228  1070540 
 3513000   0.90250263   -1.9944997   -1.9944997   -1.3477456  0.040495652   -1.9944997   0.64675407  1070540 
 3514000   0.90137161   -1.9937718   -1.9937718   -1.3478283  0.036348749   -1.9937718   0.64594356  1070540 
 3515000   0.90181481   -1.9941346   -1.9941346   -1.3478734  0.037723508   -1.9941346   0.64626116  1070540 
 3516000   0.90211758   -1.9940186   -1.9940186   -1.3475404  0.038603842   -1.9940186   0.64647813  1070540 
 3517000   0.90255356   -1.9946723   -1.9946723   -1.3478818  0.034877418   -1.9946723   0.64679056  1070540 
 3518000   0.90277922   -1.9946864   -1.9946864   -1.3477341  0.037659879   -1.9946864   0.64695228  1070540 
 3519000   0.90196201   -1.9946096   -1.9946096    -1.348243  0.033317772   -1.9946096   0.64636665  1070540 
 3520000   0.90131346   -1.9938259   -1.9938259   -1.3479241  0.035888842   -1.9938259   0.64590189  1070540 
 3521000   0.90219356   -1.9946948   -1.9946948   -1.3481622  0.034795122   -1.9946948   0.64653258  1070540 
 3522000   0.90172582   -1.9943007   -1.9943007   -1.3481034  0.028645593   -1.9943007   0.64619739  1070540 
 3523000   0.90044467   -1.9937058   -1.9937058   -1.3484265  0.035398352   -1.9937058   0.64527928  1070540 
 3524000   0.90070605   -1.9941036   -1.9941036    -1.348637  0.040630129   -1.9941036    0.6454666  1070540 
 3525000    0.9007691   -1.9939546   -1.9939546   -1.3484428  0.034275918   -1.9939546   0.64551179  1070540 
 3526000   0.90074029   -1.9935303   -1.9935303   -1.3480392  0.034878952   -1.9935303   0.64549113  1070540 
 3527000   0.90065282   -1.9934402   -1.9934402   -1.3480117  0.032486447   -1.9934402   0.64542846  1070540 
 3528000    0.9013661    -1.993324    -1.993324   -1.3473844  0.031619927    -1.993324   0.64593961  1070540 
 3529000   0.90138325   -1.9930192   -1.9930192   -1.3470673  0.039507901   -1.9930192    0.6459519  1070540 
 3530000   0.90301039   -1.9942067   -1.9942067   -1.3470888  0.029520055   -1.9942067   0.64711794  1070540 
 3531000    0.9004835   -1.9924346   -1.9924346   -1.3471274   0.02409016   -1.9924346   0.64530711  1070540 
 3532000   0.90123983   -1.9932956   -1.9932956   -1.3474464  0.033142244   -1.9932956   0.64584912  1070540 
 3533000   0.90276496   -1.9941352   -1.9941352   -1.3471931  0.036871022   -1.9941352   0.64694206  1070540 
 3534000   0.90186859    -1.993769    -1.993769   -1.3474693  0.032877856    -1.993769    0.6462997  1070540 
 3535000   0.90228468   -1.9938466   -1.9938466   -1.3472487   0.03104206   -1.9938466   0.64659788  1070540 
 3536000   0.90091009   -1.9928473   -1.9928473   -1.3472344  0.036318185   -1.9928473   0.64561282  1070540 
 3537000   0.90132187   -1.9931502   -1.9931502   -1.3472423  0.040329827   -1.9931502   0.64590791  1070540 
 3538000   0.90191965   -1.9934268   -1.9934268   -1.3470905  0.027529477   -1.9934268   0.64633629  1070540 
 3539000   0.90237566   -1.9936371   -1.9936371    -1.346974  0.038618495   -1.9936371   0.64666308  1070540 
 3540000    0.9007412   -1.9928158   -1.9928158    -1.347324   0.02986978   -1.9928158   0.64549179  1070540 
 3541000   0.90229655   -1.9939104   -1.9939104    -1.347304  0.034470363   -1.9939104   0.64660639  1070540 
 3542000   0.90189084   -1.9935698   -1.9935698   -1.3472542  0.024100019   -1.9935698   0.64631565  1070540 
 3543000   0.90075151   -1.9929172   -1.9929172   -1.3474181  0.028211859   -1.9929172   0.64549918  1070540 
 3544000   0.90130969   -1.9935057   -1.9935057   -1.3476065   0.03002131   -1.9935057   0.64589918  1070540 
 3545000   0.90131454   -1.9932609   -1.9932609   -1.3473583  0.032478822   -1.9932609   0.64590266  1070540 
 3546000   0.90152532   -1.9936569   -1.9936569   -1.3476032  0.033436494   -1.9936569   0.64605371  1070540 
 3547000   0.90129341   -1.9934464   -1.9934464   -1.3475588  0.039674011   -1.9934464   0.64588752  1070540 
 3548000   0.90261287   -1.9944812   -1.9944812   -1.3476481  0.029853855   -1.9944812   0.64683307  1070540 
 3549000   0.90022413   -1.9931211   -1.9931211   -1.3479999  0.032622139   -1.9931211   0.64512125  1070540 
 3550000   0.90090922   -1.9935515   -1.9935515   -1.3479393  0.030875437   -1.9935515   0.64561219  1070540 
 3551000   0.90163578   -1.9941067   -1.9941067   -1.3479738  0.034918295   -1.9941067   0.64613286  1070540 
 3552000   0.90104807   -1.9939551   -1.9939551   -1.3482434  0.029315657   -1.9939551    0.6457117  1070540 
 3553000   0.90218675   -1.9947497   -1.9947497    -1.348222  0.027494017   -1.9947497    0.6465277  1070540 
 3554000   0.90244674   -1.9945711   -1.9945711   -1.3478571  0.035998642   -1.9945711   0.64671402  1070540 
 3555000    0.9020064   -1.9940162   -1.9940162   -1.3476178  0.034313977   -1.9940162   0.64639846  1070540 
 3556000   0.90181128   -1.9939865   -1.9939865   -1.3477279  0.034388683   -1.9939865   0.64625863  1070540 
 3557000   0.90132728   -1.9941332   -1.9941332   -1.3482215   0.04027264   -1.9941332   0.64591179  1070540 
 3558000   0.90070218   -1.9938313   -1.9938313   -1.3483675  0.033965682   -1.9938313   0.64546382  1070540 
 3559000   0.90180747   -1.9946692   -1.9946692   -1.3484133  0.032623303   -1.9946692    0.6462559  1070540 
 3560000   0.90109384   -1.9939639   -1.9939639   -1.3482194  0.030684099   -1.9939639    0.6457445  1070540 
 3561000   0.90162831    -1.994266    -1.994266   -1.3481385  0.024728113    -1.994266   0.64612751  1070540 
 3562000   0.90083565   -1.9934199   -1.9934199   -1.3478605  0.033032448   -1.9934199   0.64555947  1070540 
 3563000   0.90120308   -1.9936534   -1.9936534   -1.3478307  0.031025668   -1.9936534   0.64582278  1070540 
 3564000   0.90146039   -1.9939956   -1.9939956   -1.3479884  0.031880972   -1.9939956   0.64600718  1070540 
 3565000   0.90037963   -1.9934451   -1.9934451   -1.3482124  0.025655506   -1.9934451   0.64523268  1070540 
 3566000    0.9015822   -1.9941481   -1.9941481   -1.3480536  0.030885818   -1.9941481   0.64609447  1070540 
 3567000   0.90185218   -1.9942646   -1.9942646   -1.3479767  0.031871347   -1.9942646   0.64628794  1070540 
 3568000    0.9008316   -1.9934118   -1.9934118   -1.3478553  0.035565054   -1.9934118   0.64555657  1070540 
 3569000   0.89954997   -1.9927282   -1.9927282   -1.3480901  0.030182064   -1.9927282   0.64463812  1070540 
 3570000   0.90125318   -1.9936991   -1.9936991   -1.3478404  0.036680031   -1.9936991   0.64585868  1070540 
 3571000   0.90182514   -1.9938777   -1.9938777   -1.3476091  0.033044569   -1.9938777   0.64626857  1070540 
 3572000   0.90183521   -1.9937929   -1.9937929   -1.3475171  0.034200636   -1.9937929   0.64627578  1070540 
 3573000   0.90138325   -1.9933913   -1.9933913   -1.3474394     0.032247   -1.9933913   0.64595189  1070540 
 3574000   0.90252022   -1.9942715   -1.9942715   -1.3475048  0.040423435   -1.9942715   0.64676668  1070540 
 3575000   0.90167542   -1.9936354   -1.9936354   -1.3474741  0.033447939   -1.9936354   0.64616127  1070540 
 3576000   0.90159641   -1.9934446   -1.9934446     -1.34734   0.03021963   -1.9934446   0.64610465  1070540 
 3577000   0.90192508   -1.9934981   -1.9934981   -1.3471579  0.034472377   -1.9934981   0.64634018  1070540 
 3578000   0.90262292   -1.9939979   -1.9939979   -1.3471576  0.034705527   -1.9939979   0.64684027  1070540 
 3579000   0.90245709   -1.9937924   -1.9937924    -1.347071  0.034112306   -1.9937924   0.64672143  1070540 
 3580000   0.90207136    -1.993374    -1.993374    -1.346929  0.035547534    -1.993374   0.64644501  1070540 
 3581000   0.90089341   -1.9928245   -1.9928245   -1.3472236  0.037867438   -1.9928245   0.64560087  1070540 
 3582000   0.90172414   -1.9931069   -1.9931069   -1.3469107  0.041055017   -1.9931069   0.64619619  1070540 
 3583000    0.9016431   -1.9931438   -1.9931438   -1.3470056  0.034741576   -1.9931438   0.64613811  1070540 
 3584000   0.90249799   -1.9935864   -1.9935864   -1.3468357  0.037652676   -1.9935864   0.64675074  1070540 
 3585000   0.90178279   -1.9931873   -1.9931873   -1.3469491  0.040752295   -1.9931873   0.64623822  1070540 
 3586000   0.90159048   -1.9927976   -1.9927976   -1.3466972  0.034326112   -1.9927976    0.6461004  1070540 
 3587000   0.90122344   -1.9929758   -1.9929758   -1.3471384  0.030941715   -1.9929758   0.64583737  1070540 
 3588000   0.90106608   -1.9929458   -1.9929458   -1.3472212  0.029840315   -1.9929458   0.64572461  1070540 
 3589000   0.90079372   -1.9925685   -1.9925685   -1.3470391  0.035599144   -1.9925685   0.64552943  1070540 
 3590000   0.90058739   -1.9926585   -1.9926585   -1.3472769  0.036186717   -1.9926585   0.64538157  1070540 
 3591000   0.90118362   -1.9930709   -1.9930709    -1.347262  0.034013778   -1.9930709   0.64580884  1070540 
 3592000   0.90017759   -1.9923718   -1.9923718   -1.3472839  0.037108076   -1.9923718   0.64508789  1070540 
 3593000   0.90147173   -1.9931691   -1.9931691   -1.3471538  0.027379781   -1.9931691    0.6460153  1070540 
 3594000   0.90198485   -1.9934316   -1.9934316   -1.3470486  0.023909917   -1.9934316   0.64638302  1070540 
 3595000   0.90148138    -1.993049    -1.993049   -1.3470268  0.023092428    -1.993049   0.64602222  1070540 
 3596000   0.90274921   -1.9937883   -1.9937883   -1.3468576  0.027226446   -1.9937883   0.64693077  1070540 
 3597000   0.90156209   -1.9931073   -1.9931073   -1.3470273  0.033968054   -1.9931073   0.64608006  1070540 
 3598000   0.90078571   -1.9923348   -1.9923348   -1.3468111  0.043282479   -1.9923348   0.64552368  1070540 
 3599000   0.90135865   -1.9931432   -1.9931432   -1.3472089  0.035210114   -1.9931432   0.64593427  1070540 
 3600000   0.90180831    -1.993521    -1.993521   -1.3472645  0.027133591    -1.993521    0.6462565  1070540 
 3601000   0.90120334   -1.9935329   -1.9935329   -1.3477099   0.03836485   -1.9935329   0.64582297  1070540 
 3602000   0.90262834   -1.9940948   -1.9940948   -1.3472507   0.03649884   -1.9940948   0.64684415  1070540 
 3603000   0.90264912   -1.9940654   -1.9940654   -1.3472064  0.031112313   -1.9940654   0.64685905  1070540 
 3604000   0.90094034   -1.9931365   -1.9931365    -1.347502  0.033899843   -1.9931365    0.6456345  1070540 
 3605000   0.90153172   -1.9934548   -1.9934548   -1.3473965  0.032661819   -1.9934548   0.64605829  1070540 
 3606000   0.90136195   -1.9934978   -1.9934978   -1.3475611  0.035093288   -1.9934978   0.64593663  1070540 
 3607000   0.90042642   -1.9930646   -1.9930646   -1.3477984  0.038621965   -1.9930646   0.64526621  1070540 
 3608000   0.90108083   -1.9936829   -1.9936829   -1.3479477   0.03134387   -1.9936829   0.64573517  1070540 
 3609000   0.90228668   -1.9941506   -1.9941506   -1.3475513  0.037649691   -1.9941506   0.64659931  1070540 
 3610000   0.90078689   -1.9932542   -1.9932542   -1.3477297  0.035575065   -1.9932542   0.64552453  1070540 
 3611000   0.90141499   -1.9940199   -1.9940199   -1.3480452  0.033208455   -1.9940199   0.64597464  1070540 
 3612000   0.89944417   -1.9921835   -1.9921835   -1.3476212  0.039512025   -1.9921835    0.6445623  1070540 
 3613000   0.90131864   -1.9936522   -1.9936522   -1.3477466  0.030907622   -1.9936522    0.6459056  1070540 
 3614000   0.90100701   -1.9931942   -1.9931942   -1.3475119  0.028855122   -1.9931942   0.64568227  1070540 
 3615000   0.90182824   -1.9936128   -1.9936128    -1.347342  0.030313752   -1.9936128   0.64627079  1070540 
 3616000   0.90015737   -1.9925564   -1.9925564    -1.347483  0.033751151   -1.9925564    0.6450734  1070540 
 3617000   0.90171737   -1.9936109   -1.9936109   -1.3474195   0.04096215   -1.9936109   0.64619134  1070540 
 3618000   0.90165779   -1.9935699   -1.9935699   -1.3474212  0.043863404   -1.9935699   0.64614864  1070540 
 3619000   0.90377243    -1.994947    -1.994947   -1.3472829  0.028591904    -1.994947   0.64766404  1070540 
 3620000   0.90212168   -1.9941077   -1.9941077   -1.3476267  0.036043859   -1.9941077   0.64648107  1070540 
 3621000   0.90043993   -1.9924829   -1.9924829    -1.347207  0.040114787   -1.9924829   0.64527589  1070540 
 3622000   0.90139727   -1.9932943   -1.9932943   -1.3473323  0.032431159   -1.9932943   0.64596195  1070540 
 3623000   0.90071842   -1.9927545   -1.9927545   -1.3472791  0.038763269   -1.9927545   0.64547547  1070540 
 3624000   0.90100525   -1.9926107   -1.9926107   -1.3469297  0.042075397   -1.9926107   0.64568101  1070540 
 3625000   0.90171432    -1.993105    -1.993105   -1.3469159   0.02827347    -1.993105   0.64618915  1070540 
 3626000   0.90026609   -1.9918244   -1.9918244    -1.346673  0.036972818   -1.9918244   0.64515132  1070540 
 3627000   0.90060891   -1.9921325   -1.9921325   -1.3467355  0.032812585   -1.9921325   0.64539699  1070540 
 3628000   0.90156873    -1.992923    -1.992923   -1.3468382   0.02378465    -1.992923   0.64608482  1070540 
 3629000   0.90140845   -1.9926893   -1.9926893   -1.3467193  0.025940501   -1.9926893   0.64596995  1070540 
 3630000   0.90197691   -1.9928875   -1.9928875   -1.3465101  0.034892595   -1.9928875   0.64637733  1070540 
 3631000   0.90155009   -1.9927452   -1.9927452   -1.3466737  0.037042608   -1.9927452   0.64607146  1070540 
 3632000   0.90129642   -1.9925422   -1.9925422   -1.3466525  0.039231994   -1.9925422   0.64588968  1070540 
 3633000   0.90192406   -1.9933708   -1.9933708   -1.3470313  0.025425252   -1.9933708   0.64633946  1070540 
 3634000   0.90190742   -1.9931274   -1.9931274   -1.3467999  0.026305302   -1.9931274   0.64632753  1070540 
 3635000   0.90101821    -1.992451    -1.992451   -1.3467607  0.035384303    -1.992451    0.6456903  1070540 
 3636000   0.90038426   -1.9921073   -1.9921073   -1.3468713  0.041770308   -1.9921073     0.645236  1070540 
 3637000   0.90195496   -1.9931719   -1.9931719   -1.3468103  0.030030655   -1.9931719    0.6463616  1070540 
 3638000   0.90296853   -1.9936451   -1.9936451   -1.3465572  0.041660209   -1.9936451   0.64708794  1070540 
 3639000   0.90206443    -1.993076    -1.993076   -1.3466359  0.032165811    -1.993076   0.64644004  1070540 
 3640000    0.9021976   -1.9934505   -1.9934505    -1.346915  0.031525054   -1.9934505   0.64653548  1070540 
 3641000   0.90236655   -1.9933942   -1.9933942   -1.3467377  0.037619159   -1.9933942   0.64665655  1070540 
 3642000   0.90195969   -1.9929628   -1.9929628   -1.3465978  0.044783397   -1.9929628   0.64636498  1070540 
 3643000   0.90215304   -1.9930281   -1.9930281   -1.3465245  0.031481021   -1.9930281   0.64650354  1070540 
 3644000   0.90284159   -1.9938776   -1.9938776   -1.3468806  0.035143557   -1.9938776   0.64699697  1070540 
 3645000   0.90256688   -1.9937054   -1.9937054   -1.3469053   0.03704646   -1.9937054   0.64680011  1070540 
 3646000   0.90317807   -1.9940457   -1.9940457   -1.3468076  0.030653453   -1.9940457   0.64723811  1070540 
 3647000   0.90174658   -1.9926911   -1.9926911   -1.3464788  0.035616318   -1.9926911   0.64621227  1070540 
 3648000   0.90233633    -1.993095    -1.993095   -1.3464601  0.037861994    -1.993095    0.6466349  1070540 
 3649000   0.90268989   -1.9935901   -1.9935901   -1.3467019   0.03020703   -1.9935901   0.64688827  1070540 
 3650000   0.90162906   -1.9929063   -1.9929063   -1.3467783  0.031362288   -1.9929063   0.64612805  1070540 
 3651000   0.90154022   -1.9931409   -1.9931409   -1.3470765   0.03200304   -1.9931409   0.64606439  1070540 
 3652000   0.90170322   -1.9932544   -1.9932544   -1.3470732  0.021706595   -1.9932544    0.6461812  1070540 
 3653000   0.90145172   -1.9929478   -1.9929478   -1.3469469   0.02653531   -1.9929478   0.64600096  1070540 
 3654000   0.90068732    -1.992496    -1.992496   -1.3470428  0.032033042    -1.992496   0.64545318  1070540 
 3655000     0.902625    -1.993449    -1.993449   -1.3466073  0.031441159    -1.993449   0.64684176  1070540 
 3656000   0.90215405   -1.9932233   -1.9932233    -1.346719  0.031297279   -1.9932233   0.64650427  1070540 
 3657000   0.90066181   -1.9926599   -1.9926599    -1.347225  0.033275261   -1.9926599   0.64543489  1070540 
 3658000   0.90115959   -1.9929365   -1.9929365   -1.3471449   0.03303042   -1.9929365   0.64579162  1070540 
 3659000   0.90155523    -1.993299    -1.993299   -1.3472238  0.032949847    -1.993299   0.64607514  1070540 
 3660000   0.90318238    -1.994108    -1.994108   -1.3468668  0.029813613    -1.994108    0.6472412  1070540 
 3661000   0.90174647   -1.9928211   -1.9928211   -1.3466089  0.045305875   -1.9928211   0.64621219  1070540 
 3662000   0.90208387    -1.992782    -1.992782    -1.346328  0.036032087    -1.992782   0.64645397  1070540 
 3663000   0.90344725   -1.9940887   -1.9940887   -1.3466577  0.030508863   -1.9940887     0.647431  1070540 
 3664000    0.9030361   -1.9937873   -1.9937873    -1.346651  0.036142071   -1.9937873   0.64713637  1070540 
 3665000   0.90323326   -1.9940119   -1.9940119   -1.3467342  0.039904533   -1.9940119   0.64727765  1070540 
 3666000   0.90325555   -1.9936474   -1.9936474   -1.3463538  0.036079831   -1.9936474   0.64729363  1070540 
 3667000   0.90215202   -1.9927206   -1.9927206   -1.3462177  0.039702689   -1.9927206   0.64650281  1070540 
 3668000   0.90302833   -1.9933045   -1.9933045   -1.3461737  0.034338461   -1.9933045    0.6471308  1070540 
 3669000   0.90315728   -1.9938771   -1.9938771   -1.3466539  0.026205025   -1.9938771   0.64722321  1070540 
 3670000   0.90209381   -1.9933542   -1.9933542   -1.3468931  0.033665161   -1.9933542    0.6464611  1070540 
 3671000    0.9016068   -1.9932159   -1.9932159   -1.3471038   0.02563509   -1.9932159    0.6461121  1070540 
 3672000   0.90078707   -1.9926501   -1.9926501   -1.3471254  0.025602261   -1.9926501   0.64552466  1070540 
 3673000   0.90031881   -1.9927013   -1.9927013   -1.3475122  0.038675417   -1.9927013    0.6451891  1070540 
 3674000   0.90141637   -1.9930646   -1.9930646    -1.347089  0.034302756   -1.9930646   0.64597563  1070540 
 3675000    0.9012881    -1.993081    -1.993081   -1.3471972  0.033755362    -1.993081   0.64588371  1070540 
 3676000   0.90073069   -1.9928429   -1.9928429   -1.3473586  0.029670403   -1.9928429   0.64548426  1070540 
 3677000   0.90139962     -1.99283     -1.99283   -1.3468664  0.029398951     -1.99283   0.64596363  1070540 
 3678000   0.90194539   -1.9928205   -1.9928205   -1.3464657  0.038363626   -1.9928205   0.64635474  1070540 
 3679000   0.90157765   -1.9928609   -1.9928609   -1.3467697  0.035104685   -1.9928609   0.64609121  1070540 
 3680000   0.90212562    -1.993252    -1.993252   -1.3467681  0.035487784    -1.993252    0.6464839  1070540 
 3681000   0.90318688   -1.9943109   -1.9943109   -1.3470665  0.031636292   -1.9943109   0.64724442  1070540 
 3682000   0.90268047   -1.9940157   -1.9940157   -1.3471342  0.039305754   -1.9940157   0.64688151  1070540 
 3683000   0.90336134   -1.9943499   -1.9943499   -1.3469804  0.039544401   -1.9943499   0.64736944  1070540 
 3684000   0.90222397   -1.9938175   -1.9938175   -1.3472631  0.039017686   -1.9938175   0.64655438  1070540 
 3685000   0.90249327   -1.9937527   -1.9937527   -1.3470053  0.034098343   -1.9937527   0.64674736  1070540 
 3686000    0.9017677   -1.9935447   -1.9935447   -1.3473173  0.030670752   -1.9935447    0.6462274  1070540 
 3687000   0.90170092   -1.9935734   -1.9935734   -1.3473939  0.038494681   -1.9935734   0.64617955  1070540 
 3688000   0.90005797   -1.9924788   -1.9924788   -1.3474766  0.042261728   -1.9924788   0.64500217  1070540 
 3689000   0.90055352    -1.992828    -1.992828   -1.3474707  0.032037536    -1.992828   0.64535729  1070540 
 3690000   0.90279913   -1.9942031   -1.9942031   -1.3472366  0.036956101   -1.9942031   0.64696655  1070540 
 3691000   0.90270987   -1.9946232   -1.9946232   -1.3477206  0.035749521   -1.9946232   0.64690258  1070540 
 3692000    0.9035231   -1.9947743   -1.9947743   -1.3472889  0.029124346   -1.9947743   0.64748537  1070540 
 3693000    0.9016709   -1.9935966   -1.9935966   -1.3474385  0.036726987   -1.9935966   0.64615803  1070540 
 3694000   0.90108716   -1.9930103   -1.9930103   -1.3472706  0.036126827   -1.9930103   0.64573971  1070540 
 3695000   0.90101832   -1.9932727   -1.9932727   -1.3475824  0.034393714   -1.9932727   0.64569038  1070540 
 3696000   0.90200366   -1.9942093   -1.9942093   -1.3478128  0.031461692   -1.9942093    0.6463965  1070540 
 3697000   0.90177654   -1.9940151   -1.9940151   -1.3477814  0.035288085   -1.9940151   0.64623373  1070540 
 3698000   0.90195824   -1.9939866   -1.9939866   -1.3476226  0.033421049   -1.9939866   0.64636395  1070540 
 3699000   0.90209665   -1.9938149   -1.9938149   -1.3473518  0.034479011   -1.9938149   0.64646314  1070540 
 3700000   0.90174469   -1.9933812   -1.9933812   -1.3471702  0.034526726   -1.9933812   0.64621091  1070540 
 3701000   0.90168978   -1.9934741   -1.9934741   -1.3473025  0.039326854   -1.9934741   0.64617157  1070540 
 3702000    0.9029017   -1.9944901   -1.9944901     -1.34745  0.027026776   -1.9944901   0.64704005  1070540 
 3703000   0.90176381   -1.9933617   -1.9933617   -1.3471371  0.037555537   -1.9933617   0.64622461  1070540 
 3704000   0.90323021   -1.9942759   -1.9942759   -1.3470004  0.031676656   -1.9942759   0.64727547  1070540 
 3705000   0.90372112   -1.9947757   -1.9947757   -1.3471484  0.041140929   -1.9947757   0.64762727  1070540 
 3706000   0.90213884   -1.9937682   -1.9937682   -1.3472748  0.037648268   -1.9937682   0.64649337  1070540 
 3707000   0.90251725   -1.9939436   -1.9939436    -1.347179  0.027748326   -1.9939436   0.64676455  1070540 
 3708000   0.90056703   -1.9925727   -1.9925727   -1.3472057  0.041518146   -1.9925727   0.64536697  1070540 
 3709000   0.89976422    -1.992114    -1.992114   -1.3473223  0.037994821    -1.992114   0.64479166  1070540 
 3710000   0.90087383   -1.9928358   -1.9928358    -1.347249  0.018672054   -1.9928358   0.64558683  1070540 
 3711000   0.90243353   -1.9939774   -1.9939774   -1.3472729  0.032526945   -1.9939774   0.64670455  1070540 
 3712000   0.90235072   -1.9944285   -1.9944285   -1.3477833    0.0219237   -1.9944285   0.64664521  1070540 
 3713000   0.90030961   -1.9927765   -1.9927765    -1.347594  0.031309187   -1.9927765    0.6451825  1070540 
 3714000   0.90046811   -1.9932132   -1.9932132   -1.3479171   0.02561359   -1.9932132   0.64529608  1070540 
 3715000   0.90092707    -1.993213    -1.993213    -1.347588  0.031466109    -1.993213   0.64562499  1070540 
 3716000   0.90119114   -1.9935712   -1.9935712    -1.347757  0.038341819   -1.9935712   0.64581422  1070540 
 3717000   0.90009772    -1.992556    -1.992556   -1.3475254  0.040721055    -1.992556   0.64503065  1070540 
 3718000   0.90168202   -1.9938646   -1.9938646   -1.3476986  0.034704325   -1.9938646     0.646166  1070540 
 3719000   0.90013096   -1.9929219   -1.9929219   -1.3478674  0.031745963   -1.9929219   0.64505448  1070540 
 3720000    0.9015017   -1.9937498   -1.9937498   -1.3477131  0.031180995   -1.9937498   0.64603678  1070540 
 3721000   0.90390875   -1.9950804   -1.9950804   -1.3473186   0.02597437   -1.9950804   0.64776173  1070540 
 3722000   0.90172727   -1.9935409   -1.9935409   -1.3473425  0.040873327   -1.9935409   0.64619843  1070540 
 3723000   0.90378644   -1.9946573   -1.9946573   -1.3469832  0.038828583   -1.9946573   0.64767407  1070540 
 3724000   0.90287922   -1.9940484   -1.9940484   -1.3470244   0.04087634   -1.9940484   0.64702394  1070540 
 3725000   0.90283717   -1.9942557   -1.9942557   -1.3472619  0.037444176   -1.9942557   0.64699381  1070540 
 3726000   0.90242669   -1.9939237   -1.9939237   -1.3472241  0.038230509   -1.9939237   0.64669965  1070540 
 3727000   0.90232031   -1.9939686   -1.9939686   -1.3473452  0.035341925   -1.9939686   0.64662342  1070540 
 3728000   0.90097646     -1.99325     -1.99325   -1.3475896  0.035807051     -1.99325   0.64566038  1070540 
 3729000   0.90048347   -1.9930425   -1.9930425   -1.3477354  0.038697003   -1.9930425    0.6453071  1070540 
 3730000   0.90277824   -1.9941801   -1.9941801   -1.3472285  0.034253836   -1.9941801   0.64695158  1070540 
 3731000   0.90256494   -1.9938597   -1.9938597   -1.3470609  0.030538707   -1.9938597   0.64679872  1070540 
 3732000   0.90167725   -1.9927586   -1.9927586    -1.346596  0.032717566   -1.9927586   0.64616258  1070540 
 3733000   0.90229826   -1.9932653   -1.9932653   -1.3466577  0.038693465   -1.9932653   0.64660761  1070540 
 3734000   0.90190429   -1.9930061   -1.9930061   -1.3466808  0.034417964   -1.9930061   0.64632529  1070540 
 3735000    0.9023766   -1.9935385   -1.9935385   -1.3468747  0.037114135   -1.9935385   0.64666375  1070540 
 3736000   0.90122526    -1.992819    -1.992819   -1.3469804  0.033237506    -1.992819   0.64583868  1070540 
 3737000   0.90204266   -1.9935927   -1.9935927   -1.3471683  0.027085575   -1.9935927   0.64642445  1070540 
 3738000     0.901993   -1.9932526   -1.9932526   -1.3468637   0.03579079   -1.9932526   0.64638886  1070540 
 3739000   0.90111144   -1.9929036   -1.9929036   -1.3471465  0.032894661   -1.9929036   0.64575711  1070540 
 3740000   0.90262796   -1.9935944   -1.9935944   -1.3467505  0.030243551   -1.9935944   0.64684388  1070540 
 3741000   0.90222153   -1.9929931   -1.9929931   -1.3464405  0.037733578   -1.9929931   0.64655263  1070540 
 3742000   0.90329398   -1.9940753   -1.9940753   -1.3467542  0.024874742   -1.9940753   0.64732117  1070540 
 3743000   0.90164303   -1.9931084   -1.9931084   -1.3469703   0.03802114   -1.9931084   0.64613806  1070540 
 3744000   0.90158762   -1.9926481   -1.9926481   -1.3465498  0.031379491   -1.9926481   0.64609835  1070540 
 3745000   0.90216423   -1.9931765   -1.9931765   -1.3466649  0.028028554   -1.9931765   0.64651156  1070540 
 3746000   0.90216636   -1.9933484   -1.9933484   -1.3468353  0.031488542   -1.9933484   0.64651309  1070540 
 3747000   0.90111212    -1.992298    -1.992298   -1.3465404  0.031966549    -1.992298    0.6457576  1070540 
 3748000   0.90229677   -1.9927218   -1.9927218   -1.3461153  0.040468506   -1.9927218   0.64660655  1070540 
 3749000    0.9014977   -1.9927674   -1.9927674   -1.3467334  0.038126279   -1.9927674   0.64603392  1070540 
 3750000   0.90274808   -1.9934791   -1.9934791   -1.3465491  0.034980878   -1.9934791   0.64692996  1070540 
 3751000   0.90221086    -1.993452    -1.993452   -1.3469071  0.040847079    -1.993452   0.64654498  1070540 
 3752000   0.90336188    -1.994341    -1.994341   -1.3469711  0.030683036    -1.994341   0.64736983  1070540 
 3753000   0.90312226   -1.9938572   -1.9938572   -1.3466591  0.037770975   -1.9938572   0.64719811  1070540 
 3754000   0.90218712   -1.9933604   -1.9933604   -1.3468324  0.037667882   -1.9933604   0.64652797  1070540 
 3755000   0.90185432   -1.9934174   -1.9934174   -1.3471279  0.044147808   -1.9934174   0.64628948  1070540 
 3756000   0.90335024   -1.9943969   -1.9943969   -1.3470354  0.030870401   -1.9943969   0.64736149  1070540 
 3757000    0.9020043   -1.9931031   -1.9931031   -1.3467061  0.040208928   -1.9931031   0.64639696  1070540 
 3758000   0.90291756   -1.9941217   -1.9941217   -1.3470703  0.039817822   -1.9941217   0.64705142  1070540 
 3759000    0.9030925   -1.9937151   -1.9937151   -1.3465383  0.037892101   -1.9937151   0.64717678  1070540 
 3760000   0.90269162   -1.9937087   -1.9937087   -1.3468192  0.030017288   -1.9937087    0.6468895  1070540 
 3761000   0.90262322   -1.9932473   -1.9932473   -1.3464068  0.036317984   -1.9932473   0.64684048  1070540 
 3762000    0.9022743   -1.9932944   -1.9932944   -1.3467039  0.033332148   -1.9932944   0.64659044  1070540 
 3763000   0.90166306   -1.9929504   -1.9929504    -1.346798   0.03439777   -1.9929504   0.64615242  1070540 
 3764000    0.9013056   -1.9928505   -1.9928505   -1.3469542  0.032313496   -1.9928505   0.64589625  1070540 
 3765000   0.90223476   -1.9928933   -1.9928933   -1.3463312  0.027248138   -1.9928933    0.6465621  1070540 
 3766000   0.90047576   -1.9913079   -1.9913079   -1.3460063  0.029947837   -1.9913079   0.64530157  1070540 
 3767000   0.90017999   -1.9912548   -1.9912548   -1.3461652  0.033549989   -1.9912548   0.64508961  1070540 
 3768000   0.90110043    -1.991812    -1.991812   -1.3460628  0.031193851    -1.991812   0.64574922  1070540 
 3769000   0.90081391   -1.9917286   -1.9917286   -1.3461847  0.033578352   -1.9917286   0.64554389  1070540 
 3770000   0.90097747   -1.9921671   -1.9921671    -1.346506  0.028745448   -1.9921671   0.64566111  1070540 
 3771000   0.90065664   -1.9920933   -1.9920933   -1.3466621  0.033959204   -1.9920933   0.64543119  1070540 
 3772000   0.90111968   -1.9921708   -1.9921708   -1.3464078  0.024991309   -1.9921708   0.64576301  1070540 
 3773000   0.90039084   -1.9913591   -1.9913591   -1.3461184  0.031076991   -1.9913591   0.64524071  1070540 
 3774000   0.90130493   -1.9922377   -1.9922377   -1.3463419   0.03986791   -1.9922377   0.64589577  1070540 
 3775000   0.90262024   -1.9929251   -1.9929251   -1.3460868  0.030104036   -1.9929251   0.64683835  1070540 
 3776000   0.90277237   -1.9927092   -1.9927092   -1.3457618  0.030267914   -1.9927092   0.64694737  1070540 
 3777000    0.9026184   -1.9926807   -1.9926807   -1.3458437  0.038142214   -1.9926807   0.64683703  1070540 
 3778000   0.90148839   -1.9923511   -1.9923511   -1.3463238  0.032869115   -1.9923511   0.64602724  1070540 
 3779000   0.90303718   -1.9932253   -1.9932253   -1.3460882  0.039603819   -1.9932253   0.64713714  1070540 
 3780000   0.90313494   -1.9933588   -1.9933588   -1.3461516  0.042072384   -1.9933588    0.6472072  1070540 
 3781000   0.90358789   -1.9931113   -1.9931113   -1.3455795  0.037125895   -1.9931113   0.64753179  1070540 
 3782000   0.90272822   -1.9929277   -1.9929277    -1.346012  0.034934512   -1.9929277   0.64691573  1070540 
 3783000   0.90247141    -1.992778    -1.992778   -1.3460463  0.034592029    -1.992778    0.6467317  1070540 
 3784000   0.90372743   -1.9940049   -1.9940049   -1.3463731  0.032869728   -1.9940049   0.64763179  1070540 
 3785000   0.90211813   -1.9926831   -1.9926831   -1.3462046  0.038079664   -1.9926831   0.64647852  1070540 
 3786000    0.9023978   -1.9930683   -1.9930683   -1.3463894  0.030382858   -1.9930683   0.64667895  1070540 
 3787000   0.90193694   -1.9930214   -1.9930214   -1.3466727  0.031615627   -1.9930214   0.64634869  1070540 
 3788000   0.90152746   -1.9927499   -1.9927499   -1.3466947  0.029773816   -1.9927499   0.64605524  1070540 
 3789000    0.9006058   -1.9922156   -1.9922156   -1.3468209  0.028556393   -1.9922156   0.64539476  1070540 
 3790000   0.90087634    -1.992141    -1.992141   -1.3465524  0.031796977    -1.992141   0.64558863  1070540 
 3791000     0.901729   -1.9928679   -1.9928679   -1.3466682  0.031828977   -1.9928679   0.64619967  1070540 
 3792000   0.90238638   -1.9934731   -1.9934731   -1.3468023   0.03476398   -1.9934731   0.64667076  1070540 
 3793000   0.90176068   -1.9927364   -1.9927364   -1.3465141  0.032630548   -1.9927364   0.64622237  1070540 
 3794000   0.90191715   -1.9927746   -1.9927746   -1.3464401  0.038445015   -1.9927746    0.6463345  1070540 
 3795000    0.9021401   -1.9928192   -1.9928192   -1.3463249  0.041469497   -1.9928192   0.64649428  1070540 
 3796000   0.90291318   -1.9933316   -1.9933316   -1.3462833   0.03775104   -1.9933316   0.64704828  1070540 
 3797000   0.90342389     -1.99378     -1.99378   -1.3463657  0.025061533     -1.99378   0.64741427  1070540 
 3798000   0.90269806   -1.9927615   -1.9927615   -1.3458674  0.040148687   -1.9927615   0.64689412  1070540 
 3799000   0.90349206   -1.9936754   -1.9936754   -1.3462123  0.035811626   -1.9936754   0.64746312  1070540 
 3800000   0.90314446   -1.9934588   -1.9934588   -1.3462448  0.040726285   -1.9934588   0.64721402  1070540 
 3801000   0.90236414   -1.9934946   -1.9934946   -1.3468398  0.040237911   -1.9934946   0.64665482  1070540 
 3802000   0.90297926   -1.9937672   -1.9937672   -1.3466716  0.033978637   -1.9937672   0.64709563  1070540 
 3803000    0.9030089   -1.9936678   -1.9936678   -1.3465509  0.035731908   -1.9936678   0.64711687  1070540 
 3804000   0.90340388   -1.9939413   -1.9939413   -1.3465414  0.032244165   -1.9939413   0.64739993  1070540 
 3805000   0.90407852   -1.9942305   -1.9942305   -1.3463471  0.026850279   -1.9942305   0.64788339  1070540 
 3806000   0.90089807   -1.9920412   -1.9920412    -1.346437  0.034891084   -1.9920412   0.64560421  1070540 
 3807000   0.90211731   -1.9929139   -1.9929139   -1.3464359  0.036759225   -1.9929139   0.64647794  1070540 
 3808000   0.90285318   -1.9938032   -1.9938032   -1.3467979  0.029759614   -1.9938032   0.64700528  1070540 
 3809000   0.90128691   -1.9927981   -1.9927981   -1.3469153    0.0331475   -1.9927981   0.64588285  1070540 
 3810000   0.90202766   -1.9932934   -1.9932934   -1.3468797  0.031533073   -1.9932934    0.6464137  1070540 
 3811000   0.90219176   -1.9929213   -1.9929213   -1.3463901  0.030409359   -1.9929213   0.64653129  1070540 
 3812000   0.90266255   -1.9929194   -1.9929194   -1.3460508  0.026812182   -1.9929194   0.64686867  1070540 
 3813000   0.90319082   -1.9931202   -1.9931202   -1.3458729  0.033323889   -1.9931202   0.64724724  1070540 
 3814000   0.90119153   -1.9918716   -1.9918716   -1.3460571  0.032848649   -1.9918716    0.6458145  1070540 
 3815000   0.90162716   -1.9922166   -1.9922166   -1.3460899  0.032980365   -1.9922166   0.64612669  1070540 
 3816000   0.90237497   -1.9926778   -1.9926778   -1.3460152  0.040118063   -1.9926778   0.64666258  1070540 
 3817000   0.90330247   -1.9932432   -1.9932432   -1.3459159  0.032799812   -1.9932432   0.64732725  1070540 
 3818000   0.90263256   -1.9929327   -1.9929327   -1.3460856  0.027987246   -1.9929327   0.64684718  1070540 
 3819000   0.90299299   -1.9932638   -1.9932638   -1.3461584  0.035802187   -1.9932638   0.64710547  1070540 
 3820000   0.90201323   -1.9925411   -1.9925411   -1.3461377  0.027967562   -1.9925411   0.64640335  1070540 
 3821000   0.90227795   -1.9926023   -1.9926023   -1.3460093  0.033180007   -1.9926023   0.64659306  1070540 
 3822000   0.90127706   -1.9922898   -1.9922898    -1.346414  0.033227762   -1.9922898    0.6458758  1070540 
 3823000    0.9018675   -1.9927378   -1.9927378   -1.3464389  0.030618473   -1.9927378   0.64629892  1070540 
 3824000   0.90229696   -1.9927826   -1.9927826   -1.3461759  0.037296521   -1.9927826   0.64660668  1070540 
 3825000   0.90182633   -1.9928762   -1.9928762   -1.3466067  0.036434199   -1.9928762   0.64626942  1070540 
 3826000     0.901488   -1.9923541   -1.9923541   -1.3463271  0.034329103   -1.9923541   0.64602696  1070540 
 3827000   0.90236696   -1.9928068   -1.9928068   -1.3461499  0.032977042   -1.9928068   0.64665684  1070540 
 3828000   0.90210212   -1.9924272   -1.9924272   -1.3459602  0.031450079   -1.9924272   0.64646706  1070540 
 3829000   0.90266209    -1.992734    -1.992734   -1.3458656  0.033508892    -1.992734   0.64686834  1070540 
 3830000   0.90277515    -1.992904    -1.992904   -1.3459546  0.038286345    -1.992904   0.64694937  1070540 
 3831000    0.9029685   -1.9933292   -1.9933292   -1.3462413  0.031443193   -1.9933292   0.64708792  1070540 
 3832000   0.90230162   -1.9930562   -1.9930562   -1.3464462  0.031701569   -1.9930562   0.64661002  1070540 
 3833000   0.90263835   -1.9928123   -1.9928123   -1.3459609  0.034822199   -1.9928123   0.64685133  1070540 
 3834000   0.90187693   -1.9923145   -1.9923145   -1.3460089   0.03383591   -1.9923145   0.64630568  1070540 
 3835000   0.90262685   -1.9929113   -1.9929113   -1.3460682  0.040217418   -1.9929113   0.64684309  1070540 
 3836000   0.90117284   -1.9921233   -1.9921233   -1.3463222  0.031480326   -1.9921233   0.64580111  1070540 
 3837000   0.90170226   -1.9923074   -1.9923074   -1.3461269  0.033707723   -1.9923074   0.64618051  1070540 
 3838000   0.90233425   -1.9926413   -1.9926413   -1.3460079  0.023755961   -1.9926413   0.64663341  1070540 
 3839000   0.90292568   -1.9929602   -1.9929602    -1.345903  0.038688857   -1.9929602   0.64705724  1070540 
 3840000   0.90098289   -1.9917645   -1.9917645   -1.3460995   0.02564961   -1.9917645   0.64566499  1070540 
 3841000   0.90201812    -1.992592    -1.992592   -1.3461851   0.03693502    -1.992592   0.64640686  1070540 
 3842000   0.90110614   -1.9919857   -1.9919857   -1.3462324  0.034085646   -1.9919857   0.64575331  1070540 
 3843000   0.90209885   -1.9924085   -1.9924085   -1.3459438  0.041625628   -1.9924085   0.64646471  1070540 
 3844000   0.90120875   -1.9915659   -1.9915659   -1.3457391  0.038782348   -1.9915659   0.64582685  1070540 
 3845000   0.90130311   -1.9920442   -1.9920442   -1.3461497  0.030053221   -1.9920442   0.64589446  1070540 
 3846000   0.90134903    -1.991659    -1.991659   -1.3457316  0.031167593    -1.991659   0.64592738  1070540 
 3847000   0.90122923    -1.991784    -1.991784   -1.3459425   0.02610931    -1.991784   0.64584152  1070540 
 3848000   0.90142188   -1.9915716   -1.9915716    -1.345592  0.036556336   -1.9915716   0.64597958  1070540 
 3849000    0.9015716    -1.991603    -1.991603   -1.3455162  0.034562264    -1.991603   0.64608687  1070540 
 3850000   0.90205649   -1.9922808   -1.9922808   -1.3458464  0.032370902   -1.9922808   0.64643436  1070540 
 3851000   0.90325069   -1.9928304   -1.9928304   -1.3455403  0.028835218   -1.9928304   0.64729015  1070540 
 3852000   0.90307643   -1.9925304   -1.9925304   -1.3453651  0.035596606   -1.9925304   0.64716527  1070540 
 3853000     0.903404   -1.9928256   -1.9928256   -1.3454256  0.029272493   -1.9928256   0.64740001  1070540 
 3854000   0.90143676   -1.9916083   -1.9916083    -1.345618  0.032692851   -1.9916083   0.64599024  1070540 
 3855000   0.90261489   -1.9925929   -1.9925929   -1.3457584  0.037801957   -1.9925929   0.64683452  1070540 
 3856000   0.90286262   -1.9928541   -1.9928541    -1.345842  0.033571964   -1.9928541   0.64701205  1070540 
 3857000   0.90237052   -1.9923629   -1.9923629   -1.3457035  0.032933268   -1.9923629    0.6466594  1070540 
 3858000   0.90221548   -1.9922136   -1.9922136   -1.3456653  0.032349875   -1.9922136   0.64654829  1070540 
 3859000   0.90235181   -1.9923562   -1.9923562   -1.3457102  0.041445459   -1.9923562   0.64664599  1070540 
 3860000   0.90304795   -1.9927736   -1.9927736   -1.3456288  0.029510749   -1.9927736   0.64714486  1070540 
 3861000   0.90153118   -1.9916198   -1.9916198   -1.3455619  0.034630236   -1.9916198   0.64605791  1070540 
 3862000   0.90247247   -1.9924314   -1.9924314   -1.3456989  0.025340489   -1.9924314   0.64673246  1070540 
 3863000   0.90170837   -1.9923475   -1.9923475   -1.3461626  0.036274274   -1.9923475   0.64618489  1070540 
 3864000   0.90137084   -1.9923833   -1.9923833   -1.3464403  0.033837146   -1.9923833     0.645943  1070540 
 3865000   0.90108795   -1.9919404   -1.9919404   -1.3462001   0.03594921   -1.9919404   0.64574028  1070540 
 3866000   0.90188154   -1.9925304   -1.9925304   -1.3462214  0.032115904   -1.9925304   0.64630898  1070540 
 3867000   0.90219113   -1.9927068   -1.9927068   -1.3461759  0.030093684   -1.9927068   0.64653084  1070540 
 3868000   0.90203856   -1.9930255   -1.9930255    -1.346604  0.025849878   -1.9930255   0.64642151  1070540 
 3869000   0.90101663   -1.9919592   -1.9919592   -1.3462701  0.033432599   -1.9919592   0.64568917  1070540 
 3870000   0.90209661   -1.9925167   -1.9925167   -1.3460535  0.034391358   -1.9925167   0.64646311  1070540 
 3871000   0.90188021    -1.992332    -1.992332    -1.346024  0.034433018    -1.992332   0.64630803  1070540 
 3872000   0.90273532   -1.9928544   -1.9928544   -1.3459336  0.034479514   -1.9928544   0.64692082  1070540 
 3873000    0.9023907   -1.9927849   -1.9927849    -1.346111  0.037100092   -1.9927849   0.64667386  1070540 
 3874000   0.90379328   -1.9938659   -1.9938659   -1.3461869  0.030317231   -1.9938659   0.64767898  1070540 
 3875000   0.90239469   -1.9929173   -1.9929173   -1.3462406  0.032616142   -1.9929173   0.64667671  1070540 
 3876000   0.90190149    -1.992427    -1.992427   -1.3461037  0.028340567    -1.992427   0.64632328  1070540 
 3877000   0.90129226   -1.9919064   -1.9919064   -1.3460197  0.027835625   -1.9919064   0.64588669  1070540 
 3878000   0.90335728   -1.9931384   -1.9931384   -1.3457719  0.034364292   -1.9931384   0.64736653  1070540 
 3879000   0.90362055   -1.9930698   -1.9930698   -1.3455146  0.034898062   -1.9930698    0.6475552  1070540 
 3880000   0.90330358   -1.9927046   -1.9927046   -1.3453765  0.040889236   -1.9927046   0.64732805  1070540 
 3881000    0.9032682   -1.9924378   -1.9924378   -1.3451351  0.040102222   -1.9924378    0.6473027  1070540 
 3882000   0.90342932   -1.9924431   -1.9924431   -1.3450249   0.04053524   -1.9924431   0.64741816  1070540 
 3883000   0.90274027   -1.9921114   -1.9921114    -1.345187  0.035270047   -1.9921114   0.64692436  1070540 
 3884000   0.90228713   -1.9917374   -1.9917374   -1.3451377  0.036075297   -1.9917374   0.64659963  1070540 
 3885000   0.90195471   -1.9914776   -1.9914776   -1.3451162  0.039533987   -1.9914776   0.64636142  1070540 
 3886000   0.90194672   -1.9914543   -1.9914543   -1.3450987  0.029665643   -1.9914543   0.64635569  1070540 
 3887000    0.9013079   -1.9913831   -1.9913831   -1.3454852  0.033028329   -1.9913831    0.6458979  1070540 
 3888000   0.90256235    -1.991893    -1.991893   -1.3450962   0.03815869    -1.991893   0.64679686  1070540 
 3889000   0.90158406   -1.9916112   -1.9916112   -1.3455154   0.03091159   -1.9916112    0.6460958  1070540 
 3890000   0.90200904   -1.9918443   -1.9918443    -1.345444  0.026406668   -1.9918443   0.64640035  1070540 
 3891000   0.90176106   -1.9912941   -1.9912941   -1.3450714  0.027167009   -1.9912941   0.64622264  1070540 
 3892000   0.90124648    -1.991061    -1.991061   -1.3452071  0.032169959    -1.991061   0.64585388  1070540 
 3893000   0.90211552   -1.9918041   -1.9918041   -1.3453274  0.029625221   -1.9918041   0.64647666  1070540 
 3894000   0.90239635   -1.9921105   -1.9921105   -1.3454326  0.033010287   -1.9921105   0.64667791  1070540 
 3895000   0.90263993   -1.9922615   -1.9922615   -1.3454091  0.028392853   -1.9922615   0.64685246  1070540 
 3896000   0.90154422   -1.9913724   -1.9913724   -1.3453052  0.039189258   -1.9913724   0.64606725  1070540 
 3897000   0.90288568    -1.992011    -1.992011   -1.3449824   0.03251877    -1.992011   0.64702857  1070540 
 3898000   0.90221824   -1.9919939   -1.9919939   -1.3454436  0.032463545   -1.9919939   0.64655027  1070540 
 3899000   0.90168785   -1.9918097   -1.9918097   -1.3456395  0.025423893   -1.9918097   0.64617018  1070540 
 3900000   0.90235511   -1.9923612   -1.9923612   -1.3457128  0.034204867   -1.9923612   0.64664835  1070540 
 3901000   0.90373317   -1.9931559   -1.9931559     -1.34552  0.028355694   -1.9931559    0.6476359  1070540 
 3902000   0.90235156    -1.992164    -1.992164   -1.3455182  0.034676797    -1.992164   0.64664581  1070540 
 3903000   0.90251525   -1.9924926   -1.9924926   -1.3457295  0.037582091   -1.9924926   0.64676311  1070540 
 3904000   0.90313574   -1.9929438   -1.9929438    -1.345736  0.035520153   -1.9929438   0.64720777  1070540 
 3905000   0.90340505   -1.9930196   -1.9930196   -1.3456188  0.034126911   -1.9930196   0.64740076  1070540 
 3906000   0.90332351   -1.9926471   -1.9926471   -1.3453048  0.031623036   -1.9926471   0.64734233  1070540 
 3907000   0.90287209   -1.9920607   -1.9920607   -1.3450419  0.040866656   -1.9920607   0.64701883  1070540 
 3908000   0.90335037   -1.9924465   -1.9924465   -1.3450849  0.040747095   -1.9924465   0.64736158  1070540 
 3909000    0.9040471   -1.9925723   -1.9925723   -1.3447114  0.033046979   -1.9925723   0.64786087  1070540 
 3910000   0.90377616   -1.9920415   -1.9920415   -1.3443748  0.039364017   -1.9920415   0.64766671  1070540 
 3911000   0.90497618   -1.9927803   -1.9927803   -1.3442537  0.031075651   -1.9927803   0.64852667  1070540 
 3912000   0.90269967   -1.9917796   -1.9917796   -1.3448843  0.034306363   -1.9917796   0.64689528  1070540 
 3913000   0.90217246   -1.9912147   -1.9912147   -1.3446972  0.045294478   -1.9912147   0.64651746  1070540 
 3914000   0.90156248   -1.9911987   -1.9911987   -1.3451184  0.037241528   -1.9911987   0.64608034  1070540 
 3915000   0.90042377   -1.9902581   -1.9902581   -1.3449938  0.026456995   -1.9902581   0.64526431  1070540 
 3916000   0.90179761   -1.9909474   -1.9909474   -1.3446986    0.0367962   -1.9909474   0.64624883  1070540 
 3917000   0.90160129   -1.9907816   -1.9907816   -1.3446734  0.028284372   -1.9907816   0.64610815  1070540 
 3918000   0.90299435   -1.9917041   -1.9917041   -1.3445977  0.031246072   -1.9917041   0.64710645  1070540 
 3919000   0.90252614   -1.9912433   -1.9912433   -1.3444724  0.025489164   -1.9912433   0.64677092  1070540 
 3920000   0.90433119   -1.9922798   -1.9922798   -1.3442154  0.031994944   -1.9922798   0.64806446  1070540 
 3921000   0.90235403   -1.9908887   -1.9908887   -1.3442411  0.033890334   -1.9908887   0.64664758  1070540 
 3922000   0.90330706   -1.9917048   -1.9917048   -1.3443742   0.02820124   -1.9917048   0.64733054  1070540 
 3923000   0.90224975   -1.9913053   -1.9913053   -1.3447325  0.035433148   -1.9913053   0.64657285  1070540 
 3924000   0.90120169   -1.9904828   -1.9904828   -1.3446611  0.032544411   -1.9904828   0.64582178  1070540 
 3925000   0.90184235   -1.9911109   -1.9911109     -1.34483  0.040106289   -1.9911109    0.6462809  1070540 
 3926000   0.90335724   -1.9924863   -1.9924863   -1.3451198  0.031969887   -1.9924863    0.6473665  1070540 
 3927000   0.90317818   -1.9921681   -1.9921681   -1.3449299  0.032878372   -1.9921681   0.64723819  1070540 
 3928000   0.90320845   -1.9924338   -1.9924338   -1.3451739  0.034124611   -1.9924338   0.64725988  1070540 
 3929000   0.90222013   -1.9918478   -1.9918478   -1.3452962  0.031781822   -1.9918478   0.64655162  1070540 
 3930000   0.90310696   -1.9923511   -1.9923511   -1.3451639   0.03643094   -1.9923511   0.64718715  1070540 
 3931000   0.90262078   -1.9919379   -1.9919379   -1.3450991  0.037883541   -1.9919379   0.64683874  1070540 
 3932000   0.90355529   -1.9927677   -1.9927677   -1.3452592  0.029421937   -1.9927677   0.64750843  1070540 
 3933000   0.90358026    -1.992957    -1.992957   -1.3454307  0.034689635    -1.992957   0.64752632  1070540 
 3934000   0.90305346   -1.9925607   -1.9925607   -1.3454119  0.034011092   -1.9925607   0.64714881  1070540 
 3935000   0.90327255   -1.9927567   -1.9927567   -1.3454509  0.033210147   -1.9927567   0.64730582  1070540 
 3936000   0.90198549   -1.9923036   -1.9923036   -1.3459201  0.032951545   -1.9923036   0.64638347  1070540 
 3937000   0.90290524    -1.993033    -1.993033   -1.3459904  0.023849113    -1.993033   0.64704259  1070540 
 3938000   0.90072545   -1.9917972   -1.9917972   -1.3463167  0.028777838   -1.9917972    0.6454805  1070540 
 3939000   0.90221819   -1.9928886   -1.9928886   -1.3463383  0.029840314   -1.9928886   0.64655024  1070540 
 3940000    0.9024691   -1.9925267   -1.9925267   -1.3457967    0.0410976   -1.9925267   0.64673004  1070540 
 3941000   0.90144654   -1.9920892   -1.9920892    -1.346092  0.026183366   -1.9920892   0.64599725  1070540 
 3942000   0.90156226   -1.9923052   -1.9923052    -1.346225  0.033590113   -1.9923052   0.64608018  1070540 
 3943000   0.90263199   -1.9931746   -1.9931746   -1.3463279  0.031957177   -1.9931746   0.64684677  1070540 
 3944000   0.90281073   -1.9930918   -1.9930918    -1.346117  0.028093456   -1.9930918   0.64697486  1070540 
 3945000   0.90124249   -1.9916064   -1.9916064   -1.3457553  0.036202612   -1.9916064   0.64585102  1070540 
 3946000   0.90215791   -1.9921895   -1.9921895   -1.3456825  0.044609119   -1.9921895   0.64650704  1070540 
 3947000   0.90265696   -1.9924808   -1.9924808   -1.3456161    0.0429474   -1.9924808   0.64686467  1070540 
 3948000   0.90361296   -1.9931962   -1.9931962   -1.3456464   0.03790554   -1.9931962   0.64754976  1070540 
 3949000    0.9035595   -1.9933645   -1.9933645    -1.345853  0.033311723   -1.9933645   0.64751145  1070540 
 3950000   0.90329804   -1.9928588   -1.9928588   -1.3455347  0.046342704   -1.9928588   0.64732408  1070540 
 3951000   0.90247763   -1.9921965   -1.9921965   -1.3454603  0.034049402   -1.9921965   0.64673615  1070540 
 3952000   0.90329388   -1.9926591   -1.9926591    -1.345338  0.031227516   -1.9926591    0.6473211  1070540 
 3953000    0.9031319   -1.9923439   -1.9923439   -1.3451389   0.03818306   -1.9923439   0.64720502  1070540 
 3954000   0.90314477   -1.9921118   -1.9921118   -1.3448975  0.030944956   -1.9921118   0.64721424  1070540 
 3955000   0.90145995   -1.9910347   -1.9910347   -1.3450278  0.037727405   -1.9910347   0.64600686  1070540 
 3956000   0.90196615   -1.9912204   -1.9912204   -1.3448508  0.025964621   -1.9912204   0.64636962  1070540 
 3957000   0.90261083   -1.9916027   -1.9916027   -1.3447711  0.036589119   -1.9916027   0.64683161  1070540 
 3958000   0.90289907   -1.9917294   -1.9917294   -1.3446913  0.034310758   -1.9917294   0.64703817  1070540 
 3959000   0.90170017   -1.9907089   -1.9907089   -1.3445299  0.026986337   -1.9907089   0.64617901  1070540 
 3960000   0.90209108   -1.9910886   -1.9910886   -1.3446295  0.029267362   -1.9910886   0.64645914  1070540 
 3961000    0.9028978   -1.9917622   -1.9917622   -1.3447249   0.02611145   -1.9917622   0.64703725  1070540 
 3962000   0.90358142   -1.9921577   -1.9921577   -1.3446306  0.039110047   -1.9921577   0.64752715  1070540 
 3963000   0.90250096   -1.9916472   -1.9916472   -1.3448943  0.030694521   -1.9916472   0.64675287  1070540 
 3964000   0.90373649   -1.9920378   -1.9920378   -1.3443995  0.030670803   -1.9920378   0.64763828  1070540 
 3965000   0.90216755   -1.9911753   -1.9911753   -1.3446614  0.033049745   -1.9911753   0.64651394  1070540 
 3966000   0.90163785    -1.990839    -1.990839   -1.3447047  0.040535834    -1.990839   0.64613435  1070540 
 3967000   0.90216449   -1.9910938   -1.9910938    -1.344582  0.029331883   -1.9910938   0.64651175  1070540 
 3968000   0.90272611   -1.9914207   -1.9914207   -1.3445065  0.030579317   -1.9914207   0.64691422  1070540 
 3969000   0.90260202    -1.991616    -1.991616   -1.3447907  0.030817904    -1.991616   0.64682529  1070540 
 3970000   0.90284201    -1.991942    -1.991942   -1.3449447  0.035409715    -1.991942   0.64699728  1070540 
 3971000    0.9021931   -1.9914114   -1.9914114   -1.3448791  0.032868305   -1.9914114   0.64653225  1070540 
 3972000   0.90309995   -1.9921516   -1.9921516   -1.3449695  0.031748418   -1.9921516   0.64718212  1070540 
 3973000    0.9032577   -1.9918398   -1.9918398   -1.3445446   0.03277838   -1.9918398   0.64729517  1070540 
 3974000   0.90312334   -1.9921473   -1.9921473   -1.3449484  0.032748298   -1.9921473   0.64719889  1070540 
 3975000   0.90315495   -1.9919918   -1.9919918   -1.3447702  0.040587013   -1.9919918   0.64722154  1070540 
 3976000   0.90371879   -1.9920103   -1.9920103   -1.3443847  0.036666371   -1.9920103    0.6476256  1070540 
 3977000   0.90334099    -1.991835    -1.991835   -1.3444802  0.035767078    -1.991835   0.64735486  1070540 
 3978000   0.90316162   -1.9916374   -1.9916374   -1.3444111  0.031381056   -1.9916374   0.64722632  1070540 
 3979000    0.9030902     -1.99153     -1.99153   -1.3443549   0.02508099     -1.99153   0.64717514  1070540 
 3980000   0.90271002   -1.9912321   -1.9912321   -1.3443294  0.034182176   -1.9912321   0.64690269  1070540 
 3981000   0.90354353   -1.9916877   -1.9916877   -1.3441877  0.039448595   -1.9916877       0.6475  1070540 
 3982000    0.9030242   -1.9915106   -1.9915106   -1.3443828  0.035888818   -1.9915106   0.64712784  1070540 
 3983000   0.90303333   -1.9915979   -1.9915979   -1.3444635   0.03012063   -1.9915979   0.64713438  1070540 
 3984000   0.90241772   -1.9914296   -1.9914296   -1.3447364  0.032547743   -1.9914296   0.64669322  1070540 
 3985000   0.90151666   -1.9903325   -1.9903325    -1.344285  0.029280599   -1.9903325    0.6460475  1070540 
 3986000   0.90217206   -1.9906338   -1.9906338   -1.3441166  0.025633964   -1.9906338   0.64651717  1070540 
 3987000   0.90194328   -1.9906556   -1.9906556   -1.3443024  0.028722194   -1.9906556   0.64635323  1070540 
 3988000   0.90242068   -1.9911271   -1.9911271   -1.3444317   0.03267597   -1.9911271   0.64669534  1070540 
 3989000   0.90253801   -1.9911747   -1.9911747   -1.3443953  0.033808709   -1.9911747   0.64677942  1070540 
 3990000   0.90374455   -1.9916423   -1.9916423   -1.3439982  0.028243285   -1.9916423   0.64764406  1070540 
 3991000   0.90208001   -1.9908816   -1.9908816   -1.3444304  0.031845409   -1.9908816   0.64645121  1070540 
 3992000    0.9039349   -1.9921884   -1.9921884    -1.344408  0.025556992   -1.9921884   0.64778046  1070540 
 3993000   0.90345907   -1.9917247   -1.9917247   -1.3442852  0.037095974   -1.9917247   0.64743947  1070540 
 3994000   0.90182927   -1.9909533   -1.9909533   -1.3446817  0.035576981   -1.9909533   0.64627153  1070540 
 3995000   0.90336922   -1.9921363   -1.9921363   -1.3447612  0.033824479   -1.9921363   0.64737509  1070540 
 3996000   0.90251243   -1.9914874   -1.9914874   -1.3447263  0.030136977   -1.9914874   0.64676109  1070540 
 3997000   0.90321852   -1.9920024   -1.9920024   -1.3447353  0.030918945   -1.9920024    0.6472671  1070540 
 3998000    0.9018869   -1.9912282   -1.9912282   -1.3449154  0.036891768   -1.9912282   0.64631282  1070540 
 3999000   0.90129707   -1.9908622   -1.9908622    -1.344972  0.031775356   -1.9908622   0.64589014  1070540 
 4000000   0.90317192   -1.9919453   -1.9919453   -1.3447116   0.03178225   -1.9919453    0.6472337  1070540 
Loop time of 7503.57 on 240 procs for 2000000 steps with 1070540 atoms

Performance: 115145.119 tau/day, 266.540 timesteps/s
96.3% CPU use with 240 MPI tasks x 1 OpenMP threads

MPI task timing breakdown:
Section |  min time  |  avg time  |  max time  |%varavg|  %CPU | %total
-----------------------------------------------------------------------
Pair    | 1231.8     | 1697.9     | 2427.5     | 516.2 |  97.8 | 22.63
Bond    | 1.3859     | 1.5327     | 1.7558     |   6.9 | 100.0 |  0.02
Neigh   | 1025.3     | 1990.6     | 2395       | 565.8 |  99.5 | 26.53
Comm    | 2044.3     | 2749.9     | 3990.2     | 690.0 |  94.2 | 36.65
Output  | 67.256     | 67.393     | 67.646     |   1.1 |  89.0 |  0.90
Modify  | 697.13     | 899.42     | 1320.9     | 461.2 |  94.6 | 11.99
Other   |            | 96.75      |            |       |       |  1.29

Nlocal:        4460.58 ave        5734 max        3445 min
Histogram: 3 2 4 53 125 47 2 1 0 3
Nghost:        10929.2 ave       13532 max        5489 min
Histogram: 6 13 17 4 4 5 29 73 81 8
Neighs:        77510.7 ave      109084 max       42335 min
Histogram: 3 1 9 24 62 78 36 16 9 2

Total # of neighbors = 18602577
Ave neighs/atom = 17.376816
Ave special neighs/atom = 0.0000000
Neighbor list builds = 200000
Dangerous builds = 198000

Total wall time: 4:15:46
