LAMMPS (3 Mar 2020)
  using 1 OpenMP thread(s) per MPI task
# Simple rigid body system


units		lj
atom_style	full
dimension 	3
boundary	p p f
pair_style	lj/cut/opt 4.4

variable 	sigma		equal 1.0
variable 	epsilon 	equal 1.0


region		box block 0 40 0 40 0 40
create_box 	3 box
Created orthogonal box = (0 0 0) to (40 40 40)
  2 by 4 by 4 MPI processor grid
lattice 	sc 1.0
Lattice spacing in x,y,z = 1 1 1

create_atoms 	3 region box
Created 64000 atoms
  create_atoms CPU = 0.183914 secs

mass		1 1.0
mass		2 1.0
mass		3 1.0
group		solvent type 3
64000 atoms in group solvent
velocity 	solvent create 1.0 563435 loop geom

replicate 	2 2 2
Replicating atoms ...
WARNING: Replicating in a non-periodic dimension (src/replicate.cpp:72)
  orthogonal box = (0 0 0) to (80 80 80)
  2 by 4 by 4 MPI processor grid
  512000 atoms
Finding 1-2 1-3 1-4 neighbors ...
  special bond factors lj:   0          0          0         
  special bond factors coul: 0          0          0         
  0 = max # of 1-2 neighbors
  0 = max # of 1-3 neighbors
  0 = max # of 1-4 neighbors
  1 = max # of special neighbors
  special bonds CPU = 2.04765 secs
  replicate CPU = 2.77727 secs
read_data	data.vac add append
Reading data file ...
  orthogonal box = (0 0 0) to (80 80 160)
  2 by 2 by 8 MPI processor grid
Finding 1-2 1-3 1-4 neighbors ...
  special bond factors lj:   0          0          0         
  special bond factors coul: 0          0          0         
  0 = max # of 1-2 neighbors
  0 = max # of 1-3 neighbors
  0 = max # of 1-4 neighbors
  1 = max # of special neighbors
  special bonds CPU = 0.00738951 secs
  read_data CPU = 0.0190857 secs

neighbor 	0.4 bin
pair_coeff	1 1 0.0 0.0
pair_coeff	2 2 0.0 0.0
pair_coeff	1 2 0.0 0.0
pair_coeff	1*2 3 0.0 0.0
pair_coeff	3 3 1.0 1.0
pair_modify 	shift yes

balance 	1.05 shift z 10 1.05
Balancing ...
Neighbor list info ...
  update every 1 steps, delay 10 steps, check yes
  max neighbors/atom: 2000, page size: 100000
  master list distance cutoff = 4.8
  ghost atom cutoff = 4.8
  binsize = 2.4, bins = 34 34 67
  1 neighbor lists, perpetual/occasional/extra = 1 0 0
  (1) pair lj/cut/opt, perpetual
      attributes: half, newton on
      pair build: half/bin/newton
      stencil: half/bin/3d/newton
      bin: standard
  rebalancing time: 0.0254367 seconds
  iteration count = 5
  initial/final max load/proc = 32000 19200
  initial/final imbalance factor = 2 1.2
  x cuts: 0 0.5 1
  y cuts: 0 0.5 1
  z cuts: 0 0.0625 0.128906 0.1875 0.257812 0.308594 0.386719 0.4375 1

####################### WALLS ###########################

region	       low block  EDGE EDGE EDGE EDGE 0 1

region 	       top block  EDGE EDGE EDGE EDGE 159 160

delete_atoms   region low
WARNING: Ignoring 'compress yes' for molecular system (src/delete_atoms.cpp:125)
Deleted 12800 atoms, new total = 499200

variable       epsilonWall equal 2*${epsilon}
variable       epsilonWall equal 2*1

variable       cutoffTop   equal   0.7147*${sigma}
variable       cutoffTop   equal   0.7147*1

variable       cutoffLow   equal   3*${sigma}
variable       cutoffLow   equal   3*1

fix            topWall all wall/lj93 zhi EDGE                ${epsilonWall} ${sigma} ${cutoffTop} units box
fix            topWall all wall/lj93 zhi EDGE                2 ${sigma} ${cutoffTop} units box
fix            topWall all wall/lj93 zhi EDGE                2 1 ${cutoffTop} units box
fix            topWall all wall/lj93 zhi EDGE                2 1 0.7147 units box

fix            lowWall all wall/lj93 zlo EDGE                ${epsilonWall} ${sigma} ${cutoffLow} units box
fix            lowWall all wall/lj93 zlo EDGE                2 ${sigma} ${cutoffLow} units box
fix            lowWall all wall/lj93 zlo EDGE                2 1 ${cutoffLow} units box
fix            lowWall all wall/lj93 zlo EDGE                2 1 3 units box



######################	FIXES ############################

#fix		1 cube rigid/nvt/small molecule temp 1.0 1.0 0.25

fix 		2 solvent nve

## Thermostat
region		regthermo block EDGE EDGE EDGE EDGE 0 20

group 		thermo dynamic solvent region regthermo every 1000
dynamic group thermo defined

fix 		3 thermo langevin 1.0 1.0 0.1 156453

#### Load balancing


fix 		bal all balance 1000 1.05 shift z 10 1.05


############### Diagnostics and computes ###################
#compute 	com cube	  rigid/local	1 mol x y z
#compute 	quat cube	  rigid/local	1 mol quatw quati quatj quatk

thermo 		1000
thermo_style 	custom step temp epair evdwl etotal press pe ke vol

dump		1 all custom 100000 dump.lammpstrj id mol type x y z
dump 		2 all image 10000 image.*.png type type
#dump 		3 all movie 100 movie.avi type type
#dump 		com cube local 1000 dump.*.xyz c_com[*]
#dump		quat cube      local 1000 dump.*.quat c_quat[*]


restart 	100000 restart.dat
timestep 	0.0025
timer 		full
New timer settings: style=full  mode=nosync  timeout=off


run		1000000
Setting up Verlet run ...
  Unit style    : lj
  Current step  : 0
  Time step     : 0.0025
Per MPI rank memory allocation (min/avg/max) = 26.46 | 38.89 | 48.94 Mbytes
Step Temp E_pair E_vdwl TotEng Press PotEng KinEng Volume 
       0    0.9999782   -4.1582862   -4.1582862   -2.6583219    8.3781089   -4.1582862    1.4999643      1024000 
    1000    1.5237505   -5.4567535   -5.4567535   -3.1711323    4.1219409   -5.4567535    2.2856212      1024000 
    2000    1.5159552   -5.5228459   -5.5228459   -3.2489176    2.6938647   -5.5228459    2.2739283      1024000 
    3000    1.5029555    -5.518472    -5.518472   -3.2640433    1.5077053    -5.518472    2.2544287      1024000 
    4000    1.4398717   -5.3923881   -5.3923881   -3.2325849   0.76176025   -5.3923881    2.1598032      1024000 
    5000    1.3540416   -5.2311456   -5.2311456   -3.2000872    0.3815325   -5.2311456    2.0310584      1024000 
    6000    1.2870825   -5.1023356   -5.1023356   -3.1717157   0.24993447   -5.1023356    1.9306199      1024000 
    7000    1.2722184   -5.0602566   -5.0602566   -3.1519328   0.29530243   -5.0602566    1.9083238      1024000 
    8000    1.2826389   -5.0632723   -5.0632723   -3.1393178   0.36277099   -5.0632723    1.9239545      1024000 
    9000    1.2895493   -5.0648439   -5.0648439   -3.1305239   0.38637347   -5.0648439      1.93432      1024000 
   10000     1.302417   -5.0773551   -5.0773551   -3.1237334   0.43248713   -5.0773551    1.9536216      1024000 
   11000    1.3205455   -5.0969531   -5.0969531   -3.1161388   0.50310661   -5.0969531    1.9808143      1024000 
   12000    1.3318851     -5.11007     -5.11007   -3.1122464   0.56041222     -5.11007    1.9978236      1024000 
   13000    1.3364661   -5.1082583   -5.1082583   -3.1035632   0.57180842   -5.1082583    2.0046952      1024000 
   14000    1.3277401   -5.0916492   -5.0916492   -3.1000431   0.51878898   -5.0916492    1.9916062      1024000 
   15000    1.3178745   -5.0679554   -5.0679554   -3.0911476   0.45117797   -5.0679554    1.9768078      1024000 
   16000     1.307508   -5.0482323   -5.0482323   -3.0869742   0.41454844   -5.0482323    1.9612581      1024000 
   17000    1.3061202   -5.0408868   -5.0408868   -3.0817104   0.38596444   -5.0408868    1.9591764      1024000 
   18000    1.3091701   -5.0389057   -5.0389057   -3.0751545   0.40007516   -5.0389057    1.9637512      1024000 
   19000    1.3148282   -5.0437069   -5.0437069   -3.0714685   0.43528377   -5.0437069    1.9722383      1024000 
   20000    1.3239004   -5.0529761   -5.0529761   -3.0671295   0.48518852   -5.0529761    1.9858466      1024000 
   21000    1.3365045   -5.0676442   -5.0676442   -3.0628915   0.89977359   -5.0676442    2.0047528      1024000 
   22000    1.3429701   -5.0721765   -5.0721765   -3.0577254    1.6486412   -5.0721765    2.0144511      1024000 
   23000     1.354131   -5.0860231   -5.0860231   -3.0548306    2.2339017   -5.0860231    2.0311925      1024000 
   24000    1.3590259   -5.0881584   -5.0881584   -3.0496237    1.7750351   -5.0881584    2.0385347      1024000 
   25000    1.3425042   -5.0577431   -5.0577431   -3.0439908    1.1700135   -5.0577431    2.0137523      1024000 
   26000    1.3051762   -4.9963853   -4.9963853    -3.038625   0.75075214   -4.9963853    1.9577604      1024000 
   27000    1.2548546   -4.9145142   -4.9145142    -3.032236   0.52469604   -4.9145142    1.8822781      1024000 
   28000      1.22568   -4.8680206   -4.8680206   -3.0295043   0.57368102   -4.8680206    1.8385163      1024000 
   29000    1.2248284   -4.8632224   -4.8632224   -3.0259835   0.80964988   -4.8632224    1.8372389      1024000 
   30000    1.2316237   -4.8691623   -4.8691623   -3.0217305    0.8336168   -4.8691623    1.8474318      1024000 
   31000    1.2290907   -4.8592356   -4.8592356   -3.0156032   0.84524869   -4.8592356    1.8436323      1024000 
   32000    1.2116241   -4.8316096   -4.8316096   -3.0141772    0.8877857   -4.8316096    1.8174324      1024000 
   33000    1.1552537   -4.7427502   -4.7427502   -3.0098731   0.49889362   -4.7427502    1.7328771      1024000 
   34000    1.0856594   -4.6357845   -4.6357845   -3.0072988   0.18421668   -4.6357845    1.6284858      1024000 
   35000    1.0275105   -4.5447795   -4.5447795   -3.0035168  0.024977024   -4.5447795    1.5412627      1024000 
   36000   0.99154699   -4.4846681   -4.4846681   -2.9973506 -0.025981956   -4.4846681    1.4873175      1024000 
   37000   0.97805669   -4.4626566   -4.4626566   -2.9955745 -0.018421933   -4.4626566    1.4670821      1024000 
   38000   0.98101214   -4.4639954   -4.4639954   -2.9924801  0.029218126   -4.4639954    1.4715153      1024000 
   39000   0.99010749   -4.4756022   -4.4756022   -2.9904439  0.061259692   -4.4756022    1.4851583      1024000 
   40000   0.99626411   -4.4834432   -4.4834432     -2.98905  0.082797329   -4.4834432    1.4943932      1024000 
   41000    1.0030279   -4.4914384   -4.4914384   -2.9868996   0.10856052   -4.4914384    1.5045389      1024000 
   42000     1.009243   -4.4974881   -4.4974881   -2.9836267    0.1197764   -4.4974881    1.5138614      1024000 
   43000    1.0111825   -4.5003069   -4.5003069   -2.9835363   0.12500174   -4.5003069    1.5167706      1024000 
   44000    1.0120857   -4.5009157   -4.5009157   -2.9827901   0.13530721   -4.5009157    1.5181256      1024000 
   45000    1.0137247   -4.5004194   -4.5004194   -2.9798354   0.13345146   -4.5004194     1.520584      1024000 
   46000    1.0147073   -4.5021649   -4.5021649   -2.9801069   0.13021945   -4.5021649     1.522058      1024000 
   47000    1.0183702   -4.5084568   -4.5084568   -2.9809046   0.13207901   -4.5084568    1.5275522      1024000 
   48000    1.0190756   -4.5093584   -4.5093584    -2.980748   0.13928367   -4.5093584    1.5286104      1024000 
   49000    1.0201283   -4.5114194   -4.5114194   -2.9812301   0.14333931   -4.5114194    1.5301893      1024000 
   50000    1.0214224   -4.5143135   -4.5143135   -2.9821829    0.1443814   -4.5143135    1.5321305      1024000 
   51000    1.0215026   -4.5166212   -4.5166212   -2.9843704   0.14358503   -4.5166212    1.5322508      1024000 
   52000    1.0224296    -4.520411    -4.520411   -2.9867697   0.15168657    -4.520411    1.5336413      1024000 
   53000    1.0279492   -4.5318194   -4.5318194   -2.9898988   0.15811253   -4.5318194    1.5419206      1024000 
   54000     1.028089     -4.54096     -4.54096   -2.9988296   0.17113539     -4.54096    1.5421304      1024000 
   55000    1.0283173   -4.5491152   -4.5491152   -3.0066424   0.17368381   -4.5491152    1.5424729      1024000 
   56000    1.0280063   -4.5579438   -4.5579438   -3.0159374   0.17303212   -4.5579438    1.5420064      1024000 
   57000    1.0279498   -4.5671518   -4.5671518   -3.0252302   0.17951253   -4.5671518    1.5419216      1024000 
   58000    1.0285367   -4.5754702   -4.5754702   -3.0326682   0.18229002   -4.5754702     1.542802      1024000 
   59000    1.0264393   -4.5791754   -4.5791754   -3.0395196   0.18590984   -4.5791754    1.5396559      1024000 
   60000    1.0255969   -4.5859138   -4.5859138   -3.0475216   0.18686695   -4.5859138    1.5383922      1024000 
   61000    1.0249462   -4.5889311   -4.5889311   -3.0515149   0.18714645   -4.5889311    1.5374162      1024000 
   62000    1.0237249   -4.5908144   -4.5908144   -3.0552301   0.18169669   -4.5908144    1.5355843      1024000 
   63000     1.019307   -4.5877602   -4.5877602   -3.0588029   0.16652876   -4.5877602    1.5289574      1024000 
   64000    1.0130146   -4.5782684   -4.5782684   -3.0587495   0.14547123   -4.5782684    1.5195189      1024000 
   65000    1.0087227   -4.5704156   -4.5704156   -3.0573346   0.13433895   -4.5704156     1.513081      1024000 
   66000    1.0059817   -4.5627735   -4.5627735   -3.0538039   0.12929901   -4.5627735    1.5089696      1024000 
   67000    1.0076498   -4.5621857   -4.5621857    -3.050714   0.12174954   -4.5621857    1.5114717      1024000 
   68000    1.0070129   -4.5621383   -4.5621383    -3.051622   0.12315069   -4.5621383    1.5105163      1024000 
   69000     1.007169   -4.5605969   -4.5605969   -3.0498464   0.12515781   -4.5605969    1.5107505      1024000 
   70000    1.0089131   -4.5615648   -4.5615648   -3.0481982   0.12394129   -4.5615648    1.5133666      1024000 
   71000    1.0105743   -4.5640317   -4.5640317   -3.0481733   0.11919853   -4.5640317    1.5158584      1024000 
   72000    1.0118615   -4.5660502   -4.5660502    -3.048261   0.12671142   -4.5660502    1.5177892      1024000 
   73000    1.0141662   -4.5693969   -4.5693969   -3.0481508    0.1370013   -4.5693969    1.5212462      1024000 
   74000    1.0141498   -4.5700298   -4.5700298   -3.0488082   0.14012041   -4.5700298    1.5212216      1024000 
   75000    1.0148327   -4.5726469   -4.5726469   -3.0504009   0.13336853   -4.5726469     1.522246      1024000 
   76000     1.014146    -4.573973    -4.573973   -3.0527569   0.13015236    -4.573973     1.521216      1024000 
   77000    1.0138473   -4.5755598   -4.5755598   -3.0547919   0.12820046   -4.5755598    1.5207679      1024000 
   78000    1.0139306   -4.5746499   -4.5746499    -3.053757   0.13281733   -4.5746499    1.5208929      1024000 
   79000     1.016072    -4.576616    -4.576616   -3.0525111   0.12223349    -4.576616    1.5241049      1024000 
   80000     1.011553   -4.5709774   -4.5709774    -3.053651   0.12685842   -4.5709774    1.5173264      1024000 
   81000    1.0137268   -4.5718607   -4.5718607   -3.0512735    0.1238473   -4.5718607    1.5205871      1024000 
   82000    1.0134523   -4.5706058   -4.5706058   -3.0504304   0.11652601   -4.5706058    1.5201754      1024000 
   83000     1.012231   -4.5681845   -4.5681845    -3.049841   0.11522737   -4.5681845    1.5183434      1024000 
   84000    1.0114579   -4.5699827   -4.5699827   -3.0527988   0.11055404   -4.5699827    1.5171839      1024000 
   85000    1.0112973   -4.5681932   -4.5681932   -3.0512503   0.11121249   -4.5681932     1.516943      1024000 
   86000    1.0126919   -4.5689729   -4.5689729   -3.0499381   0.11330638   -4.5689729    1.5190348      1024000 
   87000     1.011585     -4.56837     -4.56837   -3.0509955   0.11668254     -4.56837    1.5173745      1024000 
   88000    1.0120391   -4.5695926   -4.5695926    -3.051537   0.12512637   -4.5695926    1.5180556      1024000 
   89000    1.0148003   -4.5718587   -4.5718587   -3.0496613   0.12309972   -4.5718587    1.5221973      1024000 
   90000    1.0162635   -4.5766519   -4.5766519   -3.0522596   0.11857453   -4.5766519    1.5243923      1024000 
   91000    1.0145696   -4.5734028   -4.5734028   -3.0515514   0.11941859   -4.5734028    1.5218513      1024000 
   92000    1.0151363   -4.5726848   -4.5726848   -3.0499834   0.11832043   -4.5726848    1.5227014      1024000 
   93000    1.0159789   -4.5750292   -4.5750292   -3.0510639   0.11489435   -4.5750292    1.5239654      1024000 
   94000    1.0150781   -4.5763732   -4.5763732   -3.0537591   0.11378977   -4.5763732    1.5226141      1024000 
   95000     1.015902   -4.5766368   -4.5766368   -3.0527869   0.11228616   -4.5766368    1.5238499      1024000 
   96000    1.0168106   -4.5760459   -4.5760459   -3.0508331   0.11813847   -4.5760459    1.5252129      1024000 
   97000    1.0153648   -4.5776067   -4.5776067   -3.0545625   0.12392997   -4.5776067    1.5230442      1024000 
   98000    1.0193613   -4.5825469   -4.5825469    -3.053508   0.11705161   -4.5825469     1.529039      1024000 
   99000    1.0178404     -4.58016     -4.58016   -3.0534025   0.12638747     -4.58016    1.5267575      1024000 
  100000    1.0196931   -4.5831512   -4.5831512   -3.0536146   0.12485773   -4.5831512    1.5295366      1024000 
  101000    1.0209211   -4.5836414   -4.5836414   -3.0522628   0.12095197   -4.5836414    1.5313786      1024000 
  102000    1.0200075   -4.5823166   -4.5823166   -3.0523084   0.12646417   -4.5823166    1.5300082      1024000 
  103000    1.0187385    -4.583017    -4.583017   -3.0549123   0.12333521    -4.583017    1.5281047      1024000 
  104000    1.0191096   -4.5838816   -4.5838816   -3.0552203   0.11787531   -4.5838816    1.5286613      1024000 
  105000    1.0216226   -4.5856739   -4.5856739   -3.0532431    0.1198435   -4.5856739    1.5324308      1024000 
  106000    1.0200076   -4.5849488   -4.5849488   -3.0549404    0.1281614   -4.5849488    1.5300084      1024000 
  107000    1.0220269   -4.5873076   -4.5873076   -3.0542702   0.13209832   -4.5873076    1.5330373      1024000 
  108000    1.0223804   -4.5884549   -4.5884549   -3.0548874   0.13337845   -4.5884549    1.5335675      1024000 
  109000    1.0246198   -4.5917005   -4.5917005   -3.0547739   0.13310407   -4.5917005    1.5369266      1024000 
  110000    1.0260765   -4.5929978   -4.5929978    -3.053886    0.1364492   -4.5929978    1.5391117      1024000 
  111000    1.0257751    -4.596182    -4.596182   -3.0575224   0.13707996    -4.596182    1.5386596      1024000 
  112000    1.0287158   -4.5999933   -4.5999933   -3.0569226   0.14151317   -4.5999933    1.5430707      1024000 
  113000     1.030016     -4.60337     -4.60337   -3.0583491   0.14333624     -4.60337    1.5450209      1024000 
  114000    1.0323589   -4.6051533   -4.6051533    -3.056618   0.15356934   -4.6051533    1.5485352      1024000 
  115000    1.0335341   -4.6076361   -4.6076361   -3.0573381   0.15453387   -4.6076361     1.550298      1024000 
  116000    1.0330216   -4.6095055   -4.6095055   -3.0599761   0.16259662   -4.6095055    1.5495293      1024000 
  117000    1.0333634   -4.6141625   -4.6141625   -3.0641205   0.15937488   -4.6141625    1.5500419      1024000 
  118000    1.0337702   -4.6139496   -4.6139496   -3.0632974   0.16698839   -4.6139496    1.5506522      1024000 
  119000    1.0342129   -4.6141129   -4.6141129   -3.0627966   0.17070018   -4.6141129    1.5513163      1024000 
  120000    1.0319329   -4.6124918   -4.6124918   -3.0645956   0.16470427   -4.6124918    1.5478962      1024000 
  121000    1.0316707   -4.6151399   -4.6151399    -3.067637   0.14715224   -4.6151399     1.547503      1024000 
  122000    1.0290501   -4.6111967   -4.6111967   -3.0676246   0.15222471   -4.6111967    1.5435721      1024000 
  123000    1.0282176   -4.6095113   -4.6095113   -3.0671879   0.14620712   -4.6095113    1.5423234      1024000 
  124000    1.0251625   -4.6083519   -4.6083519   -3.0706113   0.13710253   -4.6083519    1.5377406      1024000 
  125000    1.0232167   -4.6045064   -4.6045064   -3.0696844   0.13117949   -4.6045064     1.534822      1024000 
  126000    1.0203754   -4.5997486   -4.5997486   -3.0691885   0.12304296   -4.5997486      1.53056      1024000 
  127000    1.0175462   -4.5945304   -4.5945304    -3.068214    0.1182677   -4.5945304    1.5263163      1024000 
  128000    1.0143919   -4.5900755   -4.5900755   -3.0684907   0.10654606   -4.5900755    1.5215848      1024000 
  129000    1.0125385   -4.5868358   -4.5868358   -3.0680311  0.092933084   -4.5868358    1.5188047      1024000 
  130000    1.0109403   -4.5802592   -4.5802592   -3.0638518  0.092517643   -4.5802592    1.5164075      1024000 
  131000    1.0074957   -4.5755247   -4.5755247   -3.0642841  0.082133731   -4.5755247    1.5112406      1024000 
  132000    1.0062342   -4.5689391   -4.5689391   -3.0595908  0.080260866   -4.5689391    1.5093483      1024000 
  133000    1.0027084   -4.5648243   -4.5648243   -3.0607646  0.068028587   -4.5648243    1.5040596      1024000 
  134000    1.0009121   -4.5602582   -4.5602582   -3.0588931  0.058854683   -4.5602582    1.5013651      1024000 
  135000   0.99769434   -4.5544501   -4.5544501   -3.0579116   0.05143776   -4.5544501    1.4965385      1024000 
  136000   0.99562892   -4.5511569   -4.5511569   -3.0577166  0.036148084   -4.5511569    1.4934404      1024000 
  137000   0.99317606   -4.5442072   -4.5442072   -3.0544461  0.037855809   -4.5442072    1.4897611      1024000 
  138000   0.99216969    -4.542637    -4.542637   -3.0543855  0.035156467    -4.542637    1.4882516      1024000 
  139000    0.9903848   -4.5391806   -4.5391806   -3.0536064  0.028304164   -4.5391806    1.4855742      1024000 
  140000   0.98974146   -4.5371664   -4.5371664   -3.0525572  0.027214688   -4.5371664    1.4846092      1024000 
  141000   0.98998367   -4.5371613   -4.5371613   -3.0521888  0.024070128   -4.5371613    1.4849725      1024000 
  142000    0.9901251   -4.5348682   -4.5348682   -3.0496835  0.023583364   -4.5348682    1.4851847      1024000 
  143000   0.99047755     -4.53465     -4.53465   -3.0489367  0.017267459     -4.53465    1.4857133      1024000 
  144000   0.98954897   -4.5319638   -4.5319638   -3.0476433  0.022970822   -4.5319638    1.4843205      1024000 
  145000   0.99043661   -4.5324804   -4.5324804   -3.0468284  0.019496395   -4.5324804    1.4856519      1024000 
  146000   0.99159376   -4.5337937   -4.5337937   -3.0464061  0.016649674   -4.5337937    1.4873877      1024000 
  147000   0.99300335   -4.5336552   -4.5336552   -3.0441531    0.0289267   -4.5336552     1.489502      1024000 
  148000   0.99340615     -4.53486     -4.53486   -3.0447538  0.029703048     -4.53486    1.4901062      1024000 
  149000   0.99455217   -4.5365375   -4.5365375   -3.0447122  0.031788945   -4.5365375    1.4918253      1024000 
  150000   0.99510078   -4.5392185   -4.5392185   -3.0465703  0.035121841   -4.5392185    1.4926482      1024000 
  151000   0.99671427   -4.5397917   -4.5397917   -3.0447233  0.047239269   -4.5397917    1.4950684      1024000 
  152000   0.99907535   -4.5435006   -4.5435006   -3.0448906  0.048428789   -4.5435006      1.49861      1024000 
  153000    1.0033081   -4.5485195   -4.5485195   -3.0435604  0.049214754   -4.5485195    1.5049591      1024000 
  154000    1.0020853   -4.5483511   -4.5483511   -3.0452262  0.053898519   -4.5483511    1.5031249      1024000 
  155000    1.0052637   -4.5527358   -4.5527358   -3.0448432  0.061866023   -4.5527358    1.5078926      1024000 
  156000    1.0080908   -4.5560359   -4.5560359   -3.0439026  0.068573991   -4.5560359    1.5121332      1024000 
  157000    1.0098546   -4.5618988   -4.5618988     -3.04712  0.073224914   -4.5618988    1.5147788      1024000 
  158000    1.0106632   -4.5642033   -4.5642033   -3.0482116  0.080635982   -4.5642033    1.5159917      1024000 
  159000    1.0136483   -4.5682094   -4.5682094     -3.04774  0.088229849   -4.5682094    1.5204694      1024000 
  160000    1.0150345   -4.5728233   -4.5728233   -3.0502746  0.097368058   -4.5728233    1.5225487      1024000 
  161000    1.0177929   -4.5769651   -4.5769651   -3.0502787  0.095496754   -4.5769651    1.5266863      1024000 
  162000    1.0202182   -4.5798069   -4.5798069   -3.0494826   0.10398101   -4.5798069    1.5303243      1024000 
  163000    1.0198919   -4.5819232   -4.5819232   -3.0520884   0.10644677   -4.5819232    1.5298348      1024000 
  164000    1.0195642   -4.5829234   -4.5829234   -3.0535801   0.11166186   -4.5829234    1.5293433      1024000 
  165000    1.0200967   -4.5836206   -4.5836206   -3.0534787   0.11813261   -4.5836206    1.5301419      1024000 
  166000    1.0210632   -4.5886743   -4.5886743   -3.0570825   0.11635745   -4.5886743    1.5315918      1024000 
  167000    1.0208122   -4.5895859   -4.5895859   -3.0583707   0.11325154   -4.5895859    1.5312153      1024000 
  168000    1.0202343   -4.5921565   -4.5921565   -3.0618082   0.11295209   -4.5921565    1.5303484      1024000 
  169000    1.0191532   -4.5913546   -4.5913546   -3.0626279   0.11863753   -4.5913546    1.5287267      1024000 
  170000    1.0184855   -4.5909108   -4.5909108   -3.0631856   0.11023626   -4.5909108    1.5277252      1024000 
  171000    1.0179016   -4.5893156   -4.5893156   -3.0624662   0.11025579   -4.5893156    1.5268494      1024000 
  172000    1.0168378   -4.5887056   -4.5887056    -3.063452   0.10552232   -4.5887056    1.5252536      1024000 
  173000    1.0155667   -4.5864707   -4.5864707   -3.0631236  0.098107275   -4.5864707    1.5233471      1024000 
  174000    1.0151996   -4.5870253   -4.5870253   -3.0642289  0.090183839   -4.5870253    1.5227964      1024000 
  175000    1.0130887   -4.5823462   -4.5823462   -3.0627162   0.10002095   -4.5823462      1.51963      1024000 
  176000     1.012356    -4.581468    -4.581468    -3.062937  0.090891335    -4.581468     1.518531      1024000 
  177000    1.0124772    -4.580831    -4.580831   -3.0621183  0.088276715    -4.580831    1.5187127      1024000 
  178000      1.00969   -4.5771073   -4.5771073   -3.0625754  0.082339102   -4.5771073     1.514532      1024000 
  179000    1.0087838   -4.5745592   -4.5745592   -3.0613865  0.078002714   -4.5745592    1.5131727      1024000 
  180000    1.0062028   -4.5717343   -4.5717343   -3.0624331  0.072601679   -4.5717343    1.5093012      1024000 
  181000    1.0028401   -4.5672487   -4.5672487   -3.0629917  0.066039063   -4.5672487    1.5042571      1024000 
  182000    1.0034279   -4.5644235   -4.5644235   -3.0592846  0.062061844   -4.5644235    1.5051389      1024000 
  183000    1.0026645   -4.5635202   -4.5635202   -3.0595265  0.056494754   -4.5635202    1.5039937      1024000 
  184000    1.0010552   -4.5618395   -4.5618395   -3.0602597  0.054056384   -4.5618395    1.5015798      1024000 
  185000    1.0001781   -4.5582019   -4.5582019   -3.0579377  0.052371162   -4.5582019    1.5002642      1024000 
  186000   0.99823702   -4.5585771   -4.5585771   -3.0612245  0.041979908   -4.5585771    1.4973525      1024000 
  187000   0.99747267   -4.5532455   -4.5532455   -3.0570394  0.046544706   -4.5532455     1.496206      1024000 
  188000   0.99841177   -4.5537563   -4.5537563   -3.0561416  0.043884466   -4.5537563    1.4976147      1024000 
  189000   0.99740277   -4.5526784   -4.5526784   -3.0565773  0.039814596   -4.5526784    1.4961012      1024000 
  190000   0.99839756   -4.5515289   -4.5515289   -3.0539356  0.044602891   -4.5515289    1.4975933      1024000 
  191000   0.99605483   -4.5503641   -4.5503641   -3.0562848  0.039549628   -4.5503641    1.4940793      1024000 
  192000   0.99744827   -4.5502376   -4.5502376   -3.0540682  0.038807188   -4.5502376    1.4961694      1024000 
  193000   0.99671829   -4.5490204   -4.5490204   -3.0539459  0.037626869   -4.5490204    1.4950744      1024000 
  194000   0.99724507   -4.5499673   -4.5499673   -3.0541027  0.046397203   -4.5499673    1.4958646      1024000 
  195000   0.99771549   -4.5500548   -4.5500548   -3.0534846  0.039484693   -4.5500548    1.4965702      1024000 
  196000   0.99965812       -4.553       -4.553   -3.0535158  0.036552397       -4.553    1.4994842      1024000 
  197000   0.99927687   -4.5516017   -4.5516017   -3.0526894   0.04652824   -4.5516017    1.4989123      1024000 
  198000    1.0005986   -4.5529018   -4.5529018    -3.052007  0.046136661   -4.5529018    1.5008949      1024000 
  199000    1.0007352   -4.5536487   -4.5536487    -3.052549  0.052535889   -4.5536487    1.5010997      1024000 
  200000    1.0027305   -4.5571267   -4.5571267    -3.053034  0.051621628   -4.5571267    1.5040927      1024000 
  201000     1.003141   -4.5583206   -4.5583206   -3.0536122  0.056170148   -4.5583206    1.5047084      1024000 
  202000    1.0056293   -4.5616666   -4.5616666   -3.0532256  0.060568582   -4.5616666     1.508441      1024000 
  203000      1.00776   -4.5663955   -4.5663955   -3.0547586  0.063655874   -4.5663955    1.5116369      1024000 
  204000    1.0076679   -4.5662678   -4.5662678    -3.054769  0.067398749   -4.5662678    1.5114988      1024000 
  205000    1.0074854   -4.5672257   -4.5672257   -3.0560006  0.073043689   -4.5672257    1.5112251      1024000 
  206000    1.0092741    -4.569595    -4.569595   -3.0556868  0.075874548    -4.569595    1.5139082      1024000 
  207000    1.0102059   -4.5729057   -4.5729057   -3.0575998  0.073301177   -4.5729057    1.5153059      1024000 
  208000    1.0108282   -4.5732195   -4.5732195   -3.0569802  0.083556351   -4.5732195    1.5162393      1024000 
  209000    1.0122235   -4.5757653   -4.5757653   -3.0574331  0.086774245   -4.5757653    1.5183322      1024000 
  210000    1.0134438   -4.5780016   -4.5780016   -3.0578389  0.089168301   -4.5780016    1.5201627      1024000 
  211000    1.0121535   -4.5790745   -4.5790745   -3.0608473  0.092529234   -4.5790745    1.5182272      1024000 
  212000    1.0108023    -4.576762    -4.576762   -3.0605617  0.092771515    -4.576762    1.5162004      1024000 
  213000    1.0109602   -4.5798471   -4.5798471   -3.0634099  0.091570751   -4.5798471    1.5164372      1024000 
  214000     1.011793   -4.5808839   -4.5808839   -3.0631974  0.091401705   -4.5808839    1.5176865      1024000 
  215000    1.0140499   -4.5837118   -4.5837118     -3.06264   0.08375978   -4.5837118    1.5210718      1024000 
  216000    1.0113435   -4.5816689   -4.5816689   -3.0646566  0.089368942   -4.5816689    1.5170123      1024000 
  217000    1.0104141    -4.578642    -4.578642   -3.0630239  0.093542402    -4.578642    1.5156181      1024000 
  218000    1.0107978   -4.5797309   -4.5797309   -3.0635373  0.089151718   -4.5797309    1.5161936      1024000 
  219000    1.0114452   -4.5829894   -4.5829894   -3.0658246   0.08571539   -4.5829894    1.5171648      1024000 
  220000    1.0101705   -4.5802066   -4.5802066    -3.064954  0.090354054   -4.5802066    1.5152527      1024000 
  221000    1.0094777   -4.5800017   -4.5800017   -3.0657882  0.086483585   -4.5800017    1.5142135      1024000 
  222000    1.0085549   -4.5782716   -4.5782716   -3.0654423  0.082148404   -4.5782716    1.5128292      1024000 
  223000    1.0068102   -4.5765791   -4.5765791   -3.0663668   0.07432447   -4.5765791    1.5102123      1024000 
  224000    1.0061277   -4.5741601   -4.5741601   -3.0649716  0.076095735   -4.5741601    1.5091885      1024000 
  225000    1.0049863   -4.5724659   -4.5724659   -3.0649895  0.071913113   -4.5724659    1.5074764      1024000 
  226000    1.0049672   -4.5718377   -4.5718377     -3.06439  0.066107648   -4.5718377    1.5074477      1024000 
  227000    1.0019845   -4.5684232   -4.5684232   -3.0654495  0.071621738   -4.5684232    1.5029738      1024000 
  228000    1.0021289   -4.5693455   -4.5693455   -3.0661552  0.058370579   -4.5693455    1.5031903      1024000 
  229000    1.0028251   -4.5679274   -4.5679274   -3.0636928  0.063076347   -4.5679274    1.5042346      1024000 
  230000    1.0016621   -4.5673716   -4.5673716   -3.0648814   0.06187691   -4.5673716    1.5024901      1024000 
  231000   0.99988491   -4.5647724   -4.5647724   -3.0649481  0.058261925   -4.5647724    1.4998244      1024000 
  232000   0.99874914   -4.5617722   -4.5617722   -3.0636515  0.061904435   -4.5617722    1.4981207      1024000 
  233000    1.0015731   -4.5641713   -4.5641713   -3.0618146    0.0497947   -4.5641713    1.5023567      1024000 
  234000   0.99951795   -4.5606497   -4.5606497   -3.0613758  0.055945098   -4.5606497    1.4992739      1024000 
  235000   0.99843068   -4.5595769   -4.5595769   -3.0619338  0.052375185   -4.5595769     1.497643      1024000 
  236000   0.99885302   -4.5595256   -4.5595256   -3.0612491  0.051926115   -4.5595256    1.4982765      1024000 
  237000   0.99939134   -4.5614248   -4.5614248   -3.0623408  0.050634313   -4.5614248     1.499084      1024000 
  238000   0.99973988   -4.5604538   -4.5604538    -3.060847  0.051288501   -4.5604538    1.4996068      1024000 
  239000    1.0008985   -4.5625586   -4.5625586   -3.0612138  0.048343881   -4.5625586    1.5013448      1024000 
  240000   0.99935852   -4.5597725   -4.5597725   -3.0607377   0.04982425   -4.5597725    1.4990348      1024000 
  241000   0.99947707   -4.5612245   -4.5612245   -3.0620119  0.050451319   -4.5612245    1.4992126      1024000 
  242000    1.0006922   -4.5612666   -4.5612666   -3.0602313  0.054806126   -4.5612666    1.5010352      1024000 
  243000    1.0005925   -4.5640705   -4.5640705   -3.0631847  0.048794937   -4.5640705    1.5008858      1024000 
  244000    1.0015932   -4.5628854   -4.5628854   -3.0604986  0.056327009   -4.5628854    1.5023868      1024000 
  245000     1.001194   -4.5625842   -4.5625842   -3.0607962  0.062053788   -4.5625842     1.501788      1024000 
  246000    1.0021729   -4.5644133   -4.5644133    -3.061157  0.059276146   -4.5644133    1.5032564      1024000 
  247000    1.0029983   -4.5648914   -4.5648914   -3.0603969  0.064029116   -4.5648914    1.5044945      1024000 
  248000    1.0034449   -4.5667283   -4.5667283   -3.0615639  0.064604399   -4.5667283    1.5051644      1024000 
  249000    1.0038511   -4.5696067   -4.5696067    -3.063833   0.06630523   -4.5696067    1.5057737      1024000 
  250000    1.0056028   -4.5708848   -4.5708848   -3.0624836   0.07207774   -4.5708848    1.5084011      1024000 
  251000    1.0048247   -4.5711833   -4.5711833   -3.0639493  0.071064023   -4.5711833     1.507234      1024000 
  252000    1.0060467   -4.5745245   -4.5745245   -3.0654575    0.0696717   -4.5745245     1.509067      1024000 
  253000    1.0061813   -4.5744557   -4.5744557   -3.0651868  0.075628209   -4.5744557    1.5092689      1024000 
  254000    1.0064623   -4.5752188   -4.5752188   -3.0655283    0.0730183   -4.5752188    1.5096905      1024000 
  255000     1.006451   -4.5756207   -4.5756207   -3.0659473  0.075014892   -4.5756207    1.5096734      1024000 
  256000    1.0069745   -4.5760505   -4.5760505   -3.0655918  0.073616077   -4.5760505    1.5104587      1024000 
  257000    1.0055738   -4.5762465   -4.5762465   -3.0678888  0.075997319   -4.5762465    1.5083576      1024000 
  258000    1.0076252   -4.5786011   -4.5786011   -3.0671663  0.076497578   -4.5786011    1.5114348      1024000 
  259000    1.0078671   -4.5808715   -4.5808715    -3.069074  0.073011378   -4.5808715    1.5117976      1024000 
  260000    1.0055248   -4.5784232   -4.5784232    -3.070139   0.08141496   -4.5784232    1.5082842      1024000 
  261000    1.0086504   -4.5825362   -4.5825362   -3.0695636  0.077682804   -4.5825362    1.5129726      1024000 
  262000     1.007858   -4.5814477   -4.5814477   -3.0696638    0.0772752   -4.5814477    1.5117839      1024000 
  263000    1.0073837    -4.580215    -4.580215   -3.0691425  0.074772887    -4.580215    1.5110726      1024000 
  264000    1.0067073   -4.5797541   -4.5797541   -3.0696962  0.075179479   -4.5797541    1.5100579      1024000 
  265000    1.0068794   -4.5800591   -4.5800591   -3.0697431  0.080217262   -4.5800591    1.5103161      1024000 
  266000    1.0064968   -4.5794547   -4.5794547   -3.0697126  0.077478585   -4.5794547    1.5097422      1024000 
  267000    1.0058235    -4.579704    -4.579704   -3.0709718  0.071878107    -4.579704    1.5087322      1024000 
  268000    1.0065257   -4.5786261   -4.5786261   -3.0688405  0.078149461   -4.5786261    1.5097855      1024000 
  269000    1.0062294   -4.5781601   -4.5781601    -3.068819  0.068974546   -4.5781601    1.5093411      1024000 
  270000    1.0041593   -4.5748081   -4.5748081   -3.0685722  0.073927195   -4.5748081    1.5062359      1024000 
  271000     1.002937   -4.5746943   -4.5746943   -3.0702918  0.067839203   -4.5746943    1.5044025      1024000 
  272000    1.0016137   -4.5733066   -4.5733066    -3.070889   0.06897921   -4.5733066    1.5024176      1024000 
  273000     1.002788   -4.5741012   -4.5741012   -3.0699223  0.066259509   -4.5741012    1.5041789      1024000 
  274000    1.0014405   -4.5727752   -4.5727752   -3.0706174  0.069678796   -4.5727752    1.5021578      1024000 
  275000    1.0004133   -4.5712566   -4.5712566   -3.0706397  0.067305419   -4.5712566    1.5006169      1024000 
  276000    1.0023791   -4.5742335   -4.5742335   -3.0706678  0.054929209   -4.5742335    1.5035657      1024000 
  277000    1.0014224   -4.5725306   -4.5725306   -3.0703999  0.061158904   -4.5725306    1.5021306      1024000 
  278000    1.0012806   -4.5719756   -4.5719756   -3.0700577  0.057416229   -4.5719756    1.5019179      1024000 
  279000   0.99991852   -4.5688375   -4.5688375   -3.0689627  0.059497265   -4.5688375    1.4998748      1024000 
  280000    1.0017796   -4.5704036   -4.5704036   -3.0677373  0.054774432   -4.5704036    1.5026663      1024000 
  281000    1.0004059   -4.5699042   -4.5699042   -3.0692984  0.056590573   -4.5699042    1.5006058      1024000 
  282000    1.0004958   -4.5702353   -4.5702353   -3.0694946  0.054828262   -4.5702353    1.5007407      1024000 
  283000    1.0007467   -4.5702367   -4.5702367   -3.0691197  0.055375196   -4.5702367     1.501117      1024000 
  284000   0.99908805   -4.5672833   -4.5672833   -3.0686542  0.060492148   -4.5672833    1.4986291      1024000 
  285000   0.99965588     -4.56767     -4.56767   -3.0681892  0.057857767     -4.56767    1.4994808      1024000 
  286000    1.0000771   -4.5685867   -4.5685867    -3.068474  0.055043616   -4.5685867    1.5001127      1024000 
  287000    1.0005374   -4.5684789   -4.5684789   -3.0676757  0.057192217   -4.5684789    1.5008032      1024000 
  288000    1.0000425   -4.5693907   -4.5693907   -3.0693299   0.05669605   -4.5693907    1.5000607      1024000 
  289000   0.99906673    -4.567434    -4.567434   -3.0688369  0.061938561    -4.567434    1.4985971      1024000 
  290000    1.0015262   -4.5731744   -4.5731744   -3.0708882  0.052926216   -4.5731744    1.5022863      1024000 
  291000    1.0008271   -4.5710726   -4.5710726    -3.069835   0.06041841   -4.5710726    1.5012376      1024000 
  292000    1.0008836   -4.5721534   -4.5721534    -3.070831  0.061091415   -4.5721534    1.5013224      1024000 
  293000    1.0025591   -4.5743364   -4.5743364   -3.0705007  0.056783777   -4.5743364    1.5038356      1024000 
  294000    1.0008032   -4.5717379   -4.5717379   -3.0705361  0.062724026   -4.5717379    1.5012018      1024000 
  295000    1.0012134   -4.5721583   -4.5721583   -3.0703411  0.064333222   -4.5721583    1.5018172      1024000 
  296000    1.0017756   -4.5730611   -4.5730611   -3.0704007  0.063002882   -4.5730611    1.5026604      1024000 
  297000    1.0033576   -4.5744129   -4.5744129   -3.0693795  0.066373243   -4.5744129    1.5050333      1024000 
  298000    1.0040733   -4.5766819   -4.5766819   -3.0705749  0.068677127   -4.5766819     1.506107      1024000 
  299000    1.0029644    -4.577594    -4.577594   -3.0731504  0.072403298    -4.577594    1.5044436      1024000 
  300000    1.0055665   -4.5804004   -4.5804004   -3.0720536   0.06869235   -4.5804004    1.5083467      1024000 
  301000    1.0029166   -4.5771321   -4.5771321   -3.0727602  0.075199327   -4.5771321    1.5043719      1024000 
  302000    1.0040732    -4.577618    -4.577618   -3.0715111  0.072432145    -4.577618    1.5061068      1024000 
  303000    1.0034555   -4.5777417   -4.5777417   -3.0725614   0.07458334   -4.5777417    1.5051802      1024000 
  304000     1.003693   -4.5779565   -4.5779565   -3.0724201  0.074776988   -4.5779565    1.5055364      1024000 
  305000    1.0042395   -4.5784513   -4.5784513   -3.0720951  0.072836036   -4.5784513    1.5063562      1024000 
  306000    1.0048338   -4.5809896   -4.5809896   -3.0737419  0.066561896   -4.5809896    1.5072477      1024000 
  307000    1.0038817    -4.580554    -4.580554   -3.0747345  0.073679432    -4.580554    1.5058195      1024000 
  308000    1.0041784   -4.5802316   -4.5802316    -3.073967  0.071300207   -4.5802316    1.5062646      1024000 
  309000    1.0049308   -4.5802253   -4.5802253   -3.0728321  0.069512059   -4.5802253    1.5073932      1024000 
  310000    1.0038376   -4.5790088   -4.5790088   -3.0732554  0.072388856   -4.5790088    1.5057534      1024000 
  311000     1.003813   -4.5781744   -4.5781744   -3.0724579  0.075914123   -4.5781744    1.5057164      1024000 
  312000    1.0033461   -4.5778318   -4.5778318   -3.0728157  0.070753864   -4.5778318    1.5050161      1024000 
  313000    1.0032473   -4.5799717   -4.5799717   -3.0751038  0.066499177   -4.5799717    1.5048679      1024000 
  314000    1.0039323   -4.5806848   -4.5806848   -3.0747893  0.069248981   -4.5806848    1.5058955      1024000 
  315000    1.0037295   -4.5800824   -4.5800824   -3.0744912  0.067456269   -4.5800824    1.5055912      1024000 
  316000    1.0034414   -4.5802292   -4.5802292   -3.0750702  0.067550211   -4.5802292     1.505159      1024000 
  317000    1.0030077   -4.5774187   -4.5774187   -3.0729101  0.070207062   -4.5774187    1.5045086      1024000 
  318000    1.0026501   -4.5783355   -4.5783355   -3.0743634  0.063709434   -4.5783355    1.5039721      1024000 
  319000    1.0012741   -4.5765477   -4.5765477   -3.0746396  0.064764662   -4.5765477    1.5019081      1024000 
  320000    1.0004158   -4.5763039   -4.5763039   -3.0756833  0.060297979   -4.5763039    1.5006206      1024000 
  321000    1.0004741   -4.5759217   -4.5759217   -3.0752135  0.059093321   -4.5759217    1.5007082      1024000 
  322000    1.0013966   -4.5773815   -4.5773815   -3.0752896  0.052986329   -4.5773815    1.5020919      1024000 
  323000   0.99908593   -4.5738207   -4.5738207   -3.0751948  0.057907687   -4.5738207    1.4986259      1024000 
  324000    1.0003222   -4.5757719   -4.5757719   -3.0752916   0.05386107   -4.5757719    1.5004804      1024000 
  325000     1.000135    -4.575265    -4.575265   -3.0750656  0.058753499    -4.575265    1.5001994      1024000 
  326000     1.000562   -4.5746755   -4.5746755   -3.0738355  0.065739221   -4.5746755      1.50084      1024000 
  327000    1.0020467    -4.576846    -4.576846    -3.073779  0.058134724    -4.576846     1.503067      1024000 
  328000    1.0005242   -4.5757721   -4.5757721   -3.0749887  0.058715355   -4.5757721    1.5007833      1024000 
  329000    1.0004794   -4.5765965   -4.5765965   -3.0758804  0.057830737   -4.5765965    1.5007161      1024000 
  330000     1.001031   -4.5752023   -4.5752023   -3.0736589  0.062569907   -4.5752023    1.5015435      1024000 
  331000   0.99961955   -4.5742629   -4.5742629   -3.0748366   0.06854257   -4.5742629    1.4994263      1024000 
  332000    1.0007169    -4.574289    -4.574289   -3.0732167  0.061795434    -4.574289    1.5010723      1024000 
  333000    1.0001007   -4.5753726   -4.5753726   -3.0752245  0.056543527   -4.5753726     1.500148      1024000 
  334000    1.0013208   -4.5753667   -4.5753667   -3.0733886  0.061617604   -4.5753667    1.5019782      1024000 
  335000    1.0012768   -4.5759778   -4.5759778   -3.0740656  0.056403396   -4.5759778    1.5019122      1024000 
  336000    1.0004765   -4.5757371   -4.5757371   -3.0750254  0.065157195   -4.5757371    1.5007117      1024000 
  337000    1.0022597   -4.5771287   -4.5771287   -3.0737422  0.063515606   -4.5771287    1.5033865      1024000 
  338000    1.0014772     -4.57582     -4.57582   -3.0736072  0.065057278     -4.57582    1.5022128      1024000 
  339000    1.0022251   -4.5767374   -4.5767374   -3.0734028  0.066512188   -4.5767374    1.5033346      1024000 
  340000     1.000019   -4.5754891   -4.5754891   -3.0754636   0.06855722   -4.5754891    1.5000255      1024000 
  341000    1.0012629   -4.5777727   -4.5777727   -3.0758814  0.065662277   -4.5777727    1.5018914      1024000 
  342000    1.0017978   -4.5778401   -4.5778401   -3.0751464  0.064356475   -4.5778401    1.5026937      1024000 
  343000    1.0009005   -4.5786535   -4.5786535   -3.0773059  0.065986538   -4.5786535    1.5013477      1024000 
  344000    1.0014063   -4.5796713   -4.5796713   -3.0775649  0.063489933   -4.5796713    1.5021064      1024000 
  345000    1.0017519   -4.5788836   -4.5788836   -3.0762588  0.069521382   -4.5788836    1.5026248      1024000 
  346000    1.0009084   -4.5788318   -4.5788318   -3.0774722  0.068853984   -4.5788318    1.5013596      1024000 
  347000    1.0012317   -4.5799452   -4.5799452   -3.0781007  0.068223386   -4.5799452    1.5018445      1024000 
  348000    1.0019337   -4.5798381   -4.5798381   -3.0769405  0.069831386   -4.5798381    1.5028976      1024000 
  349000    1.0037545   -4.5831843   -4.5831843   -3.0775557  0.064676302   -4.5831843    1.5056287      1024000 
  350000    1.0020313   -4.5812942   -4.5812942   -3.0782503  0.069050227   -4.5812942    1.5030439      1024000 
  351000    1.0030242   -4.5832556   -4.5832556   -3.0787223  0.071193633   -4.5832556    1.5045333      1024000 
  352000    1.0016922   -4.5808552   -4.5808552     -3.07832  0.075482288   -4.5808552    1.5025352      1024000 
  353000    1.0008545   -4.5810612   -4.5810612   -3.0797825  0.067234598   -4.5810612    1.5012788      1024000 
  354000    1.0019442   -4.5819687   -4.5819687   -3.0790553  0.068668393   -4.5819687    1.5029133      1024000 
  355000    1.0014294   -4.5830299   -4.5830299   -3.0808889  0.065055421   -4.5830299     1.502141      1024000 
  356000    1.0020191   -4.5819619   -4.5819619   -3.0789363   0.07107436   -4.5819619    1.5030256      1024000 
  357000    1.0018906   -4.5841388   -4.5841388   -3.0813059  0.063862018   -4.5841388    1.5028329      1024000 
  358000   0.99904601   -4.5775902   -4.5775902   -3.0790242  0.074751804   -4.5775902     1.498566      1024000 
  359000    1.0006932   -4.5811654   -4.5811654   -3.0801287  0.065015709   -4.5811654    1.5010367      1024000 
  360000    1.0004297   -4.5789254   -4.5789254   -3.0782839  0.068298202   -4.5789254    1.5006415      1024000 
  361000    1.0005427   -4.5804934   -4.5804934   -3.0796823  0.066378553   -4.5804934    1.5008111      1024000 
  362000    1.0021579    -4.582441    -4.582441    -3.079207  0.070366798    -4.582441    1.5032339      1024000 
  363000    1.0000202   -4.5814396   -4.5814396   -3.0814123  0.063568546   -4.5814396    1.5000273      1024000 
  364000    1.0007981   -4.5845183   -4.5845183   -3.0833241  0.066807113   -4.5845183    1.5011942      1024000 
  365000    1.0007258   -4.5836561   -4.5836561   -3.0825704   0.06729733   -4.5836561    1.5010857      1024000 
  366000    1.0004827   -4.5820754   -4.5820754   -3.0813544   0.06432723   -4.5820754     1.500721      1024000 
  367000    1.0014651   -4.5831942   -4.5831942   -3.0809995  0.065345344   -4.5831942    1.5021947      1024000 
  368000    1.0003719   -4.5821803   -4.5821803   -3.0816255  0.068765289   -4.5821803    1.5005548      1024000 
  369000    1.0009214    -4.583082    -4.583082   -3.0817029  0.063450653    -4.583082    1.5013791      1024000 
  370000     1.001669   -4.5835829   -4.5835829   -3.0810824  0.060498092   -4.5835829    1.5025005      1024000 
  371000    1.0012777   -4.5811017   -4.5811017   -3.0791881  0.070534192   -4.5811017    1.5019135      1024000 
  372000    1.0001676   -4.5818765   -4.5818765   -3.0816281  0.066304408   -4.5818765    1.5002484      1024000 
  373000   0.99953835   -4.5811955   -4.5811955    -3.081891  0.063268174   -4.5811955    1.4993045      1024000 
  374000    1.0004968   -4.5819659   -4.5819659   -3.0812236  0.067620534   -4.5819659    1.5007422      1024000 
  375000    1.0000821   -4.5822652   -4.5822652   -3.0821451  0.068290879   -4.5822652    1.5001201      1024000 
  376000    1.0003219   -4.5821967   -4.5821967   -3.0817168  0.066603879   -4.5821967    1.5004799      1024000 
  377000    1.0001009   -4.5822858   -4.5822858   -3.0821375  0.073106724   -4.5822858    1.5001483      1024000 
  378000    1.0002158   -4.5828587   -4.5828587    -3.082538  0.067695082   -4.5828587    1.5003207      1024000 
  379000   0.99997472   -4.5829674   -4.5829674   -3.0830083  0.072095498   -4.5829674    1.4999591      1024000 
  380000    1.0016868   -4.5841397   -4.5841397   -3.0816126  0.066819434   -4.5841397    1.5025271      1024000 
  381000    1.0007967   -4.5828042   -4.5828042   -3.0816122  0.068120397   -4.5828042     1.501192      1024000 
  382000    1.0019625   -4.5830365   -4.5830365   -3.0800958  0.065263537   -4.5830365    1.5029407      1024000 
  383000    1.0012602   -4.5826977   -4.5826977   -3.0808104  0.069268384   -4.5826977    1.5018872      1024000 
  384000   0.99872931   -4.5814004   -4.5814004   -3.0833094  0.068942002   -4.5814004     1.498091      1024000 
  385000    1.0005955   -4.5824214   -4.5824214   -3.0815311  0.065276316   -4.5824214    1.5008903      1024000 
  386000    1.0006649   -4.5833578   -4.5833578   -3.0823635  0.064194123   -4.5833578    1.5009943      1024000 
  387000    1.0012071   -4.5842296   -4.5842296    -3.082422  0.067411473   -4.5842296    1.5018076      1024000 
  388000    1.0004892   -4.5840796   -4.5840796   -3.0833488  0.065085309   -4.5840796    1.5007308      1024000 
  389000    1.0010256   -4.5842354   -4.5842354   -3.0826999  0.068116863   -4.5842354    1.5015355      1024000 
  390000    1.0015627    -4.583812    -4.583812    -3.081471  0.063270213    -4.583812     1.502341      1024000 
  391000   0.99967652   -4.5817095   -4.5817095   -3.0821977   0.07043815   -4.5817095    1.4995118      1024000 
  392000   0.99968299    -4.582058    -4.582058   -3.0825365  0.064651584    -4.582058    1.4995215      1024000 
  393000     1.000755   -4.5838262   -4.5838262   -3.0826968   0.06359311   -4.5838262    1.5011295      1024000 
  394000    1.0003706   -4.5843653   -4.5843653   -3.0838124  0.061465465   -4.5843653    1.5005529      1024000 
  395000   0.99902298   -4.5830636   -4.5830636   -3.0845322  0.064029434   -4.5830636    1.4985315      1024000 
  396000   0.99972933   -4.5819305   -4.5819305   -3.0823395  0.065760341   -4.5819305     1.499591      1024000 
  397000    1.0004854    -4.583418    -4.583418   -3.0826928  0.062527868    -4.583418    1.5007251      1024000 
  398000   0.99870972   -4.5832532   -4.5832532   -3.0851916  0.058802428   -4.5832532    1.4980616      1024000 
  399000   0.99930532   -4.5821591   -4.5821591   -3.0832041   0.06378883   -4.5821591     1.498955      1024000 
  400000   0.99827645   -4.5821054   -4.5821054   -3.0846937  0.063758178   -4.5821054    1.4974117      1024000 
  401000   0.99854408    -4.582317    -4.582317   -3.0845039  0.059512271    -4.582317    1.4978131      1024000 
  402000   0.99804907   -4.5803217   -4.5803217   -3.0832511  0.071464339   -4.5803217    1.4970706      1024000 
  403000    1.0004194   -4.5818274   -4.5818274   -3.0812014   0.06871413   -4.5818274     1.500626      1024000 
  404000   0.99972286   -4.5839196   -4.5839196   -3.0843384   0.06237015   -4.5839196    1.4995813      1024000 
  405000   0.99957128   -4.5826832   -4.5826832   -3.0833292  0.064904306   -4.5826832    1.4993539      1024000 
  406000    1.0005309   -4.5824096   -4.5824096   -3.0816163  0.065493049   -4.5824096    1.5007934      1024000 
  407000      1.00023   -4.5849155   -4.5849155   -3.0845734  0.064249881   -4.5849155    1.5003421      1024000 
  408000    1.0000445   -4.5809315   -4.5809315   -3.0808677  0.075292656   -4.5809315    1.5000638      1024000 
  409000   0.99836866   -4.5822123   -4.5822123   -3.0846623  0.071742896   -4.5822123      1.49755      1024000 
  410000   0.99932234   -4.5853339   -4.5853339   -3.0863534  0.056784555   -4.5853339    1.4989805      1024000 
  411000   0.99824026   -4.5823561   -4.5823561   -3.0849987  0.064782502   -4.5823561    1.4973574      1024000 
  412000   0.99786264   -4.5832502   -4.5832502   -3.0864592  0.062081451   -4.5832502     1.496791      1024000 
  413000   0.99859131   -4.5834499   -4.5834499   -3.0855659  0.065819621   -4.5834499     1.497884      1024000 
  414000   0.99968692   -4.5838827   -4.5838827   -3.0843553  0.062369379   -4.5838827    1.4995274      1024000 
  415000   0.99910401   -4.5839637   -4.5839637   -3.0853107  0.066266236   -4.5839637     1.498653      1024000 
  416000   0.99849842   -4.5855877   -4.5855877   -3.0878431  0.066558298   -4.5855877    1.4977446      1024000 
  417000   0.99974332   -4.5846578   -4.5846578   -3.0850458  0.069728739   -4.5846578     1.499612      1024000 
  418000   0.99985626    -4.585237    -4.585237   -3.0854556  0.065784623    -4.585237    1.4997814      1024000 
  419000    1.0007993   -4.5868733   -4.5868733   -3.0856774  0.067246378   -4.5868733     1.501196      1024000 
  420000     1.000608   -4.5851959   -4.5851959   -3.0842868  0.073593094   -4.5851959    1.5009091      1024000 
  421000    1.0010571   -4.5859029   -4.5859029   -3.0843202  0.066441896   -4.5859029    1.5015827      1024000 
  422000    1.0006678   -4.5847496   -4.5847496   -3.0837509  0.075189386   -4.5847496    1.5009987      1024000 
  423000    1.0013159   -4.5876861   -4.5876861   -3.0857153   0.07178146   -4.5876861    1.5019708      1024000 
  424000    1.0022121   -4.5868343   -4.5868343   -3.0835193  0.072366217   -4.5868343    1.5033151      1024000 
  425000   0.99923352   -4.5855598   -4.5855598   -3.0867125  0.070291508   -4.5855598    1.4988473      1024000 
  426000   0.99948624   -4.5861816   -4.5861816   -3.0869552  0.065619753   -4.5861816    1.4992264      1024000 
  427000   0.99915141   -4.5864015   -4.5864015   -3.0876774  0.068579855   -4.5864015    1.4987241      1024000 
  428000   0.99944725   -4.5855102   -4.5855102   -3.0863423  0.064978538   -4.5855102    1.4991679      1024000 
  429000   0.99907925   -4.5849589   -4.5849589    -3.086343  0.071345312   -4.5849589    1.4986159      1024000 
  430000    1.0001073   -4.5869969   -4.5869969    -3.086839    0.0659552   -4.5869969    1.5001579      1024000 
  431000   0.99785725   -4.5838469   -4.5838469    -3.087064  0.073981124   -4.5838469    1.4967829      1024000 
  432000   0.99923171    -4.585334    -4.585334   -3.0864895  0.067881463    -4.585334    1.4988446      1024000 
  433000   0.99922157   -4.5862095   -4.5862095   -3.0873801  0.065790265   -4.5862095    1.4988293      1024000 
  434000   0.99785167   -4.5843302   -4.5843302   -3.0875557  0.070537127   -4.5843302    1.4967745      1024000 
  435000   0.99973872    -4.586554    -4.586554   -3.0869489    0.0675656    -4.586554    1.4996051      1024000 
  436000   0.99844213   -4.5841352   -4.5841352    -3.086475   0.06336025   -4.5841352    1.4976602      1024000 
  437000   0.99933978   -4.5862758   -4.5862758   -3.0872691  0.059546456   -4.5862758    1.4990067      1024000 
  438000   0.99964668   -4.5851512   -4.5851512   -3.0856842  0.063360073   -4.5851512     1.499467      1024000 
  439000   0.99703597   -4.5843258   -4.5843258   -3.0887748  0.063273696   -4.5843258     1.495551      1024000 
  440000   0.99747071   -4.5840417   -4.5840417   -3.0878386  0.069500973   -4.5840417    1.4962031      1024000 
  441000   0.99795179   -4.5847544   -4.5847544   -3.0878297  0.065252946   -4.5847544    1.4969247      1024000 
  442000   0.99745448   -4.5852768   -4.5852768   -3.0890981  0.065333253   -4.5852768    1.4961787      1024000 
  443000   0.99876939   -4.5849377   -4.5849377   -3.0867866   0.06658278   -4.5849377    1.4981511      1024000 
  444000   0.99722552   -4.5834886   -4.5834886   -3.0876534  0.065034577   -4.5834886    1.4958353      1024000 
  445000   0.99862374   -4.5847223   -4.5847223   -3.0867896  0.061141321   -4.5847223    1.4979326      1024000 
  446000   0.99913605   -4.5844268   -4.5844268   -3.0857257  0.065576827   -4.5844268    1.4987011      1024000 
  447000    1.0003732   -4.5871179   -4.5871179   -3.0865611  0.063426181   -4.5871179    1.5005568      1024000 
  448000    1.0000555   -4.5855964   -4.5855964   -3.0855161  0.067853656   -4.5855964    1.5000803      1024000 
  449000   0.99835094   -4.5834967   -4.5834967   -3.0859732  0.074312386   -4.5834967    1.4975234      1024000 
  450000    0.9988437   -4.5842241   -4.5842241   -3.0859616    0.0689561   -4.5842241    1.4982625      1024000 
  451000   0.99852016    -4.585335    -4.585335   -3.0875578  0.066338978    -4.585335    1.4977772      1024000 
  452000    0.9987566   -4.5858964   -4.5858964   -3.0877645  0.063272012   -4.5858964    1.4981319      1024000 
  453000   0.99829252   -4.5850775   -4.5850775   -3.0876417  0.064231428   -4.5850775    1.4974358      1024000 
  454000   0.99841296   -4.5841508   -4.5841508   -3.0865343  0.065122463   -4.5841508    1.4976164      1024000 
  455000   0.99832603    -4.584096    -4.584096     -3.08661  0.068654838    -4.584096     1.497486      1024000 
  456000   0.99936641   -4.5853176   -4.5853176    -3.086271  0.064557396   -4.5853176    1.4990466      1024000 
  457000   0.99963088   -4.5847805   -4.5847805   -3.0853372  0.070818148   -4.5847805    1.4994433      1024000 
  458000   0.99944895   -4.5860059   -4.5860059   -3.0868355  0.068251405   -4.5860059    1.4991704      1024000 
  459000   0.99829863   -4.5851727   -4.5851727   -3.0877277   0.06507966   -4.5851727    1.4974449      1024000 
  460000   0.99957014   -4.5865513   -4.5865513   -3.0871991  0.065934215   -4.5865513    1.4993522      1024000 
  461000   0.99999389   -4.5863913   -4.5863913   -3.0864035  0.066290655   -4.5863913    1.4999878      1024000 
  462000   0.99935074   -4.5859902   -4.5859902   -3.0869671  0.071833685   -4.5859902    1.4990231      1024000 
  463000   0.99894805   -4.5864591   -4.5864591     -3.08804  0.068515561   -4.5864591    1.4984191      1024000 
  464000    1.0004645   -4.5866723   -4.5866723   -3.0859786  0.066976966   -4.5866723    1.5006937      1024000 
  465000    0.9995516   -4.5868928   -4.5868928   -3.0875684  0.064819291   -4.5868928    1.4993244      1024000 
  466000    1.0003274   -4.5870245   -4.5870245   -3.0865364  0.066150507   -4.5870245    1.5004881      1024000 
  467000   0.99833344   -4.5856746   -4.5856746   -3.0881774  0.066780083   -4.5856746    1.4974972      1024000 
  468000   0.99896493    -4.585436    -4.585436   -3.0869916  0.069222779    -4.585436    1.4984444      1024000 
  469000   0.99745991   -4.5849983   -4.5849983   -3.0888114  0.068317926   -4.5849983    1.4961869      1024000 
  470000   0.99854492   -4.5854862   -4.5854862   -3.0876718  0.067264812   -4.5854862    1.4978144      1024000 
  471000    0.9992078   -4.5861295   -4.5861295   -3.0873208   0.06718435   -4.5861295    1.4988087      1024000 
  472000   0.99846385   -4.5853103   -4.5853103   -3.0876175  0.061713195   -4.5853103    1.4976928      1024000 
  473000   0.99765648   -4.5830494   -4.5830494   -3.0865677   0.06507381   -4.5830494    1.4964817      1024000 
  474000   0.99796176   -4.5840403   -4.5840403   -3.0871006  0.070794399   -4.5840403    1.4969396      1024000 
  475000   0.99617942   -4.5827428   -4.5827428   -3.0884767  0.066682376   -4.5827428    1.4942661      1024000 
  476000   0.99732042    -4.583847    -4.583847   -3.0878694  0.066326172    -4.583847    1.4959776      1024000 
  477000   0.99890361   -4.5868684   -4.5868684    -3.088516  0.064466218   -4.5868684    1.4983524      1024000 
  478000    0.9978678    -4.583017    -4.583017   -3.0862183  0.072813175    -4.583017    1.4967987      1024000 
  479000    0.9983221   -4.5838842   -4.5838842   -3.0864041   0.06323032   -4.5838842    1.4974802      1024000 
  480000   0.99744294   -4.5842232   -4.5842232   -3.0880618  0.063472963   -4.5842232    1.4961614      1024000 
  481000    0.9974672   -4.5845752   -4.5845752   -3.0883774  0.062971262   -4.5845752    1.4961978      1024000 
  482000     0.999311   -4.5843358   -4.5843358   -3.0853723  0.066278358   -4.5843358    1.4989635      1024000 
  483000    1.0000451   -4.5856789   -4.5856789   -3.0856142  0.064513811   -4.5856789    1.5000646      1024000 
  484000    1.0002557   -4.5865028   -4.5865028   -3.0861222   0.06755669   -4.5865028    1.5003806      1024000 
  485000    1.0002786    -4.585202    -4.585202   -3.0847872  0.068440462    -4.585202    1.5004148      1024000 
  486000   0.99790379   -4.5843019   -4.5843019   -3.0874492  0.068390012   -4.5843019    1.4968527      1024000 
  487000   0.99845859   -4.5843807   -4.5843807   -3.0866959  0.067729226   -4.5843807    1.4976849      1024000 
  488000   0.99743667   -4.5849388   -4.5849388   -3.0887868    0.0677422   -4.5849388     1.496152      1024000 
  489000   0.99792454   -4.5841565   -4.5841565   -3.0872726  0.069782071   -4.5841565    1.4968838      1024000 
  490000   0.99786799   -4.5852216   -4.5852216   -3.0884226  0.063323566   -4.5852216     1.496799      1024000 
  491000   0.99756369   -4.5844006   -4.5844006    -3.088058  0.069389818   -4.5844006    1.4963425      1024000 
  492000   0.99684416   -4.5835402   -4.5835402   -3.0882769   0.06956973   -4.5835402    1.4952632      1024000 
  493000   0.99781536   -4.5831758   -4.5831758   -3.0864558  0.070995711   -4.5831758      1.49672      1024000 
  494000   0.99876942   -4.5858406   -4.5858406   -3.0876895  0.060685365   -4.5858406    1.4981511      1024000 
  495000   0.99782903    -4.584822    -4.584822   -3.0880815  0.063558325    -4.584822    1.4967405      1024000 
  496000   0.99788152    -4.582647    -4.582647   -3.0858277  0.072936619    -4.582647    1.4968193      1024000 
  497000   0.99822251   -4.5858732   -4.5858732   -3.0885424  0.066868368   -4.5858732    1.4973308      1024000 
  498000   0.99962996   -4.5864316   -4.5864316   -3.0869896  0.070099801   -4.5864316    1.4994419      1024000 
  499000   0.99836959   -4.5848497   -4.5848497   -3.0872983  0.070838664   -4.5848497    1.4975514      1024000 
  500000   0.99808763   -4.5860048   -4.5860048   -3.0888764  0.066098143   -4.5860048    1.4971284      1024000 
  501000   0.99858547   -4.5857407   -4.5857407   -3.0878655   0.06733962   -4.5857407    1.4978752      1024000 
  502000   0.99772966   -4.5847102   -4.5847102   -3.0881187  0.075696501   -4.5847102    1.4965915      1024000 
  503000   0.99789127   -4.5841412   -4.5841412   -3.0873073  0.071505951   -4.5841412    1.4968339      1024000 
  504000    1.0001357   -4.5864036   -4.5864036   -3.0862031  0.068167903   -4.5864036    1.5002005      1024000 
  505000   0.99851423   -4.5856864   -4.5856864   -3.0879181  0.065644388   -4.5856864    1.4977683      1024000 
  506000   0.99843552   -4.5857816   -4.5857816   -3.0881313  0.065991979   -4.5857816    1.4976503      1024000 
  507000   0.99870889   -4.5861471   -4.5861471   -3.0880867  0.067206041   -4.5861471    1.4980603      1024000 
  508000   0.99878847   -4.5872613   -4.5872613   -3.0890816  0.069337387   -4.5872613    1.4981797      1024000 
  509000   0.99950822   -4.5858677   -4.5858677   -3.0866084  0.071465786   -4.5858677    1.4992593      1024000 
  510000   0.99830382   -4.5861293   -4.5861293   -3.0886766  0.065323806   -4.5861293    1.4974527      1024000 
  511000   0.99871696   -4.5857035   -4.5857035   -3.0876311  0.070808519   -4.5857035    1.4980724      1024000 
  512000   0.99844282   -4.5865313   -4.5865313   -3.0888701  0.063706676   -4.5865313    1.4976612      1024000 
  513000   0.99777677    -4.585596    -4.585596   -3.0889339  0.065249291    -4.585596    1.4966622      1024000 
  514000   0.99769454   -4.5864037   -4.5864037   -3.0898649  0.069536602   -4.5864037    1.4965388      1024000 
  515000   0.99899319    -4.587759    -4.587759   -3.0892722  0.064009044    -4.587759    1.4984868      1024000 
  516000   0.99731108     -4.58596     -4.58596   -3.0899964   0.06821771     -4.58596    1.4959636      1024000 
  517000    1.0000042   -4.5868802   -4.5868802    -3.086877  0.066143968   -4.5868802    1.5000033      1024000 
  518000   0.99816878   -4.5864062   -4.5864062   -3.0891561   0.06485381   -4.5864062    1.4972502      1024000 
  519000   0.99789435   -4.5853226   -4.5853226   -3.0884841  0.064260681   -4.5853226    1.4968385      1024000 
  520000   0.99898248   -4.5858129   -4.5858129   -3.0873421  0.059682957   -4.5858129    1.4984707      1024000 
  521000   0.99837024   -4.5856153   -4.5856153   -3.0880629   0.07028183   -4.5856153    1.4975524      1024000 
  522000   0.99911462   -4.5855628   -4.5855628   -3.0868939  0.068124089   -4.5855628    1.4986689      1024000 
  523000    0.9991022   -4.5856028   -4.5856028   -3.0869525  0.067765573   -4.5856028    1.4986503      1024000 
  524000   0.99873211   -4.5864381   -4.5864381   -3.0883429  0.069046582   -4.5864381    1.4980952      1024000 
  525000   0.99956275    -4.588113    -4.588113   -3.0887719  0.067759127    -4.588113    1.4993411      1024000 
  526000   0.99866295   -4.5863335   -4.5863335   -3.0883421  0.075533952   -4.5863335    1.4979914      1024000 
  527000   0.99953347   -4.5875244   -4.5875244   -3.0882272  0.067445347   -4.5875244    1.4992972      1024000 
  528000   0.99919082   -4.5860073   -4.5860073   -3.0872241  0.074584104   -4.5860073    1.4987832      1024000 
  529000   0.99960004   -4.5874411   -4.5874411    -3.088044   0.06987314   -4.5874411    1.4993971      1024000 
  530000   0.99998914   -4.5898454   -4.5898454   -3.0898646  0.065171524   -4.5898454    1.4999807      1024000 
  531000   0.99796213    -4.587923    -4.587923   -3.0909828  0.062041747    -4.587923    1.4969402      1024000 
  532000   0.99825623     -4.58711     -4.58711   -3.0897287   0.06808391     -4.58711    1.4973813      1024000 
  533000   0.99999593   -4.5892797   -4.5892797   -3.0892889  0.063345281   -4.5892797    1.4999909      1024000 
  534000   0.99618048   -4.5858899   -4.5858899   -3.0916222  0.067744879   -4.5858899    1.4942677      1024000 
  535000   0.99796943   -4.5894847   -4.5894847   -3.0925336  0.057870919   -4.5894847    1.4969511      1024000 
  536000   0.99701652    -4.586881    -4.586881   -3.0913592  0.070602584    -4.586881    1.4955218      1024000 
  537000   0.99677515   -4.5871837   -4.5871837   -3.0920239  0.065994754   -4.5871837    1.4951597      1024000 
  538000   0.99862597   -4.5873447   -4.5873447   -3.0894087  0.070971807   -4.5873447     1.497936      1024000 
  539000   0.99719733   -4.5862578   -4.5862578   -3.0904647  0.065112952   -4.5862578     1.495793      1024000 
  540000   0.99846015   -4.5890249   -4.5890249   -3.0913376  0.062533788   -4.5890249    1.4976872      1024000 
  541000   0.99587506   -4.5867659   -4.5867659   -3.0929563  0.069415079   -4.5867659    1.4938096      1024000 
  542000   0.99819301   -4.5881685   -4.5881685    -3.090882  0.064454663   -4.5881685    1.4972865      1024000 
  543000   0.99758516   -4.5870332   -4.5870332   -3.0906585  0.068003103   -4.5870332    1.4963747      1024000 
  544000   0.99836842   -4.5898436   -4.5898436    -3.092294   0.06315672   -4.5898436    1.4975496      1024000 
  545000   0.99721304   -4.5874028   -4.5874028   -3.0915862  0.068066251   -4.5874028    1.4958166      1024000 
  546000     0.996875   -4.5877863   -4.5877863   -3.0924768  0.064543167   -4.5877863    1.4953095      1024000 
  547000   0.99809196   -4.5895102   -4.5895102   -3.0923752  0.064963145   -4.5895102    1.4971349      1024000 
  548000   0.99671311   -4.5885233   -4.5885233   -3.0934566   0.06769218   -4.5885233    1.4950667      1024000 
  549000    0.9969185   -4.5873695   -4.5873695   -3.0919948  0.069486238   -4.5873695    1.4953748      1024000 
  550000   0.99815811   -4.5890202   -4.5890202   -3.0917861  0.067049189   -4.5890202    1.4972342      1024000 
  551000   0.99725985   -4.5875742   -4.5875742   -3.0916874  0.072974479   -4.5875742    1.4958868      1024000 
  552000   0.99868104   -4.5894114   -4.5894114   -3.0913928  0.070357684   -4.5894114    1.4980186      1024000 
  553000   0.99851644   -4.5903234   -4.5903234   -3.0925517  0.068568342   -4.5903234    1.4977717      1024000 
  554000   0.99805638   -4.5896557   -4.5896557   -3.0925741  0.068327902   -4.5896557    1.4970816      1024000 
  555000   0.99887166   -4.5903026   -4.5903026   -3.0919981  0.070086433   -4.5903026    1.4983045      1024000 
  556000   0.99705469   -4.5897963   -4.5897963   -3.0942173  0.067641586   -4.5897963     1.495579      1024000 
  557000   0.99853132   -4.5891119   -4.5891119   -3.0913179  0.073773012   -4.5891119     1.497794      1024000 
  558000   0.99834822   -4.5895964   -4.5895964   -3.0920771  0.070172485   -4.5895964    1.4975193      1024000 
  559000   0.99850984   -4.5910412   -4.5910412   -3.0932794  0.071784406   -4.5910412    1.4977618      1024000 
  560000   0.99842902   -4.5912102   -4.5912102   -3.0935696  0.067367398   -4.5912102    1.4976405      1024000 
  561000   0.99726261     -4.58961     -4.58961    -3.093719  0.069088725     -4.58961    1.4958909      1024000 
  562000   0.99870856   -4.5897291   -4.5897291   -3.0916692  0.071557939   -4.5897291    1.4980598      1024000 
  563000   0.99831109   -4.5885934   -4.5885934   -3.0911297  0.075946593   -4.5885934    1.4974636      1024000 
  564000   0.99810076   -4.5875012   -4.5875012    -3.090353  0.075943531   -4.5875012    1.4971481      1024000 
  565000   0.99696394   -4.5887454   -4.5887454   -3.0933025  0.071920336   -4.5887454    1.4954429      1024000 
  566000   0.99891622   -4.5902643   -4.5902643    -3.091893  0.067347418   -4.5902643    1.4983713      1024000 
  567000   0.99865561   -4.5893679   -4.5893679   -3.0913874  0.068478391   -4.5893679    1.4979804      1024000 
  568000   0.99808502    -4.588736    -4.588736   -3.0916115  0.065880801    -4.588736    1.4971245      1024000 
  569000   0.99633341   -4.5873392   -4.5873392   -3.0928421  0.071763938   -4.5873392    1.4944971      1024000 
  570000   0.99849583   -4.5891248   -4.5891248   -3.0913841  0.065631428   -4.5891248    1.4977408      1024000 
  571000    0.9969519   -4.5888778   -4.5888778   -3.0934529  0.066896602   -4.5888778    1.4954249      1024000 
  572000   0.99750421   -4.5893553   -4.5893553   -3.0931019  0.067610199   -4.5893553    1.4962533      1024000 
  573000    0.9963608   -4.5886485   -4.5886485   -3.0941103  0.066347858   -4.5886485    1.4945382      1024000 
  574000   0.99828106   -4.5883825   -4.5883825   -3.0909639  0.068235299   -4.5883825    1.4974186      1024000 
  575000   0.99853043   -4.5897794   -4.5897794   -3.0919868   0.06416001   -4.5897794    1.4977926      1024000 
  576000   0.99718509   -4.5892044   -4.5892044   -3.0934297  0.062153642   -4.5892044    1.4957746      1024000 
  577000   0.99639589   -4.5863159   -4.5863159    -3.091725  0.068193974   -4.5863159    1.4945908      1024000 
  578000   0.99763031   -4.5876835   -4.5876835   -3.0912411  0.064756172   -4.5876835    1.4964425      1024000 
  579000   0.99605899   -4.5878585   -4.5878585    -3.093773  0.066703308   -4.5878585    1.4940855      1024000 
  580000   0.99667259   -4.5876354   -4.5876354   -3.0926295  0.064422853   -4.5876354    1.4950059      1024000 
  581000   0.99614002    -4.587809    -4.587809   -3.0936019  0.064951637    -4.587809     1.494207      1024000 
  582000    0.9962795   -4.5861764   -4.5861764   -3.0917602  0.070539788   -4.5861764    1.4944163      1024000 
  583000   0.99712805   -4.5875783   -4.5875783   -3.0918893   0.06543097   -4.5875783    1.4956891      1024000 
  584000   0.99744344   -4.5875448   -4.5875448   -3.0913827  0.065301729   -4.5875448    1.4961622      1024000 
  585000   0.99749952   -4.5877632   -4.5877632   -3.0915169    0.0610624   -4.5877632    1.4962463      1024000 
  586000   0.99764864   -4.5869198   -4.5869198   -3.0904498  0.064750221   -4.5869198      1.49647      1024000 
  587000   0.99643005   -4.5867668   -4.5867668   -3.0921247  0.066952519   -4.5867668    1.4946421      1024000 
  588000   0.99641598   -4.5884445   -4.5884445   -3.0938235  0.066260899   -4.5884445     1.494621      1024000 
  589000   0.99857173   -4.5894328   -4.5894328   -3.0915782    0.0728446   -4.5894328    1.4978546      1024000 
  590000   0.99775271   -4.5906381   -4.5906381   -3.0940121  0.064447328   -4.5906381    1.4966261      1024000 
  591000   0.99869198    -4.590246    -4.590246   -3.0922111  0.067963119    -4.590246     1.498035      1024000 
  592000   0.99858996   -4.5885833   -4.5885833   -3.0907014  0.072793636   -4.5885833    1.4978819      1024000 
  593000    0.9982764   -4.5895034   -4.5895034   -3.0920918  0.066860129   -4.5895034    1.4974116      1024000 
  594000   0.99550552   -4.5882261   -4.5882261   -3.0949708   0.06935682   -4.5882261    1.4932553      1024000 
  595000   0.99798895   -4.5904007   -4.5904007   -3.0934203  0.065112739   -4.5904007    1.4969804      1024000 
  596000   0.99883601   -4.5903605   -4.5903605   -3.0921094  0.069238523   -4.5903605     1.498251      1024000 
  597000   0.99923883    -4.589683    -4.589683   -3.0908278   0.06814647    -4.589683    1.4988552      1024000 
  598000   0.99809094    -4.589121    -4.589121   -3.0919876  0.071922115    -4.589121    1.4971334      1024000 
  599000   0.99606191   -4.5892168   -4.5892168   -3.0951269   0.06909924   -4.5892168    1.4940899      1024000 
  600000   0.99747116   -4.5904412   -4.5904412   -3.0942375  0.068366586   -4.5904412    1.4962037      1024000 
  601000   0.99770408   -4.5896758   -4.5896758   -3.0931227  0.070436657   -4.5896758    1.4965531      1024000 
  602000   0.99890757   -4.5916648   -4.5916648   -3.0933065  0.067844732   -4.5916648    1.4983584      1024000 
  603000   0.99732373   -4.5910279   -4.5910279   -3.0950453  0.061851689   -4.5910279    1.4959826      1024000 
  604000   0.99968688   -4.5917854   -4.5917854   -3.0922581  0.066966458   -4.5917854    1.4995273      1024000 
  605000   0.99806338   -4.5907542   -4.5907542   -3.0936621  0.065531457   -4.5907542    1.4970921      1024000 
  606000   0.99782985   -4.5892178   -4.5892178    -3.092476  0.071951973   -4.5892178    1.4967418      1024000 
  607000   0.99578826   -4.5891511   -4.5891511   -3.0954717  0.068680859   -4.5891511    1.4936794      1024000 
  608000    0.9969202   -4.5897997   -4.5897997   -3.0944224   0.06058887   -4.5897997    1.4953773      1024000 
  609000   0.99619596   -4.5877915   -4.5877915   -3.0935006  0.065362622   -4.5877915    1.4942909      1024000 
  610000   0.99571835   -4.5878989   -4.5878989   -3.0943244   0.06918177   -4.5878989    1.4935745      1024000 
  611000    0.9961003   -4.5873881   -4.5873881   -3.0932406  0.065798197   -4.5873881    1.4941475      1024000 
  612000   0.99652907     -4.58892     -4.58892   -3.0941294  0.063725228     -4.58892    1.4947906      1024000 
  613000   0.99701219    -4.588169    -4.588169   -3.0926537  0.067499231    -4.588169    1.4955153      1024000 
  614000    0.9950066   -4.5868951   -4.5868951   -3.0943882  0.070194314   -4.5868951    1.4925069      1024000 
  615000   0.99660943   -4.5865462   -4.5865462   -3.0916351  0.071796894   -4.5865462    1.4949111      1024000 
  616000    0.9967991   -4.5870787   -4.5870787    -3.091883  0.067273139   -4.5870787    1.4951957      1024000 
  617000   0.99729165   -4.5886246   -4.5886246   -3.0926901  0.066650772   -4.5886246    1.4959345      1024000 
  618000   0.99618682   -4.5866812   -4.5866812   -3.0924039  0.073534171   -4.5866812    1.4942772      1024000 
  619000   0.99717642   -4.5872925   -4.5872925   -3.0915309  0.071408947   -4.5872925    1.4957616      1024000 
  620000   0.99551627   -4.5883803   -4.5883803   -3.0951089  0.070009781   -4.5883803    1.4932714      1024000 
  621000   0.99685628   -4.5879377   -4.5879377   -3.0926563  0.071788055   -4.5879377    1.4952814      1024000 
  622000   0.99767904   -4.5907273   -4.5907273   -3.0942117  0.061934066   -4.5907273    1.4965156      1024000 
  623000    0.9964931   -4.5904171   -4.5904171   -3.0956804  0.066117221   -4.5904171    1.4947367      1024000 
  624000   0.99660546   -4.5898115   -4.5898115   -3.0949063  0.063510031   -4.5898115    1.4949052      1024000 
  625000   0.99704305   -4.5892506   -4.5892506    -3.093689  0.067904422   -4.5892506    1.4955616      1024000 
  626000   0.99709569    -4.587769    -4.587769   -3.0921284  0.073386056    -4.587769    1.4956405      1024000 
  627000   0.99663622   -4.5895539   -4.5895539   -3.0946025  0.072459298   -4.5895539    1.4949513      1024000 
  628000   0.99929423   -4.5921464   -4.5921464   -3.0932081  0.067616695   -4.5921464    1.4989383      1024000 
  629000   0.99747832   -4.5923542   -4.5923542   -3.0961397   0.06420614   -4.5923542    1.4962145      1024000 
  630000   0.99597366   -4.5889589   -4.5889589   -3.0950014  0.064839164   -4.5889589    1.4939575      1024000 
  631000   0.99571211   -4.5900484   -4.5900484   -3.0964833  0.069318948   -4.5900484    1.4935652      1024000 
  632000   0.99753207   -4.5905632   -4.5905632   -3.0942681  0.069306075   -4.5905632    1.4962951      1024000 
  633000   0.99745478   -4.5922052   -4.5922052    -3.096026  0.068334348   -4.5922052    1.4961792      1024000 
  634000   0.99761048   -4.5903302   -4.5903302   -3.0939175  0.073670059   -4.5903302    1.4964127      1024000 
  635000   0.99630242   -4.5901602   -4.5901602   -3.0957095  0.070844057   -4.5901602    1.4944506      1024000 
  636000   0.99926121   -4.5932284   -4.5932284   -3.0943396  0.066263443   -4.5932284    1.4988888      1024000 
  637000   0.99674585   -4.5899668   -4.5899668    -3.094851  0.071859252   -4.5899668    1.4951158      1024000 
  638000   0.99791969   -4.5924559   -4.5924559   -3.0955794  0.063819648   -4.5924559    1.4968765      1024000 
  639000   0.99759442   -4.5922313   -4.5922313   -3.0958427  0.065279178   -4.5922313    1.4963886      1024000 
  640000   0.99646946   -4.5902914   -4.5902914   -3.0955902  0.069801699   -4.5902914    1.4947012      1024000 
  641000   0.99796365   -4.5914309   -4.5914309   -3.0944884  0.068514653   -4.5914309    1.4969425      1024000 
  642000   0.99854342   -4.5923539   -4.5923539   -3.0945418  0.070661392   -4.5923539    1.4978121      1024000 
  643000   0.99730823   -4.5915231   -4.5915231   -3.0955638  0.070002759   -4.5915231    1.4959594      1024000 
  644000   0.99922759   -4.5941048   -4.5941048   -3.0952664  0.064891627   -4.5941048    1.4988384      1024000 
  645000   0.99611065   -4.5896479   -4.5896479   -3.0954849   0.07248367   -4.5896479     1.494163      1024000 
  646000   0.99767228   -4.5910899   -4.5910899   -3.0945845  0.065849158   -4.5910899    1.4965054      1024000 
  647000    0.9970043   -4.5909586   -4.5909586   -3.0954551  0.068532676   -4.5909586    1.4955035      1024000 
  648000   0.99828836   -4.5918207   -4.5918207   -3.0943911  0.064029361   -4.5918207    1.4974295      1024000 
  649000   0.99683649   -4.5898952   -4.5898952   -3.0946434  0.069479982   -4.5898952    1.4952517      1024000 
  650000   0.99624432   -4.5898222   -4.5898222   -3.0954588  0.062784371   -4.5898222    1.4943635      1024000 
  651000   0.99546586   -4.5892304   -4.5892304   -3.0960346  0.069699636   -4.5892304    1.4931958      1024000 
  652000   0.99766949   -4.5909512   -4.5909512     -3.09445  0.061745954   -4.5909512    1.4965012      1024000 
  653000   0.99847923   -4.5914889   -4.5914889   -3.0937731  0.068802038   -4.5914889    1.4977158      1024000 
  654000   0.99616962   -4.5895212   -4.5895212   -3.0952698   0.06458725   -4.5895212    1.4942514      1024000 
  655000   0.99600319   -4.5892406   -4.5892406   -3.0952388    0.0684282   -4.5892406    1.4940018      1024000 
  656000   0.99700012     -4.58911     -4.58911   -3.0936128  0.069592743     -4.58911    1.4954972      1024000 
  657000   0.99782335   -4.5900594   -4.5900594   -3.0933273  0.068800375   -4.5900594     1.496732      1024000 
  658000   0.99608269    -4.588339    -4.588339    -3.094218  0.074496407    -4.588339     1.494121      1024000 
  659000   0.99654218   -4.5901114   -4.5901114   -3.0953011  0.073827528   -4.5901114    1.4948103      1024000 
  660000   0.99693808   -4.5897765   -4.5897765   -3.0943723  0.071671067   -4.5897765    1.4954041      1024000 
  661000   0.99618349   -4.5890759   -4.5890759   -3.0948036  0.069946444   -4.5890759    1.4942722      1024000 
  662000   0.99654291   -4.5884896   -4.5884896   -3.0936783  0.070711386   -4.5884896    1.4948114      1024000 
  663000   0.99548245   -4.5883462   -4.5883462   -3.0951256  0.067242054   -4.5883462    1.4932207      1024000 
  664000   0.99619571   -4.5896526   -4.5896526    -3.095362  0.065659418   -4.5896526    1.4942906      1024000 
  665000   0.99523924   -4.5901422   -4.5901422   -3.0972863  0.063931497   -4.5901422    1.4928559      1024000 
  666000   0.99717665   -4.5895719   -4.5895719   -3.0938099  0.065363477   -4.5895719     1.495762      1024000 
  667000   0.99721112   -4.5894933   -4.5894933   -3.0936797  0.064474851   -4.5894933    1.4958137      1024000 
  668000    0.9962256   -4.5893484   -4.5893484    -3.095013  0.069125136   -4.5893484    1.4943354      1024000 
  669000   0.99628266   -4.5916636   -4.5916636   -3.0972426  0.063331158   -4.5916636     1.494421      1024000 
  670000    0.9941466   -4.5892704   -4.5892704   -3.0980535  0.070334689   -4.5892704    1.4912169      1024000 
  671000   0.99758103   -4.5914723   -4.5914723   -3.0951037  0.066231621   -4.5914723    1.4963685      1024000 
  672000   0.99715507   -4.5900609   -4.5900609   -3.0943313  0.075249221   -4.5900609    1.4957296      1024000 
  673000   0.99681359   -4.5899017   -4.5899017   -3.0946843  0.077921791   -4.5899017    1.4952174      1024000 
  674000   0.99670991   -4.5902157   -4.5902157   -3.0951538  0.075483972   -4.5902157    1.4950619      1024000 
  675000   0.99628409   -4.5890643   -4.5890643   -3.0946412  0.071938807   -4.5890643    1.4944231      1024000 
  676000   0.99666266   -4.5899348   -4.5899348   -3.0949438   0.07044072   -4.5899348     1.494991      1024000 
  677000   0.99834704   -4.5917474   -4.5917474   -3.0942299  0.065844145   -4.5917474    1.4975176      1024000 
  678000   0.99640076   -4.5916386   -4.5916386   -3.0970404   0.06752148   -4.5916386    1.4945982      1024000 
  679000   0.99763288    -4.591489    -4.591489   -3.0950427  0.067140422    -4.591489    1.4964463      1024000 
  680000   0.99661486   -4.5911644   -4.5911644   -3.0962451  0.068150322   -4.5911644    1.4949193      1024000 
  681000    0.9980686   -4.5912505   -4.5912505   -3.0941506  0.067770264   -4.5912505    1.4970999      1024000 
  682000   0.99666433    -4.590252    -4.590252   -3.0952585  0.068065308    -4.590252    1.4949935      1024000 
  683000   0.99669039   -4.5913886   -4.5913886    -3.096356  0.074102763   -4.5913886    1.4950326      1024000 
  684000   0.99871945   -4.5928325   -4.5928325   -3.0947563  0.072874635   -4.5928325    1.4980762      1024000 
  685000   0.99843895   -4.5915265   -4.5915265   -3.0938711  0.073725553   -4.5915265    1.4976554      1024000 
  686000   0.99678866   -4.5918609   -4.5918609   -3.0966809   0.07242481   -4.5918609      1.49518      1024000 
  687000   0.99649362   -4.5901743   -4.5901743   -3.0954369  0.079243321   -4.5901743    1.4947374      1024000 
  688000   0.99850434   -4.5935952   -4.5935952   -3.0958417  0.067820721   -4.5935952    1.4977535      1024000 
  689000   0.99838041   -4.5916105   -4.5916105   -3.0940429  0.073048478   -4.5916105    1.4975676      1024000 
  690000   0.99796089   -4.5903229   -4.5903229   -3.0933846  0.074246404   -4.5903229    1.4969383      1024000 
  691000   0.99740075   -4.5909904   -4.5909904   -3.0948923   0.06634267   -4.5909904    1.4960981      1024000 
  692000   0.99718805   -4.5923831   -4.5923831    -3.096604  0.067522755   -4.5923831    1.4957791      1024000 
  693000   0.99716584   -4.5913535   -4.5913535   -3.0956077  0.074486298   -4.5913535    1.4957458      1024000 
  694000   0.99787242   -4.5908074   -4.5908074   -3.0940017  0.071687081   -4.5908074    1.4968056      1024000 
  695000   0.99786718   -4.5939305   -4.5939305   -3.0971327   0.06216815   -4.5939305    1.4967978      1024000 
  696000   0.99764532   -4.5917609   -4.5917609   -3.0952959  0.066046621   -4.5917609     1.496465      1024000 
  697000   0.99710509   -4.5895621   -4.5895621   -3.0939074  0.073708247   -4.5895621    1.4956546      1024000 
  698000   0.99676079   -4.5902559   -4.5902559   -3.0951177  0.069964195   -4.5902559    1.4951382      1024000 
  699000    0.9958146   -4.5912714   -4.5912714   -3.0975525  0.069887576   -4.5912714    1.4937189      1024000 
  700000    0.9969921   -4.5907563   -4.5907563   -3.0952711  0.068759024   -4.5907563    1.4954852      1024000 
  701000   0.99647695   -4.5894131   -4.5894131   -3.0947007  0.071172971   -4.5894131    1.4947124      1024000 
  702000   0.99574533   -4.5878502   -4.5878502   -3.0942352  0.072062551   -4.5878502     1.493615      1024000 
  703000   0.99618768   -4.5903057   -4.5903057   -3.0960272  0.063149358   -4.5903057    1.4942785      1024000 
  704000   0.99576771   -4.5896798   -4.5896798   -3.0960313  0.065521817   -4.5896798    1.4936486      1024000 
  705000    0.9960387   -4.5900455   -4.5900455   -3.0959905  0.059593393   -4.5900455    1.4940551      1024000 
  706000   0.99592804   -4.5901657   -4.5901657   -3.0962766   0.06070576   -4.5901657    1.4938891      1024000 
  707000   0.99730384   -4.5908578   -4.5908578   -3.0949051  0.065343027   -4.5908578    1.4959528      1024000 
  708000   0.99770661   -4.5910153   -4.5910153   -3.0944583  0.064628677   -4.5910153    1.4965569      1024000 
  709000   0.99689275   -4.5887725   -4.5887725   -3.0934363  0.071492249   -4.5887725    1.4953361      1024000 
  710000   0.99842138   -4.5902096   -4.5902096   -3.0925805  0.063716579   -4.5902096    1.4976291      1024000 
  711000   0.99593013   -4.5884884   -4.5884884   -3.0945962  0.070561747   -4.5884884    1.4938922      1024000 
  712000   0.99705192   -4.5881229   -4.5881229    -3.092548  0.074748305   -4.5881229    1.4955749      1024000 
  713000   0.99739204   -4.5900755   -4.5900755   -3.0939904  0.068535602   -4.5900755    1.4960851      1024000 
  714000   0.99618239   -4.5872384   -4.5872384   -3.0929678   0.07002783   -4.5872384    1.4942706      1024000 
  715000   0.99604721   -4.5877093   -4.5877093   -3.0936415  0.070589836   -4.5877093    1.4940678      1024000 
  716000   0.99764661   -4.5894519   -4.5894519    -3.092985  0.069896933   -4.5894519    1.4964669      1024000 
  717000   0.99498717    -4.589208    -4.589208   -3.0967303  0.070414052    -4.589208    1.4924778      1024000 
  718000   0.99644423   -4.5898198   -4.5898198   -3.0951565  0.068200748   -4.5898198    1.4946633      1024000 
  719000   0.99764035   -4.5905149   -4.5905149   -3.0940574  0.068199973   -4.5905149    1.4964575      1024000 
  720000   0.99703594   -4.5899759   -4.5899759    -3.094425  0.066402643   -4.5899759    1.4955509      1024000 
  721000   0.99821735   -4.5903106   -4.5903106   -3.0929876  0.072122999   -4.5903106     1.497323      1024000 
  722000   0.99862789   -4.5911926   -4.5911926   -3.0932538  0.066955735   -4.5911926    1.4979388      1024000 
  723000   0.99640771   -4.5890617   -4.5890617   -3.0944531  0.070200501   -4.5890617    1.4946086      1024000 
  724000   0.99656211   -4.5880631   -4.5880631   -3.0932229  0.076401735   -4.5880631    1.4948402      1024000 
  725000   0.99723734   -4.5890683   -4.5890683   -3.0932153  0.066494247   -4.5890683     1.495853      1024000 
  726000   0.99757874   -4.5899864   -4.5899864   -3.0936213  0.069838754   -4.5899864    1.4963651      1024000 
  727000   0.99803375   -4.5891911   -4.5891911   -3.0921435  0.071602747   -4.5891911    1.4970476      1024000 
  728000   0.99623265   -4.5883551   -4.5883551   -3.0940091   0.07043096   -4.5883551     1.494346      1024000 
  729000   0.99744229   -4.5898886   -4.5898886   -3.0937282  0.064739151   -4.5898886    1.4961604      1024000 
  730000   0.99504168   -4.5868493   -4.5868493   -3.0942898  0.070712929   -4.5868493    1.4925595      1024000 
  731000   0.99760436   -4.5897159   -4.5897159   -3.0933124  0.066732123   -4.5897159    1.4964035      1024000 
  732000   0.99642601   -4.5897579   -4.5897579   -3.0951219   0.06877361   -4.5897579     1.494636      1024000 
  733000   0.99817438    -4.590734    -4.590734   -3.0934755  0.068083662    -4.590734    1.4972586      1024000 
  734000   0.99506637   -4.5878046   -4.5878046    -3.095208  0.072499494   -4.5878046    1.4925966      1024000 
  735000   0.99750994   -4.5902297   -4.5902297   -3.0939678  0.069253681   -4.5902297    1.4962619      1024000 
  736000   0.99511912   -4.5868098   -4.5868098   -3.0941341   0.07033481   -4.5868098    1.4926757      1024000 
  737000   0.99716336   -4.5892141   -4.5892141   -3.0934721  0.070429678   -4.5892141     1.495742      1024000 
  738000   0.99787697   -4.5899432   -4.5899432   -3.0931308  0.068030535   -4.5899432    1.4968125      1024000 
  739000   0.99684845   -4.5891556   -4.5891556    -3.093886  0.069084047   -4.5891556    1.4952697      1024000 
  740000   0.99628056   -4.5891547   -4.5891547   -3.0947368   0.07071337   -4.5891547    1.4944179      1024000 
  741000   0.99720281   -4.5913037   -4.5913037   -3.0955025  0.068982725   -4.5913037    1.4958012      1024000 
  742000   0.99814782   -4.5918778   -4.5918778    -3.094659  0.066264361   -4.5918778    1.4972187      1024000 
  743000   0.99696014   -4.5892963   -4.5892963   -3.0938591  0.073285626   -4.5892963    1.4954372      1024000 
  744000   0.99671485   -4.5893042   -4.5893042   -3.0942349  0.074603855   -4.5893042    1.4950693      1024000 
  745000   0.99611136   -4.5897733   -4.5897733   -3.0956093  0.068669593   -4.5897733     1.494164      1024000 
  746000   0.99780322   -4.5913022   -4.5913022   -3.0946004  0.066439276   -4.5913022    1.4967018      1024000 
  747000   0.99657455   -4.5891027   -4.5891027   -3.0942438  0.073937891   -4.5891027    1.4948588      1024000 
  748000   0.99719833   -4.5907356   -4.5907356   -3.0949411  0.074119842   -4.5907356    1.4957945      1024000 
  749000    0.9973945   -4.5900985   -4.5900985   -3.0940098  0.071661602   -4.5900985    1.4960887      1024000 
  750000   0.99642501   -4.5908527   -4.5908527   -3.0962182  0.072599978   -4.5908527    1.4946345      1024000 
  751000   0.99717787   -4.5901857   -4.5901857   -3.0944219  0.071048069   -4.5901857    1.4957638      1024000 
  752000   0.99960496   -4.5918888   -4.5918888   -3.0924844  0.069819953   -4.5918888    1.4994044      1024000 
  753000   0.99714092   -4.5901311   -4.5901311   -3.0944228  0.072768713   -4.5901311    1.4957084      1024000 
  754000   0.99731205   -4.5909561   -4.5909561    -3.094991  0.067721166   -4.5909561    1.4959651      1024000 
  755000    0.9986582   -4.5906602   -4.5906602   -3.0926759  0.075555909   -4.5906602    1.4979843      1024000 
  756000    0.9983355   -4.5900409   -4.5900409   -3.0925406  0.072522963   -4.5900409    1.4975003      1024000 
  757000   0.99711942   -4.5902757   -4.5902757   -3.0945996  0.075918091   -4.5902757    1.4956761      1024000 
  758000   0.99734032   -4.5889541   -4.5889541   -3.0929466    0.0777566   -4.5889541    1.4960075      1024000 
  759000   0.99706035   -4.5905654   -4.5905654   -3.0949779  0.074353034   -4.5905654    1.4955875      1024000 
  760000   0.99794458   -4.5897129   -4.5897129    -3.092799  0.065626027   -4.5897129    1.4969139      1024000 
  761000   0.99657507   -4.5888271   -4.5888271   -3.0939674  0.066872807   -4.5888271    1.4948596      1024000 
  762000     0.997431   -4.5906491   -4.5906491   -3.0945056  0.070599131   -4.5906491    1.4961435      1024000 
  763000   0.99756454   -4.5910879   -4.5910879   -3.0947441  0.065467493   -4.5910879    1.4963438      1024000 
  764000   0.99722772   -4.5880626   -4.5880626    -3.092224   0.07561311   -4.5880626    1.4958386      1024000 
  765000   0.99604757   -4.5876142   -4.5876142   -3.0935458  0.071909843   -4.5876142    1.4940684      1024000 
  766000   0.99697252    -4.588374    -4.588374   -3.0929182  0.073060592    -4.588374    1.4954558      1024000 
  767000   0.99537085   -4.5869384   -4.5869384   -3.0938851  0.069645884   -4.5869384    1.4930533      1024000 
  768000   0.99705187   -4.5890751   -4.5890751   -3.0935003  0.064746444   -4.5890751    1.4955748      1024000 
  769000     0.997879    -4.587995    -4.587995   -3.0911795  0.070656191    -4.587995    1.4968155      1024000 
  770000   0.99666254   -4.5876296   -4.5876296   -3.0926388  0.071454243   -4.5876296    1.4949908      1024000 
  771000   0.99861092   -4.5902629   -4.5902629   -3.0923495  0.066551828   -4.5902629    1.4979134      1024000 
  772000   0.99705852    -4.588076    -4.588076   -3.0924913  0.072636431    -4.588076    1.4955848      1024000 
  773000   0.99697207   -4.5877519   -4.5877519   -3.0922968  0.073377056   -4.5877519    1.4954551      1024000 
  774000   0.99776766   -4.5886209   -4.5886209   -3.0919725  0.067504851   -4.5886209    1.4966485      1024000 
  775000   0.99756029   -4.5876953   -4.5876953   -3.0913579   0.06868627   -4.5876953    1.4963374      1024000 
  776000   0.99629537   -4.5853965   -4.5853965   -3.0909564  0.071502835   -4.5853965    1.4944401      1024000 
  777000   0.99558972   -4.5850253   -4.5850253   -3.0916437  0.066326573   -4.5850253    1.4933816      1024000 
  778000    0.9974827   -4.5871097   -4.5871097   -3.0908887   0.06843718   -4.5871097     1.496221      1024000 
  779000   0.99800908   -4.5868505   -4.5868505   -3.0898399  0.069462155   -4.5868505    1.4970106      1024000 
  780000   0.99709028    -4.587675    -4.587675   -3.0920426  0.067377634    -4.587675    1.4956324      1024000 
  781000   0.99686541   -4.5873456   -4.5873456   -3.0920504  0.068186762   -4.5873456    1.4952951      1024000 
  782000   0.99840943   -4.5880836   -4.5880836   -3.0904725  0.066921266   -4.5880836    1.4976111      1024000 
  783000   0.99796126    -4.587488    -4.587488   -3.0905491  0.066990219    -4.587488    1.4969389      1024000 
  784000   0.99589977   -4.5853941   -4.5853941   -3.0915475  0.068300298   -4.5853941    1.4938467      1024000 
  785000   0.99577454   -4.5852802   -4.5852802   -3.0916214  0.070529118   -4.5852802    1.4936588      1024000 
  786000   0.99778767   -4.5882837   -4.5882837   -3.0916052  0.068679357   -4.5882837    1.4966785      1024000 
  787000   0.99737411    -4.587276    -4.587276   -3.0912178  0.068213545    -4.587276    1.4960582      1024000 
  788000   0.99792835   -4.5873689   -4.5873689   -3.0904794  0.072278999   -4.5873689    1.4968895      1024000 
  789000   0.99606571   -4.5852683   -4.5852683   -3.0911727  0.068292502   -4.5852683    1.4940956      1024000 
  790000   0.99626833   -4.5873699   -4.5873699   -3.0929704  0.068300122   -4.5873699    1.4943995      1024000 
  791000   0.99591984   -4.5870918   -4.5870918    -3.093215  0.067317094   -4.5870918    1.4938768      1024000 
  792000   0.99749162   -4.5875549   -4.5875549   -3.0913205  0.069009605   -4.5875549    1.4962344      1024000 
  793000   0.99716154   -4.5883244   -4.5883244   -3.0925851  0.065222163   -4.5883244    1.4957393      1024000 
  794000   0.99591317   -4.5873807   -4.5873807    -3.093514   0.06732748   -4.5873807    1.4938668      1024000 
  795000   0.99683284   -4.5879869   -4.5879869   -3.0927406  0.070088471   -4.5879869    1.4952463      1024000 
  796000   0.99673151   -4.5872297   -4.5872297   -3.0921354  0.072926043   -4.5872297    1.4950943      1024000 
  797000   0.99788245   -4.5880892   -4.5880892   -3.0912685  0.071409605   -4.5880892    1.4968207      1024000 
  798000   0.99657498    -4.587239    -4.587239   -3.0923796  0.072147181    -4.587239    1.4948595      1024000 
  799000   0.99631171   -4.5872751   -4.5872751   -3.0928105  0.071167284   -4.5872751    1.4944646      1024000 
  800000   0.99675074   -4.5881377   -4.5881377   -3.0930145  0.066278121   -4.5881377    1.4951231      1024000 
  801000   0.99834157   -4.5886066   -4.5886066   -3.0910972  0.066498166   -4.5886066    1.4975094      1024000 
  802000   0.99746581    -4.588388    -4.588388   -3.0921922  0.071372651    -4.588388    1.4961957      1024000 
  803000   0.99840544    -4.589608    -4.589608   -3.0920028  0.068060188    -4.589608    1.4976052      1024000 
  804000   0.99839333   -4.5902183   -4.5902183   -3.0926313  0.063750742   -4.5902183     1.497587      1024000 
  805000   0.99675894   -4.5891457   -4.5891457   -3.0940103  0.067797344   -4.5891457    1.4951354      1024000 
  806000   0.99690753   -4.5874566   -4.5874566   -3.0920983  0.073850763   -4.5874566    1.4953583      1024000 
  807000   0.99676161   -4.5877478   -4.5877478   -3.0926084  0.070723311   -4.5877478    1.4951394      1024000 
  808000    0.9973118   -4.5896449   -4.5896449   -3.0936802  0.065453367   -4.5896449    1.4959647      1024000 
  809000   0.99605336   -4.5875384   -4.5875384   -3.0934614  0.069359887   -4.5875384     1.494077      1024000 
  810000   0.99646056   -4.5896926   -4.5896926   -3.0950048  0.066630905   -4.5896926    1.4946879      1024000 
  811000   0.99606917   -4.5871448   -4.5871448    -3.093044  0.071676007   -4.5871448    1.4941008      1024000 
  812000   0.99715257   -4.5878646   -4.5878646   -3.0921387  0.069502331   -4.5878646    1.4957259      1024000 
  813000   0.99595821   -4.5879619   -4.5879619   -3.0940275  0.071297287   -4.5879619    1.4939343      1024000 
  814000     0.993976   -4.5857057   -4.5857057   -3.0947447  0.072875137   -4.5857057     1.490961      1024000 
  815000   0.99510775   -4.5859995   -4.5859995   -3.0933408  0.077329754   -4.5859995    1.4926586      1024000 
  816000   0.99592824   -4.5879834   -4.5879834    -3.094094  0.070556201   -4.5879834    1.4938894      1024000 
  817000   0.99725446   -4.5882113   -4.5882113   -3.0923326  0.068418169   -4.5882113    1.4958787      1024000 
  818000   0.99535668   -4.5862851   -4.5862851   -3.0932531  0.066815504   -4.5862851     1.493032      1024000 
  819000   0.99618511   -4.5883778   -4.5883778   -3.0941031  0.062868022   -4.5883778    1.4942747      1024000 
  820000   0.99629553    -4.587384    -4.587384   -3.0929437  0.072466873    -4.587384    1.4944403      1024000 
  821000   0.99719825   -4.5889321   -4.5889321   -3.0931377  0.071526755   -4.5889321    1.4957944      1024000 
  822000   0.99689271   -4.5888762   -4.5888762   -3.0935402  0.073757275   -4.5888762    1.4953361      1024000 
  823000   0.99671188   -4.5885027   -4.5885027   -3.0934378  0.071239243   -4.5885027    1.4950648      1024000 
  824000   0.99691174   -4.5872353   -4.5872353   -3.0918707  0.071996353   -4.5872353    1.4953646      1024000 
  825000   0.99814459   -4.5894342   -4.5894342   -3.0922203  0.070608596   -4.5894342    1.4972139      1024000 
  826000    0.9968562   -4.5884737   -4.5884737   -3.0931923  0.073913664   -4.5884737    1.4952813      1024000 
  827000   0.99790884   -4.5887945   -4.5887945   -3.0919342  0.071277746   -4.5887945    1.4968603      1024000 
  828000   0.99798201   -4.5884143   -4.5884143   -3.0914443  0.075605211   -4.5884143      1.49697      1024000 
  829000   0.99676175   -4.5904726   -4.5904726   -3.0953329  0.064827898   -4.5904726    1.4951396      1024000 
  830000   0.99717605   -4.5891865   -4.5891865   -3.0934254   0.06910371   -4.5891865    1.4957611      1024000 
  831000   0.99705584    -4.591016    -4.591016   -3.0954352  0.069024817    -4.591016    1.4955808      1024000 
  832000   0.99679105   -4.5880805   -4.5880805   -3.0928969  0.071072982   -4.5880805    1.4951836      1024000 
  833000   0.99931432   -4.5899652   -4.5899652   -3.0909968  0.070946762   -4.5899652    1.4989685      1024000 
  834000   0.99835767   -4.5914139   -4.5914139   -3.0938804  0.071171767   -4.5914139    1.4975335      1024000 
  835000   0.99617286   -4.5888557   -4.5888557   -3.0945994  0.069914006   -4.5888557    1.4942563      1024000 
  836000   0.99629078   -4.5864982   -4.5864982   -3.0920651   0.07191155   -4.5864982    1.4944332      1024000 
  837000   0.99737298   -4.5879618   -4.5879618   -3.0919053  0.069025109   -4.5879618    1.4960565      1024000 
  838000   0.99676705   -4.5894252   -4.5894252   -3.0942776   0.06425582   -4.5894252    1.4951476      1024000 
  839000   0.99567449   -4.5889439   -4.5889439   -3.0954351   0.06801832   -4.5889439    1.4935087      1024000 
  840000   0.99675409   -4.5886979   -4.5886979   -3.0935697   0.06286173   -4.5886979    1.4951281      1024000 
  841000   0.99520032   -4.5867382   -4.5867382   -3.0939407  0.069890823   -4.5867382    1.4927975      1024000 
  842000   0.99489507   -4.5865311   -4.5865311   -3.0941915  0.069234747   -4.5865311    1.4923396      1024000 
  843000   0.99616229   -4.5880812   -4.5880812   -3.0938408  0.069808495   -4.5880812    1.4942404      1024000 
  844000   0.99830886   -4.5898521   -4.5898521   -3.0923918  0.069785565   -4.5898521    1.4974603      1024000 
  845000   0.99663786   -4.5879426   -4.5879426   -3.0929888   0.07411728   -4.5879426    1.4949538      1024000 
  846000   0.99712122   -4.5862389   -4.5862389   -3.0905601  0.072124678   -4.5862389    1.4956788      1024000 
  847000   0.99754257   -4.5869735   -4.5869735   -3.0906626  0.073733327   -4.5869735    1.4963109      1024000 
  848000   0.99930041   -4.5883177   -4.5883177   -3.0893701  0.069131168   -4.5883177    1.4989476      1024000 
  849000   0.99875325   -4.5885902   -4.5885902   -3.0904633   0.06983335   -4.5885902    1.4981269      1024000 
  850000   0.99712624    -4.588112    -4.588112   -3.0924257  0.069952696    -4.588112    1.4956864      1024000 
  851000   0.99639308   -4.5874189   -4.5874189   -3.0928323  0.069018474   -4.5874189    1.4945866      1024000 
  852000   0.99621789   -4.5865089   -4.5865089   -3.0921851  0.068686358   -4.5865089    1.4943238      1024000 
  853000   0.99532519   -4.5854449   -4.5854449   -3.0924601  0.072511188   -4.5854449    1.4929848      1024000 
  854000   0.99583106   -4.5857654   -4.5857654   -3.0920219  0.066980856   -4.5857654    1.4937436      1024000 
  855000   0.99556947   -4.5857071   -4.5857071   -3.0923559  0.071091286   -4.5857071    1.4933512      1024000 
  856000   0.99651263   -4.5855689   -4.5855689    -3.090803  0.069908796   -4.5855689    1.4947659      1024000 
  857000    0.9985916   -4.5872905   -4.5872905   -3.0894061  0.073091113   -4.5872905    1.4978844      1024000 
  858000   0.99642741   -4.5858164   -4.5858164   -3.0911783  0.076274632   -4.5858164    1.4946381      1024000 
  859000   0.99697929   -4.5869057   -4.5869057   -3.0914397   0.07188608   -4.5869057    1.4954659      1024000 
  860000   0.99893651   -4.5871765   -4.5871765   -3.0887747  0.067861054   -4.5871765    1.4984018      1024000 
  861000   0.99870125   -4.5847527   -4.5847527   -3.0867038  0.075742161   -4.5847527    1.4980489      1024000 
  862000   0.99844419   -4.5854142   -4.5854142   -3.0877509  0.077624135   -4.5854142    1.4976633      1024000 
  863000    0.9973865    -4.586732    -4.586732   -3.0906553  0.069853318    -4.586732    1.4960768      1024000 
  864000   0.99910489   -4.5886373   -4.5886373    -3.089983  0.069659812   -4.5886373    1.4986543      1024000 
  865000   0.99784006   -4.5880165   -4.5880165   -3.0912594  0.068441662   -4.5880165    1.4967571      1024000 
  866000   0.99753779   -4.5871171   -4.5871171   -3.0908135  0.067401256   -4.5871171    1.4963037      1024000 
  867000   0.99714688   -4.5847873   -4.5847873     -3.08907  0.071159614   -4.5847873    1.4957173      1024000 
  868000   0.99727307    -4.585526    -4.585526   -3.0896194  0.068366784    -4.585526    1.4959066      1024000 
  869000   0.99646068   -4.5843354   -4.5843354   -3.0896474  0.067837295   -4.5843354     1.494688      1024000 
  870000   0.99593675   -4.5850663   -4.5850663   -3.0911642  0.063820327   -4.5850663    1.4939021      1024000 
  871000   0.99595125   -4.5849531   -4.5849531   -3.0910292  0.067227056   -4.5849531    1.4939239      1024000 
  872000   0.99516709   -4.5831787   -4.5831787   -3.0904311  0.070511435   -4.5831787    1.4927476      1024000 
  873000   0.99582755   -4.5863163   -4.5863163    -3.092578  0.063532836   -4.5863163    1.4937383      1024000 
  874000   0.99719136   -4.5860794   -4.5860794   -3.0902954  0.070581935   -4.5860794     1.495784      1024000 
  875000   0.99651417    -4.587789    -4.587789   -3.0930208  0.065000252    -4.587789    1.4947683      1024000 
  876000    0.9970719   -4.5859107   -4.5859107   -3.0903058  0.066404462   -4.5859107    1.4956049      1024000 
  877000   0.99678224   -4.5858325   -4.5858325   -3.0906621  0.067262998   -4.5858325    1.4951704      1024000 
  878000   0.99493902   -4.5835926   -4.5835926    -3.091187  0.070035573   -4.5835926    1.4924055      1024000 
  879000   0.99521278   -4.5863858   -4.5863858   -3.0935696  0.062070902   -4.5863858    1.4928162      1024000 
  880000   0.99757507   -4.5866351   -4.5866351   -3.0902755  0.066801281   -4.5866351    1.4963596      1024000 
  881000   0.99652292    -4.587165    -4.587165   -3.0923836  0.067408108    -4.587165    1.4947814      1024000 
  882000   0.99742528   -4.5879537   -4.5879537   -3.0918188  0.063830579   -4.5879537    1.4961349      1024000 
  883000   0.99843172   -4.5879538   -4.5879538   -3.0903093   0.06756568   -4.5879538    1.4976446      1024000 
  884000   0.99829177   -4.5884331   -4.5884331   -3.0909985  0.069409246   -4.5884331    1.4974347      1024000 
  885000   0.99690885   -4.5882741   -4.5882741   -3.0929138   0.06823365   -4.5882741    1.4953603      1024000 
  886000   0.99831176   -4.5878822   -4.5878822   -3.0904176  0.069834393   -4.5878822    1.4974646      1024000 
  887000   0.99755561   -4.5875814   -4.5875814    -3.091251  0.070981562   -4.5875814    1.4963304      1024000 
  888000   0.99798647   -4.5869412   -4.5869412   -3.0899645  0.073726267   -4.5869412    1.4969767      1024000 
  889000   0.99742844    -4.586768    -4.586768   -3.0906283  0.074589119    -4.586768    1.4961397      1024000 
  890000   0.99798373   -4.5877495   -4.5877495   -3.0907769  0.072421639   -4.5877495    1.4969726      1024000 
  891000    0.9974388   -4.5879463   -4.5879463   -3.0917911   0.07200842   -4.5879463    1.4961552      1024000 
  892000   0.99674446    -4.587166    -4.587166   -3.0920523  0.070915944    -4.587166    1.4951137      1024000 
  893000   0.99742153   -4.5882134   -4.5882134   -3.0920841  0.064877792   -4.5882134    1.4961293      1024000 
  894000   0.99689916   -4.5875195   -4.5875195   -3.0921737   0.07046515   -4.5875195    1.4953457      1024000 
  895000   0.99831515   -4.5880213   -4.5880213   -3.0905516  0.069223856   -4.5880213    1.4974697      1024000 
  896000   0.99683115   -4.5870142   -4.5870142   -3.0917705  0.067970651   -4.5870142    1.4952437      1024000 
  897000   0.99707416   -4.5859148   -4.5859148   -3.0903065  0.073108526   -4.5859148    1.4956082      1024000 
  898000   0.99742692   -4.5864024   -4.5864024    -3.090265  0.072218539   -4.5864024    1.4961374      1024000 
  899000   0.99700802   -4.5855766   -4.5855766   -3.0900676  0.071460771   -4.5855766     1.495509      1024000 
  900000   0.99718468   -4.5857707   -4.5857707   -3.0899967   0.06808941   -4.5857707     1.495774      1024000 
  901000   0.99799917   -4.5859037   -4.5859037   -3.0889079  0.071652565   -4.5859037    1.4969958      1024000 
  902000   0.99738839   -4.5869544   -4.5869544   -3.0908748  0.070428382   -4.5869544    1.4960796      1024000 
  903000   0.99791907   -4.5860917   -4.5860917   -3.0892161  0.070205554   -4.5860917    1.4968756      1024000 
  904000   0.99818728   -4.5857775   -4.5857775   -3.0884996  0.072723361   -4.5857775    1.4972779      1024000 
  905000    0.9974534   -4.5842082   -4.5842082   -3.0880311  0.067410832   -4.5842082    1.4961771      1024000 
  906000   0.99706602    -4.584994    -4.584994    -3.089398   0.06320361    -4.584994     1.495596      1024000 
  907000   0.99719962   -4.5822716   -4.5822716   -3.0864751  0.069315809   -4.5822716    1.4957964      1024000 
  908000   0.99776468   -4.5849629   -4.5849629   -3.0883189  0.063447617   -4.5849629     1.496644      1024000 
  909000   0.99849377   -4.5837059   -4.5837059   -3.0859683  0.068508962   -4.5837059    1.4977377      1024000 
  910000   0.99809486   -4.5845678   -4.5845678   -3.0874285  0.064198694   -4.5845678    1.4971393      1024000 
  911000   0.99644539   -4.5819249   -4.5819249   -3.0872598  0.067149731   -4.5819249    1.4946651      1024000 
  912000   0.99716923   -4.5831057   -4.5831057   -3.0873549   0.06789208   -4.5831057    1.4957509      1024000 
  913000   0.99852989   -4.5836461   -4.5836461   -3.0858543  0.067352112   -4.5836461    1.4977918      1024000 
  914000   0.99689642   -4.5834186   -4.5834186    -3.088077  0.065710484   -4.5834186    1.4953416      1024000 
  915000   0.99629382   -4.5823135   -4.5823135   -3.0878757  0.062186789   -4.5823135    1.4944377      1024000 
  916000   0.99470961   -4.5816467   -4.5816467   -3.0895852    0.0641063   -4.5816467    1.4920614      1024000 
  917000   0.99612723   -4.5824314   -4.5824314   -3.0882436  0.066505919   -4.5824314    1.4941878      1024000 
  918000   0.99540483   -4.5816893   -4.5816893   -3.0885851  0.061684329   -4.5816893    1.4931043      1024000 
  919000   0.99549403   -4.5819266   -4.5819266   -3.0886886  0.064070402   -4.5819266     1.493238      1024000 
  920000   0.99565693   -4.5828969   -4.5828969   -3.0894145  0.060621966   -4.5828969    1.4934824      1024000 
  921000   0.99514872   -4.5810262   -4.5810262   -3.0883061  0.065435843   -4.5810262    1.4927201      1024000 
  922000    0.9944918   -4.5814214   -4.5814214   -3.0896867  0.059675515   -4.5814214    1.4917347      1024000 
  923000   0.99670176   -4.5827364   -4.5827364   -3.0876868  0.062844919   -4.5827364    1.4950496      1024000 
  924000   0.99490379    -4.582252    -4.582252   -3.0898993  0.067119581    -4.582252    1.4923527      1024000 
  925000   0.99699383   -4.5842538   -4.5842538   -3.0887661   0.06179142   -4.5842538    1.4954877      1024000 
  926000   0.99490994   -4.5803292   -4.5803292   -3.0879672  0.073823691   -4.5803292    1.4923619      1024000 
  927000   0.99623545   -4.5826109   -4.5826109   -3.0882607  0.065485575   -4.5826109    1.4943502      1024000 
  928000   0.99722982   -4.5847122   -4.5847122   -3.0888705  0.061764829   -4.5847122    1.4958417      1024000 
  929000   0.99763065   -4.5854666   -4.5854666   -3.0890237   0.06502293   -4.5854666     1.496443      1024000 
  930000   0.99896678   -4.5863259   -4.5863259   -3.0878787  0.066216501   -4.5863259    1.4984472      1024000 
  931000   0.99626809   -4.5831456   -4.5831456   -3.0887465  0.070563236   -4.5831456    1.4943991      1024000 
  932000   0.99930366   -4.5862619   -4.5862619   -3.0873094   0.06877631   -4.5862619    1.4989525      1024000 
  933000   0.99957503   -4.5870083   -4.5870083   -3.0876487  0.070635617   -4.5870083    1.4993595      1024000 
  934000   0.99833149    -4.586105    -4.586105   -3.0886107  0.070006775    -4.586105    1.4974942      1024000 
  935000   0.99875043    -4.585905    -4.585905   -3.0877824  0.071841827    -4.585905    1.4981226      1024000 
  936000   0.99840255   -4.5856122   -4.5856122   -3.0880114  0.072622866   -4.5856122    1.4976008      1024000 
  937000   0.99781912   -4.5858079   -4.5858079   -3.0890823  0.073971537   -4.5858079    1.4967257      1024000 
  938000   0.99810004   -4.5868998   -4.5868998   -3.0897527  0.073766178   -4.5868998    1.4971471      1024000 
  939000   0.99820373   -4.5880659   -4.5880659   -3.0907633  0.071585191   -4.5880659    1.4973026      1024000 
  940000   0.99750933   -4.5875664   -4.5875664   -3.0913054  0.071023356   -4.5875664     1.496261      1024000 
  941000   0.99914377   -4.5867098   -4.5867098   -3.0879971  0.075321632   -4.5867098    1.4987127      1024000 
  942000   0.99841368   -4.5864867   -4.5864867   -3.0888692  0.072953099   -4.5864867    1.4976175      1024000 
  943000   0.99711455    -4.585784    -4.585784   -3.0901152  0.076512013    -4.585784    1.4956688      1024000 
  944000   0.99892215   -4.5865794   -4.5865794   -3.0881992  0.074425876   -4.5865794    1.4983802      1024000 
  945000   0.99707582   -4.5862127   -4.5862127   -3.0906019  0.071809187   -4.5862127    1.4956107      1024000 
  946000    0.9976303   -4.5854717   -4.5854717   -3.0890293  0.071728059   -4.5854717    1.4964424      1024000 
  947000   0.99712132   -4.5861036   -4.5861036   -3.0904247  0.070980722   -4.5861036     1.495679      1024000 
  948000   0.99901845   -4.5878204   -4.5878204   -3.0892957  0.070518303   -4.5878204    1.4985247      1024000 
  949000   0.99856915   -4.5859067   -4.5859067    -3.088056  0.071962602   -4.5859067    1.4978507      1024000 
  950000   0.99765481   -4.5852463   -4.5852463    -3.088767  0.074249824   -4.5852463    1.4964792      1024000 
  951000   0.99812285   -4.5874448   -4.5874448   -3.0902635  0.067150159   -4.5874448    1.4971813      1024000 
  952000   0.99773371   -4.5855834   -4.5855834   -3.0889858  0.074973885   -4.5855834    1.4965976      1024000 
  953000   0.99723196   -4.5850486   -4.5850486   -3.0892036  0.072871099   -4.5850486    1.4958449      1024000 
  954000   0.99578649    -4.585431    -4.585431   -3.0917542  0.062922185    -4.585431    1.4936767      1024000 
  955000   0.99911504   -4.5867508   -4.5867508   -3.0880813  0.066257061   -4.5867508    1.4986696      1024000 
  956000   0.99725657   -4.5868121   -4.5868121   -3.0909303  0.068927158   -4.5868121    1.4958819      1024000 
  957000   0.99519724   -4.5835868   -4.5835868   -3.0907939  0.072976954   -4.5835868    1.4927929      1024000 
  958000   0.99658396   -4.5835542   -4.5835542   -3.0886813  0.070960942   -4.5835542    1.4948729      1024000 
  959000   0.99657125   -4.5836288   -4.5836288   -3.0887749  0.066404243   -4.5836288    1.4948539      1024000 
  960000   0.99648614   -4.5853662   -4.5853662     -3.09064  0.058212359   -4.5853662    1.4947262      1024000 
  961000   0.99734634   -4.5853808   -4.5853808   -3.0893643  0.065533628   -4.5853808    1.4960165      1024000 
  962000   0.99794107   -4.5859423   -4.5859423   -3.0890337  0.071664827   -4.5859423    1.4969086      1024000 
  963000   0.99795699   -4.5847516   -4.5847516   -3.0878191  0.070698754   -4.5847516    1.4969325      1024000 
  964000   0.99719485   -4.5843167   -4.5843167   -3.0885274  0.065313917   -4.5843167    1.4957893      1024000 
  965000   0.99681037    -4.584419    -4.584419   -3.0892065  0.071902206    -4.584419    1.4952126      1024000 
  966000   0.99710507   -4.5838639   -4.5838639   -3.0882093  0.074216392   -4.5838639    1.4956546      1024000 
  967000   0.99751566   -4.5840028   -4.5840028   -3.0877323  0.069428849   -4.5840028    1.4962705      1024000 
  968000   0.99687644   -4.5851068   -4.5851068   -3.0897951   0.07007109   -4.5851068    1.4953117      1024000 
  969000   0.99665351   -4.5855643   -4.5855643    -3.090587  0.071204855   -4.5855643    1.4949773      1024000 
  970000   0.99803598   -4.5835707   -4.5835707   -3.0865197  0.071932127   -4.5835707     1.497051      1024000 
  971000   0.99749235   -4.5854009   -4.5854009   -3.0891654  0.070006485   -4.5854009    1.4962355      1024000 
  972000   0.99903058   -4.5838021   -4.5838021   -3.0852592  0.074540444   -4.5838021    1.4985429      1024000 
  973000   0.99850937   -4.5839842   -4.5839842   -3.0862232  0.072920722   -4.5839842    1.4977611      1024000 
  974000   0.99835314   -4.5834174   -4.5834174   -3.0858907  0.075719824   -4.5834174    1.4975267      1024000 
  975000   0.99937698   -4.5860911   -4.5860911   -3.0870286  0.068851056   -4.5860911    1.4990625      1024000 
  976000   0.99820398   -4.5844332   -4.5844332   -3.0871303  0.072909942   -4.5844332     1.497303      1024000 
  977000   0.99863677   -4.5863627   -4.5863627   -3.0884105  0.066610142   -4.5863627    1.4979522      1024000 
  978000   0.99822239   -4.5835538   -4.5835538   -3.0862232  0.070077843   -4.5835538    1.4973306      1024000 
  979000   0.99791463   -4.5842642   -4.5842642   -3.0873952  0.065680534   -4.5842642    1.4968689      1024000 
  980000   0.99688942   -4.5830703   -4.5830703   -3.0877391  0.067583803   -4.5830703    1.4953311      1024000 
  981000    0.9983141   -4.5854515   -4.5854515   -3.0879834  0.064278685   -4.5854515    1.4974682      1024000 
  982000   0.99685355   -4.5831208   -4.5831208   -3.0878435  0.069582199   -4.5831208    1.4952773      1024000 
  983000   0.99790383   -4.5841872   -4.5841872   -3.0873345  0.069460304   -4.5841872    1.4968528      1024000 
  984000   0.99722737   -4.5834043   -4.5834043   -3.0875662  0.071625326   -4.5834043    1.4958381      1024000 
  985000   0.99609781   -4.5831915   -4.5831915   -3.0890478  0.069892015   -4.5831915    1.4941437      1024000 
  986000   0.99814377   -4.5838653   -4.5838653   -3.0866526  0.071724408   -4.5838653    1.4972126      1024000 
  987000    0.9988261   -4.5858727   -4.5858727   -3.0876365  0.061337282   -4.5858727    1.4982361      1024000 
  988000   0.99691821   -4.5828316   -4.5828316   -3.0874573  0.072902911   -4.5828316    1.4953743      1024000 
  989000   0.99887371     -4.58479     -4.58479   -3.0864824  0.071617219     -4.58479    1.4983076      1024000 
  990000   0.99783779   -4.5823129   -4.5823129   -3.0855592  0.071492009   -4.5823129    1.4967537      1024000 
  991000   0.99790535   -4.5843153   -4.5843153   -3.0874602   0.06559022   -4.5843153     1.496855      1024000 
  992000   0.99676795   -4.5805707   -4.5805707   -3.0854218  0.073568417   -4.5805707    1.4951489      1024000 
  993000   0.99548178    -4.580929    -4.580929   -3.0877093  0.069615403    -4.580929    1.4932197      1024000 
  994000   0.99723319   -4.5823285   -4.5823285   -3.0864817  0.070046835   -4.5823285    1.4958468      1024000 
  995000   0.99754401   -4.5836657   -4.5836657   -3.0873527  0.067169966   -4.5836657     1.496313      1024000 
  996000   0.99636131   -4.5819697   -4.5819697   -3.0874307  0.073256503   -4.5819697     1.494539      1024000 
  997000   0.99800086   -4.5831133   -4.5831133    -3.086115  0.073174747   -4.5831133    1.4969983      1024000 
  998000   0.99683322   -4.5813944   -4.5813944   -3.0861476  0.070563808   -4.5813944    1.4952468      1024000 
  999000   0.99898696   -4.5836712   -4.5836712   -3.0851938  0.067125284   -4.5836712    1.4984774      1024000 
 1000000   0.99760938   -4.5842016   -4.5842016   -3.0877906  0.069611292   -4.5842016    1.4964111      1024000 
Loop time of 62091.2 on 32 procs for 1000000 steps with 499200 atoms

Performance: 3478.754 tau/day, 16.105 timesteps/s
99.6% CPU use with 32 MPI tasks x 1 OpenMP threads

MPI task timing breakdown:
Section |  min time  |  avg time  |  max time  |%varavg|  %CPU | %total
-----------------------------------------------------------------------
Pair    | 19530      | 31241      | 47339      |3506.6 |  99.7 | 50.31
Bond    | 0.62424    | 0.789      | 0.99691    |  13.0 | 100.0 |  0.00
Neigh   | 3301       | 5442.3     | 7841.8     |1417.9 |  99.9 |  8.77
Comm    | 4655.4     | 22783      | 35990      |4739.8 |  99.2 | 36.69
Output  | 27.439     | 43.59      | 56.546     | 186.0 | 100.0 |  0.07
Modify  | 252.08     | 445.61     | 1380.8     |1469.9 |  99.7 |  0.72
Other   |            | 2135       |            |       |       |  3.44

Nlocal:    15600 ave 16109 max 14239 min
Histogram: 2 1 0 0 1 0 4 11 5 8
Nghost:    22718 ave 25154 max 15901 min
Histogram: 4 4 0 0 0 0 0 0 0 24
Neighs:    2.40883e+06 ave 2.63492e+06 max 1.53605e+06 min
Histogram: 3 1 0 0 0 0 0 0 16 12

Total # of neighbors = 77082717
Ave neighs/atom = 154.412
Ave special neighs/atom = 0
Neighbor list builds = 66660
Dangerous builds = 591
Total wall time: 17:14:32
