LAMMPS (24 Dec 2020)
OMP_NUM_THREADS environment is not set. Defaulting to 1 thread. (src/comm.cpp:94)
  using 1 OpenMP thread(s) per MPI task
#Read the equilibrated lj fluid and add nanocubes

units           lj
atom_style      full
atom_modify     map array first cubes
dimension       3
boundary        p p f
pair_style      lj/cut/opt 2.5

variable        sigma           equal 1.0
variable        epsilon         equal 1.0
read_restart	restart.dat.3000000
Reading restart file ...
  restart file = 24 Dec 2020, LAMMPS = 24 Dec 2020
WARNING: Restart file used different # of processors: 48 vs. 288 (src/read_restart.cpp:697)
  restoring atom style full from restart
  orthogonal box = (0.0000000 0.0000000 0.0000000) to (80.000000 80.000000 160.00000)
  6 by 4 by 12 MPI processor grid
  restoring pair style lj/cut/opt from restart
  518400 atoms
Finding 1-2 1-3 1-4 neighbors ...
  special bond factors lj:    0        0        0       
  special bond factors coul:  0        0        0       
     0 = max # of 1-2 neighbors
     0 = max # of 1-3 neighbors
     0 = max # of 1-4 neighbors
     1 = max # of special neighbors
  special bonds CPU = 2.425 seconds
  read_restart CPU = 2.763 seconds

group		solvent type 1
518400 atoms in group solvent

read_data	data_96.cubes group cubes add append
Reading data file ...
  orthogonal box = (0.0000000 0.0000000 0.0000000) to (80.000000 80.000000 160.00000)
  6 by 4 by 12 MPI processor grid
  reading atoms ...
  109728 atoms
  reading velocities ...
  109728 velocities
Finding 1-2 1-3 1-4 neighbors ...
  special bond factors lj:    0        0        0       
  special bond factors coul:  0        0        0       
     0 = max # of 1-2 neighbors
     0 = max # of 1-3 neighbors
     0 = max # of 1-4 neighbors
     1 = max # of special neighbors
  special bonds CPU = 0.062 seconds
  read_data CPU = 0.432 seconds

group 		hull  type 2
42816 atoms in group hull
group 		dummy type 3
66912 atoms in group dummy

neighbor      0.4 bin
neigh_modify  exclude molecule/intra cubes


pair_modify   shift yes

pair_coeff    1 1 1.0 1.0 #solvent
pair_coeff    2 2 1.0 1.0 1.12 #np
pair_coeff    3 3 0.0 0.0 0.0 #dummy
pair_coeff    2 3 0.0 0.0 0.0 #np dummy
pair_coeff    1 2 ${eps} ${sig} ${nscut} #np solvent
pair_coeff    1 2 2.0 ${sig} ${nscut} 
pair_coeff    1 2 2.0 2.0 ${nscut} 
pair_coeff    1 2 2.0 2.0 4.0 
pair_coeff    1 3 0.0 0.0 2.5 #dummy solvent

# delete solvent where the cubes are
delete_atoms  overlap 2.0 solvent cubes
System init for delete_atoms ...
Neighbor list info ...
  update every 1 steps, delay 10 steps, check yes
  max neighbors/atom: 2000, page size: 100000
  master list distance cutoff = 4.4
  ghost atom cutoff = 4.4
  binsize = 2.2, bins = 37 37 73
  2 neighbor lists, perpetual/occasional/extra = 1 1 0
  (1) command delete_atoms, occasional
      attributes: full, newton on
      pair build: full/bin
      stencil: full/bin/3d
      bin: standard
  (2) pair lj/cut/opt, perpetual
      attributes: half, newton on
      pair build: half/bin/newton
      stencil: half/bin/3d/newton
      bin: standard
WARNING: Delete_atoms cutoff > minimum neighbor cutoff (src/delete_atoms.cpp:307)
WARNING: Ignoring 'compress yes' for molecular system (src/delete_atoms.cpp:125)
Deleted 107525 atoms, new total = 520603



pair_coeff    1 1 1.0 1.0 #solvent
pair_coeff    2 2 1.0 1.0 1.12 #np
pair_coeff    3 3 0.0 0.0 0.0 #dummy
pair_coeff    2 3 0.0 0.0 0.0 #np dummy
pair_coeff    1 2 ${eps} ${sig} ${nscut} #np solvent
pair_coeff    1 2 2.0 ${sig} ${nscut} 
pair_coeff    1 2 2.0 2.0 ${nscut} 
pair_coeff    1 2 2.0 2.0 4.0 
pair_coeff    1 3 0.0 0.0 0.0 #dummy solvent


comm_modify   mode multi cutoff/multi 1 2.5 cutoff/multi 2 2.5 cutoff/multi 3 6.95

reset_timestep 	0

balance 	1.05 shift z 10 1.05
Balancing ...
Neighbor list info ...
  update every 1 steps, delay 10 steps, check yes
  max neighbors/atom: 2000, page size: 100000
  master list distance cutoff = 4.4
  ghost atom cutoff = 6.95
  binsize = 2.2, bins = 37 37 73
  1 neighbor lists, perpetual/occasional/extra = 1 0 0
  (1) pair lj/cut/opt, perpetual
      attributes: half, newton on
      pair build: half/bin/newton
      stencil: half/bin/3d/newton
      bin: standard
 rebalancing time: 0.006 seconds
  iteration count = 4
  initial/final maximal load/proc = 2217.0000 2502.0000
  initial/final imbalance factor  = 1.2264547 1.3841180
  x cuts: 0.0000000 0.16666667 0.33333333 0.50000000 0.66666667 0.83333333 1.0000000
  y cuts: 0.0000000 0.25000000 0.50000000 0.75000000 1.0000000
  z cuts: 0.0000000 0.078125000 0.16145833 0.25520833 0.34895833 0.42187500 0.49479167 0.57812500 0.65104167 0.72395833 0.78645833 0.85937500 1.0000000

####################### WALLS ###########################

variable       epsilonWall equal 2*${epsilon}
variable       epsilonWall equal 2*1
variable       repulsive   equal   0.7147*${sigma}
variable       repulsive   equal   0.7147*1
variable       full	   equal   3*${sigma}
variable       full	   equal   3*1
region         lowWall block EDGE EDGE EDGE EDGE EDGE 2

fix            topWall all wall/lj93 zhi EDGE 	       ${epsilonWall} ${sigma} ${repulsive} units box
fix            topWall all wall/lj93 zhi EDGE 	       2 ${sigma} ${repulsive} units box
fix            topWall all wall/lj93 zhi EDGE 	       2 1 ${repulsive} units box
fix            topWall all wall/lj93 zhi EDGE 	       2 1 0.7147 units box
fix            lowSol solvent wall/lj93 zlo EDGE                ${epsilonWall} ${sigma} ${full} units box
fix            lowSol solvent wall/lj93 zlo EDGE                2 ${sigma} ${full} units box
fix            lowSol solvent wall/lj93 zlo EDGE                2 1 ${full} units box
fix            lowSol solvent wall/lj93 zlo EDGE                2 1 3 units box
fix 	       lowCub cubes wall/lj93 zlo EDGE                ${epsilonWall} ${sigma} ${repulsive} units box
fix 	       lowCub cubes wall/lj93 zlo EDGE                2 ${sigma} ${repulsive} units box
fix 	       lowCub cubes wall/lj93 zlo EDGE                2 1 ${repulsive} units box
fix 	       lowCub cubes wall/lj93 zlo EDGE                2 1 0.7147 units box


###################### COMPUTES ##########################

compute        bin1 solvent chunk/atom bin/1d z lower 1.0 units box


######################  FIXES ############################


fix             peclet solvent ave/chunk 10 10 10000 bin1 density/number norm                  none ave one file density.profile

fix              temp solvent ave/chunk 10 10 10000 bin1 temp norm                  none ave one file temp.profile

fix             1 cubes rigid/nve/small molecule
  create bodies CPU = 0.002 seconds
  96 rigid bodies with 109728 atoms
  6.9282032 = max distance from body owner to body atom

fix             2 solvent nve# temp ${temp} ${temp} 10


## Thermostat
region          regthermo block EDGE EDGE EDGE EDGE 0 15
group           thermo dynamic solvent region regthermo every 1000
dynamic group thermo defined
fix             3 thermo langevin ${temp} ${temp} 10 156453
fix             3 thermo langevin 1.0 ${temp} 10 156453
fix             3 thermo langevin 1.0 1.0 10 156453


#### Load balancing

fix             bal all balance 1000 1.05 shift z 10 1.05

############### Diagnostics and computes ###################

compute        	com cubes          rigid/local   1 mol x y z
compute        	quat cubes         rigid/local   1 mol quatw quati quatj quatk

compute 	cc2 cubes 	   chunk/atom 	 molecule
compute 	msd cubes 	   msd/chunk 	 cc2

fix 		msd all ave/time  1 1 10000 c_msd[*] file dump.msd ave one mode vector

dump            1 all custom 500000 dump.lammpstrj id mol type x y z
dump		cubetrj hull custom 500000 cubes.lammpstrj id mol type x y z
dump            com cubes local 10000 dump.*.xyz c_com[*]
dump	        xyz hull xyz 100000 cubes.xyz
dump            quat cubes      local 10000 dump.*.quat c_quat[*]
#dump		mol cubes molfile 10000 mol.xyz xyz


dump            2 all image 10000 image.*.png type type
dump_modify     2 pad 8
dump		image cubes image 10000 image_cubes.*.png type type
dump_modify	image pad 8
dump            3 all movie 5000 movie.avi type type
dump		4 cubes movie 5000 movie_cubes.avi type type


thermo          1000
thermo_style    custom step temp epair evdwl etotal press pe ke atoms

restart         1000000 restart.dat
timestep        0.005
timer           full
New timer settings: style=full  mode=nosync  timeout=off

run 		4000000
Per MPI rank memory allocation (min/avg/max) = 15.55 | 19.74 | 23.37 Mbytes
Step Temp E_pair E_vdwl TotEng Press PotEng KinEng Atoms 
       0   0.99072986   -3.3283507   -3.3283507   -2.1549363   -1.7045526   -3.3283507    1.1734144   520603 
    1000    1.5323202   -4.0108635   -4.0108635   -2.1959929   0.42681491   -4.0108635    1.8148706   520603 
    2000    1.5830801   -4.1150144   -4.1150144   -2.2400241   0.46727178   -4.1150144    1.8749903   520603 
    3000    1.6059972   -4.1838137   -4.1838137   -2.2816804   0.53519688   -4.1838137    1.9021332   520603 
    4000     1.599762   -4.2179848   -4.2179848   -2.3232365   0.53500172   -4.2179848    1.8947483   520603 
    5000    1.5775107   -4.2363195   -4.2363195   -2.3679255   0.49367243   -4.2363195     1.868394   520603 
    6000    1.5506648   -4.2478087   -4.2478087   -2.4112108   0.46470082   -4.2478087    1.8365979   520603 
    7000    1.5396545   -4.2731117   -4.2731117   -2.4495543   0.45695245   -4.2731117    1.8235574   520603 
    8000     1.549019   -4.3159127   -4.3159127   -2.4812641   0.48759661   -4.3159127    1.8346486   520603 
    9000    1.5599574   -4.3531264   -4.3531264   -2.5055225   0.56129657   -4.3531264    1.8476039   520603 
   10000     1.570595   -4.3883376   -4.3883376   -2.5281345   0.57957646   -4.3883376    1.8602031   520603 
   11000    1.5690765   -4.4057092   -4.4057092   -2.5473046   0.61050091   -4.4057092    1.8584046   520603 
   12000    1.5593974    -4.411623    -4.411623   -2.5646823   0.59006965    -4.411623    1.8469407   520603 
   13000    1.5501988   -4.4157031   -4.4157031   -2.5796571   0.58209287   -4.4157031     1.836046   520603 
   14000    1.5420338   -4.4199714   -4.4199714   -2.5935961   0.54147747   -4.4199714    1.8263753   520603 
   15000    1.5344146   -4.4229595   -4.4229595   -2.6056083   0.52539431   -4.4229595    1.8173512   520603 
   16000    1.5220988   -4.4195982   -4.4195982   -2.6168337   0.48229607   -4.4195982    1.8027645   520603 
   17000    1.5139152   -4.4191191   -4.4191191   -2.6260472   0.49943771   -4.4191191    1.7930719   520603 
   18000     1.504905   -4.4194382   -4.4194382   -2.6370379   0.45746135   -4.4194382    1.7824003   520603 
   19000    1.4980938   -4.4224609   -4.4224609   -2.6481277   0.46167064   -4.4224609    1.7743332   520603 
   20000    1.4902911   -4.4254268   -4.4254268   -2.6603351   0.49013626   -4.4254268    1.7650917   520603 
   21000    1.4816922   -4.4304092   -4.4304092   -2.6755021   0.45213844   -4.4304092    1.7549071   520603 
   22000    1.4716293   -4.4321746   -4.4321746   -2.6891859    0.4581641   -4.4321746    1.7429887   520603 
   23000    1.4642701   -4.4382261   -4.4382261   -2.7039535   0.42045565   -4.4382261    1.7342725   520603 
   24000    1.4545897   -4.4400948   -4.4400948   -2.7172877   0.41198875   -4.4400948    1.7228071   520603 
   25000    1.4489532   -4.4458973   -4.4458973    -2.729766   0.39751222   -4.4458973    1.7161313   520603 
   26000    1.4391468   -4.4459792   -4.4459792   -2.7414625   0.42480717   -4.4459792    1.7045167   520603 
   27000    1.4357919   -4.4538282   -4.4538282   -2.7532851   0.37795736   -4.4538282    1.7005431   520603 
   28000    1.4325565    -4.459541    -4.459541   -2.7628298   0.39467798    -4.459541    1.6967111   520603 
   29000    1.4316616   -4.4681021   -4.4681021   -2.7724509   0.37244986   -4.4681021    1.6956512   520603 
   30000    1.4318161   -4.4776828   -4.4776828   -2.7818486   0.41100952   -4.4776828    1.6958342   520603 
   31000    1.4294482   -4.4829654   -4.4829654   -2.7899357   0.39431017   -4.4829654    1.6930297   520603 
   32000    1.4319046   -4.4928772   -4.4928772   -2.7969381   0.41653388   -4.4928772    1.6959391   520603 
   33000    1.4302236   -4.4990237   -4.4990237   -2.8050757   0.41308717   -4.4990237     1.693948   520603 
   34000    1.4302114   -4.5051844   -4.5051844   -2.8112508   0.41318343   -4.5051844    1.6939336   520603 
   35000    1.4312892   -4.5132138   -4.5132138   -2.8180036   0.42698065   -4.5132138    1.6952102   520603 
   36000     1.429166   -4.5177152   -4.5177152   -2.8250198   0.41896388   -4.5177152    1.6926954   520603 
   37000    1.4278946   -4.5225779   -4.5225779   -2.8313883   0.41140551   -4.5225779    1.6911896   520603 
   38000    1.4243009   -4.5246057   -4.5246057   -2.8376724    0.3846212   -4.5246057    1.6869332   520603 
   39000    1.4162646   -4.5222246   -4.5222246   -2.8448094   0.37974641   -4.5222246    1.6774151   520603 
   40000    1.4139385   -4.5253248   -4.5253248   -2.8506648   0.38354587   -4.5253248    1.6746601   520603 
   41000    1.4083105   -4.5250346   -4.5250346   -2.8570403   0.38386369   -4.5250346    1.6679943   520603 
   42000    1.4023667   -4.5238326   -4.5238326   -2.8628781   0.39454751   -4.5238326    1.6609545   520603 
   43000    1.4015498   -4.5289626   -4.5289626   -2.8689756   0.38699606   -4.5289626     1.659987   520603 
   44000     1.395919   -4.5278849   -4.5278849   -2.8745669   0.37471087   -4.5278849    1.6533179   520603 
   45000    1.3946993   -4.5330186   -4.5330186   -2.8811453   0.35482761   -4.5330186    1.6518733   520603 
   46000    1.3892705    -4.533257    -4.533257   -2.8878135   0.36913296    -4.533257    1.6454435   520603 
   47000    1.3868821   -4.5384988   -4.5384988   -2.8958841   0.36504895   -4.5384988    1.6426147   520603 
   48000    1.3823079   -4.5399541   -4.5399541   -2.9027571    0.3487876   -4.5399541     1.637197   520603 
   49000     1.381927   -4.5463937   -4.5463937   -2.9096478   0.36945092   -4.5463937    1.6367459   520603 
   50000    1.3783993   -4.5489065   -4.5489065   -2.9163388   0.35254586   -4.5489065    1.6325677   520603 
   51000    1.3733586   -4.5498713   -4.5498713   -2.9232738   0.35051753   -4.5498713    1.6265975   520603 
   52000    1.3715324   -4.5531115   -4.5531115    -2.928677    0.3286433   -4.5531115    1.6244345   520603 
   53000    1.3714002   -4.5573794   -4.5573794   -2.9331014   0.34790295   -4.5573794     1.624278   520603 
   54000    1.3722612    -4.564557    -4.564557   -2.9392593   0.36184667    -4.564557    1.6252977   520603 
   55000    1.3718652   -4.5683104   -4.5683104   -2.9434817   0.33126812   -4.5683104    1.6248287   520603 
   56000    1.3705413   -4.5723245   -4.5723245   -2.9490638     0.357834   -4.5723245    1.6232607   520603 
   57000    1.3654367   -4.5721715   -4.5721715   -2.9549566    0.3643515   -4.5721715    1.6172149   520603 
   58000    1.3665163    -4.578491    -4.578491   -2.9599975   0.36890163    -4.578491    1.6184935   520603 
   59000    1.3659156   -4.5823683   -4.5823683   -2.9645861   0.35700269   -4.5823683    1.6177821   520603 
   60000    1.3632556   -4.5840923   -4.5840923   -2.9694608   0.37944975   -4.5840923    1.6146315   520603 
   61000     1.361449   -4.5877265   -4.5877265   -2.9752346   0.32371551   -4.5877265    1.6124919   520603 
   62000    1.3577115    -4.588621    -4.588621   -2.9805557     0.362406    -4.588621    1.6080652   520603 
   63000    1.3553128   -4.5896275   -4.5896275   -2.9844034   0.32780585   -4.5896275    1.6052241   520603 
   64000    1.3522784   -4.5906199   -4.5906199   -2.9889897   0.33863229   -4.5906199    1.6016302   520603 
   65000    1.3529012   -4.5961845   -4.5961845   -2.9938166   0.34305656   -4.5961845    1.6023679   520603 
   66000    1.3455678    -4.591832    -4.591832   -2.9981497   0.34460711    -4.591832    1.5936823   520603 
   67000    1.3437745    -4.594617    -4.594617   -3.0030587   0.32529891    -4.594617    1.5915582   520603 
   68000     1.341247   -4.5963456   -4.5963456   -3.0077809   0.33047876   -4.5963456    1.5885647   520603 
   69000    1.3394727   -4.5994931   -4.5994931   -3.0130298   0.33584094   -4.5994931    1.5864633   520603 
   70000     1.337977   -4.6018027   -4.6018027    -3.017111   0.31366147   -4.6018027    1.5846917   520603 
   71000    1.3370459   -4.6057182   -4.6057182   -3.0221292   0.31665001   -4.6057182     1.583589   520603 
   72000    1.3342736   -4.6065294   -4.6065294    -3.026224   0.30280707   -4.6065294    1.5803055   520603 
   73000    1.3313616   -4.6084311   -4.6084311   -3.0315745   0.31705105   -4.6084311    1.5768565   520603 
   74000    1.3299249   -4.6111421   -4.6111421   -3.0359872   0.32768271   -4.6111421    1.5751549   520603 
   75000    1.3268238   -4.6119521   -4.6119521   -3.0404701   0.31790122   -4.6119521     1.571482   520603 
   76000    1.3249032   -4.6149203   -4.6149203   -3.0457131   0.30058452   -4.6149203    1.5692072   520603 
   77000    1.3233535   -4.6180657   -4.6180657   -3.0506939   0.31064528   -4.6180657    1.5673718   520603 
   78000    1.3229772    -4.622058    -4.622058   -3.0551319   0.29920821    -4.622058    1.5669261   520603 
   79000    1.3235728   -4.6267798   -4.6267798   -3.0591483   0.28926707   -4.6267798    1.5676315   520603 
   80000    1.3200461   -4.6275817   -4.6275817   -3.0641272   0.28082051   -4.6275817    1.5634545   520603 
   81000    1.3204325   -4.6308396   -4.6308396   -3.0669273   0.29261898   -4.6308396    1.5639122   520603 
   82000     1.317136   -4.6307309   -4.6307309   -3.0707231   0.28696423   -4.6307309    1.5600078   520603 
   83000    1.3150395   -4.6323231   -4.6323231   -3.0747983   0.28268737   -4.6323231    1.5575247   520603 
   84000    1.3147777   -4.6354736   -4.6354736   -3.0782589   0.31689306   -4.6354736    1.5572147   520603 
   85000    1.3129882   -4.6370112   -4.6370112   -3.0819161   0.30511818   -4.6370112    1.5550951   520603 
   86000    1.3117383   -4.6411424   -4.6411424   -3.0875276   0.30452502   -4.6411424    1.5536148   520603 
   87000     1.307581   -4.6407132   -4.6407132   -3.0920223   0.28392869   -4.6407132    1.5486909   520603 
   88000    1.3065403   -4.6430835   -4.6430835   -3.0956252   0.28896861   -4.6430835    1.5474584   520603 
   89000    1.3036329   -4.6428392   -4.6428392   -3.0988244   0.30077658   -4.6428392    1.5440148   520603 
   90000    1.3038791   -4.6467219   -4.6467219   -3.1024155   0.28279438   -4.6467219    1.5443064   520603 
   91000    1.3008886   -4.6483757   -4.6483757   -3.1076111   0.31105073   -4.6483757    1.5407645   520603 
   92000    1.2981161   -4.6487257   -4.6487257   -3.1112449   0.31217544   -4.6487257    1.5374808   520603 
   93000     1.297983   -4.6529319   -4.6529319   -3.1156088   0.27496396   -4.6529319    1.5373231   520603 
   94000    1.2969068   -4.6543168   -4.6543168   -3.1182684   0.27836873   -4.6543168    1.5360484   520603 
   95000    1.2942153   -4.6558144   -4.6558144   -3.1229537   0.27718252   -4.6558144    1.5328607   520603 
   96000    1.2924188   -4.6571037   -4.6571037   -3.1263708   0.29051223   -4.6571037    1.5307329   520603 
   97000     1.291075   -4.6589896   -4.6589896   -3.1298482    0.2703685   -4.6589896    1.5291414   520603 
   98000    1.2897976   -4.6605778   -4.6605778   -3.1329494   0.27096027   -4.6605778    1.5276284   520603 
   99000    1.2886826   -4.6630541   -4.6630541   -3.1367464   0.25415546   -4.6630541    1.5263077   520603 
  100000    1.2896522   -4.6669265   -4.6669265   -3.1394704   0.26532607   -4.6669265    1.5274561   520603 
  101000    1.2883254   -4.6696375   -4.6696375   -3.1437528    0.2680944   -4.6696375    1.5258847   520603 
  102000    1.2860363   -4.6699909   -4.6699909   -3.1468174   0.27727341   -4.6699909    1.5231735   520603 
  103000    1.2842612   -4.6716744   -4.6716744   -3.1506034      0.29691   -4.6716744     1.521071   520603 
  104000    1.2818138   -4.6707953   -4.6707953    -3.152623   0.27460708   -4.6707953    1.5181724   520603 
  105000      1.28175   -4.6728813   -4.6728813   -3.1547844    0.2740487   -4.6728813    1.5180969   520603 
  106000    1.2804484   -4.6740792   -4.6740792   -3.1575239   0.27105542   -4.6740792    1.5165553   520603 
  107000    1.2797858   -4.6758184   -4.6758184   -3.1600478   0.26330767   -4.6758184    1.5157705   520603 
  108000    1.2776708   -4.6770323   -4.6770323   -3.1637668   0.29350003   -4.6770323    1.5132655   520603 
  109000    1.2769709    -4.680014    -4.680014   -3.1675776   0.25464639    -4.680014    1.5124365   520603 
  110000    1.2739472    -4.679408    -4.679408   -3.1705527   0.27652014    -4.679408    1.5088553   520603 
  111000    1.2739955   -4.6835548   -4.6835548   -3.1746423    0.2883357   -4.6835548    1.5089125   520603 
  112000    1.2742333   -4.6850043   -4.6850043   -3.1758102   0.27077481   -4.6850043    1.5091941   520603 
  113000    1.2716627   -4.6860376   -4.6860376    -3.179888   0.26548115   -4.6860376    1.5061495   520603 
  114000    1.2703859   -4.6875365   -4.6875365   -3.1828992   0.27218513   -4.6875365    1.5046372   520603 
  115000    1.2691779   -4.6887156   -4.6887156   -3.1855091    0.2477327   -4.6887156    1.5032065   520603 
  116000    1.2677488    -4.689737    -4.689737   -3.1882232   0.25860285    -4.689737    1.5015139   520603 
  117000     1.265935   -4.6895048   -4.6895048   -3.1901391   0.28651063   -4.6895048    1.4993657   520603 
  118000    1.2653609   -4.6921058   -4.6921058   -3.1934201   0.26183452   -4.6921058    1.4986857   520603 
  119000    1.2627761   -4.6912931   -4.6912931   -3.1956689    0.2718146   -4.6912931    1.4956242   520603 
  120000     1.263044   -4.6932651   -4.6932651   -3.1973236   0.24308721   -4.6932651    1.4959415   520603 
  121000    1.2623087   -4.6965038   -4.6965038   -3.2014331   0.26194275   -4.6965038    1.4950706   520603 
  122000    1.2607054   -4.6982966   -4.6982966   -3.2051249   0.26484549   -4.6982966    1.4931717   520603 
  123000    1.2585567   -4.6987676   -4.6987676   -3.2081407   0.24806052   -4.6987676    1.4906269   520603 
  124000    1.2578712   -4.7013055   -4.7013055   -3.2114905   0.26088193   -4.7013055     1.489815   520603 
  125000    1.2578089   -4.7035871   -4.7035871   -3.2138459   0.24499645   -4.7035871    1.4897411   520603 
  126000    1.2554713   -4.7031312   -4.7031312   -3.2161588   0.25104102   -4.7031312    1.4869725   520603 
  127000    1.2531652   -4.7039158   -4.7039158   -3.2196746   0.26121234   -4.7039158    1.4842412   520603 
  128000     1.252782   -4.7064337   -4.7064337   -3.2226464   0.24810481   -4.7064337    1.4837873   520603 
  129000    1.2517862   -4.7068845   -4.7068845   -3.2242766    0.2486215   -4.7068845    1.4826079   520603 
  130000    1.2510584   -4.7091824   -4.7091824   -3.2274365   0.23795355   -4.7091824    1.4817459   520603 
  131000    1.2517516   -4.7121943   -4.7121943   -3.2296273   0.24724977   -4.7121943     1.482567   520603 
  132000    1.2495669   -4.7132949   -4.7132949   -3.2333155   0.23746401   -4.7132949    1.4799794   520603 
  133000    1.2475879   -4.7125673   -4.7125673   -3.2349319   0.25330532   -4.7125673    1.4776354   520603 
  134000    1.2480222   -4.7151697   -4.7151697   -3.2370198   0.23665343   -4.7151697    1.4781499   520603 
  135000    1.2453889    -4.713693    -4.713693   -3.2386621   0.22530256    -4.713693     1.475031   520603 
  136000    1.2432355   -4.7127589   -4.7127589   -3.2402784   0.24467375   -4.7127589    1.4724805   520603 
  137000    1.2438073   -4.7159918   -4.7159918    -3.242834   0.24650777   -4.7159918    1.4731578   520603 
  138000    1.2437092   -4.7176514   -4.7176514   -3.2446098   0.23680969   -4.7176514    1.4730416   520603 
  139000     1.242097   -4.7191563   -4.7191563   -3.2480242   0.24097503   -4.7191563    1.4711321   520603 
  140000    1.2419694   -4.7220535   -4.7220535   -3.2510726   0.23546924   -4.7220535    1.4709809   520603 
  141000    1.2411135   -4.7233414   -4.7233414   -3.2533742   0.25020343   -4.7233414    1.4699672   520603 
  142000    1.2390104   -4.7234056   -4.7234056   -3.2559293   0.23933084   -4.7234056    1.4674763   520603 
  143000    1.2380682   -4.7241825   -4.7241825   -3.2578221   0.23957731   -4.7241825    1.4663604   520603 
  144000    1.2365754   -4.7242499   -4.7242499   -3.2596576   0.23987518   -4.7242499    1.4645924   520603 
  145000    1.2372471   -4.7267105   -4.7267105   -3.2613226   0.23651506   -4.7267105    1.4653879   520603 
  146000    1.2367108   -4.7288092   -4.7288092   -3.2640565   0.23069809   -4.7288092    1.4647527   520603 
  147000    1.2350884   -4.7293321   -4.7293321    -3.266501   0.23202573   -4.7293321    1.4628311   520603 
  148000    1.2329217   -4.7293622   -4.7293622   -3.2690973   0.22457841   -4.7293622    1.4602649   520603 
  149000    1.2344208   -4.7336234   -4.7336234    -3.271583   0.22534438   -4.7336234    1.4620404   520603 
  150000    1.2330754   -4.7343913   -4.7343913   -3.2739444   0.23626754   -4.7343913    1.4604469   520603 
  151000    1.2306812   -4.7341485   -4.7341485   -3.2765372   0.22359019   -4.7341485    1.4576113   520603 
  152000    1.2311286   -4.7373664   -4.7373664   -3.2792252   0.23320057   -4.7373664    1.4581412   520603 
  153000    1.2308192   -4.7400455   -4.7400455   -3.2822707   0.21095598   -4.7400455    1.4577748   520603 
  154000    1.2282293    -4.738726    -4.738726   -3.2840188   0.24152156    -4.738726    1.4547072   520603 
  155000    1.2278777   -4.7412994   -4.7412994   -3.2870086   0.23798101   -4.7412994    1.4542908   520603 
  156000    1.2247507   -4.7396236   -4.7396236   -3.2890364   0.21487615   -4.7396236    1.4505872   520603 
  157000    1.2270015   -4.7437283   -4.7437283   -3.2904753   0.21979969   -4.7437283     1.453253   520603 
  158000     1.224025   -4.7425545   -4.7425545   -3.2928268    0.2066973   -4.7425545    1.4497277   520603 
  159000    1.2248111   -4.7462733   -4.7462733   -3.2956145   0.20868251   -4.7462733    1.4506588   520603 
  160000    1.2246219   -4.7482118   -4.7482118   -3.2977772   0.21921647   -4.7482118    1.4504346   520603 
  161000    1.2215588    -4.745959    -4.745959   -3.2991523   0.22171036    -4.745959    1.4468067   520603 
  162000    1.2199678   -4.7460767   -4.7460767   -3.3011543   0.23626007   -4.7460767    1.4449224   520603 
  163000    1.2214498   -4.7494246   -4.7494246   -3.3027469   0.21386886   -4.7494246    1.4466777   520603 
  164000    1.2188515   -4.7486981   -4.7486981   -3.3050978   0.22747092   -4.7486981    1.4436003   520603 
  165000     1.218346   -4.7501605   -4.7501605    -3.307159   0.22311537   -4.7501605    1.4430015   520603 
  166000    1.2178814   -4.7514783   -4.7514783   -3.3090271   0.19851202   -4.7514783    1.4424512   520603 
  167000    1.2178268   -4.7526505   -4.7526505   -3.3102639   0.20082298   -4.7526505    1.4423866   520603 
  168000    1.2151844   -4.7519047   -4.7519047   -3.3126477   0.23685386   -4.7519047     1.439257   520603 
  169000    1.2171406   -4.7565678   -4.7565678    -3.314994   0.22483333   -4.7565678    1.4415738   520603 
  170000    1.2162296   -4.7576368   -4.7576368   -3.3171419   0.21991411   -4.7576368    1.4404949   520603 
  171000    1.2139851   -4.7564554   -4.7564554   -3.3186189   0.20311912   -4.7564554    1.4378365   520603 
  172000    1.2135146   -4.7585689   -4.7585689   -3.3212897   0.19403425   -4.7585689    1.4372792   520603 
  173000    1.2124768   -4.7587166   -4.7587166   -3.3226666   0.20025509   -4.7587166      1.43605   520603 
  174000    1.2100978   -4.7585172   -4.7585172   -3.3252848   0.21362897   -4.7585172    1.4332324   520603 
  175000    1.2109157    -4.760804    -4.760804   -3.3266029   0.19818861    -4.760804    1.4342011   520603 
  176000    1.2108339   -4.7629588   -4.7629588   -3.3288546   0.20095381   -4.7629588    1.4341042   520603 
  177000    1.2061069   -4.7590234   -4.7590234   -3.3305178   0.21689761   -4.7590234    1.4285056   520603 
  178000    1.2070926   -4.7623412   -4.7623412   -3.3326682    0.2104882   -4.7623412     1.429673   520603 
  179000    1.2069599   -4.7641667   -4.7641667   -3.3346508   0.20065347   -4.7641667    1.4295159   520603 
  180000    1.2067867   -4.7661362   -4.7661362   -3.3368254   0.20341827   -4.7661362    1.4293108   520603 
  181000    1.2043351   -4.7647142   -4.7647142   -3.3383071   0.22605967   -4.7647142    1.4264071   520603 
  182000    1.2039352   -4.7662663   -4.7662663   -3.3403328   0.19849722   -4.7662663    1.4259335   520603 
  183000    1.2041829   -4.7675259   -4.7675259   -3.3412991   0.20278706   -4.7675259    1.4262268   520603 
  184000    1.2040742   -4.7688948   -4.7688948   -3.3427967   0.21408555   -4.7688948    1.4260981   520603 
  185000    1.2034953   -4.7702884   -4.7702884   -3.3448759   0.20122414   -4.7702884    1.4254125   520603 
  186000    1.2015114   -4.7702728   -4.7702728     -3.34721   0.22670728   -4.7702728    1.4230628   520603 
  187000    1.2028247   -4.7733404   -4.7733404   -3.3487222   0.20260127   -4.7733404    1.4246182   520603 
  188000    1.2012391   -4.7724602   -4.7724602     -3.34972   0.21118221   -4.7724602    1.4227402   520603 
  189000    1.2014989   -4.7741107   -4.7741107   -3.3510628    0.2012482   -4.7741107    1.4230479   520603 
  190000    1.1997769    -4.773447    -4.773447   -3.3524386   0.22059062    -4.773447    1.4210084   520603 
  191000    1.1985773   -4.7742019   -4.7742019   -3.3546143   0.22269056   -4.7742019    1.4195876   520603 
  192000    1.1980487   -4.7747495   -4.7747495   -3.3557879   0.21693196   -4.7747495    1.4189615   520603 
  193000    1.1961853   -4.7743044   -4.7743044   -3.3575499   0.19186726   -4.7743044    1.4167545   520603 
  194000    1.1957335   -4.7758644   -4.7758644   -3.3596449      0.18251   -4.7758644    1.4162195   520603 
  195000    1.1929259    -4.774261    -4.774261   -3.3613669   0.19537403    -4.774261    1.4128941   520603 
  196000    1.1965938   -4.7802295   -4.7802295   -3.3629911   0.18419799   -4.7802295    1.4172384   520603 
  197000    1.1953452    -4.779515    -4.779515   -3.3637555   0.19756225    -4.779515    1.4157595   520603 
  198000    1.1929755   -4.7785772   -4.7785772   -3.3656243   0.20059956   -4.7785772    1.4129529   520603 
  199000    1.1929145   -4.7810743   -4.7810743   -3.3681937   0.21232422   -4.7810743    1.4128806   520603 
  200000    1.1917563   -4.7819184   -4.7819184   -3.3704095   0.19725388   -4.7819184    1.4115089   520603 
  201000    1.1914244   -4.7830733   -4.7830733   -3.3719576   0.19616288   -4.7830733    1.4111157   520603 
  202000    1.1920909   -4.7850082   -4.7850082   -3.3731031    0.2030699   -4.7850082    1.4119052   520603 
  203000    1.1904059   -4.7849795   -4.7849795     -3.37507   0.17390967   -4.7849795    1.4099095   520603 
  204000     1.189474   -4.7859051   -4.7859051   -3.3770994   0.19086537   -4.7859051    1.4088057   520603 
  205000    1.1903675   -4.7886058   -4.7886058   -3.3787419   0.20380748   -4.7886058    1.4098639   520603 
  206000    1.1881764   -4.7881475   -4.7881475   -3.3808786    0.1896321   -4.7881475    1.4072689   520603 
  207000    1.1888464   -4.7900105   -4.7900105   -3.3819481   0.18763518   -4.7900105    1.4080624   520603 
  208000    1.1860256   -4.7881839   -4.7881839   -3.3834624   0.19165326   -4.7881839    1.4047215   520603 
  209000    1.1868569   -4.7907174   -4.7907174   -3.3850113   0.19250152   -4.7907174    1.4057061   520603 
  210000    1.1849682   -4.7909608   -4.7909608   -3.3874917   0.18875288   -4.7909608    1.4034691   520603 
  211000    1.1851507   -4.7920939   -4.7920939   -3.3884086   0.20218002   -4.7920939    1.4036852   520603 
  212000    1.1849644    -4.793391    -4.793391   -3.3899265   0.19396286    -4.793391    1.4034646   520603 
  213000    1.1835105   -4.7921648   -4.7921648   -3.3904222   0.22041244   -4.7921648    1.4017426   520603 
  214000    1.1849506   -4.7957671   -4.7957671   -3.3923189   0.19148003   -4.7957671    1.4034482   520603 
  215000    1.1817835   -4.7946771   -4.7946771     -3.39498   0.18486507   -4.7946771    1.3996972   520603 
  216000    1.1807029   -4.7956434   -4.7956434   -3.3972262   0.18722402   -4.7956434    1.3984173   520603 
  217000    1.1818619   -4.7991952   -4.7991952   -3.3994052   0.17114294   -4.7991952    1.3997899   520603 
  218000     1.182439   -4.8021038   -4.8021038   -3.4016303    0.1731504   -4.8021038    1.4004735   520603 
  219000    1.1791514   -4.8000289   -4.8000289   -3.4034492   0.18582742   -4.8000289    1.3965797   520603 
  220000    1.1805343    -4.802666    -4.802666   -3.4044485   0.20475032    -4.802666    1.3982176   520603 
  221000    1.1799792    -4.803583    -4.803583   -3.4060228   0.20345287    -4.803583    1.3975602   520603 
  222000    1.1803463   -4.8045267   -4.8045267   -3.4065319   0.19092113   -4.8045267    1.3979949   520603 
  223000    1.1779873   -4.8035996   -4.8035996   -3.4083987   0.18599775   -4.8035996     1.395201   520603 
  224000    1.1759508    -4.803157    -4.803157   -3.4103681   0.17796549    -4.803157    1.3927889   520603 
  225000    1.1765245   -4.8043231   -4.8043231   -3.4108546   0.18118123   -4.8043231    1.3934684   520603 
  226000    1.1768783   -4.8071785   -4.8071785   -3.4132911   0.17490862   -4.8071785    1.3938875   520603 
  227000    1.1741033   -4.8045753   -4.8045753   -3.4139745   0.19100158   -4.8045753    1.3906008   520603 
  228000     1.174406   -4.8063206   -4.8063206   -3.4153614   0.18022422   -4.8063206    1.3909592   520603 
  229000    1.1716571   -4.8044159   -4.8044159   -3.4167124    0.1857376   -4.8044159    1.3877035   520603 
  230000    1.1732963   -4.8075369   -4.8075369   -3.4178919   0.17932759   -4.8075369    1.3896449   520603 
  231000    1.1737659   -4.8096269   -4.8096269   -3.4194258   0.18161104   -4.8096269    1.3902011   520603 
  232000    1.1737735   -4.8095014   -4.8095014   -3.4192913    0.1943496   -4.8095014    1.3902101   520603 
  233000     1.173769   -4.8117463   -4.8117463   -3.4215415   0.15315925   -4.8117463    1.3902048   520603 
  234000    1.1732005   -4.8135175   -4.8135175    -3.423986   0.18507859   -4.8135175    1.3895315   520603 
  235000    1.1718607   -4.8134132   -4.8134132   -3.4254686   0.17073821   -4.8134132    1.3879446   520603 
  236000    1.1710175   -4.8138889   -4.8138889    -3.426943    0.1876386   -4.8138889    1.3869459   520603 
  237000    1.1706612    -4.814781    -4.814781    -3.428257   0.15926961    -4.814781     1.386524   520603 
  238000    1.1696277   -4.8155329   -4.8155329    -3.430233   0.15966792   -4.8155329    1.3852999   520603 
  239000    1.1691562   -4.8154945   -4.8154945   -3.4307531   0.17501828   -4.8154945    1.3847414   520603 
  240000    1.1689468   -4.8161579   -4.8161579   -3.4316644   0.17573749   -4.8161579    1.3844935   520603 
  241000    1.1676085   -4.8156436   -4.8156436   -3.4327352   0.17356109   -4.8156436    1.3829083   520603 
  242000    1.1660295   -4.8155024   -4.8155024   -3.4344642   0.17568069   -4.8155024    1.3810382   520603 
  243000    1.1666878   -4.8174317   -4.8174317   -3.4356138   0.17770189   -4.8174317    1.3818179   520603 
  244000    1.1682455   -4.8197556   -4.8197556   -3.4360928   0.16976326   -4.8197556    1.3836628   520603 
  245000    1.1655848   -4.8188033   -4.8188033   -3.4382918      0.18311   -4.8188033    1.3805115   520603 
  246000    1.1647589   -4.8195652   -4.8195652    -3.440032   0.15998993   -4.8195652    1.3795333   520603 
  247000     1.165557   -4.8212964   -4.8212964   -3.4408179   0.17413873   -4.8212964    1.3804785   520603 
  248000    1.1642981   -4.8212399   -4.8212399   -3.4422524   0.16789433   -4.8212399    1.3789875   520603 
  249000    1.1656799   -4.8240747   -4.8240747   -3.4434506   0.20411958   -4.8240747    1.3806241   520603 
  250000    1.1635655   -4.8232245   -4.8232245   -3.4451047   0.16462613   -4.8232245    1.3781198   520603 
  251000    1.1648825   -4.8256827   -4.8256827    -3.446003   0.16805283   -4.8256827    1.3796796   520603 
  252000    1.1626221   -4.8236439   -4.8236439   -3.4466415   0.16227707   -4.8236439    1.3770025   520603 
  253000    1.1634866   -4.8263508   -4.8263508   -3.4483244    0.1877274   -4.8263508    1.3780264   520603 
  254000    1.1609841   -4.8248865   -4.8248865    -3.449824   0.15947188   -4.8248865    1.3750625   520603 
  255000    1.1596697   -4.8245384   -4.8245384   -3.4510327   0.16256592   -4.8245384    1.3735057   520603 
  256000    1.1606715   -4.8261372   -4.8261372    -3.451445    0.1598507   -4.8261372    1.3746922   520603 
  257000     1.160453   -4.8261688   -4.8261688   -3.4517354   0.18257005   -4.8261688    1.3744334   520603 
  258000    1.1597995   -4.8266227   -4.8266227   -3.4529633   0.17213193   -4.8266227    1.3736594   520603 
  259000    1.1603926   -4.8294429   -4.8294429    -3.455081   0.17230924   -4.8294429    1.3743619   520603 
  260000    1.1585768   -4.8285525   -4.8285525   -3.4563413   0.16973246   -4.8285525    1.3722112   520603 
  261000    1.1573007   -4.8285807   -4.8285807   -3.4578808   0.16532247   -4.8285807    1.3706999   520603 
  262000    1.1565511   -4.8291729   -4.8291729   -3.4593609   0.16204189   -4.8291729     1.369812   520603 
  263000    1.1563165   -4.8302566   -4.8302566   -3.4607225   0.15385658   -4.8302566    1.3695342   520603 
  264000    1.1555694   -4.8315735   -4.8315735   -3.4629242   0.15672041   -4.8315735    1.3686493   520603 
  265000    1.1560379   -4.8330466   -4.8330466   -3.4638424    0.1629193   -4.8330466    1.3692042   520603 
  266000    1.1549476   -4.8327708   -4.8327708   -3.4648579   0.15154862   -4.8327708    1.3679129   520603 
  267000    1.1557027   -4.8339488   -4.8339488   -3.4651416   0.16629129   -4.8339488    1.3688072   520603 
  268000     1.152176   -4.8310947   -4.8310947   -3.4664645   0.16793418   -4.8310947    1.3646302   520603 
  269000    1.1554503   -4.8359026   -4.8359026   -3.4673944   0.15598286   -4.8359026    1.3685082   520603 
  270000    1.1545874   -4.8367206   -4.8367206   -3.4692344   0.14861043   -4.8367206    1.3674862   520603 
  271000     1.155426   -4.8391023   -4.8391023   -3.4706228   0.15768752   -4.8391023    1.3684795   520603 
  272000    1.1530677   -4.8372082   -4.8372082   -3.4715219    0.1747384   -4.8372082    1.3656863   520603 
  273000    1.1514088   -4.8362818   -4.8362818   -3.4725603   0.16647432   -4.8362818    1.3637215   520603 
  274000    1.1524208   -4.8386083   -4.8386083   -3.4736882   0.17187322   -4.8386083    1.3649201   520603 
  275000    1.1521622   -4.8393886   -4.8393886   -3.4747747    0.1561143   -4.8393886    1.3646139   520603 
  276000    1.1514944   -4.8386091   -4.8386091   -3.4747861   0.15850371   -4.8386091    1.3638229   520603 
  277000    1.1515731   -4.8392933   -4.8392933   -3.4753771   0.14195394   -4.8392933    1.3639162   520603 
  278000    1.1511109   -4.8402657   -4.8402657    -3.476897   0.14792079   -4.8402657    1.3633687   520603 
  279000    1.1505458   -4.8412459   -4.8412459   -3.4785466   0.16839131   -4.8412459    1.3626993   520603 
  280000    1.1501104   -4.8417857   -4.8417857    -3.479602   0.14397864   -4.8417857    1.3621837   520603 
  281000    1.1491518   -4.8417943   -4.8417943    -3.480746   0.13504498   -4.8417943    1.3610484   520603 
  282000    1.1476294   -4.8418804   -4.8418804   -3.4826351   0.17777138   -4.8418804    1.3592453   520603 
  283000    1.1468606   -4.8420625   -4.8420625   -3.4837278    0.1458066   -4.8420625    1.3583347   520603 
  284000    1.1478691    -4.844541    -4.844541   -3.4850118   0.17952034    -4.844541    1.3595292   520603 
  285000    1.1488328   -4.8462771   -4.8462771   -3.4856066   0.15152934   -4.8462771    1.3606705   520603 
  286000    1.1473379   -4.8458695   -4.8458695   -3.4869695   0.14855426   -4.8458695       1.3589   520603 
  287000    1.1485787   -4.8480184   -4.8480184   -3.4876489   0.15924535   -4.8480184    1.3603695   520603 
  288000    1.1458986   -4.8468629   -4.8468629   -3.4896676   0.17415442   -4.8468629    1.3571953   520603 
  289000    1.1470093   -4.8491759   -4.8491759   -3.4906651   0.16499715   -4.8491759    1.3585107   520603 
  290000    1.1461813   -4.8495318   -4.8495318   -3.4920018   0.15358207   -4.8495318      1.35753   520603 
  291000    1.1460762   -4.8503961   -4.8503961   -3.4929904   0.15857215   -4.8503961    1.3574057   520603 
  292000    1.1427506   -4.8479368   -4.8479368     -3.49447   0.16075841   -4.8479368    1.3534668   520603 
  293000    1.1432259   -4.8486987   -4.8486987   -3.4946691   0.16294684   -4.8486987    1.3540297   520603 
  294000      1.14596    -4.853446    -4.853446   -3.4961781    0.1588027    -4.853446     1.357268   520603 
  295000     1.145437   -4.8532893   -4.8532893   -3.4966407   0.15130234   -4.8532893    1.3566486   520603 
  296000     1.143435    -4.852333    -4.852333   -3.4980556   0.17293224    -4.852333    1.3542774   520603 
  297000    1.1445627   -4.8551287   -4.8551287   -3.4995157   0.16750607   -4.8551287    1.3556131   520603 
  298000    1.1442316   -4.8558444   -4.8558444   -3.5006235   0.15908559   -4.8558444    1.3552209   520603 
  299000     1.142991   -4.8555976   -4.8555976   -3.5018461   0.14244298   -4.8555976    1.3537515   520603 
  300000    1.1412837   -4.8539063   -4.8539063    -3.502177   0.17153515   -4.8539063    1.3517294   520603 
  301000    1.1411518   -4.8537441   -4.8537441   -3.5021709   0.16438835   -4.8537441    1.3515732   520603 
  302000    1.1435088    -4.857207    -4.857207   -3.5028423   0.14859455    -4.857207    1.3543648   520603 
  303000    1.1401471   -4.8536326   -4.8536326   -3.5032494   0.13558864   -4.8536326    1.3503833   520603 
  304000    1.1421554   -4.8564469   -4.8564469   -3.5036851   0.16714624   -4.8564469    1.3527618   520603 
  305000    1.1430479   -4.8588671   -4.8588671   -3.5050481   0.15011167   -4.8588671     1.353819   520603 
  306000    1.1407228    -4.857656    -4.857656   -3.5065909   0.17054318    -4.857656    1.3510651   520603 
  307000    1.1411939   -4.8597676   -4.8597676   -3.5081445   0.13384873   -4.8597676    1.3516231   520603 
  308000    1.1406701   -4.8593003   -4.8593003   -3.5082976   0.16043968   -4.8593003    1.3510027   520603 
  309000    1.1399834    -4.858778    -4.858778   -3.5085887   0.14985853    -4.858778    1.3501893   520603 
  310000    1.1398308   -4.8597146   -4.8597146   -3.5097059   0.15394339   -4.8597146    1.3500087   520603 
  311000      1.13907   -4.8593423   -4.8593423   -3.5102347   0.15584025   -4.8593423    1.3491076   520603 
  312000    1.1391707    -4.860203    -4.860203   -3.5109762   0.15292688    -4.860203    1.3492268   520603 
  313000    1.1375552   -4.8600149   -4.8600149   -3.5127015    0.1633708   -4.8600149    1.3473133   520603 
  314000    1.1377579    -4.861067    -4.861067   -3.5135136   0.12966689    -4.861067    1.3475534   520603 
  315000    1.1364649   -4.8615974   -4.8615974   -3.5155754   0.15455656   -4.8615974     1.346022   520603 
  316000    1.1371038   -4.8636454   -4.8636454   -3.5168667   0.15249027   -4.8636454    1.3467787   520603 
  317000    1.1359017   -4.8640052   -4.8640052   -3.5186503   0.15808379   -4.8640052     1.345355   520603 
  318000    1.1368149   -4.8656863   -4.8656863   -3.5192497   0.15013061   -4.8656863    1.3464366   520603 
  319000    1.1379205   -4.8685495   -4.8685495   -3.5208035   0.14669384   -4.8685495     1.347746   520603 
  320000    1.1379152   -4.8679779   -4.8679779   -3.5202381   0.15771564   -4.8679779    1.3477398   520603 
  321000    1.1361646   -4.8669078   -4.8669078   -3.5212414   0.13611941   -4.8669078    1.3456664   520603 
  322000    1.1371905    -4.868284    -4.868284   -3.5214025   0.16149179    -4.868284    1.3468815   520603 
  323000    1.1372117   -4.8691479   -4.8691479   -3.5222413   0.15872497   -4.8691479    1.3469066   520603 
  324000    1.1359801   -4.8683083   -4.8683083   -3.5228604   0.17082081   -4.8683083    1.3454479   520603 
  325000    1.1372583   -4.8715178   -4.8715178    -3.524556   0.14989278   -4.8715178    1.3469618   520603 
  326000    1.1373826   -4.8732503   -4.8732503   -3.5261413   0.15288777   -4.8732503     1.347109   520603 
  327000    1.1351019   -4.8702516   -4.8702516   -3.5258439   0.14876283   -4.8702516    1.3444077   520603 
  328000    1.1355095   -4.8724506   -4.8724506   -3.5275601   0.14647828   -4.8724506    1.3448905   520603 
  329000    1.1350449   -4.8718917   -4.8718917   -3.5275514   0.16856675   -4.8718917    1.3443402   520603 
  330000    1.1326061   -4.8696408   -4.8696408   -3.5281891    0.1365306   -4.8696408    1.3414517   520603 
  331000    1.1328618   -4.8708511   -4.8708511   -3.5290965    0.1604148   -4.8708511    1.3417546   520603 
  332000    1.1335176   -4.8727354   -4.8727354   -3.5302041   0.14010194   -4.8727354    1.3425313   520603 
  333000    1.1327298   -4.8717331   -4.8717331   -3.5301349   0.12656446   -4.8717331    1.3415982   520603 
  334000    1.1339768   -4.8734409   -4.8734409   -3.5303657   0.16139944   -4.8734409    1.3430752   520603 
  335000    1.1332823   -4.8727965   -4.8727965    -3.530544   0.14731858   -4.8727965    1.3422526   520603 
  336000    1.1324311   -4.8731414   -4.8731414    -3.531897   0.14063009   -4.8731414    1.3412445   520603 
  337000    1.1311706   -4.8727211   -4.8727211   -3.5329695   0.15749437   -4.8727211    1.3397515   520603 
  338000    1.1324385   -4.8762313   -4.8762313   -3.5349781    0.1307607   -4.8762313    1.3412532   520603 
  339000    1.1322313   -4.8754079   -4.8754079   -3.5344001   0.12931902   -4.8754079    1.3410078   520603 
  340000    1.1313187   -4.8760115   -4.8760115   -3.5360846   0.14677005   -4.8760115    1.3399269   520603 
  341000    1.1312837   -4.8766085   -4.8766085    -3.536723   0.14642272   -4.8766085    1.3398855   520603 
  342000    1.1311746   -4.8779676   -4.8779676   -3.5382113   0.12882666   -4.8779676    1.3397563   520603 
  343000    1.1307995   -4.8777369   -4.8777369    -3.538425   0.15067001   -4.8777369     1.339312   520603 
  344000    1.1307242   -4.8780051   -4.8780051   -3.5387824   0.13072388   -4.8780051    1.3392228   520603 
  345000    1.1301145   -4.8782908   -4.8782908   -3.5397902   0.14068436   -4.8782908    1.3385007   520603 
  346000    1.1286281   -4.8785333   -4.8785333   -3.5417931   0.15158043   -4.8785333    1.3367402   520603 
  347000    1.1278828   -4.8787208   -4.8787208   -3.5428634   0.13708897   -4.8787208    1.3358575   520603 
  348000    1.1264671   -4.8784329   -4.8784329   -3.5442522   0.14021228   -4.8784329    1.3341807   520603 
  349000    1.1266695   -4.8798771   -4.8798771   -3.5454566   0.15333402   -4.8798771    1.3344205   520603 
  350000    1.1275097   -4.8825139   -4.8825139   -3.5470983   0.14473934   -4.8825139    1.3354156   520603 
  351000    1.1267025   -4.8821366   -4.8821366   -3.5476771   0.13678748   -4.8821366    1.3344595   520603 
  352000    1.1274043   -4.8846815   -4.8846815   -3.5493908   0.15360155   -4.8846815    1.3352908   520603 
  353000    1.1256634   -4.8834759   -4.8834759   -3.5502471   0.14047273   -4.8834759    1.3332288   520603 
  354000    1.1242814   -4.8819583   -4.8819583   -3.5503664   0.13626967   -4.8819583    1.3315919   520603 
  355000    1.1239776   -4.8821118   -4.8821118   -3.5508796   0.15012562   -4.8821118    1.3312322   520603 
  356000    1.1250052    -4.884085    -4.884085   -3.5516358   0.13729492    -4.884085    1.3324492   520603 
  357000    1.1252973   -4.8849118   -4.8849118   -3.5521166   0.11906539   -4.8849118    1.3327952   520603 
  358000    1.1264043   -4.8878554   -4.8878554   -3.5537491   0.15342735   -4.8878554    1.3341063   520603 
  359000    1.1259234   -4.8888173   -4.8888173   -3.5552806   0.16023433   -4.8888173    1.3335367   520603 
  360000    1.1245095    -4.888278    -4.888278   -3.5564158   0.11277108    -4.888278    1.3318622   520603 
  361000    1.1255726   -4.8902898   -4.8902898   -3.5571685   0.14949534   -4.8902898    1.3331213   520603 
  362000    1.1228261   -4.8888326   -4.8888326   -3.5589643   0.15505208   -4.8888326    1.3298683   520603 
  363000    1.1237242   -4.8907766   -4.8907766   -3.5598447   0.13234916   -4.8907766     1.330932   520603 
  364000    1.1234691   -4.8919065   -4.8919065   -3.5612766   0.12391963   -4.8919065    1.3306299   520603 
  365000    1.1208637    -4.889604    -4.889604   -3.5620599   0.14799985    -4.889604    1.3275441   520603 
  366000    1.1218852   -4.8919467   -4.8919467   -3.5631927   0.12810814   -4.8919467     1.328754   520603 
  367000     1.122409   -4.8937452   -4.8937452   -3.5643709   0.14635589   -4.8937452    1.3293743   520603 
  368000    1.1223982   -4.8947805   -4.8947805   -3.5654189   0.13862297   -4.8947805    1.3293616   520603 
  369000    1.1226001   -4.8953397   -4.8953397    -3.565739   0.12868168   -4.8953397    1.3296007   520603 
  370000    1.1217178   -4.8947926   -4.8947926    -3.566237   0.14078004   -4.8947926    1.3285557   520603 
  371000    1.1217586   -4.8956027   -4.8956027   -3.5669987   0.12990486   -4.8956027     1.328604   520603 
  372000    1.1211641   -4.8961652   -4.8961652   -3.5682653   0.12907725   -4.8961652    1.3278999   520603 
  373000    1.1197487   -4.8958544   -4.8958544   -3.5696309      0.13254   -4.8958544    1.3262235   520603 
  374000    1.1187032   -4.8960338   -4.8960338   -3.5710486   0.13656249   -4.8960338    1.3249852   520603 
  375000    1.1188738   -4.8968339   -4.8968339   -3.5716466   0.15452468   -4.8968339    1.3251873   520603 
  376000     1.119374   -4.8984594   -4.8984594   -3.5726797   0.11900925   -4.8984594    1.3257797   520603 
  377000    1.1185531   -4.8973545   -4.8973545   -3.5725472   0.13744134   -4.8973545    1.3248074   520603 
  378000    1.1167565   -4.8964004   -4.8964004   -3.5737208   0.12272668   -4.8964004    1.3226796   520603 
  379000    1.1178224   -4.8985614   -4.8985614   -3.5746194   0.13704308   -4.8985614     1.323942   520603 
  380000    1.1172805   -4.8988384   -4.8988384   -3.5755383   0.13297325   -4.8988384    1.3233001   520603 
  381000     1.119116   -4.9011898   -4.9011898   -3.5757157   0.14260919   -4.9011898    1.3254741   520603 
  382000    1.1183449   -4.9008137   -4.9008137   -3.5762528   0.13710438   -4.9008137    1.3245609   520603 
  383000    1.1175549   -4.9001795   -4.9001795   -3.5765543   0.12221512   -4.9001795    1.3236252   520603 
  384000    1.1189003   -4.9024092   -4.9024092   -3.5771906   0.11393169   -4.9024092    1.3252186   520603 
  385000    1.1181297     -4.90269     -4.90269   -3.5783841   0.11062643     -4.90269    1.3243059   520603 
  386000    1.1191607   -4.9037603   -4.9037603   -3.5782332   0.12048595   -4.9037603    1.3255271   520603 
  387000    1.1177324   -4.9031534   -4.9031534    -3.579318   0.13598856   -4.9031534    1.3238354   520603 
  388000    1.1167353   -4.9026773   -4.9026773   -3.5800229   0.13413533   -4.9026773    1.3226544   520603 
  389000    1.1164899   -4.9035806   -4.9035806   -3.5812168   0.13799236   -4.9035806    1.3223638   520603 
  390000    1.1140851   -4.9011632   -4.9011632   -3.5816477   0.12647792   -4.9011632    1.3195155   520603 
  391000    1.1182728   -4.9072174   -4.9072174   -3.5827419   0.12798529   -4.9072174    1.3244755   520603 
  392000    1.1170552   -4.9067217   -4.9067217   -3.5836884   0.13293743   -4.9067217    1.3230333   520603 
  393000    1.1169958   -4.9079579   -4.9079579    -3.584995   0.13047172   -4.9079579    1.3229629   520603 
  394000    1.1152192   -4.9075805   -4.9075805   -3.5867218   0.13970097   -4.9075805    1.3208587   520603 
  395000    1.1160352   -4.9093633   -4.9093633    -3.587538    0.1544431   -4.9093633    1.3218253   520603 
  396000    1.1154603   -4.9092506   -4.9092506   -3.5881063   0.12672704   -4.9092506    1.3211443   520603 
  397000    1.1147103   -4.9091983   -4.9091983   -3.5889423   0.14153522   -4.9091983    1.3202561   520603 
  398000    1.1132367   -4.9077523   -4.9077523   -3.5892416   0.11046874   -4.9077523    1.3185107   520603 
  399000    1.1135735   -4.9085169   -4.9085169   -3.5896073     0.134022   -4.9085169    1.3189096   520603 
  400000    1.1151161    -4.911558    -4.911558   -3.5908213   0.13413839    -4.911558    1.3207367   520603 
  401000    1.1149177   -4.9122867   -4.9122867    -3.591785   0.13906341   -4.9122867    1.3205017   520603 
  402000    1.1118574   -4.9093834   -4.9093834   -3.5925063   0.13572964   -4.9093834    1.3168771   520603 
  403000    1.1115695   -4.9099183   -4.9099183   -3.5933823   0.11358214   -4.9099183     1.316536   520603 
  404000    1.1128246   -4.9126829   -4.9126829   -3.5946603   0.11917209   -4.9126829    1.3180227   520603 
  405000    1.1134554   -4.9142912   -4.9142912   -3.5955215   0.13639816   -4.9142912    1.3187697   520603 
  406000    1.1132483   -4.9146168   -4.9146168   -3.5960923   0.13119251   -4.9146168    1.3185244   520603 
  407000    1.1142218   -4.9161776   -4.9161776   -3.5965001   0.13060763   -4.9161776    1.3196775   520603 
  408000    1.1117571    -4.914388    -4.914388   -3.5976296   0.13303213    -4.914388    1.3167583   520603 
  409000     1.112872   -4.9155515   -4.9155515   -3.5974728   0.14890593   -4.9155515    1.3180788   520603 
  410000    1.1103127   -4.9150717   -4.9150717   -3.6000242   0.11355576   -4.9150717    1.3150475   520603 
  411000    1.1103648   -4.9153844   -4.9153844   -3.6002751   0.11937949   -4.9153844    1.3151093   520603 
  412000    1.1102138   -4.9156231   -4.9156231   -3.6006927   0.11674021   -4.9156231    1.3149305   520603 
  413000    1.1112511   -4.9181262   -4.9181262   -3.6019672   0.11386629   -4.9181262     1.316159   520603 
  414000    1.1117064   -4.9192519   -4.9192519   -3.6025537   0.14403302   -4.9192519    1.3166982   520603 
  415000    1.1122109   -4.9204888   -4.9204888   -3.6031931   0.14278974   -4.9204888    1.3172957   520603 
  416000    1.1113386   -4.9204107   -4.9204107    -3.604148   0.12621334   -4.9204107    1.3162626   520603 
  417000    1.1107141   -4.9195386   -4.9195386   -3.6040156   0.15173579   -4.9195386     1.315523   520603 
  418000    1.1094194   -4.9186725   -4.9186725    -3.604683   0.12963859   -4.9186725    1.3139895   520603 
  419000    1.1097845   -4.9210829   -4.9210829    -3.606661   0.12415858   -4.9210829    1.3144219   520603 
  420000     1.109837   -4.9222659   -4.9222659   -3.6077817   0.13792069   -4.9222659    1.3144842   520603 
  421000    1.1122067   -4.9260839   -4.9260839   -3.6087931   0.12711511   -4.9260839    1.3172908   520603 
  422000    1.1090333    -4.924416    -4.924416   -3.6108837   0.12829182    -4.924416    1.3135323   520603 
  423000    1.1078219   -4.9232533   -4.9232533   -3.6111558    0.1151292   -4.9232533    1.3120975   520603 
  424000    1.1078672    -4.924004    -4.924004   -3.6118529   0.14028572    -4.924004    1.3121511   520603 
  425000    1.1099901   -4.9275115   -4.9275115    -3.612846   0.12718407   -4.9275115    1.3146655   520603 
  426000    1.1083268   -4.9267986   -4.9267986   -3.6141032   0.12057676   -4.9267986    1.3126954   520603 
  427000    1.1048726   -4.9236161   -4.9236161   -3.6150118   0.12269001   -4.9236161    1.3086043   520603 
  428000    1.1063061   -4.9255746   -4.9255746   -3.6152724   0.12410234   -4.9255746    1.3103022   520603 
  429000    1.1042402   -4.9233407   -4.9233407   -3.6154853   0.12255186   -4.9233407    1.3078554   520603 
  430000    1.1054908   -4.9245769   -4.9245769   -3.6152403   0.13832584   -4.9245769    1.3093365   520603 
  431000    1.1064363   -4.9269788   -4.9269788   -3.6165224   0.11910917   -4.9269788    1.3104563   520603 
  432000    1.1063705   -4.9277878   -4.9277878   -3.6174094   0.11971112   -4.9277878    1.3103784   520603 
  433000    1.1056134   -4.9276238   -4.9276238   -3.6181421   0.10522552   -4.9276238    1.3094818   520603 
  434000    1.1082558   -4.9305963   -4.9305963   -3.6179849   0.13493267   -4.9305963    1.3126114   520603 
  435000    1.1045434   -4.9262632   -4.9262632   -3.6180488   0.12218265   -4.9262632    1.3082144   520603 
  436000    1.1065009   -4.9301507   -4.9301507   -3.6196178   0.12398169   -4.9301507    1.3105329   520603 
  437000    1.1052299   -4.9288266   -4.9288266   -3.6197992   0.14665183   -4.9288266    1.3090275   520603 
  438000    1.1065013   -4.9298734   -4.9298734   -3.6193401    0.1380049   -4.9298734    1.3105333   520603 
  439000    1.1058596    -4.929929    -4.929929   -3.6201557   0.11607167    -4.929929    1.3097733   520603 
  440000    1.1060018   -4.9310668   -4.9310668   -3.6211251   0.11630171   -4.9310668    1.3099417   520603 
  441000    1.1037054   -4.9292445   -4.9292445   -3.6220226   0.11760244   -4.9292445    1.3072218   520603 
  442000    1.1028803   -4.9289661   -4.9289661   -3.6227214   0.13940007   -4.9289661    1.3062447   520603 
  443000    1.1046575   -4.9314036   -4.9314036   -3.6230541   0.12719532   -4.9314036    1.3083496   520603 
  444000    1.1039181   -4.9319896   -4.9319896   -3.6245158   0.13429296   -4.9319896    1.3074738   520603 
  445000    1.1035925   -4.9316158   -4.9316158   -3.6245277    0.1323039   -4.9316158    1.3070882   520603 
  446000    1.1028215   -4.9319514   -4.9319514   -3.6257764   0.12593734   -4.9319514     1.306175   520603 
  447000    1.1033507   -4.9332599   -4.9332599   -3.6264582   0.13335244   -4.9332599    1.3068018   520603 
  448000      1.10253   -4.9330203   -4.9330203   -3.6271905   0.13693229   -4.9330203    1.3058298   520603 
  449000    1.1018122   -4.9334191   -4.9334191   -3.6284395   0.11819948   -4.9334191    1.3049796   520603 
  450000    1.1023546   -4.9336981   -4.9336981   -3.6280762   0.12327076   -4.9336981     1.305622   520603 
  451000    1.1019614   -4.9340985   -4.9340985   -3.6289421   0.11591065   -4.9340985    1.3051563   520603 
  452000    1.1012472   -4.9346588   -4.9346588   -3.6303484   0.12695205   -4.9346588    1.3043105   520603 
  453000    1.1023452   -4.9361719   -4.9361719    -3.630561   0.12252954   -4.9361719    1.3056109   520603 
  454000    1.1019901   -4.9358961   -4.9358961   -3.6307058   0.11288423   -4.9358961    1.3051904   520603 
  455000     1.102853   -4.9387325   -4.9387325   -3.6325202   0.11642809   -4.9387325    1.3062123   520603 
  456000    1.1027626   -4.9388513   -4.9388513   -3.6327461   0.13383947   -4.9388513    1.3061052   520603 
  457000    1.0996508   -4.9369998   -4.9369998   -3.6345801   0.12854529   -4.9369998    1.3024197   520603 
  458000    1.1000862   -4.9373755   -4.9373755   -3.6344401   0.13932915   -4.9373755    1.3029354   520603 
  459000    1.1003694   -4.9394929   -4.9394929   -3.6362221   0.12893023   -4.9394929    1.3032708   520603 
  460000    1.0998824   -4.9391493   -4.9391493   -3.6364553   0.12532917   -4.9391493     1.302694   520603 
  461000    1.1004912   -4.9408858   -4.9408858   -3.6374708   0.12057485   -4.9408858     1.303415   520603 
  462000    1.0994429   -4.9407621   -4.9407621   -3.6385886   0.13359091   -4.9407621    1.3021735   520603 
  463000    1.0994787   -4.9418151   -4.9418151   -3.6395992   0.12694012   -4.9418151    1.3022158   520603 
  464000    1.0980548   -4.9401741   -4.9401741   -3.6396448   0.12178595   -4.9401741    1.3005293   520603 
  465000    1.1004216   -4.9430536   -4.9430536    -3.639721   0.13317424   -4.9430536    1.3033326   520603 
  466000    1.0995891   -4.9431328   -4.9431328   -3.6407863  0.098285242   -4.9431328    1.3023465   520603 
  467000    1.0984405   -4.9431396   -4.9431396   -3.6421534   0.11684804   -4.9431396    1.3009862   520603 
  468000    1.0978051   -4.9437658   -4.9437658   -3.6435322   0.11730923   -4.9437658    1.3002336   520603 
  469000    1.0999675   -4.9463654   -4.9463654   -3.6435707   0.11752441   -4.9463654    1.3027947   520603 
  470000    1.0985285   -4.9450584   -4.9450584   -3.6439681   0.12383556   -4.9450584    1.3010904   520603 
  471000    1.0993842   -4.9460795   -4.9460795   -3.6439756   0.11243393   -4.9460795    1.3021039   520603 
  472000    1.0975496     -4.94467     -4.94467    -3.644739   0.10229146     -4.94467     1.299931   520603 
  473000    1.0981785   -4.9457834   -4.9457834   -3.6451076   0.14325913   -4.9457834    1.3006759   520603 
  474000    1.0977632   -4.9464707   -4.9464707   -3.6462866  0.096675748   -4.9464707     1.300184   520603 
  475000    1.0987709   -4.9470662   -4.9470662   -3.6456886   0.15048325   -4.9470662    1.3013776   520603 
  476000    1.0982418    -4.947271    -4.947271   -3.6465201   0.11141558    -4.947271    1.3007509   520603 
  477000    1.0991572   -4.9492638   -4.9492638   -3.6474288   0.12004077   -4.9492638     1.301835   520603 
  478000     1.098864   -4.9492521   -4.9492521   -3.6477643   0.10071635   -4.9492521    1.3014878   520603 
  479000    1.0985146   -4.9497273   -4.9497273   -3.6486533   0.12328243   -4.9497273    1.3010739   520603 
  480000    1.0974475   -4.9484725   -4.9484725   -3.6486624   0.12592375   -4.9484725    1.2998101   520603 
  481000    1.0967949   -4.9480968   -4.9480968   -3.6490597   0.12661273   -4.9480968    1.2990372   520603 
  482000    1.0981301   -4.9500972   -4.9500972   -3.6494787   0.11824569   -4.9500972    1.3006185   520603 
  483000     1.096703    -4.949632    -4.949632   -3.6507037   0.10886202    -4.949632    1.2989283   520603 
  484000     1.096483   -4.9490433   -4.9490433   -3.6503756   0.10405054   -4.9490433    1.2986677   520603 
  485000    1.0980847   -4.9514053   -4.9514053   -3.6508406   0.11362025   -4.9514053    1.3005647   520603 
  486000    1.0984211   -4.9530022   -4.9530022   -3.6520391   0.11067781   -4.9530022    1.3009632   520603 
  487000    1.0951893   -4.9494196   -4.9494196   -3.6522842   0.13746694   -4.9494196    1.2971355   520603 
  488000     1.096566   -4.9521654   -4.9521654   -3.6533993   0.12983246   -4.9521654    1.2987661   520603 
  489000    1.0957227   -4.9506285   -4.9506285   -3.6528613   0.11285274   -4.9506285    1.2977672   520603 
  490000    1.0962135   -4.9519897   -4.9519897   -3.6536412   0.12902244   -4.9519897    1.2983485   520603 
  491000    1.0966637   -4.9529941   -4.9529941   -3.6541123   0.10127768   -4.9529941    1.2988818   520603 
  492000    1.0960721   -4.9533659   -4.9533659   -3.6551849   0.11431771   -4.9533659     1.298181   520603 
  493000    1.0943451   -4.9522914   -4.9522914   -3.6561557   0.11696453   -4.9522914    1.2961357   520603 
  494000    1.0954839   -4.9543192   -4.9543192   -3.6568349   0.11294815   -4.9543192    1.2974844   520603 
  495000    1.0948248   -4.9535594   -4.9535594   -3.6568557   0.11412552   -4.9535594    1.2967037   520603 
  496000    1.0968103   -4.9570958   -4.9570958   -3.6580405   0.12953484   -4.9570958    1.2990553   520603 
  497000    1.0963131   -4.9570036   -4.9570036   -3.6585371   0.12394263   -4.9570036    1.2984665   520603 
  498000    1.0962944   -4.9566332   -4.9566332   -3.6581888   0.13284864   -4.9566332    1.2984444   520603 
  499000    1.0954658   -4.9561299   -4.9561299    -3.658667   0.14317221   -4.9561299    1.2974629   520603 
  500000    1.0944572   -4.9553512   -4.9553512   -3.6590829   0.12351909   -4.9553512    1.2962684   520603 
  501000    1.0954812   -4.9578378   -4.9578378   -3.6603566   0.11724594   -4.9578378    1.2974812   520603 
  502000    1.0941923   -4.9563305   -4.9563305   -3.6603758   0.12088952   -4.9563305    1.2959547   520603 
  503000    1.0944421   -4.9580625   -4.9580625    -3.661812   0.12143654   -4.9580625    1.2962505   520603 
  504000    1.0939092   -4.9586967   -4.9586967   -3.6630774   0.11763318   -4.9586967    1.2956194   520603 
  505000    1.0934661   -4.9595203   -4.9595203   -3.6644257   0.11486307   -4.9595203    1.2950946   520603 
  506000    1.0933405   -4.9585137   -4.9585137   -3.6635679    0.1208637   -4.9585137    1.2949458   520603 
  507000      1.09481   -4.9612155   -4.9612155   -3.6645293   0.12730382   -4.9612155    1.2966863   520603 
  508000    1.0951372   -4.9620095   -4.9620095   -3.6649358   0.12001455   -4.9620095    1.2970737   520603 
  509000      1.09138   -4.9593047   -4.9593047    -3.666681   0.13078925   -4.9593047    1.2926238   520603 
  510000    1.0921085   -4.9608861   -4.9608861   -3.6673995   0.11690031   -4.9608861    1.2934866   520603 
  511000    1.0912322   -4.9602033   -4.9602033   -3.6677545   0.11440603   -4.9602033    1.2924488   520603 
  512000    1.0927708    -4.963127    -4.963127    -3.668856   0.11402473    -4.963127     1.294271   520603 
  513000    1.0920447    -4.963633    -4.963633   -3.6702219   0.11447455    -4.963633    1.2934111   520603 
  514000     1.093709   -4.9657138   -4.9657138   -3.6703316   0.12706683   -4.9657138    1.2953822   520603 
  515000     1.092763   -4.9648764   -4.9648764   -3.6706145   0.13421914   -4.9648764    1.2942619   520603 
  516000     1.094816   -4.9676229   -4.9676229   -3.6709295   0.13608817   -4.9676229    1.2966934   520603 
  517000      1.09271   -4.9649659   -4.9649659   -3.6707669   0.11662046   -4.9649659     1.294199   520603 
  518000    1.0930407   -4.9657452   -4.9657452   -3.6711545    0.1097592   -4.9657452    1.2945907   520603 
  519000    1.0932148   -4.9664197   -4.9664197   -3.6716228   0.10483257   -4.9664197    1.2947969   520603 
  520000    1.0927703   -4.9657426   -4.9657426   -3.6714722   0.11187691   -4.9657426    1.2942704   520603 
  521000    1.0923424   -4.9666104   -4.9666104   -3.6728467   0.12034064   -4.9666104    1.2937637   520603 
  522000    1.0908733   -4.9659662   -4.9659662   -3.6739425    0.1203616   -4.9659662    1.2920236   520603 
  523000    1.0920263   -4.9691865   -4.9691865   -3.6757973   0.12568931   -4.9691865    1.2933892   520603 
  524000    1.0893466   -4.9670468   -4.9670468   -3.6768314   0.13376043   -4.9670468    1.2902154   520603 
  525000    1.0914295   -4.9701129   -4.9701129   -3.6774305   0.12346914   -4.9701129    1.2926824   520603 
  526000    1.0902078   -4.9700883   -4.9700883   -3.6788529   0.11439982   -4.9700883    1.2912354   520603 
  527000    1.0902592   -4.9708216   -4.9708216   -3.6795253   0.10755159   -4.9708216    1.2912963   520603 
  528000    1.0893259   -4.9707579   -4.9707579   -3.6805671  0.093090298   -4.9707579    1.2901909   520603 
  529000    1.0889578   -4.9701909   -4.9701909    -3.680436   0.10663329   -4.9701909    1.2897549   520603 
  530000    1.0894041   -4.9708564   -4.9708564   -3.6805729    0.1072865   -4.9708564    1.2902835   520603 
  531000    1.0886106   -4.9708225   -4.9708225   -3.6814788   0.12306445   -4.9708225    1.2893437   520603 
  532000    1.0892585   -4.9725225   -4.9725225   -3.6824114   0.10703736   -4.9725225    1.2901111   520603 
  533000    1.0896588   -4.9726013   -4.9726013    -3.682016   0.11371484   -4.9726013    1.2905852   520603 
  534000    1.0867065   -4.9706241   -4.9706241   -3.6835356   0.12530263   -4.9706241    1.2870886   520603 
  535000     1.091176   -4.9763243   -4.9763243   -3.6839422   0.12217384   -4.9763243    1.2923821   520603 
  536000    1.0875369   -4.9724968   -4.9724968   -3.6844247   0.11528667   -4.9724968     1.288072   520603 
  537000    1.0874368   -4.9732083   -4.9732083   -3.6852548   0.12043467   -4.9732083    1.2879534   520603 
  538000    1.0879482   -4.9749261   -4.9749261    -3.686367   0.10580393   -4.9749261    1.2885591   520603 
  539000    1.0880349   -4.9754946   -4.9754946   -3.6868328    0.1121499   -4.9754946    1.2886618   520603 
  540000    1.0874795   -4.9754267   -4.9754267   -3.6874226   0.13438983   -4.9754267     1.288004   520603 
  541000    1.0880876   -4.9758895   -4.9758895   -3.6871653  0.099532145   -4.9758895    1.2887242   520603 
  542000    1.0899576   -4.9782225   -4.9782225   -3.6872834   0.10459296   -4.9782225    1.2909391   520603 
  543000    1.0864644   -4.9750665   -4.9750665   -3.6882647   0.12583677   -4.9750665    1.2868018   520603 
  544000    1.0890917   -4.9785785   -4.9785785    -3.688665    0.1272746   -4.9785785    1.2899135   520603 
  545000    1.0876279   -4.9769333   -4.9769333   -3.6887536    0.1234704   -4.9769333    1.2881798   520603 
  546000    1.0878394   -4.9778619   -4.9778619   -3.6894316   0.12536966   -4.9778619    1.2884303   520603 
  547000    1.0873791   -4.9772356   -4.9772356   -3.6893505   0.10393449   -4.9772356    1.2878851   520603 
  548000    1.0858554   -4.9769648   -4.9769648   -3.6908843   0.12461089   -4.9769648    1.2860805   520603 
  549000    1.0858652   -4.9766861   -4.9766861    -3.690594    0.1290587   -4.9766861    1.2860921   520603 
  550000    1.0863464   -4.9784719   -4.9784719   -3.6918098   0.10881831   -4.9784719     1.286662   520603 
  551000    1.0874656   -4.9807756   -4.9807756   -3.6927879   0.10634056   -4.9807756    1.2879876   520603 
  552000    1.0866907   -4.9797749   -4.9797749   -3.6927051   0.11427863   -4.9797749    1.2870698   520603 
  553000    1.0864388   -4.9805845   -4.9805845    -3.693813   0.10294785   -4.9805845    1.2867715   520603 
  554000    1.0855207   -4.9799935   -4.9799935   -3.6943095    0.1172599   -4.9799935     1.285684   520603 
  555000    1.0860675   -4.9809871   -4.9809871   -3.6946554   0.11539563   -4.9809871    1.2863317   520603 
  556000    1.0848049   -4.9804082   -4.9804082   -3.6955719   0.11963916   -4.9804082    1.2848363   520603 
  557000     1.087459   -4.9841095   -4.9841095   -3.6961297   0.12563338   -4.9841095    1.2879798   520603 
  558000    1.0859022   -4.9828539   -4.9828539    -3.696718    0.1093156   -4.9828539    1.2861359   520603 
  559000    1.0833503   -4.9802773   -4.9802773   -3.6971638   0.13505069   -4.9802773    1.2831135   520603 
  560000    1.0835354   -4.9806818   -4.9806818    -3.697349   0.12711277   -4.9806818    1.2833327   520603 
  561000    1.0819877   -4.9787574   -4.9787574   -3.6972579   0.12299972   -4.9787574    1.2814996   520603 
  562000    1.0860906   -4.9838671   -4.9838671   -3.6975081   0.11551366   -4.9838671    1.2863591   520603 
  563000    1.0863709   -4.9850313   -4.9850313   -3.6983402   0.12025261   -4.9850313    1.2866911   520603 
  564000    1.0838237   -4.9831643   -4.9831643   -3.6994902   0.13268897   -4.9831643    1.2836741   520603 
  565000    1.0813677   -4.9812219   -4.9812219   -3.7004566  0.097470018   -4.9812219    1.2807653   520603 
  566000    1.0830852   -4.9836586   -4.9836586   -3.7008592   0.10548514   -4.9836586    1.2827995   520603 
  567000    1.0834617   -4.9849311   -4.9849311   -3.7016856   0.10863978   -4.9849311    1.2832454   520603 
  568000    1.0846177    -4.986567    -4.986567   -3.7019524   0.11760523    -4.986567    1.2846146   520603 
  569000    1.0847262   -4.9868913   -4.9868913   -3.7021482   0.11723684   -4.9868913    1.2847431   520603 
  570000    1.0835224   -4.9857588   -4.9857588   -3.7024415  0.097283561   -4.9857588    1.2833173   520603 
  571000     1.081754   -4.9838041   -4.9838041   -3.7025813    0.1315533   -4.9838041    1.2812227   520603 
  572000    1.0826847   -4.9860251   -4.9860251      -3.7037   0.10672117   -4.9860251    1.2823251   520603 
  573000    1.0832029    -4.986612    -4.986612   -3.7036731   0.11333839    -4.986612    1.2829389   520603 
  574000    1.0817903   -4.9856494   -4.9856494   -3.7043836   0.12919537   -4.9856494    1.2812658   520603 
  575000    1.0827335   -4.9875217   -4.9875217   -3.7051388   0.11912465   -4.9875217    1.2823829   520603 
  576000    1.0833687    -4.988755    -4.988755   -3.7056198   0.12831912    -4.988755    1.2831352   520603 
  577000    1.0812858   -4.9867863   -4.9867863   -3.7061179   0.11833927   -4.9867863    1.2806683   520603 
  578000    1.0816194   -4.9871879   -4.9871879   -3.7061246   0.12202748   -4.9871879    1.2810633   520603 
  579000     1.080619   -4.9870275   -4.9870275   -3.7071491  0.094614946   -4.9870275    1.2798785   520603 
  580000    1.0812347   -4.9875943   -4.9875943   -3.7069866  0.098161746   -4.9875943    1.2806077   520603 
  581000    1.0829878   -4.9897989   -4.9897989   -3.7071149   0.12785439   -4.9897989     1.282684   520603 
  582000    1.0831237   -4.9909662   -4.9909662   -3.7081211   0.10423947   -4.9909662    1.2828451   520603 
  583000    1.0832695   -4.9919959   -4.9919959   -3.7089782    0.1250756   -4.9919959    1.2830178   520603 
  584000     1.082474   -4.9920991   -4.9920991   -3.7100235   0.11289325   -4.9920991    1.2820756   520603 
  585000    1.0813711   -4.9902901   -4.9902901   -3.7095207   0.13089258   -4.9902901    1.2807694   520603 
  586000    1.0802621   -4.9912904   -4.9912904   -3.7118345  0.096086367   -4.9912904    1.2794558   520603 
  587000    1.0795061    -4.989852    -4.989852   -3.7112916   0.13819256    -4.989852    1.2785604   520603 
  588000    1.0816913   -4.9928472   -4.9928472   -3.7116987   0.12599516   -4.9928472    1.2811485   520603 
  589000    1.0810623   -4.9933613   -4.9933613   -3.7129578   0.10312405   -4.9933613    1.2804035   520603 
  590000    1.0787816   -4.9905719   -4.9905719   -3.7128696  0.097108283   -4.9905719    1.2777023   520603 
  591000    1.0791291    -4.991155    -4.991155   -3.7130411   0.10896463    -4.991155    1.2781138   520603 
  592000    1.0794063   -4.9917076   -4.9917076   -3.7132654  0.095887565   -4.9917076    1.2784423   520603 
  593000     1.081484   -4.9939309   -4.9939309   -3.7130279   0.10991836   -4.9939309     1.280903   520603 
  594000    1.0819298   -4.9962981   -4.9962981   -3.7148671  0.093590951   -4.9962981     1.281431   520603 
  595000    1.0807768   -4.9946292   -4.9946292   -3.7145637   0.11182858   -4.9946292    1.2800655   520603 
  596000     1.081655   -4.9973252   -4.9973252   -3.7162197   0.10913419   -4.9973252    1.2811055   520603 
  597000     1.080069   -4.9951462   -4.9951462   -3.7159191   0.10405212   -4.9951462    1.2792271   520603 
  598000    1.0780875   -4.9935363   -4.9935363   -3.7166562    0.1248118   -4.9935363    1.2768802   520603 
  599000    1.0790517   -4.9954124   -4.9954124   -3.7173902   0.11056004   -4.9954124    1.2780222   520603 
  600000    1.0788897   -4.9963739   -4.9963739   -3.7185436  0.095030207   -4.9963739    1.2778303   520603 
  601000    1.0786362   -4.9957248   -4.9957248   -3.7181947   0.10160251   -4.9957248    1.2775302   520603 
  602000    1.0788098   -4.9960457   -4.9960457     -3.71831   0.11356682   -4.9960457    1.2777357   520603 
  603000    1.0789663   -4.9960003   -4.9960003   -3.7180793   0.10559634   -4.9960003     1.277921   520603 
  604000    1.0786649   -4.9970431   -4.9970431    -3.719479   0.11716958   -4.9970431    1.2775641   520603 
  605000    1.0773054   -4.9965618   -4.9965618    -3.720608    0.1152627   -4.9965618    1.2759539   520603 
  606000    1.0775386   -4.9974485   -4.9974485   -3.7212184   0.11298392   -4.9974485    1.2762301   520603 
  607000    1.0779333   -4.9984644   -4.9984644   -3.7217668   0.11120466   -4.9984644    1.2766975   520603 
  608000    1.0763353   -4.9971942   -4.9971942   -3.7223893   0.11157775   -4.9971942    1.2748049   520603 
  609000    1.0784546   -5.0007022   -5.0007022   -3.7233872   0.12030369   -5.0007022    1.2773151   520603 
  610000    1.0752462   -4.9980126   -4.9980126   -3.7244976  0.099482509   -4.9980126     1.273515   520603 
  611000    1.0761134   -4.9988674   -4.9988674   -3.7243253    0.1219256   -4.9988674    1.2745421   520603 
  612000     1.077777     -5.00136     -5.00136   -3.7248475   0.13062723     -5.00136    1.2765125   520603 
  613000    1.0774423   -5.0019775   -5.0019775   -3.7258614  0.096054831   -5.0019775     1.276116   520603 
  614000    1.0781759   -5.0025596   -5.0025596   -3.7255747   0.09723226   -5.0025596    1.2769849   520603 
  615000    1.0793444    -5.003474    -5.003474   -3.7251052   0.11296957    -5.003474    1.2783688   520603 
  616000    1.0780938    -5.002268    -5.002268   -3.7253803   0.11240492    -5.002268    1.2768877   520603 
  617000    1.0770787   -5.0014506   -5.0014506   -3.7257653   0.12238364   -5.0014506    1.2756854   520603 
  618000    1.0776197   -5.0022953   -5.0022953   -3.7259691   0.10983903   -5.0022953    1.2763262   520603 
  619000    1.0757763   -5.0014175   -5.0014175   -3.7272746    0.1126564   -5.0014175    1.2741428   520603 
  620000    1.0779518   -5.0041923   -5.0041923   -3.7274728   0.10926895   -5.0041923    1.2767195   520603 
  621000      1.07645   -5.0031583   -5.0031583   -3.7282175   0.10714916   -5.0031583    1.2749408   520603 
  622000    1.0769683     -5.00359     -5.00359   -3.7280354   0.10916253     -5.00359    1.2755546   520603 
  623000    1.0765711   -5.0023864   -5.0023864   -3.7273022   0.12903966   -5.0023864    1.2750842   520603 
  624000    1.0768401   -5.0043637   -5.0043637   -3.7289609   0.10064783   -5.0043637    1.2754028   520603 
  625000    1.0761865   -5.0039379   -5.0039379   -3.7293093    0.1137947   -5.0039379    1.2746287   520603 
  626000    1.0752217   -5.0036738   -5.0036738   -3.7301879   0.10955937   -5.0036738    1.2734859   520603 
  627000     1.076516    -5.006083    -5.006083    -3.731064   0.09795606    -5.006083     1.275019   520603 
  628000    1.0766823     -5.00754     -5.00754   -3.7323241   0.10695107     -5.00754    1.2752159   520603 
  629000    1.0724251   -5.0025587   -5.0025587   -3.7323851   0.12383658   -5.0025587    1.2701737   520603 
  630000    1.0760425   -5.0069341   -5.0069341    -3.732476  0.097438022   -5.0069341    1.2744581   520603 
  631000    1.0755011   -5.0065636   -5.0065636   -3.7327467   0.10157622   -5.0065636    1.2738169   520603 
  632000     1.074256   -5.0051686   -5.0051686   -3.7328264   0.11291004   -5.0051686    1.2723422   520603 
  633000    1.0754223   -5.0067354   -5.0067354   -3.7330118   0.12340876   -5.0067354    1.2737236   520603 
  634000    1.0729079   -5.0058908   -5.0058908   -3.7351453   0.10904072   -5.0058908    1.2707456   520603 
  635000    1.0739268   -5.0077452   -5.0077452   -3.7357929  0.091513453   -5.0077452    1.2719523   520603 
  636000    1.0745802   -5.0080078   -5.0080078   -3.7352816  0.070601961   -5.0080078    1.2727262   520603 
  637000    1.0726465    -5.006628    -5.006628   -3.7361921   0.11514751    -5.006628    1.2704359   520603 
  638000    1.0754889   -5.0099192   -5.0099192   -3.7361168  0.097187662   -5.0099192    1.2738024   520603 
  639000    1.0747672   -5.0089912   -5.0089912   -3.7360435   0.11397967   -5.0089912    1.2729477   520603 
  640000    1.0753044    -5.010397    -5.010397   -3.7368131   0.10593941    -5.010397    1.2735839   520603 
  641000    1.0738468   -5.0089902   -5.0089902   -3.7371326   0.10545078   -5.0089902    1.2718576   520603 
  642000    1.0739367   -5.0106755   -5.0106755   -3.7387115   0.12099159   -5.0106755     1.271964   520603 
  643000    1.0736357   -5.0106462   -5.0106462   -3.7390386   0.11839021   -5.0106462    1.2716075   520603 
  644000    1.0747804   -5.0116756   -5.0116756   -3.7387124   0.10056131   -5.0116756    1.2729633   520603 
  645000    1.0750158   -5.0123227   -5.0123227   -3.7390806   0.11413446   -5.0123227    1.2732421   520603 
  646000    1.0744147   -5.0127348   -5.0127348   -3.7402046   0.10752765   -5.0127348    1.2725302   520603 
  647000    1.0741605   -5.0120661   -5.0120661   -3.7398369   0.11068812   -5.0120661    1.2722292   520603 
  648000    1.0735129   -5.0113208   -5.0113208   -3.7398587   0.12133306   -5.0113208    1.2714621   520603 
  649000    1.0746765   -5.0122856   -5.0122856   -3.7394453   0.11684905   -5.0122856    1.2728403   520603 
  650000    1.0735458   -5.0117813   -5.0117813   -3.7402802   0.10671735   -5.0117813    1.2715011   520603 
  651000    1.0733748   -5.0129382   -5.0129382   -3.7416397   0.10144573   -5.0129382    1.2712985   520603 
  652000    1.0718739   -5.0119198   -5.0119198    -3.742399  0.092485403   -5.0119198    1.2695208   520603 
  653000    1.0737234    -5.014239    -5.014239   -3.7425276    0.1203231    -5.014239    1.2717114   520603 
  654000    1.0728068   -5.0122992   -5.0122992   -3.7416734  0.094586262   -5.0122992    1.2706258   520603 
  655000    1.0745965   -5.0155236   -5.0155236    -3.742778  0.092325856   -5.0155236    1.2727455   520603 
  656000    1.0728405   -5.0136201   -5.0136201   -3.7429545  0.082329534   -5.0136201    1.2706657   520603 
  657000    1.0711475   -5.0115635   -5.0115635   -3.7429031   0.11931329   -5.0115635    1.2686605   520603 
  658000    1.0730668   -5.0146192   -5.0146192   -3.7436855   0.11592631   -5.0146192    1.2709337   520603 
  659000    1.0725864   -5.0149914   -5.0149914   -3.7446266  0.090469025   -5.0149914    1.2703648   520603 
  660000     1.073105   -5.0158448   -5.0158448   -3.7448658  0.090410582   -5.0158448     1.270979   520603 
  661000    1.0712807   -5.0143266   -5.0143266   -3.7455083   0.10043773   -5.0143266    1.2688183   520603 
  662000    1.0710582   -5.0154084   -5.0154084   -3.7468536   0.10992607   -5.0154084    1.2685548   520603 
  663000    1.0727067   -5.0181452   -5.0181452    -3.747638  0.097692154   -5.0181452    1.2705072   520603 
  664000     1.073092   -5.0189999   -5.0189999   -3.7480363   0.12231077   -5.0189999    1.2709636   520603 
  665000    1.0709607   -5.0169981   -5.0169981   -3.7485589  0.093875822   -5.0169981    1.2684392   520603 
  666000    1.0720539   -5.0187857   -5.0187857   -3.7490516   0.10330511   -5.0187857    1.2697341   520603 
  667000    1.0708207   -5.0164367   -5.0164367   -3.7481632   0.10414727   -5.0164367    1.2682735   520603 
  668000     1.070759   -5.0175427   -5.0175427   -3.7493422   0.10054622   -5.0175427    1.2682004   520603 
  669000    1.0717037   -5.0181337   -5.0181337   -3.7488145  0.093724476   -5.0181337    1.2693192   520603 
  670000    1.0718531   -5.0181715   -5.0181715   -3.7486752   0.12418342   -5.0181715    1.2694962   520603 
  671000     1.072512   -5.0189623   -5.0189623   -3.7486857  0.091743354   -5.0189623    1.2702766   520603 
  672000      1.06918   -5.0155455   -5.0155455   -3.7492152  0.099359977   -5.0155455    1.2663303   520603 
  673000    1.0699725    -5.015935    -5.015935   -3.7486662  0.099991028    -5.015935    1.2672689   520603 
  674000    1.0715113   -5.0188267   -5.0188267   -3.7497353  0.099212042   -5.0188267    1.2690914   520603 
  675000     1.070166   -5.0184659   -5.0184659   -3.7509679   0.10424963   -5.0184659     1.267498   520603 
  676000    1.0706826   -5.0186226   -5.0186226   -3.7505127    0.1302497   -5.0186226    1.2681099   520603 
  677000    1.0690336   -5.0184002   -5.0184002   -3.7522433   0.10192621   -5.0184002    1.2661569   520603 
  678000    1.0701786   -5.0207416   -5.0207416   -3.7532286  0.089621253   -5.0207416    1.2675129   520603 
  679000    1.0712732   -5.0224409   -5.0224409   -3.7536316  0.090172876   -5.0224409    1.2688094   520603 
  680000    1.0697317   -5.0199588   -5.0199588   -3.7529752   0.10572366   -5.0199588    1.2669836   520603 
  681000    1.0705146   -5.0219855   -5.0219855   -3.7540746   0.10047494   -5.0219855    1.2679109   520603 
  682000    1.0689998   -5.0198898   -5.0198898    -3.753773   0.10456343   -5.0198898    1.2661168   520603 
  683000    1.0697458    -5.020783    -5.020783   -3.7537827   0.11125479    -5.020783    1.2670004   520603 
  684000    1.0668676   -5.0187831   -5.0187831   -3.7551917   0.10795798   -5.0187831    1.2635914   520603 
  685000    1.0700155   -5.0218578   -5.0218578    -3.754538  0.095783182   -5.0218578    1.2673198   520603 
  686000    1.0693992   -5.0208961   -5.0208961   -3.7543062  0.099927755   -5.0208961    1.2665899   520603 
  687000    1.0700838   -5.0219547   -5.0219547    -3.754554  0.092169228   -5.0219547    1.2674007   520603 
  688000    1.0708013   -5.0238639   -5.0238639   -3.7556135   0.10585439   -5.0238639    1.2682504   520603 
  689000    1.0692305   -5.0228633   -5.0228633   -3.7564732   0.10368831   -5.0228633    1.2663901   520603 
  690000     1.071945   -5.0266308   -5.0266308   -3.7570258   0.10492667   -5.0266308     1.269605   520603 
  691000    1.0691532   -5.0237628   -5.0237628   -3.7574643  0.089239931   -5.0237628    1.2662984   520603 
  692000    1.0706012   -5.0257909   -5.0257909   -3.7577774   0.12015385   -5.0257909    1.2680135   520603 
  693000    1.0701778   -5.0252622   -5.0252622   -3.7577501   0.10120447   -5.0252622    1.2675121   520603 
  694000    1.0701374   -5.0260556   -5.0260556   -3.7585914   0.11822796   -5.0260556    1.2674642   520603 
  695000    1.0697643    -5.025653    -5.025653   -3.7586307   0.10773482    -5.025653    1.2670223   520603 
  696000    1.0703846   -5.0262709   -5.0262709   -3.7585139   0.10926706   -5.0262709     1.267757   520603 
  697000    1.0699716   -5.0263613   -5.0263613   -3.7590936   0.10282818   -5.0263613    1.2672678   520603 
  698000    1.0672457   -5.0243513   -5.0243513    -3.760312   0.10348858   -5.0243513    1.2640393   520603 
  699000    1.0689243   -5.0250285   -5.0250285   -3.7590012   0.10889589   -5.0250285    1.2660274   520603 
  700000    1.0702222   -5.0266113   -5.0266113   -3.7590467   0.11034851   -5.0266113    1.2675646   520603 
  701000    1.0702066     -5.02798     -5.02798   -3.7604339   0.10162103     -5.02798    1.2675461   520603 
  702000    1.0685309   -5.0261494   -5.0261494    -3.760588   0.11026376   -5.0261494    1.2655614   520603 
  703000    1.0679635   -5.0259873   -5.0259873   -3.7610979  0.091516266   -5.0259873    1.2648894   520603 
  704000    1.0693771   -5.0282282   -5.0282282   -3.7616645   0.10296965   -5.0282282    1.2665637   520603 
  705000    1.0666543   -5.0253973   -5.0253973   -3.7620584    0.1200073   -5.0253973    1.2633389   520603 
  706000    1.0683754   -5.0272749   -5.0272749   -3.7618976  0.098956478   -5.0272749    1.2653773   520603 
  707000    1.0665012   -5.0259159   -5.0259159   -3.7627584  0.095310708   -5.0259159    1.2631574   520603 
  708000    1.0675853   -5.0281568   -5.0281568   -3.7637154   0.11352848   -5.0281568    1.2644414   520603 
  709000    1.0693323   -5.0302889   -5.0302889   -3.7637784  0.076694296   -5.0302889    1.2665106   520603 
  710000    1.0666405   -5.0274081   -5.0274081   -3.7640857   0.11586025   -5.0274081    1.2633224   520603 
  711000    1.0691529   -5.0310898   -5.0310898   -3.7647917  0.080553346   -5.0310898    1.2662981   520603 
  712000    1.0650147   -5.0256233   -5.0256233   -3.7642264  0.083173443   -5.0256233    1.2613969   520603 
  713000    1.0664713   -5.0276941   -5.0276941   -3.7645721  0.098412889   -5.0276941     1.263122   520603 
  714000    1.0669624   -5.0284216   -5.0284216   -3.7647179  0.097365311   -5.0284216    1.2637037   520603 
  715000    1.0669889   -5.0284692   -5.0284692   -3.7647341   0.12223906   -5.0284692    1.2637351   520603 
  716000    1.0658149   -5.0277523   -5.0277523   -3.7654076   0.10712716   -5.0277523    1.2623447   520603 
  717000     1.065318   -5.0281494   -5.0281494   -3.7663934  0.085743805   -5.0281494    1.2617561   520603 
  718000    1.0664655   -5.0293592   -5.0293592    -3.766244    0.1030024   -5.0293592    1.2631152   520603 
  719000      1.06706   -5.0308203   -5.0308203    -3.767001   0.10303485   -5.0308203    1.2638193   520603 
  720000    1.0666256   -5.0309334   -5.0309334   -3.7676286  0.079347565   -5.0309334    1.2633048   520603 
  721000    1.0661126   -5.0306593   -5.0306593   -3.7679621  0.089717642   -5.0306593    1.2626973   520603 
  722000    1.0658037   -5.0298421   -5.0298421   -3.7675108   0.10518371   -5.0298421    1.2623314   520603 
  723000     1.065425   -5.0295452   -5.0295452   -3.7676624   0.07591411   -5.0295452    1.2618828   520603 
  724000    1.0644004   -5.0281142   -5.0281142   -3.7674448  0.087773476   -5.0281142    1.2606694   520603 
  725000    1.0669134   -5.0315407   -5.0315407   -3.7678951   0.11489917   -5.0315407    1.2636456   520603 
  726000    1.0643085   -5.0299081   -5.0299081   -3.7693476   0.10629305   -5.0299081    1.2605605   520603 
  727000     1.065996   -5.0316731   -5.0316731    -3.769114  0.097022135   -5.0316731    1.2625591   520603 
  728000    1.0640304   -5.0290638   -5.0290638   -3.7688327  0.084098689   -5.0290638    1.2602311   520603 
  729000    1.0660222   -5.0312375   -5.0312375   -3.7686474  0.083907311   -5.0312375    1.2625901   520603 
  730000    1.0651394   -5.0297115   -5.0297115   -3.7681669   0.10117749   -5.0297115    1.2615446   520603 
  731000    1.0659446   -5.0304904   -5.0304904   -3.7679921   0.12020225   -5.0304904    1.2624983   520603 
  732000    1.0663327   -5.0317104   -5.0317104   -3.7687525  0.094202328   -5.0317104    1.2629579   520603 
  733000    1.0672466   -5.0326388   -5.0326388   -3.7685985  0.098976576   -5.0326388    1.2640403   520603 
  734000    1.0634453   -5.0285607   -5.0285607   -3.7690226  0.092601105   -5.0285607    1.2595381   520603 
  735000    1.0652226   -5.0315605   -5.0315605   -3.7699174  0.099715082   -5.0315605    1.2616431   520603 
  736000     1.066046    -5.033217    -5.033217   -3.7705986  0.080843613    -5.033217    1.2626184   520603 
  737000    1.0660933   -5.0330023   -5.0330023    -3.770328   0.11589334   -5.0330023    1.2626743   520603 
  738000    1.0664957   -5.0339047   -5.0339047   -3.7707538   0.10594977   -5.0339047    1.2631509   520603 
  739000    1.0672038   -5.0350289   -5.0350289   -3.7710392   0.11094943   -5.0350289    1.2639896   520603 
  740000    1.0664109   -5.0341547   -5.0341547   -3.7711042   0.10084163   -5.0341547    1.2630505   520603 
  741000    1.0664621   -5.0348346   -5.0348346   -3.7717234  0.094970761   -5.0348346    1.2631112   520603 
  742000    1.0645664    -5.032292    -5.032292   -3.7714261  0.091662447    -5.032292    1.2608659   520603 
  743000    1.0660453   -5.0339386   -5.0339386   -3.7713211   0.11027513   -5.0339386    1.2626175   520603 
  744000    1.0642579   -5.0327682   -5.0327682   -3.7722677   0.12302197   -5.0327682    1.2605005   520603 
  745000    1.0644642   -5.0329684   -5.0329684   -3.7722235   0.08682208   -5.0329684    1.2607448   520603 
  746000    1.0637958   -5.0327686   -5.0327686   -3.7728153  0.088427265   -5.0327686    1.2599533   520603 
  747000    1.0638529   -5.0331797   -5.0331797   -3.7731588  0.098371985   -5.0331797    1.2600209   520603 
  748000    1.0637389   -5.0328648   -5.0328648    -3.772979  0.071434878   -5.0328648    1.2598858   520603 
  749000    1.0647741     -5.03307     -5.03307   -3.7719581   0.10163173     -5.03307    1.2611119   520603 
  750000    1.0647872   -5.0333432   -5.0333432   -3.7722157   0.09652226   -5.0333432    1.2611274   520603 
  751000    1.0669598   -5.0359077   -5.0359077    -3.772207  0.084278317   -5.0359077    1.2637006   520603 
  752000    1.0653688   -5.0341275   -5.0341275   -3.7723112  0.073430468   -5.0341275    1.2618162   520603 
  753000    1.0659084   -5.0351898   -5.0351898   -3.7727344  0.096843277   -5.0351898    1.2624553   520603 
  754000    1.0630234   -5.0329528   -5.0329528   -3.7739144  0.093556644   -5.0329528    1.2590384   520603 
  755000    1.0633594   -5.0343926   -5.0343926   -3.7749563   0.09624076   -5.0343926    1.2594363   520603 
  756000    1.0645829   -5.0372665   -5.0372665    -3.776381   0.10977498   -5.0372665    1.2608854   520603 
  757000    1.0634616   -5.0365953   -5.0365953   -3.7770379   0.11198011   -5.0365953    1.2595574   520603 
  758000      1.06462    -5.036522    -5.036522   -3.7755926   0.11108074    -5.036522    1.2609294   520603 
  759000    1.0653251   -5.0379908   -5.0379908   -3.7762263  0.092160017   -5.0379908    1.2617645   520603 
  760000    1.0638844   -5.0370352   -5.0370352    -3.776977   0.11387972   -5.0370352    1.2600582   520603 
  761000    1.0633543   -5.0361194   -5.0361194   -3.7766891   0.08313975   -5.0361194    1.2594303   520603 
  762000    1.0637094   -5.0380001   -5.0380001   -3.7781492  0.097982746   -5.0380001    1.2598509   520603 
  763000    1.0639998   -5.0388432   -5.0388432   -3.7786484  0.087276087   -5.0388432    1.2601948   520603 
  764000    1.0641431   -5.0387815   -5.0387815    -3.778417   0.10564533   -5.0387815    1.2603645   520603 
  765000    1.0640122   -5.0395885   -5.0395885   -3.7793789   0.10771254   -5.0395885    1.2602096   520603 
  766000    1.0626338    -5.037689    -5.037689    -3.779112  0.092471268    -5.037689     1.258577   520603 
  767000    1.0630922   -5.0387097   -5.0387097   -3.7795898   0.10091092   -5.0387097    1.2591199   520603 
  768000    1.0611204   -5.0354521   -5.0354521   -3.7786676   0.10197558   -5.0354521    1.2567845   520603 
  769000    1.0636946   -5.0385046   -5.0385046   -3.7786712  0.089953714   -5.0385046    1.2598334   520603 
  770000    1.0626407   -5.0383818   -5.0383818   -3.7797966  0.076025654   -5.0383818    1.2585851   520603 
  771000    1.0618945   -5.0372404   -5.0372404   -3.7795391   0.10234115   -5.0372404    1.2577013   520603 
  772000    1.0636627   -5.0400283   -5.0400283   -3.7802327   0.10408575   -5.0400283    1.2597955   520603 
  773000    1.0640408   -5.0404223   -5.0404223   -3.7801788     0.102573   -5.0404223    1.2602434   520603 
  774000    1.0613625   -5.0374221   -5.0374221   -3.7803509  0.082333973   -5.0374221    1.2570713   520603 
  775000    1.0628436   -5.0392557   -5.0392557   -3.7804303   0.10689028   -5.0392557    1.2588254   520603 
  776000    1.0634444   -5.0407387   -5.0407387   -3.7812016  0.088980952   -5.0407387    1.2595371   520603 
  777000    1.0637731   -5.0412242   -5.0412242   -3.7812979   0.10284171   -5.0412242    1.2599263   520603 
  778000    1.0644709   -5.0421403   -5.0421403   -3.7813876   0.10614066   -5.0421403    1.2607528   520603 
  779000    1.0628686    -5.040684    -5.040684   -3.7818289   0.10111767    -5.040684    1.2588551   520603 
  780000    1.0621133   -5.0419482   -5.0419482   -3.7839877   0.10063779   -5.0419482    1.2579605   520603 
  781000    1.0629578   -5.0428987   -5.0428987    -3.783938   0.11813428   -5.0428987    1.2589607   520603 
  782000    1.0608899   -5.0409908   -5.0409908   -3.7844792   0.10209126   -5.0409908    1.2565115   520603 
  783000    1.0610463   -5.0416583   -5.0416583   -3.7849615  0.089430259   -5.0416583    1.2566968   520603 
  784000    1.0619687   -5.0433483   -5.0433483   -3.7855591   0.10347137   -5.0433483    1.2577892   520603 
  785000     1.061375   -5.0414806   -5.0414806   -3.7843946   0.10085956   -5.0414806    1.2570861   520603 
  786000     1.060466   -5.0408833   -5.0408833   -3.7848739   0.10368576   -5.0408833    1.2560094   520603 
  787000    1.0613218    -5.042083    -5.042083   -3.7850599    0.0834898    -5.042083     1.257023   520603 
  788000    1.0616713   -5.0421642   -5.0421642   -3.7847273  0.092862757   -5.0421642    1.2574369   520603 
  789000    1.0594831   -5.0395916   -5.0395916   -3.7847464  0.096047519   -5.0395916    1.2548452   520603 
  790000    1.0605845   -5.0417204   -5.0417204   -3.7855706   0.10293057   -5.0417204    1.2561497   520603 
  791000    1.0613746    -5.042442    -5.042442   -3.7853565  0.084824268    -5.042442    1.2570856   520603 
  792000    1.0618361   -5.0442155   -5.0442155   -3.7865833  0.091556388   -5.0442155    1.2576322   520603 
  793000    1.0617757   -5.0449512   -5.0449512   -3.7873906  0.098530769   -5.0449512    1.2575607   520603 
  794000    1.0620434   -5.0456261   -5.0456261   -3.7877484   0.09781048   -5.0456261    1.2578777   520603 
  795000    1.0600885   -5.0439898   -5.0439898   -3.7884275   0.10499138   -5.0439898    1.2555623   520603 
  796000    1.0616291   -5.0449484   -5.0449484   -3.7875614   0.09753361   -5.0449484     1.257387   520603 
  797000    1.0617261   -5.0460493   -5.0460493   -3.7885474   0.11582882   -5.0460493    1.2575019   520603 
  798000    1.0612237   -5.0450876   -5.0450876   -3.7881808  0.088928185   -5.0450876    1.2569068   520603 
  799000    1.0598956   -5.0442218   -5.0442218   -3.7888879  0.074657785   -5.0442218    1.2553338   520603 
  800000    1.0619917   -5.0464705   -5.0464705    -3.788654  0.076493505   -5.0464705    1.2578165   520603 
  801000    1.0597502   -5.0448185   -5.0448185   -3.7896569    0.1177778   -5.0448185    1.2551616   520603 
  802000    1.0604902   -5.0460387   -5.0460387   -3.7900007   0.10959597   -5.0460387    1.2560381   520603 
  803000    1.0603803   -5.0463572   -5.0463572   -3.7904492  0.093903337   -5.0463572     1.255908   520603 
  804000    1.0600002   -5.0460798   -5.0460798   -3.7906221   0.10398564   -5.0460798    1.2554577   520603 
  805000    1.0628155   -5.0495973   -5.0495973   -3.7908051   0.09216355   -5.0495973    1.2587922   520603 
  806000    1.0611064   -5.0484166   -5.0484166   -3.7916487   0.10993272   -5.0484166    1.2567679   520603 
  807000     1.058248    -5.044881    -5.044881   -3.7914985   0.11974798    -5.044881    1.2533824   520603 
  808000    1.0597956    -5.047247    -5.047247   -3.7920316   0.09136497    -5.047247    1.2552154   520603 
  809000    1.0601837   -5.0475763   -5.0475763   -3.7919012  0.091745777   -5.0475763    1.2556751   520603 
  810000    1.0580757    -5.045628    -5.045628   -3.7924496  0.084929819    -5.045628    1.2531784   520603 
  811000    1.0608251   -5.0492039   -5.0492039   -3.7927692   0.10128423   -5.0492039    1.2564347   520603 
  812000    1.0605973   -5.0484423   -5.0484423   -3.7922774  0.098905843   -5.0484423    1.2561649   520603 
  813000    1.0602768   -5.0490398   -5.0490398   -3.7932544   0.11345574   -5.0490398    1.2557853   520603 
  814000    1.0601879   -5.0494343   -5.0494343   -3.7937542  0.097105807   -5.0494343    1.2556801   520603 
  815000    1.0576424   -5.0462228   -5.0462228   -3.7935576   0.10285488   -5.0462228    1.2526652   520603 
  816000    1.0607611   -5.0500451   -5.0500451   -3.7936862   0.07865913   -5.0500451    1.2563589   520603 
  817000    1.0593933   -5.0486322   -5.0486322   -3.7938933    0.1079489   -5.0486322     1.254739   520603 
  818000    1.0611735   -5.0517115   -5.0517115   -3.7948641  0.092987623   -5.0517115    1.2568474   520603 
  819000     1.060274   -5.0508287   -5.0508287   -3.7950467  0.080295808   -5.0508287     1.255782   520603 
  820000    1.0591711   -5.0494559   -5.0494559   -3.7949801  0.081149778   -5.0494559    1.2544758   520603 
  821000    1.0601312   -5.0508305   -5.0508305   -3.7952177  0.098929723   -5.0508305    1.2556128   520603 
  822000    1.0589153   -5.0496647   -5.0496647   -3.7954919   0.10537552   -5.0496647    1.2541728   520603 
  823000    1.0599586   -5.0514368   -5.0514368   -3.7960283   0.11105523   -5.0514368    1.2554085   520603 
  824000    1.0588205    -5.049871    -5.049871   -3.7958105   0.10209144    -5.049871    1.2540605   520603 
  825000    1.0609697   -5.0530204   -5.0530204   -3.7964143  0.095642868   -5.0530204    1.2566061   520603 
  826000    1.0599088    -5.052063    -5.052063   -3.7967135   0.10989188    -5.052063    1.2553495   520603 
  827000    1.0589628   -5.0507231   -5.0507231   -3.7964941  0.095245617   -5.0507231     1.254229   520603 
  828000    1.0588954   -5.0527616   -5.0527616   -3.7986124  0.093613121   -5.0527616    1.2541492   520603 
  829000    1.0574048   -5.0506629   -5.0506629   -3.7982792   0.11240461   -5.0506629    1.2523838   520603 
  830000    1.0600023   -5.0528455   -5.0528455   -3.7973852  0.085678353   -5.0528455    1.2554603   520603 
  831000    1.0582312   -5.0508479   -5.0508479   -3.7974854   0.10615567   -5.0508479    1.2533625   520603 
  832000    1.0587429    -5.051726    -5.051726   -3.7977574   0.10259865    -5.051726    1.2539686   520603 
  833000     1.059896   -5.0534386   -5.0534386   -3.7981043  0.091335804   -5.0534386    1.2553344   520603 
  834000    1.0593458   -5.0524611   -5.0524611   -3.7977785   0.08749523   -5.0524611    1.2546826   520603 
  835000    1.0582926   -5.0526607   -5.0526607   -3.7992255  0.091924423   -5.0526607    1.2534352   520603 
  836000    1.0584939   -5.0539182   -5.0539182   -3.8002445   0.09321546   -5.0539182    1.2536737   520603 
  837000     1.057306   -5.0532028   -5.0532028    -3.800936  0.097992987   -5.0532028    1.2522668   520603 
  838000    1.0576647   -5.0552029   -5.0552029   -3.8025113  0.092610612   -5.0552029    1.2526916   520603 
  839000    1.0604217    -5.058042    -5.058042    -3.802085  0.091767995    -5.058042     1.255957   520603 
  840000    1.0575476   -5.0543476   -5.0543476   -3.8017947   0.09847127   -5.0543476    1.2525529   520603 
  841000    1.0577017   -5.0543626   -5.0543626   -3.8016272  0.094070105   -5.0543626    1.2527354   520603 
  842000    1.0588123   -5.0563225   -5.0563225   -3.8022718  0.099524948   -5.0563225    1.2540507   520603 
  843000    1.0563848   -5.0540331   -5.0540331   -3.8028575  0.094502526   -5.0540331    1.2511756   520603 
  844000    1.0558009   -5.0528647   -5.0528647   -3.8023806  0.089056272   -5.0528647    1.2504842   520603 
  845000    1.0568595   -5.0544741   -5.0544741   -3.8027362  0.083923086   -5.0544741    1.2517379   520603 
  846000    1.0581219   -5.0565139   -5.0565139   -3.8032808  0.098539025   -5.0565139    1.2532331   520603 
  847000    1.0565978    -5.055136    -5.055136    -3.803708  0.081399608    -5.055136     1.251428   520603 
  848000    1.0582135   -5.0559948   -5.0559948   -3.8026532  0.094582813   -5.0559948    1.2533416   520603 
  849000    1.0577997   -5.0559471   -5.0559471   -3.8030957  0.076885533   -5.0559471    1.2528514   520603 
  850000    1.0598097   -5.0585873   -5.0585873   -3.8033552   0.10882561   -5.0585873    1.2552321   520603 
  851000    1.0571594   -5.0563952   -5.0563952   -3.8043021   0.10516371   -5.0563952    1.2520931   520603 
  852000     1.057909   -5.0568562   -5.0568562   -3.8038752   0.10183055   -5.0568562     1.252981   520603 
  853000    1.0570047    -5.056692    -5.056692    -3.804782  0.094949571    -5.056692    1.2519099   520603 
  854000    1.0568029   -5.0572502   -5.0572502   -3.8055793   0.08590231   -5.0572502    1.2516709   520603 
  855000     1.058459   -5.0595143   -5.0595143   -3.8058819  0.099689264   -5.0595143    1.2536324   520603 
  856000    1.0558473   -5.0570964   -5.0570964   -3.8065574    0.1153888   -5.0570964     1.250539   520603 
  857000    1.0557565   -5.0573682   -5.0573682   -3.8069367  0.099611102   -5.0573682    1.2504316   520603 
  858000    1.0564168    -5.058409    -5.058409   -3.8071954  0.099410896    -5.058409    1.2512136   520603 
  859000    1.0585554   -5.0602459   -5.0602459   -3.8064994  0.075187594   -5.0602459    1.2537465   520603 
  860000    1.0586531    -5.061257    -5.061257   -3.8073948   0.11060378    -5.061257    1.2538622   520603 
  861000    1.0564834   -5.0595558   -5.0595558   -3.8082634  0.083460963   -5.0595558    1.2512924   520603 
  862000    1.0580235   -5.0613069   -5.0613069   -3.8081903  0.088525083   -5.0613069    1.2531166   520603 
  863000    1.0563599   -5.0597339   -5.0597339   -3.8085878   0.12095178   -5.0597339    1.2511462   520603 
  864000    1.0560713   -5.0602958   -5.0602958   -3.8094915  0.076649364   -5.0602958    1.2508043   520603 
  865000    1.0567712   -5.0603317   -5.0603317   -3.8086983  0.081183304   -5.0603317    1.2516334   520603 
  866000    1.0553797   -5.0587131   -5.0587131   -3.8087279  0.082762678   -5.0587131    1.2499852   520603 
  867000    1.0552918   -5.0590292   -5.0590292    -3.809148   0.11162552   -5.0590292    1.2498812   520603 
  868000    1.0575231   -5.0607638   -5.0607638   -3.8082399   0.09992388   -5.0607638    1.2525238   520603 
  869000    1.0550035   -5.0580765   -5.0580765   -3.8085368  0.097578159   -5.0580765    1.2495397   520603 
  870000    1.0550793   -5.0579305   -5.0579305    -3.808301   0.11205299   -5.0579305    1.2496295   520603 
  871000     1.056794   -5.0613368   -5.0613368   -3.8096765  0.081616434   -5.0613368    1.2516603   520603 
  872000    1.0560985   -5.0606378   -5.0606378   -3.8098013  0.095372706   -5.0606378    1.2508365   520603 
  873000    1.0567349   -5.0608047   -5.0608047   -3.8092143  0.079927585   -5.0608047    1.2515903   520603 
  874000    1.0549735   -5.0585328   -5.0585328   -3.8090287  0.087459264   -5.0585328    1.2495042   520603 
  875000    1.0566718   -5.0607931   -5.0607931   -3.8092775  0.097355456   -5.0607931    1.2515155   520603 
  876000    1.0553822   -5.0600908   -5.0600908   -3.8101026  0.088165035   -5.0600908    1.2499882   520603 
  877000    1.0565236   -5.0611751   -5.0611751    -3.809835   0.10940022   -5.0611751      1.25134   520603 
  878000    1.0559267   -5.0613092   -5.0613092   -3.8106761  0.093865172   -5.0613092    1.2506331   520603 
  879000    1.0566124   -5.0620701   -5.0620701   -3.8106249  0.077099523   -5.0620701    1.2514452   520603 
  880000    1.0577246   -5.0643342   -5.0643342   -3.8115717  0.098152765   -5.0643342    1.2527626   520603 
  881000    1.0560243   -5.0641481   -5.0641481   -3.8133994  0.076110702   -5.0641481    1.2507487   520603 
  882000    1.0561172   -5.0638211   -5.0638211   -3.8129624  0.093760796   -5.0638211    1.2508588   520603 
  883000    1.0558714   -5.0646303   -5.0646303   -3.8140627  0.082862834   -5.0646303    1.2505676   520603 
  884000    1.0552836   -5.0641373   -5.0641373   -3.8142659   0.10585097   -5.0641373    1.2498714   520603 
  885000    1.0550367   -5.0637261   -5.0637261   -3.8141471  0.085952344   -5.0637261     1.249579   520603 
  886000    1.0562105   -5.0643373   -5.0643373   -3.8133681   0.07985877   -5.0643373    1.2509692   520603 
  887000    1.0554153   -5.0636481   -5.0636481   -3.8136207   0.11102917   -5.0636481    1.2500274   520603 
  888000    1.0564024   -5.0645613   -5.0645613   -3.8133648   0.10639656   -5.0645613    1.2511965   520603 
  889000    1.0556687   -5.0641359   -5.0641359   -3.8138083  0.091512158   -5.0641359    1.2503276   520603 
  890000    1.0585075   -5.0671072   -5.0671072   -3.8134174   0.10354967   -5.0671072    1.2536898   520603 
  891000    1.0560358   -5.0636985   -5.0636985   -3.8129362    0.1018964   -5.0636985    1.2507623   520603 
  892000    1.0556273   -5.0635515   -5.0635515    -3.813273   0.10132469   -5.0635515    1.2502785   520603 
  893000     1.056115   -5.0639543   -5.0639543   -3.8130981  0.085760684   -5.0639543    1.2508562   520603 
  894000    1.0557226   -5.0641246   -5.0641246   -3.8137332   0.12048959   -5.0641246    1.2503914   520603 
  895000    1.0563916    -5.064795    -5.064795   -3.8136113   0.07807815    -5.064795    1.2511837   520603 
  896000    1.0554165   -5.0637267   -5.0637267   -3.8136979  0.097592694   -5.0637267    1.2500288   520603 
  897000     1.054871   -5.0637299   -5.0637299   -3.8143472   0.10106257   -5.0637299    1.2493827   520603 
  898000    1.0542817   -5.0646381   -5.0646381   -3.8159533  0.098708199   -5.0646381    1.2486848   520603 
  899000    1.0561822   -5.0668082   -5.0668082   -3.8158725  0.092140997   -5.0668082    1.2509357   520603 
  900000    1.0560849   -5.0677042   -5.0677042   -3.8168838   0.10417702   -5.0677042    1.2508204   520603 
  901000    1.0551998   -5.0664767   -5.0664767   -3.8167045  0.089237995   -5.0664767    1.2497722   520603 
  902000    1.0541178    -5.065211    -5.065211   -3.8167204  0.093043975    -5.065211    1.2484906   520603 
  903000    1.0555222   -5.0675649   -5.0675649   -3.8174109  0.080601602   -5.0675649     1.250154   520603 
  904000     1.054476    -5.066468    -5.066468   -3.8175531  0.083237238    -5.066468    1.2489149   520603 
  905000    1.0541279   -5.0663843   -5.0663843   -3.8178817  0.098425039   -5.0663843    1.2485026   520603 
  906000    1.0537735   -5.0659073   -5.0659073   -3.8178244  0.099665574   -5.0659073    1.2480828   520603 
  907000    1.0544696   -5.0673473   -5.0673473     -3.81844   0.08224769   -5.0673473    1.2489073   520603 
  908000    1.0553194     -5.06881     -5.06881   -3.8188963   0.10422198     -5.06881    1.2499138   520603 
  909000    1.0555398   -5.0688101   -5.0688101   -3.8186352   0.10602396   -5.0688101    1.2501749   520603 
  910000    1.0549774   -5.0682079   -5.0682079   -3.8186992    0.0795919   -5.0682079    1.2495087   520603 
  911000     1.055255   -5.0693006   -5.0693006   -3.8194631  0.097756849   -5.0693006    1.2498375   520603 
  912000    1.0532132   -5.0664066   -5.0664066   -3.8189874   0.10383815   -5.0664066    1.2474193   520603 
  913000    1.0533165   -5.0662853   -5.0662853   -3.8187436   0.10678262   -5.0662853    1.2475417   520603 
  914000    1.0553697   -5.0690974   -5.0690974    -3.819124  0.079740144   -5.0690974    1.2499734   520603 
  915000    1.0566079   -5.0719088   -5.0719088    -3.820469  0.080434589   -5.0719088    1.2514399   520603 
  916000    1.0563421   -5.0710462   -5.0710462   -3.8199211  0.072222561   -5.0710462    1.2511251   520603 
  917000    1.0568385    -5.072423    -5.072423     -3.82071   0.07932632    -5.072423     1.251713   520603 
  918000    1.0539829   -5.0694955   -5.0694955   -3.8211647  0.097786205   -5.0694955    1.2483309   520603 
  919000     1.053998   -5.0691904   -5.0691904   -3.8208416  0.091524035   -5.0691904    1.2483488   520603 
  920000    1.0545712   -5.0698296   -5.0698296   -3.8208019   0.09836877   -5.0698296    1.2490277   520603 
  921000    1.0550314   -5.0708375   -5.0708375   -3.8212648   0.10552569   -5.0708375    1.2495727   520603 
  922000     1.056659    -5.073376    -5.073376   -3.8218756  0.094157189    -5.073376    1.2515004   520603 
  923000    1.0557708   -5.0734473   -5.0734473   -3.8229988  0.077800911   -5.0734473    1.2504485   520603 
  924000    1.0553004   -5.0728357   -5.0728357   -3.8229444   0.10400235   -5.0728357    1.2498913   520603 
  925000    1.0538755   -5.0723858   -5.0723858   -3.8241822   0.11407981   -5.0723858    1.2482036   520603 
  926000    1.0553147   -5.0744426   -5.0744426   -3.8245343  0.099756101   -5.0744426    1.2499083   520603 
  927000    1.0561574   -5.0751389   -5.0751389   -3.8242325  0.084267038   -5.0751389    1.2509064   520603 
  928000    1.0551299   -5.0748848   -5.0748848   -3.8251954  0.090761979   -5.0748848    1.2496894   520603 
  929000    1.0531893   -5.0725717   -5.0725717   -3.8251808  0.092186858   -5.0725717    1.2473909   520603 
  930000    1.0548705   -5.0757485   -5.0757485   -3.8263664  0.090488678   -5.0757485    1.2493822   520603 
  931000    1.0553532    -5.076971    -5.076971   -3.8270172  0.070627241    -5.076971    1.2499538   520603 
  932000    1.0528089   -5.0742629   -5.0742629   -3.8273224   0.10922878   -5.0742629    1.2469404   520603 
  933000    1.0533338   -5.0747799   -5.0747799   -3.8272178  0.094726853   -5.0747799    1.2475621   520603 
  934000    1.0534173   -5.0753765   -5.0753765   -3.8277155   0.11058319   -5.0753765     1.247661   520603 
  935000    1.0532674    -5.075907    -5.075907   -3.8284235  0.090780482    -5.075907    1.2474835   520603 
  936000    1.0546371   -5.0774145   -5.0774145   -3.8283088  0.085370018   -5.0774145    1.2491057   520603 
  937000     1.054541   -5.0777349   -5.0777349   -3.8287429   0.08302663   -5.0777349    1.2489919   520603 
  938000    1.0530338   -5.0758591   -5.0758591   -3.8286524  0.086684042   -5.0758591    1.2472067   520603 
  939000    1.0539035   -5.0764639   -5.0764639   -3.8282271  0.092793603   -5.0764639    1.2482369   520603 
  940000    1.0541123   -5.0766139   -5.0766139   -3.8281298  0.095872339   -5.0766139    1.2484841   520603 
  941000    1.0544117   -5.0763225   -5.0763225   -3.8274838  0.096324337   -5.0763225    1.2488387   520603 
  942000    1.0541591   -5.0758111   -5.0758111   -3.8272716  0.083400394   -5.0758111    1.2485396   520603 
  943000    1.0542581   -5.0761516   -5.0761516   -3.8274947  0.078916294   -5.0761516    1.2486569   520603 
  944000    1.0540715    -5.074646    -5.074646   -3.8262102  0.089365228    -5.074646    1.2484358   520603 
  945000    1.0529778   -5.0743663   -5.0743663   -3.8272259   0.11100769   -5.0743663    1.2471405   520603 
  946000    1.0532083   -5.0757393   -5.0757393   -3.8283258  0.099246754   -5.0757393    1.2474135   520603 
  947000    1.0546744    -5.078613    -5.078613    -3.829463   0.09071244    -5.078613    1.2491499   520603 
  948000    1.0525441   -5.0759967   -5.0759967   -3.8293699  0.093155631   -5.0759967    1.2466268   520603 
  949000    1.0525957   -5.0770197   -5.0770197   -3.8303319  0.078968487   -5.0770197    1.2466878   520603 
  950000    1.0535424   -5.0786683   -5.0786683   -3.8308592  0.089447606   -5.0786683    1.2478092   520603 
  951000    1.0535464   -5.0783626   -5.0783626   -3.8305487   0.11091978   -5.0783626    1.2478139   520603 
  952000     1.053066   -5.0794316   -5.0794316   -3.8321867  0.081248239   -5.0794316    1.2472449   520603 
  953000      1.05252   -5.0779753   -5.0779753   -3.8313771  0.067393763   -5.0779753    1.2465982   520603 
  954000    1.0541526   -5.0802283   -5.0802283   -3.8316964   0.10003401   -5.0802283    1.2485319   520603 
  955000    1.0530816    -5.078405    -5.078405   -3.8311417  0.096832569    -5.078405    1.2472634   520603 
  956000    1.0535438    -5.079516    -5.079516   -3.8317052   0.10003722    -5.079516    1.2478108   520603 
  957000    1.0521793   -5.0785516   -5.0785516   -3.8323569  0.086428384   -5.0785516    1.2461947   520603 
  958000    1.0539865   -5.0804701   -5.0804701   -3.8321349  0.078706627   -5.0804701    1.2483352   520603 
  959000    1.0531967   -5.0797542   -5.0797542   -3.8323545  0.078296412   -5.0797542    1.2473997   520603 
  960000    1.0527116   -5.0791931   -5.0791931    -3.832368  0.076362953   -5.0791931    1.2468251   520603 
  961000    1.0528294   -5.0791563   -5.0791563   -3.8321917  0.099538028   -5.0791563    1.2469646   520603 
  962000    1.0520783   -5.0780646   -5.0780646   -3.8319896  0.091142019   -5.0780646    1.2460751   520603 
  963000     1.051871   -5.0774178   -5.0774178   -3.8315883  0.090504687   -5.0774178    1.2458296   520603 
  964000    1.0525993   -5.0796038   -5.0796038   -3.8329117  0.079774171   -5.0796038    1.2466922   520603 
  965000    1.0505824   -5.0773763   -5.0773763    -3.833073  0.091100306   -5.0773763    1.2443033   520603 
  966000    1.0530005   -5.0803437   -5.0803437   -3.8331764  0.095373391   -5.0803437    1.2471673   520603 
  967000    1.0524359   -5.0797273   -5.0797273   -3.8332287  0.069990414   -5.0797273    1.2464986   520603 
  968000      1.05121   -5.0781678   -5.0781678   -3.8331211  0.096974361   -5.0781678    1.2450466   520603 
  969000    1.0532702   -5.0812927   -5.0812927   -3.8338059  0.099413482   -5.0812927    1.2474867   520603 
  970000    1.0521239   -5.0797844   -5.0797844   -3.8336553  0.084695513   -5.0797844    1.2461291   520603 
  971000    1.0538252   -5.0818216   -5.0818216   -3.8336775   0.11019371   -5.0818216    1.2481441   520603 
  972000    1.0533411   -5.0822555   -5.0822555   -3.8346848  0.095477137   -5.0822555    1.2475708   520603 
  973000    1.0512406   -5.0810681   -5.0810681   -3.8359852  0.091191691   -5.0810681    1.2450829   520603 
  974000    1.0500408   -5.0801652   -5.0801652   -3.8365033  0.083871602   -5.0801652    1.2436618   520603 
  975000    1.0514429   -5.0820127   -5.0820127   -3.8366902  0.087695655   -5.0820127    1.2453225   520603 
  976000    1.0507687   -5.0818834   -5.0818834   -3.8373594  0.098854634   -5.0818834     1.244524   520603 
  977000    1.0508616   -5.0822131   -5.0822131   -3.8375791  0.098151294   -5.0822131     1.244634   520603 
  978000    1.0518545   -5.0822229   -5.0822229   -3.8364128   0.08543523   -5.0822229    1.2458101   520603 
  979000    1.0537347    -5.084335    -5.084335    -3.836298   0.10240429    -5.084335     1.248037   520603 
  980000    1.0522553   -5.0832353   -5.0832353   -3.8369505   0.10843375   -5.0832353    1.2462847   520603 
  981000    1.0496473   -5.0803825   -5.0803825   -3.8371868   0.11663709   -5.0803825    1.2431958   520603 
  982000    1.0494735   -5.0811326   -5.0811326   -3.8381426   0.10118565   -5.0811326    1.2429899   520603 
  983000    1.0533334   -5.0864066   -5.0864066   -3.8388451   0.08644493   -5.0864066    1.2475616   520603 
  984000    1.0529812   -5.0853817   -5.0853817   -3.8382372  0.095765098   -5.0853817    1.2471445   520603 
  985000    1.0522949   -5.0842672   -5.0842672   -3.8379356  0.099314979   -5.0842672    1.2463316   520603 
  986000    1.0508595   -5.0822919   -5.0822919   -3.8376604  0.096644977   -5.0822919    1.2446315   520603 
  987000    1.0527702   -5.0857714   -5.0857714   -3.8388768  0.081792482   -5.0857714    1.2468946   520603 
  988000     1.051944   -5.0848506   -5.0848506   -3.8389347   0.06360719   -5.0848506     1.245916   520603 
  989000    1.0537076   -5.0870559   -5.0870559    -3.839051  0.076364173   -5.0870559    1.2480048   520603 
  990000     1.050782   -5.0842402   -5.0842402   -3.8397004  0.082239799   -5.0842402    1.2445398   520603 
  991000    1.0514565   -5.0841088   -5.0841088   -3.8387701  0.091257197   -5.0841088    1.2453386   520603 
  992000    1.0532071   -5.0869177   -5.0869177   -3.8395057  0.086078853   -5.0869177     1.247412   520603 
  993000    1.0507349   -5.0845379   -5.0845379   -3.8400539  0.079871786   -5.0845379    1.2444839   520603 
  994000     1.049974   -5.0839612   -5.0839612   -3.8403785   0.11482198   -5.0839612    1.2435827   520603 
  995000     1.052094   -5.0866729   -5.0866729   -3.8405792   0.07242396   -5.0866729    1.2460937   520603 
  996000    1.0518452   -5.0875013   -5.0875013   -3.8417023  0.096818616   -5.0875013     1.245799   520603 
  997000    1.0505286   -5.0862116   -5.0862116    -3.841972  0.082911337   -5.0862116    1.2442397   520603 
  998000    1.0518063   -5.0878221   -5.0878221   -3.8420691  0.079997549   -5.0878221    1.2457529   520603 
  999000    1.0502495   -5.0857576   -5.0857576   -3.8418486   0.10168434   -5.0857576    1.2439091   520603 
 1000000    1.0522869   -5.0878983   -5.0878983   -3.8415761  0.086777446   -5.0878983    1.2463221   520603 
 1001000     1.050117   -5.0859709   -5.0859709   -3.8422187  0.083702756   -5.0859709    1.2437522   520603 
 1002000    1.0495913   -5.0864172   -5.0864172   -3.8432877  0.093136664   -5.0864172    1.2431295   520603 
 1003000    1.0492003   -5.0866698   -5.0866698   -3.8440033  0.097974536   -5.0866698    1.2426664   520603 
 1004000    1.0481652   -5.0852438   -5.0852438   -3.8438034  0.069291274   -5.0852438    1.2414404   520603 
 1005000    1.0515394   -5.0884509   -5.0884509   -3.8430141  0.083167329   -5.0884509    1.2454368   520603 
 1006000    1.0501169   -5.0870847   -5.0870847   -3.8433327    0.0809375   -5.0870847     1.243752   520603 
 1007000    1.0501261   -5.0882127   -5.0882127   -3.8444497  0.092561694   -5.0882127    1.2437629   520603 
 1008000    1.0499774   -5.0883573   -5.0883573   -3.8447706  0.094510149   -5.0883573    1.2435867   520603 
 1009000    1.0480845   -5.0867016   -5.0867016   -3.8453567  0.082475196   -5.0867016    1.2413449   520603 
 1010000    1.0499273    -5.089119    -5.089119   -3.8455916  0.094681326    -5.089119    1.2435275   520603 
 1011000    1.0484748   -5.0876025   -5.0876025   -3.8457954  0.088553475   -5.0876025    1.2418072   520603 
 1012000    1.0503365   -5.0910012   -5.0910012    -3.846989     0.105949   -5.0910012    1.2440121   520603 
 1013000    1.0498884   -5.0903101   -5.0903101   -3.8468287  0.081044319   -5.0903101    1.2434814   520603 
 1014000     1.051377   -5.0921634   -5.0921634    -3.846919   0.10215521   -5.0921634    1.2452444   520603 
 1015000    1.0513555   -5.0919052   -5.0919052   -3.8466862  0.078654065   -5.0919052     1.245219   520603 
 1016000    1.0504535   -5.0903598   -5.0903598   -3.8462092  0.083891311   -5.0903598    1.2441507   520603 
 1017000    1.0493963   -5.0899221   -5.0899221   -3.8470235   0.10030489   -5.0899221    1.2428986   520603 
 1018000    1.0513149   -5.0918827   -5.0918827   -3.8467117  0.077971693   -5.0918827    1.2451709   520603 
 1019000    1.0498384   -5.0899447   -5.0899447   -3.8465225  0.095160394   -5.0899447    1.2434222   520603 
 1020000    1.0516005   -5.0922709   -5.0922709   -3.8467617   0.10809398   -5.0922709    1.2455092   520603 
 1021000    1.0487842   -5.0892429   -5.0892429   -3.8470694  0.090697926   -5.0892429    1.2421735   520603 
 1022000    1.0510998   -5.0922507   -5.0922507   -3.8473345  0.080361298   -5.0922507    1.2449162   520603 
 1023000    1.0495852   -5.0900748   -5.0900748   -3.8469525  0.088175682   -5.0900748    1.2431223   520603 
 1024000    1.0500108   -5.0911629   -5.0911629   -3.8475366  0.078056558   -5.0911629    1.2436263   520603 
 1025000    1.0498696   -5.0909965   -5.0909965   -3.8475373   0.10225615   -5.0909965    1.2434592   520603 
 1026000    1.0510955   -5.0922581   -5.0922581    -3.847347  0.084408521   -5.0922581    1.2449111   520603 
 1027000    1.0512872   -5.0929682   -5.0929682   -3.8478301    0.0941327   -5.0929682    1.2451381   520603 
 1028000    1.0500314   -5.0914671   -5.0914671   -3.8478163   0.11576462   -5.0914671    1.2436507   520603 
 1029000    1.0504211    -5.091121    -5.091121   -3.8470088  0.095072762    -5.091121    1.2441123   520603 
 1030000    1.0502483    -5.091802    -5.091802   -3.8478944  0.079013691    -5.091802    1.2439076   520603 
 1031000    1.0479066   -5.0909661   -5.0909661    -3.849832  0.091242126   -5.0909661    1.2411342   520603 
 1032000    1.0489677   -5.0917183   -5.0917183   -3.8493274  0.073240406   -5.0917183    1.2423909   520603 
 1033000    1.0521176   -5.0966463   -5.0966463   -3.8505246  0.089563992   -5.0966463    1.2461217   520603 
 1034000     1.049703   -5.0941278   -5.0941278    -3.850866  0.081550826   -5.0941278    1.2432618   520603 
 1035000    1.0477581    -5.092513    -5.092513   -3.8515548  0.080476059    -5.092513    1.2409583   520603 
 1036000     1.050619   -5.0952476   -5.0952476   -3.8509009  0.093829833   -5.0952476    1.2443466   520603 
 1037000    1.0497902   -5.0950483   -5.0950483   -3.8516833  0.093907028   -5.0950483     1.243365   520603 
 1038000    1.0468201   -5.0919916   -5.0919916   -3.8521443  0.091970918   -5.0919916    1.2398473   520603 
 1039000    1.0506137   -5.0965098   -5.0965098   -3.8521693  0.078814297   -5.0965098    1.2443405   520603 
 1040000    1.0483401    -5.093184    -5.093184   -3.8515364   0.10053985    -5.093184    1.2416476   520603 
 1041000    1.0482607   -5.0925795   -5.0925795    -3.851026   0.10213403   -5.0925795    1.2415535   520603 
 1042000    1.0493959   -5.0939106   -5.0939106   -3.8510125  0.072453316   -5.0939106    1.2428981   520603 
 1043000    1.0473804   -5.0919071   -5.0919071   -3.8513962  0.099346405   -5.0919071    1.2405109   520603 
 1044000    1.0498675   -5.0951921   -5.0951921   -3.8517355  0.068920309   -5.0951921    1.2434566   520603 
 1045000    1.0487351   -5.0938132   -5.0938132   -3.8516977  0.085520419   -5.0938132    1.2421155   520603 
 1046000     1.049518   -5.0943453   -5.0943453   -3.8513026   0.09006495   -5.0943453    1.2430427   520603 
 1047000    1.0497181   -5.0950488   -5.0950488   -3.8517691   0.10139679   -5.0950488    1.2432797   520603 
 1048000    1.0501858   -5.0957165   -5.0957165   -3.8518829   0.07756735   -5.0957165    1.2438336   520603 
 1049000    1.0485616   -5.0942953   -5.0942953   -3.8523853  0.090434329   -5.0942953      1.24191   520603 
 1050000    1.0490584   -5.0952739   -5.0952739   -3.8527756  0.087210838   -5.0952739    1.2424984   520603 
 1051000    1.0495227   -5.0959837   -5.0959837   -3.8529355  0.091681647   -5.0959837    1.2430482   520603 
 1052000     1.050114   -5.0961573   -5.0961573   -3.8524088   0.10076155   -5.0961573    1.2437485   520603 
 1053000    1.0494698    -5.095876    -5.095876   -3.8528903  0.092989948    -5.095876    1.2429856   520603 
 1054000    1.0491865   -5.0958682   -5.0958682   -3.8532182    0.1065821   -5.0958682      1.24265   520603 
 1055000    1.0496373   -5.0988405   -5.0988405   -3.8556565  0.069560236   -5.0988405     1.243184   520603 
 1056000    1.0497826    -5.098331    -5.098331    -3.854975  0.086906002    -5.098331     1.243356   520603 
 1057000    1.0470211   -5.0957383   -5.0957383   -3.8556529   0.09659219   -5.0957383    1.2400854   520603 
 1058000    1.0459112   -5.0944964   -5.0944964   -3.8557256  0.078022193   -5.0944964    1.2387708   520603 
 1059000    1.0471738   -5.0963767   -5.0963767   -3.8561104  0.094420812   -5.0963767    1.2402663   520603 
 1060000    1.0472696   -5.0966386   -5.0966386   -3.8562589   0.07579809   -5.0966386    1.2403797   520603 
 1061000     1.048239    -5.097666    -5.097666   -3.8561381  0.090141714    -5.097666    1.2415278   520603 
 1062000    1.0468623   -5.0967091   -5.0967091   -3.8568118  0.082269236   -5.0967091    1.2398973   520603 
 1063000    1.0469518   -5.0969092   -5.0969092   -3.8569059   0.10541188   -5.0969092    1.2400033   520603 
 1064000    1.0479218   -5.0981765   -5.0981765   -3.8570244  0.090920349   -5.0981765    1.2411521   520603 
 1065000    1.0478132   -5.0979945   -5.0979945    -3.856971   0.10551629   -5.0979945    1.2410235   520603 
 1066000    1.0482606   -5.0977713   -5.0977713   -3.8562179  0.099870091   -5.0977713    1.2415534   520603 
 1067000    1.0474712   -5.0973136   -5.0973136   -3.8566952  0.090138458   -5.0973136    1.2406185   520603 
 1068000    1.0487913   -5.0989832   -5.0989832   -3.8568013   0.06661381   -5.0989832    1.2421819   520603 
 1069000    1.0493276   -5.0997885   -5.0997885   -3.8569713   0.10201408   -5.0997885    1.2428172   520603 
 1070000    1.0496381   -5.1008615   -5.1008615   -3.8576766   0.10859055   -5.1008615    1.2431849   520603 
 1071000    1.0471257   -5.0990072   -5.0990072    -3.858798  0.087513077   -5.0990072    1.2402093   520603 
 1072000    1.0496216   -5.1020324   -5.1020324   -3.8588671  0.082891487   -5.1020324    1.2431654   520603 
 1073000    1.0472768   -5.0991654   -5.0991654   -3.8587772   0.10338357   -5.0991654    1.2403883   520603 
 1074000    1.0486496   -5.1004153   -5.1004153   -3.8584012  0.090058568   -5.1004153    1.2420141   520603 
 1075000    1.0494638   -5.1014404   -5.1014404   -3.8584619  0.083917315   -5.1014404    1.2429784   520603 
 1076000    1.0500819   -5.1021485   -5.1021485   -3.8584379  0.087288162   -5.1021485    1.2437106   520603 
 1077000    1.0495958   -5.1023468   -5.1023468    -3.859212   0.11400529   -5.1023468    1.2431348   520603 
 1078000    1.0483562   -5.1001326   -5.1001326    -3.858466  0.095068706   -5.1001326    1.2416667   520603 
 1079000    1.0498138    -5.101618    -5.101618   -3.8582251  0.095649878    -5.101618     1.243393   520603 
 1080000    1.0478111   -5.1003648   -5.1003648   -3.8593438  0.093647621   -5.1003648     1.241021   520603 
 1081000    1.0472491   -5.1001197   -5.1001197   -3.8597643  0.088300826   -5.1001197    1.2403554   520603 
 1082000    1.0469706   -5.0995534   -5.0995534   -3.8595279   0.10573749   -5.0995534    1.2400255   520603 
 1083000    1.0473652   -5.1000196   -5.1000196   -3.8595267  0.090213363   -5.1000196     1.240493   520603 
 1084000     1.047555   -5.1003429   -5.1003429   -3.8596252  0.087283849   -5.1003429    1.2407177   520603 
 1085000    1.0466886   -5.0991798   -5.0991798   -3.8594883   0.10777534   -5.0991798    1.2396915   520603 
 1086000    1.0469064   -5.1000488   -5.1000488   -3.8600993  0.084709786   -5.1000488    1.2399496   520603 
 1087000    1.0480561   -5.1012213   -5.1012213     -3.85991  0.096739016   -5.1012213    1.2413113   520603 
 1088000    1.0478332   -5.1017464   -5.1017464   -3.8606992  0.078098827   -5.1017464    1.2410472   520603 
 1089000    1.0476891   -5.1007932   -5.1007932   -3.8599167    0.1015216   -5.1007932    1.2408765   520603 
 1090000    1.0476872   -5.1006786   -5.1006786   -3.8598043  0.088870439   -5.1006786    1.2408743   520603 
 1091000    1.0463692   -5.0998774   -5.0998774   -3.8605642  0.090863075   -5.0998774    1.2393132   520603 
 1092000    1.0482945   -5.1033388   -5.1033388   -3.8617453  0.093733908   -5.1033388    1.2415936   520603 
 1093000    1.0468223   -5.1024112   -5.1024112   -3.8625613  0.089324849   -5.1024112      1.23985   520603 
 1094000    1.0484661   -5.1051427   -5.1051427   -3.8633458  0.089231348   -5.1051427    1.2417968   520603 
 1095000    1.0481352   -5.1039828   -5.1039828   -3.8625779   0.10854661   -5.1039828    1.2414049   520603 
 1096000    1.0478702   -5.1038641   -5.1038641   -3.8627731  0.097483939   -5.1038641     1.241091   520603 
 1097000      1.04801   -5.1043255   -5.1043255    -3.863069    0.1012792   -5.1043255    1.2412566   520603 
 1098000     1.045024   -5.1014361   -5.1014361   -3.8637162   0.10003795   -5.1014361      1.23772   520603 
 1099000    1.0474618   -5.1051235   -5.1051235   -3.8645162  0.082479043   -5.1051235    1.2406073   520603 
 1100000    1.0465522   -5.1044085   -5.1044085   -3.8648785  0.080465256   -5.1044085      1.23953   520603 
 1101000    1.0464438   -5.1045776   -5.1045776    -3.865176  0.096135261   -5.1045776    1.2394017   520603 
 1102000     1.047669    -5.106943    -5.106943   -3.8660903  0.080625664    -5.106943    1.2408527   520603 
 1103000    1.0450146   -5.1042001   -5.1042001   -3.8664912  0.078162961   -5.1042001    1.2377089   520603 
 1104000    1.0475171   -5.1070245   -5.1070245   -3.8663517   0.10368878   -5.1070245    1.2406728   520603 
 1105000    1.0463525   -5.1055315   -5.1055315    -3.866238   0.07686277   -5.1055315    1.2392935   520603 
 1106000    1.0456171   -5.1042084   -5.1042084    -3.865786  0.098361783   -5.1042084    1.2384225   520603 
 1107000    1.0459827   -5.1042955   -5.1042955     -3.86544   0.10284879   -5.1042955    1.2388555   520603 
 1108000    1.0452965   -5.1038146   -5.1038146   -3.8657718  0.088430394   -5.1038146    1.2380428   520603 
 1109000    1.0439588   -5.1029609   -5.1029609   -3.8665026  0.082591137   -5.1029609    1.2364584   520603 
 1110000    1.0451018   -5.1044184   -5.1044184   -3.8666062   0.10338127   -5.1044184    1.2378122   520603 
 1111000    1.0448418   -5.1047079   -5.1047079   -3.8672038  0.073270878   -5.1047079    1.2375042   520603 
 1112000    1.0470931   -5.1071479   -5.1071479   -3.8669772  0.080401314   -5.1071479    1.2401707   520603 
 1113000    1.0464332   -5.1064768   -5.1064768   -3.8670877  0.097149176   -5.1064768    1.2393891   520603 
 1114000     1.045939   -5.1062705   -5.1062705   -3.8674668  0.096937517   -5.1062705    1.2388037   520603 
 1115000    1.0451178   -5.1059114   -5.1059114   -3.8680803   0.10252446   -5.1059114    1.2378311   520603 
 1116000    1.0450978   -5.1066368   -5.1066368   -3.8688294  0.097404578   -5.1066368    1.2378074   520603 
 1117000    1.0452139   -5.1066118   -5.1066118   -3.8686669  0.097970859   -5.1066118    1.2379449   520603 
 1118000     1.043719   -5.1055514   -5.1055514    -3.869377  0.089534476   -5.1055514    1.2361744   520603 
 1119000     1.044391   -5.1052624   -5.1052624   -3.8682921  0.077137838   -5.1052624    1.2369703   520603 
 1120000    1.0470277   -5.1090962   -5.1090962    -3.869003  0.072655058   -5.1090962    1.2400932   520603 
 1121000    1.0451018   -5.1072484   -5.1072484   -3.8694363   0.08229928   -5.1072484    1.2378121   520603 
 1122000    1.0453135   -5.1071753   -5.1071753   -3.8691124  0.075838961   -5.1071753    1.2380629   520603 
 1123000    1.0449543   -5.1083329   -5.1083329   -3.8706955   0.09595777   -5.1083329    1.2376374   520603 
 1124000    1.0454106   -5.1088444   -5.1088444   -3.8706665  0.094301745   -5.1088444    1.2381778   520603 
 1125000    1.0473326   -5.1111716   -5.1111716   -3.8707173   0.10588851   -5.1111716    1.2404543   520603 
 1126000    1.0444829   -5.1087222   -5.1087222    -3.871643  0.094818604   -5.1087222    1.2370792   520603 
 1127000    1.0464134   -5.1105749   -5.1105749   -3.8712094  0.098799701   -5.1105749    1.2393656   520603 
 1128000    1.0455155   -5.1101756   -5.1101756   -3.8718734  0.097002018   -5.1101756    1.2383021   520603 
 1129000    1.0462775   -5.1107316   -5.1107316    -3.871527  0.091135546   -5.1107316    1.2392046   520603 
 1130000      1.04693    -5.112148    -5.112148   -3.8721706   0.10249596    -5.112148    1.2399774   520603 
 1131000    1.0457219   -5.1112092   -5.1112092   -3.8726626  0.071190605   -5.1112092    1.2385466   520603 
 1132000    1.0456849   -5.1113619   -5.1113619   -3.8728592   0.08536471   -5.1113619    1.2385027   520603 
 1133000    1.0431069   -5.1077516   -5.1077516   -3.8723022  0.089639455   -5.1077516    1.2354494   520603 
 1134000    1.0444968   -5.1095694   -5.1095694   -3.8724738  0.089095169   -5.1095694    1.2370956   520603 
 1135000    1.0423558   -5.1072917   -5.1072917   -3.8727318  0.081966672   -5.1072917    1.2345599   520603 
 1136000    1.0451787   -5.1108245   -5.1108245   -3.8729213    0.0749799   -5.1108245    1.2379032   520603 
 1137000    1.0461862   -5.1124051   -5.1124051   -3.8733086  0.092815154   -5.1124051    1.2390965   520603 
 1138000    1.0457855   -5.1124941   -5.1124941   -3.8738721  0.081465867   -5.1124941     1.238622   520603 
 1139000    1.0463938   -5.1137449   -5.1137449   -3.8744024  0.088676907   -5.1137449    1.2393424   520603 
 1140000    1.0434561    -5.110808    -5.110808    -3.874945  0.095788404    -5.110808     1.235863   520603 
 1141000    1.0446952    -5.112195    -5.112195   -3.8748645  0.091521126    -5.112195    1.2373305   520603 
 1142000    1.0459905   -5.1135176   -5.1135176   -3.8746528  0.091702235   -5.1135176    1.2388648   520603 
 1143000    1.0446644   -5.1130443   -5.1130443   -3.8757501  0.095559432   -5.1130443    1.2372942   520603 
 1144000     1.043226   -5.1119209   -5.1119209   -3.8763304   0.10100763   -5.1119209    1.2355905   520603 
 1145000    1.0439763    -5.112432    -5.112432   -3.8759528  0.083234937    -5.112432    1.2364792   520603 
 1146000    1.0438838    -5.112469    -5.112469   -3.8760994  0.086930913    -5.112469    1.2363696   520603 
 1147000    1.0460251   -5.1151617   -5.1151617    -3.876256  0.089009433   -5.1151617    1.2389057   520603 
 1148000    1.0472639   -5.1163142   -5.1163142   -3.8759412  0.081711449   -5.1163142     1.240373   520603 
 1149000      1.04462   -5.1139566   -5.1139566    -3.876715  0.080772507   -5.1139566    1.2372415   520603 
 1150000    1.0453758   -5.1143983   -5.1143983   -3.8762616  0.066891851   -5.1143983    1.2381367   520603 
 1151000    1.0445344   -5.1135261   -5.1135261   -3.8763859  0.089544802   -5.1135261    1.2371401   520603 
 1152000     1.046021    -5.115314    -5.115314   -3.8764132   0.08473105    -5.115314    1.2389008   520603 
 1153000    1.0455248   -5.1155331   -5.1155331   -3.8772199   0.10854843   -5.1155331    1.2383132   520603 
 1154000    1.0463797   -5.1165782   -5.1165782   -3.8772526    0.0786958   -5.1165782    1.2393257   520603 
 1155000    1.0465538   -5.1171211   -5.1171211   -3.8775891  0.098819478   -5.1171211     1.239532   520603 
 1156000      1.04542   -5.1154243   -5.1154243   -3.8772353  0.069085054   -5.1154243     1.238189   520603 
 1157000    1.0460089   -5.1157426   -5.1157426   -3.8768561  0.093760779   -5.1157426    1.2388865   520603 
 1158000    1.0457714   -5.1154736   -5.1154736   -3.8768683  0.081618351   -5.1154736    1.2386052   520603 
 1159000    1.0452094   -5.1143901   -5.1143901   -3.8764505   0.10408965   -5.1143901    1.2379396   520603 
 1160000    1.0431936   -5.1125062   -5.1125062   -3.8769541   0.09001066   -5.1125062    1.2355521   520603 
 1161000    1.0452634   -5.1153533   -5.1153533   -3.8773497   0.10068465   -5.1153533    1.2380035   520603 
 1162000    1.0450642   -5.1160107   -5.1160107   -3.8782431  0.086531446   -5.1160107    1.2377676   520603 
 1163000     1.044708   -5.1145904   -5.1145904   -3.8772446  0.080632739   -5.1145904    1.2373457   520603 
 1164000     1.044629   -5.1138004   -5.1138004   -3.8765482  0.081600716   -5.1138004    1.2372522   520603 
 1165000    1.0454232   -5.1151149   -5.1151149   -3.8769221  0.082108202   -5.1151149    1.2381928   520603 
 1166000    1.0427416   -5.1129794   -5.1129794   -3.8779627  0.080633744   -5.1129794    1.2350167   520603 
 1167000    1.0450737    -5.116662    -5.116662   -3.8788831  0.098034535    -5.116662    1.2377789   520603 
 1168000    1.0451888   -5.1161475   -5.1161475   -3.8782323  0.096717892   -5.1161475    1.2379152   520603 
 1169000    1.0451436   -5.1153335   -5.1153335   -3.8774719   0.07431614   -5.1153335    1.2378617   520603 
 1170000    1.0451992   -5.1155987   -5.1155987   -3.8776712  0.080405272   -5.1155987    1.2379275   520603 
 1171000    1.0462457   -5.1177735   -5.1177735   -3.8786065  0.089707053   -5.1177735    1.2391669   520603 
 1172000    1.0445306   -5.1151171   -5.1151171   -3.8779815  0.084060392   -5.1151171    1.2371356   520603 
 1173000    1.0456813   -5.1159453   -5.1159453   -3.8774468  0.081654253   -5.1159453    1.2384985   520603 
 1174000    1.0461649   -5.1172927   -5.1172927   -3.8782214  0.099372392   -5.1172927    1.2390713   520603 
 1175000    1.0446948   -5.1156346   -5.1156346   -3.8783045  0.093982078   -5.1156346    1.2373301   520603 
 1176000    1.0460747   -5.1170908   -5.1170908   -3.8781263  0.076915121   -5.1170908    1.2389645   520603 
 1177000    1.0444171   -5.1165439   -5.1165439   -3.8795427   0.10287672   -5.1165439    1.2370013   520603 
 1178000    1.0438869   -5.1161961   -5.1161961   -3.8798228  0.075269648   -5.1161961    1.2363733   520603 
 1179000    1.0446867   -5.1174718   -5.1174718   -3.8801512  0.074973499   -5.1174718    1.2373205   520603 
 1180000    1.0449455   -5.1180765   -5.1180765   -3.8804495  0.078689801   -5.1180765     1.237627   520603 
 1181000    1.0448434   -5.1192722   -5.1192722   -3.8817661  0.069357714   -5.1192722    1.2375061   520603 
 1182000    1.0442135   -5.1194188   -5.1194188   -3.8826588  0.070732809   -5.1194188      1.23676   520603 
 1183000     1.044022   -5.1191198   -5.1191198   -3.8825865   0.10744456   -5.1191198    1.2365333   520603 
 1184000    1.0436278   -5.1186412   -5.1186412   -3.8825749  0.090566244   -5.1186412    1.2360664   520603 
 1185000    1.0430418     -5.11858     -5.11858   -3.8832076  0.087822696     -5.11858    1.2353723   520603 
 1186000    1.0451449   -5.1216083   -5.1216083    -3.883745  0.077197465   -5.1216083    1.2378633   520603 
 1187000    1.0440151   -5.1212135   -5.1212135   -3.8846884  0.092527517   -5.1212135    1.2365251   520603 
 1188000    1.0438468    -5.121268    -5.121268   -3.8849423  0.095235332    -5.121268    1.2363257   520603 
 1189000    1.0407212    -5.117726    -5.117726   -3.8851022  0.086092164    -5.117726    1.2326238   520603 
 1190000    1.0437216   -5.1211032   -5.1211032   -3.8849257  0.066902801   -5.1211032    1.2361775   520603 
 1191000    1.0451058   -5.1224342   -5.1224342   -3.8846172  0.099328322   -5.1224342    1.2378169   520603 
 1192000    1.0426339   -5.1197365   -5.1197365   -3.8848473  0.083776635   -5.1197365    1.2348892   520603 
 1193000    1.0433843   -5.1206652   -5.1206652   -3.8848872  0.097889961   -5.1206652    1.2357779   520603 
 1194000    1.0437116   -5.1209826   -5.1209826   -3.8848171  0.076688512   -5.1209826    1.2361656   520603 
 1195000    1.0439756   -5.1214291   -5.1214291   -3.8849507   0.08196256   -5.1214291    1.2364783   520603 
 1196000    1.0429307   -5.1195821   -5.1195821   -3.8843414  0.096928978   -5.1195821    1.2352407   520603 
 1197000    1.0435278   -5.1195811   -5.1195811   -3.8836331  0.086342498   -5.1195811     1.235948   520603 
 1198000    1.0454389    -5.121387    -5.121387   -3.8831755  0.079794689    -5.121387    1.2382114   520603 
 1199000    1.0427915   -5.1190625   -5.1190625   -3.8839867  0.092779814   -5.1190625    1.2350758   520603 
 1200000    1.0437295   -5.1201139   -5.1201139   -3.8839271  0.095742981   -5.1201139    1.2361868   520603 
 1201000    1.0428522   -5.1193602   -5.1193602   -3.8842124  0.093640043   -5.1193602    1.2351478   520603 
 1202000     1.044117   -5.1201989   -5.1201989   -3.8835531  0.080072067   -5.1201989    1.2366458   520603 
 1203000    1.0427743   -5.1183954   -5.1183954   -3.8833398  0.082830867   -5.1183954    1.2350555   520603 
 1204000    1.0456293   -5.1219922   -5.1219922   -3.8835553  0.095537782   -5.1219922    1.2384369   520603 
 1205000    1.0437685   -5.1194631   -5.1194631   -3.8832302  0.090294141   -5.1194631     1.236233   520603 
 1206000    1.0442212   -5.1205726   -5.1205726   -3.8838034  0.088862503   -5.1205726    1.2367692   520603 
 1207000    1.0421358   -5.1177188   -5.1177188   -3.8834195  0.072102495   -5.1177188    1.2342993   520603 
 1208000    1.0432875   -5.1193969   -5.1193969   -3.8837335  0.090486689   -5.1193969    1.2356634   520603 
 1209000    1.0424501    -5.119046    -5.119046   -3.8843744  0.088269374    -5.119046    1.2346715   520603 
 1210000    1.0427813   -5.1201923   -5.1201923   -3.8851285  0.090982422   -5.1201923    1.2350638   520603 
 1211000    1.0433316   -5.1216638   -5.1216638   -3.8859483  0.087078372   -5.1216638    1.2357155   520603 
 1212000    1.0423398   -5.1205526   -5.1205526   -3.8860118  0.095750544   -5.1205526    1.2345408   520603 
 1213000     1.042969   -5.1215368   -5.1215368   -3.8862507   0.10432667   -5.1215368    1.2352861   520603 
 1214000    1.0442194   -5.1237437   -5.1237437   -3.8869767  0.097217556   -5.1237437     1.236767   520603 
 1215000    1.0443347    -5.123919    -5.123919   -3.8870154  0.071358434    -5.123919    1.2369036   520603 
 1216000    1.0423449   -5.1210681   -5.1210681   -3.8865212    0.0814779   -5.1210681     1.234547   520603 
 1217000      1.04401   -5.1234532   -5.1234532   -3.8869341  0.096384527   -5.1234532    1.2365191   520603 
 1218000       1.0446   -5.1235334   -5.1235334   -3.8863156  0.077332582   -5.1235334    1.2372178   520603 
 1219000    1.0456975   -5.1262395   -5.1262395   -3.8877218  0.081779464   -5.1262395    1.2385177   520603 
 1220000       1.0424   -5.1223696   -5.1223696   -3.8877574  0.082068485   -5.1223696    1.2346122   520603 
 1221000    1.0424762   -5.1234707   -5.1234707   -3.8887683  0.062425792   -5.1234707    1.2347024   520603 
 1222000    1.0447045   -5.1256889   -5.1256889   -3.8883473  0.081429499   -5.1256889    1.2373416   520603 
 1223000    1.0422227   -5.1241045   -5.1241045   -3.8897023  0.064462315   -5.1241045    1.2344022   520603 
 1224000     1.043332   -5.1259091   -5.1259091   -3.8901931  0.089909927   -5.1259091     1.235716   520603 
 1225000    1.0439732   -5.1268713   -5.1268713   -3.8903959   0.10876872   -5.1268713    1.2364754   520603 
 1226000    1.0432318   -5.1263582   -5.1263582   -3.8907609  0.096666393   -5.1263582    1.2355973   520603 
 1227000    1.0412584   -5.1229002   -5.1229002   -3.8896401   0.10851652   -5.1229002    1.2332601   520603 
 1228000    1.0416396   -5.1229089   -5.1229089   -3.8891974  0.088450042   -5.1229089    1.2337115   520603 
 1229000    1.0420396   -5.1230239   -5.1230239   -3.8888386   0.10257638   -5.1230239    1.2341853   520603 
 1230000    1.0422949   -5.1232423   -5.1232423   -3.8887547  0.082388582   -5.1232423    1.2344877   520603 
 1231000    1.0423077   -5.1240142   -5.1240142   -3.8895114  0.091911829   -5.1240142    1.2345028   520603 
 1232000     1.042356   -5.1240819   -5.1240819   -3.8895219   0.10563052   -5.1240819    1.2345601   520603 
 1233000    1.0432396   -5.1246978   -5.1246978   -3.8890913  0.097441139   -5.1246978    1.2356066   520603 
 1234000    1.0422223   -5.1240993   -5.1240993   -3.8896977  0.079073956   -5.1240993    1.2344017   520603 
 1235000    1.0436469   -5.1274632   -5.1274632   -3.8913743  0.089518763   -5.1274632     1.236089   520603 
 1236000    1.0438958   -5.1273079   -5.1273079   -3.8909241  0.086024046   -5.1273079    1.2363838   520603 
 1237000    1.0436505   -5.1272136   -5.1272136   -3.8911204  0.082538436   -5.1272136    1.2360932   520603 
 1238000    1.0423157   -5.1258849   -5.1258849   -3.8913726  0.079463052   -5.1258849    1.2345123   520603 
 1239000    1.0430376   -5.1276229   -5.1276229   -3.8922556  0.092163716   -5.1276229    1.2353673   520603 
 1240000    1.0432296   -5.1277368   -5.1277368   -3.8921421   0.08666169   -5.1277368    1.2355947   520603 
 1241000    1.0425946   -5.1272573   -5.1272573   -3.8924147  0.092765456   -5.1272573    1.2348426   520603 
 1242000    1.0421805   -5.1278268   -5.1278268   -3.8934746  0.093149484   -5.1278268    1.2343523   520603 
 1243000    1.0431804   -5.1285975   -5.1285975    -3.893061   0.10886833   -5.1285975    1.2355365   520603 
 1244000    1.0432311   -5.1296408   -5.1296408   -3.8940442  0.091716996   -5.1296408    1.2355966   520603 
 1245000    1.0428997   -5.1294269   -5.1294269   -3.8942229  0.085512811   -5.1294269     1.235204   520603 
 1246000    1.0435678   -5.1305549   -5.1305549   -3.8945596  0.066249727   -5.1305549    1.2359952   520603 
 1247000    1.0439574   -5.1304863   -5.1304863   -3.8940296  0.085856316   -5.1304863    1.2364567   520603 
 1248000     1.040862   -5.1279374   -5.1279374   -3.8951468  0.061792444   -5.1279374    1.2327906   520603 
 1249000    1.0416432   -5.1287031   -5.1287031   -3.8949872  0.080950808   -5.1287031    1.2337159   520603 
 1250000    1.0422064   -5.1294838   -5.1294838   -3.8951009  0.084169449   -5.1294838    1.2343829   520603 
 1251000    1.0411016   -5.1281201   -5.1281201   -3.8950458   0.10115701   -5.1281201    1.2330743   520603 
 1252000    1.0429624   -5.1303008   -5.1303008   -3.8950225  0.074769564   -5.1303008    1.2352782   520603 
 1253000    1.0427554   -5.1305106   -5.1305106   -3.8954775  0.082937255   -5.1305106    1.2350331   520603 
 1254000    1.0428695    -5.130976    -5.130976   -3.8958078   0.10942089    -5.130976    1.2351683   520603 
 1255000    1.0423705   -5.1305541   -5.1305541   -3.8959769  0.069332068   -5.1305541    1.2345772   520603 
 1256000    1.0429733   -5.1297919   -5.1297919   -3.8945007  0.093229687   -5.1297919    1.2352912   520603 
 1257000    1.0445744   -5.1318813   -5.1318813   -3.8946938  0.096755879   -5.1318813    1.2371875   520603 
 1258000    1.0418996   -5.1293192   -5.1293192   -3.8952997   0.10214461   -5.1293192    1.2340195   520603 
 1259000    1.0419832   -5.1303849   -5.1303849   -3.8962665  0.075870957   -5.1303849    1.2341185   520603 
 1260000    1.0416241   -5.1299369   -5.1299369   -3.8962437  0.064002473   -5.1299369    1.2336932   520603 
 1261000    1.0423989   -5.1313935   -5.1313935   -3.8967826  0.091626485   -5.1313935    1.2346108   520603 
 1262000    1.0400295   -5.1281937   -5.1281937   -3.8963892  0.083788765   -5.1281937    1.2318045   520603 
 1263000    1.0413577   -5.1299929   -5.1299929   -3.8966153  0.063515967   -5.1299929    1.2333776   520603 
 1264000    1.0416396   -5.1310355   -5.1310355    -3.897324  0.078029706   -5.1310355    1.2337115   520603 
 1265000    1.0426587   -5.1327332   -5.1327332   -3.8978146  0.077813873   -5.1327332    1.2349186   520603 
 1266000    1.0416225   -5.1310796   -5.1310796   -3.8973884  0.096300729   -5.1310796    1.2336913   520603 
 1267000    1.0430006   -5.1333924   -5.1333924   -3.8980689  0.077946763   -5.1333924    1.2353235   520603 
 1268000    1.0422283   -5.1324981   -5.1324981   -3.8980893  0.084820102   -5.1324981    1.2344088   520603 
 1269000    1.0422073   -5.1327708   -5.1327708   -3.8983869  0.068385215   -5.1327708     1.234384   520603 
 1270000    1.0415069   -5.1323854   -5.1323854    -3.898831  0.074616308   -5.1323854    1.2335544   520603 
 1271000    1.0406261   -5.1321709   -5.1321709   -3.8996597  0.090126737   -5.1321709    1.2325112   520603 
 1272000    1.0416047   -5.1333002   -5.1333002     -3.89963  0.059015865   -5.1333002    1.2336702   520603 
 1273000    1.0417096     -5.13423     -5.13423   -3.9004356  0.089039638     -5.13423    1.2337944   520603 
 1274000    1.0415683   -5.1347045   -5.1347045   -3.9010774  0.078103873   -5.1347045    1.2336271   520603 
 1275000    1.0426996   -5.1353271   -5.1353271   -3.9003601  0.088063856   -5.1353271    1.2349671   520603 
 1276000    1.0402855   -5.1330204   -5.1330204   -3.9009126   0.07859937   -5.1330204    1.2321078   520603 
 1277000    1.0415762   -5.1342242   -5.1342242   -3.9005877   0.07544921   -5.1342242    1.2336365   520603 
 1278000    1.0416534   -5.1348547   -5.1348547   -3.9011268  0.090588104   -5.1348547    1.2337279   520603 
 1279000     1.041006    -5.134338    -5.134338    -3.901377  0.071355376    -5.134338    1.2329611   520603 
 1280000    1.0395667   -5.1329457   -5.1329457   -3.9016892  0.092796408   -5.1329457    1.2312565   520603 
 1281000    1.0412508   -5.1350138   -5.1350138   -3.9017627   0.10054126   -5.1350138    1.2332511   520603 
 1282000    1.0408801   -5.1359473   -5.1359473   -3.9031353   0.10113963   -5.1359473     1.232812   520603 
 1283000    1.0442288   -5.1399897   -5.1399897   -3.9032115  0.082267894   -5.1399897    1.2367782   520603 
 1284000    1.0420981   -5.1387881   -5.1387881   -3.9045335  0.094880869   -5.1387881    1.2342546   520603 
 1285000    1.0449537   -5.1422281   -5.1422281   -3.9045913  0.082627692   -5.1422281    1.2376368   520603 
 1286000    1.0406832   -5.1362599   -5.1362599   -3.9036811  0.094300049   -5.1362599    1.2325788   520603 
 1287000    1.0421485   -5.1380179   -5.1380179   -3.9037037  0.079018398   -5.1380179    1.2343142   520603 
 1288000    1.0417096   -5.1381221   -5.1381221   -3.9043276   0.10455495   -5.1381221    1.2337945   520603 
 1289000    1.0411331   -5.1369433   -5.1369433   -3.9038317  0.087936013   -5.1369433    1.2331117   520603 
 1290000    1.0416653   -5.1372298   -5.1372298   -3.9034877   0.10136356   -5.1372298     1.233742   520603 
 1291000    1.0419191   -5.1373348   -5.1373348   -3.9032922  0.074423336   -5.1373348    1.2340426   520603 
 1292000    1.0408918   -5.1376407   -5.1376407   -3.9048148   0.10134165   -5.1376407    1.2328259   520603 
 1293000    1.0403596    -5.138268    -5.138268   -3.9060725   0.11646612    -5.138268    1.2321955   520603 
 1294000    1.0413292   -5.1398022   -5.1398022   -3.9064584  0.079601927   -5.1398022    1.2333439   520603 
 1295000    1.0394483   -5.1368255   -5.1368255   -3.9057093  0.085059682   -5.1368255    1.2311162   520603 
 1296000    1.0404694   -5.1377816   -5.1377816    -3.905456  0.078158513   -5.1377816    1.2323256   520603 
 1297000    1.0409799   -5.1387681   -5.1387681   -3.9058378  0.074161964   -5.1387681    1.2329302   520603 
 1298000    1.0412234   -5.1391009   -5.1391009   -3.9058824  0.074168488   -5.1391009    1.2332186   520603 
 1299000    1.0396154   -5.1373516   -5.1373516   -3.9060375  0.077691883   -5.1373516    1.2313141   520603 
 1300000    1.0405033   -5.1396478   -5.1396478    -3.907282  0.088112151   -5.1396478    1.2323658   520603 
 1301000    1.0399536   -5.1388072   -5.1388072   -3.9070926  0.080076347   -5.1388072    1.2317146   520603 
 1302000    1.0401647   -5.1393637   -5.1393637    -3.907399  0.099023597   -5.1393637    1.2319647   520603 
 1303000    1.0411191   -5.1405939   -5.1405939   -3.9074989    0.0720362   -5.1405939    1.2330951   520603 
 1304000    1.0389229   -5.1378297   -5.1378297   -3.9073358  0.082992012   -5.1378297     1.230494   520603 
 1305000    1.0382297   -5.1381744   -5.1381744   -3.9085015  0.088715436   -5.1381744    1.2296729   520603 
 1306000    1.0386188   -5.1389633   -5.1389633   -3.9088296  0.084294327   -5.1389633    1.2301337   520603 
 1307000    1.0418903   -5.1410954   -5.1410954   -3.9070869  0.087063769   -5.1410954    1.2340085   520603 
 1308000    1.0395623   -5.1387805   -5.1387805   -3.9075292  0.090140025   -5.1387805    1.2312512   520603 
 1309000    1.0393717   -5.1391184   -5.1391184   -3.9080929  0.090133361   -5.1391184    1.2310255   520603 
 1310000    1.0389606   -5.1383459   -5.1383459   -3.9078073  0.093395958   -5.1383459    1.2305386   520603 
 1311000    1.0415363   -5.1408883   -5.1408883   -3.9072991  0.096774511   -5.1408883    1.2335892   520603 
 1312000    1.0372976   -5.1362225   -5.1362225   -3.9076536   0.11427814   -5.1362225     1.228569   520603 
 1313000    1.0394397   -5.1391714   -5.1391714   -3.9080654  0.081731531   -5.1391714     1.231106   520603 
 1314000    1.0394653   -5.1401323   -5.1401323   -3.9089959   0.10367895   -5.1401323    1.2311363   520603 
 1315000    1.0397564   -5.1407756   -5.1407756   -3.9092945  0.053845036   -5.1407756    1.2314811   520603 
 1316000    1.0389079   -5.1401202   -5.1401202   -3.9096441  0.098920362   -5.1401202    1.2304762   520603 
 1317000    1.0393392   -5.1418414   -5.1418414   -3.9108545  0.065591555   -5.1418414     1.230987   520603 
 1318000    1.0394305   -5.1416381   -5.1416381    -3.910543  0.090321519   -5.1416381    1.2310951   520603 
 1319000    1.0375462    -5.139303    -5.139303   -3.9104397  0.096606667    -5.139303    1.2288633   520603 
 1320000    1.0383928   -5.1401912   -5.1401912   -3.9103251  0.084786312   -5.1401912    1.2298661   520603 
 1321000    1.0402303   -5.1433729   -5.1433729   -3.9113305  0.072409356   -5.1433729    1.2320424   520603 
 1322000    1.0392574    -5.141743    -5.141743    -3.910853  0.066286544    -5.141743    1.2308901   520603 
 1323000    1.0372252   -5.1398256   -5.1398256   -3.9113425  0.072355873   -5.1398256    1.2284831   520603 
 1324000    1.0401798   -5.1429547   -5.1429547   -3.9109721  0.085270163   -5.1429547    1.2319826   520603 
 1325000    1.0379831   -5.1404789   -5.1404789    -3.911098  0.055024291   -5.1404789    1.2293809   520603 
 1326000    1.0400042   -5.1431697   -5.1431697    -3.911395   0.10073109   -5.1431697    1.2317746   520603 
 1327000     1.038275   -5.1415176   -5.1415176    -3.911791  0.097666347   -5.1415176    1.2297266   520603 
 1328000    1.0375966   -5.1404344   -5.1404344   -3.9115114  0.085430838   -5.1404344     1.228923   520603 
 1329000    1.0392684   -5.1425387   -5.1425387   -3.9116356  0.067023542   -5.1425387    1.2309032   520603 
 1330000    1.0397708    -5.143085    -5.143085   -3.9115868  0.094252152    -5.143085    1.2314982   520603 
 1331000    1.0377672   -5.1415553   -5.1415553   -3.9124301  0.069403296   -5.1415553    1.2291251   520603 
 1332000    1.0396736    -5.143861    -5.143861    -3.912478  0.077770947    -5.143861     1.231383   520603 
 1333000    1.0388696   -5.1431861   -5.1431861   -3.9127553  0.093459644   -5.1431861    1.2304308   520603 
 1334000    1.0394361   -5.1446141   -5.1446141   -3.9135124  0.077960388   -5.1446141    1.2311017   520603 
 1335000    1.0397897   -5.1451181   -5.1451181   -3.9135975  0.096294769   -5.1451181    1.2315206   520603 
 1336000    1.0393588   -5.1452423   -5.1452423   -3.9142321  0.086473119   -5.1452423    1.2310102   520603 
 1337000    1.0399419   -5.1453569   -5.1453569   -3.9136561  0.080681977   -5.1453569    1.2317008   520603 
 1338000    1.0397002   -5.1449296   -5.1449296    -3.913515   0.09462483   -5.1449296    1.2314146   520603 
 1339000    1.0379855   -5.1438156   -5.1438156   -3.9144319   0.10658925   -5.1438156    1.2293836   520603 
 1340000    1.0378829   -5.1436234   -5.1436234   -3.9143613  0.084035994   -5.1436234    1.2292622   520603 
 1341000    1.0397588   -5.1458535   -5.1458535   -3.9143696  0.082803999   -5.1458535    1.2314839   520603 
 1342000    1.0387973   -5.1442246   -5.1442246   -3.9138795    0.0852773   -5.1442246    1.2303451   520603 
 1343000    1.0362925   -5.1413431   -5.1413431   -3.9139646  0.085515471   -5.1413431    1.2273785   520603 
 1344000    1.0396288   -5.1453572   -5.1453572   -3.9140273  0.074552551   -5.1453572    1.2313299   520603 
 1345000    1.0383254   -5.1434576   -5.1434576   -3.9136714  0.068633046   -5.1434576    1.2297862   520603 
 1346000    1.0385953   -5.1422122   -5.1422122   -3.9121064  0.093166481   -5.1422122    1.2301059   520603 
 1347000    1.0397321   -5.1437595   -5.1437595   -3.9123071  0.096436083   -5.1437595    1.2314524   520603 
 1348000     1.038843   -5.1439547   -5.1439547   -3.9135554   0.09305717   -5.1439547    1.2303993   520603 
 1349000    1.0374554   -5.1432775   -5.1432775   -3.9145218   0.07638677   -5.1432775    1.2287558   520603 
 1350000    1.0375488   -5.1436995   -5.1436995    -3.914833  0.093676487   -5.1436995    1.2288665   520603 
 1351000    1.0381175   -5.1442145   -5.1442145   -3.9146744  0.070509419   -5.1442145    1.2295401   520603 
 1352000    1.0375143   -5.1439008   -5.1439008   -3.9150753  0.079510426   -5.1439008    1.2288255   520603 
 1353000    1.0369586   -5.1429228   -5.1429228   -3.9147555  0.083109577   -5.1429228    1.2281673   520603 
 1354000    1.0383283   -5.1447988   -5.1447988   -3.9150091  0.080527748   -5.1447988    1.2297896   520603 
 1355000    1.0359879   -5.1417608   -5.1417608   -3.9147431   0.07687863   -5.1417608    1.2270177   520603 
 1356000    1.0385342   -5.1452031   -5.1452031   -3.9151695  0.077955223   -5.1452031    1.2300336   520603 
 1357000    1.0393114   -5.1449617   -5.1449617   -3.9140077  0.087994313   -5.1449617     1.230954   520603 
 1358000     1.038565   -5.1453682   -5.1453682   -3.9152981  0.090539892   -5.1453682    1.2300701   520603 
 1359000    1.0390929   -5.1461097   -5.1461097   -3.9154145    0.1062512   -5.1461097    1.2306952   520603 
 1360000    1.0387568   -5.1463599   -5.1463599   -3.9160627  0.073309978   -5.1463599    1.2302971   520603 
 1361000    1.0394118   -5.1486794   -5.1486794   -3.9176065  0.070660768   -5.1486794    1.2310729   520603 
 1362000    1.0376152   -5.1465756   -5.1465756   -3.9176305   0.10647763   -5.1465756    1.2289451   520603 
 1363000    1.0393536   -5.1482398   -5.1482398   -3.9172358  0.084187922   -5.1482398     1.231004   520603 
 1364000    1.0374589   -5.1451141   -5.1451141   -3.9163542  0.093252372   -5.1451141    1.2287599   520603 
 1365000    1.0384954   -5.1468118   -5.1468118   -3.9168242  0.074174737   -5.1468118    1.2299876   520603 
 1366000    1.0389253   -5.1480539   -5.1480539   -3.9175571  0.093731352   -5.1480539    1.2304968   520603 
 1367000    1.0399317   -5.1496889   -5.1496889   -3.9180002  0.098476909   -5.1496889    1.2316887   520603 
 1368000    1.0386939   -5.1484088   -5.1484088   -3.9181861  0.079830551   -5.1484088    1.2302227   520603 
 1369000    1.0382895   -5.1490216   -5.1490216   -3.9192778   0.10234319   -5.1490216    1.2297438   520603 
 1370000     1.037569   -5.1485027   -5.1485027   -3.9196124  0.084372658   -5.1485027    1.2288904   520603 
 1371000    1.0381438   -5.1493103   -5.1493103   -3.9197391  0.097229261   -5.1493103    1.2295711   520603 
 1372000    1.0376116    -5.149543    -5.149543   -3.9206022  0.072409595    -5.149543    1.2289409   520603 
 1373000    1.0376632   -5.1488017   -5.1488017   -3.9197997   0.07651248   -5.1488017     1.229002   520603 
 1374000    1.0365384   -5.1476903   -5.1476903   -3.9200206  0.078335298   -5.1476903    1.2276697   520603 
 1375000    1.0390915   -5.1496126   -5.1496126    -3.918919  0.080170589   -5.1496126    1.2306936   520603 
 1376000    1.0391649   -5.1500275   -5.1500275   -3.9192469   0.10514555   -5.1500275    1.2307805   520603 
 1377000    1.0379507    -5.150686    -5.150686   -3.9213436  0.079264528    -5.150686    1.2293424   520603 
 1378000    1.0384091   -5.1516992   -5.1516992   -3.9218138  0.091374686   -5.1516992    1.2298854   520603 
 1379000    1.0390152   -5.1526555   -5.1526555   -3.9220523  0.074328986   -5.1526555    1.2306032   520603 
 1380000    1.0372388   -5.1514026   -5.1514026   -3.9229033  0.087826037   -5.1514026    1.2284993   520603 
 1381000    1.0369367   -5.1513425   -5.1513425   -3.9232009  0.090925175   -5.1513425    1.2281415   520603 
 1382000      1.03574   -5.1502637   -5.1502637   -3.9235397  0.085206361   -5.1502637    1.2267241   520603 
 1383000    1.0362644   -5.1496554   -5.1496554   -3.9223102  0.082889312   -5.1496554    1.2273452   520603 
 1384000    1.0373042   -5.1521228   -5.1521228   -3.9235461   0.08051689   -5.1521228    1.2285767   520603 
 1385000    1.0354771   -5.1494374   -5.1494374   -3.9230246   0.07191908   -5.1494374    1.2264128   520603 
 1386000    1.0390229   -5.1525789   -5.1525789   -3.9219665  0.096574636   -5.1525789    1.2306124   520603 
 1387000    1.0384131   -5.1512414   -5.1512414   -3.9213513  0.067973189   -5.1512414    1.2298901   520603 
 1388000    1.0390414   -5.1524329   -5.1524329   -3.9217986  0.081321659   -5.1524329    1.2306343   520603 
 1389000    1.0369669   -5.1508055   -5.1508055   -3.9226283   0.10515703   -5.1508055    1.2281772   520603 
 1390000    1.0386448   -5.1532486   -5.1532486   -3.9230841  0.084456581   -5.1532486    1.2301645   520603 
 1391000    1.0368545   -5.1519017   -5.1519017   -3.9238576   0.11344193   -5.1519017    1.2280441   520603 
 1392000    1.0373498   -5.1538198   -5.1538198    -3.925189  0.096465561   -5.1538198    1.2286307   520603 
 1393000    1.0395513   -5.1552085   -5.1552085   -3.9239703   0.10206434   -5.1552085    1.2312382   520603 
 1394000    1.0394812   -5.1547957   -5.1547957   -3.9236406  0.079540952   -5.1547957    1.2311551   520603 
 1395000    1.0377122   -5.1528867   -5.1528867   -3.9238267  0.083213915   -5.1528867      1.22906   520603 
 1396000    1.0383035   -5.1544861   -5.1544861   -3.9247257  0.089306416   -5.1544861    1.2297603   520603 
 1397000    1.0367053   -5.1535248   -5.1535248   -3.9256575  0.077596671   -5.1535248    1.2278674   520603 
 1398000    1.0373132   -5.1543469   -5.1543469   -3.9257596  0.091648122   -5.1543469    1.2285874   520603 
 1399000    1.0370133    -5.152972    -5.152972   -3.9247398   0.10415434    -5.152972    1.2282322   520603 
 1400000    1.0372823   -5.1548099   -5.1548099   -3.9262591   0.08378224   -5.1548099    1.2285508   520603 
 1401000    1.0367896   -5.1536507   -5.1536507   -3.9256835  0.070623029   -5.1536507    1.2279672   520603 
 1402000    1.0362617    -5.154027    -5.154027    -3.926685  0.082585151    -5.154027     1.227342   520603 
 1403000    1.0371741   -5.1546188   -5.1546188   -3.9261962  0.085139582   -5.1546188    1.2284226   520603 
 1404000    1.0361851   -5.1536807   -5.1536807   -3.9264294  0.091421166   -5.1536807    1.2272513   520603 
 1405000    1.0355411   -5.1526775   -5.1526775    -3.926189  0.087156791   -5.1526775    1.2264886   520603 
 1406000    1.0355671   -5.1532876   -5.1532876   -3.9267683  0.088338049   -5.1532876    1.2265193   520603 
 1407000    1.0371346   -5.1559714   -5.1559714   -3.9275955  0.079745045   -5.1559714    1.2283759   520603 
 1408000    1.0389165   -5.1577015   -5.1577015   -3.9272151  0.088821429   -5.1577015    1.2304864   520603 
 1409000    1.0362545   -5.1538283   -5.1538283   -3.9264949  0.077966877   -5.1538283    1.2273334   520603 
 1410000    1.0381955   -5.1559615   -5.1559615   -3.9263291   0.10358211   -5.1559615    1.2296324   520603 
 1411000    1.0385876    -5.156559    -5.156559   -3.9264622  0.078205969    -5.156559    1.2300968   520603 
 1412000    1.0390017   -5.1560255   -5.1560255   -3.9254383  0.082695543   -5.1560255    1.2305872   520603 
 1413000    1.0373656   -5.1535373   -5.1535373   -3.9248878  0.087686554   -5.1535373    1.2286495   520603 
 1414000    1.0377933   -5.1544494   -5.1544494   -3.9252935  0.098202257   -5.1544494     1.229156   520603 
 1415000    1.0381437   -5.1564756   -5.1564756   -3.9269046  0.080702198   -5.1564756     1.229571   520603 
 1416000    1.0376573   -5.1554665   -5.1554665   -3.9264716  0.086817413   -5.1554665    1.2289949   520603 
 1417000    1.0379461    -5.155852    -5.155852    -3.926515  0.084812722    -5.155852     1.229337   520603 
 1418000    1.0364208    -5.154058    -5.154058   -3.9265275  0.082460407    -5.154058    1.2275305   520603 
 1419000    1.0371245   -5.1554214   -5.1554214   -3.9270574  0.087874155   -5.1554214    1.2283639   520603 
 1420000    1.0370836   -5.1555188   -5.1555188   -3.9272033  0.078269394   -5.1555188    1.2283155   520603 
 1421000    1.0365576   -5.1542886   -5.1542886   -3.9265961   0.08415483   -5.1542886    1.2276925   520603 
 1422000    1.0355044   -5.1531185   -5.1531185   -3.9266735  0.080388029   -5.1531185    1.2264451   520603 
 1423000    1.0358449    -5.153433    -5.153433   -3.9265847  0.080995067    -5.153433    1.2268484   520603 
 1424000    1.0342015    -5.153561    -5.153561   -3.9286591  0.073916565    -5.153561    1.2249019   520603 
 1425000    1.0376495   -5.1577712   -5.1577712   -3.9287855  0.086189152   -5.1577712    1.2289857   520603 
 1426000    1.0361253   -5.1570616   -5.1570616   -3.9298812  0.064904406   -5.1570616    1.2271804   520603 
 1427000    1.0376849   -5.1580325   -5.1580325   -3.9290049  0.067118406   -5.1580325    1.2290276   520603 
 1428000     1.038675   -5.1591545   -5.1591545   -3.9289542  0.095973054   -5.1591545    1.2302003   520603 
 1429000    1.0366674   -5.1569798   -5.1569798   -3.9291573  0.092412012   -5.1569798    1.2278225   520603 
 1430000    1.0388928   -5.1594793   -5.1594793    -3.929021  0.090627266   -5.1594793    1.2304583   520603 
 1431000    1.0387036   -5.1593872   -5.1593872    -3.929153  0.085013578   -5.1593872    1.2302341   520603 
 1432000    1.0383351   -5.1598235   -5.1598235   -3.9300258  0.067573655   -5.1598235    1.2297977   520603 
 1433000    1.0367945    -5.158651    -5.158651    -3.930678  0.083137616    -5.158651     1.227973   520603 
 1434000    1.0355493   -5.1569563   -5.1569563   -3.9304581  0.079273224   -5.1569563    1.2264983   520603 
 1435000    1.0366474   -5.1578186   -5.1578186   -3.9300197  0.068325965   -5.1578186    1.2277989   520603 
 1436000    1.0366066    -5.157825    -5.157825   -3.9300744   0.10015311    -5.157825    1.2277505   520603 
 1437000    1.0373236   -5.1582144   -5.1582144   -3.9296147  0.079504516   -5.1582144    1.2285997   520603 
 1438000    1.0372957   -5.1585814   -5.1585814   -3.9300147  0.087780791   -5.1585814    1.2285667   520603 
 1439000    1.0383282   -5.1605993   -5.1605993   -3.9308098  0.085230642   -5.1605993    1.2297895   520603 
 1440000    1.0367652   -5.1589349   -5.1589349   -3.9309965   0.11835092   -5.1589349    1.2279384   520603 
 1441000    1.0387635   -5.1619511   -5.1619511    -3.931646   0.10214774   -5.1619511    1.2303051   520603 
 1442000    1.0361448   -5.1585312   -5.1585312   -3.9313277  0.067076738   -5.1585312    1.2272035   520603 
 1443000     1.036303   -5.1576808   -5.1576808   -3.9302899  0.083965276   -5.1576808    1.2273909   520603 
 1444000    1.0367409   -5.1574545   -5.1574545    -3.929545  0.097262148   -5.1574545    1.2279095   520603 
 1445000    1.0372998    -5.157386    -5.157386   -3.9288145  0.092291218    -5.157386    1.2285715   520603 
 1446000    1.0387144   -5.1606009   -5.1606009   -3.9303539   0.10454193   -5.1606009     1.230247   520603 
 1447000    1.0385295   -5.1604349   -5.1604349   -3.9304069  0.075401444   -5.1604349     1.230028   520603 
 1448000    1.0359036   -5.1589846   -5.1589846   -3.9320668  0.094833631   -5.1589846    1.2269178   520603 
 1449000    1.0364862   -5.1605206   -5.1605206   -3.9329127   0.07284606   -5.1605206    1.2276079   520603 
 1450000    1.0360405   -5.1594706   -5.1594706   -3.9323906  0.083906871   -5.1594706    1.2270801   520603 
 1451000    1.0360473   -5.1593906   -5.1593906   -3.9323025   0.08923906   -5.1593906    1.2270881   520603 
 1452000     1.036092   -5.1592693   -5.1592693   -3.9321282  0.089766942   -5.1592693    1.2271411   520603 
 1453000    1.0360031   -5.1583131   -5.1583131   -3.9312775  0.087204677   -5.1583131    1.2270357   520603 
 1454000    1.0366645   -5.1602299   -5.1602299   -3.9324109  0.070170244   -5.1602299     1.227819   520603 
 1455000    1.0359778   -5.1593873   -5.1593873   -3.9323816  0.093460362   -5.1593873    1.2270057   520603 
 1456000    1.0358317   -5.1590555   -5.1590555   -3.9322227  0.081880194   -5.1590555    1.2268328   520603 
 1457000    1.0362228    -5.160688    -5.160688   -3.9333922  0.093048628    -5.160688    1.2272959   520603 
 1458000    1.0362274   -5.1594823   -5.1594823   -3.9321809  0.076446376   -5.1594823    1.2273014   520603 
 1459000    1.0364996   -5.1600139   -5.1600139   -3.9323902  0.088221385   -5.1600139    1.2276237   520603 
 1460000    1.0361311   -5.1596466   -5.1596466   -3.9324593   0.07618167   -5.1596466    1.2271874   520603 
 1461000    1.0333027   -5.1563586   -5.1563586   -3.9325212   0.10081829   -5.1563586    1.2238374   520603 
 1462000    1.0350117   -5.1586271   -5.1586271   -3.9327656  0.071169015   -5.1586271    1.2258615   520603 
 1463000    1.0369317   -5.1616196   -5.1616196    -3.933484   0.09870814   -5.1616196    1.2281355   520603 
 1464000    1.0348925   -5.1599976   -5.1599976   -3.9342773  0.085974241   -5.1599976    1.2257204   520603 
 1465000    1.0344029   -5.1597596   -5.1597596   -3.9346192  0.084188503   -5.1597596    1.2251404   520603 
 1466000    1.0360259   -5.1617872   -5.1617872   -3.9347245   0.10594098   -5.1617872    1.2270627   520603 
 1467000    1.0364219    -5.162231    -5.162231   -3.9346993  0.084368242    -5.162231    1.2275317   520603 
 1468000    1.0367874   -5.1628232   -5.1628232   -3.9348585  0.087556508   -5.1628232    1.2279647   520603 
 1469000    1.0373678   -5.1639243   -5.1639243   -3.9352722   0.08848703   -5.1639243    1.2286521   520603 
 1470000    1.0349157   -5.1609982   -5.1609982   -3.9352505   0.10268505   -5.1609982    1.2257478   520603 
 1471000    1.0364077   -5.1631512   -5.1631512   -3.9356362  0.090052835   -5.1631512    1.2275149   520603 
 1472000    1.0360271   -5.1631003   -5.1631003   -3.9360361  0.067109935   -5.1631003    1.2270642   520603 
 1473000    1.0356112   -5.1619141   -5.1619141   -3.9353426  0.077981249   -5.1619141    1.2265716   520603 
 1474000     1.036484   -5.1616448   -5.1616448   -3.9340396  0.088339941   -5.1616448    1.2276052   520603 
 1475000    1.0360617   -5.1618637   -5.1618637   -3.9347587  0.084533492   -5.1618637    1.2271051   520603 
 1476000    1.0364152    -5.162768    -5.162768   -3.9352442  0.070918918    -5.162768    1.2275238   520603 
 1477000    1.0349114   -5.1613091   -5.1613091   -3.9355664  0.080152629   -5.1613091    1.2257427   520603 
 1478000    1.0337848   -5.1605691   -5.1605691   -3.9361607  0.075961572   -5.1605691    1.2244084   520603 
 1479000    1.0339294   -5.1601418   -5.1601418   -3.9355622  0.078170441   -5.1601418    1.2245797   520603 
 1480000    1.0349165   -5.1613337   -5.1613337    -3.935585  0.086651899   -5.1613337    1.2257487   520603 
 1481000    1.0331642   -5.1593261   -5.1593261   -3.9356527  0.079859118   -5.1593261    1.2236734   520603 
 1482000     1.034254   -5.1597549   -5.1597549   -3.9347908  0.084057026   -5.1597549    1.2249641   520603 
 1483000    1.0343235   -5.1605748   -5.1605748   -3.9355284  0.091164199   -5.1605748    1.2250464   520603 
 1484000    1.0350931   -5.1616043   -5.1616043   -3.9356465  0.082000473   -5.1616043    1.2259579   520603 
 1485000     1.035783   -5.1632506   -5.1632506   -3.9364755  0.059493294   -5.1632506     1.226775   520603 
 1486000    1.0363034   -5.1647463   -5.1647463   -3.9373549  0.067097709   -5.1647463    1.2273914   520603 
 1487000    1.0350919   -5.1633711   -5.1633711   -3.9374147  0.091538467   -5.1633711    1.2259565   520603 
 1488000    1.0350589   -5.1636797   -5.1636797   -3.9377623  0.092560552   -5.1636797    1.2259174   520603 
 1489000    1.0361663   -5.1645565   -5.1645565   -3.9373276   0.09747929   -5.1645565     1.227229   520603 
 1490000    1.0334786   -5.1603851   -5.1603851   -3.9363394  0.074175661   -5.1603851    1.2240457   520603 
 1491000     1.036734   -5.1638399   -5.1638399   -3.9359386   0.07814543   -5.1638399    1.2279014   520603 
 1492000    1.0355573   -5.1622773   -5.1622773   -3.9357695  0.061384008   -5.1622773    1.2265077   520603 
 1493000     1.035785   -5.1630812   -5.1630812   -3.9363039   0.10190127   -5.1630812    1.2267774   520603 
 1494000    1.0338671   -5.1624342   -5.1624342   -3.9379284  0.086227491   -5.1624342    1.2245058   520603 
 1495000    1.0364754   -5.1646363   -5.1646363   -3.9370413  0.076891281   -5.1646363    1.2275951   520603 
 1496000     1.036665   -5.1650318   -5.1650318   -3.9372121  0.079298688   -5.1650318    1.2278197   520603 
 1497000    1.0351319   -5.1631517   -5.1631517   -3.9371479  0.064532703   -5.1631517    1.2260038   520603 
 1498000    1.0363607   -5.1646316   -5.1646316   -3.9371723  0.085193934   -5.1646316    1.2274593   520603 
 1499000    1.0365754   -5.1647472   -5.1647472   -3.9370336  0.090090997   -5.1647472    1.2277136   520603 
 1500000    1.0336623   -5.1623313   -5.1623313    -3.938068  0.073464555   -5.1623313    1.2242633   520603 
 1501000    1.0336666   -5.1624049   -5.1624049   -3.9381365   0.07817395   -5.1624049    1.2242684   520603 
 1502000    1.0349245   -5.1643795   -5.1643795   -3.9386212  0.089965925   -5.1643795    1.2257583   520603 
 1503000    1.0357211   -5.1649473   -5.1649473   -3.9382456   0.10019211   -5.1649473    1.2267017   520603 
 1504000     1.036571   -5.1666222   -5.1666222   -3.9389139   0.08062882   -5.1666222    1.2277083   520603 
 1505000     1.035572   -5.1658776   -5.1658776   -3.9393524  0.076179253   -5.1658776    1.2265251   520603 
 1506000    1.0352763   -5.1660776   -5.1660776   -3.9399027  0.081665386   -5.1660776    1.2261749   520603 
 1507000    1.0349679   -5.1650188   -5.1650188   -3.9392092  0.096515432   -5.1650188    1.2258096   520603 
 1508000    1.0370867    -5.167631    -5.167631   -3.9393119  0.090325786    -5.167631    1.2283191   520603 
 1509000    1.0367852   -5.1672646   -5.1672646   -3.9393025  0.091510005   -5.1672646    1.2279621   520603 
 1510000    1.0359268   -5.1663953   -5.1663953   -3.9394499  0.077515956   -5.1663953    1.2269453   520603 
 1511000    1.0361099   -5.1674956   -5.1674956   -3.9403333  0.097981467   -5.1674956    1.2271623   520603 
 1512000    1.0347376   -5.1666126   -5.1666126   -3.9410758  0.070967185   -5.1666126    1.2255368   520603 
 1513000    1.0337044   -5.1657559   -5.1657559   -3.9414427   0.10078771   -5.1657559    1.2243132   520603 
 1514000    1.0331994   -5.1650829   -5.1650829   -3.9413679  0.088191586   -5.1650829     1.223715   520603 
 1515000    1.0352107   -5.1674054   -5.1674054   -3.9413082  0.074066446   -5.1674054    1.2260972   520603 
 1516000    1.0340314   -5.1662758   -5.1662758   -3.9415754  0.087610612   -5.1662758    1.2247004   520603 
 1517000    1.0350297   -5.1674858   -5.1674858    -3.941603  0.088387832   -5.1674858    1.2258828   520603 
 1518000    1.0327631   -5.1654461   -5.1654461   -3.9422478  0.079278969   -5.1654461    1.2231983   520603 
 1519000     1.033626   -5.1662646   -5.1662646   -3.9420443  0.085579499   -5.1662646    1.2242203   520603 
 1520000    1.0340864   -5.1678796   -5.1678796    -3.943114  0.091943973   -5.1678796    1.2247656   520603 
 1521000    1.0345613   -5.1689013   -5.1689013   -3.9435732  0.089732526   -5.1689013    1.2253281   520603 
 1522000    1.0349549   -5.1691087   -5.1691087   -3.9433145  0.063429549   -5.1691087    1.2257942   520603 
 1523000     1.035033   -5.1682359   -5.1682359   -3.9423491  0.085642931   -5.1682359    1.2258867   520603 
 1524000    1.0338198   -5.1680229   -5.1680229   -3.9435731   0.10831201   -5.1680229    1.2244499   520603 
 1525000    1.0342304   -5.1688989   -5.1688989   -3.9439628  0.075717994   -5.1688989    1.2249361   520603 
 1526000    1.0342249   -5.1693683   -5.1693683   -3.9444386  0.089810533   -5.1693683    1.2249296   520603 
 1527000    1.0347258   -5.1691878   -5.1691878   -3.9436649   0.10025477   -5.1691878    1.2255229   520603 
 1528000    1.0345392   -5.1680991   -5.1680991   -3.9427972  0.090984066   -5.1680991    1.2253019   520603 
 1529000    1.0355448   -5.1695605   -5.1695605   -3.9430676  0.094820008   -5.1695605    1.2264929   520603 
 1530000    1.0351446   -5.1697616   -5.1697616   -3.9437427  0.093960831   -5.1697616    1.2260189   520603 
 1531000    1.0341121   -5.1689052   -5.1689052   -3.9441091   0.11034942   -5.1689052     1.224796   520603 
 1532000    1.0344989   -5.1694487   -5.1694487   -3.9441945   0.07887033   -5.1694487    1.2252542   520603 
 1533000    1.0348404   -5.1703166   -5.1703166    -3.944658   0.10836927   -5.1703166    1.2256586   520603 
 1534000    1.0347246   -5.1704896   -5.1704896   -3.9449682  0.084661574   -5.1704896    1.2255214   520603 
 1535000    1.0324004   -5.1688048   -5.1688048   -3.9460362  0.067217208   -5.1688048    1.2227687   520603 
 1536000    1.0343003   -5.1712959   -5.1712959   -3.9462769  0.090571616   -5.1712959     1.225019   520603 
 1537000    1.0327993   -5.1698533   -5.1698533   -3.9466122  0.076535363   -5.1698533    1.2232412   520603 
 1538000    1.0339744   -5.1714505   -5.1714505   -3.9468176  0.084988532   -5.1714505    1.2246329   520603 
 1539000    1.0354256   -5.1732387   -5.1732387   -3.9468869  0.074724453   -5.1732387    1.2263518   520603 
 1540000    1.0342514   -5.1720313   -5.1720313   -3.9470702  0.075581399   -5.1720313     1.224961   520603 
 1541000    1.0330792   -5.1706079   -5.1706079   -3.9470352  0.076869435   -5.1706079    1.2235727   520603 
 1542000    1.0335657   -5.1716674   -5.1716674   -3.9475186    0.1041098   -5.1716674    1.2241488   520603 
 1543000    1.0328733   -5.1710967   -5.1710967   -3.9477679  0.076167191   -5.1710967    1.2233287   520603 
 1544000    1.0329931   -5.1719803   -5.1719803   -3.9485096  0.073578453   -5.1719803    1.2234707   520603 
 1545000    1.0334147   -5.1732763   -5.1732763   -3.9493063  0.072179023   -5.1732763      1.22397   520603 
 1546000    1.0325394   -5.1715055   -5.1715055   -3.9485722  0.083564011   -5.1715055    1.2229334   520603 
 1547000    1.0312565   -5.1693885   -5.1693885   -3.9479747  0.086409511   -5.1693885    1.2214138   520603 
 1548000    1.0315387   -5.1700878   -5.1700878   -3.9483397  0.054185605   -5.1700878    1.2217481   520603 
 1549000    1.0342182   -5.1734816   -5.1734816   -3.9485599  0.073116221   -5.1734816    1.2249217   520603 
 1550000     1.033405    -5.172842    -5.172842   -3.9488835  0.082671272    -5.172842    1.2239585   520603 
 1551000    1.0328899   -5.1730416   -5.1730416   -3.9496931  0.058592496   -5.1730416    1.2233485   520603 
 1552000    1.0332796   -5.1736571   -5.1736571    -3.949847  0.085769903   -5.1736571    1.2238101   520603 
 1553000    1.0337999    -5.174598    -5.174598   -3.9501717  0.078350238    -5.174598    1.2244263   520603 
 1554000    1.0326799   -5.1735052   -5.1735052   -3.9504054   0.09058929   -5.1735052    1.2230997   520603 
 1555000    1.0353267   -5.1757857   -5.1757857   -3.9495511  0.074978058   -5.1757857    1.2262346   520603 
 1556000    1.0342438   -5.1747587   -5.1747587   -3.9498067  0.097136598   -5.1747587     1.224952   520603 
 1557000    1.0316655   -5.1723572   -5.1723572    -3.950459  0.074742996   -5.1723572    1.2218982   520603 
 1558000    1.0337198     -5.17374     -5.17374   -3.9494086  0.075883315     -5.17374    1.2243314   520603 
 1559000    1.0315863   -5.1710204   -5.1710204   -3.9492159  0.067154457   -5.1710204    1.2218045   520603 
 1560000    1.0314706   -5.1725461   -5.1725461   -3.9508787  0.087751713   -5.1725461    1.2216675   520603 
 1561000    1.0328306   -5.1748594   -5.1748594   -3.9515812  0.076088592   -5.1748594    1.2232782   520603 
 1562000    1.0308675   -5.1722145   -5.1722145   -3.9512613  0.084548117   -5.1722145    1.2209532   520603 
 1563000    1.0330655   -5.1749865   -5.1749865   -3.9514301   0.08057236   -5.1749865    1.2235565   520603 
 1564000    1.0326473    -5.174453    -5.174453    -3.951392  0.074407475    -5.174453    1.2230611   520603 
 1565000    1.0332384   -5.1755064   -5.1755064   -3.9517451  0.071448006   -5.1755064    1.2237613   520603 
 1566000    1.0310403   -5.1727181   -5.1727181   -3.9515602  0.079395863   -5.1727181    1.2211578   520603 
 1567000    1.0317462   -5.1735999   -5.1735999    -3.951606  0.078347813   -5.1735999    1.2219939   520603 
 1568000    1.0318721   -5.1742324   -5.1742324   -3.9520894  0.082340739   -5.1742324    1.2221429   520603 
 1569000    1.0331393   -5.1764162   -5.1764162   -3.9527724  0.078888252   -5.1764162    1.2236438   520603 
 1570000    1.0329409   -5.1756859   -5.1756859    -3.952277  0.084865784   -5.1756859    1.2234088   520603 
 1571000    1.0322867   -5.1749513   -5.1749513   -3.9523174   0.10295911   -5.1749513     1.222634   520603 
 1572000     1.031845   -5.1740259   -5.1740259    -3.951915  0.086808369   -5.1740259    1.2221109   520603 
 1573000    1.0307266   -5.1739142   -5.1739142   -3.9531279  0.093043271   -5.1739142    1.2207862   520603 
 1574000    1.0333738   -5.1762494   -5.1762494   -3.9523278   0.10098962   -5.1762494    1.2239216   520603 
 1575000    1.0319124   -5.1744384   -5.1744384   -3.9522476  0.095274083   -5.1744384    1.2221907   520603 
 1576000    1.0309145   -5.1732761   -5.1732761   -3.9522673    0.1016072   -5.1732761    1.2210088   520603 
 1577000     1.032695    -5.175682    -5.175682   -3.9525643  0.057128346    -5.175682    1.2231177   520603 
 1578000    1.0323309   -5.1753885   -5.1753885   -3.9527021  0.077828181   -5.1753885    1.2226864   520603 
 1579000     1.032418    -5.174744    -5.174744   -3.9519545  0.079209147    -5.174744    1.2227896   520603 
 1580000    1.0331893   -5.1756412   -5.1756412   -3.9519381  0.094926422   -5.1756412    1.2237031   520603 
 1581000    1.0328798   -5.1764379   -5.1764379   -3.9531014  0.081000329   -5.1764379    1.2233365   520603 
 1582000     1.031421   -5.1740231   -5.1740231   -3.9524144  0.082413321   -5.1740231    1.2216087   520603 
 1583000    1.0320435   -5.1733134   -5.1733134   -3.9509673  0.095405362   -5.1733134     1.222346   520603 
 1584000    1.0326684   -5.1747353   -5.1747353   -3.9516492  0.083715052   -5.1747353    1.2230861   520603 
 1585000     1.031115   -5.1734022   -5.1734022   -3.9521559   0.10959014   -5.1734022    1.2212463   520603 
 1586000     1.031977   -5.1753971   -5.1753971     -3.95313  0.081359808   -5.1753971    1.2222672   520603 
 1587000    1.0326751   -5.1755566   -5.1755566   -3.9524625  0.080507583   -5.1755566    1.2230941   520603 
 1588000     1.031646    -5.175637    -5.175637   -3.9537618  0.087787961    -5.175637    1.2218752   520603 
 1589000    1.0316405    -5.174982    -5.174982   -3.9531133  0.079412899    -5.174982    1.2218687   520603 
 1590000    1.0306064   -5.1746364   -5.1746364   -3.9539925  0.075156123   -5.1746364    1.2206439   520603 
 1591000    1.0286702   -5.1734744   -5.1734744   -3.9551238  0.088631467   -5.1734744    1.2183507   520603 
 1592000    1.0326685   -5.1777824   -5.1777824   -3.9546961  0.065308919   -5.1777824    1.2230862   520603 
 1593000    1.0297994   -5.1740242   -5.1740242   -3.9543361  0.053056217   -5.1740242     1.219688   520603 
 1594000    1.0311793   -5.1754265   -5.1754265   -3.9541041  0.084665286   -5.1754265    1.2213224   520603 
 1595000    1.0324104   -5.1772135   -5.1772135    -3.954433  0.087649282   -5.1772135    1.2227805   520603 
 1596000    1.0317626   -5.1771045   -5.1771045   -3.9550912  0.074161007   -5.1771045    1.2220133   520603 
 1597000    1.0321177   -5.1777457   -5.1777457   -3.9553118  0.065211701   -5.1777457    1.2224339   520603 
 1598000    1.0318265   -5.1783235   -5.1783235   -3.9562346  0.080758955   -5.1783235     1.222089   520603 
 1599000    1.0307142   -5.1766943   -5.1766943   -3.9559228  0.074657518   -5.1766943    1.2207715   520603 
 1600000    1.0324471   -5.1800592   -5.1800592   -3.9572352  0.080727159   -5.1800592     1.222824   520603 
 1601000    1.0309849   -5.1784185   -5.1784185   -3.9573263  0.083939091   -5.1784185    1.2210922   520603 
 1602000     1.032207   -5.1790719   -5.1790719   -3.9565323  0.071897906   -5.1790719    1.2225396   520603 
 1603000     1.031827   -5.1793793   -5.1793793   -3.9572897  0.092637005   -5.1793793    1.2220895   520603 
 1604000     1.031069   -5.1784725   -5.1784725   -3.9572806  0.089640304   -5.1784725    1.2211918   520603 
 1605000    1.0314505   -5.1788613   -5.1788613   -3.9572176  0.075490105   -5.1788613    1.2216437   520603 
 1606000    1.0315923   -5.1789117   -5.1789117      -3.9571  0.076296115   -5.1789117    1.2218116   520603 
 1607000     1.032835    -5.180355    -5.180355   -3.9570716  0.080917037    -5.180355    1.2232834   520603 
 1608000    1.0322578   -5.1804385   -5.1804385   -3.9578387  0.075566659   -5.1804385    1.2225998   520603 
 1609000    1.0305755   -5.1788484   -5.1788484   -3.9582411  0.080325139   -5.1788484    1.2206073   520603 
 1610000    1.0324376   -5.1809928   -5.1809928   -3.9581801  0.082906022   -5.1809928    1.2228127   520603 
 1611000    1.0319933   -5.1799658   -5.1799658   -3.9576793  0.086968135   -5.1799658    1.2222866   520603 
 1612000    1.0320813   -5.1799266   -5.1799266   -3.9575359  0.076463051   -5.1799266    1.2223907   520603 
 1613000    1.0316582   -5.1787953   -5.1787953   -3.9569057  0.062899752   -5.1787953    1.2218896   520603 
 1614000     1.031338   -5.1791828   -5.1791828   -3.9576724  0.094553289   -5.1791828    1.2215104   520603 
 1615000    1.0314372   -5.1793197   -5.1793197   -3.9576919  0.084309471   -5.1793197    1.2216279   520603 
 1616000    1.0316179   -5.1795912   -5.1795912   -3.9577493  0.087539903   -5.1795912    1.2218419   520603 
 1617000    1.0312434   -5.1796166   -5.1796166   -3.9582182  0.078656721   -5.1796166    1.2213983   520603 
 1618000    1.0315466   -5.1803554   -5.1803554    -3.958598   0.10297782   -5.1803554    1.2217575   520603 
 1619000    1.0310734   -5.1794007   -5.1794007   -3.9582037   0.09435276   -5.1794007     1.221197   520603 
 1620000    1.0325422   -5.1808631   -5.1808631   -3.9579264  0.064872014   -5.1808631    1.2229367   520603 
 1621000    1.0336799   -5.1822283   -5.1822283   -3.9579442  0.079328671   -5.1822283    1.2242841   520603 
 1622000    1.0306211   -5.1780665   -5.1780665   -3.9574052  0.087081664   -5.1780665    1.2206613   520603 
 1623000     1.031028   -5.1788653   -5.1788653    -3.957722    0.0776568   -5.1788653    1.2211432   520603 
 1624000    1.0315433   -5.1783233   -5.1783233   -3.9565698  0.070545608   -5.1783233    1.2217536   520603 
 1625000    1.0297438   -5.1766985   -5.1766985   -3.9570763  0.066677571   -5.1766985    1.2196222   520603 
 1626000     1.031946   -5.1794857   -5.1794857   -3.9572552  0.079337213   -5.1794857    1.2222305   520603 
 1627000    1.0315259   -5.1799721   -5.1799721   -3.9582391  0.066987065   -5.1799721    1.2217329   520603 
 1628000    1.0322177   -5.1797583   -5.1797583   -3.9572061  0.091070357   -5.1797583    1.2225523   520603 
 1629000    1.0331008   -5.1809206   -5.1809206   -3.9573224  0.080385903   -5.1809206    1.2235982   520603 
 1630000    1.0340269   -5.1832892   -5.1832892   -3.9585941  0.087997973   -5.1832892    1.2246951   520603 
 1631000    1.0322106   -5.1814774   -5.1814774   -3.9589335  0.075341987   -5.1814774    1.2225439   520603 
 1632000    1.0332593   -5.1840475   -5.1840475   -3.9602616  0.087213286   -5.1840475    1.2237859   520603 
 1633000    1.0319251   -5.1819356   -5.1819356   -3.9597298  0.092580535   -5.1819356    1.2222057   520603 
 1634000    1.0331067   -5.1838902   -5.1838902   -3.9602849  0.085242519   -5.1838902    1.2236053   520603 
 1635000    1.0348846   -5.1865669   -5.1865669   -3.9608559  0.097871655   -5.1865669     1.225711   520603 
 1636000    1.0329042   -5.1851567   -5.1851567   -3.9617913  0.077452092   -5.1851567    1.2233654   520603 
 1637000    1.0322901    -5.183475    -5.183475   -3.9608369   0.10520499    -5.183475    1.2226381   520603 
 1638000    1.0323582   -5.1841494   -5.1841494   -3.9614306  0.080328757   -5.1841494    1.2227187   520603 
 1639000     1.031834   -5.1840157   -5.1840157   -3.9619178  0.083656214   -5.1840157    1.2220979   520603 
 1640000    1.0311672   -5.1834766   -5.1834766   -3.9621686  0.076131268   -5.1834766    1.2213081   520603 
 1641000    1.0310357   -5.1832349   -5.1832349   -3.9620826  0.079258073   -5.1832349    1.2211524   520603 
 1642000    1.0318989   -5.1836213   -5.1836213   -3.9614466  0.069584678   -5.1836213    1.2221747   520603 
 1643000    1.0318439   -5.1830487   -5.1830487   -3.9609391  0.076772969   -5.1830487    1.2221096   520603 
 1644000      1.03109   -5.1817455   -5.1817455   -3.9605288   0.07804289   -5.1817455    1.2212166   520603 
 1645000     1.030785   -5.1812763   -5.1812763   -3.9604208  0.077538414   -5.1812763    1.2208555   520603 
 1646000    1.0318083   -5.1820757   -5.1820757   -3.9600083  0.085889008   -5.1820757    1.2220674   520603 
 1647000    1.0331687   -5.1843368   -5.1843368   -3.9606581  0.067587115   -5.1843368    1.2236787   520603 
 1648000     1.033971   -5.1848184   -5.1848184   -3.9601895  0.068899694   -5.1848184    1.2246289   520603 
 1649000    1.0334968    -5.183457    -5.183457   -3.9593897   0.10425211    -5.183457    1.2240672   520603 
 1650000    1.0341646   -5.1842058   -5.1842058   -3.9593476  0.089985887   -5.1842058    1.2248582   520603 
 1651000    1.0326918   -5.1837576   -5.1837576   -3.9606438  0.079185795   -5.1837576    1.2231138   520603 
 1652000    1.0319426   -5.1830865   -5.1830865   -3.9608599  0.063480147   -5.1830865    1.2222265   520603 
 1653000    1.0308982   -5.1823336   -5.1823336   -3.9613441  0.062151769   -5.1823336    1.2209895   520603 
 1654000    1.0317372   -5.1828736   -5.1828736   -3.9608904  0.072367038   -5.1828736    1.2219832   520603 
 1655000    1.0328353   -5.1842051   -5.1842051   -3.9609213  0.074168093   -5.1842051    1.2232837   520603 
 1656000    1.0294444   -5.1799281   -5.1799281   -3.9606605  0.077467852   -5.1799281    1.2192676   520603 
 1657000    1.0328887   -5.1840199   -5.1840199   -3.9606728  0.086552087   -5.1840199    1.2233471   520603 
 1658000    1.0318776   -5.1822475   -5.1822475    -3.960098  0.081875714   -5.1822475    1.2221495   520603 
 1659000    1.0310958    -5.181481    -5.181481   -3.9602575  0.083100964    -5.181481    1.2212235   520603 
 1660000    1.0346499   -5.1851392   -5.1851392   -3.9597062  0.090222442   -5.1851392     1.225433   520603 
 1661000    1.0341082   -5.1845699   -5.1845699   -3.9597784  0.084792791   -5.1845699    1.2247915   520603 
 1662000    1.0331646   -5.1840119   -5.1840119    -3.960338  0.052832428   -5.1840119    1.2236739   520603 
 1663000    1.0316243    -5.182852    -5.182852   -3.9610025  0.080077775    -5.182852    1.2218495   520603 
 1664000    1.0333886   -5.1831696   -5.1831696   -3.9592305  0.063089713   -5.1831696    1.2239391   520603 
 1665000    1.0313776   -5.1812385   -5.1812385   -3.9596812  0.094462749   -5.1812385    1.2215573   520603 
 1666000    1.0314403   -5.1820812   -5.1820812   -3.9604497  0.077919065   -5.1820812    1.2216315   520603 
 1667000     1.031106   -5.1813568   -5.1813568   -3.9601212   0.10195607   -5.1813568    1.2212356   520603 
 1668000    1.0321761   -5.1833627   -5.1833627   -3.9608597  0.080622569   -5.1833627     1.222503   520603 
 1669000    1.0324738   -5.1840716   -5.1840716    -3.961216  0.083374315   -5.1840716    1.2228557   520603 
 1670000     1.031759   -5.1832032   -5.1832032   -3.9611941  0.068202618   -5.1832032    1.2220091   520603 
 1671000    1.0334989   -5.1845869   -5.1845869   -3.9605172  0.063401057   -5.1845869    1.2240697   520603 
 1672000    1.0314204    -5.182376    -5.182376    -3.960768  0.084125877    -5.182376     1.221608   520603 
 1673000    1.0303149   -5.1814091   -5.1814091   -3.9611104  0.087148223   -5.1814091    1.2202987   520603 
 1674000    1.0311157   -5.1833944   -5.1833944   -3.9621473  0.089461035   -5.1833944    1.2212471   520603 
 1675000    1.0325047   -5.1839296   -5.1839296   -3.9610375  0.087930282   -5.1839296    1.2228922   520603 
 1676000    1.0322508   -5.1839487   -5.1839487   -3.9613572  0.075860837   -5.1839487    1.2225915   520603 
 1677000    1.0314105   -5.1833631   -5.1833631   -3.9617669  0.083479551   -5.1833631    1.2215962   520603 
 1678000     1.030859   -5.1826726   -5.1826726   -3.9617296  0.081069438   -5.1826726    1.2209431   520603 
 1679000     1.031508    -5.183826    -5.183826   -3.9621143  0.079178468    -5.183826    1.2217117   520603 
 1680000    1.0313509   -5.1841857   -5.1841857     -3.96266  0.083220321   -5.1841857    1.2215257   520603 
 1681000    1.0325857   -5.1842973   -5.1842973   -3.9613091  0.089875559   -5.1842973    1.2229882   520603 
 1682000    1.0315306   -5.1839711   -5.1839711   -3.9622326  0.075141532   -5.1839711    1.2217385   520603 
 1683000    1.0313425   -5.1836735   -5.1836735   -3.9621578  0.083044848   -5.1836735    1.2215157   520603 
 1684000    1.0315529   -5.1848931   -5.1848931   -3.9631282  0.084991212   -5.1848931    1.2217649   520603 
 1685000    1.0303405   -5.1837505   -5.1837505   -3.9634215  0.068349116   -5.1837505     1.220329   520603 
 1686000    1.0315091   -5.1849383   -5.1849383   -3.9632253  0.085867958   -5.1849383     1.221713   520603 
 1687000    1.0303403   -5.1847383   -5.1847383   -3.9644096  0.091332897   -5.1847383    1.2203287   520603 
 1688000    1.0320445   -5.1874042   -5.1874042    -3.965057  0.073413605   -5.1874042    1.2223472   520603 
 1689000    1.0321399   -5.1873091   -5.1873091   -3.9648489  0.086826208   -5.1873091    1.2224602   520603 
 1690000    1.0334016   -5.1898068   -5.1898068   -3.9658523  0.081078137   -5.1898068    1.2239545   520603 
 1691000    1.0315591     -5.18781     -5.18781   -3.9660377  0.082572264     -5.18781    1.2217723   520603 
 1692000    1.0301586    -5.185711    -5.185711   -3.9655975  0.086035563    -5.185711    1.2201135   520603 
 1693000     1.031196   -5.1870088   -5.1870088   -3.9656666  0.092645485   -5.1870088    1.2213423   520603 
 1694000    1.0328133   -5.1885272   -5.1885272   -3.9652695   0.10247222   -5.1885272    1.2232577   520603 
 1695000    1.0329572   -5.1889984   -5.1889984   -3.9655703  0.087391985   -5.1889984    1.2234282   520603 
 1696000    1.0308204    -5.186943    -5.186943   -3.9660457  0.083091529    -5.186943    1.2208973   520603 
 1697000    1.0321619   -5.1884303   -5.1884303   -3.9659442   0.10513093   -5.1884303    1.2224862   520603 
 1698000    1.0302753   -5.1863392   -5.1863392   -3.9660875   0.08668711   -5.1863392    1.2202517   520603 
 1699000    1.0282405   -5.1848261   -5.1848261   -3.9669843    0.1012076   -5.1848261    1.2178418   520603 
 1700000    1.0309256   -5.1883647   -5.1883647   -3.9673427   0.09297781   -5.1883647    1.2210219   520603 
 1701000    1.0321673    -5.189855    -5.189855   -3.9673624   0.10128816    -5.189855    1.2224926   520603 
 1702000    1.0307864   -5.1883967   -5.1883967   -3.9675396  0.086718826   -5.1883967    1.2208571   520603 
 1703000    1.0310717   -5.1900368   -5.1900368   -3.9688419   0.08295501   -5.1900368    1.2211949   520603 
 1704000    1.0307523   -5.1890429   -5.1890429   -3.9682262  0.084587937   -5.1890429    1.2208167   520603 
 1705000    1.0306183   -5.1894582   -5.1894582   -3.9688002   0.06965552   -5.1894582     1.220658   520603 
 1706000    1.0306157   -5.1897566   -5.1897566   -3.9691017  0.092114264   -5.1897566    1.2206549   520603 
 1707000     1.030528   -5.1895385   -5.1895385   -3.9689875  0.065696684   -5.1895385     1.220551   520603 
 1708000    1.0303103   -5.1894217   -5.1894217   -3.9691285  0.077677374   -5.1894217    1.2202932   520603 
 1709000    1.0308208   -5.1901419   -5.1901419   -3.9692441  0.081451708   -5.1901419    1.2208978   520603 
 1710000     1.029281   -5.1879422   -5.1879422    -3.968868  0.070672445   -5.1879422    1.2190742   520603 
 1711000    1.0297846   -5.1884757   -5.1884757   -3.9688051  0.088221337   -5.1884757    1.2196706   520603 
 1712000     1.031228   -5.1912834   -5.1912834   -3.9699033  0.058316664   -5.1912834    1.2213801   520603 
 1713000    1.0314381   -5.1910845   -5.1910845   -3.9694555  0.057598742   -5.1910845     1.221629   520603 
 1714000     1.029973    -5.189228    -5.189228   -3.9693343  0.076619281    -5.189228    1.2198937   520603 
 1715000    1.0306351   -5.1891533   -5.1891533   -3.9684754  0.079278645   -5.1891533    1.2206779   520603 
 1716000    1.0297849   -5.1895755   -5.1895755   -3.9699046  0.083690076   -5.1895755    1.2196709   520603 
 1717000    1.0308403   -5.1905926   -5.1905926   -3.9696717  0.087595826   -5.1905926    1.2209209   520603 
 1718000    1.0298188   -5.1888568   -5.1888568   -3.9691458  0.084319565   -5.1888568    1.2197111   520603 
 1719000    1.0321399    -5.191773    -5.191773   -3.9693128  0.062662134    -5.191773    1.2224602   520603 
 1720000    1.0313056   -5.1914861   -5.1914861    -3.970014   0.11105504   -5.1914861     1.221472   520603 
 1721000    1.0315026   -5.1915321   -5.1915321   -3.9698267  0.086406106   -5.1915321    1.2217053   520603 
 1722000    1.0318572   -5.1918701   -5.1918701   -3.9697448  0.075547794   -5.1918701    1.2221253   520603 
 1723000    1.0314182   -5.1924704   -5.1924704    -3.970865  0.072084967   -5.1924704    1.2216054   520603 
 1724000    1.0314871   -5.1930567   -5.1930567   -3.9713697  0.063871598   -5.1930567     1.221687   520603 
 1725000    1.0299481    -5.191159    -5.191159   -3.9712948  0.060737729    -5.191159    1.2198642   520603 
 1726000    1.0289708   -5.1900364   -5.1900364   -3.9713297  0.090156373   -5.1900364    1.2187067   520603 
 1727000    1.0295763   -5.1906561   -5.1906561   -3.9712322  0.082095398   -5.1906561    1.2194239   520603 
 1728000    1.0301487   -5.1910795   -5.1910795   -3.9709777  0.080654442   -5.1910795    1.2201018   520603 
 1729000    1.0299623   -5.1905553   -5.1905553   -3.9706742   0.08382395   -5.1905553    1.2198811   520603 
 1730000    1.0298669   -5.1901342   -5.1901342   -3.9703662  0.078297335   -5.1901342     1.219768   520603 
 1731000    1.0307269   -5.1912729   -5.1912729   -3.9704863  0.089389975   -5.1912729    1.2207866   520603 
 1732000     1.030418   -5.1908856   -5.1908856   -3.9704649  0.084570089   -5.1908856    1.2204207   520603 
 1733000    1.0323345   -5.1939956   -5.1939956   -3.9713049  0.071631873   -5.1939956    1.2226907   520603 
 1734000    1.0311172    -5.192542    -5.192542   -3.9712931  0.068442203    -5.192542    1.2212489   520603 
 1735000    1.0315922   -5.1934734   -5.1934734   -3.9716619  0.085595634   -5.1934734    1.2218115   520603 
 1736000    1.0316717   -5.1935066   -5.1935066    -3.971601  0.081437893   -5.1935066    1.2219056   520603 
 1737000    1.0309262   -5.1931547   -5.1931547   -3.9721321  0.074189387   -5.1931547    1.2210226   520603 
 1738000    1.0324096   -5.1943071   -5.1943071   -3.9715274  0.088348536   -5.1943071    1.2227796   520603 
 1739000     1.031638   -5.1927509   -5.1927509   -3.9708852   0.10701125   -5.1927509    1.2218657   520603 
 1740000    1.0294227   -5.1907967   -5.1907967   -3.9715547   0.09363535   -5.1907967     1.219242   520603 
 1741000    1.0311673   -5.1931113   -5.1931113   -3.9718031  0.086027951   -5.1931113    1.2213082   520603 
 1742000    1.0296827   -5.1920635   -5.1920635   -3.9725136  0.092195153   -5.1920635    1.2195499   520603 
 1743000    1.0306022   -5.1933574   -5.1933574   -3.9727185   0.10811355   -5.1933574    1.2206389   520603 
 1744000    1.0293993   -5.1934476   -5.1934476   -3.9742334  0.068171274   -5.1934476    1.2192142   520603 
 1745000     1.029976    -5.194363    -5.194363   -3.9744658  0.078373665    -5.194363    1.2198972   520603 
 1746000     1.028569   -5.1922811   -5.1922811   -3.9740502  0.082093536   -5.1922811    1.2182309   520603 
 1747000     1.029536   -5.1930442   -5.1930442   -3.9736681  0.093016838   -5.1930442    1.2193761   520603 
 1748000    1.0288356   -5.1929464   -5.1929464   -3.9743999  0.081616048   -5.1929464    1.2185466   520603 
 1749000     1.029953   -5.1948508   -5.1948508   -3.9749808   0.10301535   -5.1948508      1.21987   520603 
 1750000    1.0290811   -5.1936131   -5.1936131   -3.9747758  0.082659003   -5.1936131    1.2188373   520603 
 1751000    1.0296732   -5.1944342   -5.1944342   -3.9748956  0.080444195   -5.1944342    1.2195386   520603 
 1752000    1.0305652   -5.1943305   -5.1943305   -3.9737354  0.083757482   -5.1943305    1.2205951   520603 
 1753000    1.0311489   -5.1951202   -5.1951202   -3.9738338  0.070591454   -5.1951202    1.2212864   520603 
 1754000    1.0312344   -5.1954881   -5.1954881   -3.9741003  0.072141092   -5.1954881    1.2213878   520603 
 1755000    1.0304337   -5.1940507   -5.1940507   -3.9736113    0.0874382   -5.1940507    1.2204394   520603 
 1756000    1.0301623   -5.1944304   -5.1944304   -3.9743125   0.10138868   -5.1944304     1.220118   520603 
 1757000    1.0291358   -5.1939196   -5.1939196   -3.9750174  0.059881254   -5.1939196    1.2189022   520603 
 1758000    1.0290185   -5.1926558   -5.1926558   -3.9738926  0.071776245   -5.1926558    1.2187632   520603 
 1759000    1.0287612   -5.1923305   -5.1923305   -3.9738721  0.078195507   -5.1923305    1.2184584   520603 
 1760000    1.0290634   -5.1928989   -5.1928989   -3.9740825  0.065598683   -5.1928989    1.2188163   520603 
 1761000    1.0305743    -5.194817    -5.194817   -3.9742112  0.077761594    -5.194817    1.2206059   520603 
 1762000    1.0295884   -5.1934033   -5.1934033   -3.9739651  0.084314464   -5.1934033    1.2194382   520603 
 1763000    1.0285824   -5.1922706   -5.1922706   -3.9740239  0.080314751   -5.1922706    1.2182467   520603 
 1764000    1.0301928   -5.1944053   -5.1944053   -3.9742513  0.090784467   -5.1944053     1.220154   520603 
 1765000    1.0312978   -5.1951484   -5.1951484   -3.9736856  0.083527973   -5.1951484    1.2214628   520603 
 1766000    1.0306035   -5.1937445   -5.1937445    -3.973104  0.075668597   -5.1937445    1.2206405   520603 
 1767000    1.0278127   -5.1909335   -5.1909335   -3.9735984   0.09416264   -5.1909335    1.2173351   520603 
 1768000    1.0298487   -5.1933285   -5.1933285    -3.973582   0.08569887   -5.1933285    1.2197465   520603 
 1769000    1.0297376   -5.1936042   -5.1936042   -3.9739894  0.091528152   -5.1936042    1.2196149   520603 
 1770000    1.0280914   -5.1909203   -5.1909203   -3.9732551  0.065729704   -5.1909203    1.2176652   520603 
 1771000    1.0284442   -5.1920822   -5.1920822   -3.9739992  0.063855771   -5.1920822     1.218083   520603 
 1772000    1.0296903   -5.1940301   -5.1940301   -3.9744713  0.073710822   -5.1940301    1.2195589   520603 
 1773000    1.0295274   -5.1944124   -5.1944124   -3.9750464  0.076004979   -5.1944124     1.219366   520603 
 1774000    1.0302004    -5.195059    -5.195059   -3.9748959  0.084263688    -5.195059    1.2201631   520603 
 1775000    1.0292529   -5.1941044   -5.1941044   -3.9750637  0.086692378   -5.1941044    1.2190408   520603 
 1776000    1.0293666   -5.1952543   -5.1952543   -3.9760787  0.081974987   -5.1952543    1.2191755   520603 
 1777000    1.0290305   -5.1956328   -5.1956328   -3.9768554  0.074834315   -5.1956328    1.2187774   520603 
 1778000    1.0295056    -5.196277    -5.196277   -3.9769368  0.075738356    -5.196277    1.2193402   520603 
 1779000    1.0292916    -5.195222    -5.195222   -3.9761353  0.087426262    -5.195222    1.2190866   520603 
 1780000    1.0289012   -5.1944769   -5.1944769   -3.9758526  0.095332626   -5.1944769    1.2186242   520603 
 1781000    1.0288516   -5.1949316   -5.1949316    -3.976366  0.087920036   -5.1949316    1.2185655   520603 
 1782000    1.0308713   -5.1967723   -5.1967723   -3.9758146  0.066204518   -5.1967723    1.2209577   520603 
 1783000    1.0291937   -5.1951331   -5.1951331   -3.9761624  0.063661408   -5.1951331    1.2189707   520603 
 1784000    1.0312429   -5.1977005   -5.1977005   -3.9763028  0.077534048   -5.1977005    1.2213977   520603 
 1785000    1.0288936   -5.1962067   -5.1962067   -3.9775914  0.089465962   -5.1962067    1.2186152   520603 
 1786000    1.0292722   -5.1959161   -5.1959161   -3.9768524  0.082176138   -5.1959161    1.2190637   520603 
 1787000    1.0298295   -5.1960507   -5.1960507   -3.9763269  0.086991948   -5.1960507    1.2197238   520603 
 1788000    1.0309536   -5.1981903   -5.1981903   -3.9771351  0.067061985   -5.1981903    1.2210552   520603 
 1789000    1.0295526   -5.1970345   -5.1970345   -3.9776387  0.080208663   -5.1970345    1.2193958   520603 
 1790000    1.0312295   -5.1995208   -5.1995208   -3.9781389  0.083806449   -5.1995208    1.2213819   520603 
 1791000    1.0289805   -5.1974704   -5.1974704   -3.9787523  0.081638268   -5.1974704    1.2187182   520603 
 1792000     1.030321   -5.1984912   -5.1984912   -3.9781854   0.06778412   -5.1984912    1.2203059   520603 
 1793000    1.0274105   -5.1954304   -5.1954304   -3.9785717  0.076070494   -5.1954304    1.2168586   520603 
 1794000    1.0305223   -5.1980122   -5.1980122   -3.9774679  0.082591854   -5.1980122    1.2205443   520603 
 1795000     1.029837   -5.1979584   -5.1979584   -3.9782257  0.080463748   -5.1979584    1.2197327   520603 
 1796000    1.0291439   -5.1976166   -5.1976166   -3.9787049  0.079520987   -5.1976166    1.2189117   520603 
 1797000    1.0295843   -5.1982022   -5.1982022   -3.9787689  0.058096013   -5.1982022    1.2194333   520603 
 1798000    1.0288742   -5.1984747   -5.1984747   -3.9798824  0.082626721   -5.1984747    1.2185923   520603 
 1799000     1.030054    -5.199598    -5.199598   -3.9796084  0.072177168    -5.199598    1.2199896   520603 
 1800000    1.0283654    -5.198931    -5.198931   -3.9809413  0.047988739    -5.198931    1.2179897   520603 
 1801000    1.0279534   -5.1984455   -5.1984455   -3.9809438  0.081985791   -5.1984455    1.2175017   520603 
 1802000     1.027983   -5.1972459   -5.1972459   -3.9797091  0.076158111   -5.1972459    1.2175368   520603 
 1803000    1.0281883   -5.1984655   -5.1984655   -3.9806856  0.065583812   -5.1984655    1.2177799   520603 
 1804000    1.0291927   -5.1984603   -5.1984603   -3.9794907  0.091188323   -5.1984603    1.2189696   520603 
 1805000    1.0298531   -5.1996897   -5.1996897    -3.979938   0.10020873   -5.1996897    1.2197517   520603 
 1806000    1.0323906   -5.2024616   -5.2024616   -3.9797045   0.08846177   -5.2024616    1.2227571   520603 
 1807000    1.0308253   -5.2001677   -5.2001677   -3.9792646  0.088140779   -5.2001677    1.2209032   520603 
 1808000    1.0313697   -5.2021933   -5.2021933   -3.9806454  0.076552553   -5.2021933     1.221548   520603 
 1809000    1.0304144   -5.2008528   -5.2008528   -3.9804363  0.076540452   -5.2008528    1.2204165   520603 
 1810000    1.0321631   -5.2028144   -5.2028144   -3.9803268  0.085805237   -5.2028144    1.2224876   520603 
 1811000    1.0304854   -5.2009851   -5.2009851   -3.9804845   0.10143931   -5.2009851    1.2205006   520603 
 1812000    1.0312377   -5.2012479   -5.2012479   -3.9798562  0.082930271   -5.2012479    1.2213916   520603 
 1813000     1.029758   -5.1988284   -5.1988284   -3.9791894  0.079921709   -5.1988284     1.219639   520603 
 1814000    1.0291507   -5.2001561   -5.2001561   -3.9812363  0.081295481   -5.2001561    1.2189198   520603 
 1815000    1.0290679   -5.2000344   -5.2000344   -3.9812126  0.074854011   -5.2000344    1.2188217   520603 
 1816000    1.0314541   -5.2014589   -5.2014589   -3.9798109  0.069245522   -5.2014589    1.2216479   520603 
 1817000    1.0301383   -5.2000452   -5.2000452   -3.9799558  0.065680287   -5.2000452    1.2200895   520603 
 1818000    1.0310612   -5.2007145   -5.2007145   -3.9795319  0.091591598   -5.2007145    1.2211825   520603 
 1819000    1.0310756   -5.2009662   -5.2009662   -3.9797665  0.090853523   -5.2009662    1.2211996   520603 
 1820000    1.0300517   -5.2011681   -5.2011681   -3.9811812  0.087485894   -5.2011681     1.219987   520603 
 1821000    1.0300602   -5.2005694   -5.2005694   -3.9805724  0.072036575   -5.2005694     1.219997   520603 
 1822000    1.0303239   -5.2015771   -5.2015771   -3.9812678  0.059531948   -5.2015771    1.2203093   520603 
 1823000    1.0307445   -5.2009149   -5.2009149   -3.9801074  0.095499229   -5.2009149    1.2208074   520603 
 1824000    1.0307686   -5.2019467   -5.2019467   -3.9811107  0.070836486   -5.2019467     1.220836   520603 
 1825000    1.0300675    -5.200643    -5.200643   -3.9806374  0.069400994    -5.200643    1.2200056   520603 
 1826000      1.03096   -5.2012263   -5.2012263   -3.9801636  0.098791959   -5.2012263    1.2210627   520603 
 1827000    1.0309537   -5.2016601   -5.2016601   -3.9806049    0.1065732   -5.2016601    1.2210552   520603 
 1828000      1.02925   -5.1998628   -5.1998628   -3.9808255  0.065939195   -5.1998628    1.2190374   520603 
 1829000    1.0309271   -5.2022756   -5.2022756   -3.9812519  0.065419829   -5.2022756    1.2210237   520603 
 1830000    1.0299046   -5.2014804   -5.2014804   -3.9816678  0.080278979   -5.2014804    1.2198126   520603 
 1831000     1.028577   -5.1989183   -5.1989183    -3.980678  0.081375138   -5.1989183    1.2182403   520603 
 1832000    1.0313042   -5.2015301   -5.2015301   -3.9800598  0.076943463   -5.2015301    1.2214703   520603 
 1833000    1.0307499   -5.2008103   -5.2008103   -3.9799964  0.083732213   -5.2008103    1.2208139   520603 
 1834000     1.030948   -5.2012454   -5.2012454    -3.980197  0.062588283   -5.2012454    1.2210484   520603 
 1835000    1.0304104    -5.200244    -5.200244   -3.9798323  0.080931245    -5.200244    1.2204118   520603 
 1836000    1.0300206   -5.2013269   -5.2013269   -3.9813768  0.081772042   -5.2013269    1.2199501   520603 
 1837000    1.0302934   -5.2012016   -5.2012016   -3.9809284  0.083565112   -5.2012016    1.2202732   520603 
 1838000    1.0297484   -5.2006873   -5.2006873   -3.9810595  0.075355985   -5.2006873    1.2196277   520603 
 1839000    1.0301873   -5.1997754   -5.1997754   -3.9796279  0.077725846   -5.1997754    1.2201475   520603 
 1840000    1.0303662   -5.1993712   -5.1993712   -3.9790119  0.082212717   -5.1993712    1.2203594   520603 
 1841000    1.0290249   -5.1996742   -5.1996742   -3.9809033  0.061505853   -5.1996742    1.2187708   520603 
 1842000    1.0312247   -5.2021917   -5.2021917   -3.9808155  0.088819962   -5.2021917    1.2213762   520603 
 1843000    1.0318901   -5.2025539   -5.2025539   -3.9803897  0.095541815   -5.2025539    1.2221643   520603 
 1844000    1.0296104    -5.200887    -5.200887   -3.9814228  0.078400625    -5.200887    1.2194642   520603 
 1845000    1.0295459   -5.2006558   -5.2006558   -3.9812679  0.074906144   -5.2006558    1.2193879   520603 
 1846000    1.0313721   -5.2034422   -5.2034422   -3.9818913  0.081744206   -5.2034422    1.2215508   520603 
 1847000    1.0292387   -5.2004685   -5.2004685   -3.9814445  0.092246412   -5.2004685     1.219024   520603 
 1848000    1.0312775   -5.2037063   -5.2037063   -3.9822675  0.071809768   -5.2037063    1.2214387   520603 
 1849000    1.0308523   -5.2041445   -5.2041445   -3.9832094  0.088134937   -5.2041445    1.2209351   520603 
 1850000    1.0308458   -5.2042432   -5.2042432   -3.9833158  0.089614972   -5.2042432    1.2209274   520603 
 1851000    1.0307421   -5.2046339   -5.2046339   -3.9838294  0.075566951   -5.2046339    1.2208046   520603 
 1852000    1.0301441   -5.2037737   -5.2037737   -3.9836774   0.07102639   -5.2037737    1.2200964   520603 
 1853000    1.0300762   -5.2048418   -5.2048418   -3.9848259  0.074655322   -5.2048418    1.2200159   520603 
 1854000    1.0284157   -5.2027257   -5.2027257   -3.9846764  0.087775776   -5.2027257    1.2180493   520603 
 1855000    1.0304398   -5.2052688   -5.2052688   -3.9848222  0.091457471   -5.2052688    1.2204466   520603 
 1856000    1.0298636   -5.2040225   -5.2040225   -3.9842584  0.068866918   -5.2040225    1.2197642   520603 
 1857000    1.0308014   -5.2050506   -5.2050506   -3.9841758  0.061997473   -5.2050506    1.2208748   520603 
 1858000    1.0312106   -5.2054631   -5.2054631   -3.9841035  0.071795999   -5.2054631    1.2213595   520603 
 1859000    1.0300331   -5.2038856   -5.2038856   -3.9839207  0.078656534   -5.2038856    1.2199649   520603 
 1860000     1.031833   -5.2063742   -5.2063742   -3.9842776  0.086328023   -5.2063742    1.2220967   520603 
 1861000    1.0308156   -5.2044342   -5.2044342   -3.9835425  0.079033052   -5.2044342    1.2208917   520603 
 1862000    1.0289607   -5.2031254   -5.2031254   -3.9844306  0.080218659   -5.2031254    1.2186948   520603 
 1863000    1.0315132   -5.2061952   -5.2061952   -3.9844773  0.083374122   -5.2061952    1.2217179   520603 
 1864000    1.0301312   -5.2055732   -5.2055732   -3.9854921  0.081547708   -5.2055732    1.2200811   520603 
 1865000    1.0294449   -5.2043596   -5.2043596   -3.9850913  0.085522732   -5.2043596    1.2192682   520603 
 1866000    1.0300291   -5.2038238   -5.2038238   -3.9838637  0.082594377   -5.2038238    1.2199601   520603 
 1867000    1.0294167   -5.2034967   -5.2034967   -3.9842619  0.087484377   -5.2034967    1.2192349   520603 
 1868000    1.0289242   -5.2033654   -5.2033654   -3.9847139  0.070896857   -5.2033654    1.2186515   520603 
 1869000    1.0293254   -5.2036094   -5.2036094   -3.9844828  0.063979639   -5.2036094    1.2191267   520603 
 1870000    1.0294785   -5.2040083   -5.2040083   -3.9847002  0.083004099   -5.2040083     1.219308   520603 
 1871000     1.029618    -5.204236    -5.204236   -3.9847628  0.082188223    -5.204236    1.2194732   520603 
 1872000    1.0279396    -5.201635    -5.201635   -3.9841497  0.082713862    -5.201635    1.2174853   520603 
 1873000    1.0280563   -5.2027175   -5.2027175   -3.9850939  0.070748416   -5.2027175    1.2176236   520603 
 1874000    1.0268471   -5.2020088   -5.2020088   -3.9858174  0.076917173   -5.2020088    1.2161914   520603 
 1875000    1.0277269   -5.2023634   -5.2023634     -3.98513   0.06670337   -5.2023634    1.2172334   520603 
 1876000     1.028974   -5.2036209   -5.2036209   -3.9849104   0.06998198   -5.2036209    1.2187105   520603 
 1877000    1.0274992   -5.2022183   -5.2022183   -3.9852546  0.064870321   -5.2022183    1.2169637   520603 
 1878000    1.0277373   -5.2028455   -5.2028455   -3.9855996  0.088821997   -5.2028455    1.2172458   520603 
 1879000    1.0308086    -5.206647    -5.206647   -3.9857636  0.095942958    -5.206647    1.2208834   520603 
 1880000    1.0295053   -5.2045202   -5.2045202   -3.9851804  0.065784982   -5.2045202    1.2193398   520603 
 1881000    1.0298257   -5.2049309   -5.2049309   -3.9852117   0.08317967   -5.2049309    1.2197192   520603 
 1882000     1.031025    -5.206451    -5.206451   -3.9853113  0.077853943    -5.206451    1.2211397   520603 
 1883000    1.0309622   -5.2072049   -5.2072049   -3.9861396  0.089378448   -5.2072049    1.2210652   520603 
 1884000    1.0291748   -5.2058023   -5.2058023    -3.986854  0.074081358   -5.2058023    1.2189483   520603 
 1885000    1.0311235    -5.207852    -5.207852   -3.9865957  0.075734604    -5.207852    1.2212563   520603 
 1886000    1.0309096   -5.2078835   -5.2078835   -3.9868805  0.083174198   -5.2078835    1.2210031   520603 
 1887000    1.0311363    -5.209418    -5.209418   -3.9881466  0.093636564    -5.209418    1.2212715   520603 
 1888000    1.0310633   -5.2090637   -5.2090637   -3.9878786  0.090378502   -5.2090637    1.2211851   520603 
 1889000    1.0322958   -5.2093001   -5.2093001   -3.9866552    0.1104181   -5.2093001    1.2226448   520603 
 1890000    1.0322538   -5.2090086   -5.2090086   -3.9864135  0.078778505   -5.2090086    1.2225951   520603 
 1891000     1.031034   -5.2080428   -5.2080428   -3.9868924  0.073669473   -5.2080428    1.2211504   520603 
 1892000    1.0296126   -5.2065421   -5.2065421   -3.9870752  0.084703327   -5.2065421    1.2194669   520603 
 1893000     1.030338   -5.2073274   -5.2073274   -3.9870015  0.083245933   -5.2073274     1.220326   520603 
 1894000     1.030894   -5.2084428   -5.2084428   -3.9874583   0.10807211   -5.2084428    1.2209845   520603 
 1895000    1.0314039   -5.2083435   -5.2083435    -3.986755  0.093034365   -5.2083435    1.2215885   520603 
 1896000    1.0302686   -5.2070693   -5.2070693   -3.9868255   0.10212255   -5.2070693    1.2202438   520603 
 1897000    1.0309622   -5.2072657   -5.2072657   -3.9862004  0.074454118   -5.2072657    1.2210653   520603 
 1898000    1.0316074   -5.2076156   -5.2076156   -3.9857861  0.090283266   -5.2076156    1.2218294   520603 
 1899000    1.0307826   -5.2077214   -5.2077214   -3.9868689  0.094049334   -5.2077214    1.2208526   520603 
 1900000    1.0302937   -5.2071618   -5.2071618   -3.9868882  0.090303067   -5.2071618    1.2202736   520603 
 1901000    1.0299638   -5.2072346   -5.2072346   -3.9873518  0.092418071   -5.2072346    1.2198828   520603 
 1902000    1.0296046   -5.2076682   -5.2076682   -3.9882108   0.08368137   -5.2076682    1.2194574   520603 
 1903000    1.0308289   -5.2087877   -5.2087877   -3.9878802  0.083998657   -5.2087877    1.2209074   520603 
 1904000    1.0303325   -5.2074314   -5.2074314   -3.9871118  0.087747978   -5.2074314    1.2203196   520603 
 1905000    1.0279429   -5.2056045   -5.2056045   -3.9881152  0.063420142   -5.2056045    1.2174893   520603 
 1906000    1.0277698   -5.2057966   -5.2057966   -3.9885124  0.075904116   -5.2057966    1.2172842   520603 
 1907000    1.0283387   -5.2069168   -5.2069168   -3.9889586  0.085571334   -5.2069168    1.2179581   520603 
 1908000    1.0284775   -5.2068099   -5.2068099   -3.9886875  0.085618183   -5.2068099    1.2181224   520603 
 1909000    1.0268824   -5.2059815   -5.2059815   -3.9897483  0.071793366   -5.2059815    1.2162332   520603 
 1910000    1.0295612   -5.2085993   -5.2085993   -3.9891934  0.075699247   -5.2085993    1.2194059   520603 
 1911000    1.0271263   -5.2060011   -5.2060011    -3.989479  0.081175827   -5.2060011    1.2165221   520603 
 1912000    1.0273368   -5.2058118   -5.2058118   -3.9890404  0.092624145   -5.2058118    1.2167715   520603 
 1913000    1.0286457   -5.2078519   -5.2078519   -3.9895302  0.076612489   -5.2078519    1.2183216   520603 
 1914000    1.0299634   -5.2096024   -5.2096024   -3.9897201   0.10374886   -5.2096024    1.2198823   520603 
 1915000    1.0280825   -5.2074252   -5.2074252   -3.9897706  0.086356691   -5.2074252    1.2176546   520603 
 1916000    1.0273857   -5.2074093   -5.2074093   -3.9905799  0.070613137   -5.2074093    1.2168293   520603 
 1917000    1.0294151   -5.2102835   -5.2102835   -3.9910506  0.082056255   -5.2102835    1.2192329   520603 
 1918000    1.0291194   -5.2091071   -5.2091071   -3.9902244  0.087877877   -5.2091071    1.2188827   520603 
 1919000    1.0292746   -5.2086598   -5.2086598   -3.9895933  0.070408542   -5.2086598    1.2190665   520603 
 1920000    1.0299125    -5.209662    -5.209662     -3.98984  0.088222043    -5.209662     1.219822   520603 
 1921000    1.0303627    -5.210218    -5.210218   -3.9898627  0.077548249    -5.210218    1.2203553   520603 
 1922000    1.0303821   -5.2115296   -5.2115296   -3.9911513  0.091917344   -5.2115296    1.2203783   520603 
 1923000    1.0288719   -5.2089627   -5.2089627   -3.9903731  0.061883921   -5.2089627    1.2185896   520603 
 1924000    1.0305704    -5.211503    -5.211503   -3.9909018   0.10220664    -5.211503    1.2206012   520603 
 1925000     1.030248   -5.2108813   -5.2108813   -3.9906619  0.078306647   -5.2108813    1.2202194   520603 
 1926000    1.0309188   -5.2108998   -5.2108998   -3.9898859  0.085720673   -5.2108998    1.2210139   520603 
 1927000    1.0291823   -5.2093237   -5.2093237   -3.9903666  0.086130688   -5.2093237    1.2189572   520603 
 1928000    1.0304806   -5.2106406   -5.2106406   -3.9901456  0.092595866   -5.2106406     1.220495   520603 
 1929000    1.0293728    -5.208997    -5.208997   -3.9898142  0.072907632    -5.208997    1.2191828   520603 
 1930000    1.0292333   -5.2092448   -5.2092448   -3.9902271  0.070018464   -5.2092448    1.2190176   520603 
 1931000    1.0291323   -5.2099701   -5.2099701   -3.9910721  0.072042368   -5.2099701     1.218898   520603 
 1932000    1.0282758   -5.2095743   -5.2095743   -3.9916908  0.064227077   -5.2095743    1.2178835   520603 
 1933000    1.0300709   -5.2118485   -5.2118485   -3.9918389  0.085805525   -5.2118485    1.2200096   520603 
 1934000     1.028711   -5.2110314   -5.2110314   -3.9926324  0.086913938   -5.2110314     1.218399   520603 
 1935000    1.0285808   -5.2107978   -5.2107978   -3.9925529  0.064013914   -5.2107978    1.2182448   520603 
 1936000    1.0309771   -5.2139002   -5.2139002   -3.9928172  0.083467203   -5.2139002     1.221083   520603 
 1937000     1.027025   -5.2102507   -5.2102507   -3.9938486  0.088525179   -5.2102507    1.2164021   520603 
 1938000    1.0266561   -5.2106976   -5.2106976   -3.9947325  0.074065445   -5.2106976    1.2159652   520603 
 1939000    1.0287156   -5.2126713   -5.2126713   -3.9942669     0.085946   -5.2126713    1.2184044   520603 
 1940000    1.0295674   -5.2133547   -5.2133547   -3.9939414  0.071242743   -5.2133547    1.2194134   520603 
 1941000    1.0287662     -5.21206     -5.21206   -3.9935957  0.056989597     -5.21206    1.2184643   520603 
 1942000    1.0290292   -5.2122129   -5.2122129   -3.9934371  0.085788763   -5.2122129    1.2187759   520603 
 1943000    1.0286927   -5.2118948   -5.2118948   -3.9935176  0.077080527   -5.2118948    1.2183773   520603 
 1944000    1.0289522   -5.2119347   -5.2119347     -3.99325   0.08783071   -5.2119347    1.2186847   520603 
 1945000    1.0299892   -5.2126417   -5.2126417   -3.9927288  0.072613871   -5.2126417    1.2199129   520603 
 1946000    1.0295446   -5.2117649   -5.2117649   -3.9923785  0.082668184   -5.2117649    1.2193863   520603 
 1947000    1.0286871   -5.2114857   -5.2114857   -3.9931151  0.082311061   -5.2114857    1.2183707   520603 
 1948000    1.0292519   -5.2118697   -5.2118697     -3.99283  0.071309716   -5.2118697    1.2190397   520603 
 1949000     1.029406   -5.2132743   -5.2132743   -3.9940522   0.10336218   -5.2132743    1.2192221   520603 
 1950000    1.0283921   -5.2123319   -5.2123319   -3.9943106  0.069594414   -5.2123319    1.2180213   520603 
 1951000    1.0272244   -5.2105031   -5.2105031   -3.9938649  0.081551766   -5.2105031    1.2166383   520603 
 1952000     1.030113    -5.214229    -5.214229   -3.9941695  0.080601536    -5.214229    1.2200595   520603 
 1953000    1.0296678   -5.2140481   -5.2140481   -3.9945158  0.073753975   -5.2140481    1.2195322   520603 
 1954000    1.0302642   -5.2148286   -5.2148286   -3.9945901  0.091016552   -5.2148286    1.2202385   520603 
 1955000    1.0288574   -5.2137247   -5.2137247   -3.9951523   0.06374903   -5.2137247    1.2185724   520603 
 1956000    1.0275288   -5.2115836   -5.2115836   -3.9945849  0.067446246   -5.2115836    1.2169988   520603 
 1957000    1.0285776   -5.2126796   -5.2126796   -3.9944386   0.08305926   -5.2126796     1.218241   520603 
 1958000    1.0294586   -5.2139099   -5.2139099   -3.9946255   0.09273183   -5.2139099    1.2192844   520603 
 1959000     1.030537   -5.2155827   -5.2155827    -3.995021  0.078329402   -5.2155827    1.2205616   520603 
 1960000    1.0288623   -5.2131999   -5.2131999   -3.9946216  0.085955011   -5.2131999    1.2185783   520603 
 1961000    1.0284978   -5.2128534   -5.2128534   -3.9947069  0.088657224   -5.2128534    1.2181465   520603 
 1962000    1.0283714   -5.2128982   -5.2128982   -3.9949015  0.076999985   -5.2128982    1.2179967   520603 
 1963000    1.0291576   -5.2129946   -5.2129946   -3.9940667  0.066960746   -5.2129946    1.2189279   520603 
 1964000    1.0285481   -5.2126141   -5.2126141   -3.9944081  0.086793796   -5.2126141     1.218206   520603 
 1965000    1.0282843   -5.2125089   -5.2125089   -3.9946152   0.10553965   -5.2125089    1.2178937   520603 
 1966000    1.0273845   -5.2127775   -5.2127775   -3.9959496  0.078659557   -5.2127775    1.2168279   520603 
 1967000    1.0263478    -5.212043    -5.212043   -3.9964429  0.083550048    -5.212043    1.2156001   520603 
 1968000       1.0285   -5.2147587   -5.2147587   -3.9966096   0.06776064   -5.2147587    1.2181491   520603 
 1969000    1.0269923   -5.2130104   -5.2130104    -3.996647  0.077148152   -5.2130104    1.2163634   520603 
 1970000     1.027759   -5.2138116   -5.2138116   -3.9965401  0.084979523   -5.2138116    1.2172715   520603 
 1971000    1.0272351   -5.2138596   -5.2138596   -3.9972087  0.072705855   -5.2138596    1.2166509   520603 
 1972000    1.0278608   -5.2137668   -5.2137668   -3.9963749   0.09818117   -5.2137668     1.217392   520603 
 1973000    1.0251618   -5.2109716   -5.2109716   -3.9967763  0.072701402   -5.2109716    1.2141954   520603 
 1974000     1.026039   -5.2117031   -5.2117031   -3.9964688  0.092989224   -5.2117031    1.2152343   520603 
 1975000    1.0263369   -5.2129569   -5.2129569   -3.9973698   0.09495072   -5.2129569    1.2155871   520603 
 1976000    1.0273412   -5.2134714   -5.2134714   -3.9966948  0.068757955   -5.2134714    1.2167766   520603 
 1977000    1.0288085   -5.2152977   -5.2152977   -3.9967832  0.069405648   -5.2152977    1.2185144   520603 
 1978000    1.0305662     -5.21751     -5.21751   -3.9969137  0.087743338     -5.21751    1.2205963   520603 
 1979000    1.0276088   -5.2141598   -5.2141598   -3.9970662  0.075472179   -5.2141598    1.2170936   520603 
 1980000     1.028899   -5.2162919   -5.2162919   -3.9976702  0.091213243   -5.2162919    1.2186216   520603 
 1981000    1.0285718   -5.2154482   -5.2154482    -3.997214  0.091024602   -5.2154482    1.2182342   520603 
 1982000    1.0282358   -5.2149362   -5.2149362   -3.9971001   0.10577216   -5.2149362    1.2178361   520603 
 1983000    1.0289153   -5.2150944   -5.2150944   -3.9964535  0.089318637   -5.2150944    1.2186409   520603 
 1984000    1.0292832    -5.215463    -5.215463   -3.9963864   0.10010939    -5.215463    1.2190767   520603 
 1985000    1.0288277   -5.2160564   -5.2160564   -3.9975191  0.083616991   -5.2160564    1.2185372   520603 
 1986000    1.0291419   -5.2166557   -5.2166557   -3.9977463  0.077833863   -5.2166557    1.2189094   520603 
 1987000    1.0282026   -5.2157502   -5.2157502   -3.9979533  0.067301128   -5.2157502    1.2177968   520603 
 1988000    1.0288357   -5.2159848   -5.2159848   -3.9974381   0.08632841   -5.2159848    1.2185467   520603 
 1989000    1.0269635   -5.2140844   -5.2140844   -3.9977551  0.076455061   -5.2140844    1.2163293   520603 
 1990000    1.0279595    -5.214592    -5.214592   -3.9970831  0.098699071    -5.214592    1.2175089   520603 
 1991000    1.0285473   -5.2161375   -5.2161375   -3.9979324  0.070632209   -5.2161375    1.2182051   520603 
 1992000    1.0268188   -5.2143945   -5.2143945   -3.9982366   0.07420045   -5.2143945    1.2161579   520603 
 1993000    1.0284773   -5.2165973   -5.2165973   -3.9984751  0.094402342   -5.2165973    1.2181222   520603 
 1994000    1.0279765   -5.2167458   -5.2167458   -3.9992167  0.063769969   -5.2167458    1.2175291   520603 
 1995000    1.0292451   -5.2191343   -5.2191343   -4.0001027  0.076978634   -5.2191343    1.2190316   520603 
 1996000    1.0280911   -5.2179681   -5.2179681   -4.0003034  0.086756441   -5.2179681    1.2176647   520603 
 1997000    1.0271036   -5.2179431   -5.2179431   -4.0014479  0.075329749   -5.2179431    1.2164952   520603 
 1998000    1.0281261    -5.217742    -5.217742   -4.0000358   0.06300907    -5.217742    1.2177063   520603 
 1999000    1.0275805   -5.2170309   -5.2170309   -3.9999708  0.077096834   -5.2170309    1.2170601   520603 
 2000000    1.0282189    -5.217279    -5.217279   -3.9994628  0.076253213    -5.217279    1.2178162   520603 
 2001000    1.0263932   -5.2159414   -5.2159414   -4.0002876  0.073537213   -5.2159414    1.2156539   520603 
 2002000    1.0290801   -5.2190492   -5.2190492   -4.0002131   0.07283075   -5.2190492    1.2188362   520603 
 2003000    1.0260718   -5.2152942   -5.2152942    -4.000021  0.090134883   -5.2152942    1.2152732   520603 
 2004000    1.0281783   -5.2175975   -5.2175975   -3.9998294  0.075862163   -5.2175975    1.2177681   520603 
 2005000    1.0279495   -5.2176418   -5.2176418   -4.0001447   0.10087232   -5.2176418    1.2174971   520603 
 2006000    1.0286646   -5.2183509   -5.2183509   -4.0000069  0.092729056   -5.2183509     1.218344   520603 
 2007000     1.028865   -5.2185013   -5.2185013   -3.9999198  0.051582373   -5.2185013    1.2185814   520603 
 2008000    1.0297123   -5.2191755   -5.2191755   -3.9995906  0.098615912   -5.2191755    1.2195849   520603 
 2009000    1.0303011   -5.2204171   -5.2204171   -4.0001348  0.080421722   -5.2204171    1.2202823   520603 
 2010000    1.0282545   -5.2182513   -5.2182513    -4.000393  0.072526369   -5.2182513    1.2178583   520603 
 2011000    1.0285974    -5.219753    -5.219753   -4.0014885   0.10315685    -5.219753    1.2182645   520603 
 2012000    1.0287916    -5.218268    -5.218268   -3.9997735  0.073184815    -5.218268    1.2184945   520603 
 2013000    1.0276129    -5.216655    -5.216655   -3.9995565  0.093593185    -5.216655    1.2170984   520603 
 2014000    1.0292267   -5.2197774   -5.2197774   -4.0007677  0.080355852   -5.2197774    1.2190098   520603 
 2015000    1.0295502   -5.2218135   -5.2218135   -4.0024206   0.08127331   -5.2218135    1.2193929   520603 
 2016000    1.0271173   -5.2203294   -5.2203294   -4.0038179  0.061652931   -5.2203294    1.2165114   520603 
 2017000    1.0270159   -5.2205912   -5.2205912   -4.0041999  0.070326907   -5.2205912    1.2163913   520603 
 2018000     1.025366   -5.2176614   -5.2176614   -4.0032241   0.09947855   -5.2176614    1.2144373   520603 
 2019000     1.026012   -5.2182799   -5.2182799   -4.0030776  0.078364592   -5.2182799    1.2152024   520603 
 2020000    1.0245882   -5.2167244   -5.2167244   -4.0032085   0.07450799   -5.2167244     1.213516   520603 
 2021000    1.0265027   -5.2187886   -5.2187886   -4.0030051  0.093603582   -5.2187886    1.2157835   520603 
 2022000    1.0253149   -5.2182165   -5.2182165   -4.0038398  0.083684906   -5.2182165    1.2143767   520603 
 2023000    1.0248084   -5.2183913   -5.2183913   -4.0046145  0.080672221   -5.2183913    1.2137768   520603 
 2024000    1.0261393   -5.2201412   -5.2201412    -4.004788  0.074049932   -5.2201412    1.2153531   520603 
 2025000    1.0269503   -5.2213058   -5.2213058   -4.0049921  0.064704057   -5.2213058    1.2163137   520603 
 2026000    1.0267129   -5.2206594   -5.2206594   -4.0046269   0.07158288   -5.2206594    1.2160324   520603 
 2027000    1.0258485   -5.2198623   -5.2198623   -4.0048536  0.069778465   -5.2198623    1.2150087   520603 
 2028000     1.028102   -5.2211545   -5.2211545   -4.0034768  0.078688546   -5.2211545    1.2176778   520603 
 2029000    1.0279784   -5.2210634   -5.2210634   -4.0035321  0.082097115   -5.2210634    1.2175313   520603 
 2030000    1.0277506   -5.2201858   -5.2201858   -4.0029243  0.083649981   -5.2201858    1.2172615   520603 
 2031000    1.0286789   -5.2216449   -5.2216449   -4.0032839  0.064345137   -5.2216449     1.218361   520603 
 2032000    1.0292046   -5.2221809   -5.2221809   -4.0031973  0.071511897   -5.2221809    1.2189836   520603 
 2033000     1.028661   -5.2212654   -5.2212654   -4.0029256  0.094417879   -5.2212654    1.2183398   520603 
 2034000    1.0279935   -5.2208565   -5.2208565   -4.0033073  0.077081759   -5.2208565    1.2175492   520603 
 2035000    1.0269397    -5.220132    -5.220132   -4.0038309  0.084408534    -5.220132    1.2163011   520603 
 2036000    1.0267058    -5.219086    -5.219086   -4.0030619  0.058731311    -5.219086    1.2160241   520603 
 2037000    1.0275839   -5.2200812   -5.2200812   -4.0030171  0.083970289   -5.2200812    1.2170641   520603 
 2038000    1.0285059   -5.2202417   -5.2202417   -4.0020856  0.080915235   -5.2202417    1.2181561   520603 
 2039000    1.0265649   -5.2186523   -5.2186523   -4.0027952   0.06453189   -5.2186523    1.2158571   520603 
 2040000    1.0262684   -5.2182254   -5.2182254   -4.0027195  0.089986712   -5.2182254    1.2155059   520603 
 2041000    1.0264915   -5.2186519   -5.2186519   -4.0028816  0.077810313   -5.2186519    1.2157703   520603 
 2042000    1.0251737   -5.2176296   -5.2176296   -4.0034202  0.085063161   -5.2176296    1.2142094   520603 
 2043000    1.0269312    -5.219813    -5.219813   -4.0035221  0.084056331    -5.219813     1.216291   520603 
 2044000    1.0263153   -5.2189097   -5.2189097   -4.0033482    0.0693974   -5.2189097    1.2155615   520603 
 2045000    1.0261863   -5.2202746   -5.2202746   -4.0048659  0.076442129   -5.2202746    1.2154087   520603 
 2046000    1.0264107   -5.2205598   -5.2205598   -4.0048853  0.066296369   -5.2205598    1.2156746   520603 
 2047000    1.0267489   -5.2199972   -5.2199972   -4.0039221  0.081376646   -5.2199972    1.2160751   520603 
 2048000     1.027138   -5.2205732   -5.2205732   -4.0040372  0.079448542   -5.2205732    1.2165359   520603 
 2049000    1.0263809   -5.2195015   -5.2195015   -4.0038623  0.099997243   -5.2195015    1.2156392   520603 
 2050000    1.0265334   -5.2198832   -5.2198832   -4.0040633  0.066558314   -5.2198832    1.2158199   520603 
 2051000     1.026027   -5.2194357   -5.2194357   -4.0042157  0.082555194   -5.2194357    1.2152201   520603 
 2052000    1.0271583   -5.2209356   -5.2209356   -4.0043757  0.073645117   -5.2209356      1.21656   520603 
 2053000    1.0266503   -5.2200536   -5.2200536   -4.0040953  0.081628325   -5.2200536    1.2159584   520603 
 2054000    1.0293569   -5.2244002   -5.2244002   -4.0052362  0.076540552   -5.2244002     1.219164   520603 
 2055000    1.0271402   -5.2215186   -5.2215186   -4.0049801  0.085164976   -5.2215186    1.2165385   520603 
 2056000    1.0270589   -5.2211481   -5.2211481   -4.0047058    0.0875159   -5.2211481    1.2164423   520603 
 2057000    1.0274142   -5.2222892   -5.2222892   -4.0054262  0.085180668   -5.2222892    1.2168631   520603 
 2058000     1.027485   -5.2234376   -5.2234376   -4.0064906   0.10105917   -5.2234376    1.2169469   520603 
 2059000    1.0281788    -5.223413    -5.223413   -4.0056443  0.082184182    -5.223413    1.2177687   520603 
 2060000    1.0283344   -5.2224975   -5.2224975   -4.0045446  0.083786021   -5.2224975    1.2179529   520603 
 2061000    1.0271899   -5.2210855   -5.2210855   -4.0044881  0.089332232   -5.2210855    1.2165975   520603 
 2062000    1.0257448   -5.2192347   -5.2192347   -4.0043489  0.059647731   -5.2192347    1.2148858   520603 
 2063000    1.0254176   -5.2190184   -5.2190184     -4.00452  0.082938708   -5.2190184    1.2144984   520603 
 2064000     1.027655   -5.2221757   -5.2221757   -4.0050274  0.068873051   -5.2221757    1.2171483   520603 
 2065000    1.0265995   -5.2189568   -5.2189568   -4.0030586  0.090165075   -5.2189568    1.2158982   520603 
 2066000    1.0282903   -5.2207668   -5.2207668   -4.0028661  0.063132493   -5.2207668    1.2179007   520603 
 2067000     1.026376   -5.2201436   -5.2201436   -4.0045103  0.083897547   -5.2201436    1.2156334   520603 
 2068000    1.0276906   -5.2225787   -5.2225787   -4.0053883  0.073350596   -5.2225787    1.2171904   520603 
 2069000    1.0271603   -5.2226592   -5.2226592   -4.0060969  0.084833505   -5.2226592    1.2165623   520603 
 2070000    1.0279762   -5.2239623   -5.2239623   -4.0064336  0.053224162   -5.2239623    1.2175287   520603 
 2071000     1.028448   -5.2244446   -5.2244446   -4.0063571  0.092029573   -5.2244446    1.2180875   520603 
 2072000    1.0267518   -5.2239981   -5.2239981   -4.0079196  0.067093349   -5.2239981    1.2160785   520603 
 2073000    1.0275265   -5.2239324   -5.2239324   -4.0069363   0.08621666   -5.2239324    1.2169961   520603 
 2074000    1.0273701   -5.2237705   -5.2237705   -4.0069596  0.086660762   -5.2237705    1.2168109   520603 
 2075000      1.02552   -5.2225264   -5.2225264   -4.0079067  0.095109047   -5.2225264    1.2146196   520603 
 2076000    1.0273699   -5.2248253   -5.2248253   -4.0080147  0.071769894   -5.2248253    1.2168106   520603 
 2077000    1.0281631    -5.226009    -5.226009   -4.0082589  0.076873416    -5.226009    1.2177501   520603 
 2078000     1.026856   -5.2240061   -5.2240061   -4.0078042  0.084155252   -5.2240061    1.2162019   520603 
 2079000     1.024388   -5.2207941   -5.2207941   -4.0075152  0.088507043   -5.2207941    1.2132788   520603 
 2080000    1.0275706   -5.2243201   -5.2243201   -4.0072718  0.074202001   -5.2243201    1.2170484   520603 
 2081000    1.0269282   -5.2227446   -5.2227446   -4.0064571  0.084383077   -5.2227446    1.2162875   520603 
 2082000     1.026672    -5.222471    -5.222471    -4.006487  0.085873303    -5.222471     1.215984   520603 
 2083000    1.0257686   -5.2214966   -5.2214966   -4.0065826   0.07526037   -5.2214966     1.214914   520603 
 2084000    1.0268587    -5.222711    -5.222711   -4.0065059  0.091642778    -5.222711    1.2162051   520603 
 2085000    1.0265686   -5.2231465   -5.2231465    -4.007285  0.066823377   -5.2231465    1.2158615   520603 
 2086000    1.0254281   -5.2219831   -5.2219831   -4.0074723   0.07198461   -5.2219831    1.2145108   520603 
 2087000    1.0265039   -5.2234304   -5.2234304   -4.0076456  0.072630914   -5.2234304    1.2157849   520603 
 2088000    1.0259187   -5.2237115   -5.2237115   -4.0086197  0.081284338   -5.2237115    1.2150918   520603 
 2089000    1.0254643   -5.2230339   -5.2230339   -4.0084804  0.073373025   -5.2230339    1.2145536   520603 
 2090000    1.0267974   -5.2250179   -5.2250179   -4.0088854  0.066685769   -5.2250179    1.2161326   520603 
 2091000    1.0269857   -5.2236301   -5.2236301   -4.0072745  0.075997731   -5.2236301    1.2163556   520603 
 2092000    1.0268719   -5.2242197   -5.2242197    -4.007999  0.079142882   -5.2242197    1.2162207   520603 
 2093000    1.0263925   -5.2232998   -5.2232998   -4.0076469  0.065042927   -5.2232998     1.215653   520603 
 2094000    1.0278729   -5.2247034   -5.2247034   -4.0072971   0.07341977   -5.2247034    1.2174063   520603 
 2095000    1.0268278   -5.2235503   -5.2235503   -4.0073818  0.078756838   -5.2235503    1.2161685   520603 
 2096000     1.026268   -5.2237777   -5.2237777   -4.0082721  0.078487343   -5.2237777    1.2155056   520603 
 2097000    1.0266984   -5.2239349   -5.2239349   -4.0079196  0.073562466   -5.2239349    1.2160153   520603 
 2098000    1.0259521   -5.2234961   -5.2234961   -4.0083648  0.068592082   -5.2234961    1.2151314   520603 
 2099000    1.0281904   -5.2255984   -5.2255984    -4.007816  0.079975901   -5.2255984    1.2177824   520603 
 2100000    1.0264277   -5.2238306   -5.2238306   -4.0081359  0.082113526   -5.2238306    1.2156947   520603 
 2101000    1.0252904    -5.222596    -5.222596   -4.0082483  0.070758681    -5.222596    1.2143476   520603 
 2102000    1.0268224   -5.2268623   -5.2268623   -4.0107001  0.076950305   -5.2268623    1.2161622   520603 
 2103000    1.0263795   -5.2251288   -5.2251288   -4.0094912  0.075462277   -5.2251288    1.2156376   520603 
 2104000    1.0262589   -5.2254673   -5.2254673   -4.0099726  0.062667103   -5.2254673    1.2154947   520603 
 2105000    1.0273713   -5.2266021   -5.2266021   -4.0097898  0.080418874   -5.2266021    1.2168123   520603 
 2106000    1.0261947   -5.2257566   -5.2257566   -4.0103379   0.07120889   -5.2257566    1.2154187   520603 
 2107000    1.0282782   -5.2282874   -5.2282874    -4.010401  0.070396765   -5.2282874    1.2178864   520603 
 2108000    1.0261294   -5.2268287   -5.2268287   -4.0114874  0.085592987   -5.2268287    1.2153413   520603 
 2109000    1.0250974   -5.2258421   -5.2258421    -4.011723  0.078314802   -5.2258421     1.214119   520603 
 2110000      1.02624   -5.2282187   -5.2282187   -4.0127463  0.061322429   -5.2282187    1.2154724   520603 
 2111000    1.0267209   -5.2280116   -5.2280116   -4.0119696   0.07908464   -5.2280116     1.216042   520603 
 2112000    1.0254764   -5.2249273   -5.2249273   -4.0103593  0.081722229   -5.2249273     1.214568   520603 
 2113000    1.0244369   -5.2234949   -5.2234949   -4.0101581   0.05396026   -5.2234949    1.2133368   520603 
 2114000    1.0253054   -5.2249031   -5.2249031   -4.0105377  0.070788852   -5.2249031    1.2143655   520603 
 2115000    1.0245465   -5.2259858   -5.2259858   -4.0125192  0.078763961   -5.2259858    1.2134666   520603 
 2116000    1.0233901   -5.2254223   -5.2254223   -4.0133253  0.081425786   -5.2254223     1.212097   520603 
 2117000    1.0250878    -5.227361    -5.227361   -4.0132533  0.075848646    -5.227361    1.2141077   520603 
 2118000    1.0232587   -5.2244839   -5.2244839   -4.0125426  0.068151419   -5.2244839    1.2119414   520603 
 2119000    1.0269093   -5.2283761   -5.2283761    -4.012111  0.083008625   -5.2283761    1.2162651   520603 
 2120000    1.0262968   -5.2264844   -5.2264844   -4.0109448   0.10255587   -5.2264844    1.2155396   520603 
 2121000     1.025237   -5.2260106   -5.2260106   -4.0117262  0.067266845   -5.2260106    1.2142844   520603 
 2122000     1.024934   -5.2258028   -5.2258028   -4.0118773   0.07675629   -5.2258028    1.2139255   520603 
 2123000    1.0270428   -5.2279224   -5.2279224   -4.0114993  0.081952945   -5.2279224    1.2164231   520603 
 2124000    1.0267783    -5.228554    -5.228554   -4.0124441  0.097843149    -5.228554      1.21611   520603 
 2125000    1.0273426   -5.2290578   -5.2290578   -4.0122795   0.09786191   -5.2290578    1.2167783   520603 
 2126000    1.0274242   -5.2285042   -5.2285042   -4.0116292  0.074747127   -5.2285042     1.216875   520603 
 2127000    1.0266507   -5.2277985   -5.2277985   -4.0118397  0.085786744   -5.2277985    1.2159588   520603 
 2128000    1.0258588    -5.226369    -5.226369   -4.0113481  0.079866492    -5.226369    1.2150209   520603 
 2129000    1.0261937   -5.2271343   -5.2271343   -4.0117167  0.086474899   -5.2271343    1.2154176   520603 
 2130000    1.0282819   -5.2302735   -5.2302735   -4.0123827  0.091898485   -5.2302735    1.2178908   520603 
 2131000    1.0262419   -5.2280779   -5.2280779   -4.0126033  0.073169648   -5.2280779    1.2154747   520603 
 2132000    1.0281746   -5.2290509   -5.2290509   -4.0112872  0.079967359   -5.2290509    1.2177637   520603 
 2133000    1.0268268   -5.2279227   -5.2279227   -4.0117553  0.077255562   -5.2279227    1.2161673   520603 
 2134000    1.0258377   -5.2259949   -5.2259949    -4.010999  0.082397844   -5.2259949    1.2149959   520603 
 2135000    1.0276132   -5.2291828   -5.2291828   -4.0120841  0.077252598   -5.2291828    1.2170987   520603 
 2136000    1.0269461   -5.2289356   -5.2289356    -4.012627  0.066675989   -5.2289356    1.2163087   520603 
 2137000    1.0284711   -5.2300711   -5.2300711   -4.0119562  0.093408416   -5.2300711    1.2181149   520603 
 2138000    1.0274806   -5.2293578   -5.2293578    -4.012416  0.056070409   -5.2293578    1.2169417   520603 
 2139000    1.0236046   -5.2255126   -5.2255126   -4.0131616  0.067754844   -5.2255126     1.212351   520603 
 2140000    1.0255262    -5.226738    -5.226738    -4.012111  0.073409667    -5.226738    1.2146269   520603 
 2141000    1.0254698   -5.2269822   -5.2269822    -4.012422  0.088977892   -5.2269822    1.2145602   520603 
 2142000    1.0260445   -5.2272236   -5.2272236   -4.0119828  0.068327035   -5.2272236    1.2152408   520603 
 2143000    1.0237709   -5.2253463   -5.2253463   -4.0127984   0.06950755   -5.2253463     1.212548   520603 
 2144000    1.0253308   -5.2268302   -5.2268302   -4.0124347  0.081646791   -5.2268302    1.2143955   520603 
 2145000    1.0251317   -5.2267994   -5.2267994   -4.0126397  0.083505314   -5.2267994    1.2141597   520603 
 2146000    1.0254473   -5.2286239   -5.2286239   -4.0140905  0.069477595   -5.2286239    1.2145334   520603 
 2147000    1.0242241   -5.2256994   -5.2256994   -4.0126147   0.09445004   -5.2256994    1.2130847   520603 
 2148000    1.0266685   -5.2285206   -5.2285206   -4.0125408  0.075017304   -5.2285206    1.2159798   520603 
 2149000    1.0257512   -5.2286682   -5.2286682   -4.0137748  0.077856894   -5.2286682    1.2148934   520603 
 2150000    1.0256417   -5.2278284   -5.2278284   -4.0130647  0.085102577   -5.2278284    1.2147637   520603 
 2151000    1.0263671   -5.2288583   -5.2288583   -4.0132353  0.095301262   -5.2288583     1.215623   520603 
 2152000    1.0257954   -5.2289907   -5.2289907   -4.0140449  0.090585203   -5.2289907    1.2149458   520603 
 2153000    1.0260728   -5.2294661   -5.2294661   -4.0141918  0.085288155   -5.2294661    1.2152743   520603 
 2154000    1.0257455   -5.2299537   -5.2299537    -4.015067  0.083990875   -5.2299537    1.2148867   520603 
 2155000    1.0276545   -5.2323541   -5.2323541   -4.0152065    0.0827499   -5.2323541    1.2171476   520603 
 2156000     1.027241   -5.2314993   -5.2314993   -4.0148413  0.055385843   -5.2314993     1.216658   520603 
 2157000    1.0278848   -5.2318567   -5.2318567   -4.0144363  0.072279176   -5.2318567    1.2174204   520603 
 2158000    1.0277373   -5.2327071   -5.2327071   -4.0154613    0.1099082   -5.2327071    1.2172458   520603 
 2159000    1.0264012   -5.2310476   -5.2310476   -4.0153844  0.066019364   -5.2310476    1.2156632   520603 
 2160000     1.027876   -5.2327243   -5.2327243   -4.0153142   0.08194169   -5.2327243    1.2174101   520603 
 2161000    1.0263691   -5.2320413   -5.2320413   -4.0164161   0.07449006   -5.2320413    1.2156252   520603 
 2162000    1.0262517   -5.2317537   -5.2317537   -4.0162674  0.072632215   -5.2317537    1.2154863   520603 
 2163000     1.027228   -5.2331481   -5.2331481   -4.0165056  0.088032111   -5.2331481    1.2166425   520603 
 2164000    1.0264378   -5.2325265   -5.2325265   -4.0168198  0.080823257   -5.2325265    1.2157066   520603 
 2165000    1.0281819    -5.233562    -5.233562   -4.0157896  0.077888799    -5.233562    1.2177724   520603 
 2166000    1.0255157   -5.2311448   -5.2311448   -4.0165303  0.077134221   -5.2311448    1.2146145   520603 
 2167000    1.0264342   -5.2316485   -5.2316485   -4.0159462   0.06596102   -5.2316485    1.2157023   520603 
 2168000    1.0261723   -5.2306937   -5.2306937   -4.0153015  0.063829031   -5.2306937    1.2153921   520603 
 2169000    1.0255355   -5.2295121   -5.2295121   -4.0148742  0.090815565   -5.2295121    1.2146379   520603 
 2170000    1.0271517    -5.231627    -5.231627   -4.0150748    0.0813979    -5.231627    1.2165522   520603 
 2171000    1.0258043    -5.230369    -5.230369   -4.0154128  0.074995772    -5.230369    1.2149563   520603 
 2172000    1.0268613   -5.2312692   -5.2312692    -4.015061  0.095086717   -5.2312692    1.2162082   520603 
 2173000    1.0281788   -5.2326306   -5.2326306    -4.014862  0.081232618   -5.2326306    1.2177687   520603 
 2174000    1.0276509   -5.2326137   -5.2326137   -4.0154703  0.083454555   -5.2326137    1.2171434   520603 
 2175000    1.0265576    -5.231445    -5.231445   -4.0155965  0.074440335    -5.231445    1.2158485   520603 
 2176000    1.0268239   -5.2317921   -5.2317921   -4.0156282  0.081145683   -5.2317921    1.2161639   520603 
 2177000    1.0271623   -5.2312136   -5.2312136   -4.0146488  0.080561451   -5.2312136    1.2165647   520603 
 2178000    1.0248714   -5.2292597   -5.2292597   -4.0154083  0.071291735   -5.2292597    1.2138513   520603 
 2179000    1.0257724   -5.2309562   -5.2309562   -4.0160376  0.076503696   -5.2309562    1.2149186   520603 
 2180000    1.0258112   -5.2309734   -5.2309734   -4.0160088  0.079896816   -5.2309734    1.2149645   520603 
 2181000      1.02733    -5.232695    -5.232695   -4.0159317  0.062072535    -5.232695    1.2167633   520603 
 2182000    1.0268882   -5.2327511   -5.2327511    -4.016511  0.087030434   -5.2327511    1.2162401   520603 
 2183000     1.025856   -5.2309181   -5.2309181   -4.0159006  0.090752344   -5.2309181    1.2150175   520603 
 2184000    1.0252634   -5.2317377   -5.2317377    -4.017422  0.080914152   -5.2317377    1.2143157   520603 
 2185000    1.0248925    -5.231558    -5.231558   -4.0176815  0.091709411    -5.231558    1.2138764   520603 
 2186000    1.0261424   -5.2326979   -5.2326979   -4.0173411  0.082376926   -5.2326979    1.2153567   520603 
 2187000    1.0254889   -5.2314728   -5.2314728     -4.01689  0.085869164   -5.2314728    1.2145828   520603 
 2188000    1.0248471   -5.2299781   -5.2299781   -4.0161555  0.068659116   -5.2299781    1.2138226   520603 
 2189000    1.0261435   -5.2310718   -5.2310718   -4.0157137  0.076891152   -5.2310718    1.2153581   520603 
 2190000    1.0264972   -5.2320031   -5.2320031   -4.0162261  0.082899743   -5.2320031    1.2157769   520603 
 2191000    1.0258581   -5.2313659   -5.2313659   -4.0163459  0.088733023   -5.2313659      1.21502   520603 
 2192000     1.025663   -5.2326623   -5.2326623   -4.0178734  0.087542426   -5.2326623    1.2147889   520603 
 2193000    1.0268404    -5.232836    -5.232836   -4.0166526  0.080847662    -5.232836    1.2161834   520603 
 2194000    1.0245204   -5.2305092   -5.2305092   -4.0170735  0.081597949   -5.2305092    1.2134357   520603 
 2195000     1.026472   -5.2334379   -5.2334379   -4.0176908  0.085368685   -5.2334379    1.2157472   520603 
 2196000    1.0258267   -5.2333297   -5.2333297   -4.0183469  0.075166114   -5.2333297    1.2149828   520603 
 2197000    1.0267978   -5.2339039   -5.2339039   -4.0177709  0.075287756   -5.2339039     1.216133   520603 
 2198000    1.0274075     -5.23392     -5.23392   -4.0170648  0.090112398     -5.23392    1.2168552   520603 
 2199000    1.0254714   -5.2321173   -5.2321173   -4.0175552  0.084067769   -5.2321173     1.214562   520603 
 2200000    1.0269689   -5.2337125   -5.2337125   -4.0173768  0.095513559   -5.2337125    1.2163357   520603 
 2201000    1.0251403   -5.2320559   -5.2320559    -4.017886  0.072455385   -5.2320559    1.2141699   520603 
 2202000    1.0270981   -5.2347144   -5.2347144   -4.0182257  0.085603661   -5.2347144    1.2164887   520603 
 2203000    1.0266497   -5.2334444   -5.2334444   -4.0174868  0.071861619   -5.2334444    1.2159576   520603 
 2204000    1.0267932    -5.234564    -5.234564   -4.0184364  0.072792811    -5.234564    1.2161276   520603 
 2205000    1.0255237   -5.2319973   -5.2319973   -4.0173734  0.072966535   -5.2319973    1.2146239   520603 
 2206000    1.0257386   -5.2334931   -5.2334931   -4.0186146  0.068985542   -5.2334931    1.2148785   520603 
 2207000    1.0245267   -5.2328542   -5.2328542   -4.0194111  0.086836179   -5.2328542    1.2134432   520603 
 2208000    1.0247702   -5.2326081   -5.2326081   -4.0188766  0.079225262   -5.2326081    1.2137315   520603 
 2209000    1.0260854   -5.2343523   -5.2343523    -4.019063   0.08810512   -5.2343523    1.2152893   520603 
 2210000    1.0254391   -5.2339384   -5.2339384   -4.0194146  0.063972639   -5.2339384    1.2145238   520603 
 2211000    1.0256885   -5.2335266   -5.2335266   -4.0187074  0.091273664   -5.2335266    1.2148192   520603 
 2212000    1.0245627   -5.2325755   -5.2325755   -4.0190897  0.078736552   -5.2325755    1.2134858   520603 
 2213000    1.0263259   -5.2349784   -5.2349784   -4.0194042  0.080603678   -5.2349784    1.2155741   520603 
 2214000    1.0259331   -5.2347315   -5.2347315   -4.0196227  0.076046972   -5.2347315    1.2151088   520603 
 2215000    1.0263822   -5.2343764   -5.2343764   -4.0187356  0.079496486   -5.2343764    1.2156408   520603 
 2216000    1.0245165   -5.2332641   -5.2332641    -4.019833  0.079281342   -5.2332641    1.2134311   520603 
 2217000    1.0245667   -5.2332182   -5.2332182   -4.0197276  0.075606087   -5.2332182    1.2134905   520603 
 2218000    1.0248611    -5.233211    -5.233211   -4.0193718  0.085068811    -5.233211    1.2138392   520603 
 2219000    1.0250453   -5.2340702   -5.2340702   -4.0200128  0.087406225   -5.2340702    1.2140574   520603 
 2220000    1.0252592   -5.2338338   -5.2338338   -4.0195231  0.088677466   -5.2338338    1.2143107   520603 
 2221000    1.0278238    -5.236315    -5.236315   -4.0189667  0.079490379    -5.236315    1.2173483   520603 
 2222000    1.0264434   -5.2353794   -5.2353794   -4.0196661   0.06876051   -5.2353794    1.2157133   520603 
 2223000    1.0272982   -5.2373373   -5.2373373   -4.0206116  0.071867222   -5.2373373    1.2167257   520603 
 2224000    1.0259004   -5.2357917   -5.2357917   -4.0207215  0.074109055   -5.2357917    1.2150701   520603 
 2225000    1.0263926   -5.2355163   -5.2355163   -4.0198633    0.0567771   -5.2355163    1.2156531   520603 
 2226000    1.0249845   -5.2344066   -5.2344066   -4.0204213  0.088629736   -5.2344066    1.2139854   520603 
 2227000    1.0253316   -5.2348885   -5.2348885   -4.0204921  0.063626533   -5.2348885    1.2143965   520603 
 2228000    1.0265621   -5.2358248   -5.2358248    -4.019971  0.066856614   -5.2358248    1.2158538   520603 
 2229000    1.0251435    -5.233611    -5.233611   -4.0194373  0.077228113    -5.233611    1.2141737   520603 
 2230000    1.0257607   -5.2343985   -5.2343985   -4.0194938  0.087596469   -5.2343985    1.2149047   520603 
 2231000     1.025293   -5.2335441   -5.2335441   -4.0191933  0.058176485   -5.2335441    1.2143507   520603 
 2232000    1.0244697   -5.2334509   -5.2334509   -4.0200753   0.08195857   -5.2334509    1.2133756   520603 
 2233000    1.0251026   -5.2341894   -5.2341894   -4.0200642   0.10110042   -5.2341894    1.2141252   520603 
 2234000    1.0241338   -5.2332562   -5.2332562   -4.0202785  0.085158314   -5.2332562    1.2129777   520603 
 2235000    1.0259964   -5.2354434   -5.2354434   -4.0202595  0.087451485   -5.2354434    1.2151839   520603 
 2236000    1.0242248   -5.2332851   -5.2332851   -4.0201996   0.07276223   -5.2332851    1.2130856   520603 
 2237000    1.0255107   -5.2345628   -5.2345628   -4.0199543  0.061612099   -5.2345628    1.2146085   520603 
 2238000    1.0246005   -5.2333058   -5.2333058   -4.0197752  0.075445174   -5.2333058    1.2135306   520603 
 2239000    1.0263903   -5.2361316   -5.2361316   -4.0204811  0.084236144   -5.2361316    1.2156504   520603 
 2240000    1.0250546   -5.2350081   -5.2350081   -4.0209397  0.072524055   -5.2350081    1.2140683   520603 
 2241000    1.0261012   -5.2364408   -5.2364408   -4.0211329  0.093953784   -5.2364408     1.215308   520603 
 2242000    1.0252448   -5.2351831   -5.2351831   -4.0208894  0.091623172   -5.2351831    1.2142937   520603 
 2243000    1.0237275   -5.2335524   -5.2335524   -4.0210558  0.094212502   -5.2335524    1.2124965   520603 
 2244000     1.026242   -5.2363247   -5.2363247     -4.02085  0.092966233   -5.2363247    1.2154747   520603 
 2245000    1.0261119   -5.2375095   -5.2375095   -4.0221889  0.071996824   -5.2375095    1.2153206   520603 
 2246000    1.0255511   -5.2356325   -5.2356325    -4.020976  0.091216722   -5.2356325    1.2146565   520603 
 2247000    1.0265664    -5.236417    -5.236417    -4.020558  0.099004477    -5.236417     1.215859   520603 
 2248000    1.0255067    -5.235911    -5.235911   -4.0213072  0.086638342    -5.235911    1.2146038   520603 
 2249000    1.0238511   -5.2343791   -5.2343791   -4.0217361  0.079824862   -5.2343791     1.212643   520603 
 2250000    1.0252319    -5.236033    -5.236033   -4.0217547  0.080817116    -5.236033    1.2142783   520603 
 2251000    1.0246904   -5.2351938   -5.2351938   -4.0215567  0.076984728   -5.2351938    1.2136371   520603 
 2252000    1.0255496   -5.2356759   -5.2356759   -4.0210213  0.067995579   -5.2356759    1.2146546   520603 
 2253000    1.0242704   -5.2354142   -5.2354142   -4.0222746  0.081637074   -5.2354142    1.2131396   520603 
 2254000     1.023978   -5.2343948   -5.2343948   -4.0216015   0.08505031   -5.2343948    1.2127933   520603 
 2255000    1.0240277   -5.2351206   -5.2351206   -4.0222685  0.077905756   -5.2351206    1.2128521   520603 
 2256000     1.024572   -5.2358254   -5.2358254   -4.0223286  0.080071572   -5.2358254    1.2134968   520603 
 2257000    1.0249428    -5.236321    -5.236321    -4.022385  0.083751646    -5.236321     1.213936   520603 
 2258000    1.0260347   -5.2384458   -5.2384458   -4.0232166  0.077984627   -5.2384458    1.2152292   520603 
 2259000     1.024103   -5.2357151   -5.2357151   -4.0227739  0.078529462   -5.2357151    1.2129413   520603 
 2260000    1.0236617   -5.2357201   -5.2357201   -4.0233015  0.094445802   -5.2357201    1.2124186   520603 
 2261000    1.0250698   -5.2372269   -5.2372269   -4.0231406  0.079579517   -5.2372269    1.2140863   520603 
 2262000    1.0268763   -5.2397245   -5.2397245   -4.0234985  0.061941032   -5.2397245     1.216226   520603 
 2263000    1.0243261   -5.2382735   -5.2382735   -4.0250679  0.079264035   -5.2382735    1.2132055   520603 
 2264000    1.0260733    -5.240012    -5.240012   -4.0247371   0.07200844    -5.240012    1.2152749   520603 
 2265000    1.0252695   -5.2394735   -5.2394735   -4.0251505  0.072314959   -5.2394735    1.2143229   520603 
 2266000     1.023858   -5.2364828   -5.2364828   -4.0238317  0.076584388   -5.2364828    1.2126511   520603 
 2267000    1.0249038   -5.2383289   -5.2383289   -4.0244391  0.076562255   -5.2383289    1.2138898   520603 
 2268000    1.0253918   -5.2387853   -5.2387853   -4.0243175  0.074931711   -5.2387853    1.2144678   520603 
 2269000    1.0264205   -5.2385072   -5.2385072   -4.0228211   0.09441907   -5.2385072    1.2156861   520603 
 2270000    1.0255441   -5.2383334   -5.2383334   -4.0236853  0.093998851   -5.2383334    1.2146481   520603 
 2271000    1.0257494   -5.2387462   -5.2387462   -4.0238549  0.081828163   -5.2387462    1.2148914   520603 
 2272000    1.0229772   -5.2354612   -5.2354612   -4.0238532   0.08298426   -5.2354612     1.211608   520603 
 2273000    1.0241945   -5.2371117   -5.2371117   -4.0240621  0.074709587   -5.2371117    1.2130496   520603 
 2274000    1.0249519   -5.2386482   -5.2386482   -4.0247014   0.08558394   -5.2386482    1.2139468   520603 
 2275000    1.0236846   -5.2371367   -5.2371367    -4.024691   0.08367022   -5.2371367    1.2124458   520603 
 2276000    1.0235318   -5.2367372   -5.2367372   -4.0244724  0.084853133   -5.2367372    1.2122648   520603 
 2277000    1.0241916   -5.2384731   -5.2384731   -4.0254269  0.068583873   -5.2384731    1.2130463   520603 
 2278000    1.0238657   -5.2382558   -5.2382558   -4.0255956  0.064268216   -5.2382558    1.2126602   520603 
 2279000    1.0232144   -5.2372058   -5.2372058   -4.0253169  0.062170191   -5.2372058    1.2118889   520603 
 2280000    1.0245924   -5.2390013   -5.2390013   -4.0254803  0.063691992   -5.2390013    1.2135209   520603 
 2281000    1.0236769   -5.2380648   -5.2380648   -4.0256282  0.092683395   -5.2380648    1.2124366   520603 
 2282000    1.0237844   -5.2392137   -5.2392137   -4.0266496  0.069722047   -5.2392137     1.212564   520603 
 2283000    1.0247927   -5.2407878   -5.2407878   -4.0270296  0.062642245   -5.2407878    1.2137582   520603 
 2284000    1.0243776   -5.2393675   -5.2393675    -4.026101  0.085627937   -5.2393675    1.2132665   520603 
 2285000    1.0256722   -5.2410783   -5.2410783   -4.0262784  0.076815782   -5.2410783    1.2147999   520603 
 2286000     1.027407   -5.2426006   -5.2426006    -4.025746  0.080786035   -5.2426006    1.2168546   520603 
 2287000    1.0257681   -5.2408462   -5.2408462   -4.0259328   0.08790441   -5.2408462    1.2149135   520603 
 2288000    1.0265907   -5.2414218   -5.2414218   -4.0255341  0.077989669   -5.2414218    1.2158877   520603 
 2289000    1.0263139   -5.2413993   -5.2413993   -4.0258394  0.069362373   -5.2413993    1.2155599   520603 
 2290000    1.0254996   -5.2404282   -5.2404282   -4.0258327  0.093836475   -5.2404282    1.2145955   520603 
 2291000    1.0260618   -5.2411469   -5.2411469   -4.0258857  0.080750721   -5.2411469    1.2152613   520603 
 2292000    1.0264938   -5.2421255   -5.2421255   -4.0263525   0.10092455   -5.2421255     1.215773   520603 
 2293000    1.0250843   -5.2418057   -5.2418057   -4.0277022  0.082823573   -5.2418057    1.2141035   520603 
 2294000    1.0238146   -5.2405342   -5.2405342   -4.0279346  0.092517509   -5.2405342    1.2125997   520603 
 2295000    1.0244757   -5.2397114   -5.2397114   -4.0263287  0.085572852   -5.2397114    1.2133827   520603 
 2296000    1.0242513   -5.2401368   -5.2401368   -4.0270198  0.098529522   -5.2401368    1.2131169   520603 
 2297000    1.0240518   -5.2404531   -5.2404531   -4.0275724   0.08329125   -5.2404531    1.2128807   520603 
 2298000    1.0254639   -5.2419896   -5.2419896   -4.0274365  0.069533174   -5.2419896    1.2145531   520603 
 2299000    1.0247781   -5.2416027   -5.2416027   -4.0278618  0.070477374   -5.2416027    1.2137409   520603 
 2300000    1.0225816   -5.2397899   -5.2397899   -4.0286505  0.083284696   -5.2397899    1.2111393   520603 
 2301000    1.0246553   -5.2425548   -5.2425548   -4.0289594   0.07030808   -5.2425548    1.2135954   520603 
 2302000    1.0231966   -5.2415087   -5.2415087    -4.029641  0.077894712   -5.2415087    1.2118677   520603 
 2303000    1.0216517   -5.2391476   -5.2391476   -4.0291095   0.08387813   -5.2391476    1.2100381   520603 
 2304000    1.0232857   -5.2410881   -5.2410881   -4.0291148  0.073227331   -5.2410881    1.2119733   520603 
 2305000    1.0221974   -5.2395565   -5.2395565   -4.0288722  0.079210832   -5.2395565    1.2106843   520603 
 2306000    1.0216089   -5.2391837   -5.2391837   -4.0291963  0.075368266   -5.2391837    1.2099873   520603 
 2307000     1.022607   -5.2401247   -5.2401247   -4.0289552  0.059211576   -5.2401247    1.2111695   520603 
 2308000    1.0226299   -5.2405396   -5.2405396    -4.029343  0.077310691   -5.2405396    1.2111965   520603 
 2309000    1.0236611   -5.2417922   -5.2417922   -4.0293742  0.088639874   -5.2417922    1.2124179   520603 
 2310000    1.0220811    -5.240456    -5.240456   -4.0299094  0.076942565    -5.240456    1.2105466   520603 
 2311000    1.0235652   -5.2415815   -5.2415815   -4.0292772  0.072500602   -5.2415815    1.2123044   520603 
 2312000    1.0247009   -5.2443533   -5.2443533   -4.0307039  0.084784662   -5.2443533    1.2136495   520603 
 2313000    1.0248668   -5.2437524   -5.2437524   -4.0299064  0.090405849   -5.2437524    1.2138459   520603 
 2314000    1.0251269   -5.2437396   -5.2437396   -4.0295856  0.085283016   -5.2437396     1.214154   520603 
 2315000    1.0231523   -5.2428007   -5.2428007   -4.0309853  0.089027357   -5.2428007    1.2118154   520603 
 2316000    1.0247881   -5.2437954   -5.2437954   -4.0300427  0.093306094   -5.2437954    1.2137527   520603 
 2317000    1.0244542   -5.2435723   -5.2435723    -4.030215  0.089651577   -5.2435723    1.2133573   520603 
 2318000    1.0226894   -5.2419689   -5.2419689   -4.0307018   0.09127766   -5.2419689    1.2112671   520603 
 2319000      1.02279   -5.2413279   -5.2413279   -4.0299417   0.07279205   -5.2413279    1.2113862   520603 
 2320000    1.0248791   -5.2437606   -5.2437606   -4.0299001  0.078371359   -5.2437606    1.2138605   520603 
 2321000    1.0237457   -5.2423224   -5.2423224   -4.0298042  0.093431777   -5.2423224    1.2125182   520603 
 2322000    1.0231995   -5.2422402   -5.2422402    -4.030369  0.072366164   -5.2422402    1.2118712   520603 
 2323000    1.0236329   -5.2420962   -5.2420962   -4.0297117  0.081528372   -5.2420962    1.2123846   520603 
 2324000    1.0232567   -5.2421429   -5.2421429    -4.030204  0.068692038   -5.2421429     1.211939   520603 
 2325000    1.0243032   -5.2432691   -5.2432691   -4.0300907  0.064910102   -5.2432691    1.2131784   520603 
 2326000    1.0218784   -5.2412972   -5.2412972   -4.0309907  0.079757915   -5.2412972    1.2103065   520603 
 2327000    1.0217746   -5.2408996   -5.2408996    -4.030716  0.070965671   -5.2408996    1.2101836   520603 
 2328000    1.0210978   -5.2410882   -5.2410882   -4.0317062  0.084514611   -5.2410882     1.209382   520603 
 2329000    1.0223477    -5.242552    -5.242552   -4.0316896  0.098790162    -5.242552    1.2108624   520603 
 2330000    1.0226836   -5.2428492   -5.2428492   -4.0315891  0.064477853   -5.2428492    1.2112602   520603 
 2331000    1.0222512   -5.2423122   -5.2423122   -4.0315642   0.06779759   -5.2423122     1.210748   520603 
 2332000     1.021314   -5.2403892   -5.2403892   -4.0307512  0.081673015   -5.2403892     1.209638   520603 
 2333000    1.0220715   -5.2411029   -5.2411029   -4.0305677  0.070365095   -5.2411029    1.2105352   520603 
 2334000    1.0225432   -5.2416049   -5.2416049   -4.0305109  0.076204003   -5.2416049     1.211094   520603 
 2335000    1.0229629   -5.2417833   -5.2417833   -4.0301923  0.074807634   -5.2417833     1.211591   520603 
 2336000    1.0255768   -5.2437367   -5.2437367   -4.0290498  0.076972353   -5.2437367    1.2146869   520603 
 2337000    1.0244232   -5.2432011   -5.2432011   -4.0298805  0.081081194   -5.2432011    1.2133206   520603 
 2338000    1.0236432   -5.2426436   -5.2426436   -4.0302469  0.086866894   -5.2426436    1.2123967   520603 
 2339000    1.0259971   -5.2458483   -5.2458483   -4.0306636  0.073908176   -5.2458483    1.2151846   520603 
 2340000    1.0252907   -5.2448169   -5.2448169   -4.0304689   0.10171231   -5.2448169     1.214348   520603 
 2341000    1.0246409   -5.2446689   -5.2446689   -4.0310905  0.060499128   -5.2446689    1.2135784   520603 
 2342000    1.0261691    -5.247225    -5.247225   -4.0318366  0.076738937    -5.247225    1.2153884   520603 
 2343000    1.0256826   -5.2458959   -5.2458959   -4.0310837  0.069794009   -5.2458959    1.2148122   520603 
 2344000    1.0258926   -5.2456831   -5.2456831   -4.0306221  0.079151779   -5.2456831     1.215061   520603 
 2345000    1.0249732   -5.2462285   -5.2462285   -4.0322564  0.078279937   -5.2462285     1.213972   520603 
 2346000    1.0263536    -5.247248    -5.247248   -4.0316411  0.081908011    -5.247248    1.2156069   520603 
 2347000    1.0232283   -5.2442933   -5.2442933    -4.032388  0.070612869   -5.2442933    1.2119053   520603 
 2348000    1.0245374   -5.2463182   -5.2463182   -4.0328625  0.092611378   -5.2463182    1.2134558   520603 
 2349000     1.024513   -5.2464917   -5.2464917   -4.0330648  0.053826549   -5.2464917    1.2134269   520603 
 2350000    1.0254116    -5.247415    -5.247415   -4.0329238  0.085641099    -5.247415    1.2144912   520603 
 2351000    1.0262098   -5.2479012   -5.2479012   -4.0324646  0.077328128   -5.2479012    1.2154366   520603 
 2352000    1.0232068   -5.2438782   -5.2438782   -4.0319983  0.087274407   -5.2438782    1.2118799   520603 
 2353000      1.02344    -5.245047    -5.245047   -4.0328909  0.087414719    -5.245047    1.2121561   520603 
 2354000     1.024046   -5.2458333   -5.2458333   -4.0329595  0.078517299   -5.2458333    1.2128737   520603 
 2355000    1.0231016    -5.245265    -5.245265   -4.0335098  0.081190014    -5.245265    1.2117552   520603 
 2356000    1.0230574   -5.2458278   -5.2458278   -4.0341248  0.075376284   -5.2458278     1.211703   520603 
 2357000    1.0228198   -5.2454367   -5.2454367   -4.0340152  0.073019172   -5.2454367    1.2114214   520603 
 2358000    1.0226356   -5.2451912   -5.2451912   -4.0339879  0.076975888   -5.2451912    1.2112033   520603 
 2359000    1.0227979    -5.244809    -5.244809   -4.0334134  0.078725687    -5.244809    1.2113956   520603 
 2360000    1.0242013   -5.2461937   -5.2461937    -4.033136  0.089685538   -5.2461937    1.2130577   520603 
 2361000     1.022676   -5.2446213   -5.2446213   -4.0333701  0.068077382   -5.2446213    1.2112512   520603 
 2362000    1.0241875   -5.2466537   -5.2466537   -4.0336123  0.076982863   -5.2466537    1.2130414   520603 
 2363000    1.0231716   -5.2450669   -5.2450669   -4.0332287  0.077898535   -5.2450669    1.2118382   520603 
 2364000    1.0231785   -5.2452247   -5.2452247   -4.0333783  0.095892839   -5.2452247    1.2118464   520603 
 2365000    1.0260569   -5.2479748   -5.2479748   -4.0327192  0.077135001   -5.2479748    1.2152555   520603 
 2366000    1.0232021   -5.2445689   -5.2445689   -4.0326946  0.074179129   -5.2445689    1.2118743   520603 
 2367000    1.0248148   -5.2465246   -5.2465246   -4.0327402  0.089357481   -5.2465246    1.2137844   520603 
 2368000    1.0232221   -5.2450409   -5.2450409   -4.0331429  0.084596552   -5.2450409     1.211898   520603 
 2369000    1.0232233   -5.2443819   -5.2443819   -4.0324825  0.077097325   -5.2443819    1.2118994   520603 
 2370000    1.0237796   -5.2442369   -5.2442369   -4.0316787  0.085016128   -5.2442369    1.2125583   520603 
 2371000    1.0246131   -5.2451702   -5.2451702   -4.0316247  0.080885646   -5.2451702    1.2135455   520603 
 2372000    1.0231811   -5.2433465   -5.2433465   -4.0314971  0.083734755   -5.2433465    1.2118494   520603 
 2373000    1.0238277   -5.2453408   -5.2453408   -4.0327256  0.075609233   -5.2453408    1.2126152   520603 
 2374000     1.024858   -5.2472862   -5.2472862   -4.0334507  0.077982446   -5.2472862    1.2138355   520603 
 2375000    1.0226678   -5.2454674   -5.2454674    -4.034226   0.08107513   -5.2454674    1.2112414   520603 
 2376000    1.0217389   -5.2442843   -5.2442843    -4.034143  0.066990557   -5.2442843    1.2101413   520603 
 2377000    1.0219609   -5.2442933   -5.2442933   -4.0338891  0.071874634   -5.2442933    1.2104042   520603 
 2378000    1.0228216   -5.2456579   -5.2456579   -4.0342342  0.078114742   -5.2456579    1.2114237   520603 
 2379000     1.022509   -5.2447066   -5.2447066   -4.0336532  0.082727604   -5.2447066    1.2110534   520603 
 2380000    1.0221141   -5.2446802   -5.2446802   -4.0340945  0.074400126   -5.2446802    1.2105856   520603 
 2381000    1.0219688   -5.2450163   -5.2450163   -4.0346027  0.076566763   -5.2450163    1.2104136   520603 
 2382000    1.0229924   -5.2465057   -5.2465057   -4.0348797   0.07663017   -5.2465057    1.2116259   520603 
 2383000    1.0208863   -5.2452713   -5.2452713   -4.0361399  0.062425026   -5.2452713    1.2091314   520603 
 2384000    1.0220086   -5.2467588   -5.2467588   -4.0362981   0.08763593   -5.2467588    1.2104608   520603 
 2385000     1.023559   -5.2487781   -5.2487781   -4.0364811  0.064577005   -5.2487781     1.212297   520603 
 2386000    1.0221142   -5.2478561   -5.2478561   -4.0372703  0.064340956   -5.2478561    1.2105858   520603 
 2387000    1.0233711   -5.2484778   -5.2484778   -4.0364033  0.053374926   -5.2484778    1.2120745   520603 
 2388000    1.0223274   -5.2474424   -5.2474424   -4.0366041  0.077396696   -5.2474424    1.2108383   520603 
 2389000    1.0242702   -5.2510963   -5.2510963   -4.0379569   0.06792295   -5.2510963    1.2131394   520603 
 2390000    1.0224443   -5.2485009   -5.2485009   -4.0375241  0.063104383   -5.2485009    1.2109768   520603 
 2391000    1.0251022   -5.2509646   -5.2509646   -4.0368398  0.067881906   -5.2509646    1.2141248   520603 
 2392000    1.0232836   -5.2483175   -5.2483175   -4.0363466  0.083433386   -5.2483175    1.2119709   520603 
 2393000    1.0247223   -5.2501891   -5.2501891   -4.0365143  0.068530909   -5.2501891    1.2136748   520603 
 2394000    1.0236435   -5.2498796   -5.2498796   -4.0374825   0.05900034   -5.2498796    1.2123971   520603 
 2395000    1.0231957   -5.2486173   -5.2486173   -4.0367506  0.089985728   -5.2486173    1.2118667   520603 
 2396000    1.0241184    -5.250354    -5.250354   -4.0373944  0.089167307    -5.250354    1.2129596   520603 
 2397000    1.0243839   -5.2508424   -5.2508424   -4.0375685  0.071591974   -5.2508424     1.213274   520603 
 2398000    1.0235265   -5.2491843   -5.2491843   -4.0369257  0.090981816   -5.2491843    1.2122585   520603 
 2399000     1.025155   -5.2513256   -5.2513256   -4.0371383  0.095762161   -5.2513256    1.2141873   520603 
 2400000    1.0252744   -5.2517759   -5.2517759   -4.0374471  0.072018928   -5.2517759    1.2143287   520603 
 2401000    1.0249837   -5.2516509   -5.2516509   -4.0376665  0.079192735   -5.2516509    1.2139844   520603 
 2402000      1.02428    -5.250753    -5.250753   -4.0376021   0.08270423    -5.250753     1.213151   520603 
 2403000    1.0230023    -5.249157    -5.249157   -4.0375194  0.085533713    -5.249157    1.2116376   520603 
 2404000     1.023292   -5.2505052   -5.2505052   -4.0385244  0.082918652   -5.2505052    1.2119808   520603 
 2405000    1.0225411   -5.2504009   -5.2504009   -4.0393095  0.079446999   -5.2504009    1.2110914   520603 
 2406000    1.0227225   -5.2500704   -5.2500704   -4.0387641  0.083226718   -5.2500704    1.2113063   520603 
 2407000    1.0227933   -5.2512176   -5.2512176   -4.0398275  0.079224431   -5.2512176    1.2113901   520603 
 2408000    1.0218072   -5.2498127   -5.2498127   -4.0395905  0.079779238   -5.2498127    1.2102222   520603 
 2409000    1.0230515   -5.2497788   -5.2497788   -4.0380829  0.077777819   -5.2497788    1.2116959   520603 
 2410000    1.0220914   -5.2485848   -5.2485848    -4.038026    0.0662882   -5.2485848    1.2105588   520603 
 2411000    1.0240392   -5.2524866   -5.2524866   -4.0396209  0.066646134   -5.2524866    1.2128657   520603 
 2412000    1.0231944   -5.2511972   -5.2511972   -4.0393321  0.061825048   -5.2511972    1.2118652   520603 
 2413000    1.0225309   -5.2509351   -5.2509351   -4.0398559  0.081444367   -5.2509351    1.2110793   520603 
 2414000    1.0227052    -5.251204    -5.251204   -4.0399183  0.072980072    -5.251204    1.2112857   520603 
 2415000    1.0235515    -5.252572    -5.252572   -4.0402839  0.085209544    -5.252572    1.2122881   520603 
 2416000    1.0245332   -5.2538078   -5.2538078   -4.0403569  0.079999854   -5.2538078    1.2134508   520603 
 2417000    1.0227574   -5.2514156   -5.2514156   -4.0400679  0.088304797   -5.2514156    1.2113476   520603 
 2418000    1.0237696   -5.2527648   -5.2527648   -4.0402184  0.085421903   -5.2527648    1.2125464   520603 
 2419000    1.0227767   -5.2513808   -5.2513808   -4.0400103    0.0962173   -5.2513808    1.2113705   520603 
 2420000    1.0230117    -5.251556    -5.251556   -4.0399073  0.080782309    -5.251556    1.2116487   520603 
 2421000    1.0232734   -5.2512304   -5.2512304   -4.0392717  0.065119394   -5.2512304    1.2119587   520603 
 2422000    1.0232833   -5.2513209   -5.2513209   -4.0393504  0.078532188   -5.2513209    1.2119705   520603 
 2423000    1.0226461   -5.2496354   -5.2496354   -4.0384196  0.085088782   -5.2496354    1.2112158   520603 
 2424000    1.0220699   -5.2501789   -5.2501789   -4.0396456  0.091932767   -5.2501789    1.2105333   520603 
 2425000    1.0218408   -5.2492974   -5.2492974   -4.0390355  0.070349891   -5.2492974    1.2102619   520603 
 2426000    1.0226088    -5.251042    -5.251042   -4.0398704  0.071125476    -5.251042    1.2111716   520603 
 2427000    1.0206873   -5.2487377   -5.2487377    -4.039842  0.083528741   -5.2487377    1.2088957   520603 
 2428000    1.0221221   -5.2502331   -5.2502331    -4.039638  0.085811197   -5.2502331    1.2105951   520603 
 2429000    1.0217449   -5.2491152   -5.2491152   -4.0389668  0.056134373   -5.2491152    1.2101484   520603 
 2430000    1.0214986   -5.2474388   -5.2474388   -4.0375821  0.077576376   -5.2474388    1.2098567   520603 
 2431000    1.0213211   -5.2485999   -5.2485999   -4.0389534  0.082735075   -5.2485999    1.2096465   520603 
 2432000    1.0228475   -5.2503819   -5.2503819   -4.0389276  0.079359076   -5.2503819    1.2114542   520603 
 2433000    1.0220889   -5.2499254   -5.2499254   -4.0393695  0.067103068   -5.2499254    1.2105559   520603 
 2434000    1.0226159   -5.2490856   -5.2490856   -4.0379056  0.075230933   -5.2490856      1.21118   520603 
 2435000    1.0225939   -5.2490451   -5.2490451   -4.0378912  0.069941823   -5.2490451    1.2111539   520603 
 2436000    1.0226062    -5.250526    -5.250526   -4.0393574  0.074233522    -5.250526    1.2111686   520603 
 2437000     1.022396   -5.2491168   -5.2491168   -4.0381973  0.069909697   -5.2491168    1.2109196   520603 
 2438000    1.0223711   -5.2499186   -5.2499186   -4.0390286  0.078249074   -5.2499186    1.2108901   520603 
 2439000    1.0220488   -5.2491386   -5.2491386   -4.0386303  0.090146346   -5.2491386    1.2105083   520603 
 2440000    1.0213484   -5.2483751   -5.2483751   -4.0386963  0.071662693   -5.2483751    1.2096788   520603 
 2441000    1.0221083   -5.2485933   -5.2485933   -4.0380146  0.089365809   -5.2485933    1.2105787   520603 
 2442000    1.0227376    -5.249341    -5.249341   -4.0380169  0.088289576    -5.249341    1.2113242   520603 
 2443000    1.0246059    -5.251842    -5.251842    -4.038305   0.08076353    -5.251842    1.2135369   520603 
 2444000    1.0244408   -5.2516026   -5.2516026   -4.0382612    0.1004341   -5.2516026    1.2133414   520603 
 2445000    1.0222241   -5.2488774   -5.2488774   -4.0381615  0.082985745   -5.2488774    1.2107159   520603 
 2446000    1.0234648   -5.2514282   -5.2514282   -4.0392427  0.066219975   -5.2514282    1.2121855   520603 
 2447000    1.0240095    -5.252936    -5.252936   -4.0401055  0.071786672    -5.252936    1.2128305   520603 
 2448000    1.0252896    -5.253943    -5.253943   -4.0395963  0.059827219    -5.253943    1.2143468   520603 
 2449000    1.0232057   -5.2514137   -5.2514137   -4.0395351  0.074595166   -5.2514137    1.2118786   520603 
 2450000    1.0232665   -5.2518296   -5.2518296   -4.0398791  0.089878493   -5.2518296    1.2119505   520603 
 2451000    1.0236363   -5.2524194   -5.2524194   -4.0400309  0.081408516   -5.2524194    1.2123885   520603 
 2452000    1.0213289   -5.2501511   -5.2501511   -4.0404953  0.088693301   -5.2501511    1.2096557   520603 
 2453000    1.0233127   -5.2528715   -5.2528715   -4.0408663  0.064741295   -5.2528715    1.2120052   520603 
 2454000    1.0241014   -5.2527478   -5.2527478   -4.0398083  0.078676071   -5.2527478    1.2129395   520603 
 2455000    1.0226689   -5.2508798   -5.2508798    -4.039637  0.085666481   -5.2508798    1.2112428   520603 
 2456000    1.0234167   -5.2515251   -5.2515251   -4.0393967  0.067091063   -5.2515251    1.2121284   520603 
 2457000    1.0247369   -5.2535988   -5.2535988   -4.0399067   0.07674341   -5.2535988    1.2136921   520603 
 2458000     1.021961   -5.2516565   -5.2516565   -4.0412521  0.054037076   -5.2516565    1.2104044   520603 
 2459000    1.0221044   -5.2510403   -5.2510403   -4.0404661  0.066938151   -5.2510403    1.2105742   520603 
 2460000    1.0218321   -5.2510726   -5.2510726    -4.040821  0.065887417   -5.2510726    1.2102517   520603 
 2461000    1.0222126   -5.2522569   -5.2522569   -4.0415545  0.072673484   -5.2522569    1.2107024   520603 
 2462000     1.023967   -5.2541436   -5.2541436   -4.0413634  0.089446698   -5.2541436    1.2127802   520603 
 2463000    1.0238326   -5.2536717   -5.2536717   -4.0410506  0.075405216   -5.2536717    1.2126211   520603 
 2464000    1.0234249     -5.25282     -5.25282   -4.0406818  0.081304047     -5.25282    1.2121382   520603 
 2465000     1.026042   -5.2559678   -5.2559678   -4.0407299  0.099988967   -5.2559678    1.2152379   520603 
 2466000    1.0257137   -5.2555069   -5.2555069   -4.0406579  0.070821977   -5.2555069     1.214849   520603 
 2467000     1.022965   -5.2531254   -5.2531254   -4.0415319  0.092861253   -5.2531254    1.2115935   520603 
 2468000     1.024182   -5.2547928   -5.2547928    -4.041758    0.1027026   -5.2547928    1.2130348   520603 
 2469000    1.0248151   -5.2562124   -5.2562124   -4.0424277  0.086859075   -5.2562124    1.2137848   520603 
 2470000    1.0250494    -5.256654    -5.256654   -4.0425918  0.079239668    -5.256654    1.2140622   520603 
 2471000    1.0245626   -5.2549244   -5.2549244   -4.0414387   0.10189527   -5.2549244    1.2134857   520603 
 2472000    1.0242944   -5.2552789   -5.2552789   -4.0421108  0.065043501   -5.2552789     1.213168   520603 
 2473000    1.0229768   -5.2531736   -5.2531736   -4.0415662  0.073168677   -5.2531736    1.2116075   520603 
 2474000    1.0236983   -5.2544982   -5.2544982   -4.0420361   0.07459783   -5.2544982     1.212462   520603 
 2475000    1.0229597   -5.2536686   -5.2536686   -4.0420814  0.085899882   -5.2536686    1.2115872   520603 
 2476000    1.0233947   -5.2541714   -5.2541714    -4.042069  0.075528338   -5.2541714    1.2121024   520603 
 2477000    1.0228212   -5.2539828   -5.2539828   -4.0425596  0.072065031   -5.2539828    1.2114232   520603 
 2478000    1.0232494   -5.2534923   -5.2534923    -4.041562  0.064096138   -5.2534923    1.2119303   520603 
 2479000    1.0217686   -5.2520795   -5.2520795   -4.0419031  0.093377497   -5.2520795    1.2101765   520603 
 2480000    1.0208307   -5.2507476   -5.2507476   -4.0416819  0.084348789   -5.2507476    1.2090656   520603 
 2481000     1.022778    -5.252349    -5.252349    -4.040977   0.10003692    -5.252349     1.211372   520603 
 2482000    1.0227237   -5.2528922   -5.2528922   -4.0415845  0.051054001   -5.2528922    1.2113077   520603 
 2483000    1.0193653   -5.2494856   -5.2494856   -4.0421557  0.093391286   -5.2494856      1.20733   520603 
 2484000    1.0212674   -5.2507543   -5.2507543   -4.0411715  0.067329168   -5.2507543    1.2095829   520603 
 2485000    1.0216891   -5.2509743   -5.2509743   -4.0408919  0.069484949   -5.2509743    1.2100823   520603 
 2486000    1.0212997   -5.2514337   -5.2514337   -4.0418126  0.077093723   -5.2514337    1.2096211   520603 
 2487000    1.0236394   -5.2532561   -5.2532561   -4.0408639  0.071558761   -5.2532561    1.2123922   520603 
 2488000    1.0226946   -5.2532485   -5.2532485   -4.0419753  0.078487963   -5.2532485    1.2112732   520603 
 2489000    1.0205041   -5.2522499   -5.2522499    -4.043571   0.07967973   -5.2522499    1.2086788   520603 
 2490000    1.0199421   -5.2514783   -5.2514783   -4.0434652  0.071920251   -5.2514783    1.2080131   520603 
 2491000    1.0198901   -5.2509448   -5.2509448   -4.0429932  0.081099711   -5.2509448    1.2079515   520603 
 2492000    1.0218696    -5.252847    -5.252847   -4.0425509  0.093125387    -5.252847    1.2102961   520603 
 2493000    1.0214563   -5.2517157   -5.2517157   -4.0419092   0.10928948   -5.2517157    1.2098066   520603 
 2494000    1.0215819   -5.2521764   -5.2521764   -4.0422211  0.073065534   -5.2521764    1.2099553   520603 
 2495000    1.0215045   -5.2528729   -5.2528729   -4.0430092  0.077339197   -5.2528729    1.2098637   520603 
 2496000     1.019871   -5.2511758   -5.2511758   -4.0432469  0.086757684   -5.2511758    1.2079289   520603 
 2497000    1.0230996   -5.2565809   -5.2565809    -4.044828  0.088293859   -5.2565809    1.2117529   520603 
 2498000    1.0223899   -5.2557547   -5.2557547   -4.0448424  0.062032686   -5.2557547    1.2109124   520603 
 2499000    1.0232252    -5.255995    -5.255995   -4.0440934  0.074042909    -5.255995    1.2119016   520603 
 2500000    1.0218685   -5.2551609   -5.2551609   -4.0448661    0.0921369   -5.2551609    1.2102948   520603 
 2501000    1.0207427   -5.2544346   -5.2544346   -4.0454731  0.070006647   -5.2544346    1.2089614   520603 
 2502000    1.0208117   -5.2547138   -5.2547138   -4.0456706  0.067554816   -5.2547138    1.2090431   520603 
 2503000    1.0204678   -5.2534918   -5.2534918    -4.044856  0.065489318   -5.2534918    1.2086358   520603 
 2504000     1.023428    -5.255645    -5.255645   -4.0435032  0.077601269    -5.255645    1.2121418   520603 
 2505000    1.0218463   -5.2543145   -5.2543145   -4.0440461  0.077509814   -5.2543145    1.2102685   520603 
 2506000    1.0209739   -5.2541957   -5.2541957   -4.0449605  0.071313644   -5.2541957    1.2092353   520603 
 2507000     1.022772   -5.2560604   -5.2560604   -4.0446955  0.074673677   -5.2560604    1.2113649   520603 
 2508000     1.020821   -5.2547323   -5.2547323   -4.0456782  0.072726909   -5.2547323    1.2090541   520603 
 2509000    1.0232816   -5.2582854   -5.2582854    -4.046317  0.073283342   -5.2582854    1.2119684   520603 
 2510000    1.0199916   -5.2534471   -5.2534471   -4.0453753  0.078971693   -5.2534471    1.2080718   520603 
 2511000    1.0196127   -5.2530158   -5.2530158   -4.0453928  0.067191359   -5.2530158     1.207623   520603 
 2512000    1.0200154    -5.253048    -5.253048    -4.044948  0.074484021    -5.253048       1.2081   520603 
 2513000    1.0207509   -5.2539239   -5.2539239   -4.0449528  0.060210101   -5.2539239    1.2089711   520603 
 2514000    1.0205355    -5.253565    -5.253565    -4.044849   0.06652634    -5.253565     1.208716   520603 
 2515000     1.023499   -5.2577497   -5.2577497   -4.0455238  0.079588961   -5.2577497     1.212226   520603 
 2516000    1.0225763   -5.2565299   -5.2565299   -4.0453968  0.084705847   -5.2565299    1.2111331   520603 
 2517000     1.022689   -5.2563733   -5.2563733   -4.0451068  0.081219768   -5.2563733    1.2112666   520603 
 2518000    1.0234112   -5.2570766   -5.2570766   -4.0449547  0.077531715   -5.2570766     1.212122   520603 
 2519000    1.0240423   -5.2579672   -5.2579672   -4.0450978   0.08401213   -5.2579672    1.2128694   520603 
 2520000    1.0224736   -5.2560716   -5.2560716   -4.0450602  0.092218695   -5.2560716    1.2110114   520603 
 2521000    1.0233394   -5.2563637   -5.2563637   -4.0443268  0.081106191   -5.2563637    1.2120369   520603 
 2522000    1.0225021   -5.2552014   -5.2552014   -4.0441562  0.078928365   -5.2552014    1.2110452   520603 
 2523000     1.021084   -5.2538473   -5.2538473   -4.0444816  0.080605387   -5.2538473    1.2093657   520603 
 2524000    1.0218521   -5.2540315   -5.2540315   -4.0437561  0.069574014   -5.2540315    1.2102754   520603 
 2525000     1.021306   -5.2536807   -5.2536807   -4.0440522  0.060500642   -5.2536807    1.2096285   520603 
 2526000     1.021445   -5.2537937   -5.2537937   -4.0440005  0.055262923   -5.2537937    1.2097932   520603 
 2527000    1.0215251   -5.2540822   -5.2540822   -4.0441942   0.06347063   -5.2540822     1.209888   520603 
 2528000    1.0236284   -5.2567964   -5.2567964   -4.0444172  0.074467344   -5.2567964    1.2123792   520603 
 2529000    1.0230858   -5.2566144   -5.2566144   -4.0448779  0.062779405   -5.2566144    1.2117365   520603 
 2530000    1.0217909   -5.2547794   -5.2547794   -4.0445766  0.094993325   -5.2547794    1.2102029   520603 
 2531000    1.0203475    -5.253164    -5.253164   -4.0446706  0.074603314    -5.253164    1.2084934   520603 
 2532000    1.0214755    -5.254717    -5.254717   -4.0448876  0.087265773    -5.254717    1.2098293   520603 
 2533000     1.021379    -5.255366    -5.255366   -4.0456509  0.072183789    -5.255366    1.2097151   520603 
 2534000    1.0211936   -5.2543094   -5.2543094   -4.0448139  0.058095157   -5.2543094    1.2094954   520603 
 2535000    1.0203821   -5.2541612   -5.2541612   -4.0456268  0.060763663   -5.2541612    1.2085343   520603 
 2536000    1.0213523   -5.2549538   -5.2549538   -4.0452704  0.082287947   -5.2549538    1.2096834   520603 
 2537000    1.0219686   -5.2557435   -5.2557435   -4.0453302  0.076014392   -5.2557435    1.2104133   520603 
 2538000    1.0219647    -5.255614    -5.255614   -4.0452053  0.068979373    -5.255614    1.2104087   520603 
 2539000    1.0207371   -5.2541966   -5.2541966   -4.0452418  0.073584509   -5.2541966    1.2089548   520603 
 2540000    1.0214829   -5.2554767   -5.2554767   -4.0456386  0.084571305   -5.2554767    1.2098381   520603 
 2541000    1.0227561   -5.2576449   -5.2576449   -4.0462988  0.052146579   -5.2576449     1.211346   520603 
 2542000    1.0215362    -5.256126    -5.256126   -4.0462249  0.081342303    -5.256126    1.2099012   520603 
 2543000    1.0207584   -5.2553871   -5.2553871   -4.0464071  0.076329933   -5.2553871      1.20898   520603 
 2544000    1.0231982   -5.2581238   -5.2581238   -4.0462541  0.084571851   -5.2581238    1.2118697   520603 
 2545000    1.0222101   -5.2574892   -5.2574892   -4.0467898  0.057852628   -5.2574892    1.2106994   520603 
 2546000    1.0208902   -5.2553507   -5.2553507   -4.0462145  0.094320345   -5.2553507    1.2091361   520603 
 2547000    1.0226789   -5.2577898   -5.2577898   -4.0465352  0.091792545   -5.2577898    1.2112546   520603 
 2548000    1.0223113    -5.258455    -5.258455   -4.0476358  0.070969242    -5.258455    1.2108192   520603 
 2549000    1.0226862   -5.2570893   -5.2570893    -4.045826  0.066272868   -5.2570893    1.2112633   520603 
 2550000    1.0221634   -5.2575625   -5.2575625   -4.0469184  0.097955253   -5.2575625    1.2106441   520603 
 2551000    1.0219441   -5.2568089   -5.2568089   -4.0464245  0.082782083   -5.2568089    1.2103843   520603 
 2552000     1.021763   -5.2557106   -5.2557106   -4.0455407   0.10038471   -5.2557106    1.2101698   520603 
 2553000     1.020501   -5.2549211   -5.2549211   -4.0462459  0.080481137   -5.2549211    1.2086751   520603 
 2554000    1.0233715    -5.257907    -5.257907   -4.0458321  0.084987837    -5.257907    1.2120749   520603 
 2555000    1.0227903   -5.2580235   -5.2580235   -4.0466369  0.064910701   -5.2580235    1.2113866   520603 
 2556000    1.0211112   -5.2558182   -5.2558182   -4.0464204   0.06208561   -5.2558182    1.2093978   520603 
 2557000    1.0215395   -5.2568336   -5.2568336   -4.0469285  0.069597058   -5.2568336    1.2099051   520603 
 2558000    1.0229075   -5.2580819   -5.2580819   -4.0465565  0.052262687   -5.2580819    1.2115254   520603 
 2559000    1.0230921   -5.2588872   -5.2588872   -4.0471432  0.079118478   -5.2588872     1.211744   520603 
 2560000    1.0225757   -5.2585396   -5.2585396   -4.0474071  0.077857716   -5.2585396    1.2111324   520603 
 2561000    1.0215883    -5.258286    -5.258286    -4.048323  0.078984273    -5.258286     1.209963   520603 
 2562000    1.0221413   -5.2595621   -5.2595621   -4.0489442  0.055031206   -5.2595621    1.2106179   520603 
 2563000    1.0197868   -5.2562988   -5.2562988   -4.0484696  0.074537961   -5.2562988    1.2078292   520603 
 2564000    1.0223701   -5.2598653   -5.2598653   -4.0489765  0.072765932   -5.2598653    1.2108889   520603 
 2565000    1.0201885   -5.2567578   -5.2567578   -4.0484528  0.076954349   -5.2567578     1.208305   520603 
 2566000    1.0197505   -5.2576257   -5.2576257   -4.0498394  0.066776969   -5.2576257    1.2077863   520603 
 2567000    1.0200377   -5.2572925   -5.2572925   -4.0491661  0.078614687   -5.2572925    1.2081264   520603 
 2568000      1.02202   -5.2600694   -5.2600694   -4.0495952  0.067026113   -5.2600694    1.2104742   520603 
 2569000    1.0212911   -5.2587462   -5.2587462   -4.0491353  0.089898558   -5.2587462    1.2096109   520603 
 2570000    1.0210917   -5.2585984   -5.2585984   -4.0492236  0.080212122   -5.2585984    1.2093748   520603 
 2571000    1.0207358   -5.2583767   -5.2583767   -4.0494235  0.078548377   -5.2583767    1.2089532   520603 
 2572000    1.0219398   -5.2596303   -5.2596303   -4.0492511  0.064320012   -5.2596303    1.2103792   520603 
 2573000    1.0225271   -5.2605884   -5.2605884   -4.0495136  0.072656478   -5.2605884    1.2110749   520603 
 2574000    1.0224192    -5.260112    -5.260112   -4.0491649  0.067867603    -5.260112    1.2109471   520603 
 2575000    1.0227863   -5.2603768   -5.2603768    -4.048995  0.085475349   -5.2603768    1.2113818   520603 
 2576000    1.0222619    -5.260841    -5.260841   -4.0500803  0.075534584    -5.260841    1.2107607   520603 
 2577000    1.0204538    -5.258987    -5.258987   -4.0503678  0.086610839    -5.258987    1.2086192   520603 
 2578000    1.0200488   -5.2592882   -5.2592882   -4.0511487  0.095856199   -5.2592882    1.2081395   520603 
 2579000    1.0197556   -5.2588457   -5.2588457   -4.0510535  0.074654568   -5.2588457    1.2077923   520603 
 2580000    1.0212239   -5.2611238   -5.2611238   -4.0515925  0.081454497   -5.2611238    1.2095313   520603 
 2581000     1.021501   -5.2616197   -5.2616197   -4.0517601  0.096298116   -5.2616197    1.2098596   520603 
 2582000    1.0216067   -5.2616972   -5.2616972   -4.0517124  0.079972059   -5.2616972    1.2099848   520603 
 2583000    1.0224821   -5.2622209   -5.2622209   -4.0511994  0.070563262   -5.2622209    1.2110215   520603 
 2584000     1.022265   -5.2618114   -5.2618114   -4.0510469  0.069799576   -5.2618114    1.2107644   520603 
 2585000    1.0207109   -5.2602274   -5.2602274   -4.0513037  0.083371986   -5.2602274    1.2089238   520603 
 2586000     1.021284   -5.2607719   -5.2607719   -4.0511693  0.062599885   -5.2607719    1.2096025   520603 
 2587000    1.0229525   -5.2628798   -5.2628798   -4.0513011  0.060886937   -5.2628798    1.2115786   520603 
 2588000    1.0223691   -5.2630196   -5.2630196    -4.052132  0.060652621   -5.2630196    1.2108876   520603 
 2589000    1.0203577   -5.2610759   -5.2610759   -4.0525705  0.065040267   -5.2610759    1.2085054   520603 
 2590000    1.0209322   -5.2606489   -5.2606489   -4.0514631  0.070028743   -5.2606489    1.2091859   520603 
 2591000    1.0195687   -5.2595538   -5.2595538   -4.0519828  0.080859161   -5.2595538    1.2075709   520603 
 2592000    1.0202907   -5.2601248   -5.2601248   -4.0516988  0.073252663   -5.2601248     1.208426   520603 
 2593000    1.0208718   -5.2598135   -5.2598135   -4.0506992  0.077371346   -5.2598135    1.2091143   520603 
 2594000    1.0220609   -5.2604663   -5.2604663   -4.0499437  0.072294899   -5.2604663    1.2105226   520603 
 2595000     1.022571   -5.2608037   -5.2608037    -4.049677  0.081994198   -5.2608037    1.2111268   520603 
 2596000    1.0207381   -5.2596462   -5.2596462   -4.0506903  0.065177251   -5.2596462    1.2089559   520603 
 2597000    1.0200809   -5.2583349   -5.2583349   -4.0501574  0.072972574   -5.2583349    1.2081776   520603 
 2598000    1.0207298   -5.2592874   -5.2592874   -4.0503413  0.082402734   -5.2592874    1.2089461   520603 
 2599000    1.0182806   -5.2565999   -5.2565999   -4.0505546  0.066870517   -5.2565999    1.2060453   520603 
 2600000    1.0198572   -5.2590568   -5.2590568   -4.0511442  0.073801401   -5.2590568    1.2079126   520603 
 2601000    1.0213349   -5.2603175   -5.2603175   -4.0506548  0.052440757   -5.2603175    1.2096628   520603 
 2602000     1.021375   -5.2604197   -5.2604197   -4.0507095  0.088060405   -5.2604197    1.2097102   520603 
 2603000    1.0229295   -5.2609525   -5.2609525    -4.049401  0.082677422   -5.2609525    1.2115515   520603 
 2604000    1.0211555   -5.2587634   -5.2587634   -4.0493131  0.076324848   -5.2587634    1.2094503   520603 
 2605000    1.0236849   -5.2614342   -5.2614342   -4.0489881  0.085921104   -5.2614342    1.2124461   520603 
 2606000    1.0219811   -5.2596494   -5.2596494   -4.0492213  0.092407646   -5.2596494    1.2104281   520603 
 2607000    1.0227147   -5.2598276   -5.2598276   -4.0485306  0.072102296   -5.2598276    1.2112971   520603 
 2608000     1.023371   -5.2620981   -5.2620981   -4.0500238  0.084307195   -5.2620981    1.2120744   520603 
 2609000    1.0225604    -5.260385    -5.260385   -4.0492707  0.090361987    -5.260385    1.2111143   520603 
 2610000    1.0216431   -5.2590154   -5.2590154   -4.0489877  0.092419239   -5.2590154    1.2100278   520603 
 2611000    1.0215766   -5.2594171   -5.2594171    -4.049468  0.077833184   -5.2594171    1.2099491   520603 
 2612000    1.0207625   -5.2592486   -5.2592486   -4.0502638  0.071246116   -5.2592486    1.2089848   520603 
 2613000    1.0202667   -5.2588493   -5.2588493   -4.0504516  0.085607862   -5.2588493    1.2083976   520603 
 2614000    1.0208883   -5.2594065   -5.2594065   -4.0502727  0.066944457   -5.2594065    1.2091339   520603 
 2615000    1.0221337   -5.2618198   -5.2618198    -4.051211  0.073188304   -5.2618198    1.2106089   520603 
 2616000     1.020257   -5.2605548   -5.2605548   -4.0521686  0.065843201   -5.2605548    1.2083862   520603 
 2617000    1.0205242   -5.2599964   -5.2599964   -4.0512939  0.086710606   -5.2599964    1.2087025   520603 
 2618000    1.0211772   -5.2602326   -5.2602326   -4.0507566  0.073926681   -5.2602326     1.209476   520603 
 2619000    1.0227341   -5.2623293   -5.2623293   -4.0510093  0.064554614   -5.2623293      1.21132   520603 
 2620000    1.0208028    -5.260504    -5.260504   -4.0514714  0.065899313    -5.260504    1.2090326   520603 
 2621000    1.0202983   -5.2608123   -5.2608123   -4.0523773  0.084148161   -5.2608123     1.208435   520603 
 2622000    1.0209962    -5.261858    -5.261858   -4.0525964  0.055078536    -5.261858    1.2092616   520603 
 2623000    1.0226135   -5.2633904   -5.2633904   -4.0522133  0.082693466   -5.2633904    1.2111771   520603 
 2624000    1.0216065   -5.2623841   -5.2623841   -4.0523996  0.077234908   -5.2623841    1.2099845   520603 
 2625000    1.0203895   -5.2612659   -5.2612659   -4.0527228  0.093097944   -5.2612659    1.2085431   520603 
 2626000    1.0208807   -5.2606994   -5.2606994   -4.0515745  0.076263244   -5.2606994    1.2091249   520603 
 2627000     1.020678   -5.2603432   -5.2603432   -4.0514585  0.090297369   -5.2603432    1.2088847   520603 
 2628000    1.0218171   -5.2613886   -5.2613886   -4.0511547  0.080127023   -5.2613886    1.2102339   520603 
 2629000    1.0223583   -5.2627366   -5.2627366   -4.0518617  0.062372884   -5.2627366    1.2108749   520603 
 2630000    1.0209582     -5.26147     -5.26147   -4.0522534  0.096412879     -5.26147    1.2092166   520603 
 2631000    1.0202229   -5.2616001   -5.2616001   -4.0532543  0.072897699   -5.2616001    1.2083458   520603 
 2632000     1.020591   -5.2626177   -5.2626177   -4.0538359  0.069582687   -5.2626177    1.2087818   520603 
 2633000    1.0223764   -5.2641748   -5.2641748   -4.0532785  0.069147041   -5.2641748    1.2108963   520603 
 2634000    1.0205284   -5.2608088   -5.2608088   -4.0521011  0.083079164   -5.2608088    1.2087076   520603 
 2635000    1.0211313   -5.2619128   -5.2619128   -4.0524912  0.091520736   -5.2619128    1.2094217   520603 
 2636000    1.0225038   -5.2632709   -5.2632709   -4.0522236  0.088813344   -5.2632709    1.2110472   520603 
 2637000    1.0213394   -5.2610058   -5.2610058   -4.0513378  0.067383757   -5.2610058    1.2096681   520603 
 2638000    1.0201787   -5.2597134   -5.2597134     -4.05142  0.072957481   -5.2597134    1.2082934   520603 
 2639000    1.0185779   -5.2580972   -5.2580972   -4.0516998   0.07501185   -5.2580972    1.2063974   520603 
 2640000    1.0213139   -5.2597919   -5.2597919    -4.050154  0.048383782   -5.2597919     1.209638   520603 
 2641000    1.0192695   -5.2577294   -5.2577294   -4.0505128  0.064222668   -5.2577294    1.2072166   520603 
 2642000    1.0205339   -5.2607839   -5.2607839   -4.0520698  0.067298053   -5.2607839    1.2087141   520603 
 2643000    1.0214126   -5.2615936   -5.2615936   -4.0518388   0.06571327   -5.2615936    1.2097549   520603 
 2644000    1.0203867   -5.2600959   -5.2600959   -4.0515562  0.076129918   -5.2600959    1.2085398   520603 
 2645000     1.023092   -5.2635449   -5.2635449   -4.0518009  0.083440562   -5.2635449    1.2117439   520603 
 2646000    1.0217891   -5.2622246   -5.2622246   -4.0520238   0.08730805   -5.2622246    1.2102008   520603 
 2647000    1.0222264   -5.2634865   -5.2634865   -4.0527678  0.067165487   -5.2634865    1.2107187   520603 
 2648000    1.0201611   -5.2610443   -5.2610443   -4.0527717  0.077374166   -5.2610443    1.2082726   520603 
 2649000    1.0227622   -5.2638745   -5.2638745   -4.0525212  0.080913335   -5.2638745    1.2113532   520603 
 2650000     1.021429   -5.2627186   -5.2627186   -4.0529443  0.084494987   -5.2627186    1.2097743   520603 
 2651000    1.0222621   -5.2640314   -5.2640314   -4.0532704  0.073506126   -5.2640314     1.210761   520603 
 2652000    1.0206103    -5.261863    -5.261863   -4.0530584  0.078955722    -5.261863    1.2088046   520603 
 2653000    1.0208676    -5.262822    -5.262822   -4.0537127  0.087238201    -5.262822    1.2091093   520603 
 2654000    1.0195452   -5.2610761   -5.2610761   -4.0535331  0.083412876   -5.2610761    1.2075431   520603 
 2655000    1.0208271   -5.2635807   -5.2635807   -4.0545193  0.091022142   -5.2635807    1.2090614   520603 
 2656000    1.0198471   -5.2632362   -5.2632362   -4.0553355    0.0677309   -5.2632362    1.2079007   520603 
 2657000    1.0188525   -5.2627531   -5.2627531   -4.0560304  0.067125698   -5.2627531    1.2067226   520603 
 2658000    1.0209199   -5.2650037   -5.2650037   -4.0558324  0.073507682   -5.2650037    1.2091713   520603 
 2659000    1.0231041    -5.267586    -5.267586   -4.0558278  0.075906475    -5.267586    1.2117582   520603 
 2660000    1.0201857    -5.264805    -5.264805   -4.0565033  0.065460556    -5.264805    1.2083017   520603 
 2661000    1.0217369   -5.2669811   -5.2669811   -4.0568422  0.081140057   -5.2669811    1.2101389   520603 
 2662000    1.0204087   -5.2647789   -5.2647789   -4.0562131  0.075565682   -5.2647789    1.2085658   520603 
 2663000    1.0196773   -5.2634039   -5.2634039   -4.0557044  0.077042023   -5.2634039    1.2076995   520603 
 2664000    1.0198006   -5.2636159   -5.2636159   -4.0557703  0.067664761   -5.2636159    1.2078456   520603 
 2665000    1.0216965   -5.2649549   -5.2649549   -4.0548638  0.082122354   -5.2649549    1.2100911   520603 
 2666000    1.0197977   -5.2627159   -5.2627159   -4.0548738  0.076535467   -5.2627159    1.2078421   520603 
 2667000    1.0202159   -5.2631155   -5.2631155    -4.054778  0.093638716   -5.2631155    1.2083375   520603 
 2668000      1.02088   -5.2636708   -5.2636708   -4.0545468  0.047745781   -5.2636708     1.209124   520603 
 2669000    1.0202733   -5.2629792   -5.2629792   -4.0545737  0.085092716   -5.2629792    1.2084054   520603 
 2670000     1.020879   -5.2634473   -5.2634473   -4.0543245  0.069935903   -5.2634473    1.2091229   520603 
 2671000    1.0211541   -5.2641331   -5.2641331   -4.0546844   0.06944479   -5.2641331    1.2094487   520603 
 2672000    1.0190351    -5.261861    -5.261861   -4.0549222  0.080996092    -5.261861    1.2069389   520603 
 2673000     1.019484    -5.262773    -5.262773   -4.0553025  0.073859428    -5.262773    1.2074705   520603 
 2674000    1.0194592   -5.2621104   -5.2621104   -4.0546692   0.07838442   -5.2621104    1.2074413   520603 
 2675000    1.0198396   -5.2625152   -5.2625152   -4.0546234  0.077728122   -5.2625152    1.2078918   520603 
 2676000    1.0204788   -5.2634737   -5.2634737   -4.0548249  0.066565981   -5.2634737    1.2086488   520603 
 2677000    1.0198697   -5.2627865   -5.2627865   -4.0548591  0.081309026   -5.2627865    1.2079274   520603 
 2678000    1.0199687   -5.2625045   -5.2625045   -4.0544599   0.07182853   -5.2625045    1.2080447   520603 
 2679000    1.0191548   -5.2614834   -5.2614834   -4.0544027  0.056736096   -5.2614834    1.2070807   520603 
 2680000    1.0184585   -5.2601325   -5.2601325   -4.0538765  0.066567343   -5.2601325     1.206256   520603 
 2681000    1.0218389   -5.2647333   -5.2647333   -4.0544736  0.070166996   -5.2647333    1.2102597   520603 
 2682000    1.0211778      -5.2645      -5.2645   -4.0550232  0.055486773      -5.2645    1.2094767   520603 
 2683000    1.0226481   -5.2665073   -5.2665073   -4.0552891  0.059536159   -5.2665073    1.2112182   520603 
 2684000    1.0209941   -5.2654453   -5.2654453   -4.0561862   0.10001195   -5.2654453    1.2092592   520603 
 2685000    1.0215076   -5.2661595   -5.2661595   -4.0562922  0.067871868   -5.2661595    1.2098674   520603 
 2686000    1.0207056   -5.2666924   -5.2666924    -4.057775  0.059471619   -5.2666924    1.2089174   520603 
 2687000    1.0218341   -5.2670926   -5.2670926   -4.0568386   0.08404971   -5.2670926     1.210254   520603 
 2688000    1.0214511    -5.267104    -5.267104   -4.0573035  0.091000439    -5.267104    1.2098005   520603 
 2689000    1.0217582   -5.2679845   -5.2679845   -4.0578204  0.070999456   -5.2679845    1.2101642   520603 
 2690000    1.0205013   -5.2664606   -5.2664606   -4.0577851  0.090642403   -5.2664606    1.2086755   520603 
 2691000    1.0199258   -5.2662982   -5.2662982   -4.0583044  0.069152613   -5.2662982    1.2079939   520603 
 2692000    1.0190213   -5.2649844   -5.2649844   -4.0580619  0.069403406   -5.2649844    1.2069226   520603 
 2693000    1.0204812   -5.2664605   -5.2664605   -4.0578088  0.082292694   -5.2664605    1.2086517   520603 
 2694000    1.0199448   -5.2654114   -5.2654114    -4.057395  0.086344429   -5.2654114    1.2080164   520603 
 2695000    1.0199154    -5.265056    -5.265056   -4.0570745  0.099083237    -5.265056    1.2079815   520603 
 2696000    1.0195324   -5.2653443   -5.2653443   -4.0578165  0.091822579   -5.2653443    1.2075279   520603 
 2697000     1.018825   -5.2653572   -5.2653572   -4.0586671  0.098923258   -5.2653572    1.2066901   520603 
 2698000    1.0183095   -5.2650261   -5.2650261   -4.0589466  0.065508849   -5.2650261    1.2060795   520603 
 2699000    1.0180824   -5.2653715   -5.2653715    -4.059561  0.088180607   -5.2653715    1.2058105   520603 
 2700000    1.0191673   -5.2669228   -5.2669228   -4.0598273  0.083506867   -5.2669228    1.2070955   520603 
 2701000    1.0189815   -5.2659983   -5.2659983   -4.0591229  0.074639096   -5.2659983    1.2068754   520603 
 2702000    1.0196642   -5.2666532   -5.2666532   -4.0589692  0.082380287   -5.2666532     1.207684   520603 
 2703000    1.0193429   -5.2663066   -5.2663066   -4.0590031  0.085157849   -5.2663066    1.2073035   520603 
 2704000    1.0188946   -5.2654248   -5.2654248   -4.0586522  0.072205711   -5.2654248    1.2067726   520603 
 2705000    1.0197974   -5.2672581   -5.2672581   -4.0594163  0.072068976   -5.2672581    1.2078418   520603 
 2706000    1.0186635   -5.2659869   -5.2659869   -4.0594881  0.065121806   -5.2659869    1.2064988   520603 
 2707000    1.0176073   -5.2656791   -5.2656791   -4.0604313   0.07863474   -5.2656791    1.2052478   520603 
 2708000    1.0190238   -5.2659696   -5.2659696    -4.059044  0.083217226   -5.2659696    1.2069256   520603 
 2709000    1.0199495   -5.2671065   -5.2671065   -4.0590846  0.063217953   -5.2671065     1.208022   520603 
 2710000    1.0203161   -5.2667613   -5.2667613   -4.0583052   0.07391291   -5.2667613    1.2084561   520603 
 2711000    1.0206282   -5.2664152   -5.2664152   -4.0575894  0.067968397   -5.2664152    1.2088258   520603 
 2712000    1.0198788    -5.266265    -5.266265   -4.0583268  0.066403885    -5.266265    1.2079382   520603 
 2713000    1.0175739   -5.2631724   -5.2631724    -4.057964  0.068293918   -5.2631724    1.2052083   520603 
 2714000    1.0206727    -5.266971    -5.266971   -4.0580925  0.063106824    -5.266971    1.2088785   520603 
 2715000    1.0201222   -5.2669587   -5.2669587   -4.0587321  0.060395242   -5.2669587    1.2082265   520603 
 2716000    1.0204183   -5.2674442   -5.2674442    -4.058867  0.082038308   -5.2674442    1.2085772   520603 
 2717000    1.0213081   -5.2695714   -5.2695714   -4.0599403  0.095057642   -5.2695714    1.2096311   520603 
 2718000     1.021056   -5.2684742   -5.2684742   -4.0591418  0.086471289   -5.2684742    1.2093324   520603 
 2719000    1.0198601   -5.2665565   -5.2665565   -4.0586404  0.088523421   -5.2665565    1.2079161   520603 
 2720000     1.020254   -5.2672701   -5.2672701   -4.0588874  0.083085937   -5.2672701    1.2083826   520603 
 2721000    1.0207788   -5.2672786   -5.2672786   -4.0582744  0.041542205   -5.2672786    1.2090042   520603 
 2722000    1.0203788   -5.2683643   -5.2683643   -4.0598339   0.06765539   -5.2683643    1.2085304   520603 
 2723000    1.0196887   -5.2670323   -5.2670323   -4.0593193  0.078854975   -5.2670323     1.207713   520603 
 2724000    1.0200091    -5.266541    -5.266541   -4.0584484  0.080027459    -5.266541    1.2080926   520603 
 2725000    1.0190154   -5.2655842   -5.2655842   -4.0586687  0.081368228   -5.2655842    1.2069156   520603 
 2726000    1.0205289   -5.2678436   -5.2678436   -4.0591354  0.083650463   -5.2678436    1.2087082   520603 
 2727000    1.0198789   -5.2674799   -5.2674799   -4.0595417  0.066637518   -5.2674799    1.2079383   520603 
 2728000    1.0183772   -5.2648466   -5.2648466   -4.0586869  0.072534371   -5.2648466    1.2061597   520603 
 2729000    1.0187487   -5.2654186   -5.2654186   -4.0588188  0.065621284   -5.2654186    1.2065997   520603 
 2730000    1.0216844   -5.2693904   -5.2693904   -4.0593137  0.057391205   -5.2693904    1.2100767   520603 
 2731000    1.0195474   -5.2665351   -5.2665351   -4.0589894  0.096772261   -5.2665351    1.2075457   520603 
 2732000    1.0207067   -5.2675661   -5.2675661   -4.0586473  0.073315124   -5.2675661    1.2089187   520603 
 2733000    1.0217863   -5.2685247   -5.2685247   -4.0583273  0.071022289   -5.2685247    1.2101974   520603 
 2734000     1.022828   -5.2695586   -5.2695586   -4.0581274  0.069081447   -5.2695586    1.2114312   520603 
 2735000    1.0232153   -5.2694386   -5.2694386   -4.0575487  0.076611364   -5.2694386    1.2118899   520603 
 2736000      1.02117   -5.2676849   -5.2676849   -4.0582174   0.08297985   -5.2676849    1.2094675   520603 
 2737000    1.0220154   -5.2693189   -5.2693189   -4.0588501  0.058274734   -5.2693189    1.2104688   520603 
 2738000    1.0208013   -5.2675032   -5.2675032   -4.0584724  0.098841272   -5.2675032    1.2090308   520603 
 2739000    1.0216308   -5.2679022   -5.2679022   -4.0578889  0.072494474   -5.2679022    1.2100132   520603 
 2740000    1.0196713   -5.2664084   -5.2664084   -4.0587159   0.09345273   -5.2664084    1.2076925   520603 
 2741000    1.0204176   -5.2672362   -5.2672362   -4.0586598  0.079325675   -5.2672362    1.2085764   520603 
 2742000    1.0209796   -5.2686174   -5.2686174   -4.0593754  0.081341553   -5.2686174     1.209242   520603 
 2743000    1.0199953   -5.2674571   -5.2674571   -4.0593809  0.078828888   -5.2674571    1.2080762   520603 
 2744000    1.0180817   -5.2653139   -5.2653139   -4.0595042   0.07886905   -5.2653139    1.2058098   520603 
 2745000    1.0197185   -5.2674677   -5.2674677   -4.0597194  0.079226658   -5.2674677    1.2077483   520603 
 2746000    1.0198422   -5.2671933   -5.2671933   -4.0592984   0.07234187   -5.2671933    1.2078948   520603 
 2747000     1.019453   -5.2669312   -5.2669312   -4.0594973  0.075151124   -5.2669312    1.2074339   520603 
 2748000    1.0185745   -5.2662243   -5.2662243    -4.059831  0.089038311   -5.2662243    1.2063933   520603 
 2749000    1.0191818   -5.2666125   -5.2666125   -4.0594998  0.052787546   -5.2666125    1.2071127   520603 
 2750000    1.0186752   -5.2656204   -5.2656204   -4.0591078  0.077621119   -5.2656204    1.2065126   520603 
 2751000    1.0194666   -5.2670326   -5.2670326   -4.0595826   0.09180364   -5.2670326      1.20745   520603 
 2752000    1.0184919   -5.2659654   -5.2659654   -4.0596699  0.095416968   -5.2659654    1.2062955   520603 
 2753000    1.0179671   -5.2663437   -5.2663437   -4.0606696  0.075824405   -5.2663437     1.205674   520603 
 2754000     1.019708   -5.2674214   -5.2674214   -4.0596855  0.086179724   -5.2674214    1.2077359   520603 
 2755000    1.0217431    -5.270608    -5.270608   -4.0604618  0.080507445    -5.270608    1.2101463   520603 
 2756000    1.0207316   -5.2696284   -5.2696284   -4.0606802   0.07338821   -5.2696284    1.2089482   520603 
 2757000    1.0206311   -5.2708733   -5.2708733   -4.0620442  0.075387601   -5.2708733    1.2088292   520603 
 2758000    1.0188889   -5.2686124   -5.2686124   -4.0618466   0.07838361   -5.2686124    1.2067658   520603 
 2759000    1.0210033   -5.2715158   -5.2715158   -4.0622458   0.08232208   -5.2715158      1.20927   520603 
 2760000     1.020876   -5.2717253   -5.2717253    -4.062606  0.075725782   -5.2717253    1.2091193   520603 
 2761000    1.0196511   -5.2701957   -5.2701957   -4.0625271  0.073559514   -5.2701957    1.2076686   520603 
 2762000    1.0215324   -5.2728351   -5.2728351   -4.0629384  0.090696289   -5.2728351    1.2098967   520603 
 2763000    1.0210864   -5.2715491   -5.2715491   -4.0621807   0.10285777   -5.2715491    1.2093684   520603 
 2764000    1.0194749   -5.2699383   -5.2699383   -4.0624785  0.070986623   -5.2699383    1.2074598   520603 
 2765000    1.0205803   -5.2710119   -5.2710119   -4.0622428  0.086752291   -5.2710119     1.208769   520603 
 2766000     1.018062   -5.2679942   -5.2679942   -4.0622078  0.077992196   -5.2679942    1.2057864   520603 
 2767000       1.0197    -5.270111    -5.270111   -4.0623846  0.085588664    -5.270111    1.2077264   520603 
 2768000    1.0190015   -5.2696486   -5.2696486   -4.0627495   0.08423334   -5.2696486    1.2068992   520603 
 2769000     1.019474   -5.2702517   -5.2702517   -4.0627929  0.071520744   -5.2702517    1.2074588   520603 
 2770000    1.0180901   -5.2687257   -5.2687257    -4.062906    0.1049873   -5.2687257    1.2058197   520603 
 2771000    1.0176463   -5.2680207   -5.2680207   -4.0627267  0.068733283   -5.2680207     1.205294   520603 
 2772000    1.0182563   -5.2682822   -5.2682822   -4.0622657  0.075359199   -5.2682822    1.2060165   520603 
 2773000    1.0183682   -5.2680224   -5.2680224   -4.0618734  0.076623068   -5.2680224     1.206149   520603 
 2774000    1.0183731   -5.2676525   -5.2676525   -4.0614976  0.046395385   -5.2676525    1.2061549   520603 
 2775000    1.0184593   -5.2674034   -5.2674034   -4.0611465  0.080120259   -5.2674034     1.206257   520603 
 2776000    1.0190362    -5.268702    -5.268702   -4.0617618  0.076139748    -5.268702    1.2069402   520603 
 2777000    1.0203406   -5.2701914   -5.2701914   -4.0617063  0.065745898   -5.2701914    1.2084851   520603 
 2778000    1.0207921   -5.2705924   -5.2705924   -4.0615725  0.083005362   -5.2705924    1.2090199   520603 
 2779000    1.0195788   -5.2689535   -5.2689535   -4.0613706  0.086238429   -5.2689535    1.2075829   520603 
 2780000    1.0199767   -5.2692622   -5.2692622    -4.061208    0.0742487   -5.2692622    1.2080541   520603 
 2781000    1.0196954   -5.2697196   -5.2697196   -4.0619986  0.087448756   -5.2697196    1.2077209   520603 
 2782000    1.0207198   -5.2711878   -5.2711878   -4.0622535  0.068846874   -5.2711878    1.2089343   520603 
 2783000    1.0200842   -5.2707935   -5.2707935   -4.0626121  0.064029055   -5.2707935    1.2081814   520603 
 2784000    1.0187397   -5.2698039   -5.2698039   -4.0632148  0.085165674   -5.2698039    1.2065891   520603 
 2785000    1.0185463   -5.2678184   -5.2678184   -4.0614584  0.074038446   -5.2678184      1.20636   520603 
 2786000    1.0196889   -5.2700142   -5.2700142   -4.0623009  0.065275528   -5.2700142    1.2077132   520603 
 2787000    1.0188471   -5.2685148   -5.2685148   -4.0617985   0.08051706   -5.2685148    1.2067163   520603 
 2788000    1.0191166   -5.2686241   -5.2686241   -4.0615887  0.064189802   -5.2686241    1.2070354   520603 
 2789000    1.0176797   -5.2663255   -5.2663255   -4.0609919  0.069694903   -5.2663255    1.2053336   520603 
 2790000    1.0179758   -5.2671578   -5.2671578   -4.0614735  0.073709876   -5.2671578    1.2056843   520603 
 2791000    1.0171372   -5.2667308   -5.2667308   -4.0620398  0.049137263   -5.2667308     1.204691   520603 
 2792000    1.0174182   -5.2657202   -5.2657202   -4.0606963  0.068323289   -5.2657202    1.2050238   520603 
 2793000    1.0191663   -5.2677421   -5.2677421   -4.0606478  0.060562486   -5.2677421    1.2070943   520603 
 2794000    1.0181727   -5.2675763   -5.2675763   -4.0616588  0.086524515   -5.2675763    1.2059175   520603 
 2795000    1.0187721   -5.2676811   -5.2676811   -4.0610537   0.06842246   -5.2676811    1.2066274   520603 
 2796000    1.0170196   -5.2656773   -5.2656773   -4.0611255  0.092918226   -5.2656773    1.2045518   520603 
 2797000    1.0185927   -5.2681204   -5.2681204   -4.0617055  0.069655041   -5.2681204     1.206415   520603 
 2798000    1.0183702   -5.2679938   -5.2679938   -4.0618424  0.064997826   -5.2679938    1.2061514   520603 
 2799000    1.0207954   -5.2712913   -5.2712913   -4.0622676   0.06850229   -5.2712913    1.2090238   520603 
 2800000    1.0194884   -5.2699596   -5.2699596   -4.0624838  0.073682263   -5.2699596    1.2074758   520603 
 2801000    1.0174683   -5.2675801   -5.2675801   -4.0624968  0.075810579   -5.2675801    1.2050832   520603 
 2802000    1.0206141   -5.2704985   -5.2704985   -4.0616894  0.080900539   -5.2704985    1.2088091   520603 
 2803000    1.0187157   -5.2697923   -5.2697923   -4.0632317  0.095183527   -5.2697923    1.2065606   520603 
 2804000    1.0197183   -5.2697705   -5.2697705   -4.0620224  0.080865615   -5.2697705    1.2077481   520603 
 2805000     1.018955   -5.2690226   -5.2690226   -4.0621785  0.087983254   -5.2690226    1.2068441   520603 
 2806000    1.0176881   -5.2682879   -5.2682879   -4.0629444  0.079658963   -5.2682879    1.2053435   520603 
 2807000    1.0222912   -5.2731664   -5.2731664    -4.062371   0.07354075   -5.2731664    1.2107954   520603 
 2808000    1.0201847    -5.270939    -5.270939   -4.0626386  0.098150015    -5.270939    1.2083005   520603 
 2809000    1.0196782   -5.2699961   -5.2699961   -4.0622955   0.07779867   -5.2699961    1.2077006   520603 
 2810000    1.0207607   -5.2725868   -5.2725868   -4.0636041   0.06229045   -5.2725868    1.2089827   520603 
 2811000    1.0213593   -5.2738287   -5.2738287    -4.064137  0.081508099   -5.2738287    1.2096917   520603 
 2812000    1.0202319   -5.2714662   -5.2714662   -4.0631098  0.063939252   -5.2714662    1.2083564   520603 
 2813000    1.0198832   -5.2715649   -5.2715649   -4.0636216  0.078746928   -5.2715649    1.2079434   520603 
 2814000    1.0184483   -5.2703435   -5.2703435   -4.0640995   0.07973394   -5.2703435    1.2062439   520603 
 2815000    1.0187995   -5.2708769   -5.2708769    -4.064217  0.051216025   -5.2708769    1.2066599   520603 
 2816000    1.0203769   -5.2722898   -5.2722898   -4.0637617  0.073711097   -5.2722898    1.2085282   520603 
 2817000    1.0198848   -5.2721866   -5.2721866   -4.0642414  0.063033259   -5.2721866    1.2079453   520603 
 2818000    1.0178657   -5.2696982   -5.2696982   -4.0641444  0.053715277   -5.2696982    1.2055538   520603 
 2819000    1.0200418    -5.272799    -5.272799   -4.0646678  0.076315836    -5.272799    1.2081312   520603 
 2820000    1.0181483   -5.2703547   -5.2703547   -4.0644661   0.06894939   -5.2703547    1.2058886   520603 
 2821000    1.0192912   -5.2718096   -5.2718096   -4.0645674  0.066618612   -5.2718096    1.2072422   520603 
 2822000    1.0186927   -5.2705319   -5.2705319   -4.0639986  0.072718682   -5.2705319    1.2065334   520603 
 2823000     1.018975   -5.2715234   -5.2715234   -4.0646557  0.074842803   -5.2715234    1.2068678   520603 
 2824000    1.0191874   -5.2715903   -5.2715903    -4.064471  0.057865938   -5.2715903    1.2071193   520603 
 2825000    1.0195849   -5.2721388   -5.2721388   -4.0645487  0.073861608   -5.2721388      1.20759   520603 
 2826000    1.0189329   -5.2718144   -5.2718144   -4.0649966  0.076401613   -5.2718144    1.2068179   520603 
 2827000    1.0205977   -5.2739589   -5.2739589   -4.0651692  0.067904747   -5.2739589    1.2087897   520603 
 2828000    1.0176864   -5.2708931   -5.2708931   -4.0655515  0.087674561   -5.2708931    1.2053416   520603 
 2829000    1.0187915   -5.2719901   -5.2719901   -4.0653397  0.063397065   -5.2719901    1.2066504   520603 
 2830000    1.0198545   -5.2721577   -5.2721577   -4.0642483  0.077558754   -5.2721577    1.2079094   520603 
 2831000    1.0198265   -5.2716301   -5.2716301   -4.0637538  0.067346443   -5.2716301    1.2078763   520603 
 2832000    1.0209697   -5.2730615   -5.2730615   -4.0638312  0.075513518   -5.2730615    1.2092303   520603 
 2833000    1.0192657   -5.2716655   -5.2716655   -4.0644535  0.071568049   -5.2716655     1.207212   520603 
 2834000    1.0199243   -5.2739978   -5.2739978   -4.0660058  0.087649424   -5.2739978    1.2079921   520603 
 2835000    1.0202677   -5.2739808   -5.2739808    -4.065582  0.076463061   -5.2739808    1.2083988   520603 
 2836000     1.018807   -5.2725945   -5.2725945   -4.0659257  0.078008083   -5.2725945    1.2066688   520603 
 2837000    1.0208687   -5.2737017   -5.2737017   -4.0645911  0.071127968   -5.2737017    1.2091106   520603 
 2838000    1.0192294   -5.2722832   -5.2722832   -4.0651141  0.067048951   -5.2722832    1.2071691   520603 
 2839000    1.0182323   -5.2718614   -5.2718614   -4.0658733  0.057670584   -5.2718614    1.2059881   520603 
 2840000    1.0183095   -5.2719312   -5.2719312   -4.0658517   0.07954623   -5.2719312    1.2060795   520603 
 2841000    1.0181647   -5.2723338   -5.2723338   -4.0664259  0.083680406   -5.2723338     1.205908   520603 
 2842000    1.0186526   -5.2725692   -5.2725692   -4.0660833  0.063720412   -5.2725692    1.2064859   520603 
 2843000    1.0172708    -5.271498    -5.271498   -4.0666486  0.064780544    -5.271498    1.2048494   520603 
 2844000    1.0182374   -5.2734542   -5.2734542     -4.06746  0.079790093   -5.2734542    1.2059942   520603 
 2845000    1.0175561   -5.2719575   -5.2719575   -4.0667703  0.070235186   -5.2719575    1.2051872   520603 
 2846000    1.0182672   -5.2732668   -5.2732668   -4.0672374  0.076226635   -5.2732668    1.2060294   520603 
 2847000    1.0167684    -5.271557    -5.271557   -4.0673027  0.083830899    -5.271557    1.2042543   520603 
 2848000    1.0187446   -5.2740798   -5.2740798    -4.067485  0.062271556   -5.2740798    1.2065948   520603 
 2849000    1.0160126   -5.2709824   -5.2709824   -4.0676234  0.074064458   -5.2709824     1.203359   520603 
 2850000    1.0173129   -5.2728524   -5.2728524   -4.0679532  0.050296744   -5.2728524    1.2048992   520603 
 2851000    1.0179646   -5.2741026   -5.2741026   -4.0684316  0.060533573   -5.2741026     1.205671   520603 
 2852000    1.0185701    -5.274917    -5.274917   -4.0685288  0.060726819    -5.274917    1.2063882   520603 
 2853000     1.018477   -5.2751998   -5.2751998    -4.068922  0.067471878   -5.2751998    1.2062779   520603 
 2854000    1.0195681   -5.2763581   -5.2763581   -4.0687879  0.081660329   -5.2763581    1.2075702   520603 
 2855000    1.0184256   -5.2738366   -5.2738366   -4.0676195  0.089482863   -5.2738366    1.2062171   520603 
 2856000    1.0195772   -5.2756324   -5.2756324   -4.0680514  0.070294554   -5.2756324     1.207581   520603 
 2857000    1.0195148   -5.2753288   -5.2753288   -4.0678216  0.063852744   -5.2753288    1.2075071   520603 
 2858000    1.0180178   -5.2739487   -5.2739487   -4.0682147  0.086360667   -5.2739487     1.205734   520603 
 2859000    1.0204364   -5.2771327   -5.2771327   -4.0685341  0.066553491   -5.2771327    1.2085986   520603 
 2860000    1.0182267   -5.2730445   -5.2730445    -4.067063  0.071252705   -5.2730445    1.2059815   520603 
 2861000    1.0191043   -5.2743884   -5.2743884   -4.0673675  0.068536645   -5.2743884    1.2070209   520603 
 2862000     1.019923   -5.2746763   -5.2746763   -4.0666857   0.10768534   -5.2746763    1.2079906   520603 
 2863000    1.0175448   -5.2724431   -5.2724431   -4.0672693    0.0683882   -5.2724431    1.2051738   520603 
 2864000    1.0185247   -5.2734816   -5.2734816   -4.0671471   0.06381605   -5.2734816    1.2063344   520603 
 2865000    1.0174313   -5.2736474   -5.2736474    -4.068608  0.065743404   -5.2736474    1.2050393   520603 
 2866000    1.0171766   -5.2730608   -5.2730608    -4.068323  0.070889403   -5.2730608    1.2047378   520603 
 2867000    1.0195886   -5.2751941   -5.2751941   -4.0675996  0.065666689   -5.2751941    1.2075945   520603 
 2868000    1.0186351   -5.2739608   -5.2739608   -4.0674956  0.081518789   -5.2739608    1.2064652   520603 
 2869000    1.0165808     -5.27093     -5.27093   -4.0668979  0.069148287     -5.27093    1.2040321   520603 
 2870000    1.0183255   -5.2722795   -5.2722795    -4.066181   0.06174486   -5.2722795    1.2060985   520603 
 2871000    1.0180639    -5.272119    -5.272119   -4.0663304  0.082408307    -5.272119    1.2057886   520603 
 2872000    1.0181895   -5.2719363   -5.2719363    -4.065999  0.078504566   -5.2719363    1.2059374   520603 
 2873000    1.0176569   -5.2717202   -5.2717202   -4.0664137  0.082696245   -5.2717202    1.2053065   520603 
 2874000    1.0186827   -5.2729392   -5.2729392   -4.0664177   0.06655826   -5.2729392    1.2065215   520603 
 2875000    1.0173879   -5.2710347   -5.2710347   -4.0660467  0.059460639   -5.2710347     1.204988   520603 
 2876000    1.0186316   -5.2726823   -5.2726823   -4.0662213  0.072946275   -5.2726823     1.206461   520603 
 2877000    1.0178651   -5.2721586   -5.2721586   -4.0666054  0.063438917   -5.2721586    1.2055531   520603 
 2878000    1.0172621   -5.2717822   -5.2717822   -4.0669431  0.080534888   -5.2717822     1.204839   520603 
 2879000    1.0191584   -5.2729811   -5.2729811   -4.0658961  0.076417489   -5.2729811     1.207085   520603 
 2880000    1.0185192   -5.2718571   -5.2718571   -4.0655293  0.075727674   -5.2718571    1.2063278   520603 
 2881000    1.0193918   -5.2725448   -5.2725448   -4.0651835  0.061065218   -5.2725448    1.2073614   520603 
 2882000     1.017869   -5.2705478   -5.2705478     -4.06499  0.085306924   -5.2705478    1.2055579   520603 
 2883000    1.0189063   -5.2728347   -5.2728347   -4.0660483  0.055511422   -5.2728347    1.2067863   520603 
 2884000    1.0195339   -5.2739543   -5.2739543   -4.0664246  0.086856897   -5.2739543    1.2075297   520603 
 2885000    1.0208849   -5.2752231   -5.2752231   -4.0660932  0.079325726   -5.2752231    1.2091298   520603 
 2886000    1.0199271   -5.2742117   -5.2742117   -4.0662163  0.077800355   -5.2742117    1.2079954   520603 
 2887000    1.0218327   -5.2771168   -5.2771168   -4.0668644  0.067510641   -5.2771168    1.2102524   520603 
 2888000    1.0206875   -5.2753494   -5.2753494   -4.0664534  0.071545051   -5.2753494     1.208896   520603 
 2889000    1.0217279   -5.2772646   -5.2772646   -4.0671364  0.075204813   -5.2772646    1.2101283   520603 
 2890000    1.0192071   -5.2742836   -5.2742836   -4.0671409  0.062651719   -5.2742836    1.2071427   520603 
 2891000    1.0208295   -5.2763827   -5.2763827   -4.0673185  0.075606751   -5.2763827    1.2090642   520603 
 2892000    1.0213301   -5.2774802   -5.2774802   -4.0678231  0.079242685   -5.2774802    1.2096571   520603 
 2893000    1.0197272   -5.2766582   -5.2766582   -4.0688996  0.083617061   -5.2766582    1.2077586   520603 
 2894000    1.0197553    -5.277494    -5.277494    -4.069702  0.069846282    -5.277494    1.2077919   520603 
 2895000     1.019711   -5.2773845   -5.2773845    -4.069645  0.061125686   -5.2773845    1.2077395   520603 
 2896000    1.0203396   -5.2784185   -5.2784185   -4.0699345  0.079311841   -5.2784185     1.208484   520603 
 2897000    1.0187084   -5.2773056   -5.2773056   -4.0707536  0.057973881   -5.2773056     1.206552   520603 
 2898000    1.0188649   -5.2771494   -5.2771494    -4.070412  0.076443886   -5.2771494    1.2067374   520603 
 2899000    1.0182211   -5.2766979   -5.2766979   -4.0707231  0.063979231   -5.2766979    1.2059749   520603 
 2900000    1.0170765   -5.2760027   -5.2760027   -4.0713835  0.067717809   -5.2760027    1.2046192   520603 
 2901000    1.0181229   -5.2773282   -5.2773282   -4.0714697  0.068503918   -5.2773282    1.2058585   520603 
 2902000    1.0171246   -5.2752242   -5.2752242    -4.070548   0.08438193   -5.2752242    1.2046762   520603 
 2903000    1.0171849   -5.2757513   -5.2757513   -4.0710037  0.071327723   -5.2757513    1.2047476   520603 
 2904000     1.017225   -5.2753006   -5.2753006   -4.0705056  0.058074843   -5.2753006     1.204795   520603 
 2905000    1.0168991   -5.2743683   -5.2743683   -4.0699593  0.082501584   -5.2743683     1.204409   520603 
 2906000    1.0180111   -5.2759804   -5.2759804   -4.0702543  0.063397499   -5.2759804    1.2057261   520603 
 2907000    1.0173033   -5.2753907   -5.2753907   -4.0705029  0.051428941   -5.2753907    1.2048878   520603 
 2908000    1.0185786   -5.2770659   -5.2770659   -4.0706676  0.078569447   -5.2770659    1.2063982   520603 
 2909000    1.0176546    -5.275064    -5.275064   -4.0697602  0.072123745    -5.275064    1.2053038   520603 
 2910000    1.0172432   -5.2750734   -5.2750734   -4.0702567  0.074153914   -5.2750734    1.2048166   520603 
 2911000    1.0181607   -5.2761111   -5.2761111   -4.0702078  0.081748502   -5.2761111    1.2059032   520603 
 2912000    1.0182471   -5.2757355   -5.2757355   -4.0697299  0.068851836   -5.2757355    1.2060056   520603 
 2913000    1.0183394   -5.2759542   -5.2759542   -4.0698393  0.065552747   -5.2759542    1.2061149   520603 
 2914000    1.0178802   -5.2759979   -5.2759979   -4.0704269   0.09755247   -5.2759979     1.205571   520603 
 2915000    1.0181395   -5.2762756   -5.2762756   -4.0703974  0.049799781   -5.2762756    1.2058782   520603 
 2916000    1.0189084   -5.2771642   -5.2771642   -4.0703753  0.067273887   -5.2771642    1.2067889   520603 
 2917000    1.0184118   -5.2768395   -5.2768395   -4.0706389  0.086572656   -5.2768395    1.2062006   520603 
 2918000    1.0172878   -5.2758578   -5.2758578   -4.0709884  0.089305139   -5.2758578    1.2048694   520603 
 2919000     1.019585    -5.278064    -5.278064   -4.0704738  0.073389052    -5.278064    1.2075902   520603 
 2920000    1.0177665   -5.2770507   -5.2770507   -4.0716143  0.079620488   -5.2770507    1.2054364   520603 
 2921000    1.0196171   -5.2789072   -5.2789072    -4.071279  0.079308233   -5.2789072    1.2076283   520603 
 2922000    1.0182587   -5.2773039   -5.2773039   -4.0712845  0.050931661   -5.2773039    1.2060194   520603 
 2923000    1.0187891   -5.2779329   -5.2779329   -4.0712854   0.07409646   -5.2779329    1.2066475   520603 
 2924000    1.0204964   -5.2796956   -5.2796956   -4.0710259  0.073479023   -5.2796956    1.2086696   520603 
 2925000    1.0190311   -5.2781835   -5.2781835   -4.0712494  0.056311309   -5.2781835    1.2069342   520603 
 2926000    1.0180022   -5.2777399   -5.2777399   -4.0720243  0.071616861   -5.2777399    1.2057156   520603 
 2927000    1.0181223   -5.2775699   -5.2775699   -4.0717122  0.080686629   -5.2775699    1.2058578   520603 
 2928000     1.019258   -5.2792333   -5.2792333   -4.0720304   0.07792476   -5.2792333    1.2072029   520603 
 2929000    1.0164132   -5.2754239   -5.2754239   -4.0715904   0.05879563   -5.2754239    1.2038335   520603 
 2930000    1.0194663    -5.278353    -5.278353   -4.0709034   0.07294051    -5.278353    1.2074496   520603 
 2931000    1.0175378    -5.277037    -5.277037   -4.0718715   0.07094796    -5.277037    1.2051655   520603 
 2932000    1.0185236   -5.2785112   -5.2785112   -4.0721781  0.070302588   -5.2785112    1.2063331   520603 
 2933000    1.0192685   -5.2799723   -5.2799723    -4.072757   0.05460826   -5.2799723    1.2072154   520603 
 2934000    1.0183672    -5.278452    -5.278452   -4.0723042  0.085318158    -5.278452    1.2061479   520603 
 2935000     1.017561   -5.2776771   -5.2776771   -4.0724842  0.080231753   -5.2776771     1.205193   520603 
 2936000    1.0183988   -5.2776035   -5.2776035   -4.0714182  0.079114179   -5.2776035    1.2061853   520603 
 2937000    1.0169551   -5.2763782   -5.2763782   -4.0719028  0.070093309   -5.2763782    1.2044754   520603 
 2938000    1.0170469   -5.2770854   -5.2770854   -4.0725013  0.089266178   -5.2770854    1.2045841   520603 
 2939000    1.0177179   -5.2781061   -5.2781061   -4.0727273   0.08222735   -5.2781061    1.2053788   520603 
 2940000    1.0161533    -5.276626    -5.276626   -4.0731003  0.077777058    -5.276626    1.2035257   520603 
 2941000     1.017217   -5.2779221   -5.2779221   -4.0731366  0.071131762   -5.2779221    1.2047856   520603 
 2942000    1.0173687   -5.2775562   -5.2775562    -4.072591  0.072271771   -5.2775562    1.2049653   520603 
 2943000    1.0173562   -5.2777347   -5.2777347   -4.0727843  0.080046049   -5.2777347    1.2049504   520603 
 2944000    1.0164537   -5.2762206   -5.2762206   -4.0723391  0.064401013   -5.2762206    1.2038815   520603 
 2945000    1.0168272   -5.2767711   -5.2767711   -4.0724472  0.078965069   -5.2767711     1.204324   520603 
 2946000    1.0167015   -5.2765597   -5.2765597   -4.0723847  0.060297119   -5.2765597     1.204175   520603 
 2947000    1.0157081   -5.2757744   -5.2757744    -4.072776   0.04846565   -5.2757744    1.2029984   520603 
 2948000    1.0163379   -5.2758973   -5.2758973   -4.0721529  0.064367539   -5.2758973    1.2037444   520603 
 2949000    1.0157888   -5.2761615   -5.2761615   -4.0730675  0.055093057   -5.2761615     1.203094   520603 
 2950000    1.0163494   -5.2773086   -5.2773086   -4.0735506  0.091313371   -5.2773086     1.203758   520603 
 2951000    1.0181715   -5.2796422   -5.2796422   -4.0737261  0.074520859   -5.2796422    1.2059161   520603 
 2952000    1.0173131   -5.2782748   -5.2782748   -4.0733753  0.078900996   -5.2782748    1.2048995   520603 
 2953000    1.0189846   -5.2795061   -5.2795061    -4.072627  0.090719319   -5.2795061    1.2068791   520603 
 2954000    1.0192641   -5.2801008   -5.2801008   -4.0728907  0.093293495   -5.2801008    1.2072101   520603 
 2955000    1.0178928   -5.2785696   -5.2785696   -4.0729837  0.075914604   -5.2785696     1.205586   520603 
 2956000      1.01968    -5.280295    -5.280295   -4.0725924  0.045523822    -5.280295    1.2077027   520603 
 2957000    1.0171061   -5.2763481   -5.2763481   -4.0716939  0.085032632   -5.2763481    1.2046542   520603 
 2958000    1.0182188    -5.277951    -5.277951   -4.0719789  0.053026148    -5.277951    1.2059721   520603 
 2959000    1.0181505   -5.2769486   -5.2769486   -4.0710574  0.098037878   -5.2769486    1.2058912   520603 
 2960000    1.0185256   -5.2780223   -5.2780223   -4.0716868  0.062073578   -5.2780223    1.2063355   520603 
 2961000    1.0190572   -5.2784348   -5.2784348   -4.0714697  0.057812964   -5.2784348    1.2069651   520603 
 2962000    1.0181101   -5.2777325   -5.2777325   -4.0718892  0.076466152   -5.2777325    1.2058434   520603 
 2963000    1.0189188   -5.2778334   -5.2778334   -4.0710323  0.075705582   -5.2778334    1.2068012   520603 
 2964000    1.0184995   -5.2777625   -5.2777625    -4.071458   0.06892788   -5.2777625    1.2063045   520603 
 2965000    1.0178552   -5.2774555   -5.2774555   -4.0719141  0.056266657   -5.2774555    1.2055414   520603 
 2966000    1.0180046   -5.2775883   -5.2775883   -4.0718699  0.073679688   -5.2775883    1.2057184   520603 
 2967000    1.0182816   -5.2775256   -5.2775256   -4.0714791  0.094751002   -5.2775256    1.2060465   520603 
 2968000    1.0177015   -5.2773513   -5.2773513   -4.0719919  0.077374827   -5.2773513    1.2053594   520603 
 2969000    1.0184611   -5.2774749   -5.2774749   -4.0712158  0.081768674   -5.2774749    1.2062591   520603 
 2970000     1.018179   -5.2775328   -5.2775328   -4.0716078  0.057862449   -5.2775328     1.205925   520603 
 2971000    1.0154184   -5.2749662   -5.2749662   -4.0723108  0.083369152   -5.2749662    1.2026554   520603 
 2972000    1.0167949   -5.2760719   -5.2760719   -4.0717862  0.063315421   -5.2760719    1.2042857   520603 
 2973000    1.0179079   -5.2771788   -5.2771788    -4.071575  0.077540885   -5.2771788    1.2056038   520603 
 2974000     1.015971    -5.274899    -5.274899   -4.0715892  0.071210422    -5.274899    1.2033098   520603 
 2975000    1.0171328   -5.2759909   -5.2759909    -4.071305   0.07205364   -5.2759909    1.2046859   520603 
 2976000    1.0182213   -5.2773979   -5.2773979   -4.0714229  0.083678428   -5.2773979     1.205975   520603 
 2977000    1.0195233   -5.2787667   -5.2787667   -4.0712495  0.080125098   -5.2787667    1.2075171   520603 
 2978000    1.0175136   -5.2758402   -5.2758402   -4.0707033  0.086975231   -5.2758402    1.2051369   520603 
 2979000    1.0190947   -5.2773929   -5.2773929   -4.0703834   0.08316231   -5.2773929    1.2070095   520603 
 2980000    1.0182429   -5.2770903   -5.2770903   -4.0710897   0.07461218   -5.2770903    1.2060006   520603 
 2981000    1.0195445   -5.2784429   -5.2784429   -4.0709007  0.064914586   -5.2784429    1.2075422   520603 
 2982000    1.0193739   -5.2779877   -5.2779877   -4.0706475  0.076009109   -5.2779877    1.2073402   520603 
 2983000     1.018287   -5.2772984   -5.2772984   -4.0712456  0.088884579   -5.2772984    1.2060528   520603 
 2984000    1.0158428     -5.27574     -5.27574    -4.072582  0.065335761     -5.27574     1.203158   520603 
 2985000    1.0181759   -5.2783769   -5.2783769   -4.0724556  0.091663497   -5.2783769    1.2059213   520603 
 2986000    1.0165966   -5.2767361   -5.2767361   -4.0726854  0.075041935   -5.2767361    1.2040507   520603 
 2987000    1.0175445   -5.2780405   -5.2780405   -4.0728671  0.077768412   -5.2780405    1.2051734   520603 
 2988000    1.0165949    -5.276385    -5.276385   -4.0723362  0.071992885    -5.276385    1.2040487   520603 
 2989000    1.0156925   -5.2749803   -5.2749803   -4.0720004  0.080424855   -5.2749803      1.20298   520603 
 2990000    1.0185813   -5.2785022   -5.2785022   -4.0721007  0.067722512   -5.2785022    1.2064015   520603 
 2991000    1.0177494   -5.2772459   -5.2772459   -4.0718298  0.075344843   -5.2772459    1.2054161   520603 
 2992000    1.0182468   -5.2774889   -5.2774889   -4.0714836  0.079679411   -5.2774889    1.2060053   520603 
 2993000    1.0196074   -5.2783973   -5.2783973   -4.0707805  0.082662849   -5.2783973    1.2076167   520603 
 2994000    1.0194828   -5.2792207   -5.2792207   -4.0717515  0.068830596   -5.2792207    1.2074692   520603 
 2995000    1.0204559   -5.2807046   -5.2807046   -4.0720829   0.07805834   -5.2807046    1.2086217   520603 
 2996000    1.0185979   -5.2783081   -5.2783081   -4.0718871  0.087748595   -5.2783081    1.2064211   520603 
 2997000    1.0192587   -5.2793644   -5.2793644   -4.0721606  0.053498935   -5.2793644    1.2072038   520603 
 2998000    1.0180924   -5.2778027   -5.2778027   -4.0719804  0.065637457   -5.2778027    1.2058224   520603 
 2999000    1.0187134   -5.2781881   -5.2781881   -4.0716302   0.10948691   -5.2781881    1.2065579   520603 
 3000000    1.0192061   -5.2788472   -5.2788472   -4.0717057  0.077423188   -5.2788472    1.2071415   520603 
 3001000    1.0177919   -5.2771649   -5.2771649   -4.0716983  0.079398144   -5.2771649    1.2054665   520603 
 3002000    1.0177634   -5.2761643   -5.2761643   -4.0707315  0.088539284   -5.2761643    1.2054328   520603 
 3003000    1.0176928   -5.2766949   -5.2766949   -4.0713457  0.076845626   -5.2766949    1.2053492   520603 
 3004000    1.0194232   -5.2783554   -5.2783554   -4.0709567   0.07683142   -5.2783554    1.2073986   520603 
 3005000    1.0179395   -5.2761983   -5.2761983    -4.070557  0.080623003   -5.2761983    1.2056413   520603 
 3006000    1.0182677   -5.2756124   -5.2756124   -4.0695824  0.085973613   -5.2756124      1.20603   520603 
 3007000    1.0184975   -5.2766823   -5.2766823   -4.0703801  0.072383033   -5.2766823    1.2063022   520603 
 3008000    1.0195315   -5.2775804   -5.2775804   -4.0700535   0.08523228   -5.2775804    1.2075269   520603 
 3009000    1.0179741   -5.2758934   -5.2758934   -4.0702112    0.0807595   -5.2758934    1.2056822   520603 
 3010000    1.0179809   -5.2762972   -5.2762972   -4.0706069  0.051670425   -5.2762972    1.2056903   520603 
 3011000    1.0183197   -5.2774473   -5.2774473   -4.0713557  0.071640574   -5.2774473    1.2060916   520603 
 3012000    1.0187856   -5.2779531   -5.2779531   -4.0713097  0.067334424   -5.2779531    1.2066434   520603 
 3013000    1.0175988   -5.2773842   -5.2773842   -4.0721464  0.077457283   -5.2773842    1.2052378   520603 
 3014000    1.0193906   -5.2801986   -5.2801986   -4.0728386  0.069460362   -5.2801986      1.20736   520603 
 3015000    1.0197627   -5.2802142   -5.2802142   -4.0724135  0.075876643   -5.2802142    1.2078007   520603 
 3016000    1.0201931   -5.2806713   -5.2806713   -4.0723608  0.069619883   -5.2806713    1.2083105   520603 
 3017000    1.0199758   -5.2806012   -5.2806012   -4.0725481  0.062845144   -5.2806012    1.2080531   520603 
 3018000    1.0189287    -5.280338    -5.280338   -4.0735251   0.06099753    -5.280338    1.2068129   520603 
 3019000    1.0199393   -5.2811513   -5.2811513   -4.0731414  0.075803045   -5.2811513    1.2080099   520603 
 3020000    1.0203786   -5.2815238   -5.2815238   -4.0729937  0.081356685   -5.2815238    1.2085301   520603 
 3021000    1.0187662   -5.2805544   -5.2805544    -4.073934  0.060284526   -5.2805544    1.2066204   520603 
 3022000    1.0182831   -5.2799715   -5.2799715   -4.0739233  0.079052251   -5.2799715    1.2060482   520603 
 3023000    1.0185528   -5.2808056   -5.2808056    -4.074438  0.072458678   -5.2808056    1.2063676   520603 
 3024000    1.0175709   -5.2804683   -5.2804683   -4.0752636   0.10459597   -5.2804683    1.2052048   520603 
 3025000    1.0169682   -5.2803791   -5.2803791   -4.0758882  0.072331012   -5.2803791     1.204491   520603 
 3026000    1.0171348   -5.2796613   -5.2796613    -4.074973   0.07434363   -5.2796613    1.2046882   520603 
 3027000    1.0195108   -5.2827484   -5.2827484    -4.075246  0.092791308   -5.2827484    1.2075024   520603 
 3028000    1.0181391   -5.2797249   -5.2797249   -4.0738472  0.081144003   -5.2797249    1.2058777   520603 
 3029000    1.0190132   -5.2805428   -5.2805428   -4.0736297  0.083252298   -5.2805428     1.206913   520603 
 3030000    1.0180665    -5.279032    -5.279032   -4.0732403  0.087081287    -5.279032    1.2057917   520603 
 3031000    1.0184708   -5.2794094   -5.2794094   -4.0731388  0.072145599   -5.2794094    1.2062706   520603 
 3032000    1.0177494   -5.2797887   -5.2797887   -4.0743726  0.079405328   -5.2797887    1.2054161   520603 
 3033000    1.0190675    -5.281135    -5.281135   -4.0741577   0.08577298    -5.281135    1.2069773   520603 
 3034000    1.0202121   -5.2825643   -5.2825643   -4.0742313  0.077702784   -5.2825643     1.208333   520603 
 3035000    1.0172766   -5.2801692   -5.2801692    -4.075313  0.090126141   -5.2801692    1.2048562   520603 
 3036000    1.0189438   -5.2822976   -5.2822976   -4.0754668  0.062459072   -5.2822976    1.2068308   520603 
 3037000    1.0181868    -5.280581    -5.280581   -4.0746467  0.079852876    -5.280581    1.2059342   520603 
 3038000    1.0183609   -5.2814578   -5.2814578   -4.0753174  0.089213894   -5.2814578    1.2061404   520603 
 3039000    1.0178106   -5.2801278   -5.2801278   -4.0746392  0.077915996   -5.2801278    1.2054886   520603 
 3040000    1.0173189   -5.2796449   -5.2796449   -4.0747386  0.065888271   -5.2796449    1.2049063   520603 
 3041000    1.0189263   -5.2816589   -5.2816589   -4.0748488  0.060405802   -5.2816589    1.2068101   520603 
 3042000    1.0194277   -5.2818538   -5.2818538   -4.0744498  0.080342561   -5.2818538    1.2074039   520603 
 3043000    1.0188619   -5.2818218   -5.2818218    -4.075088  0.079065953   -5.2818218    1.2067338   520603 
 3044000    1.0185099   -5.2815997   -5.2815997   -4.0752828   0.06807458   -5.2815997    1.2063169   520603 
 3045000    1.0186683   -5.2824982   -5.2824982   -4.0759937  0.073225311   -5.2824982    1.2065044   520603 
 3046000    1.0193649   -5.2834451   -5.2834451   -4.0761156  0.063725045   -5.2834451    1.2073295   520603 
 3047000    1.0198265   -5.2834634   -5.2834634   -4.0755871   0.07883297   -5.2834634    1.2078762   520603 
 3048000    1.0185109   -5.2824156   -5.2824156   -4.0760976  0.071737464   -5.2824156     1.206318   520603 
 3049000    1.0174353   -5.2819266   -5.2819266   -4.0768825  0.096059947   -5.2819266    1.2050441   520603 
 3050000    1.0167934   -5.2805845   -5.2805845   -4.0763005  0.077758502   -5.2805845    1.2042839   520603 
 3051000    1.0177119   -5.2814434   -5.2814434   -4.0760716  0.080744818   -5.2814434    1.2053718   520603 
 3052000    1.0179865   -5.2814941   -5.2814941   -4.0757972  0.067722963   -5.2814941     1.205697   520603 
 3053000    1.0178607   -5.2809752   -5.2809752   -4.0754273  0.059484948   -5.2809752    1.2055479   520603 
 3054000     1.016598   -5.2797424   -5.2797424     -4.07569  0.075722869   -5.2797424    1.2040525   520603 
 3055000    1.0172267   -5.2798426   -5.2798426   -4.0750455   0.06983279   -5.2798426    1.2047971   520603 
 3056000    1.0175389   -5.2809554   -5.2809554   -4.0757886  0.075321644   -5.2809554    1.2051668   520603 
 3057000    1.0171945   -5.2801105   -5.2801105   -4.0753516  0.089892148   -5.2801105    1.2047589   520603 
 3058000    1.0175698   -5.2796922   -5.2796922   -4.0744888  0.079186957   -5.2796922    1.2052034   520603 
 3059000    1.0163453   -5.2781277   -5.2781277   -4.0743746  0.051223839   -5.2781277    1.2037531   520603 
 3060000     1.017365   -5.2783393   -5.2783393   -4.0733784  0.096281331   -5.2783393    1.2049609   520603 
 3061000    1.0175905   -5.2781283   -5.2781283   -4.0729003  0.089765991   -5.2781283     1.205228   520603 
 3062000    1.0192181   -5.2804666   -5.2804666   -4.0733109  0.072360155   -5.2804666    1.2071557   520603 
 3063000    1.0175204   -5.2781757   -5.2781757   -4.0730307  0.083343393   -5.2781757    1.2051449   520603 
 3064000    1.0184827   -5.2812387   -5.2812387    -4.074954  0.061877676   -5.2812387    1.2062847   520603 
 3065000    1.0195863   -5.2821062   -5.2821062   -4.0745144  0.084678992   -5.2821062    1.2075918   520603 
 3066000    1.0175096   -5.2797247   -5.2797247   -4.0745925  0.087239476   -5.2797247    1.2051322   520603 
 3067000    1.0209335   -5.2827884   -5.2827884   -4.0736011  0.078897348   -5.2827884    1.2091874   520603 
 3068000    1.0197713   -5.2817056   -5.2817056   -4.0738946  0.072764373   -5.2817056    1.2078109   520603 
 3069000    1.0179938     -5.27838     -5.27838   -4.0726743  0.077521265     -5.27838    1.2057057   520603 
 3070000    1.0181348   -5.2791505   -5.2791505   -4.0732779  0.084177043   -5.2791505    1.2058726   520603 
 3071000    1.0191175   -5.2815448   -5.2815448   -4.0745083  0.085249034   -5.2815448    1.2070365   520603 
 3072000    1.0161681   -5.2780677   -5.2780677   -4.0745244  0.080147936   -5.2780677    1.2035433   520603 
 3073000    1.0192438   -5.2825457   -5.2825457   -4.0753596  0.071563819   -5.2825457    1.2071861   520603 
 3074000    1.0173247   -5.2798202   -5.2798202   -4.0749071    0.0569665   -5.2798202    1.2049131   520603 
 3075000    1.0162229   -5.2789426   -5.2789426   -4.0753345  0.054643304   -5.2789426    1.2036081   520603 
 3076000    1.0170775   -5.2808725   -5.2808725   -4.0762522  0.086582045   -5.2808725    1.2046203   520603 
 3077000    1.0173904   -5.2805782   -5.2805782   -4.0755873  0.056901848   -5.2805782    1.2049909   520603 
 3078000    1.0166001   -5.2797184   -5.2797184   -4.0756635  0.066647844   -5.2797184    1.2040549   520603 
 3079000    1.0151091   -5.2780486   -5.2780486   -4.0757596    0.0776018   -5.2780486     1.202289   520603 
 3080000    1.0151517   -5.2774674   -5.2774674    -4.075128  0.068286624   -5.2774674    1.2023394   520603 
 3081000    1.0157917   -5.2789451   -5.2789451   -4.0758476  0.055221964   -5.2789451    1.2030975   520603 
 3082000    1.0164037   -5.2795513   -5.2795513   -4.0757289  0.056076173   -5.2795513    1.2038224   520603 
 3083000     1.017338   -5.2810238   -5.2810238   -4.0760948  0.056778315   -5.2810238    1.2049289   520603 
 3084000    1.0162807   -5.2796449   -5.2796449   -4.0759683  0.065551993   -5.2796449    1.2036767   520603 
 3085000    1.0156738   -5.2785752   -5.2785752   -4.0756174  0.075888723   -5.2785752    1.2029578   520603 
 3086000    1.0177644   -5.2817618   -5.2817618   -4.0763279  0.064703024   -5.2817618    1.2054339   520603 
 3087000    1.0157778   -5.2782352   -5.2782352   -4.0751543   0.07581234   -5.2782352    1.2030809   520603 
 3088000    1.0168828   -5.2802232   -5.2802232   -4.0758334    0.0786029   -5.2802232    1.2043898   520603 
 3089000    1.0176536   -5.2812012   -5.2812012   -4.0758985  0.070544422   -5.2812012    1.2053027   520603 
 3090000    1.0180293   -5.2819986   -5.2819986   -4.0762509   0.08440292   -5.2819986    1.2057477   520603 
 3091000    1.0178521   -5.2819372   -5.2819372   -4.0763994  0.088002749   -5.2819372    1.2055378   520603 
 3092000    1.0178431   -5.2817357   -5.2817357   -4.0762086   0.07661512   -5.2817357    1.2055271   520603 
 3093000    1.0172686   -5.2818892   -5.2818892   -4.0770425  0.075923617   -5.2818892    1.2048467   520603 
 3094000    1.0175409   -5.2817749   -5.2817749   -4.0766057  0.059170605   -5.2817749    1.2051692   520603 
 3095000    1.0176435   -5.2825627   -5.2825627   -4.0772719  0.062001568   -5.2825627    1.2052907   520603 
 3096000    1.0151769   -5.2785195   -5.2785195   -4.0761503   0.07041992   -5.2785195    1.2023692   520603 
 3097000    1.0176471   -5.2819675   -5.2819675   -4.0766726  0.070539396   -5.2819675    1.2052949   520603 
 3098000    1.0161333   -5.2806478   -5.2806478   -4.0771458  0.092318451   -5.2806478    1.2035021   520603 
 3099000    1.0165363   -5.2808086   -5.2808086   -4.0768292  0.074990786   -5.2808086    1.2039793   520603 
 3100000    1.0163621   -5.2800722   -5.2800722   -4.0762992  0.068590606   -5.2800722     1.203773   520603 
 3101000    1.0176506   -5.2802803   -5.2802803   -4.0749812  0.083291513   -5.2802803    1.2052991   520603 
 3102000    1.0170533   -5.2805239   -5.2805239   -4.0759321  0.068046506   -5.2805239    1.2045917   520603 
 3103000      1.01702    -5.280357    -5.280357   -4.0758047  0.076891391    -5.280357    1.2045523   520603 
 3104000    1.0180299   -5.2806221   -5.2806221   -4.0748737  0.083331437   -5.2806221    1.2057484   520603 
 3105000    1.0185137   -5.2817983   -5.2817983    -4.075477  0.063987344   -5.2817983    1.2063214   520603 
 3106000    1.0155606   -5.2776939   -5.2776939   -4.0748701  0.066027776   -5.2776939    1.2028237   520603 
 3107000    1.0164849   -5.2791143   -5.2791143   -4.0751958   0.06190673   -5.2791143    1.2039185   520603 
 3108000     1.016271   -5.2796814   -5.2796814   -4.0760163  0.076189651   -5.2796814    1.2036652   520603 
 3109000    1.0188775   -5.2832068   -5.2832068   -4.0764545  0.070062783   -5.2832068    1.2067523   520603 
 3110000    1.0169327   -5.2813722   -5.2813722   -4.0769234  0.091972523   -5.2813722    1.2044488   520603 
 3111000    1.0170661   -5.2811295   -5.2811295   -4.0765227  0.096701797   -5.2811295    1.2046068   520603 
 3112000    1.0184644   -5.2827065   -5.2827065   -4.0764436  0.065728118   -5.2827065     1.206263   520603 
 3113000    1.0172511   -5.2823235   -5.2823235   -4.0774976  0.073166405   -5.2823235     1.204826   520603 
 3114000    1.0180566   -5.2820178   -5.2820178   -4.0762378  0.058045218   -5.2820178      1.20578   520603 
 3115000    1.0191441   -5.2831832   -5.2831832   -4.0761152   0.08782486   -5.2831832     1.207068   520603 
 3116000    1.0192487   -5.2836578   -5.2836578   -4.0764659  0.069797445   -5.2836578    1.2071919   520603 
 3117000    1.0192708    -5.283609    -5.283609   -4.0763909  0.076112798    -5.283609    1.2072181   520603 
 3118000    1.0170123    -5.279893    -5.279893   -4.0753499  0.065468185    -5.279893    1.2045431   520603 
 3119000    1.0188163   -5.2827399   -5.2827399   -4.0760601  0.071776577   -5.2827399    1.2066797   520603 
 3120000    1.0176836   -5.2816127   -5.2816127   -4.0762745  0.071434835   -5.2816127    1.2053382   520603 
 3121000    1.0162915    -5.279311    -5.279311   -4.0756216  0.072169853    -5.279311    1.2036894   520603 
 3122000     1.018263   -5.2821214   -5.2821214   -4.0760969  0.056465453   -5.2821214    1.2060245   520603 
 3123000    1.0158254   -5.2802808   -5.2802808   -4.0771433  0.072185197   -5.2802808    1.2031374   520603 
 3124000    1.0160479   -5.2811853   -5.2811853   -4.0777844  0.083286909   -5.2811853    1.2034009   520603 
 3125000    1.0152798   -5.2799074   -5.2799074   -4.0774163  0.058307949   -5.2799074    1.2024911   520603 
 3126000     1.015044   -5.2802602   -5.2802602   -4.0780482  0.077244761   -5.2802602    1.2022119   520603 
 3127000    1.0162766   -5.2806871   -5.2806871   -4.0770153   0.06827879   -5.2806871    1.2036718   520603 
 3128000    1.0172555   -5.2824669   -5.2824669   -4.0776358  0.076058134   -5.2824669    1.2048311   520603 
 3129000    1.0175552   -5.2825092   -5.2825092   -4.0773231  0.090877663   -5.2825092    1.2051862   520603 
 3130000    1.0158162   -5.2809829   -5.2809829   -4.0778564    0.0671636   -5.2809829    1.2031264   520603 
 3131000    1.0131414   -5.2784609   -5.2784609   -4.0785024  0.077343139   -5.2784609    1.1999585   520603 
 3132000    1.0143836   -5.2798683   -5.2798683   -4.0784385  0.093637836   -5.2798683    1.2014298   520603 
 3133000    1.0167456   -5.2826008   -5.2826008   -4.0783736  0.071367611   -5.2826008    1.2042272   520603 
 3134000    1.0164621   -5.2823572   -5.2823572   -4.0784657   0.05821599   -5.2823572    1.2038915   520603 
 3135000    1.0151809   -5.2810774   -5.2810774   -4.0787033  0.074722861   -5.2810774    1.2023741   520603 
 3136000    1.0165531   -5.2835306   -5.2835306   -4.0795313  0.074121623   -5.2835306    1.2039993   520603 
 3137000    1.0165625   -5.2821469   -5.2821469   -4.0781365  0.065065415   -5.2821469    1.2040104   520603 
 3138000    1.0162665    -5.282255    -5.282255   -4.0785952  0.080908094    -5.282255    1.2036599   520603 
 3139000    1.0164302   -5.2830586   -5.2830586   -4.0792048  0.067776703   -5.2830586    1.2038537   520603 
 3140000    1.0168563   -5.2826492   -5.2826492   -4.0782908  0.062915667   -5.2826492    1.2043583   520603 
 3141000    1.0160561   -5.2814871   -5.2814871   -4.0780764  0.072153145   -5.2814871    1.2034107   520603 
 3142000    1.0159034   -5.2809324   -5.2809324   -4.0777026  0.086049184   -5.2809324    1.2032298   520603 
 3143000    1.0164189   -5.2821696   -5.2821696   -4.0783293  0.075007101   -5.2821696    1.2038403   520603 
 3144000    1.0177118   -5.2828599   -5.2828599   -4.0774884  0.072573241   -5.2828599    1.2053716   520603 
 3145000    1.0171276   -5.2813929   -5.2813929   -4.0767132  0.068617228   -5.2813929    1.2046797   520603 
 3146000    1.0164531   -5.2811669   -5.2811669    -4.077286  0.082370956   -5.2811669    1.2038809   520603 
 3147000    1.0162666   -5.2805101   -5.2805101   -4.0768502  0.077658058   -5.2805101    1.2036599   520603 
 3148000    1.0168975   -5.2815099   -5.2815099   -4.0771027  0.077892592   -5.2815099    1.2044072   520603 
 3149000    1.0157807   -5.2797553   -5.2797553   -4.0766709  0.083001484   -5.2797553    1.2030844   520603 
 3150000    1.0162625   -5.2806696   -5.2806696   -4.0770145  0.053082424   -5.2806696    1.2036551   520603 
 3151000    1.0168874   -5.2813562   -5.2813562    -4.076961  0.066338383   -5.2813562    1.2043953   520603 
 3152000    1.0172795   -5.2819452   -5.2819452   -4.0770856  0.086102153   -5.2819452    1.2048596   520603 
 3153000     1.017325   -5.2817037   -5.2817037   -4.0767902  0.086176678   -5.2817037    1.2049135   520603 
 3154000    1.0176498   -5.2818441   -5.2818441   -4.0765459  0.076478008   -5.2818441    1.2052982   520603 
 3155000     1.016428    -5.281212    -5.281212   -4.0773609  0.082568711    -5.281212    1.2038511   520603 
 3156000     1.016871   -5.2810618   -5.2810618   -4.0766861  0.073419948   -5.2810618    1.2043757   520603 
 3157000    1.0168704   -5.2822788   -5.2822788   -4.0779038  0.066038135   -5.2822788     1.204375   520603 
 3158000    1.0150113   -5.2815538   -5.2815538   -4.0793806  0.092133143   -5.2815538    1.2021732   520603 
 3159000    1.0161887   -5.2831466   -5.2831466   -4.0795789  0.080893117   -5.2831466    1.2035677   520603 
 3160000     1.015495   -5.2822069   -5.2822069   -4.0794608  0.056595001   -5.2822069    1.2027461   520603 
 3161000    1.0174856   -5.2837889   -5.2837889   -4.0786852  0.079489826   -5.2837889    1.2051037   520603 
 3162000     1.018018   -5.2847341   -5.2847341   -4.0789999  0.079717131   -5.2847341    1.2057342   520603 
 3163000    1.0160802   -5.2836918   -5.2836918   -4.0802526  0.082233325   -5.2836918    1.2034392   520603 
 3164000    1.0176813   -5.2851393   -5.2851393   -4.0798038  0.080505135   -5.2851393    1.2053355   520603 
 3165000    1.0172807   -5.2851134   -5.2851134   -4.0802524  0.071323117   -5.2851134     1.204861   520603 
 3166000    1.0150117   -5.2825442   -5.2825442   -4.0803705  0.050198613   -5.2825442    1.2021737   520603 
 3167000    1.0181935   -5.2853504   -5.2853504   -4.0794082   0.07437998   -5.2853504    1.2059422   520603 
 3168000    1.0173756    -5.284261    -5.284261   -4.0792875  0.068373893    -5.284261    1.2049734   520603 
 3169000    1.0177336   -5.2836452   -5.2836452   -4.0782477  0.062526771   -5.2836452    1.2053975   520603 
 3170000    1.0167056   -5.2821658   -5.2821658   -4.0779858  0.073158081   -5.2821658    1.2041799   520603 
 3171000    1.0151534   -5.2808938   -5.2808938   -4.0785523   0.07073728   -5.2808938    1.2023415   520603 
 3172000    1.0152731   -5.2827362   -5.2827362   -4.0802529  0.053609544   -5.2827362    1.2024833   520603 
 3173000    1.0154542    -5.281753    -5.281753   -4.0790553  0.066149869    -5.281753    1.2026977   520603 
 3174000     1.016394   -5.2830041   -5.2830041   -4.0791933  0.066176263   -5.2830041    1.2038108   520603 
 3175000    1.0144425   -5.2810986   -5.2810986   -4.0795992  0.084495219   -5.2810986    1.2014994   520603 
 3176000    1.0146695   -5.2809594   -5.2809594   -4.0791911  0.053586734   -5.2809594    1.2017683   520603 
 3177000    1.0154804   -5.2816754   -5.2816754   -4.0789466  0.072451108   -5.2816754    1.2027288   520603 
 3178000    1.0152743    -5.281339    -5.281339   -4.0788544  0.063878953    -5.281339    1.2024846   520603 
 3179000    1.0150914   -5.2815826   -5.2815826   -4.0793146  0.070531888   -5.2815826    1.2022681   520603 
 3180000    1.0150375   -5.2815808   -5.2815808   -4.0793767   0.05703566   -5.2815808    1.2022042   520603 
 3181000    1.0154113   -5.2817339   -5.2817339    -4.079087  0.071132985   -5.2817339     1.202647   520603 
 3182000    1.0147918   -5.2821112   -5.2821112    -4.080198  0.074954278   -5.2821112    1.2019132   520603 
 3183000    1.0152801   -5.2822711   -5.2822711   -4.0797795  0.070689758   -5.2822711    1.2024916   520603 
 3184000    1.0153332   -5.2816817   -5.2816817   -4.0791273  0.064751297   -5.2816817    1.2025544   520603 
 3185000    1.0151371    -5.281133    -5.281133   -4.0788109  0.052315751    -5.281133    1.2023221   520603 
 3186000    1.0164998   -5.2826975   -5.2826975   -4.0787614  0.047121057   -5.2826975    1.2039361   520603 
 3187000    1.0141117   -5.2801176   -5.2801176     -4.07901  0.084738549   -5.2801176    1.2011077   520603 
 3188000    1.0152672   -5.2821718   -5.2821718   -4.0796956  0.062743471   -5.2821718    1.2024762   520603 
 3189000    1.0154326   -5.2832202   -5.2832202    -4.080548  0.081651697   -5.2832202    1.2026722   520603 
 3190000    1.0168772   -5.2842315   -5.2842315   -4.0798484  0.048428477   -5.2842315    1.2043831   520603 
 3191000    1.0178136   -5.2853289   -5.2853289   -4.0798368  0.083733964   -5.2853289    1.2054921   520603 
 3192000    1.0148045   -5.2818332   -5.2818332    -4.079905  0.083494668   -5.2818332    1.2019282   520603 
 3193000    1.0161762   -5.2837179   -5.2837179   -4.0801651  0.057526124   -5.2837179    1.2035528   520603 
 3194000    1.0149982   -5.2829491   -5.2829491   -4.0807914  0.082259272   -5.2829491    1.2021577   520603 
 3195000    1.0145181   -5.2821094   -5.2821094   -4.0805204  0.078355544   -5.2821094     1.201589   520603 
 3196000    1.0150897   -5.2828499   -5.2828499   -4.0805839  0.073734362   -5.2828499     1.202266   520603 
 3197000    1.0171148   -5.2844877   -5.2844877   -4.0798232   0.06153222   -5.2844877    1.2046645   520603 
 3198000    1.0154593   -5.2838698   -5.2838698   -4.0811661  0.080929767   -5.2838698    1.2027037   520603 
 3199000    1.0158894   -5.2838032   -5.2838032     -4.08059  0.084274187   -5.2838032    1.2032132   520603 
 3200000    1.0158586   -5.2848034   -5.2848034   -4.0816267  0.056800285   -5.2848034    1.2031767   520603 
 3201000    1.0148869   -5.2834548   -5.2834548   -4.0814289  0.064470293   -5.2834548    1.2020258   520603 
 3202000    1.0141271   -5.2824532   -5.2824532   -4.0813273  0.081512231   -5.2824532    1.2011259   520603 
 3203000    1.0136007   -5.2816232   -5.2816232   -4.0811208  0.062680255   -5.2816232    1.2005024   520603 
 3204000    1.0147426   -5.2827998   -5.2827998   -4.0809449   0.05796273   -5.2827998    1.2018549   520603 
 3205000     1.015354   -5.2833432   -5.2833432   -4.0807642  0.061230499   -5.2833432     1.202579   520603 
 3206000    1.0150482   -5.2833713   -5.2833713   -4.0811544   0.06167101   -5.2833713    1.2022168   520603 
 3207000    1.0139899   -5.2817584   -5.2817584    -4.080795  0.054626728   -5.2817584    1.2009634   520603 
 3208000    1.0155186   -5.2825715   -5.2825715   -4.0797974  0.074218809   -5.2825715     1.202774   520603 
 3209000    1.0162688   -5.2829724   -5.2829724   -4.0793099  0.067499219   -5.2829724    1.2036625   520603 
 3210000    1.0169823   -5.2834986   -5.2834986    -4.078991     0.079585   -5.2834986    1.2045076   520603 
 3211000    1.0155579   -5.2822967   -5.2822967   -4.0794761  0.055956875   -5.2822967    1.2028206   520603 
 3212000    1.0146954   -5.2830244   -5.2830244   -4.0812254  0.075822824   -5.2830244     1.201799   520603 
 3213000    1.0154241   -5.2843798   -5.2843798   -4.0817178  0.049108726   -5.2843798     1.202662   520603 
 3214000    1.0159828   -5.2849902   -5.2849902   -4.0816664  0.089254733   -5.2849902    1.2033238   520603 
 3215000     1.015439   -5.2837167   -5.2837167    -4.081037   0.06224339   -5.2837167    1.2026797   520603 
 3216000    1.0151554    -5.282853    -5.282853   -4.0805091  0.072353869    -5.282853    1.2023439   520603 
 3217000    1.0155921   -5.2839571   -5.2839571    -4.081096  0.085357898   -5.2839571    1.2028611   520603 
 3218000    1.0161979   -5.2850138   -5.2850138   -4.0814352  0.048738108   -5.2850138    1.2035785   520603 
 3219000    1.0177177   -5.2867487   -5.2867487   -4.0813701   0.07338801   -5.2867487    1.2053786   520603 
 3220000    1.0140616   -5.2821815   -5.2821815   -4.0811332  0.076001524   -5.2821815    1.2010484   520603 
 3221000    1.0170118   -5.2856337   -5.2856337   -4.0810911   0.08484081   -5.2856337    1.2045426   520603 
 3222000    1.0161218   -5.2833462   -5.2833462   -4.0798578  0.072740667   -5.2833462    1.2034884   520603 
 3223000    1.0178059   -5.2847625   -5.2847625   -4.0792794  0.092594446   -5.2847625    1.2054831   520603 
 3224000    1.0168094   -5.2844069   -5.2844069   -4.0801041  0.068978661   -5.2844069    1.2043028   520603 
 3225000    1.0178378   -5.2856562   -5.2856562   -4.0801353  0.070646819   -5.2856562    1.2055209   520603 
 3226000    1.0187229   -5.2874237   -5.2874237   -4.0808546  0.076045852   -5.2874237    1.2065691   520603 
 3227000    1.0166484   -5.2859099   -5.2859099   -4.0817978  0.082466662   -5.2859099    1.2041121   520603 
 3228000    1.0177048   -5.2871197   -5.2871197   -4.0817564  0.064988561   -5.2871197    1.2053633   520603 
 3229000    1.0162894   -5.2851148   -5.2851148   -4.0814278  0.083002578   -5.2851148     1.203687   520603 
 3230000    1.0164178    -5.286079    -5.286079     -4.08224   0.08939202    -5.286079     1.203839   520603 
 3231000    1.0164995   -5.2865269   -5.2865269   -4.0825911  0.081311921   -5.2865269    1.2039358   520603 
 3232000    1.0158054   -5.2853695   -5.2853695   -4.0822558  0.064467189   -5.2853695    1.2031137   520603 
 3233000    1.0160528   -5.2860781   -5.2860781   -4.0826715  0.060037628   -5.2860781    1.2034067   520603 
 3234000    1.0181833   -5.2876139   -5.2876139   -4.0816839  0.071235322   -5.2876139      1.20593   520603 
 3235000    1.0165829   -5.2852605   -5.2852605   -4.0812259  0.075813049   -5.2852605    1.2040346   520603 
 3236000    1.0166003   -5.2854479   -5.2854479   -4.0813927  0.050739557   -5.2854479    1.2040552   520603 
 3237000    1.0169093   -5.2860021   -5.2860021   -4.0815809  0.082575445   -5.2860021    1.2044212   520603 
 3238000    1.0170485   -5.2856965   -5.2856965   -4.0811104  0.072984994   -5.2856965     1.204586   520603 
 3239000    1.0170166   -5.2850474   -5.2850474   -4.0804992  0.072768957   -5.2850474    1.2045483   520603 
 3240000     1.017405   -5.2850551   -5.2850551   -4.0800469  0.060863365   -5.2850551    1.2050083   520603 
 3241000    1.0161109   -5.2841046   -5.2841046   -4.0806291  0.069687272   -5.2841046    1.2034755   520603 
 3242000    1.0165062   -5.2854128   -5.2854128   -4.0814691   0.04423569   -5.2854128    1.2039437   520603 
 3243000    1.0151228   -5.2841709   -5.2841709   -4.0818657  0.061287616   -5.2841709    1.2023052   520603 
 3244000    1.0160756   -5.2848286   -5.2848286   -4.0813948  0.056593606   -5.2848286    1.2034337   520603 
 3245000    1.0146638   -5.2842621   -5.2842621   -4.0825005  0.064517118   -5.2842621    1.2017616   520603 
 3246000    1.0156159   -5.2843106   -5.2843106   -4.0814213  0.050906581   -5.2843106    1.2028893   520603 
 3247000    1.0146985   -5.2836601   -5.2836601   -4.0818575  0.068464199   -5.2836601    1.2018026   520603 
 3248000    1.0165612   -5.2860382   -5.2860382   -4.0820293  0.060800121   -5.2860382    1.2040089   520603 
 3249000    1.0167587   -5.2869117   -5.2869117    -4.082669  0.075346496   -5.2869117    1.2042427   520603 
 3250000    1.0170465   -5.2871624   -5.2871624   -4.0825787  0.096172003   -5.2871624    1.2045837   520603 
 3251000    1.0160695   -5.2858962   -5.2858962   -4.0824697  0.066406359   -5.2858962    1.2034265   520603 
 3252000    1.0170769   -5.2867215   -5.2867215   -4.0821019   0.09010932   -5.2867215    1.2046196   520603 
 3253000    1.0165119   -5.2857064   -5.2857064    -4.081756  0.070531222   -5.2857064    1.2039505   520603 
 3254000     1.016362   -5.2867283   -5.2867283   -4.0829554  0.072420584   -5.2867283    1.2037729   520603 
 3255000    1.0192651   -5.2909517   -5.2909517   -4.0837404  0.050781267   -5.2909517    1.2072114   520603 
 3256000    1.0172792   -5.2886513   -5.2886513   -4.0837921  0.061644484   -5.2886513    1.2048592   520603 
 3257000    1.0166747    -5.287469    -5.287469   -4.0833257  0.085900436    -5.287469    1.2041433   520603 
 3258000    1.0165293   -5.2871791   -5.2871791   -4.0832079  0.082989266   -5.2871791    1.2039711   520603 
 3259000     1.015706    -5.287108    -5.287108    -4.084112  0.068480306    -5.287108     1.202996   520603 
 3260000    1.0155312   -5.2882338   -5.2882338   -4.0854449  0.074793317   -5.2882338     1.202789   520603 
 3261000    1.0167369   -5.2895752   -5.2895752   -4.0853582  0.071437711   -5.2895752     1.204217   520603 
 3262000    1.0169604   -5.2890991   -5.2890991   -4.0846174  0.060441654   -5.2890991    1.2044817   520603 
 3263000    1.0156654   -5.2872326   -5.2872326   -4.0842847   0.07216784   -5.2872326    1.2029479   520603 
 3264000    1.0180826   -5.2896647   -5.2896647   -4.0838539  0.075306582   -5.2896647    1.2058108   520603 
 3265000    1.0164554   -5.2874629   -5.2874629   -4.0835793  0.067685139   -5.2874629    1.2038836   520603 
 3266000    1.0159504   -5.2879564   -5.2879564    -4.084671  0.093470425   -5.2879564    1.2032854   520603 
 3267000    1.0177095   -5.2898802   -5.2898802   -4.0845113  0.081154441   -5.2898802    1.2053689   520603 
 3268000    1.0153685   -5.2865661   -5.2865661   -4.0839698  0.058663917   -5.2865661    1.2025962   520603 
 3269000     1.016848   -5.2883885   -5.2883885   -4.0840399  0.065040521   -5.2883885    1.2043486   520603 
 3270000    1.0159124   -5.2883864   -5.2883864    -4.085146  0.069787739   -5.2883864    1.2032404   520603 
 3271000    1.0146941   -5.2873417   -5.2873417   -4.0855442  0.062585756   -5.2873417    1.2017974   520603 
 3272000    1.0155774   -5.2891008   -5.2891008   -4.0862572  0.073064639   -5.2891008    1.2028436   520603 
 3273000    1.0144715   -5.2879671   -5.2879671   -4.0864333  0.069430875   -5.2879671    1.2015338   520603 
 3274000    1.0138021   -5.2865774   -5.2865774   -4.0858365  0.070890507   -5.2865774    1.2007409   520603 
 3275000    1.0144596   -5.2877617   -5.2877617    -4.086242  0.064803974   -5.2877617    1.2015198   520603 
 3276000     1.014898   -5.2883627   -5.2883627   -4.0863238  0.084406531   -5.2883627    1.2020389   520603 
 3277000    1.0149304   -5.2886713   -5.2886713    -4.086594  0.079096109   -5.2886713    1.2020773   520603 
 3278000    1.0147925   -5.2893391   -5.2893391    -4.087425  0.058043032   -5.2893391    1.2019141   520603 
 3279000    1.0146037   -5.2884647   -5.2884647   -4.0867744  0.060691834   -5.2884647    1.2016903   520603 
 3280000    1.0160805   -5.2897114   -5.2897114   -4.0862718  0.084880419   -5.2897114    1.2034396   520603 
 3281000    1.0159348    -5.289695    -5.289695   -4.0864281  0.088852429    -5.289695    1.2032669   520603 
 3282000    1.0166873   -5.2901313   -5.2901313   -4.0859731  0.083957215   -5.2901313    1.2041582   520603 
 3283000    1.0173166   -5.2900759   -5.2900759   -4.0851723  0.066642128   -5.2900759    1.2049036   520603 
 3284000    1.0158085    -5.288241    -5.288241   -4.0851237  0.071826614    -5.288241    1.2031173   520603 
 3285000    1.0156438   -5.2890019   -5.2890019   -4.0860797  0.088501292   -5.2890019    1.2029223   520603 
 3286000    1.0173613   -5.2907901   -5.2907901   -4.0858337  0.069802812   -5.2907901    1.2049564   520603 
 3287000    1.0167619   -5.2906815   -5.2906815   -4.0864349  0.089727008   -5.2906815    1.2042466   520603 
 3288000    1.0179669    -5.291996    -5.291996   -4.0863222  0.072515258    -5.291996    1.2056738   520603 
 3289000    1.0166406   -5.2902459   -5.2902459   -4.0861431  0.066121569   -5.2902459    1.2041028   520603 
 3290000    1.0167415   -5.2907882   -5.2907882   -4.0865658  0.066084247   -5.2907882    1.2042224   520603 
 3291000    1.0154443   -5.2904416   -5.2904416   -4.0877556  0.086187732   -5.2904416    1.2026861   520603 
 3292000    1.0147733   -5.2891894   -5.2891894   -4.0872981  0.057326607   -5.2891894    1.2018913   520603 
 3293000    1.0145497   -5.2896086   -5.2896086   -4.0879821  0.077967684   -5.2896086    1.2016265   520603 
 3294000    1.0150938   -5.2899166   -5.2899166   -4.0876457  0.047781514   -5.2899166    1.2022709   520603 
 3295000    1.0143349   -5.2882341   -5.2882341    -4.086862  0.060416986   -5.2882341     1.201372   520603 
 3296000    1.0153645   -5.2898084   -5.2898084   -4.0872169  0.073680258   -5.2898084    1.2025915   520603 
 3297000    1.0142309   -5.2884339   -5.2884339   -4.0871851  0.080270699   -5.2884339    1.2012489   520603 
 3298000    1.0143281   -5.2882082   -5.2882082   -4.0868442  0.073254015   -5.2882082     1.201364   520603 
 3299000     1.014579   -5.2876371   -5.2876371   -4.0859759  0.066528295   -5.2876371    1.2016612   520603 
 3300000     1.013925   -5.2870843   -5.2870843   -4.0861978  0.049198029   -5.2870843    1.2008865   520603 
 3301000    1.0128739   -5.2864382   -5.2864382   -4.0867966  0.084735954   -5.2864382    1.1996416   520603 
 3302000    1.0144799   -5.2890353   -5.2890353   -4.0874915  0.059651245   -5.2890353    1.2015438   520603 
 3303000    1.0165756   -5.2913999   -5.2913999    -4.087374  0.058386933   -5.2913999    1.2040259   520603 
 3304000    1.0131402    -5.287659    -5.287659    -4.087702  0.071801257    -5.287659     1.199957   520603 
 3305000    1.0144804   -5.2887265   -5.2887265   -4.0871821   0.08799234   -5.2887265    1.2015444   520603 
 3306000      1.01428   -5.2877723   -5.2877723   -4.0864653   0.08417198   -5.2877723     1.201307   520603 
 3307000    1.0153471   -5.2878739   -5.2878739   -4.0853031  0.072907054   -5.2878739    1.2025708   520603 
 3308000    1.0149477   -5.2883477   -5.2883477   -4.0862498  0.056505551   -5.2883477    1.2020979   520603 
 3309000    1.0146613   -5.2865538   -5.2865538   -4.0847952  0.068470787   -5.2865538    1.2017587   520603 
 3310000    1.0137565   -5.2863045   -5.2863045   -4.0856175   0.09229645   -5.2863045     1.200687   520603 
 3311000    1.0145226   -5.2874495   -5.2874495   -4.0858551  0.055204866   -5.2874495    1.2015944   520603 
 3312000    1.0180907   -5.2909267   -5.2909267   -4.0851063  0.069022014   -5.2909267    1.2058204   520603 
 3313000    1.0165764   -5.2903548   -5.2903548   -4.0863279  0.071519561   -5.2903548    1.2040269   520603 
 3314000    1.0158014   -5.2902405   -5.2902405   -4.0871316  0.074014105   -5.2902405    1.2031089   520603 
 3315000    1.0164148   -5.2905877   -5.2905877   -4.0867522  0.080195803   -5.2905877    1.2038354   520603 
 3316000    1.0165643   -5.2907352   -5.2907352   -4.0867227  0.076529925   -5.2907352    1.2040125   520603 
 3317000    1.0157017   -5.2902939   -5.2902939    -4.087303  0.068219515   -5.2902939    1.2029909   520603 
 3318000    1.0154349   -5.2902542   -5.2902542   -4.0875794  0.062846287   -5.2902542    1.2026749   520603 
 3319000    1.0145486   -5.2895441   -5.2895441    -4.087919  0.084306082   -5.2895441    1.2016251   520603 
 3320000    1.0155167   -5.2913489   -5.2913489   -4.0885772   0.08670352   -5.2913489    1.2027717   520603 
 3321000    1.0160524   -5.2913104   -5.2913104   -4.0879042  0.079808927   -5.2913104    1.2034062   520603 
 3322000    1.0178689   -5.2934852   -5.2934852   -4.0879274  0.067064708   -5.2934852    1.2055577   520603 
 3323000    1.0146589   -5.2908685   -5.2908685   -4.0891127  0.078180849   -5.2908685    1.2017558   520603 
 3324000    1.0152279   -5.2911124   -5.2911124   -4.0886827  0.062384452   -5.2911124    1.2024297   520603 
 3325000    1.0148661   -5.2895947   -5.2895947   -4.0875934  0.052750036   -5.2895947    1.2020012   520603 
 3326000    1.0153744   -5.2901517   -5.2901517   -4.0875485  0.069636707   -5.2901517    1.2026032   520603 
 3327000    1.0165602   -5.2915753   -5.2915753   -4.0875676   0.07428508   -5.2915753    1.2040076   520603 
 3328000     1.016732   -5.2935182   -5.2935182   -4.0893071  0.069664324   -5.2935182    1.2042111   520603 
 3329000    1.0145685   -5.2910521   -5.2910521   -4.0894035  0.063191094   -5.2910521    1.2016487   520603 
 3330000    1.0142986   -5.2901089   -5.2901089   -4.0887799  0.073722444   -5.2901089     1.201329   520603 
 3331000    1.0170495   -5.2925922   -5.2925922    -4.088005  0.053091843   -5.2925922    1.2045872   520603 
 3332000     1.015755    -5.289207    -5.289207    -4.086153  0.087273808    -5.289207     1.203054   520603 
 3333000     1.016754   -5.2907558   -5.2907558   -4.0865186  0.074649669   -5.2907558    1.2042372   520603 
 3334000     1.017033     -5.29251     -5.29251   -4.0879424  0.065642994     -5.29251    1.2045677   520603 
 3335000    1.0186198   -5.2932136   -5.2932136   -4.0867665  0.067276229   -5.2932136    1.2064471   520603 
 3336000     1.016091   -5.2901639   -5.2901639   -4.0867119  0.069124865   -5.2901639     1.203452   520603 
 3337000    1.0159364   -5.2904489   -5.2904489   -4.0871801  0.083569196   -5.2904489    1.2032688   520603 
 3338000    1.0176018   -5.2922865   -5.2922865   -4.0870451   0.06740376   -5.2922865    1.2052413   520603 
 3339000    1.0160679   -5.2904645   -5.2904645   -4.0870399  0.079412895   -5.2904645    1.2034246   520603 
 3340000     1.015073   -5.2899666   -5.2899666   -4.0877204    0.0719145   -5.2899666    1.2022463   520603 
 3341000    1.0168475    -5.291893    -5.291893   -4.0875451  0.077038661    -5.291893    1.2043479   520603 
 3342000    1.0169849   -5.2921298   -5.2921298   -4.0876191  0.084272843   -5.2921298    1.2045107   520603 
 3343000    1.0147758   -5.2902403   -5.2902403   -4.0883461  0.082649466   -5.2902403    1.2018942   520603 
 3344000    1.0149054   -5.2907531   -5.2907531   -4.0887054  0.095485221   -5.2907531    1.2020477   520603 
 3345000    1.0128226   -5.2883824   -5.2883824   -4.0888015  0.050436055   -5.2883824    1.1995809   520603 
 3346000    1.0148633   -5.2904331   -5.2904331   -4.0884353  0.068112939   -5.2904331    1.2019979   520603 
 3347000    1.0164723   -5.2930451   -5.2930451   -4.0891416  0.079109171   -5.2930451    1.2039035   520603 
 3348000     1.015164   -5.2915071   -5.2915071   -4.0891531  0.068556724   -5.2915071     1.202354   520603 
 3349000    1.0147792   -5.2903745   -5.2903745   -4.0884762  0.062910224   -5.2903745    1.2018983   520603 
 3350000    1.0152647   -5.2905852   -5.2905852   -4.0881119  0.072681449   -5.2905852    1.2024733   520603 
 3351000    1.0144801   -5.2904749   -5.2904749   -4.0889309  0.074366107   -5.2904749     1.201544   520603 
 3352000    1.0155557   -5.2919097   -5.2919097   -4.0890918  0.067667713   -5.2919097    1.2028179   520603 
 3353000    1.0140568   -5.2898344   -5.2898344   -4.0887918  0.074915557   -5.2898344    1.2010426   520603 
 3354000    1.0154685   -5.2913968   -5.2913968   -4.0886821  0.079602457   -5.2913968    1.2027147   520603 
 3355000    1.0150065    -5.292047    -5.292047   -4.0898795  0.085464334    -5.292047    1.2021675   520603 
 3356000     1.014423   -5.2910177   -5.2910177   -4.0895414  0.083744451   -5.2910177    1.2014764   520603 
 3357000    1.0142633   -5.2907013   -5.2907013    -4.089414  0.073032188   -5.2907013    1.2012872   520603 
 3358000    1.0173649    -5.294971    -5.294971   -4.0900103  0.033679665    -5.294971    1.2049607   520603 
 3359000    1.0144316   -5.2911378   -5.2911378   -4.0896512  0.092659241   -5.2911378    1.2014866   520603 
 3360000    1.0158284   -5.2928106   -5.2928106   -4.0896696  0.077064059   -5.2928106     1.203141   520603 
 3361000    1.0161108   -5.2929145   -5.2929145   -4.0894391   0.06025159   -5.2929145    1.2034754   520603 
 3362000     1.017698   -5.2944169   -5.2944169   -4.0890616  0.068133102   -5.2944169    1.2053553   520603 
 3363000    1.0177298   -5.2940086   -5.2940086   -4.0886157  0.079314432   -5.2940086    1.2053929   520603 
 3364000    1.0182359   -5.2949652   -5.2949652   -4.0889729  0.071207691   -5.2949652    1.2059923   520603 
 3365000    1.0164111   -5.2928726   -5.2928726   -4.0890415  0.081692341   -5.2928726    1.2038311   520603 
 3366000    1.0160052   -5.2931606   -5.2931606   -4.0898103  0.072544728   -5.2931606    1.2033503   520603 
 3367000    1.0176449   -5.2947506   -5.2947506   -4.0894582  0.058321925   -5.2947506    1.2052924   520603 
 3368000     1.017077   -5.2944099   -5.2944099   -4.0897902  0.059792002   -5.2944099    1.2046198   520603 
 3369000    1.0161665    -5.293184    -5.293184   -4.0896426  0.075512834    -5.293184    1.2035414   520603 
 3370000    1.0172979   -5.2932855   -5.2932855   -4.0884041  0.056215609   -5.2932855    1.2048815   520603 
 3371000     1.018591   -5.2949003   -5.2949003   -4.0884874  0.081926034   -5.2949003    1.2064129   520603 
 3372000    1.0168735   -5.2923593   -5.2923593   -4.0879805   0.08310713   -5.2923593    1.2043787   520603 
 3373000      1.01579   -5.2927288   -5.2927288   -4.0896333  0.066331079   -5.2927288    1.2030955   520603 
 3374000    1.0176729   -5.2947941   -5.2947941   -4.0894685  0.079302697   -5.2947941    1.2053255   520603 
 3375000    1.0147931   -5.2926022   -5.2926022   -4.0906875  0.082453647   -5.2926022    1.2019147   520603 
 3376000    1.0135122    -5.290891    -5.290891   -4.0904934  0.066474501    -5.290891    1.2003976   520603 
 3377000    1.0151907   -5.2914438   -5.2914438   -4.0890581  0.051761771   -5.2914438    1.2023857   520603 
 3378000    1.0155611   -5.2932423   -5.2932423   -4.0904179  0.055368809   -5.2932423    1.2028243   520603 
 3379000    1.0144269   -5.2919016   -5.2919016   -4.0904206  0.072998875   -5.2919016     1.201481   520603 
 3380000    1.0142349   -5.2901629   -5.2901629   -4.0889093  0.066827593   -5.2901629    1.2012536   520603 
 3381000    1.0143289   -5.2910132   -5.2910132   -4.0896482  0.053734412   -5.2910132     1.201365   520603 
 3382000    1.0144491   -5.2901869   -5.2901869   -4.0886796  0.094109151   -5.2901869    1.2015073   520603 
 3383000    1.0148526   -5.2909104   -5.2909104   -4.0889252  0.067714507   -5.2909104    1.2019852   520603 
 3384000    1.0172914   -5.2928914   -5.2928914   -4.0880176   0.09506021   -5.2928914    1.2048737   520603 
 3385000    1.0147495   -5.2909169   -5.2909169   -4.0890538  0.079709792   -5.2909169    1.2018631   520603 
 3386000     1.017018   -5.2938091   -5.2938091   -4.0892593  0.063549576   -5.2938091    1.2045498   520603 
 3387000    1.0159837   -5.2918064   -5.2918064   -4.0884815  0.075001758   -5.2918064    1.2033249   520603 
 3388000    1.0176226   -5.2933203   -5.2933203   -4.0880544  0.065937933   -5.2933203     1.205266   520603 
 3389000    1.0166208   -5.2937073   -5.2937073   -4.0896278  0.087199825   -5.2937073    1.2040794   520603 
 3390000    1.0157445     -5.29254     -5.29254   -4.0894984  0.054473659     -5.29254    1.2030416   520603 
 3391000    1.0146315   -5.2922519   -5.2922519   -4.0905286  0.071772372   -5.2922519    1.2017233   520603 
 3392000    1.0175635   -5.2948412   -5.2948412   -4.0896452  0.068290636   -5.2948412     1.205196   520603 
 3393000    1.0164098   -5.2936481   -5.2936481   -4.0898185  0.083283895   -5.2936481    1.2038296   520603 
 3394000    1.0153562   -5.2930894   -5.2930894   -4.0905078  0.070528195   -5.2930894    1.2025816   520603 
 3395000    1.0153419   -5.2935812   -5.2935812   -4.0910165  0.065844401   -5.2935812    1.2025647   520603 
 3396000    1.0146884   -5.2912378   -5.2912378   -4.0894471  0.068246271   -5.2912378    1.2017908   520603 
 3397000    1.0152507   -5.2924621   -5.2924621   -4.0900054  0.072384357   -5.2924621    1.2024567   520603 
 3398000    1.0151889   -5.2923917   -5.2923917   -4.0900081  0.071416677   -5.2923917    1.2023835   520603 
 3399000    1.0125356   -5.2895474   -5.2895474   -4.0903065   0.05497538   -5.2895474    1.1992409   520603 
 3400000    1.0139417   -5.2918916   -5.2918916   -4.0909854  0.071130166   -5.2918916    1.2009063   520603 
 3401000    1.0148485   -5.2918015   -5.2918015   -4.0898211  0.068369402   -5.2918015    1.2019804   520603 
 3402000    1.0144383   -5.2921242   -5.2921242   -4.0906297  0.087987751   -5.2921242    1.2014945   520603 
 3403000    1.0133774   -5.2913876   -5.2913876   -4.0911496   0.07524212   -5.2913876    1.2002379   520603 
 3404000    1.0145788   -5.2928561   -5.2928561   -4.0911951  0.080284051   -5.2928561    1.2016609   520603 
 3405000    1.0155368   -5.2939777   -5.2939777   -4.0911821  0.082489069   -5.2939777    1.2027956   520603 
 3406000    1.0136187   -5.2919448   -5.2919448    -4.091421  0.084742551   -5.2919448    1.2005238   520603 
 3407000    1.0144139   -5.2941535   -5.2941535   -4.0926878  0.081018892   -5.2941535    1.2014656   520603 
 3408000    1.0137185   -5.2932423   -5.2932423   -4.0926003  0.074132016   -5.2932423     1.200642   520603 
 3409000    1.0140981   -5.2931578   -5.2931578   -4.0920662  0.065380947   -5.2931578    1.2010915   520603 
 3410000    1.0151674   -5.2943204   -5.2943204   -4.0919624  0.079061803   -5.2943204     1.202358   520603 
 3411000    1.0162269   -5.2948319   -5.2948319    -4.091219  0.076142493   -5.2948319    1.2036129   520603 
 3412000    1.0151572   -5.2943288   -5.2943288   -4.0919828  0.084220807   -5.2943288     1.202346   520603 
 3413000    1.0163143   -5.2951208   -5.2951208   -4.0914044  0.090738362   -5.2951208    1.2037164   520603 
 3414000    1.0150046   -5.2942737   -5.2942737   -4.0921085  0.075898046   -5.2942737    1.2021652   520603 
 3415000    1.0148173   -5.2940681   -5.2940681   -4.0921247   0.10617721   -5.2940681    1.2019434   520603 
 3416000    1.0135895   -5.2912058   -5.2912058   -4.0907166  0.069849885   -5.2912058    1.2004892   520603 
 3417000    1.0159465   -5.2928493   -5.2928493   -4.0895685  0.072188062   -5.2928493    1.2032808   520603 
 3418000    1.0155946   -5.2933717   -5.2933717   -4.0905077  0.080871309   -5.2933717     1.202864   520603 
 3419000    1.0151376   -5.2925334   -5.2925334   -4.0902107  0.067653041   -5.2925334    1.2023227   520603 
 3420000    1.0179482   -5.2960518   -5.2960518   -4.0904002  0.063743203   -5.2960518    1.2056516   520603 
 3421000    1.0166504   -5.2948246   -5.2948246   -4.0907101  0.072598451   -5.2948246    1.2041145   520603 
 3422000    1.0151723   -5.2932879   -5.2932879   -4.0909241  0.065240928   -5.2932879    1.2023638   520603 
 3423000    1.0158519   -5.2937199   -5.2937199   -4.0905511  0.085161851   -5.2937199    1.2031688   520603 
 3424000    1.0137011   -5.2916745   -5.2916745   -4.0910531  0.060955983   -5.2916745    1.2006214   520603 
 3425000    1.0133955   -5.2927603   -5.2927603   -4.0925008  0.053147098   -5.2927603    1.2002594   520603 
 3426000    1.0159392   -5.2949154   -5.2949154   -4.0916432  0.075387819   -5.2949154    1.2032722   520603 
 3427000    1.0162608   -5.2951911   -5.2951911   -4.0915381  0.069597692   -5.2951911     1.203653   520603 
 3428000    1.0143699   -5.2933791   -5.2933791   -4.0919656  0.053415711   -5.2933791    1.2014134   520603 
 3429000    1.0138536   -5.2926236   -5.2926236   -4.0918216  0.083578312   -5.2926236     1.200802   520603 
 3430000    1.0134598   -5.2929782   -5.2929782   -4.0926427  0.073801238   -5.2929782    1.2003356   520603 
 3431000    1.0168168   -5.2968055   -5.2968055   -4.0924939  0.083334862   -5.2968055    1.2043116   520603 
 3432000    1.0150159   -5.2953622   -5.2953622   -4.0931836  0.074898328   -5.2953622    1.2021786   520603 
 3433000     1.016072   -5.2958752   -5.2958752   -4.0924458  0.070161236   -5.2958752    1.2034294   520603 
 3434000    1.0149686    -5.295269    -5.295269   -4.0931465  0.055569651    -5.295269    1.2021225   520603 
 3435000    1.0155483   -5.2957098   -5.2957098   -4.0929006  0.062102322   -5.2957098    1.2028092   520603 
 3436000    1.0160544   -5.2963019   -5.2963019   -4.0928933  0.070564236   -5.2963019    1.2034086   520603 
 3437000    1.0173761   -5.2981226   -5.2981226   -4.0931486   0.10733209   -5.2981226     1.204974   520603 
 3438000    1.0170684   -5.2979262   -5.2979262   -4.0933166  0.073031913   -5.2979262    1.2046095   520603 
 3439000     1.016424   -5.2965352   -5.2965352   -4.0926889  0.079286528   -5.2965352    1.2038463   520603 
 3440000    1.0160389    -5.296162    -5.296162   -4.0927718  0.087376514    -5.296162    1.2033903   520603 
 3441000    1.0158958   -5.2973087   -5.2973087    -4.094088   0.07578407   -5.2973087    1.2032207   520603 
 3442000    1.0143062   -5.2948489   -5.2948489   -4.0935109   0.07470624   -5.2948489     1.201338   520603 
 3443000    1.0150232   -5.2944879   -5.2944879   -4.0923006  0.075589449   -5.2944879    1.2021873   520603 
 3444000    1.0151608    -5.294789    -5.294789   -4.0924388  0.085481807    -5.294789    1.2023502   520603 
 3445000    1.0151868   -5.2943536   -5.2943536   -4.0919726  0.079425906   -5.2943536     1.202381   520603 
 3446000    1.0143069    -5.293964    -5.293964   -4.0926251  0.067159207    -5.293964    1.2013389   520603 
 3447000     1.014497   -5.2934486   -5.2934486   -4.0918846  0.062767183   -5.2934486    1.2015641   520603 
 3448000    1.0140187   -5.2930708   -5.2930708   -4.0920732  0.085374964   -5.2930708    1.2009976   520603 
 3449000    1.0146705   -5.2941197   -5.2941197   -4.0923502  0.061448084   -5.2941197    1.2017695   520603 
 3450000    1.0134207   -5.2921105   -5.2921105   -4.0918212  0.076825644   -5.2921105    1.2002893   520603 
 3451000    1.0137757    -5.293462    -5.293462   -4.0927523  0.055232345    -5.293462    1.2007097   520603 
 3452000     1.013938   -5.2939279   -5.2939279    -4.093026  0.070330912   -5.2939279    1.2009019   520603 
 3453000    1.0149581   -5.2942497   -5.2942497   -4.0921396  0.095891018   -5.2942497    1.2021102   520603 
 3454000    1.0153412   -5.2952194   -5.2952194   -4.0926555  0.068665791   -5.2952194    1.2025639   520603 
 3455000    1.0151204   -5.2945507   -5.2945507   -4.0922483  0.062600114   -5.2945507    1.2023024   520603 
 3456000    1.0151909   -5.2945011   -5.2945011   -4.0921153  0.074698084   -5.2945011    1.2023858   520603 
 3457000    1.0157367   -5.2958877   -5.2958877   -4.0928554  0.079877276   -5.2958877    1.2030323   520603 
 3458000    1.0165397   -5.2976796   -5.2976796   -4.0936962  0.084614245   -5.2976796    1.2039834   520603 
 3459000    1.0142985   -5.2955108   -5.2955108   -4.0941818   0.07974794   -5.2955108     1.201329   520603 
 3460000    1.0156582   -5.2975225   -5.2975225   -4.0945832  0.070634154   -5.2975225    1.2029393   520603 
 3461000    1.0155422   -5.2978212   -5.2978212   -4.0950192     0.076282   -5.2978212     1.202802   520603 
 3462000    1.0168411   -5.2992436   -5.2992436   -4.0949032  0.069354592   -5.2992436    1.2043404   520603 
 3463000    1.0184703   -5.3007636   -5.3007636   -4.0944937  0.089607066   -5.3007636    1.2062699   520603 
 3464000    1.0149922   -5.2971593   -5.2971593   -4.0950088  0.080384387   -5.2971593    1.2021505   520603 
 3465000    1.0154913    -5.297723    -5.297723   -4.0949813  0.090345833    -5.297723    1.2027417   520603 
 3466000    1.0141815   -5.2959263   -5.2959263    -4.094736  0.065631988   -5.2959263    1.2011903   520603 
 3467000    1.0143592   -5.2963109   -5.2963109   -4.0949101  0.058164528   -5.2963109    1.2014009   520603 
 3468000    1.0158035   -5.2966688   -5.2966688   -4.0935574  0.062345891   -5.2966688    1.2031114   520603 
 3469000    1.0148157   -5.2960806   -5.2960806   -4.0941391   0.07473924   -5.2960806    1.2019415   520603 
 3470000    1.0146726   -5.2950799   -5.2950799   -4.0933079  0.054730822   -5.2950799     1.201772   520603 
 3471000    1.0143899   -5.2944393   -5.2944393   -4.0930022  0.086721242   -5.2944393    1.2014371   520603 
 3472000    1.0148776   -5.2958107   -5.2958107   -4.0937959  0.038119722   -5.2958107    1.2020148   520603 
 3473000    1.0150766   -5.2965548   -5.2965548   -4.0943043  0.083191274   -5.2965548    1.2022505   520603 
 3474000    1.0131621   -5.2938347   -5.2938347   -4.0938517  0.074587144   -5.2938347     1.199983   520603 
 3475000    1.0130734   -5.2923744   -5.2923744   -4.0924965   0.07258734   -5.2923744     1.199878   520603 
 3476000    1.0133981   -5.2932086   -5.2932086   -4.0929461  0.076766495   -5.2932086    1.2002625   520603 
 3477000    1.0138203   -5.2937838   -5.2937838   -4.0930212  0.073398323   -5.2937838    1.2007625   520603 
 3478000    1.0161788   -5.2956992   -5.2956992   -4.0921433  0.067724548   -5.2956992    1.2035559   520603 
 3479000    1.0145804   -5.2942352   -5.2942352   -4.0925724  0.063214907   -5.2942352    1.2016628   520603 
 3480000    1.0147907   -5.2954971   -5.2954971   -4.0935852  0.068045519   -5.2954971    1.2019119   520603 
 3481000    1.0140113   -5.2948234   -5.2948234   -4.0938346  0.067055969   -5.2948234    1.2009888   520603 
 3482000     1.012994    -5.293384    -5.293384   -4.0936001  0.071002661    -5.293384    1.1997839   520603 
 3483000    1.0137839   -5.2930645   -5.2930645   -4.0923451  0.078276486   -5.2930645    1.2007194   520603 
 3484000     1.016865   -5.2970133   -5.2970133   -4.0926446  0.078532535   -5.2970133    1.2043687   520603 
 3485000    1.0169278   -5.2969014   -5.2969014   -4.0924583  0.068708287   -5.2969014    1.2044431   520603 
 3486000    1.0135167   -5.2939667   -5.2939667   -4.0935637  0.073824393   -5.2939667    1.2004029   520603 
 3487000    1.0144967   -5.2956397   -5.2956397   -4.0940761   0.06087797   -5.2956397    1.2015637   520603 
 3488000    1.0145752   -5.2966092   -5.2966092   -4.0949525    0.0613955   -5.2966092    1.2016567   520603 
 3489000    1.0161202   -5.2979264   -5.2979264   -4.0944398  0.071888772   -5.2979264    1.2034866   520603 
 3490000    1.0142067   -5.2962931   -5.2962931   -4.0950729    0.0610822   -5.2962931    1.2012202   520603 
 3491000    1.0166776   -5.2983046   -5.2983046   -4.0941579  0.075041084   -5.2983046    1.2041467   520603 
 3492000    1.0149634   -5.2956032   -5.2956032   -4.0934869  0.076818815   -5.2956032    1.2021164   520603 
 3493000    1.0146296   -5.2954374   -5.2954374   -4.0937163  0.079346802   -5.2954374    1.2017211   520603 
 3494000    1.0153968   -5.2963544   -5.2963544   -4.0937246  0.061111407   -5.2963544    1.2026298   520603 
 3495000    1.0163526   -5.2973726   -5.2973726   -4.0936107  0.048410302   -5.2973726    1.2037618   520603 
 3496000    1.0154015   -5.2972777   -5.2972777   -4.0946423  0.080836353   -5.2972777    1.2026353   520603 
 3497000    1.0154665   -5.2975316   -5.2975316   -4.0948193  0.069041003   -5.2975316    1.2027123   520603 
 3498000    1.0152511   -5.2971668   -5.2971668   -4.0947095  0.084205528   -5.2971668    1.2024572   520603 
 3499000    1.0158331   -5.2970859   -5.2970859   -4.0939395  0.060900563   -5.2970859    1.2031465   520603 
 3500000    1.0148044   -5.2958669   -5.2958669   -4.0939388  0.088727204   -5.2958669    1.2019281   520603 
 3501000    1.0148061   -5.2952474   -5.2952474   -4.0933173  0.078257115   -5.2952474    1.2019301   520603 
 3502000    1.0158075   -5.2963679   -5.2963679   -4.0932518  0.070153962   -5.2963679    1.2031161   520603 
 3503000     1.016807   -5.2967426   -5.2967426   -4.0924426  0.070166757   -5.2967426       1.2043   520603 
 3504000     1.016128   -5.2978092   -5.2978092   -4.0943135  0.073910162   -5.2978092    1.2034957   520603 
 3505000    1.0122736   -5.2936829   -5.2936829   -4.0947523  0.072763268   -5.2936829    1.1989306   520603 
 3506000    1.0152152   -5.2957108   -5.2957108   -4.0932961  0.078871428   -5.2957108    1.2024147   520603 
 3507000    1.0134052   -5.2941477   -5.2941477   -4.0938768  0.054198893   -5.2941477    1.2002709   520603 
 3508000    1.0126109   -5.2925259   -5.2925259   -4.0931957  0.064068557   -5.2925259    1.1993302   520603 
 3509000    1.0145696   -5.2943895   -5.2943895   -4.0927395   0.06374044   -5.2943895      1.20165   520603 
 3510000     1.014375   -5.2941159   -5.2941159   -4.0926964  0.078305485   -5.2941159    1.2014195   520603 
 3511000    1.0140577   -5.2944104   -5.2944104   -4.0933667  0.068886197   -5.2944104    1.2010437   520603 
 3512000     1.012916   -5.2926348   -5.2926348   -4.0929434  0.082307227   -5.2926348    1.1996915   520603 
 3513000    1.0133622   -5.2925902   -5.2925902   -4.0923702  0.059411671   -5.2925902    1.2002199   520603 
 3514000    1.0157203   -5.2956585   -5.2956585   -4.0926456  0.063899288   -5.2956585    1.2030129   520603 
 3515000     1.016192    -5.296316    -5.296316   -4.0927444  0.040731557    -5.296316    1.2035716   520603 
 3516000    1.0141797   -5.2945201   -5.2945201   -4.0933319  0.081391689   -5.2945201    1.2011883   520603 
 3517000    1.0143377    -5.294926    -5.294926   -4.0935507   0.08589451    -5.294926    1.2013753   520603 
 3518000    1.0139095   -5.2937054   -5.2937054   -4.0928373  0.092624205   -5.2937054    1.2008682   520603 
 3519000    1.0157143   -5.2947145   -5.2947145   -4.0917086   0.08628664   -5.2947145    1.2030058   520603 
 3520000    1.0169933   -5.2962763   -5.2962763   -4.0917557  0.089495119   -5.2962763    1.2045206   520603 
 3521000    1.0158286   -5.2954735   -5.2954735   -4.0923323  0.084683448   -5.2954735    1.2031412   520603 
 3522000    1.0152962    -5.295486    -5.295486   -4.0929754   0.07839339    -5.295486    1.2025106   520603 
 3523000    1.0146813   -5.2949738   -5.2949738   -4.0931915  0.071525746   -5.2949738    1.2017823   520603 
 3524000    1.0135492   -5.2949069   -5.2949069   -4.0944654  0.089852196   -5.2949069    1.2004414   520603 
 3525000    1.0156405   -5.2974745   -5.2974745   -4.0945561  0.045972483   -5.2974745    1.2029184   520603 
 3526000    1.0137153   -5.2956752   -5.2956752   -4.0950371  0.086767676   -5.2956752    1.2006381   520603 
 3527000    1.0139542   -5.2961548   -5.2961548   -4.0952337  0.070582552   -5.2961548    1.2009211   520603 
 3528000    1.0148458   -5.2963449   -5.2963449   -4.0943677  0.073313286   -5.2963449    1.2019772   520603 
 3529000    1.0130868   -5.2951919   -5.2951919   -4.0952981  0.071027561   -5.2951919    1.1998938   520603 
 3530000    1.0136521   -5.2954701   -5.2954701   -4.0949067  0.046390529   -5.2954701    1.2005633   520603 
 3531000    1.0139465   -5.2962426   -5.2962426   -4.0953306  0.062985106   -5.2962426     1.200912   520603 
 3532000    1.0151101   -5.2978391   -5.2978391    -4.095549  0.060683232   -5.2978391    1.2022902   520603 
 3533000    1.0135307   -5.2957517   -5.2957517   -4.0953322  0.070105261   -5.2957517    1.2004195   520603 
 3534000    1.0127641   -5.2957008   -5.2957008   -4.0961892  0.077554738   -5.2957008    1.1995116   520603 
 3535000     1.013697   -5.2960764   -5.2960764   -4.0954599  0.064753561   -5.2960764    1.2006165   520603 
 3536000    1.0137268   -5.2960436   -5.2960436   -4.0953919    0.0925064   -5.2960436    1.2006518   520603 
 3537000    1.0126671   -5.2940118   -5.2940118   -4.0946151  0.087318577   -5.2940118    1.1993968   520603 
 3538000    1.0136628   -5.2962993   -5.2962993   -4.0957233  0.057737813   -5.2962993     1.200576   520603 
 3539000    1.0128702   -5.2952658   -5.2952658   -4.0956286  0.081460214   -5.2952658    1.1996372   520603 
 3540000    1.0148673   -5.2972625   -5.2972625   -4.0952599  0.075960349   -5.2972625    1.2020026   520603 
 3541000    1.0151309   -5.2974184   -5.2974184   -4.0951036  0.081027858   -5.2974184    1.2023148   520603 
 3542000    1.0143339   -5.2967678   -5.2967678   -4.0953969  0.057767116   -5.2967678    1.2013708   520603 
 3543000    1.0146443    -5.297628    -5.297628   -4.0958895  0.072239865    -5.297628    1.2017385   520603 
 3544000    1.0128734   -5.2954544   -5.2954544   -4.0958133    0.0799268   -5.2954544    1.1996411   520603 
 3545000    1.0165802    -5.299564    -5.299564   -4.0955327  0.063622313    -5.299564    1.2040313   520603 
 3546000    1.0151851   -5.2983777   -5.2983777   -4.0959987   0.07712452   -5.2983777     1.202379   520603 
 3547000    1.0140969   -5.2964741   -5.2964741    -4.095384  0.068136948   -5.2964741    1.2010901   520603 
 3548000    1.0151175   -5.2973684   -5.2973684   -4.0950694  0.071728041   -5.2973684    1.2022989   520603 
 3549000     1.015236   -5.2977226   -5.2977226   -4.0952833  0.073423227   -5.2977226    1.2024393   520603 
 3550000    1.0151809   -5.2975602   -5.2975602   -4.0951862  0.096216734   -5.2975602     1.202374   520603 
 3551000    1.0140184   -5.2956676   -5.2956676   -4.0946704   0.07174059   -5.2956676    1.2009972   520603 
 3552000    1.0157729   -5.2981283   -5.2981283    -4.095053  0.078581644   -5.2981283    1.2030752   520603 
 3553000    1.0156214   -5.2975236   -5.2975236   -4.0946279  0.053598563   -5.2975236    1.2028957   520603 
 3554000    1.0162659   -5.2976573   -5.2976573   -4.0939982  0.072251352   -5.2976573    1.2036591   520603 
 3555000    1.0163948   -5.2970853   -5.2970853   -4.0932735  0.067454174   -5.2970853    1.2038118   520603 
 3556000    1.0141325   -5.2955497   -5.2955497   -4.0944173  0.079995926   -5.2955497    1.2011323   520603 
 3557000     1.013431   -5.2947884   -5.2947884   -4.0944869  0.089605867   -5.2947884    1.2003014   520603 
 3558000    1.0170511    -5.299933    -5.299933   -4.0953439  0.065983618    -5.299933    1.2045891   520603 
 3559000    1.0142402   -5.2965372   -5.2965372   -4.0952773  0.071696789   -5.2965372    1.2012598   520603 
 3560000    1.0145346   -5.2957316   -5.2957316    -4.094123   0.06442763   -5.2957316    1.2016085   520603 
 3561000    1.0149239   -5.2963857   -5.2963857   -4.0943161  0.066186953   -5.2963857    1.2020696   520603 
 3562000    1.0135767   -5.2946128   -5.2946128   -4.0941388  0.072162092   -5.2946128     1.200474   520603 
 3563000    1.0166349   -5.2984641   -5.2984641    -4.094368  0.061272905   -5.2984641    1.2040962   520603 
 3564000    1.0155891   -5.2982344   -5.2982344   -4.0953768  0.080832931   -5.2982344    1.2028575   520603 
 3565000    1.0157022   -5.2976726   -5.2976726   -4.0946811  0.095838042   -5.2976726    1.2029915   520603 
 3566000    1.0145455   -5.2957149   -5.2957149   -4.0940935  0.099036332   -5.2957149    1.2016214   520603 
 3567000    1.0165523   -5.2969261   -5.2969261   -4.0929277  0.078894141   -5.2969261    1.2039983   520603 
 3568000    1.0152819   -5.2963215   -5.2963215   -4.0938279  0.076944701   -5.2963215    1.2024936   520603 
 3569000    1.0160447    -5.296959    -5.296959   -4.0935619  0.062530905    -5.296959    1.2033971   520603 
 3570000    1.0134401   -5.2932396   -5.2932396   -4.0929275  0.077144141   -5.2932396    1.2003122   520603 
 3571000    1.0138794   -5.2946578   -5.2946578   -4.0938253  0.042967303   -5.2946578    1.2008325   520603 
 3572000    1.0133498   -5.2943204   -5.2943204   -4.0941151  0.069322226   -5.2943204    1.2002053   520603 
 3573000    1.0145782   -5.2948808   -5.2948808   -4.0932206  0.072567051   -5.2948808    1.2016602   520603 
 3574000    1.0144414   -5.2957556   -5.2957556   -4.0942574   0.07222946   -5.2957556    1.2014982   520603 
 3575000     1.013117   -5.2941807   -5.2941807   -4.0942512  0.070792429   -5.2941807    1.1999295   520603 
 3576000    1.0139423   -5.2945637   -5.2945637   -4.0936567  0.069290276   -5.2945637     1.200907   520603 
 3577000    1.0138338   -5.2938098   -5.2938098   -4.0930312  0.070924674   -5.2938098    1.2007786   520603 
 3578000    1.0153759   -5.2953725   -5.2953725   -4.0927675    0.0704985   -5.2953725     1.202605   520603 
 3579000    1.0138648      -5.2943      -5.2943   -4.0934848  0.065897803      -5.2943    1.2008152   520603 
 3580000    1.0130167   -5.2926074   -5.2926074   -4.0927966    0.0615096   -5.2926074    1.1998107   520603 
 3581000    1.0148093   -5.2952569   -5.2952569   -4.0933229  0.065607708   -5.2952569     1.201934   520603 
 3582000    1.0149541   -5.2957096   -5.2957096   -4.0936042  0.059810847   -5.2957096    1.2021054   520603 
 3583000    1.0161556   -5.2981061   -5.2981061   -4.0945777     0.066532   -5.2981061    1.2035285   520603 
 3584000    1.0145733   -5.2966256   -5.2966256   -4.0949712  0.078526653   -5.2966256    1.2016544   520603 
 3585000    1.0152643   -5.2974284   -5.2974284   -4.0949556  0.057411641   -5.2974284    1.2024728   520603 
 3586000    1.0143964   -5.2961928   -5.2961928    -4.094748  0.074378319   -5.2961928    1.2014448   520603 
 3587000    1.0157828   -5.2974644   -5.2974644   -4.0943775     0.047678   -5.2974644     1.203087   520603 
 3588000    1.0131892   -5.2952961   -5.2952961    -4.095281  0.092009513   -5.2952961    1.2000151   520603 
 3589000    1.0143543   -5.2959503   -5.2959503   -4.0945553  0.058166638   -5.2959503     1.201395   520603 
 3590000     1.013381    -5.295398    -5.295398   -4.0951557  0.073737453    -5.295398    1.2002422   520603 
 3591000    1.0144229    -5.296242    -5.296242   -4.0947657  0.076858115    -5.296242    1.2014763   520603 
 3592000    1.0144454   -5.2953655   -5.2953655   -4.0938626  0.073907333   -5.2953655    1.2015029   520603 
 3593000    1.0136011   -5.2936861   -5.2936861   -4.0931832    0.0733622   -5.2936861     1.200503   520603 
 3594000     1.015892   -5.2966549   -5.2966549   -4.0934386  0.075881862   -5.2966549    1.2032163   520603 
 3595000    1.0132684   -5.2935288   -5.2935288   -4.0934199  0.077376345   -5.2935288    1.2001088   520603 
 3596000    1.0142987   -5.2940601   -5.2940601   -4.0927309  0.049931054   -5.2940601    1.2013292   520603 
 3597000    1.0162292   -5.2962054   -5.2962054   -4.0925897  0.069324791   -5.2962054    1.2036157   520603 
 3598000    1.0150742   -5.2955537   -5.2955537    -4.093306  0.067461265   -5.2955537    1.2022477   520603 
 3599000    1.0141667   -5.2942077   -5.2942077   -4.0930349  0.067366674   -5.2942077    1.2011729   520603 
 3600000     1.012801   -5.2928519   -5.2928519   -4.0932966  0.079587507   -5.2928519    1.1995553   520603 
 3601000    1.0162344   -5.2964974   -5.2964974   -4.0928757  0.042038613   -5.2964974    1.2036218   520603 
 3602000    1.0134735   -5.2940345   -5.2940345   -4.0936827  0.063409381   -5.2940345    1.2003518   520603 
 3603000    1.0129294   -5.2942048   -5.2942048   -4.0944974  0.045730475   -5.2942048    1.1997074   520603 
 3604000    1.0139574   -5.2950555   -5.2950555   -4.0941305  0.089119598   -5.2950555    1.2009249   520603 
 3605000    1.0145413   -5.2963592   -5.2963592   -4.0947427  0.064241552   -5.2963592    1.2016165   520603 
 3606000    1.0156453   -5.2990203   -5.2990203   -4.0960963  0.083317415   -5.2990203     1.202924   520603 
 3607000    1.0159379   -5.2989174   -5.2989174   -4.0956469  0.067899291   -5.2989174    1.2032706   520603 
 3608000    1.0143155    -5.296906    -5.296906    -4.095557  0.071375463    -5.296906     1.201349   520603 
 3609000    1.0166768   -5.2995682   -5.2995682   -4.0954224  0.088049224   -5.2995682    1.2041458   520603 
 3610000    1.0146751   -5.2970398   -5.2970398   -4.0952648  0.078580539   -5.2970398     1.201775   520603 
 3611000    1.0165811   -5.2999584   -5.2999584    -4.095926  0.062210869   -5.2999584    1.2040324   520603 
 3612000    1.0162593   -5.2991291   -5.2991291   -4.0954778  0.082426942   -5.2991291    1.2036513   520603 
 3613000    1.0137779   -5.2970026   -5.2970026   -4.0962903  0.079797515   -5.2970026    1.2007124   520603 
 3614000    1.0153738   -5.2992772   -5.2992772   -4.0966747  0.055977482   -5.2992772    1.2026024   520603 
 3615000     1.016176   -5.2997189   -5.2997189   -4.0961662  0.095574033   -5.2997189    1.2035527   520603 
 3616000    1.0155092   -5.2988119   -5.2988119    -4.096049  0.080940181   -5.2988119    1.2027629   520603 
 3617000    1.0145665    -5.298489    -5.298489   -4.0968427  0.075951532    -5.298489    1.2016464   520603 
 3618000    1.0161486    -5.299304    -5.299304   -4.0957838  0.072093063    -5.299304    1.2035201   520603 
 3619000    1.0148033   -5.2990717   -5.2990717   -4.0971448  0.076683419   -5.2990717    1.2019268   520603 
 3620000    1.0145099   -5.2993638   -5.2993638   -4.0977845  0.070223991   -5.2993638    1.2015793   520603 
 3621000    1.0140432   -5.2989651   -5.2989651   -4.0979386  0.083733926   -5.2989651    1.2010265   520603 
 3622000    1.0115395   -5.2964744   -5.2964744   -4.0984132  0.085430614   -5.2964744    1.1980612   520603 
 3623000    1.0134825   -5.2971102   -5.2971102   -4.0967477  0.063241321   -5.2971102    1.2003625   520603 
 3624000    1.0139858    -5.296743    -5.296743   -4.0957845  0.069988587    -5.296743    1.2009585   520603 
 3625000    1.0144497   -5.2973965   -5.2973965   -4.0958885  0.059095504   -5.2973965    1.2015079   520603 
 3626000    1.0147713   -5.2983271   -5.2983271   -4.0964381  0.056359478   -5.2983271    1.2018889   520603 
 3627000    1.0149789   -5.2982309   -5.2982309   -4.0960961  0.065220585   -5.2982309    1.2021348   520603 
 3628000    1.0133695   -5.2979145   -5.2979145   -4.0976859  0.056288442   -5.2979145    1.2002286   520603 
 3629000    1.0141105   -5.2986035   -5.2986035   -4.0974973  0.066980401   -5.2986035    1.2011062   520603 
 3630000    1.0136985   -5.2987956   -5.2987956   -4.0981773  0.079517895   -5.2987956    1.2006183   520603 
 3631000    1.0153298   -5.3006685   -5.3006685   -4.0981181    0.0574373   -5.3006685    1.2025504   520603 
 3632000    1.0152559   -5.3004087   -5.3004087   -4.0979458  0.063513414   -5.3004087    1.2024628   520603 
 3633000    1.0167786   -5.3028839   -5.3028839   -4.0986176  0.069818336   -5.3028839    1.2042663   520603 
 3634000     1.013523   -5.2994836   -5.2994836   -4.0990732  0.062663531   -5.2994836    1.2004104   520603 
 3635000    1.0138856    -5.299129    -5.299129   -4.0982891   0.07703412    -5.299129    1.2008398   520603 
 3636000    1.0151009   -5.3009525   -5.3009525   -4.0986733  0.086397305   -5.3009525    1.2022792   520603 
 3637000    1.0131248    -5.298686    -5.298686   -4.0987472  0.066279932    -5.298686    1.1999388   520603 
 3638000    1.0136096   -5.2983348   -5.2983348   -4.0978218  0.075911067   -5.2983348     1.200513   520603 
 3639000    1.0144682   -5.2991833   -5.2991833   -4.0976534  0.055184945   -5.2991833    1.2015299   520603 
 3640000    1.0144737   -5.2989976   -5.2989976   -4.0974612  0.085287366   -5.2989976    1.2015365   520603 
 3641000    1.0141483   -5.2988698   -5.2988698   -4.0977188  0.067781526   -5.2988698     1.201151   520603 
 3642000    1.0146599   -5.2992463   -5.2992463   -4.0974894  0.069094349   -5.2992463     1.201757   520603 
 3643000    1.0142199   -5.2990439   -5.2990439    -4.097808   0.07636991   -5.2990439    1.2012359   520603 
 3644000    1.0144294   -5.2983635   -5.2983635   -4.0968796  0.063243093   -5.2983635    1.2014839   520603 
 3645000    1.0136325   -5.2979261   -5.2979261    -4.097386  0.073663204   -5.2979261    1.2005401   520603 
 3646000    1.0141217    -5.298578    -5.298578   -4.0974585  0.078937936    -5.298578    1.2011195   520603 
 3647000    1.0131384   -5.2980865   -5.2980865   -4.0981317  0.077885254   -5.2980865    1.1999549   520603 
 3648000    1.0126787   -5.2968542   -5.2968542   -4.0974438  0.056959488   -5.2968542    1.1994105   520603 
 3649000    1.0120971   -5.2967932   -5.2967932   -4.0980716  0.065940154   -5.2967932    1.1987216   520603 
 3650000    1.0130121   -5.2978619   -5.2978619   -4.0980565  0.066449594   -5.2978619    1.1998054   520603 
 3651000    1.0143541   -5.2988062   -5.2988062   -4.0974113  0.067871238   -5.2988062    1.2013948   520603 
 3652000     1.012806   -5.2966623   -5.2966623   -4.0971011  0.078701995   -5.2966623    1.1995612   520603 
 3653000    1.0145419   -5.2993597   -5.2993597   -4.0977425  0.078531087   -5.2993597    1.2016172   520603 
 3654000     1.014291   -5.2986132   -5.2986132   -4.0972932  0.070178583   -5.2986132      1.20132   520603 
 3655000    1.0150185   -5.3003322   -5.3003322   -4.0981505  0.072782617   -5.3003322    1.2021817   520603 
 3656000    1.0135173   -5.2989555   -5.2989555   -4.0985519  0.061631005   -5.2989555    1.2004036   520603 
 3657000    1.0135224   -5.2985331   -5.2985331   -4.0981234  0.082788121   -5.2985331    1.2004097   520603 
 3658000      1.01144   -5.2959786   -5.2959786   -4.0980352  0.066765552   -5.2959786    1.1979433   520603 
 3659000    1.0124464   -5.2985045   -5.2985045   -4.0993692   0.07097049   -5.2985045    1.1991353   520603 
 3660000    1.0134614   -5.2992121   -5.2992121   -4.0988747  0.062855958   -5.2992121    1.2003374   520603 
 3661000    1.0135687   -5.2996286   -5.2996286    -4.099164   0.05778113   -5.2996286    1.2004646   520603 
 3662000    1.0135573   -5.2996404   -5.2996404   -4.0991894  0.081847589   -5.2996404     1.200451   520603 
 3663000    1.0130052   -5.2984257   -5.2984257   -4.0986286  0.062325858   -5.2984257    1.1997971   520603 
 3664000    1.0150113   -5.3007444   -5.3007444   -4.0985713  0.046846575   -5.3007444    1.2021731   520603 
 3665000    1.0137024   -5.2992878   -5.2992878   -4.0986649  0.079050336   -5.2992878    1.2006229   520603 
 3666000    1.0130143   -5.2986803   -5.2986803   -4.0988724  0.069571866   -5.2986803    1.1998079   520603 
 3667000    1.0168644   -5.3030946   -5.3030946   -4.0987266  0.084392848   -5.3030946     1.204368   520603 
 3668000    1.0150467   -5.3003348   -5.3003348   -4.0981198  0.075870933   -5.3003348     1.202215   520603 
 3669000    1.0144799   -5.3004585   -5.3004585   -4.0989148  0.061375668   -5.3004585    1.2015437   520603 
 3670000    1.0139849   -5.3000915   -5.3000915    -4.099134  0.059832424   -5.3000915    1.2009575   520603 
 3671000    1.0123403   -5.2985098   -5.2985098   -4.0995002  0.077673898   -5.2985098    1.1990096   520603 
 3672000    1.0117198   -5.2982307   -5.2982307   -4.0999559   0.07071851   -5.2982307    1.1982747   520603 
 3673000     1.012739   -5.2992666   -5.2992666   -4.0997847  0.075162822   -5.2992666    1.1994819   520603 
 3674000    1.0124148   -5.2995163   -5.2995163   -4.1004184  0.066863254   -5.2995163    1.1990979   520603 
 3675000    1.0119944   -5.2993794   -5.2993794   -4.1007795  0.099894784   -5.2993794    1.1985999   520603 
 3676000    1.0116479   -5.2995878   -5.2995878   -4.1013983  0.067218705   -5.2995878    1.1981896   520603 
 3677000    1.0129218   -5.3002476   -5.3002476   -4.1005493  0.081405977   -5.3002476    1.1996983   520603 
 3678000    1.0125251   -5.3000143   -5.3000143   -4.1007858  0.061149777   -5.3000143    1.1992285   520603 
 3679000    1.0130756   -5.3002731   -5.3002731   -4.1003926  0.071727281   -5.3002731    1.1998805   520603 
 3680000    1.0129536   -5.3002395   -5.3002395   -4.1005035  0.080257946   -5.3002395     1.199736   520603 
 3681000     1.013449   -5.3007255   -5.3007255   -4.1004027  0.060332302   -5.3007255    1.2003228   520603 
 3682000    1.0133216   -5.3002623   -5.3002623   -4.1000904  0.079047756   -5.3002623    1.2001719   520603 
 3683000    1.0150864   -5.3027232   -5.3027232   -4.1004612  0.067303007   -5.3027232    1.2022621   520603 
 3684000    1.0139424   -5.3007478   -5.3007478   -4.0998407  0.075055945   -5.3007478    1.2009071   520603 
 3685000    1.0148104    -5.301686    -5.301686   -4.0997507  0.053651024    -5.301686    1.2019353   520603 
 3686000     1.016299    -5.304283    -5.304283   -4.1005847  0.080671615    -5.304283    1.2036983   520603 
 3687000    1.0141265   -5.3022086   -5.3022086   -4.1010834  0.078901387   -5.3022086    1.2011252   520603 
 3688000    1.0134984   -5.3011717   -5.3011717   -4.1007903  0.066739296   -5.3011717    1.2003813   520603 
 3689000    1.0129837   -5.3010507   -5.3010507    -4.101279   0.05717541   -5.3010507    1.1997717   520603 
 3690000    1.0149171   -5.3036485   -5.3036485   -4.1015868  0.067941104   -5.3036485    1.2020616   520603 
 3691000    1.0122815    -5.300341    -5.300341    -4.101401  0.080287961    -5.300341      1.19894   520603 
 3692000    1.0129517   -5.3012767   -5.3012767   -4.1015429  0.066854113   -5.3012767    1.1997338   520603 
 3693000    1.0128349   -5.3007256   -5.3007256   -4.1011302  0.057664865   -5.3007256    1.1995955   520603 
 3694000    1.0128038   -5.3004477   -5.3004477   -4.1008891  0.057992816   -5.3004477    1.1995586   520603 
 3695000     1.014298   -5.3024885   -5.3024885   -4.1011602  0.067833064   -5.3024885    1.2013284   520603 
 3696000    1.0130307   -5.3011504   -5.3011504    -4.101323  0.097680492   -5.3011504    1.1998273   520603 
 3697000    1.0130251   -5.3010266   -5.3010266   -4.1012059  0.092362993   -5.3010266    1.1998207   520603 
 3698000    1.0141095   -5.3019683   -5.3019683   -4.1008632  0.089964511   -5.3019683    1.2011051   520603 
 3699000    1.0117828   -5.2996952   -5.2996952   -4.1013458  0.055326329   -5.2996952    1.1983494   520603 
 3700000    1.0134961   -5.3017657   -5.3017657   -4.1013871  0.072619178   -5.3017657    1.2003786   520603 
 3701000    1.0136961   -5.3027834   -5.3027834    -4.102168  0.046620391   -5.3027834    1.2006155   520603 
 3702000    1.0129849   -5.3015288   -5.3015288   -4.1017558  0.072577908   -5.3015288     1.199773   520603 
 3703000    1.0114114   -5.2996079   -5.2996079   -4.1016984  0.061095947   -5.2996079    1.1979095   520603 
 3704000    1.0115398   -5.2991396   -5.2991396   -4.1010781  0.075145986   -5.2991396    1.1980616   520603 
 3705000    1.0110396   -5.2997615   -5.2997615   -4.1022923  0.060910094   -5.2997615    1.1974691   520603 
 3706000    1.0120497   -5.3008825   -5.3008825    -4.102217    0.0763339   -5.3008825    1.1986655   520603 
 3707000    1.0121169   -5.3002372   -5.3002372   -4.1014921  0.067827606   -5.3002372    1.1987451   520603 
 3708000    1.0117324   -5.2991277   -5.2991277    -4.100838  0.081337424   -5.2991277    1.1982897   520603 
 3709000    1.0121203   -5.3002822   -5.3002822   -4.1015332  0.061338952   -5.3002822     1.198749   520603 
 3710000    1.0127909   -5.3012964   -5.3012964    -4.101753  0.080116108   -5.3012964    1.1995434   520603 
 3711000    1.0112863   -5.2993994   -5.2993994   -4.1016381   0.05401714   -5.2993994    1.1977613   520603 
 3712000     1.009584    -5.298306    -5.298306    -4.102561  0.074166418    -5.298306     1.195745   520603 
 3713000     1.013098   -5.3016623   -5.3016623   -4.1017552  0.070227847   -5.3016623    1.1999071   520603 
 3714000    1.0123108   -5.3002781   -5.3002781   -4.1013034  0.082421764   -5.3002781    1.1989747   520603 
 3715000    1.0123509    -5.299108    -5.299108   -4.1000858  0.056423941    -5.299108    1.1990222   520603 
 3716000    1.0119587   -5.2998327   -5.2998327    -4.101275  0.065303146   -5.2998327    1.1985577   520603 
 3717000    1.0131002   -5.3007328   -5.3007328   -4.1008232  0.078398604   -5.3007328    1.1999096   520603 
 3718000    1.0133172   -5.3020543   -5.3020543   -4.1018876  0.058739261   -5.3020543    1.2001667   520603 
 3719000     1.014014    -5.302542    -5.302542     -4.10155  0.050248186    -5.302542     1.200992   520603 
 3720000     1.015142   -5.3034884   -5.3034884   -4.1011605  0.047717854   -5.3034884    1.2023279   520603 
 3721000    1.0138207   -5.3014669   -5.3014669   -4.1007038  0.067110919   -5.3014669     1.200763   520603 
 3722000    1.0147099    -5.302219    -5.302219   -4.1004028  0.072677027    -5.302219    1.2018162   520603 
 3723000    1.0136856   -5.3013724   -5.3013724   -4.1007695    0.0878976   -5.3013724     1.200603   520603 
 3724000     1.014007   -5.3012864   -5.3012864   -4.1003028  0.068512131   -5.3012864    1.2009837   520603 
 3725000    1.0134872   -5.3014145   -5.3014145   -4.1010465   0.07467791   -5.3014145     1.200368   520603 
 3726000    1.0144966    -5.301046    -5.301046   -4.0994825   0.06205081    -5.301046    1.2015635   520603 
 3727000    1.0134883   -5.3008671   -5.3008671   -4.1004978  0.069086412   -5.3008671    1.2003693   520603 
 3728000    1.0139311   -5.3013631   -5.3013631   -4.1004693  0.078745639   -5.3013631    1.2008938   520603 
 3729000    1.0131294   -5.3002633   -5.3002633    -4.100319   0.05951261   -5.3002633    1.1999443   520603 
 3730000    1.0122553   -5.2997085   -5.2997085   -4.1007995  0.075294663   -5.2997085     1.198909   520603 
 3731000    1.0119326   -5.2991157   -5.2991157   -4.1005889  0.068001849   -5.2991157    1.1985268   520603 
 3732000     1.013112    -5.301117    -5.301117   -4.1011933  0.078534594    -5.301117    1.1999236   520603 
 3733000    1.0117538   -5.2990813   -5.2990813   -4.1007664    0.0626851   -5.2990813     1.198315   520603 
 3734000    1.0127888   -5.3004364   -5.3004364   -4.1008956  0.052636881   -5.3004364    1.1995409   520603 
 3735000    1.0113749   -5.2988372   -5.2988372   -4.1009709  0.079442591   -5.2988372    1.1978663   520603 
 3736000    1.0116573   -5.2982573   -5.2982573   -4.1000566  0.050679417   -5.2982573    1.1982007   520603 
 3737000     1.012376   -5.2991652   -5.2991652   -4.1001132  0.046015315   -5.2991652     1.199052   520603 
 3738000    1.0131002    -5.299248    -5.299248   -4.0993382  0.069387983    -5.299248    1.1999097   520603 
 3739000    1.0120358   -5.2997012   -5.2997012   -4.1010522  0.073675077   -5.2997012     1.198649   520603 
 3740000    1.0143867   -5.3021095   -5.3021095   -4.1006761  0.066650226   -5.3021095    1.2014334   520603 
 3741000    1.0120916   -5.3007002   -5.3007002   -4.1019851  0.060101074   -5.3007002    1.1987151   520603 
 3742000    1.0123842   -5.3009446   -5.3009446    -4.101883  0.083825931   -5.3009446    1.1990616   520603 
 3743000     1.011739   -5.3005412   -5.3005412   -4.1022438  0.085088777   -5.3005412    1.1982975   520603 
 3744000    1.0138004   -5.3022688   -5.3022688   -4.1015298   0.07457257   -5.3022688     1.200739   520603 
 3745000    1.0150372   -5.3034711   -5.3034711   -4.1012672  0.074590312   -5.3034711    1.2022038   520603 
 3746000    1.0128846   -5.3013456   -5.3013456   -4.1016914  0.063996148   -5.3013456    1.1996543   520603 
 3747000    1.0137412   -5.3020854   -5.3020854   -4.1014166  0.066845057   -5.3020854    1.2006688   520603 
 3748000    1.0123804   -5.3013029   -5.3013029   -4.1022457  0.071580721   -5.3013029    1.1990572   520603 
 3749000    1.0151477   -5.3039282   -5.3039282   -4.1015934  0.091076781   -5.3039282    1.2023347   520603 
 3750000    1.0131478   -5.3015023   -5.3015023   -4.1015363  0.078636972   -5.3015023     1.199966   520603 
 3751000    1.0133854    -5.302715    -5.302715   -4.1024675    0.0741793    -5.302715    1.2002474   520603 
 3752000    1.0132287    -5.303146    -5.303146   -4.1030842    0.0520072    -5.303146    1.2000618   520603 
 3753000    1.0136602   -5.3026697   -5.3026697   -4.1020967  0.085397613   -5.3026697     1.200573   520603 
 3754000    1.0129104   -5.3021532   -5.3021532   -4.1024684  0.063425075   -5.3021532    1.1996848   520603 
 3755000    1.0108942   -5.2994818   -5.2994818   -4.1021849  0.070233198   -5.2994818    1.1972969   520603 
 3756000    1.0134535   -5.3029017   -5.3029017   -4.1025736   0.05979827   -5.3029017    1.2003281   520603 
 3757000    1.0127277   -5.3024913   -5.3024913   -4.1030229  0.081256341   -5.3024913    1.1994684   520603 
 3758000    1.0119605   -5.3024151   -5.3024151   -4.1038553  0.066666059   -5.3024151    1.1985598   520603 
 3759000    1.0121018     -5.30316     -5.30316   -4.1044328  0.057554051     -5.30316    1.1987271   520603 
 3760000    1.0109093   -5.3014189   -5.3014189   -4.1041042  0.072063805   -5.3014189    1.1973147   520603 
 3761000    1.0120695   -5.3025037   -5.3025037   -4.1038148   0.06381144   -5.3025037    1.1986889   520603 
 3762000     1.011818   -5.3022087   -5.3022087   -4.1038177  0.060926199   -5.3022087    1.1983911   520603 
 3763000    1.0125338   -5.3030164   -5.3030164   -4.1037776  0.044765389   -5.3030164    1.1992388   520603 
 3764000     1.011071   -5.3013739   -5.3013739   -4.1038676  0.076718169   -5.3013739    1.1975063   520603 
 3765000    1.0125912   -5.3029627   -5.3029627   -4.1036559  0.057059356   -5.3029627    1.1993068   520603 
 3766000     1.011576   -5.3017402   -5.3017402   -4.1036358  0.075301667   -5.3017402    1.1981044   520603 
 3767000     1.010776   -5.3016793   -5.3016793   -4.1045224  0.080414939   -5.3016793    1.1971569   520603 
 3768000    1.0138575   -5.3045382   -5.3045382   -4.1037317  0.071528222   -5.3045382    1.2008066   520603 
 3769000    1.0135958    -5.303845    -5.303845   -4.1033484  0.054825084    -5.303845    1.2004966   520603 
 3770000    1.0108297   -5.3014184   -5.3014184   -4.1041979  0.049802337   -5.3014184    1.1972205   520603 
 3771000    1.0126834   -5.3038221   -5.3038221   -4.1044061  0.078453479   -5.3038221     1.199416   520603 
 3772000    1.0133242   -5.3042728   -5.3042728   -4.1040978  0.080049833   -5.3042728     1.200175   520603 
 3773000    1.0126512   -5.3038043   -5.3038043   -4.1044264  0.071904968   -5.3038043    1.1993779   520603 
 3774000    1.0125403   -5.3043511   -5.3043511   -4.1051046  0.061646053   -5.3043511    1.1992465   520603 
 3775000    1.0115576    -5.302425    -5.302425   -4.1043424  0.070503647    -5.302425    1.1980826   520603 
 3776000    1.0122435   -5.3035844   -5.3035844   -4.1046893   0.06939988   -5.3035844     1.198895   520603 
 3777000    1.0135482   -5.3049289   -5.3049289   -4.1044887  0.057579525   -5.3049289    1.2004403   520603 
 3778000    1.0141932   -5.3050857   -5.3050857   -4.1038815  0.059847106   -5.3050857    1.2012043   520603 
 3779000    1.0135417   -5.3030683   -5.3030683   -4.1026358  0.078916344   -5.3030683    1.2004326   520603 
 3780000    1.0130174   -5.3029583   -5.3029583   -4.1031467  0.078187075   -5.3029583    1.1998116   520603 
 3781000    1.0127528   -5.3020906   -5.3020906   -4.1025923  0.089391167   -5.3020906    1.1994983   520603 
 3782000    1.0140566   -5.3044927   -5.3044927   -4.1034504   0.05430967   -5.3044927    1.2010424   520603 
 3783000    1.0131284    -5.303362    -5.303362    -4.103419  0.070907956    -5.303362    1.1999431   520603 
 3784000    1.0117504   -5.3020827   -5.3020827   -4.1037718  0.076317619   -5.3020827    1.1983109   520603 
 3785000    1.0099498   -5.2995726   -5.2995726   -4.1033942  0.075959762   -5.2995726    1.1961784   520603 
 3786000    1.0106534   -5.3004803   -5.3004803   -4.1034686  0.068930667   -5.3004803    1.1970117   520603 
 3787000    1.0124528   -5.3035329   -5.3035329     -4.10439  0.061374965   -5.3035329    1.1991429   520603 
 3788000    1.0098782   -5.3004536   -5.3004536   -4.1043601  0.065310727   -5.3004536    1.1960936   520603 
 3789000     1.011598   -5.3031274   -5.3031274   -4.1049969  0.044608734   -5.3031274    1.1981305   520603 
 3790000    1.0098513   -5.3008159   -5.3008159   -4.1047541  0.058894647   -5.3008159    1.1960617   520603 
 3791000    1.0111638   -5.3020221   -5.3020221    -4.104406  0.070949055   -5.3020221    1.1976162   520603 
 3792000    1.0113246   -5.3024095   -5.3024095   -4.1046028  0.069853159   -5.3024095    1.1978067   520603 
 3793000    1.0123576   -5.3034814   -5.3034814   -4.1044513  0.078010413   -5.3034814    1.1990301   520603 
 3794000    1.0109052   -5.3024492   -5.3024492   -4.1051393  0.087932801   -5.3024492    1.1973099   520603 
 3795000    1.0129259   -5.3041582   -5.3041582    -4.104455  0.069748041   -5.3041582    1.1997033   520603 
 3796000    1.0133973   -5.3043004   -5.3043004   -4.1040388  0.063412828   -5.3043004    1.2002615   520603 
 3797000     1.012708   -5.3036398   -5.3036398   -4.1041946  0.068947367   -5.3036398    1.1994451   520603 
 3798000     1.012108   -5.3031943   -5.3031943   -4.1044597  0.082507263   -5.3031943    1.1987345   520603 
 3799000    1.0123051   -5.3033759   -5.3033759    -4.104408  0.083705778   -5.3033759    1.1989679   520603 
 3800000    1.0137086   -5.3051731   -5.3051731   -4.1045429  0.064845599   -5.3051731    1.2006302   520603 
 3801000    1.0128102   -5.3040595   -5.3040595   -4.1044933  0.066610441   -5.3040595    1.1995662   520603 
 3802000    1.0123642   -5.3032377   -5.3032377   -4.1041997  0.051014619   -5.3032377     1.199038   520603 
 3803000    1.0127283   -5.3054213   -5.3054213   -4.1059522  0.062157357   -5.3054213    1.1994692   520603 
 3804000    1.0116059   -5.3046826   -5.3046826   -4.1065428  0.056656567   -5.3046826    1.1981399   520603 
 3805000    1.0120354   -5.3053333   -5.3053333   -4.1066847  0.080610602   -5.3053333    1.1986485   520603 
 3806000    1.0116899   -5.3046431   -5.3046431   -4.1064038  0.083119181   -5.3046431    1.1982393   520603 
 3807000    1.0120889   -5.3048423   -5.3048423   -4.1061304  0.064169589   -5.3048423    1.1987119   520603 
 3808000    1.0119391   -5.3056738   -5.3056738   -4.1071394  0.065783225   -5.3056738    1.1985344   520603 
 3809000    1.0134266   -5.3077741   -5.3077741   -4.1074778  0.059722142   -5.3077741    1.2002963   520603 
 3810000    1.0111037    -5.303842    -5.303842   -4.1062969  0.072437952    -5.303842    1.1975451   520603 
 3811000    1.0119226   -5.3055185   -5.3055185   -4.1070036  0.067056604   -5.3055185    1.1985149   520603 
 3812000    1.0107129   -5.3032049   -5.3032049   -4.1061228  0.085049874   -5.3032049    1.1970821   520603 
 3813000    1.0115863   -5.3047473   -5.3047473   -4.1066306  0.065278261   -5.3047473    1.1981166   520603 
 3814000    1.0138759   -5.3074566   -5.3074566   -4.1066281  0.043845494   -5.3074566    1.2008284   520603 
 3815000       1.0128   -5.3072163   -5.3072163   -4.1076622  0.071470548   -5.3072163    1.1995541   520603 
 3816000    1.0107473   -5.3045949   -5.3045949    -4.107472  0.062577576   -5.3045949    1.1971229   520603 
 3817000    1.0128378   -5.3065264   -5.3065264   -4.1069276  0.062957055   -5.3065264    1.1995989   520603 
 3818000    1.0134288   -5.3075363   -5.3075363   -4.1072375  0.041481095   -5.3075363    1.2002989   520603 
 3819000    1.0125685   -5.3059549   -5.3059549    -4.106675    0.0755959   -5.3059549    1.1992799   520603 
 3820000    1.0122229   -5.3060248   -5.3060248   -4.1071542   0.06400738   -5.3060248    1.1988706   520603 
 3821000    1.0126426   -5.3067702   -5.3067702   -4.1074025  0.075990342   -5.3067702    1.1993677   520603 
 3822000    1.0130069   -5.3075961   -5.3075961   -4.1077969  0.077108376   -5.3075961    1.1997992   520603 
 3823000    1.0114313   -5.3051379   -5.3051379   -4.1072049  0.065902389   -5.3051379     1.197933   520603 
 3824000     1.012534   -5.3077477   -5.3077477   -4.1085087  0.060547736   -5.3077477     1.199239   520603 
 3825000    1.0109868   -5.3051715   -5.3051715   -4.1077649  0.079908622   -5.3051715    1.1974066   520603 
 3826000    1.0114484   -5.3047988   -5.3047988   -4.1068455  0.069425905   -5.3047988    1.1979532   520603 
 3827000    1.0128944   -5.3063011   -5.3063011   -4.1066352  0.072253273   -5.3063011     1.199666   520603 
 3828000    1.0127071   -5.3061059   -5.3061059   -4.1066619  0.070652139   -5.3061059    1.1994441   520603 
 3829000    1.0117971   -5.3048662   -5.3048662      -4.1065  0.072757729   -5.3048662    1.1983662   520603 
 3830000    1.0156024   -5.3106226   -5.3106226   -4.1077494   0.06101597   -5.3106226    1.2028732   520603 
 3831000    1.0138885   -5.3077048   -5.3077048   -4.1068614  0.071057565   -5.3077048    1.2008434   520603 
 3832000    1.0129607   -5.3057822   -5.3057822   -4.1060378   0.06507438   -5.3057822    1.1997444   520603 
 3833000     1.013229   -5.3069279   -5.3069279   -4.1068657  0.062012303   -5.3069279    1.2000622   520603 
 3834000    1.0112056   -5.3038858   -5.3038858   -4.1062201  0.067962793   -5.3038858    1.1976657   520603 
 3835000    1.0110151   -5.3028156   -5.3028156   -4.1053756  0.068769779   -5.3028156    1.1974401   520603 
 3836000    1.0109861   -5.3033431   -5.3033431   -4.1059374  0.065417964   -5.3033431    1.1974057   520603 
 3837000      1.01115   -5.3031925   -5.3031925   -4.1055927  0.057968293   -5.3031925    1.1975999   520603 
 3838000    1.0104244    -5.301952    -5.301952   -4.1052116  0.067208982    -5.301952    1.1967405   520603 
 3839000    1.0135275   -5.3056241   -5.3056241   -4.1052084  0.042194818   -5.3056241    1.2004157   520603 
 3840000    1.0113022   -5.3021177   -5.3021177   -4.1043376   0.05387743   -5.3021177    1.1977801   520603 
 3841000    1.0136585   -5.3045923   -5.3045923   -4.1040213  0.075296537   -5.3045923    1.2005709   520603 
 3842000    1.0130963   -5.3042842   -5.3042842   -4.1043792  0.082423506   -5.3042842     1.199905   520603 
 3843000    1.0139961   -5.3053662   -5.3053662   -4.1043954  0.083225737   -5.3053662    1.2009708   520603 
 3844000    1.0121789    -5.303617    -5.303617   -4.1047986  0.058419812    -5.303617    1.1988185   520603 
 3845000    1.0116764    -5.303373    -5.303373   -4.1051496  0.040550819    -5.303373    1.1982234   520603 
 3846000    1.0139321   -5.3056155   -5.3056155   -4.1047206  0.067872492   -5.3056155    1.2008949   520603 
 3847000    1.0118969    -5.304058    -5.304058   -4.1055735  0.070158197    -5.304058    1.1984845   520603 
 3848000    1.0141305   -5.3058417   -5.3058417   -4.1047118  0.066805785   -5.3058417    1.2011299   520603 
 3849000    1.0119556   -5.3037965   -5.3037965   -4.1052425  0.084978885   -5.3037965     1.198554   520603 
 3850000    1.0119808    -5.304246    -5.304246   -4.1056621  0.078494631    -5.304246    1.1985838   520603 
 3851000    1.0128986   -5.3052347   -5.3052347   -4.1055639   0.05025053   -5.3052347    1.1996709   520603 
 3852000    1.0138032    -5.306251    -5.306251   -4.1055088  0.072226353    -5.306251    1.2007423   520603 
 3853000    1.0120416    -5.304357    -5.304357   -4.1057012  0.077122885    -5.304357    1.1986558   520603 
 3854000    1.0144317   -5.3075963   -5.3075963   -4.1061096  0.065616652   -5.3075963    1.2014867   520603 
 3855000    1.0107878   -5.3036698   -5.3036698    -4.106499  0.082967109   -5.3036698    1.1971708   520603 
 3856000    1.0130584   -5.3055322   -5.3055322   -4.1056721  0.090653569   -5.3055322    1.1998602   520603 
 3857000    1.0115233   -5.3040887   -5.3040887   -4.1060468  0.072121638   -5.3040887    1.1980419   520603 
 3858000    1.0119484    -5.303418    -5.303418   -4.1048726  0.048438882    -5.303418    1.1985454   520603 
 3859000      1.01094   -5.3027611   -5.3027611   -4.1054099  0.062934414   -5.3027611    1.1973512   520603 
 3860000    1.0105451    -5.302786    -5.302786   -4.1059025  0.049499819    -5.302786    1.1968834   520603 
 3861000    1.0122554    -5.304638    -5.304638   -4.1057289   0.06973413    -5.304638     1.198909   520603 
 3862000    1.0112136   -5.3039128   -5.3039128   -4.1062376  0.052410438   -5.3039128    1.1976752   520603 
 3863000    1.0120675   -5.3049596   -5.3049596   -4.1062731  0.060674567   -5.3049596    1.1986865   520603 
 3864000     1.010377   -5.3035613   -5.3035613   -4.1068769  0.085721628   -5.3035613    1.1966843   520603 
 3865000    1.0092584   -5.3026005   -5.3026005    -4.107241  0.066489958   -5.3026005    1.1953595   520603 
 3866000    1.0126311   -5.3057935   -5.3057935   -4.1064394  0.056472996   -5.3057935    1.1993541   520603 
 3867000    1.0115433   -5.3047223   -5.3047223   -4.1066566  0.061189028   -5.3047223    1.1980657   520603 
 3868000    1.0134622   -5.3073855   -5.3073855   -4.1070471  0.064691158   -5.3073855    1.2003384   520603 
 3869000    1.0125692   -5.3059142   -5.3059142   -4.1066335  0.085338588   -5.3059142    1.1992807   520603 
 3870000    1.0131504   -5.3054756   -5.3054756   -4.1055065  0.074284792   -5.3054756    1.1999692   520603 
 3871000    1.0135723   -5.3057194   -5.3057194   -4.1052506   0.04476206   -5.3057194    1.2004688   520603 
 3872000    1.0126333   -5.3057476   -5.3057476   -4.1063909    0.0690932   -5.3057476    1.1993567   520603 
 3873000    1.0127896   -5.3056106   -5.3056106   -4.1060688   0.08118866   -5.3056106    1.1995418   520603 
 3874000    1.0123322   -5.3052284   -5.3052284   -4.1062284  0.073630194   -5.3052284    1.1990001   520603 
 3875000     1.013591   -5.3081407   -5.3081407   -4.1076497  0.074820424   -5.3081407    1.2004909   520603 
 3876000    1.0127635   -5.3071052   -5.3071052   -4.1075943  0.065725789   -5.3071052    1.1995108   520603 
 3877000    1.0128275   -5.3071629   -5.3071629   -4.1075763  0.076177317   -5.3071629    1.1995866   520603 
 3878000    1.0139819   -5.3081955   -5.3081955   -4.1072416  0.089855796   -5.3081955    1.2009539   520603 
 3879000    1.0130784   -5.3069198   -5.3069198    -4.107036  0.073950406   -5.3069198    1.1998838   520603 
 3880000    1.0121665   -5.3060945   -5.3060945   -4.1072907   0.09373983   -5.3060945    1.1988038   520603 
 3881000    1.0135562   -5.3081943   -5.3081943   -4.1077446   0.07874622   -5.3081943    1.2004497   520603 
 3882000    1.0130035   -5.3071329   -5.3071329   -4.1073378  0.073905297   -5.3071329    1.1997951   520603 
 3883000    1.0118217   -5.3067014   -5.3067014    -4.108306  0.081090127   -5.3067014    1.1983954   520603 
 3884000    1.0109679   -5.3060882   -5.3060882   -4.1087041  0.049959854   -5.3060882    1.1973841   520603 
 3885000     1.009338   -5.3039732   -5.3039732   -4.1085194  0.083368362   -5.3039732    1.1954537   520603 
 3886000    1.0100899   -5.3050343   -5.3050343     -4.10869  0.065605312   -5.3050343    1.1963443   520603 
 3887000    1.0101383    -5.304961    -5.304961   -4.1085594   0.07189716    -5.304961    1.1964016   520603 
 3888000    1.0108481   -5.3053883   -5.3053883    -4.108146  0.076403078   -5.3053883    1.1972423   520603 
 3889000    1.0098978   -5.3048586   -5.3048586   -4.1087418  0.076921283   -5.3048586    1.1961167   520603 
 3890000    1.0112467    -5.306353    -5.306353   -4.1086386  0.070002711    -5.306353    1.1977144   520603 
 3891000    1.0112223   -5.3062695   -5.3062695    -4.108584  0.073162697   -5.3062695    1.1976855   520603 
 3892000    1.0122144   -5.3080094   -5.3080094   -4.1091488  0.077520355   -5.3080094    1.1988606   520603 
 3893000    1.0108202   -5.3064979   -5.3064979   -4.1092886  0.066450213   -5.3064979    1.1972093   520603 
 3894000    1.0132484   -5.3077537   -5.3077537   -4.1076685  0.089433945   -5.3077537    1.2000852   520603 
 3895000    1.0123922   -5.3069098   -5.3069098   -4.1078386  0.087040793   -5.3069098    1.1990712   520603 
 3896000    1.0099558   -5.3044724   -5.3044724   -4.1082869  0.054945683   -5.3044724    1.1961855   520603 
 3897000    1.0111213   -5.3060763   -5.3060763   -4.1085104  0.073790757   -5.3060763    1.1975659   520603 
 3898000    1.0118398   -5.3060678   -5.3060678    -4.107651  0.057922148   -5.3060678    1.1984168   520603 
 3899000    1.0124897   -5.3071459   -5.3071459   -4.1079593  0.070652043   -5.3071459    1.1991866   520603 
 3900000    1.0123057   -5.3067493   -5.3067493   -4.1077806  0.067385763   -5.3067493    1.1989687   520603 
 3901000    1.0109632   -5.3055645   -5.3055645   -4.1081859  0.080197655   -5.3055645    1.1973787   520603 
 3902000    1.0120281   -5.3060468   -5.3060468    -4.107407  0.097873142   -5.3060468    1.1986399   520603 
 3903000    1.0118773   -5.3072442   -5.3072442    -4.108783  0.068564587   -5.3072442    1.1984613   520603 
 3904000    1.0117916   -5.3076782   -5.3076782   -4.1093184  0.053250114   -5.3076782    1.1983598   520603 
 3905000    1.0111334   -5.3061965   -5.3061965   -4.1086164  0.072231289   -5.3061965    1.1975801   520603 
 3906000     1.009702   -5.3054549   -5.3054549   -4.1095701   0.04770975   -5.3054549    1.1958849   520603 
 3907000    1.0109963   -5.3058307   -5.3058307   -4.1084129  0.068204111   -5.3058307    1.1974178   520603 
 3908000    1.0098887   -5.3046647   -5.3046647   -4.1085587  0.080094493   -5.3046647     1.196106   520603 
 3909000    1.0120528   -5.3079535   -5.3079535   -4.1092843  0.064537256   -5.3079535    1.1986692   520603 
 3910000    1.0117887   -5.3081875   -5.3081875   -4.1098311  0.062143654   -5.3081875    1.1983563   520603 
 3911000    1.0121438   -5.3084493   -5.3084493   -4.1096724  0.063216025   -5.3084493    1.1987769   520603 
 3912000     1.011066   -5.3065924   -5.3065924    -4.109092  0.066072584   -5.3065924    1.1975004   520603 
 3913000    1.0127029   -5.3073657   -5.3073657   -4.1079266  0.058499949   -5.3073657    1.1994391   520603 
 3914000    1.0123069   -5.3072194   -5.3072194   -4.1082494   0.06249707   -5.3072194    1.1989701   520603 
 3915000    1.0118402   -5.3068456   -5.3068456   -4.1084284  0.066574109   -5.3068456    1.1984173   520603 
 3916000    1.0113258   -5.3071769   -5.3071769   -4.1093689  0.074044762   -5.3071769     1.197808   520603 
 3917000    1.0118962   -5.3077304   -5.3077304   -4.1092468  0.051902517   -5.3077304    1.1984836   520603 
 3918000    1.0111469   -5.3065444   -5.3065444   -4.1089482  0.091785965   -5.3065444    1.1975962   520603 
 3919000     1.011866   -5.3079478   -5.3079478   -4.1094998  0.077675557   -5.3079478    1.1984479   520603 
 3920000    1.0101511   -5.3065644   -5.3065644   -4.1101477    0.0640604   -5.3065644    1.1964167   520603 
 3921000    1.0120073   -5.3073774   -5.3073774   -4.1087621  0.051623954   -5.3073774    1.1986153   520603 
 3922000    1.0120511   -5.3084379   -5.3084379   -4.1097707  0.060248569   -5.3084379    1.1986672   520603 
 3923000    1.0116083   -5.3075099   -5.3075099   -4.1093672  0.059024696   -5.3075099    1.1981427   520603 
 3924000    1.0113546   -5.3079104   -5.3079104   -4.1100682  0.068109664   -5.3079104    1.1978422   520603 
 3925000    1.0120259   -5.3078138   -5.3078138   -4.1091764  0.074706838   -5.3078138    1.1986373   520603 
 3926000    1.0115415   -5.3087764   -5.3087764   -4.1107128  0.069587307   -5.3087764    1.1980636   520603 
 3927000    1.0105173   -5.3085601   -5.3085601   -4.1117096  0.064693556   -5.3085601    1.1968505   520603 
 3928000    1.0103281   -5.3078398   -5.3078398   -4.1112134  0.070686656   -5.3078398    1.1966265   520603 
 3929000    1.0104858   -5.3082326   -5.3082326   -4.1114194   0.06609465   -5.3082326    1.1968131   520603 
 3930000     1.012045   -5.3090885   -5.3090885   -4.1104286  0.057220456   -5.3090885    1.1986599   520603 
 3931000    1.0119044   -5.3089328   -5.3089328   -4.1104395  0.074965202   -5.3089328    1.1984933   520603 
 3932000    1.0134505   -5.3104301   -5.3104301   -4.1101055  0.073508756   -5.3104301    1.2003246   520603 
 3933000    1.0127223   -5.3096644   -5.3096644   -4.1102023  0.064521568   -5.3096644    1.1994621   520603 
 3934000    1.0108946   -5.3086347   -5.3086347   -4.1113373  0.043490488   -5.3086347    1.1972974   520603 
 3935000    1.0124381    -5.309136    -5.309136   -4.1100105  0.066076805    -5.309136    1.1991255   520603 
 3936000    1.0123476    -5.311133    -5.311133   -4.1121147  0.070347601    -5.311133    1.1990183   520603 
 3937000    1.0119642    -5.309526    -5.309526   -4.1109618  0.071047314    -5.309526    1.1985641   520603 
 3938000    1.0106498   -5.3081441   -5.3081441   -4.1111366  0.080006265   -5.3081441    1.1970075   520603 
 3939000    1.0118541    -5.309362    -5.309362   -4.1109281  0.072245789    -5.309362    1.1984338   520603 
 3940000    1.0123227   -5.3099993   -5.3099993   -4.1110105  0.089448724   -5.3099993    1.1989888   520603 
 3941000    1.0124456   -5.3104073   -5.3104073   -4.1112729  0.053837981   -5.3104073    1.1991344   520603 
 3942000    1.0133083    -5.310509    -5.310509   -4.1103528  0.064512103    -5.310509    1.2001562   520603 
 3943000    1.0121806   -5.3085045   -5.3085045   -4.1096841   0.09177001   -5.3085045    1.1988205   520603 
 3944000    1.0113693   -5.3070015   -5.3070015   -4.1091419  0.061276407   -5.3070015    1.1978596   520603 
 3945000    1.0108676   -5.3072736   -5.3072736   -4.1100083  0.065032374   -5.3072736    1.1972654   520603 
 3946000    1.0085842   -5.3047781   -5.3047781   -4.1102172  0.074382508   -5.3047781     1.194561   520603 
 3947000    1.0122589    -5.308853    -5.308853   -4.1099398  0.088046244    -5.308853    1.1989132   520603 
 3948000    1.0113288   -5.3079447   -5.3079447   -4.1101331  0.087741658   -5.3079447    1.1978116   520603 
 3949000     1.009664   -5.3065231   -5.3065231   -4.1106833  0.059130964   -5.3065231    1.1958398   520603 
 3950000    1.0114611   -5.3080836   -5.3080836   -4.1101153  0.083193973   -5.3080836    1.1979684   520603 
 3951000    1.0109044   -5.3065061   -5.3065061   -4.1091972  0.060697826   -5.3065061    1.1973089   520603 
 3952000     1.011643   -5.3075147   -5.3075147    -4.109331  0.059965157   -5.3075147    1.1981838   520603 
 3953000    1.0090798   -5.3054562   -5.3054562   -4.1103083  0.072587037   -5.3054562     1.195148   520603 
 3954000     1.010525   -5.3067755   -5.3067755   -4.1099159  0.065551188   -5.3067755    1.1968596   520603 
 3955000    1.0119148   -5.3090877   -5.3090877    -4.110582  0.070209507   -5.3090877    1.1985057   520603 
 3956000    1.0120549    -5.309634    -5.309634   -4.1109624  0.072084142    -5.309634    1.1986716   520603 
 3957000    1.0111161      -5.3077      -5.3077   -4.1101403   0.07140784      -5.3077    1.1975597   520603 
 3958000    1.0106844   -5.3064023   -5.3064023   -4.1093539  0.064285604   -5.3064023    1.1970484   520603 
 3959000    1.0122896   -5.3084688   -5.3084688   -4.1095192   0.09297648   -5.3084688    1.1989496   520603 
 3960000    1.0120962   -5.3076403   -5.3076403   -4.1089199  0.069318273   -5.3076403    1.1987205   520603 
 3961000    1.0117933   -5.3090618   -5.3090618      -4.1107  0.067503085   -5.3090618    1.1983618   520603 
 3962000    1.0120413   -5.3088465   -5.3088465    -4.110191  0.052969494   -5.3088465    1.1986555   520603 
 3963000    1.0104184    -5.306195    -5.306195   -4.1094617  0.091205868    -5.306195    1.1967333   520603 
 3964000    1.0091162   -5.3037395   -5.3037395   -4.1085484  0.074408077   -5.3037395    1.1951911   520603 
 3965000    1.0111201    -5.306883    -5.306883   -4.1093186  0.073354645    -5.306883    1.1975644   520603 
 3966000    1.0106485   -5.3055384   -5.3055384   -4.1085326   0.06691349   -5.3055384    1.1970059   520603 
 3967000     1.012108   -5.3066894   -5.3066894   -4.1079549  0.063908527   -5.3066894    1.1987345   520603 
 3968000    1.0113239   -5.3059311   -5.3059311   -4.1081253   0.07196645   -5.3059311    1.1978058   520603 
 3969000    1.0118012   -5.3067976   -5.3067976   -4.1084265  0.064691853   -5.3067976    1.1983711   520603 
 3970000    1.0112786   -5.3074047   -5.3074047   -4.1096525  0.071170392   -5.3074047    1.1977522   520603 
 3971000    1.0123891   -5.3095688   -5.3095688   -4.1105014  0.073011895   -5.3095688    1.1990674   520603 
 3972000    1.0127432    -5.310802    -5.310802   -4.1113151  0.051169107    -5.310802    1.1994868   520603 
 3973000    1.0119405     -5.30922     -5.30922    -4.110684  0.070528916     -5.30922    1.1985361   520603 
 3974000    1.0106569    -5.308097    -5.308097   -4.1110812  0.072833089    -5.308097    1.1970158   520603 
 3975000     1.009496   -5.3071832   -5.3071832   -4.1115423  0.076552312   -5.3071832    1.1956408   520603 
 3976000    1.0115084   -5.3092194   -5.3092194   -4.1111951  0.067191606   -5.3092194    1.1980243   520603 
 3977000    1.0120642   -5.3088607   -5.3088607   -4.1101781  0.096875118   -5.3088607    1.1986826   520603 
 3978000    1.0106664   -5.3080481   -5.3080481    -4.111021  0.081035276   -5.3080481    1.1970271   520603 
 3979000    1.0112895   -5.3087544   -5.3087544   -4.1109893  0.062551407   -5.3087544    1.1977651   520603 
 3980000    1.0120337   -5.3093465   -5.3093465   -4.1107001  0.065957199   -5.3093465    1.1986465   520603 
 3981000    1.0109918   -5.3089896   -5.3089896   -4.1115772  0.051023805   -5.3089896    1.1974124   520603 
 3982000    1.0098243    -5.307499    -5.307499   -4.1114693  0.076405216    -5.307499    1.1960297   520603 
 3983000    1.0097781     -5.30673     -5.30673    -4.110755  0.066699315     -5.30673     1.195975   520603 
 3984000    1.0118982   -5.3096579   -5.3096579   -4.1111718  0.072413938   -5.3096579     1.198486   520603 
 3985000    1.0106564   -5.3082793   -5.3082793   -4.1112641  0.060469385   -5.3082793    1.1970152   520603 
 3986000    1.0108542   -5.3086103   -5.3086103   -4.1113608  0.060836875   -5.3086103    1.1972495   520603 
 3987000       1.0109   -5.3087212   -5.3087212   -4.1114174  0.070394137   -5.3087212    1.1973038   520603 
 3988000    1.0101884   -5.3076521   -5.3076521   -4.1111912  0.085804152   -5.3076521     1.196461   520603 
 3989000    1.0105945   -5.3085535   -5.3085535   -4.1116116  0.069427318   -5.3085535    1.1969419   520603 
 3990000    1.0098354   -5.3087748   -5.3087748   -4.1127319  0.069694231   -5.3087748    1.1960429   520603 
 3991000    1.0112311   -5.3101264   -5.3101264   -4.1124304  0.069717246   -5.3101264     1.197696   520603 
 3992000    1.0101719   -5.3089126   -5.3089126   -4.1124712  0.080475276   -5.3089126    1.1964414   520603 
 3993000    1.0100554   -5.3088262   -5.3088262   -4.1125228  0.062158389   -5.3088262    1.1963034   520603 
 3994000    1.0103026   -5.3095621   -5.3095621   -4.1129658   0.07130561   -5.3095621    1.1965962   520603 
 3995000    1.0100483   -5.3098725   -5.3098725   -4.1135775  0.075196453   -5.3098725     1.196295   520603 
 3996000    1.0095762   -5.3085402   -5.3085402   -4.1128043  0.065450888   -5.3085402    1.1957359   520603 
 3997000     1.011268   -5.3101118   -5.3101118   -4.1123722  0.050787813   -5.3101118    1.1977396   520603 
 3998000    1.0102645   -5.3084509   -5.3084509   -4.1118998  0.075661285   -5.3084509    1.1965511   520603 
 3999000    1.0108828    -5.309822    -5.309822   -4.1125386  0.087072622    -5.309822    1.1972834   520603 
 4000000    1.0101709   -5.3086629   -5.3086629   -4.1122226  0.066708162   -5.3086629    1.1964402   520603 
Loop time of 12336.8 on 288 procs for 4000000 steps with 520603 atoms

Performance: 140068.570 tau/day, 324.233 timesteps/s
98.5% CPU use with 288 MPI tasks x 1 OpenMP threads

MPI task timing breakdown:
Section |  min time  |  avg time  |  max time  |%varavg|  %CPU | %total
-----------------------------------------------------------------------
Pair    | 845.89     | 2205.5     | 3421.7     |1137.3 |  98.7 | 17.88
Bond    | 2.6852     | 2.8019     | 2.9508     |   3.2 | 100.0 |  0.02
Neigh   | 1321       | 3298.5     | 5327.6     |1427.6 |  99.6 | 26.74
Comm    | 2203.8     | 4300.6     | 7351       |1803.8 |  98.3 | 34.86
Output  | 155.43     | 162.58     | 170.07     |  43.3 |  96.9 |  1.32
Modify  | 768.51     | 2258       | 5413.9     |1698.6 |  98.4 | 18.30
Other   |            | 108.7      |            |       |       |  0.88

Nlocal:        1807.65 ave        2607 max        1032 min
Histogram: 1 2 8 52 92 82 40 5 2 4
Nghost:        6621.21 ave        8754 max        2678 min
Histogram: 7 5 12 12 36 29 48 54 59 26
Neighs:        56421.4 ave       83641 max        8130 min
Histogram: 9 7 4 6 17 54 68 71 45 7

Total # of neighbors = 16249357
Ave neighs/atom = 31.212569
Ave special neighs/atom = 0.0000000
Neighbor list builds = 400000
Dangerous builds = 396000

Total wall time: 3:25:41
