LAMMPS (24 Dec 2020)
OMP_NUM_THREADS environment is not set. Defaulting to 1 thread. (src/comm.cpp:94)
  using 1 OpenMP thread(s) per MPI task
#Read the equilibrated lj fluid and add nanocubes

units           lj
atom_style      full
atom_modify     map array first cubes
dimension       3
boundary        p p f
pair_style      lj/cut/opt 2.0

variable        sigma           equal 1.0
variable        epsilon         equal 1.0
read_restart	restart.dat.5000000
Reading restart file ...
  restart file = 24 Dec 2020, LAMMPS = 24 Dec 2020
WARNING: Restart file used different # of processors: 192 vs. 288 (src/read_restart.cpp:697)
  restoring atom style full from restart
  orthogonal box = (0.0000000 0.0000000 0.0000000) to (80.000000 80.000000 160.00000)
  6 by 4 by 12 MPI processor grid
  restoring pair style lj/smooth/linear from restart
  439061 atoms
Finding 1-2 1-3 1-4 neighbors ...
  special bond factors lj:    0        0        0       
  special bond factors coul:  0        0        0       
     0 = max # of 1-2 neighbors
     0 = max # of 1-3 neighbors
     0 = max # of 1-4 neighbors
     1 = max # of special neighbors
  special bonds CPU = 2.371 seconds
  read_restart CPU = 2.775 seconds

group		solvent type 1
439061 atoms in group solvent

read_data	data_96.cubes group cubes add append
Reading data file ...
  orthogonal box = (0.0000000 0.0000000 0.0000000) to (80.000000 80.000000 160.00000)
  6 by 4 by 12 MPI processor grid
WARNING: Pair style in data file differs from currently defined pair style (src/read_data.cpp:588)
  reading atoms ...
  127776 atoms
  reading velocities ...
  127776 velocities
Finding 1-2 1-3 1-4 neighbors ...
  special bond factors lj:    0        0        0       
  special bond factors coul:  0        0        0       
     0 = max # of 1-2 neighbors
     0 = max # of 1-3 neighbors
     0 = max # of 1-4 neighbors
     1 = max # of special neighbors
  special bonds CPU = 0.031 seconds
  read_data CPU = 0.328 seconds

group 		hull  type 2
57792 atoms in group hull
group 		dummy type 3
69984 atoms in group dummy

neighbor      0.4 bin
neigh_modify  exclude molecule/intra cubes


pair_modify   shift yes

pair_coeff    1 1 1.0 1.0 #solvent
pair_coeff    2 2 1.0 1.0 1.12 #np
pair_coeff    3 3 0.0 0.0 0.0 #dummy
pair_coeff    2 3 0.0 0.0 0.0 #np dummy
pair_coeff    1 2 ${eps} ${sig} ${nscut} #np solvent
pair_coeff    1 2 1.0 ${sig} ${nscut} 
pair_coeff    1 2 1.0 2.0 ${nscut} 
pair_coeff    1 2 1.0 2.0 4.0 
pair_coeff    1 3 0.0 0.0 2.5 #dummy solvent

# delete solvent where the cubes are
delete_atoms  overlap 2.0 solvent cubes
System init for delete_atoms ...
Neighbor list info ...
  update every 1 steps, delay 10 steps, check yes
  max neighbors/atom: 2000, page size: 100000
  master list distance cutoff = 4.4
  ghost atom cutoff = 4.4
  binsize = 2.2, bins = 37 37 73
  2 neighbor lists, perpetual/occasional/extra = 1 1 0
  (1) command delete_atoms, occasional
      attributes: full, newton on
      pair build: full/bin
      stencil: full/bin/3d
      bin: standard
  (2) pair lj/smooth/linear, perpetual
      attributes: half, newton on
      pair build: half/bin/newton
      stencil: half/bin/3d/newton
      bin: standard
WARNING: Delete_atoms cutoff > minimum neighbor cutoff (src/delete_atoms.cpp:307)
WARNING: Ignoring 'compress yes' for molecular system (src/delete_atoms.cpp:125)
Deleted 148648 atoms, new total = 418189



pair_coeff    1 1 1.0 1.0 #solvent
pair_coeff    2 2 1.0 1.0 1.12 #np
pair_coeff    3 3 0.0 0.0 0.0 #dummy
pair_coeff    2 3 0.0 0.0 0.0 #np dummy
pair_coeff    1 2 ${eps} ${sig} ${nscut} #np solvent
pair_coeff    1 2 1.0 ${sig} ${nscut} 
pair_coeff    1 2 1.0 2.0 ${nscut} 
pair_coeff    1 2 1.0 2.0 4.0 
pair_coeff    1 3 0.0 0.0 0.0 #dummy solvent


comm_modify   mode multi cutoff/multi 1 2.0 cutoff/multi 2 2.0 cutoff/multi 3 8.67

reset_timestep 	0

balance 	1.05 shift z 10 1.05
Balancing ...
Neighbor list info ...
  update every 1 steps, delay 10 steps, check yes
  max neighbors/atom: 2000, page size: 100000
  master list distance cutoff = 4.4
  ghost atom cutoff = 8.67
  binsize = 2.2, bins = 37 37 73
  1 neighbor lists, perpetual/occasional/extra = 1 0 0
  (1) pair lj/smooth/linear, perpetual
      attributes: half, newton on
      pair build: half/bin/newton
      stencil: half/bin/3d/newton
      bin: standard
 rebalancing time: 0.004 seconds
  iteration count = 4
  initial/final maximal load/proc = 2244.0000 2124.0000
  initial/final imbalance factor  = 1.5454065 1.4627644
  x cuts: 0.0000000 0.16666667 0.33333333 0.50000000 0.66666667 0.83333333 1.0000000
  y cuts: 0.0000000 0.25000000 0.50000000 0.75000000 1.0000000
  z cuts: 0.0000000 0.057291667 0.11979167 0.17187500 0.23958333 0.30208333 0.34375000 0.41145833 0.46354167 0.51562500 0.59895833 0.64583333 1.0000000

####################### WALLS ###########################

variable       epsilonWall equal 2*${epsilon}
variable       epsilonWall equal 2*1
variable       repulsive   equal   0.7147*${sigma}
variable       repulsive   equal   0.7147*1
variable       full	   equal   3*${sigma}
variable       full	   equal   3*1
region         lowWall block EDGE EDGE EDGE EDGE EDGE 2

fix            topWall all wall/lj93 zhi EDGE 	       ${epsilonWall} ${sigma} ${repulsive} units box
fix            topWall all wall/lj93 zhi EDGE 	       2 ${sigma} ${repulsive} units box
fix            topWall all wall/lj93 zhi EDGE 	       2 1 ${repulsive} units box
fix            topWall all wall/lj93 zhi EDGE 	       2 1 0.7147 units box
fix            lowSol solvent wall/lj93 zlo EDGE                ${epsilonWall} ${sigma} ${full} units box
fix            lowSol solvent wall/lj93 zlo EDGE                2 ${sigma} ${full} units box
fix            lowSol solvent wall/lj93 zlo EDGE                2 1 ${full} units box
fix            lowSol solvent wall/lj93 zlo EDGE                2 1 3 units box
fix 	       lowCub cubes wall/lj93 zlo EDGE                ${epsilonWall} ${sigma} ${repulsive} units box
fix 	       lowCub cubes wall/lj93 zlo EDGE                2 ${sigma} ${repulsive} units box
fix 	       lowCub cubes wall/lj93 zlo EDGE                2 1 ${repulsive} units box
fix 	       lowCub cubes wall/lj93 zlo EDGE                2 1 0.7147 units box


###################### COMPUTES ##########################

compute        bin1 solvent chunk/atom bin/1d z lower 1.0 units box


######################  FIXES ############################


fix             peclet solvent ave/chunk 10 10 10000 bin1 density/number norm                  none ave one file density.profile

fix              temp solvent ave/chunk 10 10 10000 bin1 temp norm                  none ave one file temp.profile

fix             1 cubes rigid/nve/small molecule
  create bodies CPU = 0.030 seconds
  96 rigid bodies with 127776 atoms
  8.6602540 = max distance from body owner to body atom

fix             2 solvent nve# temp ${temp} ${temp} 10


## Thermostat
region          regthermo block EDGE EDGE EDGE EDGE 0 15
group           thermo dynamic solvent region regthermo every 1000
dynamic group thermo defined
fix             3 thermo langevin ${temp} ${temp} 10 156453
fix             3 thermo langevin 0.6 ${temp} 10 156453
fix             3 thermo langevin 0.6 0.6 10 156453


#### Load balancing

fix             bal all balance 1000 1.05 shift z 10 1.05

############### Diagnostics and computes ###################

compute        	com cubes          rigid/local   1 mol x y z
compute        	quat cubes         rigid/local   1 mol quatw quati quatj quatk

compute 	cc2 cubes 	   chunk/atom 	 molecule
compute 	msd cubes 	   msd/chunk 	 cc2

fix 		msd all ave/time  1 1 10000 c_msd[*] file dump.msd ave one mode vector

dump            1 all custom 500000 dump.lammpstrj id mol type x y z
dump		cubetrj hull custom 500000 cubes.lammpstrj id mol type x y z
dump            com cubes local 10000 dump.*.xyz c_com[*]
dump	        xyz hull xyz 100000 cubes.xyz
dump            quat cubes      local 10000 dump.*.quat c_quat[*]
#dump		mol cubes molfile 10000 mol.xyz xyz


dump            2 all image 10000 image.*.png type type zoom 1.5 size 1280 720
dump_modify     2 pad 8
dump		image cubes image 10000 image_cubes.*.png type type zoom 1.5 size 1280 720
dump_modify	image pad 8
dump            3 all movie 5000 movie.avi type type zoom 1.5 size 1280 720
dump		4 cubes movie 5000 movie_cubes.avi type type size 1280 720


thermo          1000
thermo_style    custom step temp epair evdwl etotal press pe ke atoms

restart         1000000 restart.dat
timestep        0.005
timer           full
New timer settings: style=full  mode=nosync  timeout=off

run 		5000000
Per MPI rank memory allocation (min/avg/max) = 14.12 | 20.75 | 23.70 Mbytes
Step Temp E_pair E_vdwl TotEng Press PotEng KinEng Atoms 
       0   0.60857357   -1.9567258   -1.9567258   -1.3223694  -0.82359787   -1.9567258   0.63435641   418189 
    1000   0.88551448   -2.2654049   -2.2654049   -1.3423747   0.20226927   -2.2654049   0.92303019   418189 
    2000   0.90310232   -2.3048513   -2.3048513   -1.3634881   0.22660215   -2.3048513   0.94136316   418189 
    3000    0.8964155   -2.3190172   -2.3190172   -1.3846241   0.20870419   -2.3190172   0.93439305   418189 
    4000    0.8874864   -2.3295214   -2.3295214   -1.4044357   0.20330478   -2.3295214   0.92508566   418189 
    5000   0.87552381   -2.3342914   -2.3342914   -1.4216751   0.18693252   -2.3342914   0.91261627   418189 
    6000   0.86325947   -2.3376808   -2.3376808   -1.4378485   0.17258616   -2.3376808   0.89983233   418189 
    7000   0.85403651    -2.341799    -2.341799   -1.4515803    0.1560301    -2.341799   0.89021863   418189 
    8000   0.84459512   -2.3438813   -2.3438813   -1.4635041   0.15752433   -2.3438813   0.88037724   418189 
    9000    0.8366242   -2.3457962   -2.3457962   -1.4737276   0.13176571   -2.3457962   0.87206863   418189 
   10000   0.83013195   -2.3467862   -2.3467862   -1.4814848   0.11726861   -2.3467862   0.86530133   418189 
   11000     0.823598   -2.3450624   -2.3450624   -1.4865718   0.10491372   -2.3450624   0.85849056   418189 
   12000    0.8204271   -2.3477023   -2.3477023   -1.4925169   0.10980631   -2.3477023   0.85518533   418189 
   13000   0.81833423   -2.3500296   -2.3500296   -1.4970258  0.097195175   -2.3500296   0.85300379   418189 
   14000   0.81551783   -2.3499614   -2.3499614   -1.4998933    0.1138317   -2.3499614   0.85006806   418189 
   15000   0.81625297   -2.3545568   -2.3545568   -1.5037224   0.10756039   -2.3545568   0.85083435   418189 
   16000   0.81352244   -2.3555263   -2.3555263   -1.5075382   0.10751371   -2.3555263   0.84798814   418189 
   17000   0.81725848   -2.3623643   -2.3623643   -1.5104819   0.11598261   -2.3623643   0.85188246   418189 
   18000   0.81597902   -2.3638643   -2.3638643   -1.5133155   0.10280704   -2.3638643   0.85054879   418189 
   19000   0.81565619   -2.3663557   -2.3663557   -1.5161434   0.10464368   -2.3663557   0.85021229   418189 
   20000   0.81604834   -2.3696542   -2.3696542   -1.5190332   0.11594687   -2.3696542   0.85062105   418189 
   21000   0.81819601   -2.3748695   -2.3748695   -1.5220098   0.11931923   -2.3748695   0.85285971   418189 
   22000   0.81520455   -2.3743914   -2.3743914   -1.5246499   0.13046577   -2.3743914   0.84974151   418189 
   23000   0.81561121   -2.3773407   -2.3773407   -1.5271753   0.11119016   -2.3773407    0.8501654   418189 
   24000    0.8174212   -2.3814894   -2.3814894   -1.5294373   0.11705245   -2.3814894   0.85205208   418189 
   25000   0.81457892   -2.3815011   -2.3815011   -1.5324117   0.12929269   -2.3815011   0.84908937   418189 
   26000    0.8150759   -2.3830505   -2.3830505   -1.5334431   0.13189553   -2.3830505   0.84960741   418189 
   27000   0.81374881   -2.3841858   -2.3841858   -1.5359617   0.12662688   -2.3841858   0.84822411   418189 
   28000   0.81147828   -2.3833969   -2.3833969   -1.5375395    0.1250584   -2.3833969   0.84585738   418189 
   29000    0.8125371   -2.3859684   -2.3859684   -1.5390073   0.13191282   -2.3859684   0.84696105   418189 
   30000   0.81063925   -2.3861247   -2.3861247   -1.5411419   0.12705223   -2.3861247    0.8449828   418189 
   31000   0.81115803   -2.3878807   -2.3878807   -1.5423571   0.11217798   -2.3878807   0.84552356   418189 
   32000   0.80869105   -2.3869086   -2.3869086   -1.5439565   0.13024778   -2.3869086   0.84295206   418189 
   33000    0.8069664   -2.3869326   -2.3869326   -1.5457782   0.12881668   -2.3869326   0.84115435   418189 
   34000   0.80623773   -2.3875239   -2.3875239   -1.5471291    0.1153005   -2.3875239    0.8403948   418189 
   35000   0.80497248    -2.387454    -2.387454    -1.548378   0.12028116    -2.387454   0.83907595   418189 
   36000   0.80343171   -2.3869296   -2.3869296   -1.5494597   0.11165358   -2.3869296   0.83746991   418189 
   37000   0.80363934   -2.3890097   -2.3890097   -1.5513234    0.1185388   -2.3890097   0.83768633   418189 
   38000   0.80150973   -2.3884457   -2.3884457   -1.5529792   0.11681647   -2.3884457    0.8354665   418189 
   39000   0.79837765   -2.3869667   -2.3869667   -1.5547649   0.10701195   -2.3869667   0.83220172   418189 
   40000   0.79909552   -2.3897261   -2.3897261   -1.5567761   0.11365958   -2.3897261   0.83295001   418189 
   41000   0.79998781   -2.3922564   -2.3922564   -1.5583763   0.11812576   -2.3922564   0.83388011   418189 
   42000   0.79784771   -2.3930481   -2.3930481   -1.5613988   0.12071257   -2.3930481   0.83164934   418189 
   43000   0.79627019   -2.3946511   -2.3946511   -1.5646461   0.12544597   -2.3946511   0.83000498   418189 
   44000   0.79509537   -2.3951289   -2.3951289   -1.5663485   0.12278964   -2.3951289   0.82878039   418189 
   45000   0.79618633   -2.3987396   -2.3987396    -1.568822   0.12882136   -2.3987396   0.82991757   418189 
   46000   0.79457364   -2.3995685   -2.3995685    -1.571332   0.12437961   -2.3995685   0.82823655   418189 
   47000   0.79568433   -2.4035671   -2.4035671   -1.5741728   0.13560993   -2.4035671    0.8293943   418189 
   48000   0.79624408   -2.4076321   -2.4076321   -1.5776543   0.11615933   -2.4076321   0.82997776   418189 
   49000   0.79441679   -2.4078847   -2.4078847   -1.5798116   0.12811034   -2.4078847   0.82807306   418189 
   50000   0.79465464   -2.4110721   -2.4110721   -1.5827511    0.1349502   -2.4110721   0.82832098   418189 
   51000    0.7943176   -2.4135722   -2.4135722   -1.5856025   0.14932889   -2.4135722   0.82796967   418189 
   52000   0.79496801   -2.4173053   -2.4173053   -1.5886577   0.13129162   -2.4173053   0.82864763   418189 
   53000   0.79586409   -2.4203013   -2.4203013   -1.5907196   0.13033122   -2.4203013   0.82958168   418189 
   54000    0.7930658   -2.4203325   -2.4203325   -1.5936677   0.12729913   -2.4203325   0.82666484   418189 
   55000   0.79155794   -2.4214721   -2.4214721   -1.5963791   0.12949853   -2.4214721   0.82509309   418189 
   56000   0.79096323   -2.4228771   -2.4228771   -1.5984039   0.13510468   -2.4228771   0.82447319   418189 
   57000   0.79070566   -2.4244362   -2.4244362   -1.6002315   0.12911167   -2.4244362   0.82420471   418189 
   58000   0.78941967   -2.4252147   -2.4252147   -1.6023505   0.14081022   -2.4252147   0.82286423   418189 
   59000   0.78965215   -2.4284379   -2.4284379   -1.6053313   0.14216158   -2.4284379   0.82310656   418189 
   60000   0.78737815   -2.4284076   -2.4284076   -1.6076714   0.13288316   -2.4284076   0.82073622   418189 
   61000   0.78713936     -2.42976     -2.42976   -1.6092727   0.12552336     -2.42976   0.82048732   418189 
   62000   0.78433212    -2.429428    -2.429428   -1.6118669   0.12603554    -2.429428   0.81756115   418189 
   63000   0.78307841   -2.4293899   -2.4293899   -1.6131356   0.12896462   -2.4293899   0.81625432   418189 
   64000   0.78102962   -2.4300373   -2.4300373   -1.6159185   0.12254477   -2.4300373   0.81411873   418189 
   65000   0.78007748   -2.4302529   -2.4302529   -1.6171267   0.11738277   -2.4302529   0.81312625   418189 
   66000   0.77953415   -2.4317916   -2.4317916   -1.6192317   0.12101564   -2.4317916    0.8125599   418189 
   67000   0.77778537   -2.4317588   -2.4317588   -1.6210217   0.11608139   -2.4317588   0.81073703   418189 
   68000   0.77829698   -2.4335633   -2.4335633    -1.622293   0.11539223   -2.4335633   0.81127031   418189 
   69000    0.7747803   -2.4313299   -2.4313299   -1.6237252   0.12032458   -2.4313299   0.80760465   418189 
   70000   0.77716862   -2.4349588   -2.4349588   -1.6248647   0.10716833   -2.4349588   0.81009415   418189 
   71000   0.77355022   -2.4328744   -2.4328744    -1.626552   0.11138099   -2.4328744   0.80632245   418189 
   72000    0.7747592   -2.4355675   -2.4355675   -1.6279849   0.10762222   -2.4355675   0.80758266   418189 
   73000   0.77309289   -2.4350109   -2.4350109   -1.6291651  0.098316826   -2.4350109   0.80584575   418189 
   74000   0.77215101   -2.4357081   -2.4357081   -1.6308441   0.10763721   -2.4357081   0.80486396   418189 
   75000   0.77329136    -2.438028    -2.438028   -1.6319754   0.10457463    -2.438028   0.80605263   418189 
   76000   0.77302439    -2.439443    -2.439443   -1.6336686   0.12009372    -2.439443   0.80577435   418189 
   77000   0.77338294   -2.4414427   -2.4414427   -1.6352946   0.10677788   -2.4414427   0.80614809   418189 
   78000   0.77216228   -2.4396287   -2.4396287    -1.634753   0.10944749   -2.4396287   0.80487572   418189 
   79000   0.77029649    -2.438143    -2.438143   -1.6352121   0.10144996    -2.438143   0.80293088   418189 
   80000    0.7726365   -2.4407089   -2.4407089   -1.6353389   0.10876191   -2.4407089   0.80537002   418189 
   81000   0.76970453   -2.4388243   -2.4388243   -1.6365105   0.11258405   -2.4388243   0.80231385   418189 
   82000   0.76911353   -2.4395363   -2.4395363   -1.6378385   0.11988635   -2.4395363   0.80169781   418189 
   83000   0.77053331   -2.4426508   -2.4426508   -1.6394731   0.10897929   -2.4426508   0.80317773   418189 
   84000   0.77103142   -2.4440757   -2.4440757   -1.6403787  0.096057196   -2.4440757   0.80369694   418189 
   85000   0.76954813   -2.4438328   -2.4438328    -1.641682   0.10674026   -2.4438328   0.80215081   418189 
   86000    0.7677755   -2.4433511   -2.4433511    -1.643048   0.10210113   -2.4433511   0.80030309   418189 
   87000   0.76954002   -2.4458747   -2.4458747   -1.6437324  0.097296768   -2.4458747   0.80214236   418189 
   88000   0.76797242   -2.4453647   -2.4453647   -1.6448564   0.10435969   -2.4453647   0.80050835   418189 
   89000   0.77062804   -2.4492529   -2.4492529   -1.6459765   0.10158259   -2.4492529   0.80327648   418189 
   90000   0.76867966   -2.4483856   -2.4483856   -1.6471401   0.10660292   -2.4483856   0.80124555   418189 
   91000   0.76872445   -2.4506834   -2.4506834   -1.6493911   0.10806669   -2.4506834   0.80129224   418189 
   92000   0.76703534   -2.4503637   -2.4503637   -1.6508321    0.1092465   -2.4503637   0.79953157   418189 
   93000   0.76838261   -2.4527436   -2.4527436   -1.6518077   0.10659627   -2.4527436   0.80093591   418189 
   94000   0.76771164   -2.4530214   -2.4530214   -1.6527849   0.10606436   -2.4530214   0.80023652   418189 
   95000   0.76688917   -2.4540585   -2.4540585   -1.6546793   0.11021106   -2.4540585    0.7993792   418189 
   96000   0.76741366   -2.4555852   -2.4555852   -1.6556593   0.11525724   -2.4555852   0.79992592   418189 
   97000   0.76746226   -2.4572259   -2.4572259   -1.6572493   0.10163617   -2.4572259   0.79997658   418189 
   98000   0.76567888   -2.4570472   -2.4570472   -1.6589295   0.11568407   -2.4570472   0.79811764   418189 
   99000    0.7667149   -2.4600155   -2.4600155   -1.6608179   0.11992644   -2.4600155   0.79919755   418189 
  100000   0.76635889    -2.461475    -2.461475   -1.6626486   0.11812785    -2.461475   0.79882646   418189 
  101000    0.7671919   -2.4634952   -2.4634952   -1.6638004    0.1042739   -2.4634952   0.79969476   418189 
  102000   0.76451093   -2.4618591   -2.4618591   -1.6649589   0.11204121   -2.4618591   0.79690021   418189 
  103000   0.76457643    -2.464613    -2.464613   -1.6676445   0.12211535    -2.464613   0.79696848   418189 
  104000    0.7657179   -2.4667109   -2.4667109   -1.6685526   0.11350137   -2.4667109   0.79815831   418189 
  105000   0.76450636   -2.4659584   -2.4659584   -1.6690629   0.11128133   -2.4659584   0.79689544   418189 
  106000   0.76504143   -2.4681653   -2.4681653   -1.6707121   0.11157029   -2.4681653   0.79745319   418189 
  107000   0.76361456   -2.4690477   -2.4690477   -1.6730818   0.10763011   -2.4690477   0.79596586   418189 
  108000    0.7639898     -2.47126     -2.47126    -1.674903   0.10577998     -2.47126     0.796357   418189 
  109000   0.76395209   -2.4730506   -2.4730506   -1.6767329   0.11234628   -2.4730506   0.79631769   418189 
  110000   0.76347285    -2.473407    -2.473407   -1.6775889   0.11054756    -2.473407   0.79581815   418189 
  111000   0.76178277   -2.4738492   -2.4738492   -1.6797927    0.1226817   -2.4738492   0.79405647   418189 
  112000   0.76087492   -2.4736121   -2.4736121   -1.6805019   0.11282283   -2.4736121   0.79311016   418189 
  113000   0.76130445   -2.4747238   -2.4747238   -1.6811659   0.10981193   -2.4747238   0.79355789   418189 
  114000   0.76204559   -2.4763225   -2.4763225   -1.6819921   0.11757036   -2.4763225   0.79433043   418189 
  115000   0.76001378   -2.4755584   -2.4755584   -1.6833458   0.10855511   -2.4755584   0.79221254   418189 
  116000   0.76121368   -2.4778789   -2.4778789   -1.6844156  0.097464512   -2.4778789   0.79346326   418189 
  117000   0.75946527    -2.476789    -2.476789   -1.6851483   0.11726997    -2.476789   0.79164079   418189 
  118000   0.76017388   -2.4793906   -2.4793906   -1.6870112   0.12008332   -2.4793906   0.79237941   418189 
  119000   0.75943385   -2.4794555   -2.4794555   -1.6878475   0.10583306   -2.4794555   0.79160803   418189 
  120000   0.75893892   -2.4799906   -2.4799906   -1.6888985   0.09722958   -2.4799906   0.79109214   418189 
  121000   0.75875033   -2.4807435   -2.4807435    -1.689848   0.11105809   -2.4807435   0.79089555   418189 
  122000   0.75763885    -2.480965    -2.480965    -1.691228    0.1127958    -2.480965   0.78973699   418189 
  123000   0.75797671   -2.4819413   -2.4819413   -1.6918522   0.11266652   -2.4819413   0.79008916   418189 
  124000   0.75835957   -2.4833925   -2.4833925   -1.6929043   0.10401913   -2.4833925   0.79048824   418189 
  125000   0.75673071   -2.4822247   -2.4822247   -1.6934343   0.10496672   -2.4822247   0.78879037   418189 
  126000   0.75622576   -2.4833123   -2.4833123   -1.6950483  0.094506164   -2.4833123   0.78826403   418189 
  127000   0.75754069    -2.485278    -2.485278   -1.6956434   0.10402931    -2.485278   0.78963467   418189 
  128000   0.75716552   -2.4853491   -2.4853491   -1.6961055   0.11460356   -2.4853491    0.7892436   418189 
  129000   0.75569622   -2.4854154   -2.4854154   -1.6977033   0.10592484   -2.4854154   0.78771205   418189 
  130000   0.75425128   -2.4856278   -2.4856278   -1.6994219   0.10915266   -2.4856278    0.7862059   418189 
  131000   0.75582509   -2.4876072   -2.4876072   -1.6997608  0.094368567   -2.4876072   0.78784639   418189 
  132000   0.75451055   -2.4876835   -2.4876835   -1.7012074   0.10491441   -2.4876835   0.78647615   418189 
  133000   0.75525371   -2.4899142   -2.4899142   -1.7026634  0.096121279   -2.4899142    0.7872508   418189 
  134000   0.75579072   -2.4911548   -2.4911548   -1.7033442   0.10013522   -2.4911548   0.78781056   418189 
  135000     0.755443   -2.4915118   -2.4915118   -1.7040637   0.11147392   -2.4915118   0.78744811   418189 
  136000   0.75404849   -2.4912037   -2.4912037   -1.7052092   0.10900181   -2.4912037   0.78599451   418189 
  137000   0.75376344    -2.491341    -2.491341   -1.7056436   0.11025795    -2.491341    0.7856974   418189 
  138000   0.75309458   -2.4915477   -2.4915477   -1.7065475   0.10276469   -2.4915477   0.78500019   418189 
  139000   0.75240914   -2.4913302   -2.4913302   -1.7070445    0.1000937   -2.4913302   0.78428571   418189 
  140000   0.75292707    -2.493415    -2.493415   -1.7085894  0.099168931    -2.493415   0.78482559   418189 
  141000   0.75412507   -2.4956498   -2.4956498   -1.7095754   0.10079447   -2.4956498   0.78607435   418189 
  142000   0.75269818   -2.4947258   -2.4947258   -1.7101388  0.090096347   -2.4947258     0.784587   418189 
  143000   0.75166058   -2.4959441   -2.4959441   -1.7124387  0.087388948   -2.4959441   0.78350544   418189 
  144000   0.75110168   -2.4968153   -2.4968153   -1.7138924   0.10133004   -2.4968153   0.78292286   418189 
  145000   0.75096493   -2.4974994   -2.4974994   -1.7147191   0.10220144   -2.4974994   0.78278032   418189 
  146000    0.7505384    -2.497622    -2.497622   -1.7152862   0.10422016    -2.497622   0.78233572   418189 
  147000   0.75145389   -2.4996459   -2.4996459    -1.716356   0.09217977   -2.4996459   0.78328999   418189 
  148000   0.75139948   -2.5007224   -2.5007224   -1.7174891  0.099092981   -2.5007224   0.78323328   418189 
  149000   0.75089415   -2.5008386   -2.5008386   -1.7181321   0.10221002   -2.5008386   0.78270654   418189 
  150000   0.75055867   -2.5015886   -2.5015886   -1.7192317   0.10893039   -2.5015886   0.78235685   418189 
  151000   0.75002589   -2.5022279   -2.5022279   -1.7204264   0.10507919   -2.5022279   0.78180149   418189 
  152000   0.74994999   -2.5031799   -2.5031799   -1.7214575   0.09857392   -2.5031799   0.78172238   418189 
  153000    0.7506578   -2.5055942   -2.5055942    -1.723134   0.10096764   -2.5055942   0.78246017   418189 
  154000   0.74873788   -2.5045693   -2.5045693   -1.7241104  0.097431642   -2.5045693   0.78045892   418189 
  155000   0.74977814   -2.5069732   -2.5069732   -1.7254299   0.10156924   -2.5069732   0.78154325   418189 
  156000   0.74834212   -2.5071868   -2.5071868   -1.7271404  0.093066164   -2.5071868   0.78004639   418189 
  157000   0.74890619   -2.5083486   -2.5083486   -1.7277142  0.097218322   -2.5083486   0.78063436   418189 
  158000   0.74732578   -2.5080419   -2.5080419   -1.7290549   0.11328053   -2.5080419   0.77898699   418189 
  159000   0.74917177   -2.5110596   -2.5110596   -1.7301484    0.1134616   -2.5110596   0.78091119   418189 
  160000   0.74708513   -2.5102022   -2.5102022    -1.731466     0.101335   -2.5102022   0.77873614   418189 
  161000   0.74656461   -2.5100516   -2.5100516   -1.7318581  0.094955769   -2.5100516   0.77819357   418189 
  162000   0.74647256   -2.5122261   -2.5122261   -1.7341285   0.10543211   -2.5122261   0.77809762   418189 
  163000   0.74713493   -2.5137125   -2.5137125   -1.7349244  0.099302733   -2.5137125   0.77878806   418189 
  164000   0.74690237   -2.5144495   -2.5144495   -1.7359039   0.10345402   -2.5144495   0.77854565   418189 
  165000   0.74638524   -2.5148663   -2.5148663   -1.7368596   0.10012575   -2.5148663   0.77800661   418189 
  166000     0.746378   -2.5160214   -2.5160214   -1.7380223   0.10139137   -2.5160214   0.77799906   418189 
  167000   0.74580148    -2.516387    -2.516387   -1.7389889   0.10360778    -2.516387   0.77739812   418189 
  168000   0.74469152   -2.5166988   -2.5166988   -1.7404576    0.1056415   -2.5166988   0.77624113   418189 
  169000   0.74582351   -2.5181901   -2.5181901    -1.740769   0.10418573   -2.5181901   0.77742107   418189 
  170000   0.74398599    -2.516469    -2.516469   -1.7409633  0.097508811    -2.516469   0.77550571   418189 
  171000   0.74486628   -2.5183901   -2.5183901   -1.7419668   0.09984154   -2.5183901   0.77642329   418189 
  172000    0.7438613   -2.5185056   -2.5185056   -1.7431298  0.098162092   -2.5185056   0.77537573   418189 
  173000   0.74450784   -2.5210664   -2.5210664   -1.7450168   0.10353627   -2.5210664   0.77604967   418189 
  174000   0.74286891   -2.5198283   -2.5198283    -1.745487   0.10410531   -2.5198283    0.7743413   418189 
  175000   0.74342939   -2.5207952   -2.5207952   -1.7458696   0.10840659   -2.5207952   0.77492552   418189 
  176000   0.74343945   -2.5214755   -2.5214755   -1.7465394   0.10060584   -2.5214755   0.77493602   418189 
  177000   0.74422202   -2.5233622   -2.5233622   -1.7476105   0.10131808   -2.5233622   0.77575174   418189 
  178000    0.7434693   -2.5231173   -2.5231173   -1.7481502  0.093351795   -2.5231173   0.77496713   418189 
  179000   0.74289899   -2.5243364   -2.5243364   -1.7499637  0.096673837   -2.5243364   0.77437265   418189 
  180000    0.7436915   -2.5257715   -2.5257715   -1.7505727  0.091995483   -2.5257715   0.77519874   418189 
  181000    0.7429887   -2.5264127   -2.5264127   -1.7519466  0.099590363   -2.5264127   0.77446617   418189 
  182000    0.7431182   -2.5268794   -2.5268794   -1.7522782  0.099798967   -2.5268794   0.77460116   418189 
  183000    0.7427968   -2.5283929   -2.5283929   -1.7541268   0.10668705   -2.5283929   0.77426613   418189 
  184000   0.74240541    -2.528844    -2.528844   -1.7549858   0.10466519    -2.528844   0.77385817   418189 
  185000   0.74096786   -2.5287777   -2.5287777    -1.756418    0.1066601   -2.5287777   0.77235972   418189 
  186000   0.74181848   -2.5301535   -2.5301535   -1.7569072   0.10779374   -2.5301535   0.77324637   418189 
  187000   0.74048125   -2.5300517   -2.5300517   -1.7581992   0.11037075   -2.5300517   0.77185249   418189 
  188000   0.74125697   -2.5314739   -2.5314739   -1.7588128   0.10838732   -2.5314739   0.77266107   418189 
  189000   0.74024994   -2.5318633   -2.5318633   -1.7602519  0.098233725   -2.5318633   0.77161138   418189 
  190000   0.74095781   -2.5336636   -2.5336636   -1.7613143  0.099567122   -2.5336636   0.77234924   418189 
  191000   0.73904341   -2.5334077   -2.5334077   -1.7630539   0.10929069   -2.5334077   0.77035373   418189 
  192000   0.73896196   -2.5344355   -2.5344355   -1.7641667  0.098861007   -2.5344355   0.77026883   418189 
  193000    0.7395977   -2.5356226   -2.5356226   -1.7646911  0.097314335   -2.5356226    0.7709315   418189 
  194000   0.73788205   -2.5353697   -2.5353697   -1.7662265   0.10547441   -2.5353697   0.76914317   418189 
  195000   0.73822007    -2.537671    -2.537671   -1.7681755  0.089613465    -2.537671   0.76949551   418189 
  196000   0.73688406   -2.5363153   -2.5363153   -1.7682124   0.10339997   -2.5363153    0.7681029   418189 
  197000    0.7377135   -2.5375561   -2.5375561   -1.7685886  0.096118146   -2.5375561   0.76896748   418189 
  198000    0.7363911   -2.5373881   -2.5373881   -1.7697991  0.096725254   -2.5373881   0.76758906   418189 
  199000   0.73682344   -2.5380495   -2.5380495   -1.7700098  0.099500297   -2.5380495   0.76803971   418189 
  200000   0.73727639   -2.5392771   -2.5392771   -1.7707652   0.10108567   -2.5392771   0.76851185   418189 
  201000   0.73876751    -2.541285    -2.541285   -1.7712189  0.096985924    -2.541285   0.77006615   418189 
  202000   0.73777953     -2.54109     -2.54109   -1.7720537  0.095684729     -2.54109   0.76903631   418189 
  203000   0.73809052   -2.5430306   -2.5430306   -1.7736701   0.10413413   -2.5430306   0.76936047   418189 
  204000   0.73718731   -2.5421621   -2.5421621   -1.7737431  0.094104329   -2.5421621     0.768419   418189 
  205000    0.7371764   -2.5430539   -2.5430539   -1.7746462  0.097921347   -2.5430539   0.76840762   418189 
  206000   0.73730601    -2.543247    -2.543247   -1.7747043   0.09243852    -2.543247   0.76854272   418189 
  207000   0.73562402   -2.5424821   -2.5424821   -1.7756927  0.088291423   -2.5424821   0.76678948   418189 
  208000   0.73577354    -2.543244    -2.543244   -1.7762986  0.096443601    -2.543244   0.76694533   418189 
  209000   0.73561461   -2.5437759   -2.5437759   -1.7769962  0.097373366   -2.5437759   0.76677967   418189 
  210000   0.73609454   -2.5452214   -2.5452214   -1.7779414  0.095157807   -2.5452214   0.76727993   418189 
  211000   0.73552096    -2.546141    -2.546141   -1.7794589  0.086061844    -2.546141   0.76668205   418189 
  212000   0.73552511   -2.5472419   -2.5472419   -1.7805555  0.093310831   -2.5472419   0.76668637   418189 
  213000   0.73639949   -2.5492163   -2.5492163   -1.7816185    0.1016842   -2.5492163    0.7675978   418189 
  214000   0.73479726   -2.5486744   -2.5486744   -1.7827467   0.10008085   -2.5486744   0.76592769   418189 
  215000   0.73471442   -2.5486386   -2.5486386   -1.7827973  0.091020445   -2.5486386   0.76584134   418189 
  216000   0.73527613   -2.5501172   -2.5501172   -1.7836904   0.10283093   -2.5501172   0.76642685   418189 
  217000   0.73433526   -2.5495973   -2.5495973   -1.7841512  0.098918018   -2.5495973   0.76544611   418189 
  218000   0.73511745   -2.5514033   -2.5514033   -1.7851418  0.098691594   -2.5514033   0.76626145   418189 
  219000   0.73562976    -2.552823    -2.552823   -1.7860276  0.098236411    -2.552823   0.76679546   418189 
  220000   0.73434967   -2.5523316   -2.5523316   -1.7868705   0.10331583   -2.5523316   0.76546114   418189 
  221000   0.73368598   -2.5527135   -2.5527135   -1.7879442    0.1067573   -2.5527135   0.76476933   418189 
  222000    0.7340942   -2.5550464   -2.5550464   -1.7898516   0.10087593   -2.5550464   0.76519484   418189 
  223000   0.73346209   -2.5551205   -2.5551205   -1.7905846  0.086820893   -2.5551205   0.76453595   418189 
  224000    0.7339197   -2.5558911   -2.5558911   -1.7908782  0.099164957   -2.5558911   0.76501295   418189 
  225000   0.73460782   -2.5574132   -2.5574132   -1.7916829  0.095479552   -2.5574132   0.76573022   418189 
  226000   0.73427479   -2.5579013   -2.5579013   -1.7925183   0.08711377   -2.5579013   0.76538308   418189 
  227000   0.73256974   -2.5569058   -2.5569058      -1.7933   0.10138624   -2.5569058    0.7636058   418189 
  228000   0.73238736   -2.5579441   -2.5579441   -1.7945284   0.10147857   -2.5579441   0.76341569   418189 
  229000   0.73201537   -2.5581189   -2.5581189   -1.7950909  0.092871616   -2.5581189   0.76302794   418189 
  230000   0.73209784   -2.5593349   -2.5593349    -1.796221   0.10664184   -2.5593349   0.76311391   418189 
  231000   0.73190792    -2.559834    -2.559834   -1.7969181  0.087211946    -2.559834   0.76291594   418189 
  232000   0.73148235   -2.5596895   -2.5596895   -1.7972171  0.087890035   -2.5596895   0.76247234   418189 
  233000   0.73007311   -2.5593333   -2.5593333   -1.7983299   0.10316882   -2.5593333    0.7610034   418189 
  234000   0.72981915   -2.5599294   -2.5599294   -1.7991907  0.094044635   -2.5599294   0.76073868   418189 
  235000   0.73173199   -2.5617938   -2.5617938   -1.7990612   0.10849679   -2.5617938   0.76273256   418189 
  236000   0.73114944   -2.5620563   -2.5620563   -1.7999309  0.096832295   -2.5620563   0.76212533   418189 
  237000   0.73044929   -2.5625088   -2.5625088   -1.8011133  0.086152704   -2.5625088   0.76139551   418189 
  238000    0.7315065   -2.5642088   -2.5642088   -1.8017113  0.091585596   -2.5642088   0.76249751   418189 
  239000   0.73082773   -2.5646271   -2.5646271   -1.8028371  0.092058967   -2.5646271   0.76178998   418189 
  240000   0.73070394   -2.5645994   -2.5645994   -1.8029385   0.10646792   -2.5645994   0.76166095   418189 
  241000   0.72919235   -2.5646708   -2.5646708   -1.8045855  0.094118989   -2.5646708   0.76008532   418189 
  242000   0.73044988   -2.5676749   -2.5676749   -1.8062788  0.099382894   -2.5676749   0.76139613   418189 
  243000   0.72953907    -2.567521    -2.567521   -1.8070743  0.097108069    -2.567521   0.76044673   418189 
  244000   0.72981513   -2.5685943   -2.5685943   -1.8078598  0.094726674   -2.5685943   0.76073449   418189 
  245000   0.72936253   -2.5692364   -2.5692364   -1.8089736  0.092673971   -2.5692364   0.76026271   418189 
  246000   0.72976097   -2.5702655   -2.5702655   -1.8095875  0.087699544   -2.5702655   0.76067803   418189 
  247000    0.7274156   -2.5686795   -2.5686795   -1.8104462  0.099916478   -2.5686795    0.7582333   418189 
  248000   0.72947027   -2.5722502   -2.5722502   -1.8118752  0.094998226   -2.5722502   0.76037501   418189 
  249000   0.72749453   -2.5698563   -2.5698563   -1.8115407  0.096766028   -2.5698563   0.75831557   418189 
  250000   0.72664224    -2.569949    -2.569949   -1.8125218   0.10074416    -2.569949   0.75742717   418189 
  251000   0.72912018   -2.5734116   -2.5734116   -1.8134015  0.082356383   -2.5734116    0.7600101   418189 
  252000   0.72607977   -2.5705196   -2.5705196   -1.8136788   0.09897395   -2.5705196   0.75684087   418189 
  253000   0.72693456   -2.5719177   -2.5719177   -1.8141858  0.090237894   -2.5719177   0.75773188   418189 
  254000   0.72763312   -2.5734911   -2.5734911   -1.8150311  0.094245614   -2.5734911   0.75846003   418189 
  255000   0.72618455   -2.5724833   -2.5724833   -1.8155332   0.10826592   -2.5724833   0.75695009   418189 
  256000   0.72519056   -2.5721526   -2.5721526   -1.8162386  0.094298648   -2.5721526   0.75591399   418189 
  257000   0.72635704   -2.5741308   -2.5741308   -1.8170009  0.098426164   -2.5741308   0.75712989   418189 
  258000   0.72596538   -2.5742267   -2.5742267   -1.8175051  0.086792448   -2.5742267   0.75672164   418189 
  259000   0.72563966   -2.5751704   -2.5751704   -1.8187883   0.09584382   -2.5751704   0.75638212   418189 
  260000   0.72657031   -2.5758639   -2.5758639   -1.8185117  0.094980124   -2.5758639    0.7573522   418189 
  261000   0.72567963   -2.5752429   -2.5752429   -1.8188191  0.090082838   -2.5752429   0.75642379   418189 
  262000   0.72635465   -2.5769035   -2.5769035   -1.8197761  0.095464521   -2.5769035    0.7571274   418189 
  263000   0.72675621   -2.5776018   -2.5776018   -1.8200558  0.091641374   -2.5776018   0.75754597   418189 
  264000   0.72678445   -2.5784673   -2.5784673   -1.8208919  0.086041173   -2.5784673   0.75757541   418189 
  265000   0.72687055   -2.5797739   -2.5797739   -1.8221087  0.094657321   -2.5797739   0.75766515   418189 
  266000   0.72698299   -2.5806088   -2.5806088   -1.8228264  0.099536452   -2.5806088   0.75778236   418189 
  267000   0.72509933   -2.5801577   -2.5801577   -1.8243388  0.096987421   -2.5801577    0.7558189   418189 
  268000   0.72465946   -2.5798139   -2.5798139   -1.8244535   0.11415225   -2.5798139   0.75536039   418189 
  269000   0.72451896   -2.5808231   -2.5808231   -1.8256091   0.10501161   -2.5808231   0.75521394   418189 
  270000   0.72381223   -2.5811153   -2.5811153    -1.826638  0.093523461   -2.5811153   0.75447726   418189 
  271000   0.72508904   -2.5831995   -2.5831995   -1.8273914   0.09845385   -2.5831995   0.75580817   418189 
  272000   0.72532181   -2.5839545   -2.5839545   -1.8279037     0.091011   -2.5839545    0.7560508   418189 
  273000   0.72578654   -2.5848766   -2.5848766   -1.8283414   0.09028951   -2.5848766   0.75653522   418189 
  274000   0.72503576   -2.5848905   -2.5848905   -1.8291379   0.10086505   -2.5848905   0.75575263   418189 
  275000   0.72575913   -2.5858393   -2.5858393   -1.8293326  0.083968117   -2.5858393   0.75650665   418189 
  276000   0.72359827   -2.5846208   -2.5846208   -1.8303666  0.090862553   -2.5846208   0.75425424   418189 
  277000   0.72579657   -2.5884343   -2.5884343   -1.8318887  0.093813046   -2.5884343   0.75654568   418189 
  278000      0.72409   -2.5866425   -2.5866425   -1.8318757  0.082414136   -2.5866425   0.75476681   418189 
  279000   0.72459014   -2.5878148   -2.5878148   -1.8325267  0.093431605   -2.5878148   0.75528813   418189 
  280000     0.723041   -2.5871957   -2.5871957   -1.8335224  0.090786845   -2.5871957   0.75367336   418189 
  281000   0.72353261   -2.5875132   -2.5875132   -1.8333273   0.09671283   -2.5875132    0.7541858   418189 
  282000   0.72528121   -2.5900933   -2.5900933   -1.8340848  0.097779959   -2.5900933   0.75600849   418189 
  283000   0.72228009     -2.58818     -2.58818   -1.8352998  0.086898075     -2.58818   0.75288021   418189 
  284000   0.72366104   -2.5899364   -2.5899364   -1.8356167  0.087725351   -2.5899364   0.75431967   418189 
  285000   0.72433273   -2.5911139   -2.5911139   -1.8360941    0.1090769   -2.5911139   0.75501982   418189 
  286000   0.72146076   -2.5898311   -2.5898311   -1.8378049   0.10434704   -2.5898311   0.75202617   418189 
  287000   0.72179502    -2.591144    -2.591144   -1.8387694   0.10390481    -2.591144    0.7523746   418189 
  288000   0.72305764   -2.5928871   -2.5928871   -1.8391964  0.091594312   -2.5928871   0.75369071   418189 
  289000   0.72194685   -2.5927596   -2.5927596   -1.8402268  0.085134642   -2.5927596   0.75253286   418189 
  290000   0.72222488   -2.5937731   -2.5937731   -1.8409504  0.094420219   -2.5937731   0.75282267   418189 
  291000   0.72025523   -2.5925045   -2.5925045   -1.8417349   0.09611541   -2.5925045   0.75076957   418189 
  292000    0.7211943   -2.5944264   -2.5944264    -1.842678  0.089624122   -2.5944264   0.75174843   418189 
  293000   0.71972324   -2.5927264   -2.5927264   -1.8425113  0.087844243   -2.5927264   0.75021504   418189 
  294000   0.72109464    -2.593843    -2.593843   -1.8421984  0.099923428    -2.593843   0.75164454   418189 
  295000    0.7210311   -2.5954309   -2.5954309   -1.8438525  0.094306325   -2.5954309   0.75157832   418189 
  296000   0.72084815   -2.5954706   -2.5954706    -1.844083  0.098507418   -2.5954706   0.75138761   418189 
  297000   0.71932362   -2.5950015   -2.5950015    -1.845203  0.078895458   -2.5950015    0.7497985   418189 
  298000   0.72078202   -2.5965947   -2.5965947    -1.845276   0.08290419   -2.5965947   0.75131868   418189 
  299000   0.72020556   -2.5958236   -2.5958236   -1.8451058  0.080232048   -2.5958236    0.7507178   418189 
  300000   0.72095435   -2.5970899   -2.5970899   -1.8455916  0.085209968   -2.5970899   0.75149831   418189 
  301000   0.71952899    -2.596027    -2.596027   -1.8460145  0.080842975    -2.596027   0.75001256   418189 
  302000   0.72024231   -2.5981816   -2.5981816   -1.8474255   0.08310199   -2.5981816   0.75075611   418189 
  303000   0.72037312    -2.598288    -2.598288   -1.8473956  0.090710355    -2.598288   0.75089245   418189 
  304000   0.71963325   -2.5979424   -2.5979424   -1.8478212  0.097549646   -2.5979424   0.75012124   418189 
  305000    0.7182613   -2.5981106   -2.5981106   -1.8494194  0.093177728   -2.5981106   0.74869117   418189 
  306000   0.71951975   -2.6003166   -2.6003166   -1.8503136   0.09376926   -2.6003166   0.75000293   418189 
  307000   0.71815046   -2.5998112   -2.5998112   -1.8512356  0.082079864   -2.5998112   0.74857564   418189 
  308000   0.71679154   -2.5988477   -2.5988477   -1.8516885  0.088660698   -2.5988477   0.74715914   418189 
  309000    0.7182542   -2.6007596   -2.6007596   -1.8520758  0.078067235   -2.6007596   0.74868376   418189 
  310000   0.71687771   -2.6002517   -2.6002517   -1.8530027   0.10623468   -2.6002517   0.74724896   418189 
  311000   0.71714026   -2.6011008   -2.6011008   -1.8535782  0.087323228   -2.6011008   0.74752264   418189 
  312000   0.71823586   -2.6029564   -2.6029564   -1.8542918  0.086665691   -2.6029564   0.74866465   418189 
  313000   0.71754228   -2.6028391   -2.6028391   -1.8548974  0.080138108   -2.6028391   0.74794169   418189 
  314000   0.71694196   -2.6022934   -2.6022934   -1.8549775  0.079595044   -2.6022934   0.74731593   418189 
  315000   0.71661247   -2.6024235   -2.6024235    -1.855451  0.083287303   -2.6024235   0.74697249   418189 
  316000   0.71728917   -2.6034608   -2.6034608    -1.855783  0.085300601   -2.6034608   0.74767785   418189 
  317000   0.71811338    -2.604511    -2.604511    -1.855974  0.086854386    -2.604511   0.74853698   418189 
  318000    0.7168983   -2.6040247   -2.6040247   -1.8567543  0.080259562   -2.6040247   0.74727042   418189 
  319000    0.7171457   -2.6046549   -2.6046549   -1.8571266  0.090797646   -2.6046549    0.7475283   418189 
  320000   0.71440729   -2.6020274   -2.6020274   -1.8573536  0.085164943   -2.6020274   0.74467388   418189 
  321000   0.71811854   -2.6070177   -2.6070177   -1.8584753  0.087396283   -2.6070177   0.74854236   418189 
  322000   0.71699561   -2.6058306   -2.6058306   -1.8584587  0.088037811   -2.6058306   0.74737186   418189 
  323000    0.7159639   -2.6051919   -2.6051919   -1.8588955  0.085519504   -2.6051919   0.74629644   418189 
  324000   0.71536229   -2.6061026   -2.6061026   -1.8604332  0.086879551   -2.6061026   0.74566933   418189 
  325000   0.71654761   -2.6079121   -2.6079121   -1.8610073  0.089420116   -2.6079121   0.74690487   418189 
  326000   0.71668165    -2.608671    -2.608671   -1.8616264   0.09277689    -2.608671    0.7470446   418189 
  327000   0.71666462   -2.6085731   -2.6085731   -1.8615462  0.092474001   -2.6085731   0.74702684   418189 
  328000    0.7165334   -2.6087147   -2.6087147   -1.8618247  0.097826367   -2.6087147   0.74689006   418189 
  329000   0.71757142    -2.610729    -2.610729    -1.862757  0.086429058    -2.610729   0.74797206   418189 
  330000   0.71611862   -2.6104619   -2.6104619   -1.8640042  0.091028321   -2.6104619   0.74645771   418189 
  331000   0.71673981   -2.6115917   -2.6115917   -1.8644865  0.085334446   -2.6115917   0.74710521   418189 
  332000   0.71489345   -2.6106939   -2.6106939   -1.8655133   0.08835813   -2.6106939   0.74518063   418189 
  333000   0.71439967    -2.610573    -2.610573   -1.8659071  0.091764478    -2.610573   0.74466593   418189 
  334000   0.71486668   -2.6115092   -2.6115092   -1.8663565  0.086889756   -2.6115092   0.74515272   418189 
  335000   0.71425024   -2.6115733   -2.6115733   -1.8670631  0.091033266   -2.6115733   0.74451018   418189 
  336000   0.71485011   -2.6127474   -2.6127474   -1.8676119  0.089943757   -2.6127474   0.74513545   418189 
  337000   0.71557147   -2.6135487   -2.6135487   -1.8676613  0.092198638   -2.6135487   0.74588738   418189 
  338000   0.71341009    -2.611902    -2.611902   -1.8682676  0.094472175    -2.611902   0.74363443   418189 
  339000   0.71457995   -2.6133706   -2.6133706   -1.8685167  0.094683577   -2.6133706   0.74485385   418189 
  340000   0.71301673   -2.6123476   -2.6123476   -1.8691232  0.087068615   -2.6123476    0.7432244   418189 
  341000   0.71261154   -2.6125618   -2.6125618   -1.8697597  0.091626261   -2.6125618   0.74280205   418189 
  342000   0.71331372    -2.613592    -2.613592    -1.870058  0.085103806    -2.613592   0.74353397   418189 
  343000   0.71362154   -2.6146687   -2.6146687   -1.8708139  0.087000904   -2.6146687   0.74385484   418189 
  344000   0.71313512   -2.6145549   -2.6145549   -1.8712071  0.086044208   -2.6145549   0.74334781   418189 
  345000   0.71338269   -2.6166491   -2.6166491   -1.8730432  0.076095213   -2.6166491   0.74360587   418189 
  346000   0.71276167   -2.6166685   -2.6166685     -1.87371  0.077180272   -2.6166685   0.74295853   418189 
  347000   0.71331694   -2.6177111   -2.6177111   -1.8741738  0.091402298   -2.6177111   0.74353733   418189 
  348000   0.71230903   -2.6169934   -2.6169934   -1.8745067  0.083601962   -2.6169934   0.74248673   418189 
  349000   0.71376553   -2.6190683   -2.6190683   -1.8750633  0.081077434   -2.6190683   0.74400493   418189 
  350000   0.71256161   -2.6185423   -2.6185423   -1.8757923  0.086120628   -2.6185423      0.74275   418189 
  351000   0.71218045   -2.6188613   -2.6188613   -1.8765086  0.080852131   -2.6188613    0.7423527   418189 
  352000   0.71248074   -2.6194179   -2.6194179   -1.8767522  0.085400349   -2.6194179    0.7426657   418189 
  353000   0.71092623   -2.6188757   -2.6188757   -1.8778304  0.093176589   -2.6188757   0.74104533   418189 
  354000   0.71286757    -2.622442    -2.622442    -1.879373  0.083406018    -2.622442   0.74306892   418189 
  355000   0.71269008   -2.6225225   -2.6225225   -1.8796386  0.091831121   -2.6225225   0.74288392   418189 
  356000    0.7119521    -2.622637    -2.622637   -1.8805223   0.09064473    -2.622637   0.74211467   418189 
  357000   0.71114156   -2.6230748   -2.6230748    -1.881805  0.078419978   -2.6230748   0.74126979   418189 
  358000   0.71188552   -2.6244047   -2.6244047   -1.8823594  0.087348857   -2.6244047   0.74204528   418189 
  359000   0.71088742   -2.6240243   -2.6240243   -1.8830194  0.078768874   -2.6240243   0.74100489   418189 
  360000   0.71202801   -2.6255929   -2.6255929   -1.8833991  0.089214074   -2.6255929    0.7421938   418189 
  361000   0.71115177   -2.6251275   -2.6251275   -1.8838471  0.086154156   -2.6251275   0.74128043   418189 
  362000   0.71076985   -2.6253723   -2.6253723     -1.88449  0.085359095   -2.6253723   0.74088234   418189 
  363000   0.71138666   -2.6262886   -2.6262886   -1.8847634  0.071482538   -2.6262886   0.74152527   418189 
  364000   0.71060986   -2.6250882   -2.6250882   -1.8843726  0.080429658   -2.6250882   0.74071557   418189 
  365000   0.71060668   -2.6256243   -2.6256243   -1.8849121  0.087164103   -2.6256243   0.74071225   418189 
  366000   0.71103488   -2.6262754   -2.6262754   -1.8851168  0.084530832   -2.6262754   0.74115859   418189 
  367000   0.70868585    -2.625339    -2.625339    -1.886629  0.093563051    -2.625339   0.73871004   418189 
  368000    0.7091629   -2.6270485   -2.6270485   -1.8878412  0.090714301   -2.6270485    0.7392073   418189 
  369000   0.70998924    -2.628751    -2.628751   -1.8886824  0.088231255    -2.628751   0.74006865   418189 
  370000   0.70803789   -2.6274712   -2.6274712   -1.8894366  0.081233278   -2.6274712   0.73803463   418189 
  371000   0.70752857   -2.6274242   -2.6274242   -1.8899205  0.087489727   -2.6274242   0.73750374   418189 
  372000   0.70813791   -2.6286112   -2.6286112   -1.8904723  0.085113588   -2.6286112   0.73813889   418189 
  373000    0.7083982   -2.6290081   -2.6290081   -1.8905979  0.083918876   -2.6290081    0.7384102   418189 
  374000   0.70866308   -2.6301437   -2.6301437   -1.8914574  0.075579008   -2.6301437   0.73868631   418189 
  375000   0.70883251   -2.6303532   -2.6303532   -1.8914903  0.081862016   -2.6303532   0.73886292   418189 
  376000   0.70983806   -2.6313923   -2.6313923   -1.8914812   0.07523583   -2.6313923   0.73991107   418189 
  377000   0.70887716   -2.6311798   -2.6311798   -1.8922703   0.08402659   -2.6311798   0.73890946   418189 
  378000   0.70868382   -2.6303368   -2.6303368   -1.8916288   0.08726316   -2.6303368   0.73870793   418189 
  379000   0.70800703   -2.6302885   -2.6302885    -1.892286  0.092854585   -2.6302885   0.73800246   418189 
  380000   0.70794477   -2.6305806   -2.6305806   -1.8926431  0.087382286   -2.6305806   0.73793756   418189 
  381000   0.70704779   -2.6301435   -2.6301435    -1.893141  0.097947326   -2.6301435   0.73700258   418189 
  382000    0.7065875   -2.6311197   -2.6311197   -1.8945969  0.081575032   -2.6311197   0.73652279   418189 
  383000   0.70781786   -2.6330581   -2.6330581   -1.8952528  0.091669234   -2.6330581   0.73780528   418189 
  384000   0.70714749   -2.6328775   -2.6328775    -1.895771  0.088268171   -2.6328775   0.73710651   418189 
  385000   0.70705864   -2.6330813   -2.6330813   -1.8960674  0.086223035   -2.6330813   0.73701389   418189 
  386000   0.70613534   -2.6329525   -2.6329525    -1.896901  0.089030383   -2.6329525   0.73605148   418189 
  387000   0.70656394   -2.6342456   -2.6342456   -1.8977474  0.092030886   -2.6342456   0.73649824   418189 
  388000    0.7061143   -2.6343823   -2.6343823   -1.8983528  0.089597398   -2.6343823   0.73602954   418189 
  389000   0.70780063   -2.6364567   -2.6364567   -1.8986694   0.08553754   -2.6364567   0.73778732   418189 
  390000   0.70703821   -2.6354369   -2.6354369   -1.8984443  0.087554923   -2.6354369    0.7369926   418189 
  391000   0.70399585   -2.6325725   -2.6325725   -1.8987511  0.093401875   -2.6325725   0.73382134   418189 
  392000    0.7075018   -2.6363876   -2.6363876   -1.8989118  0.090458795   -2.6363876   0.73747583   418189 
  393000    0.7066252   -2.6360586   -2.6360586   -1.8994965   0.08734724   -2.6360586   0.73656209   418189 
  394000    0.7063391   -2.6369712   -2.6369712   -1.9007073  0.086615087   -2.6369712   0.73626387   418189 
  395000   0.70607234   -2.6375364   -2.6375364   -1.9015506  0.075081173   -2.6375364   0.73598581   418189 
  396000   0.70462378   -2.6370631   -2.6370631   -1.9025872    0.1009161   -2.6370631   0.73447588   418189 
  397000     0.707094   -2.6401687   -2.6401687   -1.9031179  0.072989432   -2.6401687   0.73705075   418189 
  398000   0.70416994   -2.6381103   -2.6381103   -1.9041075  0.077810126   -2.6381103   0.73400281   418189 
  399000   0.70497198   -2.6395686   -2.6395686   -1.9047298  0.076926525   -2.6395686   0.73483884   418189 
  400000   0.70465075    -2.639091    -2.639091    -1.904587  0.086199122    -2.639091     0.734504   418189 
  401000   0.70770713   -2.6427024   -2.6427024   -1.9050126  0.080995388   -2.6427024   0.73768986   418189 
  402000   0.70441348   -2.6399291   -2.6399291   -1.9056725  0.086135727   -2.6399291   0.73425666   418189 
  403000   0.70546662   -2.6411059   -2.6411059   -1.9057515  0.081392435   -2.6411059   0.73535443   418189 
  404000   0.70432518   -2.6411902   -2.6411902   -1.9070256  0.090093879   -2.6411902   0.73416463   418189 
  405000   0.70480423    -2.642852    -2.642852   -1.9081881  0.088373298    -2.642852   0.73466398   418189 
  406000   0.70264368    -2.640543    -2.640543   -1.9081311  0.094402841    -2.640543   0.73241189   418189 
  407000   0.70479056   -2.6438248   -2.6438248   -1.9091751  0.085643765   -2.6438248   0.73464972   418189 
  408000   0.70320614   -2.6434664   -2.6434664   -1.9104682   0.08789289   -2.6434664   0.73299818   418189 
  409000   0.70360489   -2.6445245   -2.6445245   -1.9111107  0.074580523   -2.6445245   0.73341382   418189 
  410000   0.70124939   -2.6431523   -2.6431523   -1.9121938   0.07706042   -2.6431523   0.73095853   418189 
  411000   0.70253517   -2.6452164   -2.6452164   -1.9129176  0.083920673   -2.6452164   0.73229878   418189 
  412000   0.70216527   -2.6441308   -2.6441308   -1.9122176  0.086697519   -2.6441308   0.73191321   418189 
  413000   0.70345083    -2.645832    -2.645832   -1.9125788  0.081150369    -2.645832   0.73325324   418189 
  414000   0.70264206   -2.6451491   -2.6451491   -1.9127389  0.085857601   -2.6451491    0.7324102   418189 
  415000   0.70351986   -2.6464337   -2.6464337   -1.9131085   0.08355929   -2.6464337   0.73332519   418189 
  416000   0.70329382    -2.647147    -2.647147   -1.9140575  0.091285562    -2.647147   0.73308957   418189 
  417000   0.70084213   -2.6453399   -2.6453399   -1.9148059  0.077026229   -2.6453399   0.73053402   418189 
  418000   0.70207518   -2.6465454   -2.6465454   -1.9147261  0.091197062   -2.6465454    0.7318193   418189 
  419000   0.70346982   -2.6480929   -2.6480929   -1.9148198  0.083765643   -2.6480929   0.73327303   418189 
  420000   0.70160685   -2.6462654   -2.6462654   -1.9149342  0.078545756   -2.6462654   0.73133113   418189 
  421000   0.70327668   -2.6486709   -2.6486709   -1.9155992  0.094267951   -2.6486709   0.73307171   418189 
  422000   0.70174753   -2.6479115   -2.6479115   -1.9164338  0.081653027   -2.6479115   0.73147777   418189 
  423000   0.70235293   -2.6500483   -2.6500483   -1.9179395  0.073437087   -2.6500483   0.73210882   418189 
  424000   0.70280663   -2.6501639   -2.6501639   -1.9175822   0.08221533   -2.6501639   0.73258174   418189 
  425000   0.70213759   -2.6504245   -2.6504245   -1.9185402  0.072954856   -2.6504245   0.73188436   418189 
  426000   0.70119293   -2.6507371   -2.6507371   -1.9198374  0.073475048   -2.6507371   0.73089968   418189 
  427000   0.70097689   -2.6510109   -2.6510109   -1.9203364  0.083567142   -2.6510109   0.73067449   418189 
  428000   0.70132955   -2.6515773   -2.6515773   -1.9205352  0.086901467   -2.6515773   0.73104208   418189 
  429000   0.70248227   -2.6538487   -2.6538487   -1.9216051  0.075779431   -2.6538487   0.73224364   418189 
  430000   0.70095461    -2.652247    -2.652247   -1.9215957   0.08292143    -2.652247   0.73065126   418189 
  431000   0.70080232   -2.6521047   -2.6521047   -1.9216122  0.079607753   -2.6521047   0.73049252   418189 
  432000   0.70044254   -2.6525605   -2.6525605    -1.922443   0.08812353   -2.6525605    0.7301175   418189 
  433000   0.70207189    -2.654743    -2.654743   -1.9229271  0.082455105    -2.654743   0.73181588   418189 
  434000   0.70090311   -2.6534388   -2.6534388   -1.9228412  0.087570365   -2.6534388   0.73059758   418189 
  435000   0.70032437    -2.653298    -2.653298   -1.9233037  0.084284468    -2.653298   0.72999432   418189 
  436000   0.70045666   -2.6544018   -2.6544018   -1.9242696  0.084966613   -2.6544018   0.73013222   418189 
  437000   0.69968294   -2.6544789   -2.6544789   -1.9251531  0.080569788   -2.6544789   0.72932572   418189 
  438000   0.70111418    -2.655846    -2.655846   -1.9250284  0.081085127    -2.655846   0.73081759   418189 
  439000   0.70026765   -2.6548306   -2.6548306   -1.9248954  0.081074201   -2.6548306    0.7299352   418189 
  440000   0.70020377    -2.655297    -2.655297   -1.9254284   0.07590682    -2.655297   0.72986861   418189 
  441000   0.69913464   -2.6547006   -2.6547006   -1.9259464  0.084354884   -2.6547006   0.72875418   418189 
  442000   0.69985011   -2.6555693   -2.6555693   -1.9260694  0.086414869   -2.6555693   0.72949997   418189 
  443000   0.69966595   -2.6563627   -2.6563627   -1.9270547  0.076273762   -2.6563627   0.72930801   418189 
  444000   0.69898236   -2.6558287   -2.6558287   -1.9272332  0.072589147   -2.6558287   0.72859545   418189 
  445000   0.69707085   -2.6542818   -2.6542818   -1.9276788  0.084112617   -2.6542818   0.72660296   418189 
  446000   0.69879932     -2.65693     -2.65693   -1.9285254  0.081880948     -2.65693   0.72840466   418189 
  447000   0.69882542   -2.6577201   -2.6577201   -1.9292882  0.075889399   -2.6577201   0.72843187   418189 
  448000   0.69734025   -2.6564699   -2.6564699   -1.9295862  0.078985407   -2.6564699   0.72688378   418189 
  449000   0.69876645   -2.6577149   -2.6577149   -1.9293445  0.077138526   -2.6577149    0.7283704   418189 
  450000   0.69770666   -2.6569852   -2.6569852   -1.9297195  0.077151734   -2.6569852   0.72726571   418189 
  451000   0.69777018   -2.6580103   -2.6580103   -1.9306784  0.078273725   -2.6580103   0.72733191   418189 
  452000    0.6982114   -2.6586424   -2.6586424   -1.9308505  0.079447529   -2.6586424   0.72779184   418189 
  453000   0.69731804   -2.6580911   -2.6580911   -1.9312305  0.076643326   -2.6580911   0.72686062   418189 
  454000   0.69702946   -2.6579472   -2.6579472   -1.9313874  0.084359505   -2.6579472   0.72655981   418189 
  455000   0.69643189    -2.657747    -2.657747     -1.93181  0.086938923    -2.657747   0.72593693   418189 
  456000   0.69673947   -2.6587041   -2.6587041   -1.9324465  0.086207189   -2.6587041   0.72625754   418189 
  457000   0.69682946   -2.6584635   -2.6584635   -1.9321121  0.078033811   -2.6584635   0.72635135   418189 
  458000   0.69609095   -2.6578554   -2.6578554   -1.9322739  0.082317544   -2.6578554   0.72558155   418189 
  459000   0.69726046   -2.6596257   -2.6596257   -1.9328251  0.082864412   -2.6596257   0.72680061   418189 
  460000   0.69713854   -2.6600322   -2.6600322   -1.9333587  0.087192072   -2.6600322   0.72667352   418189 
  461000   0.69684478    -2.659864    -2.659864   -1.9334967  0.092137224    -2.659864   0.72636731   418189 
  462000   0.69679818   -2.6610577   -2.6610577   -1.9347389  0.077914585   -2.6610577   0.72631874   418189 
  463000   0.69701958   -2.6618854   -2.6618854   -1.9353359  0.075671341   -2.6618854   0.72654952   418189 
  464000   0.69789373   -2.6640517   -2.6640517    -1.936591  0.078185105   -2.6640517    0.7274607   418189 
  465000   0.69588683    -2.662424    -2.662424   -1.9370552  0.093619992    -2.662424   0.72536877   418189 
  466000   0.69698762   -2.6640725   -2.6640725   -1.9375563   0.09296506   -2.6640725   0.72651621   418189 
  467000   0.69648377   -2.6647188   -2.6647188   -1.9387278  0.081030104   -2.6647188   0.72599101   418189 
  468000    0.6967283   -2.6651886   -2.6651886   -1.9389427  0.082968909   -2.6651886    0.7262459   418189 
  469000   0.69507593   -2.6640359   -2.6640359   -1.9395124  0.087888309   -2.6640359   0.72452352   418189 
  470000   0.69507065    -2.665129    -2.665129   -1.9406109  0.081081595    -2.665129   0.72451802   418189 
  471000   0.69400723   -2.6644236   -2.6644236    -1.941014   0.08682137   -2.6644236   0.72340955   418189 
  472000   0.69373641   -2.6636727   -2.6636727   -1.9405454  0.064841983   -2.6636727   0.72312726   418189 
  473000   0.69373699   -2.6642336   -2.6642336   -1.9411057   0.07445366   -2.6642336   0.72312786   418189 
  474000    0.6942528   -2.6649603   -2.6649603   -1.9412948  0.078126825   -2.6649603   0.72366552   418189 
  475000   0.69502137   -2.6664416   -2.6664416   -1.9419749   0.08631436   -2.6664416   0.72446666   418189 
  476000   0.69379343   -2.6656516   -2.6656516   -1.9424649  0.076217872   -2.6656516   0.72318669   418189 
  477000   0.69471346   -2.6670148   -2.6670148   -1.9428691  0.075438086   -2.6670148    0.7241457   418189 
  478000   0.69433999   -2.6678495   -2.6678495   -1.9440931  0.070337703   -2.6678495    0.7237564   418189 
  479000   0.69183952   -2.6661016   -2.6661016   -1.9449516  0.083093692   -2.6661016      0.72115   418189 
  480000   0.69322301   -2.6672355   -2.6672355   -1.9446434  0.080748372   -2.6672355    0.7225921   418189 
  481000   0.69404863    -2.669029    -2.669029   -1.9455763  0.072206358    -2.669029    0.7234527   418189 
  482000   0.69431475   -2.6696461   -2.6696461    -1.945916  0.084664517   -2.6696461    0.7237301   418189 
  483000   0.69270702   -2.6688233   -2.6688233    -1.946769  0.077425264   -2.6688233   0.72205425   418189 
  484000      0.69214   -2.6697035   -2.6697035   -1.9482403  0.067967603   -2.6697035   0.72146321   418189 
  485000   0.69271071   -2.6707522   -2.6707522   -1.9486941  0.082575082   -2.6707522    0.7220581   418189 
  486000   0.69303508   -2.6716149   -2.6716149   -1.9492187  0.077469024   -2.6716149   0.72239621   418189 
  487000   0.69190284   -2.6704362   -2.6704362   -1.9492202  0.083116774   -2.6704362   0.72121601   418189 
  488000   0.69394451   -2.6726434   -2.6726434   -1.9492992  0.082984818   -2.6726434   0.72334417   418189 
  489000   0.69323123    -2.672212    -2.672212   -1.9496114  0.075024308    -2.672212   0.72260068   418189 
  490000   0.69411651   -2.6737531   -2.6737531   -1.9502296  0.075153129   -2.6737531   0.72352345   418189 
  491000   0.69379558   -2.6739768   -2.6739768   -1.9507879   0.06840551   -2.6739768   0.72318893   418189 
  492000   0.69201693   -2.6725579   -2.6725579    -1.951223  0.075143924   -2.6725579   0.72133493   418189 
  493000   0.69264418   -2.6735271   -2.6735271   -1.9515384  0.088256948   -2.6735271   0.72198876   418189 
  494000   0.69197772   -2.6726886   -2.6726886   -1.9513946  0.080725071   -2.6726886   0.72129406   418189 
  495000   0.69209621   -2.6734254   -2.6734254   -1.9520078  0.076691136   -2.6734254   0.72141756   418189 
  496000   0.69110402   -2.6733185   -2.6733185   -1.9529352  0.078284947   -2.6733185   0.72038335   418189 
  497000   0.69230017   -2.6738346   -2.6738346   -1.9522044  0.090138348   -2.6738346   0.72163017   418189 
  498000   0.69141288   -2.6734209   -2.6734209   -1.9527156  0.073732809   -2.6734209   0.72070529   418189 
  499000   0.69183865   -2.6740253   -2.6740253   -1.9528762   0.07322217   -2.6740253    0.7211491   418189 
  500000   0.69169332   -2.6751528   -2.6751528   -1.9541552  0.074240718   -2.6751528    0.7209976   418189 
  501000   0.69243685   -2.6767683   -2.6767683   -1.9549957  0.073723832   -2.6767683   0.72177264   418189 
  502000   0.69160527   -2.6770454   -2.6770454   -1.9561395  0.067548279   -2.6770454   0.72090582   418189 
  503000    0.6911876     -2.67674     -2.67674   -1.9562696   0.07708794     -2.67674   0.72047046   418189 
  504000   0.69084836   -2.6770364   -2.6770364   -1.9569196  0.084268528   -2.6770364   0.72011685   418189 
  505000   0.68960813   -2.6756823   -2.6756823   -1.9568582  0.078636927   -2.6756823   0.71882408   418189 
  506000   0.69115878   -2.6768092   -2.6768092   -1.9563688   0.07356181   -2.6768092   0.72044042   418189 
  507000   0.69073325   -2.6766786   -2.6766786   -1.9566817  0.072619642   -2.6766786   0.71999687   418189 
  508000   0.69140833   -2.6769581   -2.6769581   -1.9562575   0.08295946   -2.6769581   0.72070054   418189 
  509000   0.69195416   -2.6782935   -2.6782935    -1.957024  0.075400536   -2.6782935   0.72126949   418189 
  510000   0.69012937   -2.6769512   -2.6769512   -1.9575838  0.072679837   -2.6769512    0.7193674   418189 
  511000   0.69066294   -2.6776577   -2.6776577   -1.9577341  0.071501198   -2.6776577   0.71992358   418189 
  512000   0.69289694   -2.6805552   -2.6805552    -1.958303  0.077951219   -2.6805552   0.72225222   418189 
  513000    0.6908866   -2.6786619   -2.6786619   -1.9585051  0.079978975   -2.6786619   0.72015671   418189 
  514000    0.6906405   -2.6793367   -2.6793367   -1.9594365  0.074641804   -2.6793367   0.71990018   418189 
  515000   0.68991579    -2.678352    -2.678352   -1.9592073  0.067664185    -2.678352   0.71914478   418189 
  516000   0.69045017   -2.6799419   -2.6799419   -1.9602401  0.078267339   -2.6799419   0.71970178   418189 
  517000    0.6896579   -2.6791945   -2.6791945   -1.9603186  0.085816729   -2.6791945   0.71887595   418189 
  518000   0.68989591   -2.6798836   -2.6798836   -1.9607595  0.088491017   -2.6798836   0.71912405   418189 
  519000    0.6897519   -2.6796734   -2.6796734   -1.9606995  0.075796769   -2.6796734   0.71897394   418189 
  520000   0.68967868   -2.6794841   -2.6794841   -1.9605865  0.077882248   -2.6794841   0.71889761   418189 
  521000    0.6904342   -2.6799204   -2.6799204   -1.9602353  0.079737698   -2.6799204   0.71968515   418189 
  522000   0.68931914   -2.6790391   -2.6790391   -1.9605162  0.083522108   -2.6790391   0.71852284   418189 
  523000   0.69110601   -2.6817866   -2.6817866   -1.9614012  0.080138779   -2.6817866   0.72038541   418189 
  524000   0.68910695   -2.6797684   -2.6797684   -1.9614667  0.065955886   -2.6797684   0.71830166   418189 
  525000   0.68806803    -2.680005    -2.680005   -1.9627862  0.081363013    -2.680005   0.71721873   418189 
  526000    0.6894736   -2.6814194   -2.6814194   -1.9627356  0.062971731   -2.6814194   0.71868384   418189 
  527000   0.68855137   -2.6804829   -2.6804829   -1.9627604  0.084340809   -2.6804829   0.71772254   418189 
  528000   0.68904112   -2.6816722   -2.6816722   -1.9634391  0.086215505   -2.6816722   0.71823304   418189 
  529000   0.68885016   -2.6822359   -2.6822359   -1.9642019  0.079204097   -2.6822359     0.718034   418189 
  530000   0.68711699   -2.6805332   -2.6805332   -1.9643058  0.068565685   -2.6805332    0.7162274   418189 
  531000   0.68746177   -2.6805067   -2.6805067   -1.9639199  0.081404688   -2.6805067   0.71658678   418189 
  532000   0.68740913    -2.681149    -2.681149   -1.9646171  0.083852311    -2.681149   0.71653191   418189 
  533000   0.68836303   -2.6826646   -2.6826646   -1.9651384  0.075369613   -2.6826646   0.71752622   418189 
  534000   0.68857885   -2.6837511   -2.6837511   -1.9659999  0.074468775   -2.6837511   0.71775119   418189 
  535000   0.68739446   -2.6827716   -2.6827716    -1.966255  0.071996168   -2.6827716   0.71651663   418189 
  536000   0.68736741    -2.682564    -2.682564   -1.9660756  0.077040598    -2.682564   0.71648842   418189 
  537000   0.68588937   -2.6809733   -2.6809733   -1.9660255  0.071983869   -2.6809733   0.71494777   418189 
  538000    0.6884081   -2.6835001   -2.6835001   -1.9659269  0.072204177   -2.6835001   0.71757321   418189 
  539000   0.68626536   -2.6825165   -2.6825165   -1.9671768   0.07048251   -2.6825165   0.71533969   418189 
  540000   0.68729862   -2.6841793   -2.6841793   -1.9677626   0.07785753   -2.6841793   0.71641672   418189 
  541000   0.68730053   -2.6847965   -2.6847965   -1.9683778   0.08174197   -2.6847965   0.71641872   418189 
  542000   0.68611504   -2.6836988   -2.6836988   -1.9685158  0.072784488   -2.6836988     0.715183   418189 
  543000   0.68640621   -2.6843347   -2.6843347   -1.9688482  0.071855876   -2.6843347   0.71548651   418189 
  544000   0.68568494   -2.6840907   -2.6840907    -1.969356  0.073462028   -2.6840907   0.71473468   418189 
  545000   0.68710833   -2.6855702   -2.6855702   -1.9693518  0.081597616   -2.6855702   0.71621837   418189 
  546000   0.68692838   -2.6851396   -2.6851396   -1.9691088  0.072559597   -2.6851396    0.7160308   418189 
  547000   0.68643353   -2.6846552   -2.6846552   -1.9691402  0.079173078   -2.6846552   0.71551498   418189 
  548000   0.68582289   -2.6844268   -2.6844268   -1.9695484   0.07345945   -2.6844268   0.71487847   418189 
  549000   0.68648152   -2.6862731   -2.6862731   -1.9707081    0.0776026   -2.6862731     0.715565   418189 
  550000   0.68720001   -2.6873971   -2.6873971   -1.9710832  0.082310327   -2.6873971   0.71631393   418189 
  551000   0.68656504   -2.6869424   -2.6869424   -1.9712904  0.076159534   -2.6869424   0.71565206   418189 
  552000   0.68650444   -2.6873856   -2.6873856   -1.9717967   0.08977728   -2.6873856    0.7155889   418189 
  553000   0.68559381   -2.6863112   -2.6863112   -1.9716715  0.076903339   -2.6863112   0.71463968   418189 
  554000   0.68592389   -2.6881271   -2.6881271   -1.9731434  0.078433674   -2.6881271   0.71498374   418189 
  555000   0.68492772   -2.6874301   -2.6874301   -1.9734848  0.069675443   -2.6874301   0.71394537   418189 
  556000   0.68562278   -2.6889063   -2.6889063   -1.9742365  0.078958741   -2.6889063   0.71466988   418189 
  557000   0.68645618   -2.6902597   -2.6902597   -1.9747211  0.079637505   -2.6902597   0.71553859   418189 
  558000   0.68463958   -2.6892845   -2.6892845   -1.9756395  0.077003974   -2.6892845   0.71364503   418189 
  559000   0.68445014    -2.689683    -2.689683   -1.9762355  0.078507803    -2.689683   0.71344756   418189 
  560000   0.68336946   -2.6887655   -2.6887655   -1.9764444  0.065285207   -2.6887655    0.7123211   418189 
  561000   0.68356359   -2.6898327   -2.6898327   -1.9773093  0.069202209   -2.6898327   0.71252345   418189 
  562000   0.68461055   -2.6910276   -2.6910276   -1.9774128  0.069580058   -2.6910276   0.71361477   418189 
  563000   0.68464915   -2.6916797   -2.6916797   -1.9780247  0.081832933   -2.6916797     0.713655   418189 
  564000   0.68377244    -2.690977    -2.690977   -1.9782358  0.070460873    -2.690977   0.71274115   418189 
  565000   0.68445064     -2.69207     -2.69207    -1.978622  0.075845232     -2.69207   0.71344808   418189 
  566000    0.6851058   -2.6926952   -2.6926952   -1.9785642  0.079836217   -2.6926952     0.714131   418189 
  567000   0.68446819   -2.6929423   -2.6929423   -1.9794759  0.065773343   -2.6929423   0.71346637   418189 
  568000   0.68386454   -2.6927637   -2.6927637   -1.9799265  0.075341534   -2.6927637   0.71283715   418189 
  569000   0.68372714   -2.6934562   -2.6934562   -1.9807623  0.070291016   -2.6934562   0.71269393   418189 
  570000   0.68333771   -2.6928729   -2.6928729   -1.9805849   0.08580091   -2.6928729   0.71228801   418189 
  571000   0.68257618   -2.6924259   -2.6924259   -1.9809317  0.078546173   -2.6924259   0.71149422   418189 
  572000   0.68267915   -2.6921366   -2.6921366   -1.9805351  0.070590984   -2.6921366   0.71160154   418189 
  573000   0.68434189   -2.6943029   -2.6943029   -1.9809682  0.065377042   -2.6943029   0.71333473   418189 
  574000   0.68295654   -2.6930026   -2.6930026   -1.9811119  0.073794914   -2.6930026   0.71189069   418189 
  575000   0.68245547   -2.6928147   -2.6928147   -1.9814463  0.064056148   -2.6928147   0.71136839   418189 
  576000    0.6827551   -2.6939137   -2.6939137    -1.982233  0.075858382   -2.6939137   0.71168071   418189 
  577000   0.68326424   -2.6955226   -2.6955226   -1.9833112  0.063648046   -2.6955226   0.71221142   418189 
  578000   0.68333649   -2.6967729   -2.6967729   -1.9844862  0.073049587   -2.6967729   0.71228673   418189 
  579000   0.68315402   -2.6968919   -2.6968919   -1.9847954  0.070685032   -2.6968919   0.71209653   418189 
  580000   0.68369104   -2.6970313   -2.6970313    -1.984375  0.076636445   -2.6970313    0.7126563   418189 
  581000   0.68085981   -2.6943875   -2.6943875   -1.9846824  0.075390968   -2.6943875   0.70970512   418189 
  582000   0.68263885    -2.696847    -2.696847   -1.9852875  0.074801805    -2.696847   0.71155953   418189 
  583000   0.68212292   -2.6967489   -2.6967489   -1.9857272   0.07551471   -2.6967489   0.71102175   418189 
  584000   0.68183682   -2.6971388   -2.6971388   -1.9864153  0.076315791   -2.6971388   0.71072352   418189 
  585000   0.68096848   -2.6969476   -2.6969476   -1.9871292  0.074140579   -2.6969476   0.70981839   418189 
  586000   0.68176167   -2.6988102   -2.6988102    -1.988165  0.066492802   -2.6988102   0.71064519   418189 
  587000   0.68035996   -2.6973098   -2.6973098   -1.9881257  0.072967899   -2.6973098   0.70918409   418189 
  588000   0.68006406   -2.6973272   -2.6973272   -1.9884515  0.078405895   -2.6973272   0.70887566   418189 
  589000   0.68078508   -2.6983684   -2.6983684   -1.9887411  0.065784664   -2.6983684   0.70962722   418189 
  590000   0.68226215   -2.6996055   -2.6996055   -1.9884386  0.070125279   -2.6996055   0.71116687   418189 
  591000   0.68072135   -2.6988039   -2.6988039   -1.9892431  0.071850991   -2.6988039    0.7095608   418189 
  592000   0.68024563   -2.6994015   -2.6994015   -1.9903366  0.074776666   -2.6994015   0.70906492   418189 
  593000   0.68111034   -2.7005946   -2.7005946   -1.9906283  0.072365934   -2.7005946   0.70996627   418189 
  594000   0.68210158   -2.7023776   -2.7023776   -1.9913781  0.072105032   -2.7023776   0.71099951   418189 
  595000   0.68180303   -2.7021917   -2.7021917   -1.9915034  0.079808649   -2.7021917   0.71068831   418189 
  596000   0.68152838   -2.7020485   -2.7020485   -1.9916465  0.074996299   -2.7020485   0.71040202   418189 
  597000   0.68188002    -2.703172    -2.703172   -1.9924034  0.072839367    -2.703172   0.71076856   418189 
  598000   0.68052181   -2.7021764   -2.7021764   -1.9928236  0.077717765   -2.7021764   0.70935281   418189 
  599000   0.68009816   -2.7022524   -2.7022524   -1.9933412  0.065911111   -2.7022524    0.7089112   418189 
  600000    0.6806407   -2.7029769   -2.7029769   -1.9935002   0.07970592   -2.7029769   0.70947673   418189 
  601000    0.6795488   -2.7025769   -2.7025769   -1.9942383  0.072491707   -2.7025769   0.70833858   418189 
  602000   0.67954598   -2.7030646   -2.7030646    -1.994729  0.065306217   -2.7030646   0.70833563   418189 
  603000   0.67862545   -2.7025117   -2.7025117   -1.9951356  0.067428337   -2.7025117   0.70737611   418189 
  604000   0.67944587   -2.7047595   -2.7047595   -1.9965282  0.074207124   -2.7047595   0.70823128   418189 
  605000   0.67985287   -2.7050636   -2.7050636   -1.9964081  0.066818654   -2.7050636   0.70865553   418189 
  606000   0.67978013   -2.7048773   -2.7048773   -1.9962976  0.074908743   -2.7048773    0.7085797   418189 
  607000   0.67940278   -2.7053252   -2.7053252   -1.9971389  0.071387254   -2.7053252   0.70818637   418189 
  608000   0.67964478   -2.7052442   -2.7052442   -1.9968056  0.068595815   -2.7052442   0.70843862   418189 
  609000   0.67990977    -2.705414    -2.705414   -1.9966991  0.075057017    -2.705414   0.70871484   418189 
  610000   0.68010787   -2.7054542   -2.7054542   -1.9965328  0.068416128   -2.7054542   0.70892132   418189 
  611000   0.67936398   -2.7048047   -2.7048047   -1.9966588  0.064943182   -2.7048047   0.70814592   418189 
  612000   0.67901042   -2.7052621   -2.7052621   -1.9974847  0.060235026   -2.7052621   0.70777738   418189 
  613000   0.67808991   -2.7039627   -2.7039627   -1.9971448  0.072588977   -2.7039627   0.70681788   418189 
  614000   0.67971926   -2.7063955   -2.7063955   -1.9978792  0.064574459   -2.7063955   0.70851625   418189 
  615000    0.6796807   -2.7060196   -2.7060196   -1.9975435    0.0829939   -2.7060196   0.70847607   418189 
  616000   0.67819693   -2.7053264   -2.7053264    -1.998397  0.072534618   -2.7053264   0.70692943   418189 
  617000   0.67880273   -2.7062862   -2.7062862   -1.9987253  0.075019678   -2.7062862   0.70756089   418189 
  618000   0.67860141     -2.70696     -2.70696    -1.999609  0.080669084     -2.70696   0.70735104   418189 
  619000   0.67919911   -2.7082401   -2.7082401    -2.000266  0.075927436   -2.7082401   0.70797406   418189 
  620000   0.67761722   -2.7071393   -2.7071393   -2.0008142  0.069391699   -2.7071393   0.70632516   418189 
  621000   0.67831094   -2.7078816   -2.7078816   -2.0008333  0.066780126   -2.7078816   0.70704827   418189 
  622000   0.67813426   -2.7083215   -2.7083215   -2.0014574  0.070009616   -2.7083215    0.7068641   418189 
  623000   0.67768667   -2.7083176   -2.7083176   -2.0019201  0.072531426   -2.7083176   0.70639755   418189 
  624000    0.6783207     -2.70907     -2.70907   -2.0020115  0.083068244     -2.70907   0.70705845   418189 
  625000   0.67962087    -2.710788    -2.710788   -2.0023743  0.068658932    -2.710788    0.7084137   418189 
  626000   0.67715721      -2.7087      -2.7087   -2.0028543  0.066040238      -2.7087   0.70584566   418189 
  627000   0.67763666   -2.7097897   -2.7097897   -2.0034443  0.064718487   -2.7097897   0.70634542   418189 
  628000   0.67805299    -2.710137    -2.710137   -2.0033576  0.074504901    -2.710137   0.70677939   418189 
  629000   0.67741475   -2.7096408   -2.7096408   -2.0035266  0.067453897   -2.7096408   0.70611412   418189 
  630000   0.67766278   -2.7094874   -2.7094874   -2.0031148  0.067428559   -2.7094874   0.70637264   418189 
  631000    0.6782414   -2.7099506   -2.7099506   -2.0029748  0.075557288   -2.7099506   0.70697578   418189 
  632000   0.67651165    -2.708143    -2.708143   -2.0029703  0.070542959    -2.708143   0.70517275   418189 
  633000    0.6765773   -2.7084525   -2.7084525   -2.0032114  0.058207551   -2.7084525   0.70524118   418189 
  634000   0.67728179   -2.7098117   -2.7098117   -2.0038362  0.072583246   -2.7098117   0.70597552   418189 
  635000    0.6783743   -2.7116277   -2.7116277   -2.0045133  0.069445932   -2.7116277   0.70711431   418189 
  636000   0.67642349   -2.7099703   -2.7099703   -2.0048895  0.078545245   -2.7099703   0.70508086   418189 
  637000   0.67620744   -2.7100104   -2.7100104   -2.0051548  0.072019932   -2.7100104   0.70485565   418189 
  638000   0.67656377   -2.7105555   -2.7105555   -2.0053284  0.070124582   -2.7105555   0.70522708   418189 
  639000   0.67481252   -2.7096227   -2.7096227   -2.0062211  0.069030871   -2.7096227   0.70340164   418189 
  640000   0.67602213   -2.7113137   -2.7113137   -2.0066512  0.080899557   -2.7113137    0.7046625   418189 
  641000   0.67699671   -2.7129172   -2.7129172   -2.0072388  0.064546013   -2.7129172   0.70567836   418189 
  642000   0.67665077   -2.7131665   -2.7131665   -2.0078487   0.06834761   -2.7131665   0.70531776   418189 
  643000   0.67589676   -2.7131838   -2.7131838    -2.008652  0.074416158   -2.7131838   0.70453181   418189 
  644000   0.67636662   -2.7130924   -2.7130924   -2.0080708  0.072324624   -2.7130924   0.70502157   418189 
  645000   0.67602827   -2.7133695   -2.7133695   -2.0087006  0.074301464   -2.7133695   0.70466889   418189 
  646000   0.67710268   -2.7145251   -2.7145251   -2.0087363  0.060043944   -2.7145251   0.70578882   418189 
  647000   0.67487346   -2.7126663   -2.7126663   -2.0092011  0.067541812   -2.7126663   0.70346516   418189 
  648000   0.67504131   -2.7133031   -2.7133031    -2.009663  0.067976631   -2.7133031   0.70364012   418189 
  649000   0.67494936   -2.7137404   -2.7137404   -2.0101961  0.075773023   -2.7137404   0.70354428   418189 
  650000   0.67544836   -2.7142986   -2.7142986   -2.0102342  0.066350202   -2.7142986   0.70406441   418189 
  651000   0.67607565   -2.7162694   -2.7162694   -2.0115511  0.072602731   -2.7162694   0.70471828   418189 
  652000   0.67528051   -2.7157109   -2.7157109   -2.0118214  0.061727767   -2.7157109   0.70388945   418189 
  653000   0.67608836   -2.7168123   -2.7168123   -2.0120808  0.058188448   -2.7168123   0.70473152   418189 
  654000   0.67527146   -2.7165819   -2.7165819   -2.0127019  0.070382895   -2.7165819   0.70388001   418189 
  655000   0.67529194   -2.7171903   -2.7171903    -2.013289  0.055641652   -2.7171903   0.70390136   418189 
  656000   0.67334686   -2.7155757   -2.7155757   -2.0137018  0.063014873   -2.7155757   0.70187388   418189 
  657000   0.67537197   -2.7173574   -2.7173574   -2.0133726  0.074773967   -2.7173574   0.70398479   418189 
  658000   0.67578434   -2.7180895   -2.7180895   -2.0136748  0.066123572   -2.7180895   0.70441463   418189 
  659000    0.6745741   -2.7169526   -2.7169526   -2.0137995   0.06125234   -2.7169526   0.70315311   418189 
  660000   0.67552546   -2.7180545   -2.7180545   -2.0139097  0.057156032   -2.7180545   0.70414478   418189 
  661000   0.67332306   -2.7169296   -2.7169296   -2.0150805  0.072321662   -2.7169296   0.70184907   418189 
  662000    0.6753647   -2.7190855   -2.7190855   -2.0151083  0.056718482   -2.7190855    0.7039772   418189 
  663000   0.67395284   -2.7175614   -2.7175614   -2.0150559  0.067958612   -2.7175614   0.70250554   418189 
  664000    0.6727801   -2.7161037   -2.7161037   -2.0148206  0.074696902   -2.7161037   0.70128311   418189 
  665000   0.67354447    -2.717427    -2.717427   -2.0153471  0.060036467    -2.717427   0.70207986   418189 
  666000   0.67287462   -2.7164265   -2.7164265   -2.0150448  0.063206194   -2.7164265   0.70138164   418189 
  667000   0.67381536   -2.7177771   -2.7177771   -2.0154149  0.061274286   -2.7177771   0.70236223   418189 
  668000    0.6725399   -2.7170033   -2.7170033   -2.0159705  0.061737003   -2.7170033   0.70103273   418189 
  669000   0.67343237   -2.7178727   -2.7178727   -2.0159097   0.06562874   -2.7178727   0.70196301   418189 
  670000   0.67367957   -2.7186004   -2.7186004   -2.0163797  0.073959355   -2.7186004   0.70222068   418189 
  671000   0.67340984   -2.7190108   -2.7190108   -2.0170712    0.0712112   -2.7190108   0.70193953   418189 
  672000   0.67271445   -2.7183544   -2.7183544   -2.0171397  0.072806859   -2.7183544   0.70121468   418189 
  673000   0.67429019    -2.719871    -2.719871   -2.0170138  0.058183601    -2.719871   0.70285717   418189 
  674000   0.67261227   -2.7188947   -2.7188947   -2.0177865  0.071600991   -2.7188947   0.70110817   418189 
  675000   0.67307373   -2.7196974   -2.7196974   -2.0181082  0.065433903   -2.7196974   0.70158918   418189 
  676000   0.67224073   -2.7179594   -2.7179594   -2.0172385  0.066284269   -2.7179594   0.70072088   418189 
  677000   0.67237457   -2.7187952   -2.7187952   -2.0179348  0.064587509   -2.7187952   0.70086039   418189 
  678000   0.67347108   -2.7197753   -2.7197753    -2.017772  0.062248425   -2.7197753   0.70200336   418189 
  679000   0.67357539   -2.7209255   -2.7209255   -2.0188134  0.070222175   -2.7209255   0.70211209   418189 
  680000   0.67300758   -2.7206029   -2.7206029   -2.0190827  0.065735966   -2.7206029   0.70152023   418189 
  681000   0.67345138   -2.7215542   -2.7215542   -2.0195714   0.06551161   -2.7215542   0.70198283   418189 
  682000   0.67238553   -2.7209553   -2.7209553   -2.0200835  0.077047029   -2.7209553   0.70087183   418189 
  683000   0.67279546   -2.7218169   -2.7218169   -2.0205178  0.065768201   -2.7218169   0.70129912   418189 
  684000   0.67365103   -2.7229778   -2.7229778   -2.0207868  0.059423652   -2.7229778   0.70219094   418189 
  685000   0.67077006   -2.7204215   -2.7204215   -2.0212336  0.063229204   -2.7204215   0.69918792   418189 
  686000   0.67136421   -2.7211422   -2.7211422    -2.021335  0.067426882   -2.7211422   0.69980723   418189 
  687000   0.67237588   -2.7223599   -2.7223599   -2.0214982  0.081925885   -2.7223599   0.70086177   418189 
  688000   0.67238577   -2.7220218   -2.7220218   -2.0211497   0.05697808   -2.7220218   0.70087207   418189 
  689000   0.67103558   -2.7210058   -2.7210058   -2.0215411  0.060509979   -2.7210058   0.69946468   418189 
  690000   0.67247539   -2.7240006   -2.7240006   -2.0230351  0.058744522   -2.7240006   0.70096549   418189 
  691000   0.67235698   -2.7239158   -2.7239158   -2.0230738  0.053765907   -2.7239158   0.70084206   418189 
  692000   0.67201916   -2.7246432   -2.7246432   -2.0241533  0.062676924   -2.7246432   0.70048993   418189 
  693000   0.67221351   -2.7247252   -2.7247252   -2.0240326  0.052747489   -2.7247252   0.70069251   418189 
  694000    0.6705778   -2.7239924   -2.7239924   -2.0250049   0.06767907   -2.7239924   0.69898751   418189 
  695000   0.66996415   -2.7236687   -2.7236687   -2.0253208  0.069515229   -2.7236687   0.69834786   418189 
  696000   0.67026306   -2.7242541   -2.7242541   -2.0255947  0.057970916   -2.7242541   0.69865943   418189 
  697000   0.67034024   -2.7245045   -2.7245045   -2.0257647  0.070872577   -2.7245045   0.69873988   418189 
  698000   0.67121426   -2.7253212   -2.7253212   -2.0256702  0.074254524   -2.7253212   0.69965093   418189 
  699000   0.67021774   -2.7244151   -2.7244151   -2.0258029  0.072862824   -2.7244151   0.69861219   418189 
  700000    0.6711136   -2.7264615   -2.7264615   -2.0269155  0.066680825   -2.7264615   0.69954601   418189 
  701000   0.66973626   -2.7253556   -2.7253556   -2.0272453  0.067720211   -2.7253556   0.69811031   418189 
  702000   0.67119077   -2.7272388   -2.7272388   -2.0276123  0.073498714   -2.7272388   0.69962645   418189 
  703000   0.66989332   -2.7259443   -2.7259443   -2.0276702  0.058532169   -2.7259443   0.69827402   418189 
  704000   0.67019139   -2.7266068   -2.7266068   -2.0280221  0.074569146   -2.7266068   0.69858473   418189 
  705000   0.66974618   -2.7270127   -2.7270127    -2.028892  0.070099485   -2.7270127   0.69812065   418189 
  706000   0.67013153   -2.7277141   -2.7277141   -2.0291918   0.07000673   -2.7277141   0.69852233   418189 
  707000   0.66959043   -2.7267737   -2.7267737   -2.0288154  0.064489791   -2.7267737    0.6979583   418189 
  708000   0.66898396    -2.726363    -2.726363   -2.0290369  0.054792293    -2.726363   0.69732614   418189 
  709000   0.67063285   -2.7281314   -2.7281314   -2.0290866  0.065830297   -2.7281314   0.69904489   418189 
  710000   0.67047235   -2.7283068   -2.7283068   -2.0294293   0.07972167   -2.7283068   0.69887759   418189 
  711000   0.66952558   -2.7282182   -2.7282182   -2.0303275  0.067716916   -2.7282182    0.6978907   418189 
  712000   0.66859284   -2.7279124   -2.7279124   -2.0309939  0.071661141   -2.7279124   0.69691845   418189 
  713000   0.66919193   -2.7286827   -2.7286827   -2.0311398  0.074773815   -2.7286827   0.69754293   418189 
  714000   0.66860732   -2.7288944   -2.7288944   -2.0319609   0.07082968   -2.7288944   0.69693355   418189 
  715000   0.67172458   -2.7318689   -2.7318689    -2.031686  0.064840096   -2.7318689   0.70018287   418189 
  716000    0.6703261   -2.7307873   -2.7307873   -2.0320621  0.067719452   -2.7307873   0.69872514   418189 
  717000   0.66820953   -2.7290784   -2.7290784   -2.0325595  0.062599555   -2.7290784   0.69651891   418189 
  718000    0.6687916   -2.7304886   -2.7304886    -2.033363  0.061894164   -2.7304886   0.69712564   418189 
  719000   0.66882338   -2.7306866   -2.7306866   -2.0335279  0.067759351   -2.7306866   0.69715876   418189 
  720000   0.66956903   -2.7319788   -2.7319788   -2.0340428  0.055464271   -2.7319788     0.697936   418189 
  721000   0.66985242   -2.7316979   -2.7316979   -2.0334665  0.066204418   -2.7316979   0.69823139   418189 
  722000   0.66862826    -2.731319    -2.731319   -2.0343636  0.061843901    -2.731319   0.69695537   418189 
  723000   0.66852945   -2.7315754   -2.7315754    -2.034723  0.063394894   -2.7315754   0.69685238   418189 
  724000   0.66902376   -2.7323932   -2.7323932   -2.0350256  0.061925299   -2.7323932   0.69736763   418189 
  725000   0.66686534   -2.7308645   -2.7308645   -2.0357468  0.070587773   -2.7308645   0.69511776   418189 
  726000   0.67036232   -2.7346501   -2.7346501   -2.0358872  0.073336919   -2.7346501    0.6987629   418189 
  727000   0.66834734   -2.7322681   -2.7322681   -2.0356056  0.066123876   -2.7322681   0.69666256   418189 
  728000   0.66906946   -2.7326499   -2.7326499   -2.0352346  0.056892968   -2.7326499   0.69741526   418189 
  729000   0.66941749   -2.7328669   -2.7328669   -2.0350889  0.054070721   -2.7328669   0.69777804   418189 
  730000   0.66826311   -2.7331745   -2.7331745   -2.0365998  0.074078216   -2.7331745   0.69657475   418189 
  731000   0.66821465   -2.7335252   -2.7335252   -2.0370009  0.059859557   -2.7335252   0.69652423   418189 
  732000   0.66890812   -2.7338665   -2.7338665   -2.0366194  0.060380307   -2.7338665   0.69724709   418189 
  733000   0.66797074   -2.7329255   -2.7329255   -2.0366555  0.053035735   -2.7329255      0.69627   418189 
  734000   0.66945913   -2.7344098   -2.7344098   -2.0365883  0.068340993   -2.7344098   0.69782145   418189 
  735000   0.66756871   -2.7339577   -2.7339577   -2.0381067  0.062983522   -2.7339577   0.69585093   418189 
  736000    0.6664605   -2.7334849   -2.7334849   -2.0387891  0.060285705   -2.7334849   0.69469578   418189 
  737000   0.66760834   -2.7344144   -2.7344144   -2.0385222  0.061927058   -2.7344144   0.69589224   418189 
  738000   0.66863399   -2.7356722   -2.7356722   -2.0387109  0.072616105   -2.7356722   0.69696134   418189 
  739000   0.66903203   -2.7363117   -2.7363117   -2.0389355  0.063666608   -2.7363117   0.69737625   418189 
  740000   0.66858637   -2.7365433   -2.7365433   -2.0396315  0.053890164   -2.7365433   0.69691171   418189 
  741000    0.6669047   -2.7346886   -2.7346886   -2.0395298  0.063461859   -2.7346886   0.69515879   418189 
  742000    0.6687232   -2.7365367   -2.7365367   -2.0394824  0.071627667   -2.7365367   0.69705433   418189 
  743000   0.66871758   -2.7372526   -2.7372526   -2.0402041   0.06375258   -2.7372526   0.69704847   418189 
  744000   0.66857118    -2.737325    -2.737325   -2.0404291  0.066339892    -2.737325   0.69689588   418189 
  745000   0.66771466   -2.7365899   -2.7365899   -2.0405868  0.068250194   -2.7365899   0.69600307   418189 
  746000   0.66709821   -2.7363153   -2.7363153   -2.0409548  0.067787905   -2.7363153    0.6953605   418189 
  747000   0.66639466   -2.7363713   -2.7363713   -2.0417441  0.063761262   -2.7363713   0.69462714   418189 
  748000   0.66675545   -2.7366028   -2.7366028   -2.0415996  0.051815991   -2.7366028   0.69500322   418189 
  749000   0.66615868   -2.7363453   -2.7363453   -2.0419642  0.065619516   -2.7363453   0.69438117   418189 
  750000   0.66691051   -2.7377936   -2.7377936   -2.0426287  0.060795816   -2.7377936   0.69516485   418189 
  751000    0.6658705   -2.7374179   -2.7374179   -2.0433371  0.060371157   -2.7374179   0.69408078   418189 
  752000   0.66562198   -2.7370082   -2.7370082   -2.0431865  0.071439697   -2.7370082   0.69382172   418189 
  753000   0.66666896   -2.7383426   -2.7383426   -2.0434295  0.059179727   -2.7383426   0.69491307   418189 
  754000   0.66670388   -2.7385326   -2.7385326   -2.0435831   0.06389266   -2.7385326   0.69494947   418189 
  755000   0.66628055   -2.7385768   -2.7385768   -2.0440686  0.060971338   -2.7385768    0.6945082   418189 
  756000   0.66501745   -2.7369542   -2.7369542   -2.0437626  0.051023299   -2.7369542   0.69319159   418189 
  757000   0.66627315   -2.7378882   -2.7378882   -2.0433878  0.068380706   -2.7378882   0.69450048   418189 
  758000   0.66559024   -2.7384726   -2.7384726   -2.0446839  0.062749451   -2.7384726   0.69378864   418189 
  759000   0.66641994   -2.7389703   -2.7389703   -2.0443168  0.061481894   -2.7389703   0.69465349   418189 
  760000   0.66409792    -2.737632    -2.737632   -2.0453989  0.059210273    -2.737632    0.6922331   418189 
  761000   0.66483582   -2.7384236   -2.7384236   -2.0454214  0.066865431   -2.7384236   0.69300226   418189 
  762000   0.66606108   -2.7402897   -2.7402897   -2.0460103  0.064748288   -2.7402897   0.69427943   418189 
  763000   0.66491265    -2.739785    -2.739785   -2.0467027  0.060332821    -2.739785   0.69308234   418189 
  764000   0.66510961   -2.7407081   -2.7407081   -2.0474204   0.05322795   -2.7407081   0.69328765   418189 
  765000   0.66433023   -2.7396618   -2.7396618   -2.0471865  0.058649897   -2.7396618   0.69247525   418189 
  766000   0.66564439   -2.7413158   -2.7413158   -2.0474707  0.064254698   -2.7413158   0.69384508   418189 
  767000   0.66588779   -2.7418531   -2.7418531   -2.0477543  0.059055461   -2.7418531    0.6940988   418189 
  768000   0.66664553   -2.7429729   -2.7429729   -2.0480842  0.072508445   -2.7429729   0.69488864   418189 
  769000   0.66553617   -2.7430977   -2.7430977   -2.0493654  0.060754688   -2.7430977   0.69373228   418189 
  770000    0.6655218   -2.7431125   -2.7431125   -2.0493952  0.066231093   -2.7431125    0.6937173   418189 
  771000   0.66558976   -2.7438604   -2.7438604   -2.0500723  0.072709808   -2.7438604   0.69378814   418189 
  772000   0.66407961   -2.7425294   -2.7425294   -2.0503154  0.064377836   -2.7425294   0.69221401   418189 
  773000   0.66451452   -2.7434219   -2.7434219   -2.0507546  0.069043905   -2.7434219   0.69266735   418189 
  774000   0.66482641     -2.74391     -2.74391   -2.0509175  0.058501049     -2.74391   0.69299245   418189 
  775000   0.66530162    -2.744648    -2.744648   -2.0511602  0.068491449    -2.744648    0.6934878   418189 
  776000   0.66359226   -2.7439214   -2.7439214   -2.0522154  0.071757626   -2.7439214   0.69170602   418189 
  777000   0.66529155   -2.7460697   -2.7460697   -2.0525924  0.055700544   -2.7460697    0.6934773   418189 
  778000   0.66445854   -2.7455944   -2.7455944   -2.0529854  0.056987281   -2.7455944     0.692609   418189 
  779000   0.66539482   -2.7462146   -2.7462146   -2.0526297  0.053405513   -2.7462146   0.69358495   418189 
  780000   0.66544506   -2.7461407   -2.7461407   -2.0525034  0.067108941   -2.7461407   0.69363731   418189 
  781000   0.66359331   -2.7447188   -2.7447188   -2.0530117  0.054600596   -2.7447188   0.69170712   418189 
  782000   0.66363198   -2.7451214   -2.7451214   -2.0533739  0.060738217   -2.7451214   0.69174742   418189 
  783000   0.66357955   -2.7451078   -2.7451078    -2.053415  0.058075887   -2.7451078   0.69169277   418189 
  784000   0.66461629   -2.7462761   -2.7462761   -2.0535027  0.052313175   -2.7462761   0.69277343   418189 
  785000   0.66324991   -2.7457311   -2.7457311   -2.0543819  0.063644185   -2.7457311   0.69134917   418189 
  786000   0.66348357   -2.7455352   -2.7455352   -2.0539424  0.062278935   -2.7455352   0.69159272   418189 
  787000   0.66304232   -2.7457055   -2.7457055   -2.0545727   0.07342035   -2.7457055   0.69113278   418189 
  788000   0.66270529   -2.7452944   -2.7452944    -2.054513  0.066698249   -2.7452944   0.69078147   418189 
  789000   0.66248817   -2.7458189   -2.7458189   -2.0552638  0.058102638   -2.7458189   0.69055515   418189 
  790000   0.66184968   -2.7458766   -2.7458766    -2.055987  0.056419202   -2.7458766   0.68988962   418189 
  791000   0.66434006   -2.7483736   -2.7483736   -2.0558881  0.055133374   -2.7483736   0.69248549   418189 
  792000   0.66165444   -2.7467354   -2.7467354   -2.0570493  0.063335965   -2.7467354    0.6896861   418189 
  793000   0.66251331   -2.7478702   -2.7478702   -2.0572888  0.062048306   -2.7478702   0.69058136   418189 
  794000   0.66184238   -2.7476245   -2.7476245   -2.0577425  0.063038497   -2.7476245     0.689882   418189 
  795000   0.66256617   -2.7482639   -2.7482639   -2.0576274  0.054893423   -2.7482639   0.69063645   418189 
  796000   0.66284279   -2.7484689   -2.7484689   -2.0575441  0.068455303   -2.7484689    0.6909248   418189 
  797000   0.66401875   -2.7507395   -2.7507395   -2.0585889  0.065051968   -2.7507395   0.69215058   418189 
  798000   0.66304131   -2.7492166   -2.7492166   -2.0580849  0.066622464   -2.7492166   0.69113172   418189 
  799000   0.66384107   -2.7502505   -2.7502505   -2.0582852  0.054759217   -2.7502505   0.69196536   418189 
  800000   0.66310519   -2.7504946   -2.7504946   -2.0592963  0.052047025   -2.7504946   0.69119831   418189 
  801000   0.66285885   -2.7501952   -2.7501952   -2.0592537  0.068768242   -2.7501952   0.69094153   418189 
  802000   0.66277162   -2.7503807   -2.7503807   -2.0595301  0.062349164   -2.7503807   0.69085061   418189 
  803000   0.66237257   -2.7508995   -2.7508995   -2.0604648  0.063305959   -2.7508995   0.69043466   418189 
  804000   0.66121958   -2.7507368   -2.7507368    -2.061504  0.065092145   -2.7507368   0.68923282   418189 
  805000   0.66192363    -2.751893    -2.751893   -2.0619263  0.056990095    -2.751893   0.68996669   418189 
  806000   0.66176623   -2.7518877   -2.7518877    -2.062085  0.057263503   -2.7518877   0.68980262   418189 
  807000   0.66215214   -2.7522759   -2.7522759   -2.0620711  0.057082749   -2.7522759   0.69020489   418189 
  808000   0.66208116   -2.7527881   -2.7527881   -2.0626572  0.061820904   -2.7527881   0.69013089   418189 
  809000   0.66354524   -2.7544174   -2.7544174   -2.0627604   0.06725903   -2.7544174     0.691657   418189 
  810000   0.66258819   -2.7534404   -2.7534404    -2.062781   0.06273744   -2.7534404   0.69065941   418189 
  811000   0.66281405   -2.7539901   -2.7539901   -2.0630953  0.059461818   -2.7539901   0.69089484   418189 
  812000   0.66195586   -2.7531812   -2.7531812    -2.063181  0.059779084   -2.7531812   0.69000029   418189 
  813000   0.66112503   -2.7522517   -2.7522517   -2.0631174  0.059713048   -2.7522517   0.68913426   418189 
  814000   0.66242047   -2.7544307   -2.7544307   -2.0639461   0.04625662   -2.7544307   0.69048459   418189 
  815000   0.66101063    -2.753139    -2.753139    -2.064124  0.051886933    -2.753139   0.68901502   418189 
  816000   0.66195482    -2.753319    -2.753319   -2.0633198  0.059923224    -2.753319   0.68999921   418189 
  817000   0.66083193   -2.7530941   -2.7530941   -2.0642653  0.055668336   -2.7530941   0.68882874   418189 
  818000   0.66049781   -2.7528106   -2.7528106   -2.0643302  0.062134606   -2.7528106   0.68848047   418189 
  819000   0.66259547   -2.7551315   -2.7551315   -2.0644645  0.065095723   -2.7551315     0.690667   418189 
  820000   0.66238627   -2.7553543   -2.7553543   -2.0649053  0.070200584   -2.7553543   0.69044893   418189 
  821000   0.66113882   -2.7544193   -2.7544193   -2.0652707  0.053873926   -2.7544193   0.68914863   418189 
  822000   0.66130444   -2.7543374   -2.7543374   -2.0650161  0.058926722   -2.7543374   0.68932127   418189 
  823000   0.66184393   -2.7549246   -2.7549246    -2.065041  0.069818628   -2.7549246   0.68988362   418189 
  824000   0.66278505   -2.7555918   -2.7555918   -2.0647272  0.053751182   -2.7555918   0.69086461   418189 
  825000   0.66207905   -2.7551586   -2.7551586   -2.0650299  0.055581616   -2.7551586    0.6901287   418189 
  826000   0.66014993   -2.7536162   -2.7536162   -2.0654983  0.065031584   -2.7536162   0.68811784   418189 
  827000   0.66016045   -2.7543283   -2.7543283   -2.0661995  0.059048136   -2.7543283   0.68812881   418189 
  828000   0.66155561    -2.755499    -2.755499   -2.0659159  0.052555258    -2.755499   0.68958308   418189 
  829000   0.66136371   -2.7552957   -2.7552957   -2.0659126  0.065364818   -2.7552957   0.68938305   418189 
  830000   0.66012325   -2.7554879   -2.7554879   -2.0673979   0.06243822   -2.7554879   0.68809004   418189 
  831000   0.66001228   -2.7558183   -2.7558183   -2.0678439  0.075314903   -2.7558183   0.68797437   418189 
  832000   0.66058011   -2.7571294   -2.7571294   -2.0685632  0.054610964   -2.7571294   0.68856625   418189 
  833000   0.65911002   -2.7556956   -2.7556956   -2.0686617  0.057482269   -2.7556956   0.68703389   418189 
  834000   0.65936943   -2.7557389   -2.7557389   -2.0684346  0.052096665   -2.7557389   0.68730428   418189 
  835000   0.66052785   -2.7567362   -2.7567362   -2.0682244  0.059440357   -2.7567362   0.68851178   418189 
  836000   0.66095488   -2.7575364   -2.7575364   -2.0685795  0.060117075   -2.7575364    0.6889569   418189 
  837000   0.66024745   -2.7565796   -2.7565796   -2.0683601    0.0672106   -2.7565796   0.68821951   418189 
  838000   0.65930824   -2.7556676   -2.7556676   -2.0684271  0.059786053   -2.7556676    0.6872405   418189 
  839000   0.66057641   -2.7576028   -2.7576028   -2.0690404  0.055943751   -2.7576028    0.6885624   418189 
  840000   0.66201362    -2.758865    -2.758865   -2.0688045  0.055098914    -2.758865    0.6900605   418189 
  841000   0.66219196   -2.7590731   -2.7590731   -2.0688267  0.060861277   -2.7590731    0.6902464   418189 
  842000   0.66051152   -2.7583019   -2.7583019   -2.0698072  0.059967215   -2.7583019   0.68849476   418189 
  843000   0.65965486   -2.7581972   -2.7581972   -2.0705954  0.050004457   -2.7581972   0.68760181   418189 
  844000   0.66006735   -2.7593037   -2.7593037   -2.0712719  0.064419031   -2.7593037   0.68803177   418189 
  845000   0.66106318   -2.7608159   -2.7608159   -2.0717461  0.060801131   -2.7608159   0.68906979   418189 
  846000   0.65935693   -2.7600252   -2.7600252   -2.0727339  0.060193105   -2.7600252   0.68729126   418189 
  847000   0.66048755   -2.7621508   -2.7621508   -2.0736811  0.059042882   -2.7621508   0.68846977   418189 
  848000   0.66067747   -2.7621113   -2.7621113   -2.0734435  0.053601565   -2.7621113   0.68866774   418189 
  849000   0.65859374     -2.76008     -2.76008   -2.0735843  0.069225526     -2.76008   0.68649573   418189 
  850000   0.65899753   -2.7607322   -2.7607322   -2.0738156  0.059282779   -2.7607322   0.68691663   418189 
  851000   0.65970812    -2.761588    -2.761588   -2.0739307  0.062466578    -2.761588   0.68765732   418189 
  852000   0.65984287   -2.7620174   -2.7620174   -2.0742197  0.065058044   -2.7620174   0.68779778   418189 
  853000   0.66002848   -2.7626185   -2.7626185   -2.0746273  0.055285339   -2.7626185   0.68799125   418189 
  854000   0.65835612   -2.7617635   -2.7617635   -2.0755155  0.071686537   -2.7617635   0.68624804   418189 
  855000   0.65719537   -2.7620459   -2.7620459   -2.0770078  0.053925466   -2.7620459   0.68503812   418189 
  856000   0.65902754   -2.7635968   -2.7635968   -2.0766489  0.058867247   -2.7635968   0.68694791   418189 
  857000   0.65825505   -2.7632832   -2.7632832   -2.0771405  0.053591212   -2.7632832   0.68614269   418189 
  858000   0.65824236   -2.7628102   -2.7628102   -2.0766807  0.057135525   -2.7628102   0.68612946   418189 
  859000   0.65866606   -2.7636026   -2.7636026   -2.0770315   0.06696045   -2.7636026   0.68657112   418189 
  860000   0.65851822   -2.7632134   -2.7632134   -2.0767964  0.063599515   -2.7632134   0.68641701   418189 
  861000   0.65912504   -2.7648346   -2.7648346    -2.077785  0.061969101   -2.7648346   0.68704954   418189 
  862000   0.65805297   -2.7643678   -2.7643678   -2.0784357  0.050153947   -2.7643678   0.68593205   418189 
  863000   0.65792901   -2.7643426   -2.7643426   -2.0785397  0.051077465   -2.7643426   0.68580283   418189 
  864000   0.65889058   -2.7657378   -2.7657378   -2.0789327  0.051977823   -2.7657378   0.68680515   418189 
  865000   0.65737743   -2.7644179   -2.7644179   -2.0791901  0.065493811   -2.7644179   0.68522789   418189 
  866000   0.65806771   -2.7660594   -2.7660594    -2.080112  0.063623931   -2.7660594   0.68594742   418189 
  867000   0.65768024   -2.7659703   -2.7659703   -2.0804268  0.061157849   -2.7659703   0.68554353   418189 
  868000   0.65747485   -2.7647931   -2.7647931   -2.0794636  0.074181715   -2.7647931   0.68532944   418189 
  869000   0.65767966   -2.7650986   -2.7650986   -2.0795557  0.064489209   -2.7650986   0.68554292   418189 
  870000   0.65834554   -2.7665118   -2.7665118   -2.0802748  0.051070598   -2.7665118   0.68623702   418189 
  871000   0.65796916   -2.7665042   -2.7665042   -2.0806595   0.05766958   -2.7665042   0.68584468   418189 
  872000   0.65719001   -2.7654234   -2.7654234   -2.0803908  0.061021551   -2.7654234   0.68503253   418189 
  873000   0.65895266   -2.7668812   -2.7668812   -2.0800113  0.052860639   -2.7668812   0.68686986   418189 
  874000    0.6587906   -2.7671647   -2.7671647   -2.0804638  0.058214086   -2.7671647   0.68670093   418189 
  875000   0.65846031   -2.7666368   -2.7666368   -2.0802802   0.06619041   -2.7666368   0.68635665   418189 
  876000   0.65935288   -2.7675077   -2.7675077   -2.0802206  0.064184891   -2.7675077   0.68728703   418189 
  877000   0.65732383   -2.7662664   -2.7662664   -2.0810944   0.06073418   -2.7662664   0.68517202   418189 
  878000   0.65754865   -2.7664305   -2.7664305   -2.0810241  0.054083412   -2.7664305   0.68540637   418189 
  879000   0.65741218   -2.7663095   -2.7663095   -2.0810454  0.069301298   -2.7663095   0.68526411   418189 
  880000   0.65844558   -2.7675771   -2.7675771   -2.0812358  0.058168429   -2.7675771    0.6863413   418189 
  881000   0.65841567   -2.7673273   -2.7673273   -2.0810172  0.054540344   -2.7673273   0.68631011   418189 
  882000   0.65837255   -2.7681754   -2.7681754   -2.0819103  0.060383812   -2.7681754   0.68626517   418189 
  883000   0.65683139   -2.7670277   -2.7670277   -2.0823689  0.058202321   -2.7670277   0.68465872   418189 
  884000   0.65721846   -2.7679859   -2.7679859   -2.0829237  0.054265719   -2.7679859   0.68506218   418189 
  885000   0.65755159   -2.7681849   -2.7681849   -2.0827755  0.063047774   -2.7681849   0.68540943   418189 
  886000   0.65726489   -2.7683949   -2.7683949   -2.0832843  0.047454411   -2.7683949   0.68511058   418189 
  887000   0.65605703   -2.7678328   -2.7678328   -2.0839812  0.053767342   -2.7678328   0.68385155   418189 
  888000    0.6562058   -2.7686052   -2.7686052   -2.0845986  0.057264118   -2.7686052   0.68400662   418189 
  889000   0.65676161   -2.7688329   -2.7688329   -2.0842469  0.058281427   -2.7688329   0.68458598   418189 
  890000   0.65808524   -2.7707672   -2.7707672   -2.0848015  0.059005816   -2.7707672   0.68596569   418189 
  891000   0.65614557   -2.7683783   -2.7683783   -2.0844344  0.058767409   -2.7683783   0.68394384   418189 
  892000   0.65720469   -2.7703225   -2.7703225   -2.0852747  0.059556119   -2.7703225   0.68504783   418189 
  893000   0.65664796   -2.7696335   -2.7696335   -2.0851659  0.066928769   -2.7696335   0.68446752   418189 
  894000    0.6563414    -2.770513    -2.770513   -2.0863651  0.055069169    -2.770513   0.68414797   418189 
  895000   0.65693662   -2.7713395   -2.7713395   -2.0865711  0.061694851   -2.7713395   0.68476841   418189 
  896000   0.65702122   -2.7716928   -2.7716928   -2.0868362  0.066062009   -2.7716928   0.68485659   418189 
  897000   0.65747874   -2.7723907   -2.7723907   -2.0870572  0.057069316   -2.7723907   0.68533349   418189 
  898000   0.65734618   -2.7728093   -2.7728093   -2.0876139  0.044889119   -2.7728093   0.68519532   418189 
  899000   0.65594887    -2.771502    -2.771502   -2.0877632   0.05751458    -2.771502   0.68373881   418189 
  900000   0.65520875   -2.7704179   -2.7704179   -2.0874506  0.059095798   -2.7704179   0.68296733   418189 
  901000    0.6566961   -2.7720853   -2.7720853   -2.0875676  0.060552111   -2.7720853   0.68451769   418189 
  902000   0.65647314   -2.7722983   -2.7722983    -2.088013  0.057574196   -2.7722983   0.68428528   418189 
  903000   0.65545756    -2.770999    -2.770999   -2.0877723  0.071059103    -2.770999   0.68322668   418189 
  904000   0.65527176    -2.770743    -2.770743     -2.08771  0.050448729    -2.770743   0.68303301   418189 
  905000   0.65599823   -2.7721587   -2.7721587   -2.0883684  0.058146368   -2.7721587   0.68379026   418189 
  906000    0.6551446      -2.7712      -2.7712   -2.0882995  0.056617181      -2.7712   0.68290046   418189 
  907000   0.65675508   -2.7727341   -2.7727341    -2.088155  0.070799098   -2.7727341   0.68457918   418189 
  908000    0.6562256   -2.7715289   -2.7715289   -2.0875017  0.065380172   -2.7715289   0.68402726   418189 
  909000   0.65623799   -2.7721704   -2.7721704   -2.0881302  0.066742785   -2.7721704   0.68404018   418189 
  910000   0.65601173   -2.7732699   -2.7732699   -2.0894656  0.054562361   -2.7732699   0.68380433   418189 
  911000   0.65540356   -2.7722923   -2.7722923   -2.0891219  0.060707548   -2.7722923   0.68317039   418189 
  912000   0.65631252   -2.7740933   -2.7740933   -2.0899754   0.06644078   -2.7740933   0.68411786   418189 
  913000   0.65606332   -2.7739987   -2.7739987   -2.0901406   0.06848595   -2.7739987   0.68385811   418189 
  914000   0.65544066    -2.773779    -2.773779   -2.0905699  0.055865281    -2.773779   0.68320906   418189 
  915000    0.6551962   -2.7740068   -2.7740068   -2.0910525  0.056687068   -2.7740068   0.68295425   418189 
  916000   0.65495425   -2.7740225   -2.7740225   -2.0913204  0.050485866   -2.7740225   0.68270205   418189 
  917000    0.6536146   -2.7728432   -2.7728432   -2.0915375  0.059271497   -2.7728432   0.68130565   418189 
  918000   0.65474381   -2.7740317   -2.7740317    -2.091549  0.062660353   -2.7740317   0.68248269   418189 
  919000   0.65479623   -2.7745289   -2.7745289   -2.0919916  0.055047431   -2.7745289   0.68253733   418189 
  920000   0.65380151   -2.7737327   -2.7737327   -2.0922322  0.058969123   -2.7737327   0.68150047   418189 
  921000   0.65586159   -2.7757219   -2.7757219   -2.0920741  0.059145045   -2.7757219   0.68364782   418189 
  922000   0.65465606   -2.7749138   -2.7749138   -2.0925226  0.052169477   -2.7749138   0.68239122   418189 
  923000    0.6555544   -2.7756124   -2.7756124   -2.0922848  0.057868655   -2.7756124   0.68332762   418189 
  924000   0.65497842   -2.7755388   -2.7755388   -2.0928116  0.062931184   -2.7755388   0.68272724   418189 
  925000   0.65482384   -2.7757944   -2.7757944   -2.0932283  0.061455972   -2.7757944   0.68256612   418189 
  926000    0.6536348   -2.7745924   -2.7745924   -2.0932656   0.05514035   -2.7745924    0.6813267   418189 
  927000   0.65417381   -2.7760239   -2.7760239   -2.0941354  0.054838445   -2.7760239   0.68188855   418189 
  928000   0.65389604   -2.7763003   -2.7763003   -2.0947013  0.054705416   -2.7763003   0.68159901   418189 
  929000   0.65360715   -2.7762004   -2.7762004   -2.0949025  0.056233673   -2.7762004   0.68129788   418189 
  930000   0.65619108   -2.7790045   -2.7790045   -2.0950133  0.058830056   -2.7790045   0.68399128   418189 
  931000   0.65532129   -2.7784687   -2.7784687   -2.0953841   0.06269981   -2.7784687   0.68308464   418189 
  932000   0.65448767   -2.7779266   -2.7779266   -2.0957109  0.055821927   -2.7779266    0.6822157   418189 
  933000   0.65349017   -2.7768641   -2.7768641   -2.0956882  0.059148942   -2.7768641   0.68117594   418189 
  934000   0.65537945   -2.7788412   -2.7788412   -2.0956959  0.056659394   -2.7788412   0.68314526   418189 
  935000   0.65387205   -2.7783041   -2.7783041   -2.0967301  0.057567644   -2.7783041     0.681574   418189 
  936000   0.65349101   -2.7786162   -2.7786162   -2.0974394  0.057558511   -2.7786162   0.68117682   418189 
  937000   0.65379342   -2.7793573   -2.7793573   -2.0978652  0.058242849   -2.7793573   0.68149204   418189 
  938000   0.65348241   -2.7796891   -2.7796891   -2.0985212   0.05994588   -2.7796891   0.68116786   418189 
  939000   0.65531224   -2.7817732   -2.7817732    -2.098698  0.061351059   -2.7817732   0.68307521   418189 
  940000   0.65362622   -2.7794217   -2.7794217    -2.098104  0.058328968   -2.7794217   0.68131776   418189 
  941000   0.65221858   -2.7778857   -2.7778857   -2.0980353  0.064293459   -2.7778857   0.67985048   418189 
  942000   0.65464911   -2.7807467   -2.7807467   -2.0983627  0.057892577   -2.7807467   0.68238399   418189 
  943000   0.65415833   -2.7805201   -2.7805201   -2.0986477  0.064542319   -2.7805201   0.68187241   418189 
  944000   0.65337101   -2.7802861   -2.7802861   -2.0992344  0.061486375   -2.7802861   0.68105174   418189 
  945000   0.65290975   -2.7808798   -2.7808798   -2.1003089  0.062540333   -2.7808798   0.68057093   418189 
  946000    0.6536585   -2.7816527   -2.7816527   -2.1003013  0.060714605   -2.7816527    0.6813514   418189 
  947000   0.65454651   -2.7822618   -2.7822618   -2.0999848  0.060977029   -2.7822618   0.68227704   418189 
  948000   0.65357841   -2.7823991   -2.7823991   -2.1011312  0.055898135   -2.7823991   0.68126792   418189 
  949000   0.65178896   -2.7809839   -2.7809839   -2.1015812  0.061902663   -2.7809839   0.67940266   418189 
  950000   0.65242509   -2.7820543   -2.7820543   -2.1019886  0.056572998   -2.7820543   0.68006574   418189 
  951000   0.65241078   -2.7826056   -2.7826056   -2.1025548  0.052132704   -2.7826056   0.68005082   418189 
  952000   0.65126297   -2.7817605   -2.7817605   -2.1029062  0.053407764   -2.7817605   0.67885438   418189 
  953000   0.65217963   -2.7826928   -2.7826928   -2.1028829  0.053231015   -2.7826928   0.67980988   418189 
  954000   0.65274667   -2.7838035   -2.7838035   -2.1034025  0.058795322   -2.7838035   0.68040094   418189 
  955000   0.65285247   -2.7843045   -2.7843045   -2.1037932  0.058277413   -2.7843045   0.68051122   418189 
  956000    0.6518194   -2.7836037   -2.7836037   -2.1041693  0.056231552   -2.7836037   0.67943438   418189 
  957000   0.65048463   -2.7826644   -2.7826644   -2.1046214  0.059300533   -2.7826644   0.67804307   418189 
  958000   0.65145231   -2.7834513   -2.7834513   -2.1043995  0.061487253   -2.7834513   0.67905174   418189 
  959000   0.65123813   -2.7833159   -2.7833159   -2.1044874  0.049414105   -2.7833159   0.67882849   418189 
  960000    0.6515795   -2.7837058   -2.7837058   -2.1045215  0.052927297   -2.7837058   0.67918432   418189 
  961000   0.65159716   -2.7841017   -2.7841017    -2.104899  0.050739082   -2.7841017   0.67920274   418189 
  962000   0.65253814    -2.785161    -2.785161   -2.1049774  0.048654253    -2.785161   0.68018358   418189 
  963000   0.65207959   -2.7851595   -2.7851595   -2.1054539  0.056324336   -2.7851595   0.67970561   418189 
  964000   0.65321379     -2.78602     -2.78602   -2.1051322  0.044025488     -2.78602   0.68088785   418189 
  965000   0.65254666   -2.7862728   -2.7862728   -2.1060803  0.052919715   -2.7862728   0.68019246   418189 
  966000   0.65142618   -2.7855964   -2.7855964   -2.1065719   0.05764931   -2.7855964   0.67902451   418189 
  967000   0.65338117   -2.7871736   -2.7871736   -2.1061113  0.051435049   -2.7871736   0.68106232   418189 
  968000   0.65188464   -2.7860355   -2.7860355   -2.1065332  0.065597982   -2.7860355   0.67950239   418189 
  969000   0.65293376   -2.7871356   -2.7871356   -2.1065396  0.053775157   -2.7871356   0.68059596   418189 
  970000   0.65111899   -2.7860773   -2.7860773    -2.107373  0.064549263   -2.7860773   0.67870431   418189 
  971000   0.65169368   -2.7868506   -2.7868506   -2.1075472  0.059227774   -2.7868506   0.67930334   418189 
  972000   0.65232984   -2.7872653   -2.7872653   -2.1072988   0.05411778   -2.7872653   0.67996645   418189 
  973000   0.65136158   -2.7866364   -2.7866364   -2.1076792  0.049320966   -2.7866364   0.67895718   418189 
  974000   0.65150708   -2.7869062   -2.7869062   -2.1077974  0.062986497   -2.7869062   0.67910884   418189 
  975000   0.65185165   -2.7869858   -2.7869858   -2.1075178   0.05037335   -2.7869858     0.679468   418189 
  976000   0.65202601   -2.7874642   -2.7874642   -2.1078144  0.062089555   -2.7874642   0.67964975   418189 
  977000   0.65035037   -2.7854247   -2.7854247   -2.1075215  0.057735462   -2.7854247   0.67790312   418189 
  978000    0.6508266   -2.7863991   -2.7863991   -2.1079996  0.055137587   -2.7863991   0.67839953   418189 
  979000   0.65181856   -2.7874125   -2.7874125   -2.1079789  0.062933708   -2.7874125   0.67943352   418189 
  980000   0.65178299   -2.7884506   -2.7884506   -2.1090542  0.057850222   -2.7884506   0.67939644   418189 
  981000    0.6507677    -2.787622    -2.787622   -2.1092839  0.063142518    -2.787622   0.67833814   418189 
  982000   0.65198375   -2.7888694   -2.7888694   -2.1092637  0.060653753   -2.7888694    0.6796057   418189 
  983000   0.65035932   -2.7878643   -2.7878643   -2.1099519   0.05382246   -2.7878643   0.67791245   418189 
  984000    0.6516507    -2.789747    -2.789747   -2.1104885  0.054543214    -2.789747   0.67925854   418189 
  985000   0.65134769   -2.7891972   -2.7891972   -2.1102546  0.068006195   -2.7891972   0.67894269   418189 
  986000   0.65172804    -2.790207    -2.790207   -2.1108678  0.057667752    -2.790207   0.67933916   418189 
  987000   0.65112143    -2.790207    -2.790207   -2.1115001  0.055413299    -2.790207   0.67870685   418189 
  988000   0.65235128    -2.791472    -2.791472   -2.1114832  0.046636082    -2.791472    0.6799888   418189 
  989000   0.65123926   -2.7906292   -2.7906292   -2.1117995  0.056608356   -2.7906292   0.67882967   418189 
  990000   0.65187489   -2.7916354   -2.7916354   -2.1121432  0.056262623   -2.7916354   0.67949223   418189 
  991000   0.65052329   -2.7901535   -2.7901535   -2.1120701  0.058379403   -2.7901535   0.67808337   418189 
  992000   0.65057494   -2.7902903   -2.7902903   -2.1121531  0.067475887   -2.7902903   0.67813721   418189 
  993000   0.64934051   -2.7896674   -2.7896674   -2.1128169  0.053921874   -2.7896674   0.67685048   418189 
  994000   0.64984563   -2.7902437   -2.7902437   -2.1128667  0.055434529   -2.7902437     0.677377   418189 
  995000   0.65094937   -2.7920047   -2.7920047   -2.1134772   0.04449107   -2.7920047    0.6785275   418189 
  996000   0.64959506   -2.7901835   -2.7901835   -2.1130677  0.060369324   -2.7901835   0.67711582   418189 
  997000   0.64894248   -2.7896524   -2.7896524   -2.1132168   0.03912957   -2.7896524   0.67643558   418189 
  998000   0.64997076   -2.7907469   -2.7907469   -2.1132395  0.047887136   -2.7907469   0.67750743   418189 
  999000   0.64839306   -2.7892451   -2.7892451   -2.1133822  0.041672444   -2.7892451   0.67586289   418189 
 1000000   0.64943401   -2.7906515   -2.7906515   -2.1137035   0.06641683   -2.7906515   0.67694794   418189 
 1001000   0.64960436   -2.7914801   -2.7914801   -2.1143545   0.07202694   -2.7914801   0.67712551   418189 
 1002000   0.64929713   -2.7916403   -2.7916403   -2.1148351  0.052067942   -2.7916403   0.67680526   418189 
 1003000   0.65012385    -2.792637    -2.792637   -2.1149699  0.059032833    -2.792637   0.67766701   418189 
 1004000   0.64800843   -2.7915118   -2.7915118   -2.1160499  0.058536192   -2.7915118   0.67546196   418189 
 1005000   0.64885419    -2.792458    -2.792458   -2.1161145   0.05174088    -2.792458   0.67634355   418189 
 1006000   0.65009254   -2.7930055   -2.7930055   -2.1153711  0.057169167   -2.7930055   0.67763437   418189 
 1007000   0.65078471   -2.7944293   -2.7944293   -2.1160734  0.057672291   -2.7944293   0.67835586   418189 
 1008000   0.65080398   -2.7944988   -2.7944988   -2.1161229  0.064074827   -2.7944988   0.67837595   418189 
 1009000   0.64936082    -2.793152    -2.793152   -2.1162803  0.060885025    -2.793152   0.67687164   418189 
 1010000   0.64982626   -2.7941475   -2.7941475   -2.1167907  0.051717956   -2.7941475   0.67735681   418189 
 1011000   0.64944934   -2.7939677   -2.7939677   -2.1170037   0.06075783   -2.7939677   0.67696392   418189 
 1012000   0.64938704   -2.7942773   -2.7942773   -2.1173783    0.0631043   -2.7942773   0.67689898   418189 
 1013000   0.64894191   -2.7939071   -2.7939071   -2.1174721  0.057749815   -2.7939071   0.67643499   418189 
 1014000   0.64807375   -2.7940943   -2.7940943   -2.1185643  0.058496376   -2.7940943   0.67553005   418189 
 1015000   0.64791591   -2.7946314   -2.7946314   -2.1192658  0.056160561   -2.7946314   0.67536552   418189 
 1016000   0.64828503     -2.79506     -2.79506   -2.1193097  0.046407843     -2.79506   0.67575028   418189 
 1017000   0.64750057   -2.7949653   -2.7949653   -2.1200327  0.060944403   -2.7949653   0.67493259   418189 
 1018000   0.64804172   -2.7949893   -2.7949893   -2.1194926  0.052611541   -2.7949893   0.67549666   418189 
 1019000   0.64951948   -2.7965459   -2.7965459   -2.1195088  0.053772127   -2.7965459   0.67703703   418189 
 1020000   0.65041868   -2.7976077   -2.7976077   -2.1196334  0.046332687   -2.7976077   0.67797433   418189 
 1021000   0.65171803   -2.7984126   -2.7984126   -2.1190839   0.05131545   -2.7984126   0.67932872   418189 
 1022000   0.64979851   -2.7970651   -2.7970651   -2.1197372  0.043272914   -2.7970651   0.67732788   418189 
 1023000   0.64906175   -2.7972837   -2.7972837   -2.1207238   0.05385321   -2.7972837    0.6765599   418189 
 1024000   0.64949133   -2.7973257   -2.7973257    -2.120318  0.060412078   -2.7973257   0.67700769   418189 
 1025000   0.64966861   -2.7974444   -2.7974444   -2.1202519  0.058665868   -2.7974444   0.67719248   418189 
 1026000   0.64927815   -2.7975945   -2.7975945   -2.1208091  0.060776352   -2.7975945   0.67678548   418189 
 1027000   0.64860618   -2.7974179   -2.7974179   -2.1213328  0.056951133   -2.7974179   0.67608503   418189 
 1028000   0.64894209   -2.7976712   -2.7976712   -2.1212361  0.051050811   -2.7976712   0.67643518   418189 
 1029000   0.64729644   -2.7966206   -2.7966206   -2.1219008  0.055950782   -2.7966206    0.6747198   418189 
 1030000   0.64703594   -2.7960325   -2.7960325   -2.1215843    0.0551817   -2.7960325   0.67444827   418189 
 1031000   0.64819901   -2.7973485   -2.7973485   -2.1216879  0.044142753   -2.7973485   0.67566062   418189 
 1032000   0.64708802   -2.7965939   -2.7965939   -2.1220914  0.051641985   -2.7965939   0.67450256   418189 
 1033000   0.64740054   -2.7972228   -2.7972228   -2.1223945  0.049805562   -2.7972228   0.67482832   418189 
 1034000   0.64829878    -2.798778    -2.798778   -2.1230134  0.048378124    -2.798778   0.67576461   418189 
 1035000   0.64773687   -2.7975437   -2.7975437   -2.1223648  0.050691029   -2.7975437    0.6751789   418189 
 1036000   0.64915705   -2.7987863   -2.7987863   -2.1221271  0.055260333   -2.7987863   0.67665924   418189 
 1037000   0.64879494   -2.7992585   -2.7992585   -2.1229767  0.045197747   -2.7992585   0.67628179   418189 
 1038000   0.64860779   -2.7995567   -2.7995567   -2.1234699  0.053440675   -2.7995567   0.67608672   418189 
 1039000   0.64852766    -2.799988    -2.799988   -2.1239848  0.041738406    -2.799988   0.67600319   418189 
 1040000   0.64848416   -2.8011312   -2.8011312   -2.1251733  0.058512295   -2.8011312   0.67595784   418189 
 1041000   0.64746661   -2.7997037   -2.7997037   -2.1248065  0.060193068   -2.7997037   0.67489719   418189 
 1042000   0.64714632    -2.800246    -2.800246   -2.1256826  0.042867019    -2.800246   0.67456333   418189 
 1043000   0.64877839   -2.8015257   -2.8015257   -2.1252612  0.062573089   -2.8015257   0.67626455   418189 
 1044000   0.64745626   -2.8010013   -2.8010013   -2.1261149  0.059076957   -2.8010013    0.6748864   418189 
 1045000   0.64909407   -2.8025437   -2.8025437   -2.1259501  0.050576066   -2.8025437    0.6765936   418189 
 1046000   0.64825768   -2.8013422   -2.8013422   -2.1256204  0.047302504   -2.8013422   0.67572177   418189 
 1047000   0.64860674   -2.8016154   -2.8016154   -2.1255298  0.052981102   -2.8016154   0.67608562   418189 
 1048000      0.64948   -2.8025267   -2.8025267   -2.1255308  0.059717008   -2.8025267   0.67699587   418189 
 1049000   0.64924405   -2.8020113   -2.8020113   -2.1252614  0.066630819   -2.8020113   0.67674993   418189 
 1050000   0.64784301   -2.8011879   -2.8011879   -2.1258983  0.062723245   -2.8011879   0.67528954   418189 
 1051000   0.64698844   -2.7999059   -2.7999059   -2.1255072  0.056363715   -2.7999059   0.67439876   418189 
 1052000   0.64808201   -2.8011907   -2.8011907   -2.1256521  0.065860643   -2.8011907   0.67553866   418189 
 1053000   0.64828482   -2.8021997   -2.8021997   -2.1264497  0.049530401   -2.8021997   0.67575006   418189 
 1054000   0.64833423   -2.8023628   -2.8023628   -2.1265613  0.051275572   -2.8023628   0.67580157   418189 
 1055000   0.64818328   -2.8018688   -2.8018688   -2.1262245  0.042609664   -2.8018688   0.67564422   418189 
 1056000   0.64693392   -2.8015827   -2.8015827   -2.1272408  0.059447639   -2.8015827   0.67434193   418189 
 1057000   0.64639956   -2.8017466   -2.8017466   -2.1279616  0.050057781   -2.8017466   0.67378493   418189 
 1058000   0.64737759    -2.803385    -2.803385   -2.1285806  0.054239793    -2.803385    0.6748044   418189 
 1059000   0.64763862   -2.8032666   -2.8032666   -2.1281901  0.042084536   -2.8032666   0.67507649   418189 
 1060000   0.64781561   -2.8032162   -2.8032162   -2.1279552  0.051541162   -2.8032162   0.67526097   418189 
 1061000   0.64797527   -2.8040467   -2.8040467   -2.1286193  0.060677596   -2.8040467    0.6754274   418189 
 1062000   0.64776009   -2.8043024   -2.8043024   -2.1290993  0.062031082   -2.8043024    0.6752031   418189 
 1063000   0.64761786   -2.8049807   -2.8049807   -2.1299259  0.058958588   -2.8049807   0.67505484   418189 
 1064000   0.64687707   -2.8052446   -2.8052446    -2.130962  0.059910798   -2.8052446   0.67428267   418189 
 1065000   0.64740268   -2.8052362   -2.8052362   -2.1304057   0.05499946   -2.8052362   0.67483055   418189 
 1066000   0.64677855   -2.8051038   -2.8051038   -2.1309238  0.057304122   -2.8051038   0.67417998   418189 
 1067000   0.64685575   -2.8051721   -2.8051721   -2.1309117  0.056273106   -2.8051721   0.67426045   418189 
 1068000   0.64640169   -2.8045033   -2.8045033   -2.1307162  0.051738832   -2.8045033   0.67378715   418189 
 1069000   0.64665472   -2.8047258   -2.8047258   -2.1306749  0.046268793   -2.8047258    0.6740509   418189 
 1070000     0.646965   -2.8056709   -2.8056709   -2.1312966  0.051975539   -2.8056709   0.67437432   418189 
 1071000   0.64661292    -2.805778    -2.805778   -2.1317707  0.055502377    -2.805778   0.67400733   418189 
 1072000   0.64559085   -2.8058359   -2.8058359   -2.1328939  0.057152503   -2.8058359   0.67294196   418189 
 1073000   0.64560311   -2.8060536   -2.8060536   -2.1330989  0.058923533   -2.8060536   0.67295474   418189 
 1074000   0.64637903     -2.80673     -2.80673   -2.1329665  0.056092227     -2.80673   0.67376353   418189 
 1075000   0.64580345   -2.8064127   -2.8064127   -2.1332491  0.050350795   -2.8064127   0.67316357   418189 
 1076000   0.64665182     -2.80791     -2.80791   -2.1338621  0.051022643     -2.80791   0.67404788   418189 
 1077000   0.64716671   -2.8086504   -2.8086504   -2.1340658  0.056477275   -2.8086504   0.67458458   418189 
 1078000   0.64554805   -2.8071673   -2.8071673     -2.13427  0.054380901   -2.8071673   0.67289734   418189 
 1079000   0.64630505   -2.8080825   -2.8080825    -2.134396  0.056234865   -2.8080825   0.67368642   418189 
 1080000   0.64705835   -2.8085399   -2.8085399   -2.1340683  0.054461415   -2.8085399   0.67447163   418189 
 1081000   0.64667383    -2.808338    -2.808338   -2.1342672   0.05142015    -2.808338   0.67407082   418189 
 1082000   0.64648549   -2.8087711   -2.8087711   -2.1348966  0.063044327   -2.8087711    0.6738745   418189 
 1083000   0.64497755   -2.8077504   -2.8077504   -2.1354478  0.052892582   -2.8077504   0.67230268   418189 
 1084000   0.64517054   -2.8076992   -2.8076992   -2.1351954   0.05600997   -2.8076992   0.67250385   418189 
 1085000   0.64656964   -2.8100944   -2.8100944   -2.1361322  0.060100253   -2.8100944   0.67396222   418189 
 1086000   0.64611091   -2.8096145   -2.8096145   -2.1361304   0.05045482   -2.8096145   0.67348405   418189 
 1087000   0.64481829   -2.8081713   -2.8081713   -2.1360346  0.060361184   -2.8081713   0.67213667   418189 
 1088000   0.64514887    -2.809415    -2.809415   -2.1369338  0.048840167    -2.809415   0.67248126   418189 
 1089000   0.64616037   -2.8097186   -2.8097186    -2.136183   0.05274421   -2.8097186    0.6735356   418189 
 1090000   0.64527905   -2.8087516   -2.8087516   -2.1361347  0.066163509   -2.8087516   0.67261695   418189 
 1091000   0.64579685   -2.8093195   -2.8093195   -2.1361629  0.058484367   -2.8093195   0.67315668   418189 
 1092000   0.64477531    -2.807821    -2.807821   -2.1357291   0.05029589    -2.807821   0.67209187   418189 
 1093000   0.64540923   -2.8078781   -2.8078781   -2.1351255  0.054422369   -2.8078781   0.67275265   418189 
 1094000   0.64523633   -2.8080323   -2.8080323   -2.1354599  0.046112961   -2.8080323   0.67257242   418189 
 1095000   0.64512804   -2.8080715   -2.8080715    -2.135612  0.052970715   -2.8080715   0.67245954   418189 
 1096000   0.64389101   -2.8076132   -2.8076132   -2.1364431  0.058184712   -2.8076132   0.67117011   418189 
 1097000   0.64346575   -2.8083005   -2.8083005   -2.1375737    0.0391987   -2.8083005   0.67072683   418189 
 1098000   0.64474916   -2.8100295   -2.8100295   -2.1379649  0.060642233   -2.8100295   0.67206462   418189 
 1099000   0.64551846   -2.8107349   -2.8107349   -2.1378684  0.039607517   -2.8107349    0.6728665   418189 
 1100000   0.64300248   -2.8077351   -2.8077351   -2.1374912  0.050755016   -2.8077351   0.67024393   418189 
 1101000   0.64465344   -2.8101814   -2.8101814   -2.1382166  0.047349961   -2.8101814   0.67196484   418189 
 1102000   0.64567428   -2.8114486   -2.8114486   -2.1384197  0.056670282   -2.8114486   0.67302892   418189 
 1103000   0.64497997   -2.8105893   -2.8105893   -2.1382841  0.064144377   -2.8105893    0.6723052   418189 
 1104000   0.64545727   -2.8115872   -2.8115872   -2.1387845  0.061892247   -2.8115872   0.67280272   418189 
 1105000    0.6460061   -2.8124735   -2.8124735   -2.1390987  0.059267882   -2.8124735    0.6733748   418189 
 1106000   0.64698649   -2.8131852   -2.8131852   -2.1387885   0.05675846   -2.8131852   0.67439673   418189 
 1107000   0.64670843   -2.8135499   -2.8135499    -2.139443  0.048637688   -2.8135499   0.67410689   418189 
 1108000   0.64487222   -2.8122626   -2.8122626   -2.1400697  0.053383406   -2.8122626   0.67219288   418189 
 1109000   0.64352559   -2.8115107   -2.8115107   -2.1407215   0.05595164   -2.8115107    0.6707892   418189 
 1110000   0.64521526   -2.8133707   -2.8133707   -2.1408202   0.05884963   -2.8133707   0.67255046   418189 
 1111000   0.64487812   -2.8139309   -2.8139309   -2.1417319  0.064071838   -2.8139309   0.67219903   418189 
 1112000    0.6439864   -2.8131871   -2.8131871   -2.1419175  0.061322914   -2.8131871   0.67126953   418189 
 1113000   0.64360162   -2.8130927   -2.8130927   -2.1422242  0.054059489   -2.8130927   0.67086845   418189 
 1114000   0.64348566   -2.8129383   -2.8129383   -2.1421907  0.058958762   -2.8129383   0.67074758   418189 
 1115000    0.6431334   -2.8126059   -2.8126059   -2.1422255  0.037721608   -2.8126059   0.67038039   418189 
 1116000   0.64368552   -2.8130813   -2.8130813   -2.1421254  0.061347969   -2.8130813   0.67095591   418189 
 1117000   0.64308559   -2.8127092   -2.8127092   -2.1423787   0.04437042   -2.8127092   0.67033056   418189 
 1118000   0.64275021   -2.8126237   -2.8126237   -2.1426428  0.063895838   -2.8126237   0.66998097   418189 
 1119000   0.64466178   -2.8158185   -2.8158185    -2.143845  0.050059344   -2.8158185   0.67197352   418189 
 1120000    0.6422646   -2.8125785   -2.8125785   -2.1431037  0.050966461   -2.8125785   0.66947479   418189 
 1121000   0.64425529   -2.8144817   -2.8144817   -2.1429319  0.052029007   -2.8144817   0.67154982   418189 
 1122000   0.64556253   -2.8160809   -2.8160809   -2.1431685  0.048244764   -2.8160809   0.67291244   418189 
 1123000    0.6445293    -2.815048    -2.815048   -2.1432126  0.045483349    -2.815048   0.67183543   418189 
 1124000   0.64402302   -2.8152947   -2.8152947    -2.143987  0.050153064   -2.8152947   0.67130771   418189 
 1125000   0.64415056   -2.8149643   -2.8149643   -2.1435236   0.05324053   -2.8149643   0.67144065   418189 
 1126000   0.64229747   -2.8135933   -2.8135933   -2.1440842  0.053311781   -2.8135933   0.66950905   418189 
 1127000   0.64232217   -2.8138865   -2.8138865   -2.1443517  0.053410792   -2.8138865    0.6695348   418189 
 1128000   0.64378651   -2.8155264   -2.8155264   -2.1444652  0.054093008   -2.8155264   0.67106118   418189 
 1129000   0.64394725   -2.8152176   -2.8152176   -2.1439889   0.04934534   -2.8152176   0.67122873   418189 
 1130000   0.64350998   -2.8153699   -2.8153699    -2.144597   0.05381458   -2.8153699   0.67077293   418189 
 1131000   0.64468043   -2.8158926   -2.8158926   -2.1438996  0.062078444   -2.8158926   0.67199297   418189 
 1132000   0.64280529   -2.8149035   -2.8149035   -2.1448651  0.063634313   -2.8149035   0.67003838   418189 
 1133000   0.64361346   -2.8153564   -2.8153564   -2.1444756  0.054288938   -2.8153564    0.6708808   418189 
 1134000   0.64304295   -2.8154232   -2.8154232   -2.1451371  0.050098068   -2.8154232   0.67028611   418189 
 1135000   0.64412835   -2.8171515   -2.8171515   -2.1457339  0.061307431   -2.8171515    0.6714175   418189 
 1136000   0.64508712   -2.8185172   -2.8185172   -2.1461003  0.051355305   -2.8185172   0.67241689   418189 
 1137000    0.6438919   -2.8168946   -2.8168946   -2.1457235  0.063413343   -2.8168946   0.67117103   418189 
 1138000   0.64508961   -2.8184195   -2.8184195       -2.146  0.051180228   -2.8184195   0.67241948   418189 
 1139000   0.64457511   -2.8181299   -2.8181299   -2.1462467  0.053998477   -2.8181299   0.67188318   418189 
 1140000   0.64399472   -2.8178698   -2.8178698   -2.1465916  0.055549291   -2.8178698   0.67127821   418189 
 1141000   0.64343622   -2.8181744   -2.8181744   -2.1474783  0.037679287   -2.8181744   0.67069604   418189 
 1142000   0.64350873   -2.8181914   -2.8181914   -2.1474197  0.042527064   -2.8181914   0.67077162   418189 
 1143000     0.642101   -2.8172559   -2.8172559   -2.1479517  0.049848676   -2.8172559   0.66930425   418189 
 1144000   0.64240603   -2.8175125   -2.8175125   -2.1478903  0.044578017   -2.8175125   0.66962222   418189 
 1145000   0.64165606   -2.8160229   -2.8160229   -2.1471824  0.055809027   -2.8160229   0.66884047   418189 
 1146000    0.6427032   -2.8167485   -2.8167485   -2.1468165  0.051828096   -2.8167485   0.66993198   418189 
 1147000   0.64281711   -2.8178192   -2.8178192   -2.1477685   0.05152997   -2.8178192    0.6700507   418189 
 1148000   0.64214688   -2.8168202   -2.8168202   -2.1474682   0.05798598   -2.8168202   0.66935209   418189 
 1149000   0.64278271   -2.8179308   -2.8179308    -2.147916  0.055210385   -2.8179308   0.67001485   418189 
 1150000   0.64213914   -2.8180216   -2.8180216   -2.1486776  0.056857188   -2.8180216   0.66934402   418189 
 1151000   0.64232122   -2.8186378   -2.8186378    -2.149104  0.058736826   -2.8186378   0.66953381   418189 
 1152000   0.64234987   -2.8184866   -2.8184866   -2.1489229  0.062633387   -2.8184866   0.66956368   418189 
 1153000   0.64214823   -2.8189804   -2.8189804   -2.1496269  0.047242061   -2.8189804   0.66935349   418189 
 1154000   0.64249227   -2.8193826   -2.8193826   -2.1496705  0.036673952   -2.8193826    0.6697121   418189 
 1155000   0.64434567   -2.8206749   -2.8206749   -2.1490308  0.048937585   -2.8206749   0.67164402   418189 
 1156000   0.64240858   -2.8192941   -2.8192941   -2.1496693   0.04919964   -2.8192941   0.66962487   418189 
 1157000   0.64185516   -2.8189074   -2.8189074   -2.1498594   0.03637508   -2.8189074     0.669048   418189 
 1158000   0.64258847   -2.8196239   -2.8196239   -2.1498115  0.042680578   -2.8196239   0.66981238   418189 
 1159000   0.64266219   -2.8202761   -2.8202761   -2.1503869  0.053575512   -2.8202761   0.66988923   418189 
 1160000   0.64332942   -2.8204807   -2.8204807    -2.149896  0.055991488   -2.8204807   0.67058472   418189 
 1161000   0.64304435   -2.8212085   -2.8212085   -2.1509209  0.047936244   -2.8212085   0.67028757   418189 
 1162000   0.64270271   -2.8215008   -2.8215008   -2.1515694  0.045130346   -2.8215008   0.66993146   418189 
 1163000   0.64193948   -2.8211626   -2.8211626   -2.1520267  0.057105151   -2.8211626   0.66913589   418189 
 1164000   0.64255579    -2.822061    -2.822061   -2.1522827  0.050318132    -2.822061   0.66977831   418189 
 1165000   0.64164232    -2.821348    -2.821348   -2.1525218  0.048030637    -2.821348   0.66882615   418189 
 1166000   0.64095334    -2.820446    -2.820446    -2.152338  0.049149045    -2.820446   0.66810798   418189 
 1167000   0.64294401   -2.8216882   -2.8216882   -2.1515052  0.050875566   -2.8216882   0.67018298   418189 
 1168000    0.6429977   -2.8223387   -2.8223387   -2.1520997   0.05194591   -2.8223387   0.67023895   418189 
 1169000   0.64275414   -2.8219105   -2.8219105   -2.1519255  0.053644029   -2.8219105   0.66998507   418189 
 1170000   0.64371099   -2.8231889   -2.8231889   -2.1522065  0.057817765   -2.8231889   0.67098246   418189 
 1171000   0.64123335   -2.8216418   -2.8216418    -2.153242  0.042033805   -2.8216418   0.66839985   418189 
 1172000   0.64144155   -2.8222731   -2.8222731   -2.1536562   0.04062124   -2.8222731   0.66861687   418189 
 1173000   0.64011272   -2.8209885   -2.8209885   -2.1537568  0.063627182   -2.8209885   0.66723174   418189 
 1174000   0.64151376   -2.8223842   -2.8223842   -2.1536921   0.05075931   -2.8223842   0.66869214   418189 
 1175000   0.64170706   -2.8232155   -2.8232155   -2.1543219  0.056925406   -2.8232155   0.66889363   418189 
 1176000   0.64151876   -2.8230188   -2.8230188   -2.1543214  0.036768917   -2.8230188   0.66869735   418189 
 1177000   0.64129945   -2.8229918   -2.8229918    -2.154523  0.057409459   -2.8229918   0.66846875   418189 
 1178000   0.64228007   -2.8237657   -2.8237657   -2.1542747  0.056254329   -2.8237657   0.66949091   418189 
 1179000   0.64174953   -2.8239625   -2.8239625   -2.1550246  0.056410734   -2.8239625    0.6689379   418189 
 1180000   0.64228064   -2.8240897   -2.8240897   -2.1545982  0.059404869   -2.8240897   0.66949151   418189 
 1181000   0.64212379   -2.8247206   -2.8247206   -2.1553925  0.053433824   -2.8247206   0.66932801   418189 
 1182000   0.64150672   -2.8235268   -2.8235268    -2.154842  0.053953386   -2.8235268    0.6686848   418189 
 1183000   0.64158458   -2.8235725   -2.8235725   -2.1548065   0.04616056   -2.8235725   0.66876596   418189 
 1184000   0.64184301   -2.8236936   -2.8236936   -2.1546583  0.045952154   -2.8236936   0.66903534   418189 
 1185000   0.64094892   -2.8229394   -2.8229394    -2.154836  0.048331332   -2.8229394   0.66810337   418189 
 1186000   0.64327493   -2.8256992   -2.8256992   -2.1551713  0.048127184   -2.8256992   0.67052792   418189 
 1187000   0.64108809    -2.823851    -2.823851   -2.1556026  0.051167642    -2.823851   0.66824844   418189 
 1188000   0.64268889   -2.8261558   -2.8261558   -2.1562388  0.051150803   -2.8261558   0.66991705   418189 
 1189000   0.64372188   -2.8267582   -2.8267582   -2.1557644  0.053089832   -2.8267582   0.67099381   418189 
 1190000   0.64233687   -2.8266209   -2.8266209   -2.1570708    0.0474256   -2.8266209   0.66955012   418189 
 1191000    0.6424367   -2.8271121   -2.8271121   -2.1574579  0.036650172   -2.8271121   0.66965418   418189 
 1192000   0.64181137   -2.8267588   -2.8267588   -2.1577565  0.048040671   -2.8267588   0.66900236   418189 
 1193000   0.64005999   -2.8251034   -2.8251034   -2.1579266  0.049854321   -2.8251034   0.66717678   418189 
 1194000   0.64101104   -2.8259958   -2.8259958   -2.1578276  0.050501559   -2.8259958   0.66816812   418189 
 1195000   0.64182406   -2.8271027   -2.8271027   -2.1580872  0.058094438   -2.8271027   0.66901559   418189 
 1196000   0.64224519   -2.8282679   -2.8282679   -2.1588134  0.062500696   -2.8282679   0.66945455   418189 
 1197000   0.64174507   -2.8279585   -2.8279585   -2.1590253  0.053372644   -2.8279585   0.66893325   418189 
 1198000   0.64071084   -2.8273969   -2.8273969   -2.1595417  0.055855578   -2.8273969    0.6678552   418189 
 1199000    0.6412282   -2.8278528   -2.8278528   -2.1594583  0.051839031   -2.8278528   0.66839449   418189 
 1200000   0.64082665   -2.8270554   -2.8270554   -2.1590794  0.052842437   -2.8270554   0.66797592   418189 
 1201000    0.6411579   -2.8278744   -2.8278744   -2.1595532  0.051995367   -2.8278744    0.6683212   418189 
 1202000   0.64162013   -2.8288833   -2.8288833   -2.1600803  0.057542296   -2.8288833   0.66880301   418189 
 1203000   0.64131728   -2.8294587   -2.8294587   -2.1609713  0.051053281   -2.8294587   0.66848734   418189 
 1204000   0.64115224   -2.8292858   -2.8292858   -2.1609705  0.045438528   -2.8292858    0.6683153   418189 
 1205000   0.63998702   -2.8280411   -2.8280411   -2.1609404  0.060949201   -2.8280411   0.66710072   418189 
 1206000   0.64112813   -2.8283957   -2.8283957   -2.1601055  0.048290338   -2.8283957   0.66829017   418189 
 1207000   0.64145106   -2.8294893   -2.8294893   -2.1608625  0.054235547   -2.8294893   0.66862679   418189 
 1208000   0.63973936   -2.8279481   -2.8279481   -2.1611055  0.051472835   -2.8279481   0.66684256   418189 
 1209000   0.64001482   -2.8285235   -2.8285235   -2.1613938  0.052089756   -2.8285235    0.6671297   418189 
 1210000   0.63729739   -2.8261127   -2.8261127   -2.1618156  0.048538733   -2.8261127   0.66429714   418189 
 1211000   0.63892064   -2.8283354   -2.8283354   -2.1623462  0.046488534   -2.8283354   0.66598916   418189 
 1212000   0.63953091   -2.8287973   -2.8287973    -2.162172  0.052350879   -2.8287973   0.66662528   418189 
 1213000   0.64073159   -2.8304039   -2.8304039    -2.162527  0.054064471   -2.8304039   0.66787684   418189 
 1214000    0.6392656   -2.8289401   -2.8289401   -2.1625914  0.060341722   -2.8289401   0.66634874   418189 
 1215000   0.64118348   -2.8313149   -2.8313149    -2.162967  0.057758521   -2.8313149   0.66834786   418189 
 1216000    0.6398379   -2.8297484   -2.8297484   -2.1628031  0.058290888   -2.8297484   0.66694528   418189 
 1217000   0.63969999   -2.8301465   -2.8301465    -2.163345  0.044662621   -2.8301465   0.66680153   418189 
 1218000   0.63980036   -2.8293057   -2.8293057   -2.1623995  0.048379167   -2.8293057   0.66690614   418189 
 1219000   0.63873234   -2.8289676   -2.8289676   -2.1631747  0.047449038   -2.8289676   0.66579288   418189 
 1220000   0.63973994   -2.8298279   -2.8298279   -2.1629847    0.0478476   -2.8298279   0.66684317   418189 
 1221000   0.64081267   -2.8306543   -2.8306543   -2.1626929  0.049920366   -2.8306543   0.66796135   418189 
 1222000   0.63901567    -2.829111    -2.829111   -2.1630228  0.052854053    -2.829111   0.66608821   418189 
 1223000   0.63993647   -2.8303152   -2.8303152   -2.1632672  0.053429097   -2.8303152   0.66704803   418189 
 1224000   0.64050218   -2.8309058   -2.8309058   -2.1632681  0.054575615   -2.8309058    0.6676377   418189 
 1225000   0.64075589    -2.831269    -2.831269   -2.1633668  0.056814744    -2.831269   0.66790217   418189 
 1226000   0.64093488   -2.8307551   -2.8307551   -2.1626663  0.049090342   -2.8307551   0.66808873   418189 
 1227000    0.6402197      -2.8309      -2.8309   -2.1635568  0.060106892      -2.8309   0.66734325   418189 
 1228000   0.64003149   -2.8308016   -2.8308016   -2.1636545  0.050085552   -2.8308016   0.66714707   418189 
 1229000   0.63908639   -2.8299914   -2.8299914   -2.1638295   0.04517569   -2.8299914   0.66616194   418189 
 1230000   0.63898696   -2.8298933   -2.8298933    -2.163835  0.050734342   -2.8298933   0.66605829   418189 
 1231000   0.63932473   -2.8307881   -2.8307881   -2.1643777  0.047151069   -2.8307881   0.66641037   418189 
 1232000   0.63953929   -2.8309927   -2.8309927   -2.1643587    0.0502447   -2.8309927   0.66663402   418189 
 1233000   0.63988075    -2.831008    -2.831008    -2.164018  0.055770108    -2.831008   0.66698994   418189 
 1234000   0.63914352   -2.8310354   -2.8310354   -2.1648139  0.066176157   -2.8310354   0.66622148   418189 
 1235000    0.6386223   -2.8310949   -2.8310949   -2.1654167  0.045736072   -2.8310949   0.66567818   418189 
 1236000    0.6399282   -2.8328031   -2.8328031   -2.1657637  0.051576943   -2.8328031   0.66703941   418189 
 1237000   0.64101525    -2.834283    -2.834283   -2.1661105  0.049053661    -2.834283   0.66817251   418189 
 1238000   0.64119061   -2.8342361   -2.8342361   -2.1658808  0.063549728   -2.8342361   0.66835529   418189 
 1239000   0.63930494    -2.832326    -2.832326   -2.1659363  0.053022541    -2.832326   0.66638974   418189 
 1240000   0.64022412   -2.8337025   -2.8337025   -2.1663546  0.045936038   -2.8337025   0.66734787   418189 
 1241000   0.63975478   -2.8333154   -2.8333154   -2.1664568  0.051803442   -2.8333154   0.66685864   418189 
 1242000   0.64012318   -2.8338148   -2.8338148   -2.1665722  0.057813773   -2.8338148   0.66724265   418189 
 1243000   0.63883699    -2.833675    -2.833675    -2.167773   0.05112623    -2.833675   0.66590197   418189 
 1244000   0.63819644   -2.8339193   -2.8339193    -2.168685   0.03939995   -2.8339193   0.66523428   418189 
 1245000   0.63784861   -2.8338518   -2.8338518     -2.16898  0.042678835   -2.8338518   0.66487172   418189 
 1246000   0.63835861   -2.8342269   -2.8342269   -2.1688236  0.051195113   -2.8342269   0.66540332   418189 
 1247000   0.63687165    -2.833147    -2.833147   -2.1692937  0.047196603    -2.833147   0.66385336   418189 
 1248000   0.63856908   -2.8349387   -2.8349387    -2.169316  0.048593073   -2.8349387    0.6656227   418189 
 1249000   0.63739281   -2.8340362   -2.8340362   -2.1696396  0.055373264   -2.8340362    0.6643966   418189 
 1250000   0.63834021   -2.8346139   -2.8346139   -2.1692298  0.046496998   -2.8346139   0.66538414   418189 
 1251000   0.63922131   -2.8351998   -2.8351998   -2.1688972   0.05508753   -2.8351998   0.66630257   418189 
 1252000   0.63866452   -2.8348467   -2.8348467   -2.1691245  0.049505976   -2.8348467   0.66572219   418189 
 1253000    0.6373477   -2.8334742   -2.8334742   -2.1691246  0.045119646   -2.8334742   0.66434958   418189 
 1254000   0.63873051   -2.8354126   -2.8354126   -2.1696216  0.054114957   -2.8354126   0.66579097   418189 
 1255000   0.63835395   -2.8347206   -2.8347206   -2.1693221  0.053664627   -2.8347206   0.66539846   418189 
 1256000   0.63791912   -2.8342149   -2.8342149   -2.1692697  0.062286841   -2.8342149   0.66494521   418189 
 1257000   0.63792056   -2.8349371   -2.8349371   -2.1699904  0.060165926   -2.8349371   0.66494671   418189 
 1258000   0.63996876   -2.8374675   -2.8374675   -2.1703858  0.065330033   -2.8374675   0.66708168   418189 
 1259000   0.63927687   -2.8375815   -2.8375815   -2.1712211   0.06246738   -2.8375815   0.66636048   418189 
 1260000   0.63762749   -2.8364557   -2.8364557   -2.1718144  0.043229796   -2.8364557   0.66464122   418189 
 1261000   0.63851489   -2.8380982   -2.8380982   -2.1725319  0.047720442   -2.8380982   0.66556622   418189 
 1262000   0.63673199   -2.8363497   -2.8363497   -2.1726419  0.059682722   -2.8363497   0.66370779   418189 
 1263000   0.63705823   -2.8368982   -2.8368982   -2.1728503  0.045307446   -2.8368982   0.66404785   418189 
 1264000    0.6383029   -2.8372258   -2.8372258   -2.1718806  0.044158555   -2.8372258   0.66534525   418189 
 1265000   0.63711071   -2.8363729   -2.8363729   -2.1722704   0.04103563   -2.8363729   0.66410255   418189 
 1266000   0.63671653   -2.8361642   -2.8361642   -2.1724725  0.057871564   -2.8361642   0.66369167   418189 
 1267000   0.63664698   -2.8367948   -2.8367948   -2.1731756  0.052078379   -2.8367948   0.66361917   418189 
 1268000    0.6376579   -2.8377142   -2.8377142   -2.1730412  0.047371276   -2.8377142   0.66467292   418189 
 1269000   0.64007086   -2.8400138   -2.8400138   -2.1728257  0.054678327   -2.8400138   0.66718811   418189 
 1270000   0.63839323   -2.8387341   -2.8387341   -2.1732947  0.047308109   -2.8387341    0.6654394   418189 
 1271000   0.63744938   -2.8379702   -2.8379702   -2.1735146  0.048555118   -2.8379702   0.66445557   418189 
 1272000   0.63936794    -2.839815    -2.839815   -2.1733596  0.047234692    -2.839815   0.66645541   418189 
 1273000   0.63729719   -2.8384749   -2.8384749    -2.174178   0.05059866   -2.8384749   0.66429693   418189 
 1274000    0.6383262   -2.8398467   -2.8398467   -2.1744771   0.05577211   -2.8398467   0.66536953   418189 
 1275000   0.63736685   -2.8390147   -2.8390147   -2.1746451  0.058371365   -2.8390147   0.66436955   418189 
 1276000   0.63742352   -2.8400379   -2.8400379   -2.1756093   0.05030039   -2.8400379   0.66442861   418189 
 1277000   0.63711138   -2.8409055   -2.8409055   -2.1768022  0.050480859   -2.8409055   0.66410324   418189 
 1278000   0.63691761   -2.8403688   -2.8403688   -2.1764675  0.056417221   -2.8403688   0.66390127   418189 
 1279000   0.63731757   -2.8409674   -2.8409674   -2.1766492  0.046514612   -2.8409674   0.66431818   418189 
 1280000   0.63727504   -2.8413172   -2.8413172   -2.1770433  0.033862938   -2.8413172   0.66427385   418189 
 1281000   0.63724501   -2.8411234   -2.8411234   -2.1768809  0.055098403   -2.8411234   0.66424254   418189 
 1282000   0.63844591   -2.8421349   -2.8421349   -2.1766406  0.051571366   -2.8421349   0.66549432   418189 
 1283000     0.638131   -2.8421197   -2.8421197   -2.1769537  0.045387315   -2.8421197   0.66516606   418189 
 1284000   0.63767136   -2.8414367   -2.8414367   -2.1767498  0.049596638   -2.8414367   0.66468695   418189 
 1285000   0.63676189   -2.8406861   -2.8406861   -2.1769471  0.053294331   -2.8406861   0.66373895   418189 
 1286000   0.63729637   -2.8413979   -2.8413979   -2.1771018  0.052897759   -2.8413979   0.66429608   418189 
 1287000   0.63554336   -2.8393382   -2.8393382   -2.1768694   0.05515627   -2.8393382   0.66246879   418189 
 1288000   0.63608352   -2.8407304   -2.8407304   -2.1776985   0.05152902   -2.8407304   0.66303184   418189 
 1289000   0.63499491   -2.8403389   -2.8403389   -2.1784418  0.051840258   -2.8403389   0.66189711   418189 
 1290000   0.63558444   -2.8408278   -2.8408278   -2.1783161  0.052607493   -2.8408278   0.66251162   418189 
 1291000   0.63626978   -2.8423762   -2.8423762   -2.1791502  0.052153364   -2.8423762   0.66322599   418189 
 1292000   0.63780954   -2.8433228   -2.8433228   -2.1784918  0.059722068   -2.8433228   0.66483098   418189 
 1293000   0.63766091   -2.8427029   -2.8427029   -2.1780268  0.053689157   -2.8427029   0.66467606   418189 
 1294000   0.63717725   -2.8425291   -2.8425291   -2.1783572   0.05117881   -2.8425291   0.66417191   418189 
 1295000   0.63667933   -2.8417891   -2.8417891   -2.1781362  0.058213894   -2.8417891    0.6636529   418189 
 1296000   0.63790751   -2.8429026   -2.8429026   -2.1779695  0.055671047   -2.8429026    0.6649331   418189 
 1297000    0.6374047   -2.8426762   -2.8426762   -2.1782672  0.052808764   -2.8426762   0.66440899   418189 
 1298000   0.63708904    -2.842639    -2.842639   -2.1785591  0.048276781    -2.842639   0.66407997   418189 
 1299000   0.63653887   -2.8421394   -2.8421394   -2.1786329  0.048087411   -2.8421394   0.66350649   418189 
 1300000   0.63646948   -2.8415549   -2.8415549   -2.1781207  0.051847064   -2.8415549   0.66343416   418189 
 1301000   0.63760115   -2.8433483   -2.8433483   -2.1787346  0.057241546   -2.8433483   0.66461377   418189 
 1302000   0.63761056   -2.8435342   -2.8435342   -2.1789106  0.050813744   -2.8435342   0.66462358   418189 
 1303000   0.63578111   -2.8420163   -2.8420163   -2.1792996  0.046249434   -2.8420163   0.66271662   418189 
 1304000   0.63778022   -2.8435949   -2.8435949   -2.1787944  0.047803587   -2.8435949   0.66480042   418189 
 1305000   0.63742889   -2.8431205   -2.8431205   -2.1786863  0.055581801   -2.8431205   0.66443421   418189 
 1306000    0.6378514   -2.8433247   -2.8433247   -2.1784501  0.049064232   -2.8433247   0.66487462   418189 
 1307000   0.63872562   -2.8445579   -2.8445579    -2.178772  0.065312892   -2.8445579   0.66578588   418189 
 1308000   0.63664896   -2.8427934   -2.8427934   -2.1791722  0.048501584   -2.8427934   0.66362124   418189 
 1309000   0.63657333   -2.8426367   -2.8426367   -2.1790942  0.060943976   -2.8426367   0.66354241   418189 
 1310000   0.63717287   -2.8429732   -2.8429732   -2.1788059  0.043056706   -2.8429732   0.66416734   418189 
 1311000   0.63611331   -2.8418872   -2.8418872   -2.1788243  0.044908122   -2.8418872   0.66306289   418189 
 1312000   0.63670663   -2.8429839   -2.8429839   -2.1793025    0.0482902   -2.8429839   0.66368135   418189 
 1313000   0.63609101   -2.8426695   -2.8426695   -2.1796299  0.042960349   -2.8426695   0.66303965   418189 
 1314000   0.63635375   -2.8437749   -2.8437749   -2.1804614  0.047960985   -2.8437749   0.66331352   418189 
 1315000   0.63567333   -2.8433422   -2.8433422    -2.180738   0.05269136   -2.8433422   0.66260427   418189 
 1316000   0.63650073    -2.844417    -2.844417   -2.1809502  0.048807076    -2.844417   0.66346673   418189 
 1317000   0.63630713   -2.8447724   -2.8447724   -2.1815074  0.048543551   -2.8447724   0.66326492   418189 
 1318000   0.63605015   -2.8447538   -2.8447538   -2.1817567  0.053184475   -2.8447538   0.66299706   418189 
 1319000   0.63506008   -2.8437827   -2.8437827   -2.1818177  0.051023846   -2.8437827   0.66196504   418189 
 1320000   0.63629225   -2.8461009   -2.8461009   -2.1828515  0.052583481   -2.8461009   0.66324942   418189 
 1321000   0.63518709   -2.8443674   -2.8443674     -2.18227  0.052799826   -2.8443674   0.66209743   418189 
 1322000   0.63549887   -2.8455425   -2.8455425   -2.1831201  0.047098268   -2.8455425   0.66242242   418189 
 1323000   0.63471513   -2.8438316   -2.8438316   -2.1822261  0.052551188   -2.8438316   0.66160548   418189 
 1324000   0.63510356   -2.8440377   -2.8440377   -2.1820273  0.051916263   -2.8440377   0.66201036   418189 
 1325000   0.63711312   -2.8458602   -2.8458602   -2.1817551  0.045225292   -2.8458602   0.66410506   418189 
 1326000   0.63439567   -2.8433622   -2.8433622   -2.1820897  0.055455524   -2.8433622   0.66127249   418189 
 1327000   0.63676042   -2.8465151   -2.8465151   -2.1827777  0.052203394   -2.8465151   0.66373742   418189 
 1328000   0.63469067   -2.8447613   -2.8447613   -2.1831814  0.052942885   -2.8447613   0.66157998   418189 
 1329000   0.63616665   -2.8460967   -2.8460967   -2.1829782  0.044904696   -2.8460967   0.66311849   418189 
 1330000   0.63589881   -2.8460323   -2.8460323    -2.183193  0.051730441   -2.8460323   0.66283931   418189 
 1331000    0.6355415   -2.8465544   -2.8465544   -2.1840876  0.060121704   -2.8465544   0.66246686   418189 
 1332000   0.63655643   -2.8480918   -2.8480918   -2.1845671   0.04883387   -2.8480918   0.66352479   418189 
 1333000   0.63610218   -2.8484194   -2.8484194   -2.1853681  0.058980888   -2.8484194   0.66305129   418189 
 1334000   0.63568817   -2.8480481   -2.8480481   -2.1854284  0.055010698   -2.8480481   0.66261974   418189 
 1335000   0.63576445   -2.8482072   -2.8482072    -2.185508  0.049390722   -2.8482072   0.66269926   418189 
 1336000   0.63560505   -2.8475843   -2.8475843   -2.1850512  0.043630659   -2.8475843    0.6625331   418189 
 1337000   0.63552567   -2.8476985   -2.8476985   -2.1852481   0.04767597   -2.8476985   0.66245035   418189 
 1338000   0.63627994   -2.8477732   -2.8477732   -2.1845367  0.047326469   -2.8477732   0.66323658   418189 
 1339000   0.63579775   -2.8478137   -2.8478137   -2.1850797  0.051156071   -2.8478137   0.66273397   418189 
 1340000   0.63659534   -2.8489884   -2.8489884   -2.1854231  0.054347698   -2.8489884   0.66356534   418189 
 1341000    0.6346527   -2.8473904   -2.8473904     -2.18585  0.040544694   -2.8473904    0.6615404   418189 
 1342000   0.63564688   -2.8484127   -2.8484127    -2.185836  0.052748753   -2.8484127    0.6625767   418189 
 1343000   0.63451823   -2.8476261   -2.8476261   -2.1862259  0.037470548   -2.8476261   0.66140023   418189 
 1344000   0.63483611   -2.8478703   -2.8478703   -2.1861388  0.056745705   -2.8478703   0.66173158   418189 
 1345000   0.63409724    -2.847106    -2.847106   -2.1861446  0.051700712    -2.847106   0.66096141   418189 
 1346000   0.63531428   -2.8483569   -2.8483569   -2.1861268  0.038488847   -2.8483569   0.66223002   418189 
 1347000   0.63587031   -2.8499249   -2.8499249   -2.1871153  0.050668257   -2.8499249    0.6628096   418189 
 1348000   0.63519453   -2.8487544   -2.8487544   -2.1866492  0.053948584   -2.8487544   0.66210519   418189 
 1349000   0.63642208   -2.8494754   -2.8494754   -2.1860907  0.056140535   -2.8494754   0.66338474   418189 
 1350000   0.63589334   -2.8495533   -2.8495533   -2.1867196  0.040722143   -2.8495533   0.66283361   418189 
 1351000   0.63383887   -2.8486777   -2.8486777   -2.1879856   0.05478267   -2.8486777    0.6606921   418189 
 1352000   0.63547187   -2.8509233   -2.8509233    -2.188529  0.043531075   -2.8509233   0.66239427   418189 
 1353000   0.63459283   -2.8499707   -2.8499707   -2.1884927  0.040836191   -2.8499707     0.661478   418189 
 1354000   0.63549896     -2.85053     -2.85053   -2.1881075  0.046599996     -2.85053   0.66242252   418189 
 1355000   0.63446488   -2.8509252   -2.8509252   -2.1895806  0.045629113   -2.8509252   0.66134463   418189 
 1356000     0.634993   -2.8509305   -2.8509305   -2.1890354  0.045512823   -2.8509305   0.66189512   418189 
 1357000   0.63473152   -2.8509061   -2.8509061   -2.1892835  0.049311882   -2.8509061   0.66162256   418189 
 1358000   0.63472792   -2.8512411   -2.8512411   -2.1896223  0.046982823   -2.8512411   0.66161881   418189 
 1359000   0.63569656   -2.8520835   -2.8520835    -2.189455  0.048505523   -2.8520835   0.66262849   418189 
 1360000   0.63508108    -2.852055    -2.852055    -2.190068  0.053937783    -2.852055   0.66198693   418189 
 1361000   0.63571715   -2.8529922   -2.8529922   -2.1903423  0.046450594   -2.8529922   0.66264995   418189 
 1362000   0.63539763   -2.8530733   -2.8530733   -2.1907564  0.043401752   -2.8530733    0.6623169   418189 
 1363000    0.6338461   -2.8517151   -2.8517151   -2.1910155    0.0482553   -2.8517151   0.66069963   418189 
 1364000   0.63355293   -2.8518946   -2.8518946   -2.1915005  0.046332654   -2.8518946   0.66039405   418189 
 1365000   0.63341751   -2.8516138   -2.8516138    -2.191361  0.049408704   -2.8516138   0.66025288   418189 
 1366000   0.63475301   -2.8525731   -2.8525731   -2.1909281  0.047689518   -2.8525731   0.66164496   418189 
 1367000   0.63502567   -2.8531515   -2.8531515   -2.1912223   0.04958015   -2.8531515   0.66192918   418189 
 1368000   0.63556479   -2.8539921   -2.8539921   -2.1915009   0.04818757   -2.8539921   0.66249113   418189 
 1369000   0.63381717   -2.8525745   -2.8525745    -2.191905  0.045441439   -2.8525745   0.66066948   418189 
 1370000   0.63292928   -2.8525455   -2.8525455   -2.1928015  0.048370525   -2.8525455   0.65974397   418189 
 1371000    0.6336929   -2.8531139   -2.8531139    -2.192574  0.051068279   -2.8531139   0.66053994   418189 
 1372000   0.63237076   -2.8525961   -2.8525961   -2.1934343  0.044366819   -2.8525961   0.65916179   418189 
 1373000   0.63447401   -2.8549049   -2.8549049   -2.1935507  0.046773505   -2.8549049   0.66135414   418189 
 1374000   0.63466074    -2.855304    -2.855304   -2.1937552  0.049186822    -2.855304   0.66154878   418189 
 1375000   0.63262064   -2.8525851   -2.8525851   -2.1931628   0.05065753   -2.8525851   0.65942225   418189 
 1376000   0.63459717   -2.8541405   -2.8541405    -2.192658  0.054352372   -2.8541405   0.66148252   418189 
 1377000   0.63541477     -2.85493     -2.85493   -2.1925952  0.050405155     -2.85493   0.66233476   418189 
 1378000   0.63410088   -2.8539292   -2.8539292    -2.192964  0.052324674   -2.8539292    0.6609652   418189 
 1379000   0.63324331   -2.8529503   -2.8529503    -2.192879  0.055466077   -2.8529503    0.6600713   418189 
 1380000   0.63413976   -2.8545751   -2.8545751   -2.1935694  0.044004134   -2.8545751   0.66100573   418189 
 1381000    0.6356018   -2.8562431   -2.8562431   -2.1937134  0.052435128   -2.8562431   0.66252971   418189 
 1382000   0.63402618   -2.8550133   -2.8550133   -2.1941259  0.053303392   -2.8550133   0.66088734   418189 
 1383000   0.63408367   -2.8549785   -2.8549785   -2.1940313  0.044532765   -2.8549785   0.66094727   418189 
 1384000   0.63376756    -2.855019    -2.855019   -2.1944012  0.050207532    -2.855019   0.66061777   418189 
 1385000   0.63322615   -2.8550855   -2.8550855   -2.1950321  0.052652173   -2.8550855   0.66005341   418189 
 1386000   0.63331563   -2.8547237   -2.8547237    -2.194577  0.044033128   -2.8547237   0.66014669   418189 
 1387000   0.63394552   -2.8556296   -2.8556296   -2.1948263  0.049213308   -2.8556296   0.66080327   418189 
 1388000   0.63266381   -2.8546776   -2.8546776   -2.1952103   0.04917478   -2.8546776   0.65946726   418189 
 1389000   0.63373459   -2.8557907   -2.8557907   -2.1952073  0.051385138   -2.8557907    0.6605834   418189 
 1390000   0.63335728   -2.8556245   -2.8556245   -2.1954344  0.046838822   -2.8556245    0.6601901   418189 
 1391000   0.63539552   -2.8570688   -2.8570688   -2.1947541  0.038808827   -2.8570688   0.66231469   418189 
 1392000   0.63244685   -2.8540237   -2.8540237   -2.1947826  0.052176845   -2.8540237    0.6592411   418189 
 1393000   0.63339126   -2.8557632   -2.8557632   -2.1955376  0.049332979   -2.8557632   0.66022552   418189 
 1394000   0.63280895   -2.8549328   -2.8549328   -2.1953143   0.05287426   -2.8549328   0.65961854   418189 
 1395000   0.63392608   -2.8563097   -2.8563097   -2.1955267  0.054044975   -2.8563097     0.660783   418189 
 1396000   0.63356072    -2.856573    -2.856573   -2.1961708   0.05756252    -2.856573   0.66040216   418189 
 1397000   0.63359736   -2.8563485   -2.8563485   -2.1959081  0.058183866   -2.8563485   0.66044035   418189 
 1398000   0.63426242   -2.8572422   -2.8572422   -2.1961086  0.045505076   -2.8572422   0.66113359   418189 
 1399000    0.6333001   -2.8569674   -2.8569674   -2.1968369  0.048254987   -2.8569674    0.6601305   418189 
 1400000   0.63368206    -2.856769    -2.856769   -2.1962404  0.052973292    -2.856769   0.66052864   418189 
 1401000   0.63330335     -2.85682     -2.85682   -2.1966861  0.056152517     -2.85682   0.66013389   418189 
 1402000   0.63249778   -2.8561692   -2.8561692    -2.196875  0.044292337   -2.8561692   0.65929419   418189 
 1403000   0.63157313   -2.8564331   -2.8564331   -2.1981028  0.041591931   -2.8564331   0.65833036   418189 
 1404000   0.63215618   -2.8564625   -2.8564625   -2.1975244  0.046303566   -2.8564625   0.65893811   418189 
 1405000    0.6335558   -2.8576807   -2.8576807   -2.1972837  0.046421397   -2.8576807   0.66039703   418189 
 1406000   0.63157604   -2.8564088   -2.8564088   -2.1980754  0.042619075   -2.8564088    0.6583334   418189 
 1407000   0.63248972   -2.8572051   -2.8572051   -2.1979193   0.04373063   -2.8572051   0.65928579   418189 
 1408000   0.63213538    -2.857442    -2.857442   -2.1985256  0.031415028    -2.857442   0.65891643   418189 
 1409000   0.63064947   -2.8563518   -2.8563518   -2.1989843  0.065023053   -2.8563518   0.65736758   418189 
 1410000    0.6330341   -2.8579292   -2.8579292    -2.198076  0.047983181   -2.8579292   0.65985323   418189 
 1411000   0.63311808   -2.8586173   -2.8586173   -2.1986765  0.051066448   -2.8586173   0.65994077   418189 
 1412000   0.63277485   -2.8580925   -2.8580925   -2.1985095  0.046051428   -2.8580925     0.659583   418189 
 1413000   0.63161192   -2.8578156   -2.8578156   -2.1994448  0.051987897   -2.8578156    0.6583708   418189 
 1414000   0.63374958   -2.8596668   -2.8596668   -2.1990678  0.045129493   -2.8596668   0.66059903   418189 
 1415000   0.63283004    -2.858593    -2.858593   -2.1989525  0.045456841    -2.858593   0.65964052   418189 
 1416000   0.63428671   -2.8601846   -2.8601846   -2.1990257  0.063104848   -2.8601846   0.66115891   418189 
 1417000   0.63306373   -2.8590995   -2.8590995   -2.1992154  0.044780193   -2.8590995   0.65988411   418189 
 1418000   0.63250647   -2.8591779   -2.8591779   -2.1998747  0.045907719   -2.8591779   0.65930324   418189 
 1419000   0.63359746   -2.8600118   -2.8600118   -2.1995714  0.052709109   -2.8600118   0.66044045   418189 
 1420000   0.63353574   -2.8600458   -2.8600458   -2.1996697   0.05764277   -2.8600458   0.66037612   418189 
 1421000   0.63216499   -2.8588186   -2.8588186   -2.1998713  0.054154514   -2.8588186    0.6589473   418189 
 1422000   0.63194059   -2.8590722   -2.8590722   -2.2003588  0.046239778   -2.8590722   0.65871339   418189 
 1423000   0.63466757   -2.8619634   -2.8619634   -2.2004075  0.042993151   -2.8619634    0.6615559   418189 
 1424000   0.63370836   -2.8610664   -2.8610664   -2.2005104  0.050322716   -2.8610664   0.66055605   418189 
 1425000   0.63318556   -2.8602552   -2.8602552   -2.2002441  0.049530999   -2.8602552   0.66001111   418189 
 1426000   0.63337246   -2.8610835   -2.8610835   -2.2008776  0.053497799   -2.8610835   0.66020593   418189 
 1427000   0.63162451   -2.8593913   -2.8593913   -2.2010074  0.041895059   -2.8593913   0.65838392   418189 
 1428000   0.63426313   -2.8627474   -2.8627474    -2.201613  0.049856272   -2.8627474   0.66113433   418189 
 1429000    0.6333255   -2.8618481   -2.8618481   -2.2016911  0.039235997   -2.8618481   0.66015698   418189 
 1430000   0.63298766   -2.8612969   -2.8612969   -2.2014921  0.058011762   -2.8612969   0.65980483   418189 
 1431000   0.63225505   -2.8605505   -2.8605505   -2.2015093  0.051773547   -2.8605505   0.65904118   418189 
 1432000   0.63372659   -2.8626671   -2.8626671   -2.2020921  0.050535648   -2.8626671   0.66057505   418189 
 1433000   0.63169827   -2.8605521   -2.8605521   -2.2020913  0.049321732   -2.8605521   0.65846081   418189 
 1434000   0.63193135   -2.8607566   -2.8607566   -2.2020529  0.045028328   -2.8607566   0.65870376   418189 
 1435000    0.6326456   -2.8616359   -2.8616359   -2.2021877  0.046292687   -2.8616359   0.65944827   418189 
 1436000   0.63244137   -2.8610257   -2.8610257   -2.2017904  0.056127979   -2.8610257   0.65923539   418189 
 1437000   0.63284572   -2.8624831   -2.8624831   -2.2028262  0.044191545   -2.8624831   0.65965687   418189 
 1438000   0.63223689   -2.8617251   -2.8617251   -2.2027029  0.039652396   -2.8617251   0.65902225   418189 
 1439000   0.63234309   -2.8617697   -2.8617697   -2.2026368  0.041728141   -2.8617697   0.65913295   418189 
 1440000   0.63203481   -2.8611913   -2.8611913   -2.2023797  0.052572684   -2.8611913    0.6588116   418189 
 1441000   0.63181203      -2.8606      -2.8606   -2.2020206  0.055479808      -2.8606   0.65857938   418189 
 1442000   0.63220649   -2.8611901   -2.8611901   -2.2021995  0.040580798   -2.8611901   0.65899056   418189 
 1443000   0.63254232   -2.8609359   -2.8609359   -2.2015953  0.041746978   -2.8609359   0.65934062   418189 
 1444000   0.63175395   -2.8609675   -2.8609675   -2.2024486   0.05400642   -2.8609675   0.65851885   418189 
 1445000   0.63304918   -2.8616961   -2.8616961   -2.2018272  0.050298587   -2.8616961   0.65986895   418189 
 1446000   0.63256499   -2.8626232   -2.8626232    -2.203259  0.049142333   -2.8626232   0.65936425   418189 
 1447000   0.63216294     -2.86146     -2.86146   -2.2025148  0.053737053     -2.86146   0.65894517   418189 
 1448000    0.6328048   -2.8625993   -2.8625993   -2.2029851  0.048521358   -2.8625993   0.65961421   418189 
 1449000   0.63154848   -2.8615589   -2.8615589   -2.2032542  0.036768868   -2.8615589   0.65830467   418189 
 1450000   0.63280633   -2.8630914   -2.8630914   -2.2034756  0.045219989   -2.8630914   0.65961581   418189 
 1451000    0.6308109   -2.8615004   -2.8615004   -2.2039646  0.042967258   -2.8615004   0.65753584   418189 
 1452000    0.6309009   -2.8617198   -2.8617198   -2.2040902  0.055744944   -2.8617198   0.65762965   418189 
 1453000   0.63104756   -2.8621082   -2.8621082   -2.2043257    0.0365148   -2.8621082   0.65778253   418189 
 1454000   0.63128657   -2.8629547   -2.8629547    -2.204923  0.045322192   -2.8629547   0.65803166   418189 
 1455000   0.63214377   -2.8637766   -2.8637766   -2.2048514  0.046533807   -2.8637766   0.65892519   418189 
 1456000   0.63122655   -2.8617319   -2.8617319   -2.2037628   0.05476696   -2.8617319    0.6579691   418189 
 1457000   0.63266539   -2.8630229   -2.8630229    -2.203554  0.042059747   -2.8630229    0.6594689   418189 
 1458000   0.63096261   -2.8616694   -2.8616694   -2.2039754  0.055795308   -2.8616694   0.65769398   418189 
 1459000   0.63190019   -2.8624819   -2.8624819   -2.2038106  0.044039065   -2.8624819   0.65867128   418189 
 1460000   0.63265527    -2.864372    -2.864372   -2.2049137  0.046670398    -2.864372   0.65945835   418189 
 1461000   0.63161218   -2.8630372   -2.8630372   -2.2046661  0.041618417   -2.8630372   0.65837106   418189 
 1462000   0.63192535   -2.8635511   -2.8635511   -2.2048536  0.051602974   -2.8635511   0.65869751   418189 
 1463000   0.63274694   -2.8646388   -2.8646388   -2.2050849  0.047240612   -2.8646388   0.65955391   418189 
 1464000   0.63074072   -2.8631031   -2.8631031   -2.2056404  0.049062251   -2.8631031   0.65746269   418189 
 1465000   0.63098389   -2.8632124   -2.8632124   -2.2054963  0.056825199   -2.8632124   0.65771616   418189 
 1466000   0.63219033    -2.864911    -2.864911   -2.2059373  0.046439072    -2.864911   0.65897372   418189 
 1467000   0.63074509   -2.8641809   -2.8641809   -2.2067137  0.061771736   -2.8641809   0.65746724   418189 
 1468000   0.63157726   -2.8648664   -2.8648664   -2.2065317  0.056327136   -2.8648664   0.65833467   418189 
 1469000   0.63038917   -2.8639236   -2.8639236   -2.2068274  0.042951697   -2.8639236   0.65709625   418189 
 1470000   0.63122475   -2.8650596   -2.8650596   -2.2070923  0.048853457   -2.8650596   0.65796722   418189 
 1471000   0.63142256   -2.8654834   -2.8654834     -2.20731  0.047143828   -2.8654834   0.65817341   418189 
 1472000   0.63164486   -2.8646064   -2.8646064   -2.2062013  0.058081582   -2.8646064   0.65840513   418189 
 1473000   0.63271915   -2.8663949   -2.8663949     -2.20687  0.057730435   -2.8663949   0.65952494   418189 
 1474000   0.63015697   -2.8646601   -2.8646601   -2.2078058   0.05136369   -2.8646601   0.65685421   418189 
 1475000   0.63199606   -2.8666021   -2.8666021   -2.2078309  0.050559473   -2.8666021   0.65877121   418189 
 1476000   0.63103133   -2.8656095   -2.8656095   -2.2078439  0.044724639   -2.8656095   0.65776561   418189 
 1477000   0.63080975   -2.8659778   -2.8659778   -2.2084432  0.043511208   -2.8659778   0.65753465   418189 
 1478000   0.63052876   -2.8656838   -2.8656838   -2.2084421  0.047773421   -2.8656838   0.65724174   418189 
 1479000   0.62992803   -2.8644777   -2.8644777   -2.2078622  0.047642076   -2.8644777   0.65661556   418189 
 1480000   0.63091876   -2.8654282   -2.8654282     -2.20778  0.048222262   -2.8654282   0.65764827   418189 
 1481000   0.63104868   -2.8656739   -2.8656739   -2.2078902   0.05983792   -2.8656739   0.65778369   418189 
 1482000   0.63089707   -2.8657461   -2.8657461   -2.2081204  0.043202948   -2.8657461   0.65762566   418189 
 1483000   0.63073605   -2.8659218   -2.8659218    -2.208464   0.05146962   -2.8659218   0.65745782   418189 
 1484000   0.62931103   -2.8644217   -2.8644217   -2.2084493  0.059886885   -2.8644217   0.65597243   418189 
 1485000   0.63005613    -2.864062    -2.864062   -2.2073129  0.044201473    -2.864062    0.6567491   418189 
 1486000   0.63191478   -2.8660474   -2.8660474    -2.207361  0.045299552   -2.8660474   0.65868649   418189 
 1487000   0.63037384    -2.864439    -2.864439   -2.2073588  0.046300654    -2.864439   0.65708026   418189 
 1488000   0.62968968   -2.8641978   -2.8641978   -2.2078307  0.033991733   -2.8641978   0.65636712   418189 
 1489000   0.62990535   -2.8638698   -2.8638698   -2.2072778  0.049477747   -2.8638698   0.65659193   418189 
 1490000     0.630237   -2.8643809   -2.8643809   -2.2074433  0.046289683   -2.8643809   0.65693763   418189 
 1491000    0.6304506   -2.8642764   -2.8642764   -2.2071161  0.040502363   -2.8642764   0.65716027   418189 
 1492000   0.62972581   -2.8630071   -2.8630071   -2.2066023  0.046096094   -2.8630071   0.65640478   418189 
 1493000   0.63052748   -2.8640912   -2.8640912   -2.2068507  0.039323723   -2.8640912   0.65724041   418189 
 1494000   0.62987379   -2.8636069   -2.8636069   -2.2070479   0.04767058   -2.8636069   0.65655903   418189 
 1495000   0.63110336    -2.864775    -2.864775   -2.2069343  0.056125441    -2.864775   0.65784069   418189 
 1496000   0.63016769   -2.8638696   -2.8638696   -2.2070042  0.048263212   -2.8638696   0.65686538   418189 
 1497000   0.63047577    -2.864321    -2.864321   -2.2071345  0.050132905    -2.864321   0.65718651   418189 
 1498000   0.62992637   -2.8641596   -2.8641596   -2.2075458  0.049200764   -2.8641596   0.65661384   418189 
 1499000    0.6309713   -2.8648706   -2.8648706   -2.2071676  0.048233564   -2.8648706   0.65770304   418189 
 1500000   0.63072474   -2.8654475   -2.8654475   -2.2080014  0.053700682   -2.8654475   0.65744603   418189 
 1501000   0.63014706   -2.8653853   -2.8653853   -2.2085415  0.048068455   -2.8653853   0.65684388   418189 
 1502000   0.62998329   -2.8655946   -2.8655946   -2.2089215  0.043893241   -2.8655946   0.65667317   418189 
 1503000   0.63019339    -2.865458    -2.865458   -2.2085658  0.052555369    -2.865458   0.65689217   418189 
 1504000   0.63153478   -2.8675677   -2.8675677   -2.2092773  0.042632446   -2.8675677   0.65829039   418189 
 1505000   0.63059909   -2.8673815   -2.8673815   -2.2100665  0.048589764   -2.8673815   0.65731505   418189 
 1506000    0.6295965   -2.8660252   -2.8660252   -2.2097552  0.049560757   -2.8660252   0.65626999   418189 
 1507000   0.63062309   -2.8665977   -2.8665977   -2.2092576  0.052270792   -2.8665977   0.65734007   418189 
 1508000    0.6311901   -2.8674205   -2.8674205   -2.2094894  0.049731461   -2.8674205    0.6579311   418189 
 1509000   0.63165338   -2.8674426   -2.8674426   -2.2090286  0.051388873   -2.8674426   0.65841401   418189 
 1510000   0.63021084   -2.8659978   -2.8659978   -2.2090875  0.053814124   -2.8659978   0.65691036   418189 
 1511000   0.63018318   -2.8659191   -2.8659191   -2.2090376  0.045118432   -2.8659191   0.65688153   418189 
 1512000   0.63091416   -2.8680259   -2.8680259   -2.2103824   0.05244412   -2.8680259   0.65764347   418189 
 1513000   0.63004092   -2.8672263   -2.8672263    -2.210493  0.044669614   -2.8672263   0.65673324   418189 
 1514000   0.62948968    -2.866732    -2.866732   -2.2105733  0.042679887    -2.866732   0.65615865   418189 
 1515000   0.63129055   -2.8686918   -2.8686918    -2.210656  0.038860491   -2.8686918   0.65803581   418189 
 1516000    0.6300391   -2.8672166   -2.8672166   -2.2104852  0.048779426   -2.8672166   0.65673135   418189 
 1517000   0.63059494   -2.8685347   -2.8685347    -2.211224  0.054425972   -2.8685347   0.65731073   418189 
 1518000   0.63077534   -2.8683284   -2.8683284   -2.2108296  0.044501271   -2.8683284   0.65749878   418189 
 1519000   0.62979965    -2.867177    -2.867177   -2.2106953  0.046240526    -2.867177   0.65648175   418189 
 1520000   0.63223791   -2.8689591   -2.8689591   -2.2099358  0.046006197   -2.8689591   0.65902331   418189 
 1521000     0.630152   -2.8668847   -2.8668847   -2.2100357  0.053712998   -2.8668847   0.65684902   418189 
 1522000   0.62993557   -2.8673853   -2.8673853   -2.2107619   0.04342771   -2.8673853   0.65662342   418189 
 1523000   0.63020821   -2.8674414   -2.8674414   -2.2105337  0.054682359   -2.8674414   0.65690762   418189 
 1524000    0.6292956   -2.8661041   -2.8661041   -2.2101477  0.038812655   -2.8661041   0.65595635   418189 
 1525000   0.62905202   -2.8667413   -2.8667413   -2.2110389  0.049001713   -2.8667413   0.65570244   418189 
 1526000   0.62978745   -2.8679221   -2.8679221    -2.211453  0.046055286   -2.8679221   0.65646903   418189 
 1527000    0.6288627   -2.8669168   -2.8669168   -2.2114117  0.050492741   -2.8669168   0.65550511   418189 
 1528000   0.63065346   -2.8688337   -2.8688337    -2.211462  0.054448309   -2.8688337   0.65737173   418189 
 1529000   0.63105641   -2.8695026   -2.8695026   -2.2117109  0.041880409   -2.8695026   0.65779175   418189 
 1530000   0.63110589   -2.8692401   -2.8692401   -2.2113967  0.044947255   -2.8692401   0.65784333   418189 
 1531000   0.62964455   -2.8678006   -2.8678006   -2.2114805  0.052854282   -2.8678006   0.65632008   418189 
 1532000   0.63072365    -2.868554    -2.868554   -2.2111091  0.047966097    -2.868554    0.6574449   418189 
 1533000    0.6294388   -2.8671857   -2.8671857   -2.2110801  0.051328478   -2.8671857   0.65610562   418189 
 1534000    0.6306611   -2.8687805   -2.8687805   -2.2114008  0.048113272   -2.8687805   0.65737969   418189 
 1535000   0.63000415   -2.8688492   -2.8688492   -2.2121543  0.051440586   -2.8688492   0.65669491   418189 
 1536000   0.63028667   -2.8694592   -2.8694592   -2.2124698  0.050892887   -2.8694592    0.6569894   418189 
 1537000   0.62914495   -2.8684644   -2.8684644   -2.2126651  0.051390602   -2.8684644   0.65579931   418189 
 1538000   0.63014311   -2.8697578   -2.8697578    -2.212918  0.049387279   -2.8697578   0.65683976   418189 
 1539000   0.62995614   -2.8699536   -2.8699536   -2.2133088  0.046019685   -2.8699536   0.65664487   418189 
 1540000   0.62998582   -2.8699609   -2.8699609   -2.2132851  0.039727385   -2.8699609   0.65667581   418189 
 1541000   0.62910922   -2.8697495   -2.8697495   -2.2139874  0.042415757   -2.8697495   0.65576207   418189 
 1542000   0.62759693   -2.8683787   -2.8683787    -2.214193  0.049251493   -2.8683787   0.65418571   418189 
 1543000   0.62813419   -2.8691702   -2.8691702   -2.2144245  0.054106477   -2.8691702   0.65474573   418189 
 1544000   0.62770598   -2.8682757   -2.8682757   -2.2139763  0.041542511   -2.8682757   0.65429938   418189 
 1545000   0.62906128   -2.8693509   -2.8693509   -2.2136388   0.04542618   -2.8693509   0.65571209   418189 
 1546000   0.62906008   -2.8695004   -2.8695004   -2.2137896  0.046092538   -2.8695004   0.65571085   418189 
 1547000   0.62928258   -2.8698913   -2.8698913   -2.2139485  0.044130906   -2.8698913   0.65594278   418189 
 1548000   0.63009913   -2.8706642   -2.8706642   -2.2138702  0.034599129   -2.8706642   0.65679392   418189 
 1549000   0.63005893   -2.8711951   -2.8711951   -2.2144431  0.055044583   -2.8711951   0.65675201   418189 
 1550000   0.62915538    -2.870172    -2.870172   -2.2143618  0.047897299    -2.870172   0.65581019   418189 
 1551000   0.62970887   -2.8715698   -2.8715698   -2.2151827  0.043625676   -2.8715698   0.65638712   418189 
 1552000   0.62854246   -2.8712293   -2.8712293    -2.216058  0.051277615   -2.8712293    0.6551713   418189 
 1553000   0.62904684   -2.8723519   -2.8723519   -2.2166549  0.047257139   -2.8723519   0.65569704   418189 
 1554000   0.62773407   -2.8703117   -2.8703117    -2.215983   0.03932951   -2.8703117   0.65432866   418189 
 1555000   0.62888618   -2.8720208   -2.8720208   -2.2164912   0.03827446   -2.8720208   0.65552958   418189 
 1556000   0.62799041   -2.8714995   -2.8714995   -2.2169037  0.042695848   -2.8714995   0.65459586   418189 
 1557000   0.62959332   -2.8729378   -2.8729378   -2.2166711  0.056018331   -2.8729378   0.65626668   418189 
 1558000   0.63008883   -2.8740718   -2.8740718   -2.2172886  0.035243661   -2.8740718   0.65678318   418189 
 1559000   0.62916828   -2.8735011   -2.8735011   -2.2176775  0.037963778   -2.8735011   0.65582363   418189 
 1560000   0.62938912   -2.8733764   -2.8733764   -2.2173225  0.048608637   -2.8733764   0.65605383   418189 
 1561000   0.62987394   -2.8743923   -2.8743923   -2.2178332  0.036958786   -2.8743923   0.65655919   418189 
 1562000   0.63047745   -2.8746466   -2.8746466   -2.2174583  0.058152144   -2.8746466   0.65718826   418189 
 1563000   0.62881817   -2.8729215   -2.8729215   -2.2174629  0.044742059   -2.8729215   0.65545869   418189 
 1564000   0.62982762   -2.8744364   -2.8744364   -2.2179255  0.038742036   -2.8744364   0.65651091   418189 
 1565000   0.62861763   -2.8735735   -2.8735735   -2.2183239  0.052457239   -2.8735735   0.65524965   418189 
 1566000   0.62774391   -2.8736989   -2.8736989   -2.2193599   0.04103857   -2.8736989   0.65433891   418189 
 1567000   0.62850585   -2.8740686   -2.8740686   -2.2189354  0.039273027   -2.8740686   0.65513313   418189 
 1568000   0.63115807    -2.876236    -2.876236   -2.2183383  0.052731704    -2.876236   0.65789772   418189 
 1569000   0.62819744   -2.8728845   -2.8728845   -2.2180729  0.047134044   -2.8728845   0.65481166   418189 
 1570000   0.62934654   -2.8751519   -2.8751519   -2.2191424  0.041426317   -2.8751519   0.65600944   418189 
 1571000   0.62857002   -2.8739889   -2.8739889   -2.2187889  0.052979382   -2.8739889   0.65520002   418189 
 1572000   0.62876151   -2.8745567   -2.8745567   -2.2191571  0.045662366   -2.8745567   0.65539963   418189 
 1573000   0.63057608   -2.8768279   -2.8768279   -2.2195368  0.036185294   -2.8768279   0.65729108   418189 
 1574000   0.62831202   -2.8750191   -2.8750191    -2.220088  0.042643148   -2.8750191    0.6549311   418189 
 1575000    0.6281391   -2.8748771   -2.8748771   -2.2201263   0.05050217   -2.8748771   0.65475085   418189 
 1576000   0.62848925   -2.8756082   -2.8756082   -2.2204924  0.040028121   -2.8756082   0.65511583   418189 
 1577000   0.62854346    -2.874958    -2.874958   -2.2197857  0.052045468    -2.874958   0.65517234   418189 
 1578000   0.62736605   -2.8740769   -2.8740769   -2.2201319  0.042567448   -2.8740769   0.65394504   418189 
 1579000   0.62903254   -2.8761426   -2.8761426   -2.2204604  0.050444824   -2.8761426   0.65568214   418189 
 1580000   0.62840389   -2.8761849   -2.8761849    -2.221158  0.043062859   -2.8761849   0.65502685   418189 
 1581000   0.62866127   -2.8758304   -2.8758304   -2.2205353  0.044750418   -2.8758304   0.65529514   418189 
 1582000   0.62702122   -2.8742013   -2.8742013   -2.2206157  0.046722353   -2.8742013   0.65358561   418189 
 1583000   0.62882996   -2.8768084   -2.8768084   -2.2213374  0.041890024   -2.8768084   0.65547097   418189 
 1584000   0.62859246   -2.8765585   -2.8765585   -2.2213351  0.046202914   -2.8765585   0.65522342   418189 
 1585000   0.62856263   -2.8765508   -2.8765508   -2.2213585  0.039421694   -2.8765508   0.65519232   418189 
 1586000   0.62872523   -2.8763026   -2.8763026   -2.2209408  0.044968311   -2.8763026   0.65536181   418189 
 1587000   0.62852038   -2.8754551   -2.8754551   -2.2203069   0.06563246   -2.8754551   0.65514828   418189 
 1588000   0.62979268   -2.8767498   -2.8767498   -2.2202753  0.049507985   -2.8767498   0.65647448   418189 
 1589000   0.63006877   -2.8770376   -2.8770376   -2.2202754  0.053503782   -2.8770376   0.65676227   418189 
 1590000   0.62881566   -2.8764426   -2.8764426   -2.2209866  0.041843322   -2.8764426   0.65545607   418189 
 1591000   0.62853155   -2.8757863   -2.8757863   -2.2206264   0.04940007   -2.8757863   0.65515992   418189 
 1592000   0.62892167   -2.8760181   -2.8760181   -2.2204515   0.04724086   -2.8760181   0.65556657   418189 
 1593000    0.6296362    -2.877423    -2.877423   -2.2211116  0.050908758    -2.877423   0.65631137   418189 
 1594000   0.62893641    -2.876184    -2.876184   -2.2206021  0.049141397    -2.876184   0.65558193   418189 
 1595000   0.62903759   -2.8770384   -2.8770384    -2.221351  0.039884728   -2.8770384   0.65568741   418189 
 1596000    0.6291488   -2.8776149   -2.8776149   -2.2218116  0.042949433   -2.8776149   0.65580332   418189 
 1597000   0.62836497   -2.8770318   -2.8770318   -2.2220455  0.053989027   -2.8770318   0.65498629   418189 
 1598000   0.62791614   -2.8765021   -2.8765021   -2.2219837  0.051707391   -2.8765021   0.65451844   418189 
 1599000   0.62768232   -2.8770527   -2.8770527    -2.222778  0.037248922   -2.8770527   0.65427472   418189 
 1600000   0.62812192   -2.8781171   -2.8781171   -2.2233842  0.050068647   -2.8781171   0.65473295   418189 
 1601000   0.62830154   -2.8782351   -2.8782351    -2.223315  0.037713461   -2.8782351   0.65492017   418189 
 1602000   0.62861042   -2.8788265   -2.8788265   -2.2235844  0.052989483   -2.8788265   0.65524214   418189 
 1603000   0.62769023   -2.8789331   -2.8789331   -2.2246501  0.044397118   -2.8789331   0.65428296   418189 
 1604000   0.62833015   -2.8800343   -2.8800343   -2.2250843  0.040688234   -2.8800343      0.65495   418189 
 1605000   0.62797024   -2.8793999   -2.8793999   -2.2248251  0.042777685   -2.8793999   0.65457483   418189 
 1606000   0.62758086   -2.8788177   -2.8788177   -2.2246488  0.048686524   -2.8788177   0.65416896   418189 
 1607000   0.62733187   -2.8780637   -2.8780637   -2.2241542  0.058518187   -2.8780637   0.65390942   418189 
 1608000   0.62780882   -2.8787017   -2.8787017   -2.2242951  0.051753483   -2.8787017   0.65440658   418189 
 1609000   0.62838721   -2.8795592   -2.8795592   -2.2245497  0.042851381   -2.8795592   0.65500947   418189 
 1610000   0.62859775   -2.8793631   -2.8793631   -2.2241342  0.057170682   -2.8793631   0.65522893   418189 
 1611000   0.62803919   -2.8796898   -2.8796898   -2.2250431  0.054873021   -2.8796898    0.6546467   418189 
 1612000    0.6265249   -2.8783296   -2.8783296   -2.2252613  0.042535753   -2.8783296   0.65306826   418189 
 1613000   0.62812507   -2.8803985   -2.8803985   -2.2256623   0.05051475   -2.8803985   0.65473622   418189 
 1614000   0.62657098   -2.8784914   -2.8784914   -2.2253751  0.046000891   -2.8784914   0.65311629   418189 
 1615000   0.62699539   -2.8787401   -2.8787401   -2.2251814  0.050062532   -2.8787401   0.65355869   418189 
 1616000    0.6286822   -2.8803926   -2.8803926   -2.2250756  0.037858578   -2.8803926   0.65531696   418189 
 1617000   0.62809858    -2.879317    -2.879317   -2.2246084   0.04266803    -2.879317   0.65470862   418189 
 1618000   0.62935976   -2.8805278   -2.8805278   -2.2245046  0.051248389   -2.8805278   0.65602322   418189 
 1619000   0.62773918   -2.8792049   -2.8792049   -2.2248709  0.038136057   -2.8792049   0.65433398   418189 
 1620000   0.62912081   -2.8811455   -2.8811455   -2.2253714  0.045021289   -2.8811455   0.65577415   418189 
 1621000   0.62822356   -2.8800745   -2.8800745   -2.2252357  0.040723786   -2.8800745   0.65483889   418189 
 1622000   0.62805168   -2.8801976   -2.8801976   -2.2255379  0.043586229   -2.8801976   0.65465973   418189 
 1623000   0.62794798   -2.8808992   -2.8808992   -2.2263476   0.04758031   -2.8808992   0.65455164   418189 
 1624000   0.63032483   -2.8834172   -2.8834172    -2.226388  0.037222843   -2.8834172   0.65702918   418189 
 1625000    0.6277011   -2.8811998   -2.8811998   -2.2269055  0.050444109   -2.8811998   0.65429429   418189 
 1626000   0.62786151   -2.8813595   -2.8813595    -2.226898  0.047625245   -2.8813595    0.6544615   418189 
 1627000   0.62825987   -2.8813609   -2.8813609   -2.2264841  0.045723263   -2.8813609   0.65487674   418189 
 1628000   0.62802525   -2.8812618   -2.8812618   -2.2266296  0.038875405   -2.8812618   0.65463218   418189 
 1629000   0.62853265   -2.8822011   -2.8822011   -2.2270401  0.030856823   -2.8822011   0.65516107   418189 
 1630000   0.62792063   -2.8821597   -2.8821597   -2.2276366  0.047695163   -2.8821597   0.65452313   418189 
 1631000   0.62747314   -2.8816072   -2.8816072   -2.2275506  0.043890835   -2.8816072   0.65405668   418189 
 1632000   0.62838981   -2.8826389   -2.8826389   -2.2276267  0.047688069   -2.8826389   0.65501218   418189 
 1633000    0.6288133   -2.8828765   -2.8828765   -2.2274229  0.053065688   -2.8828765   0.65545361   418189 
 1634000   0.62828063   -2.8828706   -2.8828706   -2.2279723  0.053260059   -2.8828706   0.65489837   418189 
 1635000    0.6281427   -2.8827286   -2.8827286    -2.227974  0.044067162   -2.8827286    0.6547546   418189 
 1636000   0.62652596   -2.8812024   -2.8812024    -2.228133  0.049299126   -2.8812024   0.65306937   418189 
 1637000   0.62778022   -2.8827064   -2.8827064   -2.2283297   0.04466012   -2.8827064   0.65437676   418189 
 1638000    0.6276871   -2.8824555   -2.8824555   -2.2281758  0.056334871   -2.8824555    0.6542797   418189 
 1639000   0.62720793   -2.8820994   -2.8820994   -2.2283191  0.042405119   -2.8820994   0.65378023   418189 
 1640000   0.62797684   -2.8835519   -2.8835519   -2.2289702  0.040110068   -2.8835519   0.65458171   418189 
 1641000   0.62711812    -2.882807    -2.882807   -2.2291204  0.051353336    -2.882807   0.65368661   418189 
 1642000   0.62805796   -2.8833771   -2.8833771   -2.2287108  0.046718259   -2.8833771   0.65466627   418189 
 1643000   0.62599281   -2.8825837   -2.8825837     -2.23007  0.043706852   -2.8825837   0.65251363   418189 
 1644000   0.62773011   -2.8845689   -2.8845689   -2.2302444  0.041020745   -2.8845689   0.65432453   418189 
 1645000   0.62679124   -2.8838437   -2.8838437   -2.2304978  0.034381404   -2.8838437   0.65334588   418189 
 1646000   0.62679295   -2.8837685   -2.8837685   -2.2304208  0.053797124   -2.8837685   0.65334766   418189 
 1647000   0.62700095   -2.8844928   -2.8844928   -2.2309283   0.05330772   -2.8844928   0.65356448   418189 
 1648000   0.62735614   -2.8846115   -2.8846115   -2.2306768  0.050293239   -2.8846115   0.65393472   418189 
 1649000    0.6271918   -2.8837097   -2.8837097   -2.2299463  0.052255644   -2.8837097   0.65376342   418189 
 1650000   0.62804735   -2.8846322   -2.8846322    -2.229977  0.047706304   -2.8846322   0.65465521   418189 
 1651000   0.62712721   -2.8836829   -2.8836829   -2.2299868  0.049801387   -2.8836829   0.65369608   418189 
 1652000   0.62741545   -2.8841434   -2.8841434   -2.2301469  0.038814859   -2.8841434   0.65399654   418189 
 1653000   0.62611972   -2.8834757   -2.8834757   -2.2308298  0.040732006   -2.8834757   0.65264591   418189 
 1654000   0.62671813   -2.8852846   -2.8852846    -2.232015  0.051726302   -2.8852846   0.65326967   418189 
 1655000   0.62694933   -2.8850943   -2.8850943   -2.2315836  0.039383018   -2.8850943   0.65351067   418189 
 1656000   0.62520899   -2.8836924   -2.8836924   -2.2319958    0.0500809   -2.8836924    0.6516966   418189 
 1657000   0.62659042   -2.8849228   -2.8849228   -2.2317862  0.045919992   -2.8849228   0.65313655   418189 
 1658000   0.62624945   -2.8846301   -2.8846301   -2.2318489  0.043635852   -2.8846301   0.65278114   418189 
 1659000   0.62643519    -2.884174    -2.884174   -2.2311992  0.045612021    -2.884174   0.65297475   418189 
 1660000   0.62607011   -2.8833133   -2.8833133   -2.2307191  0.048393541   -2.8833133    0.6525942   418189 
 1661000   0.62679104   -2.8842248   -2.8842248   -2.2308791  0.047916505   -2.8842248   0.65334568   418189 
 1662000   0.62646005   -2.8840837   -2.8840837    -2.231083  0.033436746   -2.8840837   0.65300066   418189 
 1663000   0.62572675   -2.8835648   -2.8835648   -2.2313285  0.042483099   -2.8835648    0.6522363   418189 
 1664000   0.62693004   -2.8845806   -2.8845806     -2.23109  0.054874799   -2.8845806   0.65349056   418189 
 1665000   0.62802255   -2.8852023   -2.8852023   -2.2305729  0.045710513   -2.8852023   0.65462936   418189 
 1666000   0.62787058   -2.8849674   -2.8849674   -2.2304965  0.048635431   -2.8849674   0.65447095   418189 
 1667000   0.62701082   -2.8844746   -2.8844746   -2.2308998  0.042374153   -2.8844746   0.65357477   418189 
 1668000   0.62677047   -2.8845002   -2.8845002    -2.231176  0.055273241   -2.8845002   0.65332424   418189 
 1669000   0.62694153   -2.8839978   -2.8839978   -2.2304952  0.054458317   -2.8839978   0.65350254   418189 
 1670000   0.62746918   -2.8851026   -2.8851026   -2.2310501  0.037901413   -2.8851026   0.65405255   418189 
 1671000   0.62569476   -2.8838615   -2.8838615   -2.2316586  0.045997556   -2.8838615   0.65220295   418189 
 1672000   0.62671897   -2.8849387   -2.8849387   -2.2316681  0.050398064   -2.8849387   0.65327055   418189 
 1673000   0.62563716   -2.8834694   -2.8834694   -2.2313265  0.043151014   -2.8834694   0.65214291   418189 
 1674000   0.62629046   -2.8843432   -2.8843432   -2.2315193  0.052700594   -2.8843432   0.65282389   418189 
 1675000   0.62752511   -2.8853874   -2.8853874   -2.2312766   0.07170417   -2.8853874   0.65411084   418189 
 1676000      0.62708   -2.8865766   -2.8865766   -2.2329297  0.040250068   -2.8865766   0.65364688   418189 
 1677000   0.62508853    -2.884947    -2.884947    -2.233376  0.041771209    -2.884947   0.65157104   418189 
 1678000   0.62678147   -2.8866296   -2.8866296   -2.2332939  0.052041399   -2.8866296    0.6533357   418189 
 1679000   0.62568212   -2.8852015   -2.8852015   -2.2330118  0.045274715   -2.8852015   0.65218977   418189 
 1680000   0.62761777   -2.8870653   -2.8870653   -2.2328579  0.046125212   -2.8870653   0.65420743   418189 
 1681000   0.62607242   -2.8855744   -2.8855744   -2.2329778  0.038546967   -2.8855744   0.65259661   418189 
 1682000    0.6267587   -2.8861921   -2.8861921   -2.2328802  0.047002351   -2.8861921   0.65331197   418189 
 1683000   0.62657793    -2.886081    -2.886081   -2.2329574  0.043093679    -2.886081   0.65312354   418189 
 1684000   0.62619548   -2.8859667   -2.8859667   -2.2332418  0.046070579   -2.8859667   0.65272489   418189 
 1685000   0.62682956   -2.8868917   -2.8868917   -2.2335058  0.040931536   -2.8868917   0.65338583   418189 
 1686000   0.62695142   -2.8877325   -2.8877325   -2.2342197  0.043005256   -2.8877325   0.65351285   418189 
 1687000   0.62613416   -2.8872055   -2.8872055   -2.2345445  0.050191021   -2.8872055   0.65266097   418189 
 1688000    0.6265214   -2.8870737   -2.8870737   -2.2340091  0.049649608   -2.8870737   0.65306462   418189 
 1689000   0.62634701   -2.8872479   -2.8872479   -2.2343651  0.039302205   -2.8872479   0.65288284   418189 
 1690000   0.62537117   -2.8860635   -2.8860635   -2.2341978  0.038322315   -2.8860635   0.65186565   418189 
 1691000    0.6248422   -2.8856538   -2.8856538   -2.2343395  0.038482155   -2.8856538   0.65131427   418189 
 1692000   0.62770363   -2.8885663   -2.8885663   -2.2342693  0.046161216   -2.8885663   0.65429693   418189 
 1693000   0.62583923   -2.8858606   -2.8858606    -2.233507  0.046311934   -2.8858606   0.65235354   418189 
 1694000   0.62849499   -2.8882977   -2.8882977   -2.2331759  0.045144106   -2.8882977   0.65512181   418189 
 1695000   0.62868944   -2.8890872   -2.8890872   -2.2337627   0.05023811   -2.8890872    0.6553245   418189 
 1696000   0.62692285   -2.8879011   -2.8879011    -2.234418   0.04317494   -2.8879011   0.65348307   418189 
 1697000   0.62646191   -2.8869419   -2.8869419   -2.2339393  0.046303745   -2.8869419   0.65300261   418189 
 1698000   0.62685096   -2.8876232   -2.8876232   -2.2342151  0.052365828   -2.8876232   0.65340813   418189 
 1699000   0.62688585   -2.8881735   -2.8881735    -2.234729  0.053533131   -2.8881735    0.6534445   418189 
 1700000   0.62647132   -2.8874333   -2.8874333   -2.2344208  0.046868362   -2.8874333   0.65301241   418189 
 1701000   0.62538132   -2.8861306   -2.8861306   -2.2342544  0.064129105   -2.8861306   0.65187623   418189 
 1702000   0.62630058   -2.8870231   -2.8870231   -2.2341886  0.040193424   -2.8870231   0.65283444   418189 
 1703000   0.62570822   -2.8865918   -2.8865918   -2.2343748  0.053032017   -2.8865918   0.65221698   418189 
 1704000   0.62650913    -2.888006    -2.888006   -2.2349541  0.049357396    -2.888006   0.65305182   418189 
 1705000    0.6250893   -2.8868863   -2.8868863   -2.2353145  0.045161888   -2.8868863   0.65157184   418189 
 1706000   0.62550127   -2.8874178   -2.8874178   -2.2354165   0.03775464   -2.8874178   0.65200127   418189 
 1707000   0.62539068   -2.8872756   -2.8872756   -2.2353896  0.054752312   -2.8872756   0.65188599   418189 
 1708000   0.62689438   -2.8886097   -2.8886097   -2.2351563   0.04421629   -2.8886097   0.65345339   418189 
 1709000   0.62583505   -2.8873735   -2.8873735   -2.2350243  0.045153526   -2.8873735   0.65234918   418189 
 1710000   0.62423576   -2.8860291   -2.8860291    -2.235347   0.04368154   -2.8860291   0.65068214   418189 
 1711000   0.62478912   -2.8864467   -2.8864467   -2.2351878  0.048478463   -2.8864467   0.65125895   418189 
 1712000   0.62521885    -2.887577    -2.887577   -2.2358701    0.0507248    -2.887577   0.65170687   418189 
 1713000   0.62649089   -2.8888591   -2.8888591   -2.2358263  0.051624343   -2.8888591   0.65303281   418189 
 1714000   0.62728145   -2.8896087   -2.8896087   -2.2357518  0.039385608   -2.8896087   0.65385687   418189 
 1715000   0.62518315    -2.887416    -2.887416   -2.2357464   0.04417924    -2.887416   0.65166966   418189 
 1716000   0.62566151   -2.8876265   -2.8876265   -2.2354582  0.050120149   -2.8876265    0.6521683   418189 
 1717000   0.62651382   -2.8884739   -2.8884739   -2.2354172  0.047676944   -2.8884739   0.65305671   418189 
 1718000   0.62664397   -2.8892892   -2.8892892   -2.2360968  0.045552327   -2.8892892   0.65319238   418189 
 1719000   0.62610063   -2.8893885   -2.8893885   -2.2367625  0.045728699   -2.8893885   0.65262601   418189 
 1720000   0.62478053    -2.888674    -2.888674    -2.237424  0.055497495    -2.888674   0.65124999   418189 
 1721000     0.625453   -2.8892979   -2.8892979   -2.2373469  0.042967778   -2.8892979   0.65195095   418189 
 1722000   0.62510724   -2.8888477   -2.8888477   -2.2372572   0.04501941   -2.8888477   0.65159054   418189 
 1723000   0.62536579   -2.8895326   -2.8895326   -2.2376726  0.047573598   -2.8895326   0.65186004   418189 
 1724000   0.62617234   -2.8902397   -2.8902397   -2.2375389  0.051388791   -2.8902397   0.65270076   418189 
 1725000   0.62579492   -2.8896093   -2.8896093    -2.237302  0.050790413   -2.8896093   0.65230735   418189 
 1726000   0.62504656   -2.8897731   -2.8897731   -2.2382458  0.042882978   -2.8897731   0.65152729   418189 
 1727000   0.62508256   -2.8892739   -2.8892739   -2.2377091  0.047979992   -2.8892739   0.65156481   418189 
 1728000   0.62370177   -2.8886768   -2.8886768   -2.2385513  0.049872233   -2.8886768   0.65012552   418189 
 1729000   0.62507603   -2.8899004   -2.8899004   -2.2383424  0.044092335   -2.8899004     0.651558   418189 
 1730000   0.62518138    -2.889641    -2.889641   -2.2379731  0.046799296    -2.889641   0.65166782   418189 
 1731000   0.62681024   -2.8919423   -2.8919423   -2.2385766  0.047677119   -2.8919423   0.65336569   418189 
 1732000   0.62497533   -2.8901795   -2.8901795   -2.2387264  0.053397847   -2.8901795   0.65145305   418189 
 1733000   0.62403807   -2.8896223   -2.8896223   -2.2391463   0.04823508   -2.8896223   0.65047608   418189 
 1734000   0.62607892    -2.892132    -2.892132   -2.2395286  0.046744946    -2.892132   0.65260338   418189 
 1735000   0.62704795   -2.8924034   -2.8924034   -2.2387899  0.043653249   -2.8924034   0.65361347   418189 
 1736000   0.62516631   -2.8915533   -2.8915533   -2.2399012  0.041082492   -2.8915533   0.65165211   418189 
 1737000   0.62559967   -2.8919399   -2.8919399   -2.2398361  0.038068513   -2.8919399   0.65210383   418189 
 1738000   0.62417774   -2.8911456   -2.8911456    -2.240524   0.05187939   -2.8911456   0.65062166   418189 
 1739000   0.62564312   -2.8926211   -2.8926211    -2.240472  0.046428274   -2.8926211   0.65214912   418189 
 1740000   0.62475423   -2.8923372   -2.8923372   -2.2411146  0.043924216   -2.8923372   0.65122257   418189 
 1741000   0.62535106   -2.8934375   -2.8934375   -2.2415929  0.057073888   -2.8934375   0.65184469   418189 
 1742000   0.62486342   -2.8931183   -2.8931183   -2.2417819     0.052139   -2.8931183   0.65133639   418189 
 1743000   0.62547573   -2.8938169   -2.8938169   -2.2418423  0.036285557   -2.8938169   0.65197464   418189 
 1744000   0.62448494   -2.8921695   -2.8921695   -2.2412276  0.048571877   -2.8921695   0.65094187   418189 
 1745000   0.62606094   -2.8939106   -2.8939106    -2.241326   0.05106499   -2.8939106   0.65258465   418189 
 1746000   0.62492105   -2.8928805   -2.8928805    -2.241484  0.054724853   -2.8928805   0.65139646   418189 
 1747000   0.62474687   -2.8924551   -2.8924551   -2.2412402  0.045215229   -2.8924551    0.6512149   418189 
 1748000   0.62508524   -2.8930268   -2.8930268   -2.2414591  0.036431524   -2.8930268   0.65156761   418189 
 1749000   0.62473125   -2.8933887   -2.8933887   -2.2421901  0.041329905   -2.8933887   0.65119862   418189 
 1750000   0.62490613   -2.8934678   -2.8934678   -2.2420869  0.048044961   -2.8934678   0.65138091   418189 
 1751000   0.62484246   -2.8932966   -2.8932966   -2.2419821  0.041422205   -2.8932966   0.65131455   418189 
 1752000   0.62439755   -2.8925643   -2.8925643   -2.2417135  0.043838917   -2.8925643   0.65085078   418189 
 1753000     0.622771   -2.8914903   -2.8914903    -2.242335  0.042828595   -2.8914903   0.64915532   418189 
 1754000   0.62495815   -2.8931114   -2.8931114   -2.2416763  0.058985573   -2.8931114   0.65143513   418189 
 1755000   0.62500167   -2.8931681   -2.8931681   -2.2416876  0.045472144   -2.8931681    0.6514805   418189 
 1756000   0.62438618   -2.8928834   -2.8928834   -2.2420445  0.056667147   -2.8928834   0.65083893   418189 
 1757000   0.62368799   -2.8928398   -2.8928398   -2.2427286  0.044766347   -2.8928398   0.65011117   418189 
 1758000   0.62452281    -2.893147    -2.893147   -2.2421656  0.048466545    -2.893147   0.65098135   418189 
 1759000    0.6256295   -2.8940762   -2.8940762   -2.2419412  0.045598539   -2.8940762   0.65213493   418189 
 1760000   0.62358943   -2.8918675   -2.8918675    -2.241859  0.050301416   -2.8918675   0.65000843   418189 
 1761000   0.62501804   -2.8933127   -2.8933127   -2.2418151  0.050685089   -2.8933127   0.65149756   418189 
 1762000   0.62404599   -2.8919956   -2.8919956   -2.2415113  0.055727485   -2.8919956   0.65048433   418189 
 1763000   0.62541464   -2.8925964   -2.8925964   -2.2406854  0.052513649   -2.8925964   0.65191097   418189 
 1764000     0.625887   -2.8934526   -2.8934526   -2.2410493  0.039204267   -2.8934526   0.65240334   418189 
 1765000   0.62389759   -2.8921892   -2.8921892   -2.2418596  0.053781469   -2.8921892   0.65032964   418189 
 1766000   0.62483629   -2.8928293   -2.8928293   -2.2415212  0.045141645   -2.8928293   0.65130812   418189 
 1767000   0.62340532   -2.8915877   -2.8915877   -2.2417712  0.045407896   -2.8915877   0.64981652   418189 
 1768000   0.62526303   -2.8939661   -2.8939661   -2.2422132  0.043551167   -2.8939661   0.65175293   418189 
 1769000   0.62454034   -2.8933037   -2.8933037   -2.2423041  0.055166651   -2.8933037   0.65099962   418189 
 1770000   0.62433254    -2.892763    -2.892763     -2.24198  0.047923339    -2.892763   0.65078302   418189 
 1771000    0.6241918   -2.8926761   -2.8926761   -2.2420398  0.049234158   -2.8926761   0.65063632   418189 
 1772000   0.62429956   -2.8929597   -2.8929597   -2.2422111  0.050773193   -2.8929597   0.65074864   418189 
 1773000   0.62414609   -2.8934485   -2.8934485   -2.2428598  0.048400693   -2.8934485   0.65058868   418189 
 1774000   0.62349427   -2.8936241   -2.8936241   -2.2437149  0.044070546   -2.8936241   0.64990923   418189 
 1775000   0.62467564    -2.895022    -2.895022   -2.2438813  0.045387987    -2.895022   0.65114065   418189 
 1776000   0.62559658   -2.8954213   -2.8954213   -2.2433207  0.043018183   -2.8954213   0.65210061   418189 
 1777000   0.62384852   -2.8940032   -2.8940032   -2.2437247   0.04952322   -2.8940032   0.65027849   418189 
 1778000   0.62440395   -2.8957342   -2.8957342   -2.2448767  0.038800701   -2.8957342   0.65085745   418189 
 1779000    0.6240878   -2.8950139   -2.8950139    -2.244486  0.048505842   -2.8950139   0.65052791   418189 
 1780000   0.62361021   -2.8945055   -2.8945055   -2.2444754   0.05552329   -2.8945055   0.65003008   418189 
 1781000   0.62370737   -2.8942833   -2.8942833   -2.2441519   0.03748374   -2.8942833   0.65013137   418189 
 1782000   0.62440522   -2.8949338   -2.8949338    -2.244075  0.050620553   -2.8949338   0.65085878   418189 
 1783000   0.62395925   -2.8940303   -2.8940303   -2.2436364  0.038729013   -2.8940303   0.65039391   418189 
 1784000   0.62558346   -2.8955808   -2.8955808   -2.2434939  0.045780774   -2.8955808   0.65208693   418189 
 1785000   0.62425376   -2.8941126   -2.8941126   -2.2434117  0.033274312   -2.8941126    0.6507009   418189 
 1786000   0.62461248   -2.8943908   -2.8943908    -2.243316    0.0397985   -2.8943908   0.65107482   418189 
 1787000   0.62340902   -2.8937892   -2.8937892   -2.2439688  0.042529043   -2.8937892   0.64982038   418189 
 1788000   0.62327272   -2.8938674   -2.8938674   -2.2441891   0.03653064   -2.8938674    0.6496783   418189 
 1789000    0.6250032   -2.8958774   -2.8958774   -2.2443953  0.030708076   -2.8958774   0.65148209   418189 
 1790000   0.62396336    -2.894268    -2.894268   -2.2438698  0.038548513    -2.894268    0.6503982   418189 
 1791000   0.62429509   -2.8943132   -2.8943132   -2.2435692  0.042884075   -2.8943132   0.65074398   418189 
 1792000   0.62418567   -2.8944657   -2.8944657   -2.2438358  0.045591604   -2.8944657   0.65062992   418189 
 1793000   0.62404453   -2.8945569   -2.8945569    -2.244074  0.032026733   -2.8945569   0.65048281   418189 
 1794000   0.62467123   -2.8951068   -2.8951068   -2.2439707   0.04058268   -2.8951068   0.65113606   418189 
 1795000   0.62477359   -2.8964294   -2.8964294   -2.2451866  0.054717403   -2.8964294   0.65124275   418189 
 1796000   0.62399668   -2.8955385   -2.8955385   -2.2451056  0.047530052   -2.8955385   0.65043293   418189 
 1797000   0.62449949   -2.8962264   -2.8962264   -2.2452694  0.052004823   -2.8962264   0.65095704   418189 
 1798000   0.62400279   -2.8953334   -2.8953334   -2.2448941  0.045728922   -2.8953334    0.6504393   418189 
 1799000   0.62504535   -2.8961309   -2.8961309   -2.2446049  0.044261258   -2.8961309   0.65152603   418189 
 1800000   0.62576964   -2.8969314   -2.8969314   -2.2446504  0.049661631   -2.8969314   0.65228101   418189 
 1801000   0.62524707   -2.8965535   -2.8965535   -2.2448172  0.045208672   -2.8965535   0.65173629   418189 
 1802000   0.62552357   -2.8968367   -2.8968367   -2.2448122  0.048591465   -2.8968367   0.65202451   418189 
 1803000   0.62432646   -2.8961284   -2.8961284   -2.2453517  0.052928767   -2.8961284   0.65077669   418189 
 1804000   0.62319728   -2.8952412   -2.8952412   -2.2456415  0.053759353   -2.8952412   0.64959967   418189 
 1805000   0.62524018   -2.8976854   -2.8976854   -2.2459562  0.038901073   -2.8976854   0.65172912   418189 
 1806000   0.62558513   -2.8979016   -2.8979016   -2.2458129  0.042167291   -2.8979016   0.65208867   418189 
 1807000   0.62426839   -2.8966526   -2.8966526   -2.2459364  0.040582336   -2.8966526   0.65071616   418189 
 1808000   0.62379323    -2.896301    -2.896301   -2.2460801  0.038681039    -2.896301   0.65022086   418189 
 1809000   0.62429421   -2.8967833   -2.8967833   -2.2460402  0.041437085   -2.8967833   0.65074307   418189 
 1810000   0.62516512   -2.8980005   -2.8980005   -2.2463496  0.042818291   -2.8980005   0.65165087   418189 
 1811000   0.62479708   -2.8976614   -2.8976614   -2.2463941  0.050413709   -2.8976614   0.65126724   418189 
 1812000   0.62531397   -2.8976819   -2.8976819   -2.2458759  0.048758663   -2.8976819   0.65180603   418189 
 1813000   0.62462726   -2.8969453   -2.8969453   -2.2458551  0.042110251   -2.8969453   0.65109022   418189 
 1814000   0.62328863   -2.8953393   -2.8953393   -2.2456444  0.045267787   -2.8953393   0.64969488   418189 
 1815000   0.62369475   -2.8963862   -2.8963862    -2.246268   0.04565324   -2.8963862   0.65011821   418189 
 1816000   0.62327305   -2.8965388   -2.8965388   -2.2468602  0.038080425   -2.8965388   0.64967865   418189 
 1817000   0.62323098   -2.8958484   -2.8958484   -2.2462136  0.055422708   -2.8958484   0.64963479   418189 
 1818000   0.62463204   -2.8980289   -2.8980289   -2.2469336  0.040855754   -2.8980289   0.65109521   418189 
 1819000   0.62302758   -2.8957773   -2.8957773   -2.2463546  0.048649548   -2.8957773   0.64942278   418189 
 1820000   0.62373916   -2.8968515   -2.8968515    -2.246687  0.046654312   -2.8968515    0.6501645   418189 
 1821000   0.62475062   -2.8974459   -2.8974459   -2.2462271   0.04170413   -2.8974459   0.65121881   418189 
 1822000   0.62397287   -2.8962655   -2.8962655   -2.2458574  0.046385632   -2.8962655   0.65040811   418189 
 1823000   0.62505011   -2.8972806   -2.8972806   -2.2457496  0.045908672   -2.8972806   0.65153099   418189 
 1824000    0.6252537   -2.8974073   -2.8974073   -2.2456641  0.060404333   -2.8974073    0.6517432   418189 
 1825000   0.62453221   -2.8974793   -2.8974793   -2.2464881  0.051919987   -2.8974793   0.65099115   418189 
 1826000   0.62536194   -2.8986243   -2.8986243   -2.2467682  0.050139676   -2.8986243   0.65185603   418189 
 1827000   0.62499968   -2.8984684   -2.8984684     -2.24699   0.04599935   -2.8984684   0.65147842   418189 
 1828000   0.62374394   -2.8983033   -2.8983033   -2.2481338  0.035908549   -2.8983033   0.65016948   418189 
 1829000   0.62298967    -2.897016    -2.897016   -2.2476328  0.039483443    -2.897016   0.64938326   418189 
 1830000   0.62281155   -2.8977674   -2.8977674   -2.2485698  0.048312035   -2.8977674   0.64919759   418189 
 1831000   0.62419715   -2.8984356   -2.8984356   -2.2477937  0.047745878   -2.8984356   0.65064189   418189 
 1832000    0.6250932    -2.898853    -2.898853   -2.2472771   0.03804641    -2.898853   0.65157591   418189 
 1833000   0.62343958   -2.8969831   -2.8969831   -2.2471309  0.042521438   -2.8969831   0.64985223   418189 
 1834000   0.62344125   -2.8976485   -2.8976485   -2.2477945  0.037134865   -2.8976485   0.64985397   418189 
 1835000    0.6225999   -2.8971067   -2.8971067   -2.2481297  0.041771618   -2.8971067   0.64897698   418189 
 1836000   0.62519154   -2.8998807   -2.8998807   -2.2482023  0.049795602   -2.8998807   0.65167842   418189 
 1837000   0.62296468   -2.8975764   -2.8975764   -2.2482192  0.039611499   -2.8975764    0.6493572   418189 
 1838000   0.62325799   -2.8985849   -2.8985849   -2.2489219   0.04343491   -2.8985849   0.64966294   418189 
 1839000   0.62427096   -2.8996346   -2.8996346   -2.2489157  0.043510476   -2.8996346   0.65071883   418189 
 1840000   0.62488451   -2.9008446   -2.9008446   -2.2494862  0.044754154   -2.9008446   0.65135838   418189 
 1841000   0.62481653   -2.9005565   -2.9005565    -2.249269  0.047955239   -2.9005565   0.65128751   418189 
 1842000   0.62415062     -2.90027     -2.90027   -2.2496767  0.038386601     -2.90027    0.6505934   418189 
 1843000   0.62205974   -2.8982181   -2.8982181   -2.2498042  0.042787576   -2.8982181   0.64841393   418189 
 1844000   0.62309588   -2.8990823   -2.8990823   -2.2495883  0.046299799   -2.8990823   0.64949396   418189 
 1845000   0.62303696   -2.8990446   -2.8990446    -2.249612  0.040278508   -2.8990446   0.64943255   418189 
 1846000   0.62378647   -2.9001163   -2.9001163   -2.2499025  0.053911946   -2.9001163   0.65021381   418189 
 1847000   0.62366129   -2.8996301   -2.8996301   -2.2495467  0.041158875   -2.8996301   0.65008333   418189 
 1848000   0.62261176   -2.8983569   -2.8983569   -2.2493675  0.043218325   -2.8983569   0.64898934   418189 
 1849000   0.62482107   -2.8995267   -2.8995267   -2.2482345  0.049530069   -2.8995267   0.65129225   418189 
 1850000   0.62484825   -2.8995127   -2.8995127   -2.2481921  0.048067964   -2.8995127   0.65132058   418189 
 1851000   0.62488052   -2.9002987   -2.9002987   -2.2489445  0.034819773   -2.9002987   0.65135422   418189 
 1852000   0.62337259   -2.8992765   -2.8992765   -2.2494941  0.043324323   -2.8992765   0.64978241   418189 
 1853000   0.62486702   -2.9011288   -2.9011288   -2.2497886  0.033538569   -2.9011288   0.65134015   418189 
 1854000   0.62299321   -2.9004452   -2.9004452   -2.2510583  0.039158336   -2.9004452   0.64938695   418189 
 1855000   0.62321678   -2.9004008   -2.9004008   -2.2507808  0.037441347   -2.9004008   0.64961999   418189 
 1856000   0.62355619   -2.9001795   -2.9001795   -2.2502057   0.05702977   -2.9001795   0.64997378   418189 
 1857000   0.62329335   -2.9001999   -2.9001999   -2.2505001  0.042910167   -2.9001999    0.6496998   418189 
 1858000   0.62314231   -2.8999974   -2.8999974   -2.2504551  0.040568115   -2.8999974   0.64954236   418189 
 1859000    0.6251983   -2.9013265   -2.9013265    -2.249641  0.046723888   -2.9013265   0.65168546   418189 
 1860000   0.62341729   -2.8996248   -2.8996248   -2.2497958  0.047175566   -2.8996248   0.64982899   418189 
 1861000   0.62441742   -2.9008725   -2.9008725    -2.250001  0.043345519   -2.9008725    0.6508715   418189 
 1862000   0.62507644   -2.9017443   -2.9017443   -2.2501859   0.04337596   -2.9017443   0.65155844   418189 
 1863000   0.62355158     -2.90042     -2.90042    -2.250451  0.040056401     -2.90042   0.64996897   418189 
 1864000   0.62306238   -2.8998925   -2.8998925   -2.2504335  0.048037665   -2.8998925   0.64945905   418189 
 1865000   0.62484139   -2.9020821   -2.9020821   -2.2507686  0.050557018   -2.9020821   0.65131343   418189 
 1866000   0.62391626   -2.9019592   -2.9019592   -2.2516101  0.044277132   -2.9019592   0.65034911   418189 
 1867000   0.62387819   -2.9024395   -2.9024395   -2.2521301  0.044266847   -2.9024395   0.65030942   418189 
 1868000   0.62405415   -2.9025658   -2.9025658    -2.252073   0.04026326   -2.9025658   0.65049284   418189 
 1869000   0.62413042   -2.9027392   -2.9027392   -2.2521668  0.042249686   -2.9027392   0.65057234   418189 
 1870000   0.62241053   -2.9012324   -2.9012324   -2.2524529  0.038469816   -2.9012324   0.64877958   418189 
 1871000   0.62261239   -2.9016556   -2.9016556   -2.2526656  0.039424871   -2.9016556      0.64899   418189 
 1872000   0.62200997   -2.9010808   -2.9010808   -2.2527188  0.041978606   -2.9010808   0.64836205   418189 
 1873000   0.62248978   -2.9023903   -2.9023903   -2.2535281  0.050935583   -2.9023903   0.64886219   418189 
 1874000    0.6230408   -2.9030861   -2.9030861   -2.2536496  0.033639901   -2.9030861   0.64943655   418189 
 1875000   0.62324099   -2.9029637   -2.9029637   -2.2533185  0.052242791   -2.9029637   0.64964522   418189 
 1876000   0.62266501   -2.9021611   -2.9021611   -2.2531163  0.044086843   -2.9021611   0.64904484   418189 
 1877000   0.62336942   -2.9028276   -2.9028276   -2.2530485  0.039838655   -2.9028276   0.64977909   418189 
 1878000   0.62446343   -2.9031517   -2.9031517   -2.2522323   0.04870121   -2.9031517   0.65091945   418189 
 1879000   0.62370535   -2.9021351   -2.9021351   -2.2520059  0.045992114   -2.9021351   0.65012926   418189 
 1880000    0.6247665   -2.9030812   -2.9030812   -2.2518458  0.039555263   -2.9030812   0.65123536   418189 
 1881000   0.62416892   -2.9037134   -2.9037134   -2.2531009  0.044939733   -2.9037134   0.65061247   418189 
 1882000   0.62447801    -2.903209    -2.903209   -2.2522744  0.035399385    -2.903209   0.65093466   418189 
 1883000   0.62366583   -2.9025685   -2.9025685   -2.2524805  0.048398804   -2.9025685   0.65008806   418189 
 1884000   0.62420428   -2.9037779   -2.9037779   -2.2531286  0.047264796   -2.9037779   0.65064932   418189 
 1885000   0.62211138   -2.9021885   -2.9021885   -2.2537208   0.04167837   -2.9021885   0.64846776   418189 
 1886000    0.6232192    -2.903313    -2.903313   -2.2536905  0.034771589    -2.903313   0.64962251   418189 
 1887000   0.62359305   -2.9036321   -2.9036321   -2.2536199  0.039404392   -2.9036321    0.6500122   418189 
 1888000   0.62300266   -2.9021604   -2.9021604   -2.2527636   0.04431421   -2.9021604    0.6493968   418189 
 1889000   0.62365862    -2.903629    -2.903629   -2.2535484  0.050739296    -2.903629   0.65008055   418189 
 1890000     0.623343   -2.9033412   -2.9033412   -2.2535896  0.037032573   -2.9033412   0.64975155   418189 
 1891000   0.62316868   -2.9024095   -2.9024095   -2.2528396  0.047319735   -2.9024095   0.64956985   418189 
 1892000   0.62268867   -2.9022165   -2.9022165    -2.253147  0.060216431   -2.9022165   0.64906951   418189 
 1893000   0.62203965   -2.9019977   -2.9019977   -2.2536047  0.052468269   -2.9019977   0.64839298   418189 
 1894000   0.62314184   -2.9032192   -2.9032192   -2.2536773   0.04342667   -2.9032192   0.64954188   418189 
 1895000   0.62226948   -2.9021189   -2.9021189   -2.2534864   0.04849535   -2.9021189   0.64863255   418189 
 1896000   0.62264769    -2.903339    -2.903339   -2.2543122  0.046642088    -2.903339   0.64902679   418189 
 1897000   0.62236972    -2.903712    -2.903712    -2.254975  0.040589236    -2.903712   0.64873704   418189 
 1898000   0.62250364   -2.9041603   -2.9041603   -2.2552837  0.043504736   -2.9041603   0.64887664   418189 
 1899000    0.6238328   -2.9049505   -2.9049505   -2.2546884  0.050335229   -2.9049505   0.65026211   418189 
 1900000   0.62348262   -2.9049375   -2.9049375   -2.2550404   0.04447996   -2.9049375   0.64989709   418189 
 1901000   0.62364142   -2.9053133   -2.9053133   -2.2552507  0.035008375   -2.9053133   0.65006261   418189 
 1902000    0.6218288   -2.9035383   -2.9035383   -2.2553651  0.044566401   -2.9035383   0.64817321   418189 
 1903000   0.62240855    -2.904163    -2.904163   -2.2553855  0.036982768    -2.904163   0.64877752   418189 
 1904000   0.62274366   -2.9042313   -2.9042313   -2.2551044  0.039656522   -2.9042313   0.64912682   418189 
 1905000   0.62269373   -2.9046369   -2.9046369   -2.2555622  0.036190655   -2.9046369   0.64907478   418189 
 1906000   0.62292046   -2.9043104   -2.9043104   -2.2549992  0.039569323   -2.9043104   0.64931112   418189 
 1907000   0.62202716   -2.9035621   -2.9035621   -2.2551822  0.049318567   -2.9035621   0.64837997   418189 
 1908000    0.6234219   -2.9060996   -2.9060996   -2.2562658  0.042197819   -2.9060996    0.6498338   418189 
 1909000   0.62217707   -2.9046718   -2.9046718   -2.2561356  0.042337025   -2.9046718   0.64853623   418189 
 1910000   0.62204456   -2.9050391   -2.9050391    -2.256641  0.050317685   -2.9050391    0.6483981   418189 
 1911000   0.62305657   -2.9055953   -2.9055953   -2.2561423  0.044465202   -2.9055953     0.649453   418189 
 1912000   0.62312849   -2.9058825   -2.9058825   -2.2563545  0.040799796   -2.9058825   0.64952796   418189 
 1913000   0.62198526   -2.9044535   -2.9044535   -2.2561172  0.046967694   -2.9044535   0.64833629   418189 
 1914000   0.62107552   -2.9038092   -2.9038092   -2.2564212  0.043524954   -2.9038092   0.64738802   418189 
 1915000   0.62191033   -2.9049042   -2.9049042    -2.256646  0.050256898   -2.9049042   0.64825819   418189 
 1916000   0.62279384    -2.905741    -2.905741   -2.2565619  0.029148847    -2.905741   0.64917913   418189 
 1917000   0.62412752   -2.9070054   -2.9070054   -2.2564361  0.043313988   -2.9070054   0.65056932   418189 
 1918000    0.6225138   -2.9056523   -2.9056523   -2.2567651   0.04813605   -2.9056523   0.64888723   418189 
 1919000      0.62173   -2.9050136   -2.9050136   -2.2569434   0.04129562   -2.9050136   0.64807022   418189 
 1920000   0.62281384    -2.905625    -2.905625    -2.256425  0.051396481    -2.905625   0.64919998   418189 
 1921000   0.62218449   -2.9057961   -2.9057961   -2.2572521  0.045199855   -2.9057961   0.64854397   418189 
 1922000   0.62242019   -2.9057505   -2.9057505   -2.2569609  0.036068148   -2.9057505   0.64878965   418189 
 1923000   0.62141811   -2.9048495   -2.9048495   -2.2571044  0.040394941   -2.9048495   0.64774512   418189 
 1924000      0.62231   -2.9064433   -2.9064433   -2.2577685  0.038011987   -2.9064433   0.64867479   418189 
 1925000   0.62310373   -2.9069076   -2.9069076   -2.2574054  0.044489077   -2.9069076   0.64950215   418189 
 1926000   0.62114109    -2.905811    -2.905811   -2.2583546  0.048583297    -2.905811   0.64745636   418189 
 1927000   0.62067802   -2.9050419   -2.9050419   -2.2580682  0.041273602   -2.9050419   0.64697367   418189 
 1928000   0.62312564   -2.9068262   -2.9068262   -2.2573012  0.040853628   -2.9068262   0.64952498   418189 
 1929000   0.62254539   -2.9070051   -2.9070051   -2.2580849  0.048669208   -2.9070051   0.64892016   418189 
 1930000   0.62252294   -2.9074858   -2.9074858   -2.2585891  0.057086371   -2.9074858   0.64889676   418189 
 1931000    0.6220492   -2.9075043   -2.9075043   -2.2591014  0.047248056   -2.9075043   0.64840295   418189 
 1932000   0.62277095   -2.9072077   -2.9072077   -2.2580524  0.050444417   -2.9072077   0.64915527   418189 
 1933000   0.62396736   -2.9085873   -2.9085873   -2.2581849  0.035942491   -2.9085873   0.65040237   418189 
 1934000   0.62183173   -2.9068077   -2.9068077   -2.2586315  0.046001021   -2.9068077   0.64817626   418189 
 1935000   0.62291739    -2.907437    -2.907437   -2.2581291  0.043719835    -2.907437   0.64930792   418189 
 1936000   0.62249575   -2.9072477   -2.9072477   -2.2583793  0.049983013   -2.9072477   0.64886841   418189 
 1937000   0.62155234   -2.9062527   -2.9062527   -2.2583677  0.044558134   -2.9062527   0.64788503   418189 
 1938000   0.62310688   -2.9068583   -2.9068583   -2.2573528  0.036958781   -2.9068583   0.64950544   418189 
 1939000   0.62342176   -2.9079609   -2.9079609   -2.2581273  0.045759627   -2.9079609   0.64983365   418189 
 1940000   0.62256172   -2.9070351   -2.9070351    -2.258098  0.053678494   -2.9070351   0.64893718   418189 
 1941000   0.62175614   -2.9058729   -2.9058729   -2.2577754  0.039025497   -2.9058729   0.64809746   418189 
 1942000   0.62156387   -2.9058962   -2.9058962   -2.2579992  0.041438501   -2.9058962   0.64789705   418189 
 1943000   0.62175995    -2.905755    -2.905755   -2.2576536  0.043571649    -2.905755   0.64810143   418189 
 1944000   0.62120797   -2.9053135   -2.9053135   -2.2577874  0.034795711   -2.9053135   0.64752608   418189 
 1945000   0.62079255   -2.9056071   -2.9056071    -2.258514  0.035250021   -2.9056071   0.64709306   418189 
 1946000   0.62132889    -2.906278    -2.906278   -2.2586259  0.046908993    -2.906278   0.64765211   418189 
 1947000   0.62068191   -2.9051941   -2.9051941   -2.2582164  0.042307778   -2.9051941   0.64697773   418189 
 1948000   0.62193099   -2.9063317   -2.9063317    -2.258052  0.038456803   -2.9063317   0.64827972   418189 
 1949000   0.62211363   -2.9069768   -2.9069768   -2.2585067  0.031299351   -2.9069768    0.6484701   418189 
 1950000     0.622474     -2.90708     -2.90708   -2.2582343  0.040420855     -2.90708   0.64884574   418189 
 1951000   0.62163401   -2.9061431   -2.9061431    -2.258173  0.053755644   -2.9061431   0.64797016   418189 
 1952000   0.62287668   -2.9082347   -2.9082347   -2.2589692  0.043749284   -2.9082347   0.64926548   418189 
 1953000   0.62198788   -2.9075834   -2.9075834   -2.2592444  0.038840343   -2.9075834   0.64833903   418189 
 1954000   0.62217451   -2.9078596   -2.9078596    -2.259326   0.04758521   -2.9078596   0.64853356   418189 
 1955000   0.62057164   -2.9059407   -2.9059407   -2.2590779  0.046533497   -2.9059407   0.64686279   418189 
 1956000   0.62383319   -2.9097439   -2.9097439   -2.2594813  0.046942701   -2.9097439   0.65026251   418189 
 1957000   0.62179282   -2.9080495   -2.9080495   -2.2599138  0.049836854   -2.9080495   0.64813571   418189 
 1958000   0.62107217   -2.9067208   -2.9067208   -2.2593363  0.052872878   -2.9067208   0.64738452   418189 
 1959000   0.62250702   -2.9082528   -2.9082528   -2.2593727  0.036115167   -2.9082528   0.64888016   418189 
 1960000   0.62074005   -2.9070663   -2.9070663    -2.260028   0.04700423   -2.9070663   0.64703833   418189 
 1961000   0.62171181   -2.9085596   -2.9085596   -2.2605084  0.033352472   -2.9085596   0.64805126   418189 
 1962000   0.62130379    -2.908457    -2.908457    -2.260831  0.043451392    -2.908457   0.64762595   418189 
 1963000   0.62192738   -2.9096014   -2.9096014   -2.2613255  0.047183754   -2.9096014   0.64827596   418189 
 1964000     0.622729   -2.9109467   -2.9109467   -2.2618352  0.039708799   -2.9109467   0.64911154   418189 
 1965000   0.62196555   -2.9101174   -2.9101174   -2.2618016  0.050782687   -2.9101174   0.64831575   418189 
 1966000   0.62290012   -2.9117286   -2.9117286   -2.2624387  0.046655967   -2.9117286   0.64928991   418189 
 1967000   0.62288039   -2.9109335   -2.9109335   -2.2616642  0.041760732   -2.9109335   0.64926935   418189 
 1968000   0.62235178   -2.9109529   -2.9109529   -2.2622346  0.048653902   -2.9109529   0.64871834   418189 
 1969000   0.62123195   -2.9097591   -2.9097591    -2.262208  0.034329336   -2.9097591   0.64755107   418189 
 1970000    0.6207593   -2.9098681   -2.9098681   -2.2628097  0.054615697   -2.9098681    0.6470584   418189 
 1971000   0.62201372    -2.910666    -2.910666      -2.2623  0.039324735    -2.910666   0.64836596   418189 
 1972000    0.6205692   -2.9091291   -2.9091291   -2.2622689  0.043653774   -2.9091291   0.64686024   418189 
 1973000   0.62124961   -2.9096926   -2.9096926   -2.2621232  0.041030731   -2.9096926   0.64756948   418189 
 1974000   0.62336795   -2.9118147   -2.9118147   -2.2620371  0.049450741   -2.9118147   0.64977756   418189 
 1975000   0.62323678     -2.91135     -2.91135   -2.2617091  0.038413462     -2.91135   0.64964084   418189 
 1976000   0.62330008   -2.9122896   -2.9122896   -2.2625827   0.03930915   -2.9122896   0.64970682   418189 
 1977000   0.62172108   -2.9108933   -2.9108933   -2.2628323  0.054163635   -2.9108933   0.64806092   418189 
 1978000   0.62136885   -2.9109067   -2.9109067   -2.2632129   0.04346893   -2.9109067   0.64769377   418189 
 1979000   0.62201355   -2.9116306   -2.9116306   -2.2632648  0.042538254   -2.9116306   0.64836578   418189 
 1980000   0.62029858   -2.9097923   -2.9097923   -2.2632142  0.045029836   -2.9097923   0.64657815   418189 
 1981000   0.62061022   -2.9101619   -2.9101619   -2.2632589  0.038588593   -2.9101619     0.646903   418189 
 1982000   0.62084518   -2.9107413   -2.9107413   -2.2635934  0.040951242   -2.9107413   0.64714791   418189 
 1983000   0.62099217   -2.9111615   -2.9111615   -2.2638604  0.039357981   -2.9111615   0.64730113   418189 
 1984000    0.6206974   -2.9103915   -2.9103915   -2.2633977  0.042469634   -2.9103915   0.64699388   418189 
 1985000   0.62116869   -2.9106074   -2.9106074   -2.2631223  0.044435693   -2.9106074   0.64748514   418189 
 1986000   0.62177456    -2.911611    -2.911611   -2.2634943  0.046298018    -2.911611   0.64811667   418189 
 1987000   0.62207183   -2.9123528   -2.9123528   -2.2639263   0.04735265   -2.9123528   0.64842654   418189 
 1988000   0.62164301   -2.9109347   -2.9109347   -2.2629552   0.05127137   -2.9109347   0.64797955   418189 
 1989000   0.62256276   -2.9124351   -2.9124351   -2.2634968   0.04049575   -2.9124351   0.64893826   418189 
 1990000   0.62174165    -2.911643    -2.911643   -2.2635607  0.037547821    -2.911643   0.64808236   418189 
 1991000   0.62053646    -2.910448    -2.910448   -2.2636219  0.031771389    -2.910448   0.64682611   418189 
 1992000   0.62254067   -2.9123804   -2.9123804   -2.2634652  0.046265152   -2.9123804   0.64891524   418189 
 1993000   0.62107631     -2.91092     -2.91092   -2.2635311  0.042062574     -2.91092   0.64738884   418189 
 1994000   0.62135383   -2.9106012   -2.9106012   -2.2629231  0.040380136   -2.9106012   0.64767812   418189 
 1995000   0.62112965   -2.9106893   -2.9106893   -2.2632449  0.039005319   -2.9106893   0.64744444   418189 
 1996000   0.62142334   -2.9116149   -2.9116149   -2.2638643  0.040151845   -2.9116149   0.64775057   418189 
 1997000   0.62102324   -2.9107992   -2.9107992   -2.2634657  0.039845412   -2.9107992   0.64733351   418189 
 1998000   0.62123693   -2.9114434   -2.9114434   -2.2638871  0.048010111   -2.9114434   0.64755626   418189 
 1999000   0.62114966   -2.9107162   -2.9107162   -2.2632509  0.044007049   -2.9107162    0.6474653   418189 
 2000000   0.62029033   -2.9103739   -2.9103739   -2.2638043  0.041072545   -2.9103739   0.64656956   418189 
 2001000   0.62068768   -2.9119878   -2.9119878    -2.265004  0.038739876   -2.9119878   0.64698374   418189 
 2002000   0.61904135   -2.9106782   -2.9106782   -2.2654105  0.040969158   -2.9106782   0.64526766   418189 
 2003000   0.62228288   -2.9129389   -2.9129389   -2.2642924  0.037765479   -2.9129389   0.64864653   418189 
 2004000   0.62110494   -2.9121953   -2.9121953   -2.2647766  0.038552756   -2.9121953   0.64741868   418189 
 2005000   0.62121405   -2.9129276   -2.9129276   -2.2653952   0.04385713   -2.9129276   0.64753242   418189 
 2006000   0.62145155   -2.9129135   -2.9129135   -2.2651335  0.040483399   -2.9129135   0.64777997   418189 
 2007000   0.62058253   -2.9131286   -2.9131286   -2.2662545  0.048244261   -2.9131286   0.64687413   418189 
 2008000   0.62003941   -2.9121777   -2.9121777   -2.2658697  0.039644135   -2.9121777   0.64630801   418189 
 2009000   0.62002584    -2.913214    -2.913214   -2.2669201  0.038946655    -2.913214   0.64629386   418189 
 2010000   0.62122571   -2.9147035   -2.9147035    -2.267159  0.045945373   -2.9147035   0.64754456   418189 
 2011000   0.62203422   -2.9156535   -2.9156535   -2.2672662  0.037871492   -2.9156535   0.64838733   418189 
 2012000   0.62118491   -2.9149355   -2.9149355   -2.2674335  0.044054906   -2.9149355   0.64750204   418189 
 2013000   0.61992424   -2.9139518   -2.9139518   -2.2677638  0.042289819   -2.9139518   0.64618796   418189 
 2014000   0.62085659   -2.9142205   -2.9142205   -2.2670607  0.036167167   -2.9142205   0.64715981   418189 
 2015000   0.62073807   -2.9138277   -2.9138277   -2.2667914  0.045994019   -2.9138277   0.64703627   418189 
 2016000   0.62081794   -2.9129428   -2.9129428   -2.2658232   0.03809165   -2.9129428   0.64711952   418189 
 2017000   0.62190054   -2.9145285   -2.9145285   -2.2662805  0.039387616   -2.9145285   0.64824799   418189 
 2018000   0.62190807   -2.9143833   -2.9143833   -2.2661274  0.041259237   -2.9143833   0.64825583   418189 
 2019000   0.62205585   -2.9152657   -2.9152657   -2.2668559  0.059212767   -2.9152657   0.64840988   418189 
 2020000   0.62118302   -2.9147081   -2.9147081   -2.2672081  0.046346338   -2.9147081   0.64750006   418189 
 2021000   0.61930055   -2.9133869   -2.9133869    -2.267849  0.047020722   -2.9133869   0.64553784   418189 
 2022000   0.62099851   -2.9142958   -2.9142958   -2.2669881  0.047847055   -2.9142958   0.64730774   418189 
 2023000   0.62092035   -2.9138613   -2.9138613    -2.266635  0.045751449   -2.9138613   0.64722627   418189 
 2024000   0.62044535   -2.9138762   -2.9138762   -2.2671451  0.044055258   -2.9138762   0.64673114   418189 
 2025000   0.62022712   -2.9136579   -2.9136579   -2.2671543  0.039968404   -2.9136579   0.64650367   418189 
 2026000   0.61972976    -2.913812    -2.913812   -2.2678267  0.041683619    -2.913812   0.64598524   418189 
 2027000   0.61961732   -2.9141901   -2.9141901   -2.2683221  0.044137116   -2.9141901   0.64586804   418189 
 2028000   0.62053079   -2.9145789   -2.9145789   -2.2677587  0.042952748   -2.9145789    0.6468202   418189 
 2029000   0.62096075   -2.9147712   -2.9147712   -2.2675028  0.045367337   -2.9147712   0.64726838   418189 
 2030000   0.62025876   -2.9146615   -2.9146615   -2.2681249  0.039302949   -2.9146615   0.64653665   418189 
 2031000    0.6194036   -2.9142277   -2.9142277   -2.2685825  0.040938626   -2.9142277   0.64564526   418189 
 2032000   0.62041999   -2.9154707   -2.9154707    -2.268766  0.040118722   -2.9154707   0.64670471   418189 
 2033000   0.62134297   -2.9161937   -2.9161937   -2.2685269  0.047541362   -2.9161937   0.64766679   418189 
 2034000   0.62237016   -2.9167332   -2.9167332   -2.2679957  0.046262974   -2.9167332   0.64873751   418189 
 2035000   0.62045912    -2.915003    -2.915003   -2.2682575  0.040171144    -2.915003    0.6467455   418189 
 2036000   0.62191902   -2.9164303   -2.9164303    -2.268163  0.040389428   -2.9164303   0.64826725   418189 
 2037000   0.62114166    -2.916001    -2.916001    -2.268544  0.032496084    -2.916001   0.64745696   418189 
 2038000   0.62199461    -2.916999    -2.916999   -2.2686529  0.048190582    -2.916999   0.64834604   418189 
 2039000   0.62144182   -2.9162284   -2.9162284   -2.2684585  0.046734466   -2.9162284   0.64776984   418189 
 2040000   0.62102714    -2.916645    -2.916645   -2.2693075  0.035693937    -2.916645   0.64733758   418189 
 2041000   0.62037666   -2.9162386   -2.9162386   -2.2695791  0.045986846   -2.9162386   0.64665954   418189 
 2042000   0.62063777   -2.9158283   -2.9158283   -2.2688966  0.046092571   -2.9158283   0.64693171   418189 
 2043000   0.62086551   -2.9171047   -2.9171047   -2.2699355  0.046066987   -2.9171047   0.64716911   418189 
 2044000   0.62155923   -2.9175974   -2.9175974   -2.2697052  0.043306246   -2.9175974   0.64789222   418189 
 2045000   0.61927886   -2.9152563   -2.9152563    -2.269741  0.036481266   -2.9152563   0.64551523   418189 
 2046000   0.62024104   -2.9166451   -2.9166451   -2.2701269   0.03651895   -2.9166451   0.64651818   418189 
 2047000   0.62005502   -2.9173409   -2.9173409   -2.2710166  0.038607435   -2.9173409   0.64632428   418189 
 2048000   0.62025578   -2.9166939   -2.9166939   -2.2701604  0.039169642   -2.9166939   0.64653355   418189 
 2049000   0.62074959   -2.9161769   -2.9161769   -2.2691287     0.026619   -2.9161769   0.64704827   418189 
 2050000   0.62080667   -2.9157793   -2.9157793   -2.2686715  0.034092776   -2.9157793   0.64710777   418189 
 2051000    0.6201149   -2.9154282   -2.9154282   -2.2690415  0.045435888   -2.9154282    0.6463867   418189 
 2052000   0.61898873   -2.9143893   -2.9143893   -2.2691765  0.047722298   -2.9143893   0.64521281   418189 
 2053000   0.61945766   -2.9150362   -2.9150362   -2.2693346  0.041359033   -2.9150362   0.64570161   418189 
 2054000   0.62118929   -2.9168256   -2.9168256    -2.269319  0.037765762   -2.9168256    0.6475066   418189 
 2055000   0.62103747   -2.9172321   -2.9172321   -2.2698838  0.037047008   -2.9172321   0.64734835   418189 
 2056000    0.6209661   -2.9175854   -2.9175854   -2.2703114  0.036946976   -2.9175854   0.64727396   418189 
 2057000   0.62141713   -2.9184052   -2.9184052   -2.2706611  0.039768122   -2.9184052    0.6477441   418189 
 2058000    0.6189752   -2.9161122   -2.9161122   -2.2709135  0.046148346   -2.9161122   0.64519871   418189 
 2059000   0.62053074    -2.916657    -2.916657   -2.2698368  0.030080849    -2.916657   0.64682015   418189 
 2060000   0.62006826   -2.9163667   -2.9163667   -2.2700286  0.043260682   -2.9163667   0.64633808   418189 
 2061000   0.61959445     -2.91653     -2.91653   -2.2706858  0.040401901     -2.91653    0.6458442   418189 
 2062000   0.62078583   -2.9171891   -2.9171891    -2.270103  0.041808261   -2.9171891   0.64708605   418189 
 2063000   0.62060185    -2.917384    -2.917384   -2.2704897   0.04389154    -2.917384   0.64689427   418189 
 2064000   0.62059373   -2.9179155   -2.9179155   -2.2710297  0.045261068   -2.9179155   0.64688582   418189 
 2065000   0.61953077   -2.9164032   -2.9164032   -2.2706254   0.04040047   -2.9164032   0.64577781   418189 
 2066000    0.6206041   -2.9171535   -2.9171535   -2.2702569  0.036434701   -2.9171535   0.64689662   418189 
 2067000   0.62007626   -2.9165617   -2.9165617   -2.2702153  0.028652699   -2.9165617   0.64634642   418189 
 2068000    0.6215906   -2.9179966   -2.9179966   -2.2700717  0.042074022   -2.9179966   0.64792491   418189 
 2069000   0.62133084   -2.9182775   -2.9182775   -2.2706234  0.040596777   -2.9182775   0.64765415   418189 
 2070000   0.62084823   -2.9179384   -2.9179384   -2.2707873  0.040390832   -2.9179384   0.64715109   418189 
 2071000   0.61907968   -2.9166344   -2.9166344   -2.2713268  0.032122371   -2.9166344   0.64530761   418189 
 2072000   0.61883027   -2.9174276   -2.9174276   -2.2723799  0.036788976   -2.9174276   0.64504764   418189 
 2073000   0.62000659    -2.918341    -2.918341   -2.2720672  0.045055741    -2.918341   0.64627379   418189 
 2074000   0.61908451   -2.9175931   -2.9175931   -2.2722805  0.030983997   -2.9175931   0.64531265   418189 
 2075000   0.62010987   -2.9186068   -2.9186068   -2.2722254  0.046532783   -2.9186068   0.64638145   418189 
 2076000   0.62022753   -2.9188529   -2.9188529   -2.2723488   0.04038695   -2.9188529   0.64650409   418189 
 2077000   0.62039278   -2.9189278   -2.9189278   -2.2722514  0.046824076   -2.9189278   0.64667635   418189 
 2078000   0.62025162   -2.9189113   -2.9189113   -2.2723821  0.049370108   -2.9189113    0.6465292   418189 
 2079000   0.62063921   -2.9191248   -2.9191248   -2.2721916  0.054359344   -2.9191248   0.64693321   418189 
 2080000   0.62183602   -2.9195909   -2.9195909   -2.2714101  0.044978809   -2.9195909   0.64818073   418189 
 2081000   0.62113494   -2.9189749   -2.9189749    -2.271525  0.037807413   -2.9189749   0.64744995   418189 
 2082000   0.61992226   -2.9179434   -2.9179434   -2.2717575   0.04667453   -2.9179434    0.6461859   418189 
 2083000   0.62079738   -2.9184932   -2.9184932   -2.2713952  0.038821714   -2.9184932   0.64709809   418189 
 2084000    0.6196916   -2.9171775   -2.9171775    -2.271232  0.049350171   -2.9171775   0.64594546   418189 
 2085000   0.61869901   -2.9162142   -2.9162142   -2.2713034  0.042866958   -2.9162142   0.64491082   418189 
 2086000   0.62040969   -2.9181309   -2.9181309   -2.2714369  0.053679414   -2.9181309   0.64669397   418189 
 2087000   0.61982505   -2.9173186   -2.9173186   -2.2712341  0.042451369   -2.9173186   0.64608457   418189 
 2088000   0.61950704   -2.9173619   -2.9173619   -2.2716088  0.046031274   -2.9173619   0.64575308   418189 
 2089000   0.62158975   -2.9189921   -2.9189921   -2.2710681  0.045105542   -2.9189921   0.64792403   418189 
 2090000   0.62030951   -2.9175436   -2.9175436    -2.270954  0.038652367   -2.9175436   0.64658955   418189 
 2091000   0.62102276   -2.9183119   -2.9183119   -2.2709789  0.039351582   -2.9183119   0.64733302   418189 
 2092000   0.61932375    -2.917456    -2.917456    -2.271894  0.041279116    -2.917456   0.64556202   418189 
 2093000   0.61909859   -2.9180164   -2.9180164   -2.2726891  0.042149984   -2.9180164   0.64532733   418189 
 2094000   0.62081822   -2.9193038   -2.9193038    -2.272184  0.031848509   -2.9193038   0.64711981   418189 
 2095000   0.61931885   -2.9178799   -2.9178799    -2.272323  0.048876808   -2.9178799   0.64555692   418189 
 2096000   0.61951865     -2.91793     -2.91793   -2.2721648  0.040716184     -2.91793   0.64576519   418189 
 2097000   0.62095153   -2.9199601   -2.9199601   -2.2727013  0.039071578   -2.9199601   0.64725877   418189 
 2098000    0.6189481   -2.9185854   -2.9185854   -2.2734149  0.038748131   -2.9185854   0.64517046   418189 
 2099000   0.61893145   -2.9184549   -2.9184549   -2.2733018  0.038758461   -2.9184549   0.64515311   418189 
 2100000   0.62006414   -2.9194587   -2.9194587   -2.2731249  0.033800505   -2.9194587   0.64633379   418189 
 2101000   0.62040721   -2.9199263   -2.9199263   -2.2732349   0.04499796   -2.9199263   0.64669139   418189 
 2102000   0.61974585   -2.9189566   -2.9189566   -2.2729546  0.047833968   -2.9189566   0.64600201   418189 
 2103000     0.619544   -2.9190205   -2.9190205   -2.2732289  0.045536915   -2.9190205   0.64579161   418189 
 2104000    0.6186204   -2.9187309   -2.9187309   -2.2739021  0.040989111   -2.9187309   0.64482888   418189 
 2105000    0.6192765   -2.9194345   -2.9194345   -2.2739217  0.036705409   -2.9194345   0.64551278   418189 
 2106000   0.61980654   -2.9202428   -2.9202428   -2.2741775  0.036080177   -2.9202428   0.64606527   418189 
 2107000   0.61890515   -2.9188983   -2.9188983   -2.2737727  0.034831249   -2.9188983   0.64512569   418189 
 2108000   0.61888359   -2.9190497   -2.9190497   -2.2739465  0.049052849   -2.9190497   0.64510322   418189 
 2109000   0.61852163   -2.9185937   -2.9185937   -2.2738678  0.042236935   -2.9185937   0.64472592   418189 
 2110000   0.61925854   -2.9199395   -2.9199395   -2.2744455  0.038048647   -2.9199395   0.64549405   418189 
 2111000   0.61956127   -2.9206741   -2.9206741   -2.2748645  0.044751412   -2.9206741   0.64580961   418189 
 2112000    0.6202524   -2.9216144   -2.9216144   -2.2750844  0.040157805   -2.9216144   0.64653002   418189 
 2113000   0.61967446   -2.9208021   -2.9208021   -2.2748745  0.042921865   -2.9208021    0.6459276   418189 
 2114000   0.61883182   -2.9196722   -2.9196722    -2.274623  0.045341288   -2.9196722   0.64504926   418189 
 2115000   0.61619317   -2.9173846   -2.9173846   -2.2750858  0.044941765   -2.9173846   0.64229882   418189 
 2116000   0.61945631    -2.921144    -2.921144   -2.2754438  0.042681271    -2.921144    0.6457002   418189 
 2117000   0.61871807   -2.9198644   -2.9198644   -2.2749338   0.04606891   -2.9198644   0.64493068   418189 
 2118000   0.61813372   -2.9199953   -2.9199953   -2.2756737  0.046481764   -2.9199953   0.64432158   418189 
 2119000    0.6179957    -2.920519    -2.920519   -2.2763412  0.046253234    -2.920519   0.64417772   418189 
 2120000   0.61839323   -2.9208868   -2.9208868   -2.2762948   0.04418939   -2.9208868   0.64459208   418189 
 2121000   0.61826593   -2.9209672   -2.9209672   -2.2765078  0.051012041   -2.9209672   0.64445939   418189 
 2122000   0.61848706   -2.9215507   -2.9215507   -2.2768608  0.046724149   -2.9215507   0.64468989   418189 
 2123000   0.61869583   -2.9208846   -2.9208846   -2.2759771  0.041671438   -2.9208846   0.64490751   418189 
 2124000   0.61854742   -2.9207635   -2.9207635   -2.2760107  0.031036807   -2.9207635    0.6447528   418189 
 2125000   0.61988836   -2.9216811   -2.9216811   -2.2755305   0.03949444   -2.9216811   0.64615056   418189 
 2126000   0.62017353    -2.922315    -2.922315   -2.2758672  0.039595186    -2.922315   0.64644781   418189 
 2127000   0.61917371   -2.9217487   -2.9217487    -2.276343  0.051306501   -2.9217487   0.64540563   418189 
 2128000   0.61850004   -2.9204369   -2.9204369   -2.2757335  0.041784025   -2.9204369   0.64470342   418189 
 2129000   0.61971012    -2.921911    -2.921911   -2.2759462    0.0334291    -2.921911   0.64596476   418189 
 2130000   0.61950174   -2.9220154   -2.9220154   -2.2762678  0.036667413   -2.9220154   0.64574756   418189 
 2131000   0.61993896   -2.9218463   -2.9218463    -2.275643  0.046531888   -2.9218463   0.64620331   418189 
 2132000   0.61904301    -2.921306    -2.921306   -2.2760366  0.038408119    -2.921306    0.6452694   418189 
 2133000   0.61924067   -2.9214109   -2.9214109   -2.2759354   0.04075393   -2.9214109   0.64547543   418189 
 2134000   0.62002482   -2.9214184   -2.9214184   -2.2751256  0.035341164   -2.9214184    0.6462928   418189 
 2135000   0.61919083   -2.9218978   -2.9218978   -2.2764744  0.039458376   -2.9218978   0.64542348   418189 
 2136000   0.61903303   -2.9217998   -2.9217998   -2.2765408  0.047330917   -2.9217998   0.64525899   418189 
 2137000   0.61980438   -2.9229378   -2.9229378   -2.2768747  0.043196002   -2.9229378   0.64606302   418189 
 2138000    0.6183933   -2.9214194   -2.9214194   -2.2768273   0.04569809   -2.9214194   0.64459215   418189 
 2139000    0.6185393   -2.9219783   -2.9219783    -2.277234  0.034349759   -2.9219783   0.64474434   418189 
 2140000   0.61898951   -2.9220736   -2.9220736     -2.27686   0.04036347   -2.9220736   0.64521363   418189 
 2141000   0.62018913   -2.9234165   -2.9234165   -2.2769524  0.043240272   -2.9234165   0.64646407   418189 
 2142000   0.61885384   -2.9222058   -2.9222058   -2.2771336  0.047776497   -2.9222058   0.64507221   418189 
 2143000   0.61833655   -2.9213896   -2.9213896   -2.2768566  0.043116759   -2.9213896     0.644533   418189 
 2144000   0.61721584    -2.920604    -2.920604   -2.2772392  0.053154791    -2.920604   0.64336481   418189 
 2145000   0.61786271    -2.921703    -2.921703   -2.2776639  0.034654733    -2.921703   0.64403908   418189 
 2146000    0.6198154   -2.9241745   -2.9241745      -2.2781  0.034915451   -2.9241745    0.6460745   418189 
 2147000   0.61879121   -2.9229869   -2.9229869     -2.27798  0.045511422   -2.9229869   0.64500693   418189 
 2148000     0.617889   -2.9215948   -2.9215948   -2.2775283  0.043939123   -2.9215948    0.6440665   418189 
 2149000   0.61932117   -2.9225189   -2.9225189   -2.2769596  0.050940425   -2.9225189   0.64555934   418189 
 2150000   0.62016623    -2.923556    -2.923556   -2.2771158  0.046867751    -2.923556    0.6464402   418189 
 2151000   0.61881066   -2.9226242   -2.9226242    -2.277597   0.04849958   -2.9226242    0.6450272   418189 
 2152000    0.6199672   -2.9244831   -2.9244831   -2.2782504   0.03803293   -2.9244831   0.64623274   418189 
 2153000   0.61874864   -2.9230805   -2.9230805    -2.278118  0.043821743   -2.9230805   0.64496255   418189 
 2154000   0.62033321   -2.9251756   -2.9251756   -2.2785613  0.035577887   -2.9251756   0.64661426   418189 
 2155000   0.61996889   -2.9248606   -2.9248606   -2.2786261  0.029670689   -2.9248606    0.6462345   418189 
 2156000   0.61766301   -2.9222476   -2.9222476   -2.2784167  0.038780489   -2.9222476   0.64383093   418189 
 2157000   0.61911261   -2.9236596   -2.9236596   -2.2783176  0.032943736   -2.9236596   0.64534194   418189 
 2158000   0.61964469    -2.923522    -2.923522   -2.2776254  0.038747787    -2.923522   0.64589656   418189 
 2159000   0.61894986   -2.9222884   -2.9222884   -2.2771161   0.04469036   -2.9222884    0.6451723   418189 
 2160000   0.62025965   -2.9238215   -2.9238215   -2.2772839  0.040774428   -2.9238215   0.64653758   418189 
 2161000    0.6204349    -2.923262    -2.923262   -2.2765417  0.039787341    -2.923262   0.64672026   418189 
 2162000   0.61636085   -2.9199486   -2.9199486    -2.277475  0.039305662   -2.9199486    0.6424736   418189 
 2163000   0.61976365   -2.9237841   -2.9237841   -2.2777635  0.045749701   -2.9237841   0.64602057   418189 
 2164000   0.61875285   -2.9228437   -2.9228437   -2.2778767  0.035955024   -2.9228437   0.64496694   418189 
 2165000   0.61935754   -2.9233442   -2.9233442    -2.277747  0.044395985   -2.9233442   0.64559725   418189 
 2166000   0.62022479   -2.9244778   -2.9244778   -2.2779766  0.038211658   -2.9244778   0.64650124   418189 
 2167000   0.61917779   -2.9237395   -2.9237395   -2.2783297  0.055550962   -2.9237395   0.64540988   418189 
 2168000   0.61779595   -2.9221728   -2.9221728   -2.2782033  0.047882133   -2.9221728    0.6439695   418189 
 2169000   0.61976994   -2.9242165   -2.9242165   -2.2781894  0.030468933   -2.9242165   0.64602712   418189 
 2170000   0.61873991   -2.9236961   -2.9236961   -2.2787426  0.040298212   -2.9236961   0.64495346   418189 
 2171000   0.61910867   -2.9254623   -2.9254623   -2.2801245  0.044915624   -2.9254623   0.64533784   418189 
 2172000   0.61769262   -2.9244372   -2.9244372   -2.2805754  0.039567689   -2.9244372   0.64386179   418189 
 2173000    0.6190827   -2.9248736   -2.9248736   -2.2795629   0.04478817   -2.9248736   0.64531076   418189 
 2174000   0.61919182   -2.9249353   -2.9249353   -2.2795108  0.045469464   -2.9249353   0.64542451   418189 
 2175000   0.61908352   -2.9251307   -2.9251307   -2.2798191  0.050018033   -2.9251307   0.64531162   418189 
 2176000   0.61962716   -2.9255407   -2.9255407   -2.2796624  0.042752026   -2.9255407   0.64587829   418189 
 2177000    0.6201763   -2.9264486   -2.9264486   -2.2799979  0.035684817   -2.9264486   0.64645069   418189 
 2178000   0.61925851   -2.9251028   -2.9251028   -2.2796087  0.044606641   -2.9251028   0.64549403   418189 
 2179000    0.6179378   -2.9238668   -2.9238668   -2.2797495  0.037825404   -2.9238668   0.64411736   418189 
 2180000   0.61798007   -2.9240907   -2.9240907   -2.2799292  0.040319919   -2.9240907   0.64416142   418189 
 2181000   0.61963481   -2.9256706   -2.9256706   -2.2797843  0.049122908   -2.9256706   0.64588626   418189 
 2182000   0.61865668    -2.924557    -2.924557   -2.2796903  0.035612863    -2.924557    0.6448667   418189 
 2183000   0.61938201   -2.9254168   -2.9254168   -2.2797941  0.043678377   -2.9254168   0.64562275   418189 
 2184000   0.61880176   -2.9253686   -2.9253686   -2.2803507  0.039209718   -2.9253686   0.64501792   418189 
 2185000   0.61743152   -2.9240684   -2.9240684   -2.2804788  0.044003291   -2.9240684   0.64358963   418189 
 2186000   0.61802298   -2.9246887   -2.9246887   -2.2804826  0.042019559   -2.9246887   0.64420614   418189 
 2187000    0.6176666   -2.9247267   -2.9247267    -2.280892  0.039502943   -2.9247267   0.64383467   418189 
 2188000   0.61780932   -2.9251362   -2.9251362   -2.2811528  0.036743298   -2.9251362   0.64398344   418189 
 2189000   0.61749929   -2.9250999   -2.9250999   -2.2814397  0.039405599   -2.9250999   0.64366027   418189 
 2190000   0.61870658   -2.9257864   -2.9257864   -2.2808677  0.041437224   -2.9257864   0.64491871   418189 
 2191000   0.61797967   -2.9253896   -2.9253896   -2.2812286  0.049961057   -2.9253896     0.644161   418189 
 2192000   0.61840709    -2.925944    -2.925944   -2.2813375  0.036624021    -2.925944   0.64460654   418189 
 2193000   0.61899487   -2.9255697   -2.9255697   -2.2803505   0.04845706   -2.9255697   0.64521921   418189 
 2194000   0.61936027    -2.926081    -2.926081   -2.2804809  0.040913498    -2.926081    0.6456001   418189 
 2195000   0.61708773   -2.9249597   -2.9249597   -2.2817285  0.035682729   -2.9249597   0.64323128   418189 
 2196000   0.61699461   -2.9252144   -2.9252144   -2.2820802  0.034679265   -2.9252144   0.64313421   418189 
 2197000   0.61676765   -2.9253311   -2.9253311   -2.2824335  0.036763738   -2.9253311   0.64289763   418189 
 2198000   0.61808172   -2.9263368   -2.9263368   -2.2820694  0.043000508   -2.9263368   0.64426737   418189 
 2199000   0.61860574   -2.9268209   -2.9268209   -2.2820073  0.038359186   -2.9268209    0.6448136   418189 
 2200000   0.61739988   -2.9253557   -2.9253557   -2.2817991  0.033436552   -2.9253557   0.64355665   418189 
 2201000   0.61747182    -2.925854    -2.925854   -2.2822223  0.037640971    -2.925854   0.64363164   418189 
 2202000   0.61812026   -2.9265656   -2.9265656    -2.282258  0.041589243   -2.9265656   0.64430755   418189 
 2203000   0.61785683   -2.9265279   -2.9265279   -2.2824949  0.037485905   -2.9265279   0.64403296   418189 
 2204000   0.61813315    -2.927259    -2.927259    -2.282938  0.043580472    -2.927259   0.64432099   418189 
 2205000   0.61961964   -2.9275736   -2.9275736   -2.2817032  0.047232642   -2.9275736   0.64587045   418189 
 2206000   0.61909894   -2.9270355   -2.9270355   -2.2817078  0.039898814   -2.9270355   0.64532769   418189 
 2207000   0.62021852   -2.9283941   -2.9283941   -2.2818994   0.03553753   -2.9283941    0.6464947   418189 
 2208000   0.61899712    -2.927018    -2.927018   -2.2817964  0.033888335    -2.927018   0.64522156   418189 
 2209000   0.61909373   -2.9279555   -2.9279555   -2.2826332  0.038845185   -2.9279555   0.64532226   418189 
 2210000   0.61808292   -2.9274725   -2.9274725   -2.2832039  0.037886462   -2.9274725   0.64426863   418189 
 2211000   0.61905813   -2.9277551   -2.9277551   -2.2824699  0.035831151   -2.9277551   0.64528515   418189 
 2212000   0.61868883   -2.9276337   -2.9276337   -2.2827335  0.032008497   -2.9276337   0.64490021   418189 
 2213000   0.61693706   -2.9264694   -2.9264694   -2.2833952  0.027788858   -2.9264694   0.64307422   418189 
 2214000   0.61763955   -2.9264378   -2.9264378   -2.2826313  0.045845061   -2.9264378   0.64380647   418189 
 2215000   0.61856312   -2.9274364   -2.9274364   -2.2826672  0.040095008   -2.9274364   0.64476917   418189 
 2216000   0.61889632   -2.9284717   -2.9284717   -2.2833552  0.039916982   -2.9284717   0.64511649   418189 
 2217000   0.61783479   -2.9271783   -2.9271783   -2.2831683  0.034578678   -2.9271783   0.64400998   418189 
 2218000   0.61699562   -2.9265607   -2.9265607   -2.2834254  0.044539675   -2.9265607   0.64313526   418189 
 2219000   0.61842075   -2.9279949   -2.9279949   -2.2833741  0.046003371   -2.9279949   0.64462077   418189 
 2220000   0.61880846   -2.9287425   -2.9287425   -2.2837176  0.041894446   -2.9287425   0.64502491   418189 
 2221000   0.61860455   -2.9289289   -2.9289289   -2.2841165  0.031896678   -2.9289289   0.64481236   418189 
 2222000   0.61776215   -2.9281354   -2.9281354   -2.2842012  0.042425927   -2.9281354   0.64393427   418189 
 2223000   0.61787684   -2.9291558   -2.9291558   -2.2851019  0.041510159   -2.9291558   0.64405382   418189 
 2224000   0.61797762   -2.9301351   -2.9301351   -2.2859762  0.048806102   -2.9301351   0.64415886   418189 
 2225000   0.61747642   -2.9294402   -2.9294402   -2.2858037  0.040465336   -2.9294402   0.64363643   418189 
 2226000   0.61813623   -2.9301797   -2.9301797   -2.2858555  0.038594954   -2.9301797    0.6443242   418189 
 2227000   0.61817784   -2.9299229   -2.9299229   -2.2855553  0.031740139   -2.9299229   0.64436757   418189 
 2228000   0.61777619   -2.9297064   -2.9297064   -2.2857575  0.039781695   -2.9297064   0.64394891   418189 
 2229000   0.61832292   -2.9298102   -2.9298102   -2.2852914  0.035054591   -2.9298102   0.64451879   418189 
 2230000   0.62000778   -2.9309752   -2.9309752   -2.2847001  0.038328866   -2.9309752   0.64627504   418189 
 2231000   0.61791015    -2.928974    -2.928974   -2.2848854  0.043177852    -2.928974   0.64408854   418189 
 2232000    0.6192186   -2.9311888   -2.9311888   -2.2857364  0.036820086   -2.9311888   0.64545242   418189 
 2233000   0.61743479   -2.9287068   -2.9287068   -2.2851137  0.034336486   -2.9287068   0.64359304   418189 
 2234000   0.61732157   -2.9286004   -2.9286004   -2.2851254  0.038563591   -2.9286004   0.64347502   418189 
 2235000   0.61865743   -2.9301776   -2.9301776   -2.2853102  0.035287102   -2.9301776   0.64486748   418189 
 2236000    0.6175378   -2.9291174   -2.9291174    -2.285417  0.038736219   -2.9291174   0.64370041   418189 
 2237000   0.61813755    -2.928848    -2.928848   -2.2845225   0.04103463    -2.928848   0.64432557   418189 
 2238000   0.61879149   -2.9300858   -2.9300858   -2.2850786  0.041223084   -2.9300858   0.64500722   418189 
 2239000   0.61783402   -2.9297372   -2.9297372    -2.285728  0.039057597   -2.9297372   0.64400918   418189 
 2240000   0.61995293   -2.9316546   -2.9316546   -2.2854367  0.033754041   -2.9316546   0.64621786   418189 
 2241000    0.6181655   -2.9301409   -2.9301409   -2.2857862  0.035966529   -2.9301409   0.64435471   418189 
 2242000    0.6186409   -2.9310682   -2.9310682   -2.2862179  0.035261115   -2.9310682   0.64485025   418189 
 2243000   0.61848837   -2.9311922   -2.9311922   -2.2865009  0.030884152   -2.9311922   0.64469126   418189 
 2244000   0.61753791   -2.9300601   -2.9300601   -2.2863595  0.026804903   -2.9300601   0.64370053   418189 
 2245000   0.61711696   -2.9299582   -2.9299582   -2.2866964  0.032151853   -2.9299582   0.64326175   418189 
 2246000   0.61657285   -2.9293951   -2.9293951   -2.2867005  0.042598787   -2.9293951   0.64269458   418189 
 2247000   0.61632369   -2.9292443   -2.9292443   -2.2868095  0.033987707   -2.9292443   0.64243486   418189 
 2248000    0.6176143   -2.9308347   -2.9308347   -2.2870545  0.039769535   -2.9308347   0.64378015   418189 
 2249000    0.6178339   -2.9315705   -2.9315705   -2.2875615  0.043152405   -2.9315705   0.64400906   418189 
 2250000   0.61833924   -2.9319082   -2.9319082   -2.2873724  0.038912203   -2.9319082   0.64453581   418189 
 2251000   0.61807701   -2.9317046   -2.9317046   -2.2874422  0.051077446   -2.9317046   0.64426247   418189 
 2252000   0.61892102   -2.9329994   -2.9329994   -2.2878571   0.03394187   -2.9329994   0.64514223   418189 
 2253000   0.61840295   -2.9329597   -2.9329597   -2.2883575  0.034859765   -2.9329597   0.64460222   418189 
 2254000   0.61769113    -2.932288    -2.932288   -2.2884277  0.040574846    -2.932288   0.64386024   418189 
 2255000   0.61707373   -2.9320973   -2.9320973   -2.2888806  0.040645521   -2.9320973   0.64321669   418189 
 2256000   0.61727144   -2.9327989   -2.9327989   -2.2893762  0.033033821   -2.9327989   0.64342277   418189 
 2257000   0.61777839   -2.9330711   -2.9330711   -2.2891199  0.042125687   -2.9330711   0.64395119   418189 
 2258000   0.61726871   -2.9333379   -2.9333379    -2.289918  0.039200934   -2.9333379   0.64341992   418189 
 2259000   0.61598875   -2.9315506   -2.9315506   -2.2894648  0.032251448   -2.9315506   0.64208574   418189 
 2260000   0.61716637   -2.9327755   -2.9327755   -2.2894622   0.03719811   -2.9327755   0.64331325   418189 
 2261000   0.61750171   -2.9326845   -2.9326845   -2.2890217  0.048928008   -2.9326845   0.64366279   418189 
 2262000   0.61798458   -2.9334168   -2.9334168   -2.2892507   0.03060217   -2.9334168   0.64416612   418189 
 2263000   0.61734861   -2.9331573   -2.9331573   -2.2896541  0.038893168   -2.9331573    0.6435032   418189 
 2264000   0.61650299    -2.932873    -2.932873   -2.2902513  0.045830496    -2.932873   0.64262176   418189 
 2265000   0.61735901   -2.9333299   -2.9333299   -2.2898158  0.039545041   -2.9333299   0.64351405   418189 
 2266000   0.61726858   -2.9337824   -2.9337824   -2.2903626  0.035145072   -2.9337824   0.64341979   418189 
 2267000   0.61701026   -2.9340762   -2.9340762   -2.2909256  0.040193746   -2.9340762   0.64315052   418189 
 2268000   0.61834856   -2.9355079   -2.9355079   -2.2909624  0.043771417   -2.9355079   0.64454552   418189 
 2269000   0.61705195    -2.933627    -2.933627    -2.290433  0.042475522    -2.933627   0.64319398   418189 
 2270000   0.61799816   -2.9342418   -2.9342418   -2.2900616  0.043742143   -2.9342418   0.64418028   418189 
 2271000   0.61690091   -2.9324388   -2.9324388   -2.2894022  0.039364949   -2.9324388   0.64303654   418189 
 2272000   0.61681413   -2.9333459   -2.9333459   -2.2903998  0.042704654   -2.9333459   0.64294608   418189 
 2273000   0.61756256   -2.9347735   -2.9347735   -2.2910473  0.045909037   -2.9347735   0.64372622   418189 
 2274000   0.61570501   -2.9324506   -2.9324506   -2.2906606  0.038908516   -2.9324506   0.64178997   418189 
 2275000    0.6166188   -2.9331927   -2.9331927   -2.2904502  0.039247626   -2.9331927   0.64274248   418189 
 2276000   0.61711584   -2.9340846   -2.9340846    -2.290824  0.030719297   -2.9340846   0.64326057   418189 
 2277000   0.61705008   -2.9340977   -2.9340977   -2.2909056  0.033396644   -2.9340977   0.64319203   418189 
 2278000   0.61574267   -2.9326207   -2.9326207   -2.2907914  0.032768734   -2.9326207   0.64182923   418189 
 2279000   0.61552539    -2.932435    -2.932435   -2.2908323  0.044520401    -2.932435   0.64160275   418189 
 2280000     0.615704   -2.9329535   -2.9329535   -2.2911646  0.037921813   -2.9329535   0.64178892   418189 
 2281000   0.61579634   -2.9320724   -2.9320724   -2.2901872   0.04148521   -2.9320724   0.64188517   418189 
 2282000    0.6175212   -2.9330481   -2.9330481    -2.289365  0.036169419   -2.9330481   0.64368311   418189 
 2283000   0.61660726   -2.9322564   -2.9322564   -2.2895259  0.039006802   -2.9322564   0.64273045   418189 
 2284000    0.6170354   -2.9330548   -2.9330548    -2.289878   0.05119823   -2.9330548   0.64317673   418189 
 2285000   0.61753159   -2.9333637   -2.9333637   -2.2896698  0.042402532   -2.9333637   0.64369394   418189 
 2286000   0.61853713   -2.9343375   -2.9343375   -2.2895954  0.033102149   -2.9343375   0.64474208   418189 
 2287000   0.61886515   -2.9352269   -2.9352269   -2.2901429  0.040261553   -2.9352269     0.645084   418189 
 2288000   0.61746337   -2.9335212   -2.9335212   -2.2898984  0.041705214   -2.9335212   0.64362283   418189 
 2289000   0.61760663   -2.9347957   -2.9347957   -2.2910236  0.040439901   -2.9347957   0.64377216   418189 
 2290000   0.61635727   -2.9333795   -2.9333795   -2.2909096  0.036472018   -2.9333795   0.64246987   418189 
 2291000    0.6160949   -2.9338993   -2.9338993   -2.2917029  0.034949867   -2.9338993   0.64219638   418189 
 2292000   0.61780815   -2.9358267   -2.9358267   -2.2918445  0.046753238   -2.9358267   0.64398221   418189 
 2293000   0.61734282   -2.9356473   -2.9356473   -2.2921501  0.050921688   -2.9356473   0.64349717   418189 
 2294000   0.61628814   -2.9343338   -2.9343338    -2.291936  0.039581353   -2.9343338   0.64239781   418189 
 2295000   0.61676123   -2.9351646   -2.9351646   -2.2922737  0.038698281   -2.9351646   0.64289095   418189 
 2296000   0.61806179   -2.9368151   -2.9368151   -2.2925685  0.040306886   -2.9368151   0.64424661   418189 
 2297000   0.61643361   -2.9348721   -2.9348721   -2.2923226  0.047843237   -2.9348721   0.64254944   418189 
 2298000   0.61801822   -2.9362542   -2.9362542    -2.292053  0.034824349   -2.9362542   0.64420118   418189 
 2299000   0.61651999    -2.934852    -2.934852   -2.2922125  0.041439227    -2.934852   0.64263948   418189 
 2300000   0.61671206   -2.9350574   -2.9350574   -2.2922177  0.033253763   -2.9350574   0.64283969   418189 
 2301000   0.61747094    -2.935873    -2.935873   -2.2922423  0.030185871    -2.935873   0.64363073   418189 
 2302000   0.61768986   -2.9365791   -2.9365791   -2.2927202  0.041467418   -2.9365791   0.64385892   418189 
 2303000   0.61662817   -2.9360828   -2.9360828   -2.2933305  0.043449726   -2.9360828   0.64275224   418189 
 2304000   0.61663687   -2.9368898   -2.9368898   -2.2941285  0.046837492   -2.9368898   0.64276131   418189 
 2305000   0.61712631   -2.9361503   -2.9361503   -2.2928788  0.037073004   -2.9361503   0.64327149   418189 
 2306000   0.61666557   -2.9352208   -2.9352208   -2.2924296  0.045056944   -2.9352208   0.64279123   418189 
 2307000   0.61711471   -2.9363623   -2.9363623   -2.2931029  0.027665097   -2.9363623    0.6432594   418189 
 2308000   0.61782576   -2.9362818   -2.9362818   -2.2922812  0.049231329   -2.9362818   0.64400057   418189 
 2309000   0.61766702   -2.9362132   -2.9362132   -2.2923781  0.046703746   -2.9362132   0.64383511   418189 
 2310000   0.61703315   -2.9355148   -2.9355148   -2.2923404  0.041618527   -2.9355148   0.64317438   418189 
 2311000   0.61685319   -2.9346438   -2.9346438    -2.291657  0.035711988   -2.9346438   0.64298679   418189 
 2312000   0.61854895    -2.936418    -2.936418   -2.2916636  0.039431789    -2.936418    0.6447544   418189 
 2313000    0.6183086   -2.9367996   -2.9367996   -2.2922957  0.041045553   -2.9367996   0.64450387   418189 
 2314000   0.61743105   -2.9355311   -2.9355311    -2.291942  0.034335864   -2.9355311   0.64358914   418189 
 2315000   0.61760965   -2.9365343   -2.9365343    -2.292759  0.047440394   -2.9365343   0.64377531   418189 
 2316000   0.61698321   -2.9352749   -2.9352749   -2.2921526   0.04439954   -2.9352749   0.64312233   418189 
 2317000   0.61772944   -2.9361869   -2.9361869   -2.2922867  0.035861001   -2.9361869   0.64390018   418189 
 2318000   0.61576218   -2.9343845   -2.9343845   -2.2925349  0.045137891   -2.9343845   0.64184956   418189 
 2319000   0.61727508   -2.9357725   -2.9357725    -2.292346  0.037918686   -2.9357725   0.64342657   418189 
 2320000   0.61686695   -2.9350642   -2.9350642   -2.2920631  0.035331282   -2.9350642   0.64300114   418189 
 2321000   0.61647631   -2.9341015   -2.9341015   -2.2915075  0.034876318   -2.9341015   0.64259395   418189 
 2322000   0.61587279   -2.9340077   -2.9340077   -2.2920428  0.045192758   -2.9340077   0.64196487   418189 
 2323000   0.61694739   -2.9349451   -2.9349451   -2.2918601  0.042529055   -2.9349451   0.64308499   418189 
 2324000   0.61728032   -2.9351093   -2.9351093   -2.2916773  0.043929641   -2.9351093   0.64343203   418189 
 2325000   0.61576902   -2.9340447   -2.9340447    -2.292188  0.029479787   -2.9340447    0.6418567   418189 
 2326000   0.61693027   -2.9357765   -2.9357765   -2.2927093  0.041380646   -2.9357765   0.64306715   418189 
 2327000   0.61682248   -2.9355452   -2.9355452   -2.2925904  0.037683074   -2.9355452   0.64295478   418189 
 2328000   0.61652681   -2.9359435   -2.9359435   -2.2932969  0.036391021   -2.9359435   0.64264659   418189 
 2329000   0.61665571   -2.9363522   -2.9363522   -2.2935712  0.034089179   -2.9363522   0.64278096   418189 
 2330000    0.6167126   -2.9360758   -2.9360758   -2.2932356  0.036013152   -2.9360758   0.64284025   418189 
 2331000   0.61584337   -2.9345173   -2.9345173   -2.2925831   0.04417068   -2.9345173    0.6419342   418189 
 2332000   0.61657965    -2.934995    -2.934995   -2.2922933  0.029212642    -2.934995   0.64270167   418189 
 2333000   0.61741808   -2.9354456   -2.9354456   -2.2918699   0.04092344   -2.9354456   0.64357562   418189 
 2334000   0.61748856   -2.9355357   -2.9355357   -2.2918866  0.041037294   -2.9355357   0.64364909   418189 
 2335000   0.61686423   -2.9355864   -2.9355864   -2.2925881  0.047046662   -2.9355864    0.6429983   418189 
 2336000   0.61693888   -2.9358459   -2.9358459   -2.2927697  0.042186625   -2.9358459   0.64307612   418189 
 2337000   0.61662657   -2.9351683   -2.9351683   -2.2924177  0.040552466   -2.9351683   0.64275058   418189 
 2338000   0.61642786   -2.9356741   -2.9356741   -2.2931307  0.033321605   -2.9356741   0.64254345   418189 
 2339000   0.61654541   -2.9356577   -2.9356577   -2.2929918  0.040590087   -2.9356577   0.64266598   418189 
 2340000   0.61766489   -2.9373853   -2.9373853   -2.2935524   0.04062442   -2.9373853   0.64383289   418189 
 2341000   0.61871525   -2.9387823   -2.9387823   -2.2938545  0.043784473   -2.9387823   0.64492775   418189 
 2342000   0.61742421   -2.9377638   -2.9377638   -2.2941818   0.04285543   -2.9377638   0.64358202   418189 
 2343000   0.61783734   -2.9369993   -2.9369993   -2.2929866  0.032159319   -2.9369993   0.64401264   418189 
 2344000   0.61896725   -2.9381248   -2.9381248   -2.2929344  0.034212632   -2.9381248   0.64519042   418189 
 2345000   0.61830356   -2.9382474   -2.9382474   -2.2937488  0.031327041   -2.9382474   0.64449861   418189 
 2346000   0.61733502   -2.9365967   -2.9365967   -2.2931077  0.039527801   -2.9365967   0.64348904   418189 
 2347000   0.61559023    -2.934846    -2.934846   -2.2931757  0.042765882    -2.934846   0.64167033   418189 
 2348000   0.61675945   -2.9367468   -2.9367468   -2.2938577  0.042363818   -2.9367468   0.64288908   418189 
 2349000   0.61714961   -2.9369213   -2.9369213   -2.2936255  0.046733104   -2.9369213   0.64329578   418189 
 2350000   0.61665091   -2.9366814   -2.9366814   -2.2939055  0.042845855   -2.9366814   0.64277595   418189 
 2351000   0.61609861   -2.9364815   -2.9364815   -2.2942812  0.040242662   -2.9364815   0.64220025   418189 
 2352000   0.61730717   -2.9374576   -2.9374576   -2.2939976  0.033727695   -2.9374576   0.64346002   418189 
 2353000   0.61735474   -2.9379569   -2.9379569   -2.2944473  0.050947494   -2.9379569    0.6435096   418189 
 2354000   0.61788801   -2.9382547   -2.9382547   -2.2941893  0.042144393   -2.9382547   0.64406546   418189 
 2355000   0.61713117   -2.9377118   -2.9377118   -2.2944352  0.040710743   -2.9377118   0.64327656   418189 
 2356000   0.61645615   -2.9368398   -2.9368398   -2.2942668  0.041194319   -2.9368398   0.64257294   418189 
 2357000   0.61790705   -2.9383472   -2.9383472   -2.2942619  0.038278569   -2.9383472    0.6440853   418189 
 2358000   0.61644131   -2.9370184   -2.9370184    -2.294461  0.040369703   -2.9370184   0.64255747   418189 
 2359000   0.61653218   -2.9366681   -2.9366681   -2.2940159  0.043974739   -2.9366681   0.64265219   418189 
 2360000   0.61678029   -2.9374137   -2.9374137   -2.2945029  0.043621042   -2.9374137   0.64291081   418189 
 2361000   0.61680478   -2.9376221   -2.9376221   -2.2946858  0.036963582   -2.9376221   0.64293634   418189 
 2362000   0.61706693   -2.9383254   -2.9383254   -2.2951158  0.039467511   -2.9383254   0.64320959   418189 
 2363000   0.61684008   -2.9379094   -2.9379094   -2.2949363  0.050447901   -2.9379094   0.64297314   418189 
 2364000   0.61632713   -2.9383932   -2.9383932   -2.2959548  0.031430234   -2.9383932   0.64243845   418189 
 2365000   0.61558791   -2.9375407   -2.9375407   -2.2958727  0.036212676   -2.9375407   0.64166791   418189 
 2366000   0.61599578   -2.9382526   -2.9382526   -2.2961595  0.038661072   -2.9382526   0.64209307   418189 
 2367000   0.61676365   -2.9390135   -2.9390135     -2.29612  0.036040851   -2.9390135   0.64289347   418189 
 2368000   0.61657399   -2.9389101   -2.9389101   -2.2962143  0.033827877   -2.9389101   0.64269577   418189 
 2369000   0.61565457   -2.9377135   -2.9377135   -2.2959761  0.037942451   -2.9377135    0.6417374   418189 
 2370000   0.61607883   -2.9382041   -2.9382041   -2.2960245  0.045042998   -2.9382041   0.64217963   418189 
 2371000   0.61720943   -2.9395507   -2.9395507   -2.2961926  0.033939132   -2.9395507   0.64335813   418189 
 2372000   0.61594365   -2.9394495   -2.9394495   -2.2974108  0.039796804   -2.9394495   0.64203873   418189 
 2373000   0.61704283   -2.9395231   -2.9395231   -2.2963387  0.041930884   -2.9395231   0.64318447   418189 
 2374000   0.61641846   -2.9393973   -2.9393973   -2.2968636  0.042977177   -2.9393973   0.64253365   418189 
 2375000   0.61744728   -2.9404194   -2.9404194   -2.2968134  0.035771783   -2.9404194   0.64360605   418189 
 2376000   0.61729422   -2.9398731   -2.9398731   -2.2964266  0.043861607   -2.9398731   0.64344651   418189 
 2377000   0.61648189   -2.9391204   -2.9391204   -2.2965207  0.038957822   -2.9391204   0.64259977   418189 
 2378000     0.617682   -2.9400374   -2.9400374   -2.2961866   0.04375433   -2.9400374   0.64385072   418189 
 2379000   0.61655001   -2.9392508   -2.9392508   -2.2965801  0.043315757   -2.9392508   0.64267078   418189 
 2380000   0.61608227    -2.939286    -2.939286   -2.2971028  0.032820975    -2.939286   0.64218322   418189 
 2381000   0.61660694   -2.9399119   -2.9399119   -2.2971818  0.030672771   -2.9399119   0.64273012   418189 
 2382000   0.61617845   -2.9393362   -2.9393362   -2.2970527  0.033085411   -2.9393362   0.64228348   418189 
 2383000   0.61467456   -2.9382961   -2.9382961   -2.2975802  0.037974933   -2.9382961   0.64071587   418189 
 2384000   0.61605593   -2.9392249   -2.9392249   -2.2970691  0.034404763   -2.9392249   0.64215577   418189 
 2385000   0.61532036   -2.9382887   -2.9382887   -2.2968997  0.039830104   -2.9382887   0.64138903   418189 
 2386000   0.61627123   -2.9391351   -2.9391351    -2.296755   0.04181507   -2.9391351   0.64238019   418189 
 2387000   0.61788454   -2.9410715   -2.9410715   -2.2970097   0.04617879   -2.9410715   0.64406185   418189 
 2388000   0.61688063   -2.9406441   -2.9406441   -2.2976287  0.049708431   -2.9406441    0.6430154   418189 
 2389000   0.61719841   -2.9404267   -2.9404267   -2.2970801  0.039870166   -2.9404267   0.64334664   418189 
 2390000    0.6164848   -2.9401745   -2.9401745   -2.2975717  0.039772148   -2.9401745    0.6426028   418189 
 2391000    0.6174534   -2.9413156   -2.9413156   -2.2977032  0.033440724   -2.9413156   0.64361244   418189 
 2392000   0.61694988   -2.9408359   -2.9408359   -2.2977483  0.042978941   -2.9408359   0.64308759   418189 
 2393000   0.61734761   -2.9404828   -2.9404828   -2.2969807  0.038356184   -2.9404828   0.64350216   418189 
 2394000   0.61540833   -2.9393419   -2.9393419   -2.2978612  0.037600225   -2.9393419   0.64148072   418189 
 2395000   0.61740334    -2.940864    -2.940864   -2.2973038  0.030028029    -2.940864   0.64356026   418189 
 2396000   0.61541348   -2.9385219   -2.9385219   -2.2970358  0.039386273   -2.9385219   0.64148609   418189 
 2397000    0.6164304   -2.9397384   -2.9397384   -2.2971923  0.035751744   -2.9397384    0.6425461   418189 
 2398000   0.61709234   -2.9401596   -2.9401596   -2.2969235  0.039486023   -2.9401596   0.64323608   418189 
 2399000   0.61682899   -2.9400613   -2.9400613   -2.2970997  0.045517432   -2.9400613   0.64296157   418189 
 2400000   0.61698346   -2.9407397   -2.9407397   -2.2976171  0.033403398   -2.9407397   0.64312259   418189 
 2401000   0.61590358   -2.9404107   -2.9404107   -2.2984137  0.054979976   -2.9404107   0.64199696   418189 
 2402000   0.61543356   -2.9403576   -2.9403576   -2.2988506  0.040405458   -2.9403576   0.64150703   418189 
 2403000   0.61589083   -2.9419831   -2.9419831   -2.2999994  0.046568243   -2.9419831   0.64198367   418189 
 2404000   0.61627225   -2.9420611   -2.9420611   -2.2996799  0.039374044   -2.9420611   0.64238124   418189 
 2405000   0.61639755   -2.9413464   -2.9413464   -2.2988346  0.039741891   -2.9413464   0.64251186   418189 
 2406000   0.61594112   -2.9417175   -2.9417175   -2.2996814  0.035958626   -2.9417175   0.64203609   418189 
 2407000   0.61601154   -2.9412464   -2.9412464   -2.2991369  0.041310342   -2.9412464   0.64210949   418189 
 2408000    0.6155898   -2.9405645   -2.9405645   -2.2988946   0.04388966   -2.9405645   0.64166989   418189 
 2409000   0.61776129   -2.9435304   -2.9435304    -2.299597  0.039809988   -2.9435304   0.64393337   418189 
 2410000   0.61622857   -2.9427874   -2.9427874   -2.3004517  0.040100852   -2.9427874   0.64233572   418189 
 2411000   0.61613937   -2.9430141   -2.9430141   -2.3007714  0.035816084   -2.9430141   0.64224273   418189 
 2412000   0.61647743   -2.9433357   -2.9433357   -2.3007406  0.052294902   -2.9433357   0.64259512   418189 
 2413000   0.61627004   -2.9426096   -2.9426096   -2.3002307  0.047141821   -2.9426096   0.64237894   418189 
 2414000   0.61626285   -2.9426387   -2.9426387   -2.3002673  0.040132116   -2.9426387   0.64237145   418189 
 2415000   0.61641429   -2.9429202   -2.9429202   -2.3003909  0.051643177   -2.9429202   0.64252931   418189 
 2416000     0.616882   -2.9433316   -2.9433316   -2.3003148  0.030923307   -2.9433316   0.64301682   418189 
 2417000   0.61608983   -2.9425203   -2.9425203   -2.3003292  0.040457393   -2.9425203   0.64219109   418189 
 2418000   0.61646708   -2.9430926   -2.9430926   -2.3005083  0.046442361   -2.9430926   0.64258433   418189 
 2419000   0.61414363   -2.9414429   -2.9414429   -2.3012805  0.032916422   -2.9414429   0.64016245   418189 
 2420000   0.61589604   -2.9426117   -2.9426117   -2.3006226  0.036559283   -2.9426117   0.64198909   418189 
 2421000   0.61634512   -2.9426154   -2.9426154   -2.3001582  0.038562741   -2.9426154   0.64245721   418189 
 2422000   0.61492631   -2.9418769   -2.9418769   -2.3008986  0.038221835   -2.9418769   0.64097829   418189 
 2423000   0.61618046   -2.9426031   -2.9426031   -2.3003176  0.033293325   -2.9426031   0.64228557   418189 
 2424000   0.61640434   -2.9431526   -2.9431526   -2.3006337  0.045506528   -2.9431526   0.64251893   418189 
 2425000   0.61698724   -2.9439193   -2.9439193   -2.3007927  0.042360227   -2.9439193   0.64312653   418189 
 2426000   0.61757095   -2.9441093   -2.9441093   -2.3003743  0.034136416   -2.9441093   0.64373497   418189 
 2427000   0.61648155   -2.9432934   -2.9432934    -2.300694  0.028881934   -2.9432934   0.64259941   418189 
 2428000   0.61478617   -2.9422113   -2.9422113   -2.3013791  0.036548998   -2.9422113   0.64083221   418189 
 2429000   0.61728774   -2.9451279   -2.9451279   -2.3016882   0.02848162   -2.9451279   0.64343976   418189 
 2430000   0.61662516   -2.9444376   -2.9444376   -2.3016885  0.038580939   -2.9444376   0.64274911   418189 
 2431000   0.61547903   -2.9432433   -2.9432433   -2.3016889  0.036522704   -2.9432433   0.64155443   418189 
 2432000   0.61611232   -2.9436743   -2.9436743   -2.3014598  0.054845719   -2.9436743   0.64221454   418189 
 2433000   0.61616364   -2.9442697   -2.9442697   -2.3020016  0.033770372   -2.9442697   0.64226804   418189 
 2434000   0.61600241    -2.944229    -2.944229    -2.302129   0.04424152    -2.944229   0.64209998   418189 
 2435000   0.61747574   -2.9457736   -2.9457736   -2.3021379  0.044212492   -2.9457736   0.64363572   418189 
 2436000   0.61602202   -2.9440796   -2.9440796   -2.3019592  0.038866722   -2.9440796   0.64212042   418189 
 2437000   0.61502499   -2.9434469   -2.9434469   -2.3023658  0.038103978   -2.9434469   0.64108115   418189 
 2438000   0.61469082   -2.9433574   -2.9433574   -2.3026246  0.046563035   -2.9433574   0.64073282   418189 
 2439000   0.61334155    -2.942139    -2.942139   -2.3028127  0.040839911    -2.942139   0.63932639   418189 
 2440000   0.61509039   -2.9440805   -2.9440805   -2.3029312  0.044440357   -2.9440805   0.64114932   418189 
 2441000   0.61515209   -2.9441444   -2.9441444   -2.3029308  0.035578867   -2.9441444   0.64121363   418189 
 2442000   0.61432593   -2.9429137   -2.9429137   -2.3025612  0.035693199   -2.9429137   0.64035247   418189 
 2443000   0.61500536   -2.9438579   -2.9438579   -2.3027972  0.037819005   -2.9438579   0.64106069   418189 
 2444000   0.61417867   -2.9435294   -2.9435294   -2.3033304  0.045958872   -2.9435294   0.64019897   418189 
 2445000   0.61521964   -2.9445989   -2.9445989   -2.3033149  0.042772403   -2.9445989   0.64128405   418189 
 2446000   0.61485268   -2.9439911   -2.9439911   -2.3030896   0.04589951   -2.9439911   0.64090154   418189 
 2447000    0.6152029   -2.9443755   -2.9443755   -2.3031089  0.047532853   -2.9443755   0.64126659   418189 
 2448000    0.6150117   -2.9445865   -2.9445865   -2.3035192  0.040568025   -2.9445865   0.64106729   418189 
 2449000   0.61604177   -2.9452662   -2.9452662   -2.3031252  0.033798736   -2.9452662     0.642141   418189 
 2450000    0.6167981   -2.9463029   -2.9463029   -2.3033736  0.049704877   -2.9463029   0.64292938   418189 
 2451000   0.61620456   -2.9455426   -2.9455426   -2.3032319  0.034511257   -2.9455426   0.64231069   418189 
 2452000   0.61637662   -2.9461554   -2.9461554   -2.3036654  0.037562898   -2.9461554   0.64249004   418189 
 2453000   0.61712407   -2.9470749   -2.9470749   -2.3038057  0.034528669   -2.9470749   0.64326915   418189 
 2454000   0.61729742   -2.9472783   -2.9472783   -2.3038285  0.035466395   -2.9472783   0.64344985   418189 
 2455000   0.61600892   -2.9463476   -2.9463476   -2.3042409  0.043345464   -2.9463476   0.64210676   418189 
 2456000   0.61644013   -2.9460253   -2.9460253    -2.303469   0.04407786   -2.9460253   0.64255624   418189 
 2457000    0.6168287   -2.9467424   -2.9467424   -2.3037812  0.045135631   -2.9467424   0.64296127   418189 
 2458000   0.61516356   -2.9454812   -2.9454812   -2.3042556   0.02537091   -2.9454812   0.64122559   418189 
 2459000   0.61620408   -2.9458057   -2.9458057   -2.3034956  0.045463335   -2.9458057   0.64231019   418189 
 2460000   0.61491837   -2.9449271   -2.9449271   -2.3039571  0.039804852   -2.9449271   0.64097001   418189 
 2461000   0.61615171   -2.9456465   -2.9456465   -2.3033909  0.034539014   -2.9456465    0.6422556   418189 
 2462000   0.61620015    -2.945506    -2.945506   -2.3031999  0.045199626    -2.945506   0.64230609   418189 
 2463000   0.61526516   -2.9444698   -2.9444698   -2.3031383  0.033954825   -2.9444698   0.64133149   418189 
 2464000   0.61611765   -2.9457794   -2.9457794   -2.3035593  0.033001169   -2.9457794   0.64222009   418189 
 2465000   0.61574317   -2.9457434   -2.9457434   -2.3039137   0.03655771   -2.9457434   0.64182976   418189 
 2466000   0.61596008   -2.9463989   -2.9463989    -2.304343  0.042881462   -2.9463989   0.64205586   418189 
 2467000   0.61485592   -2.9454644   -2.9454644   -2.3045595  0.038947856   -2.9454644   0.64090491   418189 
 2468000   0.61565607   -2.9464491   -2.9464491   -2.3047101  0.036095641   -2.9464491   0.64173896   418189 
 2469000   0.61589218   -2.9462727   -2.9462727   -2.3042876  0.042618118   -2.9462727   0.64198507   418189 
 2470000   0.61506035    -2.946001    -2.946001    -2.304883  0.045278464    -2.946001     0.641118   418189 
 2471000   0.61552445   -2.9462769   -2.9462769   -2.3046752  0.039410138   -2.9462769   0.64160176   418189 
 2472000   0.61620899   -2.9470872   -2.9470872   -2.3047719  0.047139525   -2.9470872    0.6423153   418189 
 2473000   0.61650886    -2.947089    -2.947089   -2.3044611  0.041773063    -2.947089   0.64262788   418189 
 2474000   0.61584457   -2.9469399   -2.9469399   -2.3050044  0.038666656   -2.9469399   0.64193544   418189 
 2475000   0.61572683   -2.9465554   -2.9465554   -2.3047427  0.036362392   -2.9465554   0.64181272   418189 
 2476000   0.61543027   -2.9466103   -2.9466103   -2.3051067  0.040873137   -2.9466103    0.6415036   418189 
 2477000   0.61695484   -2.9475831   -2.9475831   -2.3044903  0.041384235   -2.9475831   0.64309275   418189 
 2478000   0.61542035   -2.9465645   -2.9465645   -2.3050713  0.037778596   -2.9465645   0.64149325   418189 
 2479000   0.61529034   -2.9463402   -2.9463402   -2.3049824  0.034507042   -2.9463402   0.64135773   418189 
 2480000   0.61604868   -2.9469669   -2.9469669   -2.3048187   0.04759243   -2.9469669   0.64214821   418189 
 2481000   0.61588668   -2.9465554   -2.9465554    -2.304576  0.038273702   -2.9465554   0.64197935   418189 
 2482000   0.61545085   -2.9472168   -2.9472168   -2.3056917  0.034585505   -2.9472168   0.64152505   418189 
 2483000   0.61447879   -2.9463041   -2.9463041   -2.3057923  0.036976245   -2.9463041   0.64051181   418189 
 2484000   0.61529991   -2.9474605   -2.9474605   -2.3060928  0.042498658   -2.9474605   0.64136771   418189 
 2485000   0.61599899   -2.9474535   -2.9474535   -2.3053571   0.04341363   -2.9474535   0.64209641   418189 
 2486000   0.61591029   -2.9479618   -2.9479618   -2.3059578   0.03060976   -2.9479618   0.64200396   418189 
 2487000   0.61624384   -2.9478445   -2.9478445   -2.3054929  0.044156894   -2.9478445   0.64235164   418189 
 2488000   0.61623097   -2.9472819   -2.9472819   -2.3049437  0.031043487   -2.9472819   0.64233822   418189 
 2489000   0.61478865   -2.9464619   -2.9464619   -2.3056271  0.034264886   -2.9464619   0.64083479   418189 
 2490000   0.61475851   -2.9463076   -2.9463076   -2.3055042  0.036360132   -2.9463076   0.64080338   418189 
 2491000   0.61552703     -2.94691     -2.94691   -2.3053055  0.045693421     -2.94691   0.64160446   418189 
 2492000   0.61580899   -2.9467791   -2.9467791   -2.3048807  0.036362693   -2.9467791   0.64189836   418189 
 2493000    0.6163191    -2.947264    -2.947264   -2.3048339  0.036634783    -2.947264   0.64243008   418189 
 2494000   0.61574166   -2.9465686   -2.9465686   -2.3047404  0.042267906   -2.9465686   0.64182818   418189 
 2495000    0.6161955   -2.9480997   -2.9480997   -2.3057985  0.028682027   -2.9480997   0.64230125   418189 
 2496000    0.6157092   -2.9475403   -2.9475403    -2.305746  0.034525954   -2.9475403   0.64179435   418189 
 2497000   0.61597486   -2.9481134   -2.9481134   -2.3060421  0.033071292   -2.9481134   0.64207126   418189 
 2498000   0.61420741   -2.9468472   -2.9468472   -2.3066182  0.034611607   -2.9468472   0.64022893   418189 
 2499000   0.61541445   -2.9482082   -2.9482082   -2.3067211  0.031244075   -2.9482082   0.64148711   418189 
 2500000   0.61327758   -2.9453657   -2.9453657    -2.306106  0.037464541   -2.9453657    0.6392597   418189 
 2501000   0.61623444   -2.9489343   -2.9489343   -2.3065925  0.041562296   -2.9489343   0.64234184   418189 
 2502000   0.61469212   -2.9474169   -2.9474169   -2.3066828  0.040782586   -2.9474169   0.64073417   418189 
 2503000   0.61524059   -2.9474221   -2.9474221   -2.3061162  0.045511275   -2.9474221   0.64130588   418189 
 2504000   0.61659214   -2.9478143   -2.9478143   -2.3050996  0.037205024   -2.9478143   0.64271469   418189 
 2505000   0.61586011   -2.9470588   -2.9470588   -2.3051071   0.04389474   -2.9470588   0.64195164   418189 
 2506000    0.6164688   -2.9480847   -2.9480847   -2.3054985  0.033226163   -2.9480847   0.64258612   418189 
 2507000   0.61606012   -2.9483639   -2.9483639   -2.3062038  0.038887441   -2.9483639   0.64216013   418189 
 2508000   0.61560282   -2.9481724   -2.9481724   -2.3064889  0.028165141   -2.9481724   0.64168346   418189 
 2509000   0.61487584   -2.9476331   -2.9476331   -2.3067074  0.038121358   -2.9476331   0.64092568   418189 
 2510000   0.61603258    -2.949636    -2.949636   -2.3075045  0.038895809    -2.949636   0.64213142   418189 
 2511000    0.6145337   -2.9476589   -2.9476589   -2.3070899  0.038432227   -2.9476589   0.64056905   418189 
 2512000   0.61569175   -2.9489056   -2.9489056   -2.3071294  0.040232693   -2.9489056   0.64177615   418189 
 2513000   0.61560565   -2.9493304   -2.9493304    -2.307644  0.036575955   -2.9493304   0.64168641   418189 
 2514000   0.61615168   -2.9495996   -2.9495996   -2.3073441  0.034222005   -2.9495996   0.64225557   418189 
 2515000   0.61511944   -2.9486967   -2.9486967   -2.3075171  0.040618509   -2.9486967    0.6411796   418189 
 2516000   0.61639217   -2.9500547   -2.9500547   -2.3075484  0.052415535   -2.9500547   0.64250625   418189 
 2517000   0.61614794   -2.9502918   -2.9502918   -2.3080401  0.037704426   -2.9502918   0.64225167   418189 
 2518000   0.61555973   -2.9495748   -2.9495748   -2.3079362  0.032837137   -2.9495748   0.64163854   418189 
 2519000   0.61558573   -2.9492724   -2.9492724   -2.3076067  0.037840969   -2.9492724   0.64166564   418189 
 2520000    0.6147428   -2.9485466   -2.9485466   -2.3077596  0.045794307   -2.9485466     0.640787   418189 
 2521000   0.61390351   -2.9483635   -2.9483635   -2.3084514  0.042159369   -2.9483635   0.63991215   418189 
 2522000   0.61411831    -2.948731    -2.948731   -2.3085949  0.036311069    -2.948731   0.64013605   418189 
 2523000   0.61410752   -2.9489302   -2.9489302   -2.3088053  0.045612928   -2.9489302   0.64012481   418189 
 2524000   0.61500806    -2.949916    -2.949916   -2.3088525   0.03697661    -2.949916    0.6410635   418189 
 2525000   0.61650306   -2.9504301   -2.9504301   -2.3078083  0.039081271   -2.9504301   0.64262183   418189 
 2526000   0.61577545   -2.9487602   -2.9487602   -2.3068968   0.04665403   -2.9487602    0.6418634   418189 
 2527000   0.61737589    -2.950528    -2.950528   -2.3069964  0.029826501    -2.950528   0.64353164   418189 
 2528000   0.61547945   -2.9492914   -2.9492914   -2.3077366  0.034045773   -2.9492914   0.64155486   418189 
 2529000    0.6161299   -2.9496832   -2.9496832   -2.3074503  0.044647238   -2.9496832   0.64223287   418189 
 2530000    0.6158657   -2.9495801   -2.9495801   -2.3076226  0.042009494   -2.9495801   0.64195748   418189 
 2531000   0.61590349   -2.9500505   -2.9500505   -2.3080536  0.048719483   -2.9500505   0.64199687   418189 
 2532000   0.61597902   -2.9502667   -2.9502667   -2.3081911  0.029862188   -2.9502667    0.6420756   418189 
 2533000   0.61599765   -2.9505387   -2.9505387   -2.3084437  0.029243791   -2.9505387   0.64209501   418189 
 2534000   0.61459695   -2.9489319   -2.9489319   -2.3082969  0.041203252   -2.9489319   0.64063497   418189 
 2535000   0.61575464   -2.9499542   -2.9499542   -2.3081125  0.032044027   -2.9499542   0.64184171   418189 
 2536000   0.61521266   -2.9498061   -2.9498061   -2.3085293   0.03525314   -2.9498061   0.64127676   418189 
 2537000   0.61534572   -2.9492021   -2.9492021   -2.3077867  0.048813317   -2.9492021   0.64141546   418189 
 2538000   0.61527129   -2.9492865   -2.9492865   -2.3079486  0.031983168   -2.9492865   0.64133788   418189 
 2539000   0.61548439   -2.9499052   -2.9499052   -2.3083452  0.044396894   -2.9499052   0.64156001   418189 
 2540000   0.61599042   -2.9507711   -2.9507711   -2.3086836  0.039463444   -2.9507711   0.64208748   418189 
 2541000   0.61536516   -2.9506305   -2.9506305   -2.3091948  0.035761242   -2.9506305   0.64143573   418189 
 2542000    0.6163499   -2.9520374   -2.9520374   -2.3095753  0.037991366   -2.9520374   0.64246218   418189 
 2543000   0.61475166   -2.9515868   -2.9515868   -2.3107905  0.047473239   -2.9515868   0.64079623   418189 
 2544000   0.61565472   -2.9513455   -2.9513455   -2.3096079  0.036952284   -2.9513455   0.64173756   418189 
 2545000   0.61544554   -2.9507288   -2.9507288   -2.3092093  0.038224032   -2.9507288   0.64151951   418189 
 2546000   0.61710334   -2.9528175   -2.9528175     -2.30957  0.047143426   -2.9528175   0.64324755   418189 
 2547000    0.6169563   -2.9527709   -2.9527709   -2.3096766   0.03764611   -2.9527709   0.64309428   418189 
 2548000   0.61617538   -2.9525612   -2.9525612   -2.3102809   0.03707561   -2.9525612   0.64228027   418189 
 2549000   0.61481276   -2.9522864   -2.9522864   -2.3114265  0.040712835   -2.9522864   0.64085993   418189 
 2550000   0.61521237   -2.9518739   -2.9518739   -2.3105975  0.045164111   -2.9518739   0.64127647   418189 
 2551000   0.61594652   -2.9527479   -2.9527479   -2.3107062  0.042442561   -2.9527479   0.64204172   418189 
 2552000   0.61499386   -2.9517825   -2.9517825   -2.3107338  0.040866455   -2.9517825    0.6410487   418189 
 2553000   0.61591316   -2.9520386   -2.9520386   -2.3100316  0.033511573   -2.9520386   0.64200695   418189 
 2554000   0.61484251   -2.9518322   -2.9518322   -2.3109412  0.042692478   -2.9518322   0.64089094   418189 
 2555000   0.61349155   -2.9502898   -2.9502898    -2.310807  0.044428399   -2.9502898   0.63948274   418189 
 2556000   0.61498452   -2.9520027   -2.9520027   -2.3109638  0.043363043   -2.9520027   0.64103896   418189 
 2557000   0.61612101   -2.9528145   -2.9528145   -2.3105909   0.04627934   -2.9528145    0.6422236   418189 
 2558000   0.61519925   -2.9517107   -2.9517107   -2.3104479  0.041675722   -2.9517107   0.64126279   418189 
 2559000   0.61539024   -2.9515319   -2.9515319     -2.31007  0.036009105   -2.9515319   0.64146187   418189 
 2560000   0.61565509   -2.9516969   -2.9516969   -2.3099589  0.044593788   -2.9516969   0.64173794   418189 
 2561000   0.61682437   -2.9529685   -2.9529685   -2.3100117  0.039534007   -2.9529685   0.64295676   418189 
 2562000   0.61542457   -2.9530353   -2.9530353   -2.3115377  0.032524814   -2.9530353   0.64149766   418189 
 2563000   0.61355072   -2.9516187   -2.9516187   -2.3120743  0.027636745   -2.9516187   0.63954442   418189 
 2564000   0.61548919   -2.9539514   -2.9539514   -2.3123863  0.033794865   -2.9539514   0.64156502   418189 
 2565000   0.61513492   -2.9532338   -2.9532338   -2.3120381  0.029413202   -2.9532338   0.64119573   418189 
 2566000   0.61460256   -2.9532333   -2.9532333   -2.3125925  0.042481512   -2.9532333   0.64064082   418189 
 2567000   0.61513871   -2.9532902   -2.9532902   -2.3120905  0.040656516   -2.9532902   0.64119968   418189 
 2568000   0.61610428    -2.954048    -2.954048   -2.3118418  0.046643528    -2.954048   0.64220617   418189 
 2569000    0.6157682   -2.9539947   -2.9539947   -2.3121388  0.049370972   -2.9539947   0.64185584   418189 
 2570000   0.61538749   -2.9536391   -2.9536391   -2.3121801  0.038611279   -2.9536391     0.641459   418189 
 2571000    0.6161319   -2.9549023   -2.9549023   -2.3126674  0.034894325   -2.9549023   0.64223495   418189 
 2572000   0.61487671   -2.9540169   -2.9540169   -2.3130904  0.048382782   -2.9540169   0.64092658   418189 
 2573000   0.61670329   -2.9557568   -2.9557568   -2.3129262  0.036671475   -2.9557568   0.64283055   418189 
 2574000   0.61655045   -2.9556525   -2.9556525   -2.3129813  0.048045538   -2.9556525   0.64267123   418189 
 2575000   0.61579724   -2.9547795   -2.9547795   -2.3128934  0.043255809   -2.9547795   0.64188612   418189 
 2576000   0.61484946   -2.9547879   -2.9547879   -2.3138898  0.042572296   -2.9547879   0.64089818   418189 
 2577000   0.61595232   -2.9555676   -2.9555676   -2.3135199  0.040697898   -2.9555676   0.64204777   418189 
 2578000   0.61367435   -2.9533972   -2.9533972   -2.3137239  0.044568027   -2.9533972   0.63967329   418189 
 2579000   0.61528536   -2.9544406   -2.9544406   -2.3130881  0.047792571   -2.9544406   0.64135255   418189 
 2580000   0.61559348   -2.9545378   -2.9545378   -2.3128641   0.03967896   -2.9545378   0.64167372   418189 
 2581000   0.61308301   -2.9526547   -2.9526547   -2.3135978   0.02571895   -2.9526547   0.63905689   418189 
 2582000   0.61501464   -2.9544756   -2.9544756   -2.3134052  0.038205171   -2.9544756   0.64107036   418189 
 2583000   0.61511032   -2.9548677   -2.9548677   -2.3136976  0.029516563   -2.9548677   0.64117009   418189 
 2584000    0.6151051   -2.9553803   -2.9553803   -2.3142156  0.029382883   -2.9553803   0.64116465   418189 
 2585000   0.61568254   -2.9559427   -2.9559427   -2.3141762   0.03906372   -2.9559427   0.64176655   418189 
 2586000    0.6143418   -2.9548862   -2.9548862   -2.3145172  0.038835673   -2.9548862   0.64036901   418189 
 2587000   0.61532459   -2.9555548   -2.9555548   -2.3141614  0.045038996   -2.9555548   0.64139344   418189 
 2588000   0.61554429   -2.9556465   -2.9556465   -2.3140241  0.038236162   -2.9556465   0.64162244   418189 
 2589000   0.61388184   -2.9536253   -2.9536253   -2.3137357  0.038730824   -2.9536253   0.63988957   418189 
 2590000   0.61424437   -2.9538456   -2.9538456   -2.3135782  0.056667228   -2.9538456   0.64026745   418189 
 2591000   0.61459545   -2.9546448   -2.9546448   -2.3140114  0.042032543   -2.9546448   0.64063341   418189 
 2592000   0.61513611   -2.9544425   -2.9544425   -2.3132455  0.038397521   -2.9544425   0.64119698   418189 
 2593000   0.61430895   -2.9543649   -2.9543649   -2.3140301  0.035402013   -2.9543649   0.64033477   418189 
 2594000   0.61524565    -2.955212    -2.955212   -2.3139008  0.032151268    -2.955212   0.64131115   418189 
 2595000   0.61487992   -2.9542192   -2.9542192   -2.3132892  0.041811658   -2.9542192   0.64092993   418189 
 2596000   0.61459149   -2.9531596   -2.9531596   -2.3125303  0.039024351   -2.9531596   0.64062929   418189 
 2597000    0.6147564    -2.953499    -2.953499   -2.3126978  0.043159512    -2.953499   0.64080117   418189 
 2598000   0.61550288   -2.9546085   -2.9546085   -2.3130292  0.027910317   -2.9546085   0.64157929   418189 
 2599000   0.61493752   -2.9545142   -2.9545142   -2.3135243  0.040266509   -2.9545142   0.64098997   418189 
 2600000   0.61514726   -2.9546892   -2.9546892   -2.3134806  0.046445037   -2.9546892    0.6412086   418189 
 2601000   0.61598051   -2.9562459   -2.9562459   -2.3141687  0.031286741   -2.9562459   0.64207715   418189 
 2602000   0.61446121   -2.9553456   -2.9553456   -2.3148521  0.037555572   -2.9553456   0.64049349   418189 
 2603000   0.61578078   -2.9556239   -2.9556239   -2.3137549  0.052012877   -2.9556239   0.64186896   418189 
 2604000   0.61520162   -2.9545014   -2.9545014   -2.3132362  0.042290237   -2.9545014   0.64126526   418189 
 2605000   0.61433176   -2.9546039   -2.9546039   -2.3142454  0.041191119   -2.9546039   0.64035855   418189 
 2606000    0.6139524   -2.9549733   -2.9549733   -2.3150101  0.028879234   -2.9549733   0.63996311   418189 
 2607000   0.61469077   -2.9557291   -2.9557291   -2.3149963  0.032942116   -2.9557291   0.64073277   418189 
 2608000   0.61462228    -2.955096    -2.955096   -2.3144346  0.033913144    -2.955096   0.64066138   418189 
 2609000   0.61596436   -2.9563585   -2.9563585   -2.3142982  0.035745775   -2.9563585   0.64206032   418189 
 2610000   0.61517715   -2.9551908   -2.9551908    -2.313951  0.037709037   -2.9551908   0.64123975   418189 
 2611000   0.61521972   -2.9548238   -2.9548238   -2.3135397  0.038214433   -2.9548238   0.64128412   418189 
 2612000   0.61576181   -2.9557448   -2.9557448   -2.3138956   0.03594871   -2.9557448   0.64184918   418189 
 2613000   0.61588816   -2.9553729   -2.9553729    -2.313392  0.044034076   -2.9553729   0.64198089   418189 
 2614000   0.61570355   -2.9557203   -2.9557203   -2.3139319  0.031845165   -2.9557203   0.64178846   418189 
 2615000   0.61499422   -2.9550007   -2.9550007   -2.3139516  0.037165521   -2.9550007   0.64104907   418189 
 2616000   0.61633547   -2.9570777   -2.9570777   -2.3146306  0.038601957   -2.9570777   0.64244715   418189 
 2617000   0.61546059   -2.9563399   -2.9563399   -2.3148047  0.040595133   -2.9563399    0.6415352   418189 
 2618000   0.61581089   -2.9570448   -2.9570448   -2.3151444  0.037341903   -2.9570448   0.64190034   418189 
 2619000   0.61338983   -2.9551988   -2.9551988    -2.315822   0.03300069   -2.9551988   0.63937671   418189 
 2620000    0.6139026   -2.9558279   -2.9558279   -2.3159166  0.048232516   -2.9558279   0.63991121   418189 
 2621000   0.61403111   -2.9561239   -2.9561239   -2.3160788  0.040286249   -2.9561239   0.64004516   418189 
 2622000   0.61307833   -2.9550489   -2.9550489   -2.3159968  0.049676275   -2.9550489   0.63905201   418189 
 2623000   0.61458719   -2.9561239   -2.9561239   -2.3154991  0.048734533   -2.9561239    0.6406248   418189 
 2624000   0.61591431   -2.9574987   -2.9574987   -2.3154906  0.043611316   -2.9574987   0.64200814   418189 
 2625000   0.61473426   -2.9563722   -2.9563722   -2.3155941  0.025066462   -2.9563722    0.6407781   418189 
 2626000   0.61608419   -2.9580723   -2.9580723   -2.3158871  0.046297333   -2.9580723   0.64218522   418189 
 2627000   0.61444618   -2.9570613   -2.9570613   -2.3165835  0.038915125   -2.9570613   0.64047782   418189 
 2628000   0.61564303   -2.9584494   -2.9584494    -2.316724  0.030661837   -2.9584494   0.64172537   418189 
 2629000   0.61600364   -2.9589562   -2.9589562    -2.316855  0.037140611   -2.9589562   0.64210126   418189 
 2630000    0.6161272   -2.9595316   -2.9595316   -2.3173016   0.03299641   -2.9595316   0.64223005   418189 
 2631000   0.61508563   -2.9580415   -2.9580415   -2.3168971  0.045944872   -2.9580415   0.64114435   418189 
 2632000   0.61473094   -2.9576887   -2.9576887    -2.316914  0.045612473   -2.9576887   0.64077464   418189 
 2633000   0.61475167   -2.9585617   -2.9585617   -2.3177655  0.042642562   -2.9585617   0.64079625   418189 
 2634000   0.61470865   -2.9578935   -2.9578935   -2.3171421  0.047493639   -2.9578935    0.6407514   418189 
 2635000   0.61472943   -2.9580616   -2.9580616   -2.3172885  0.036420496   -2.9580616   0.64077307   418189 
 2636000   0.61386794   -2.9578298   -2.9578298   -2.3179548  0.037646766   -2.9578298   0.63987508   418189 
 2637000    0.6134045   -2.9570606   -2.9570606   -2.3176686  0.038205743   -2.9570606     0.639392   418189 
 2638000   0.61387305   -2.9573855   -2.9573855   -2.3175051  0.035024822   -2.9573855   0.63988041   418189 
 2639000   0.61422985    -2.957455    -2.957455   -2.3172026  0.040591149    -2.957455   0.64025232   418189 
 2640000   0.61477404   -2.9583916   -2.9583916    -2.317572  0.026867507   -2.9583916   0.64081957   418189 
 2641000    0.6132596   -2.9570017   -2.9570017   -2.3177607  0.029548506   -2.9570017   0.63924096   418189 
 2642000   0.61440939   -2.9575859   -2.9575859   -2.3171465  0.041987768   -2.9575859   0.64043946   418189 
 2643000   0.61413874   -2.9566767   -2.9566767   -2.3165193  0.044915579   -2.9566767   0.64015735   418189 
 2644000   0.61424021   -2.9570299   -2.9570299   -2.3167668  0.039037795   -2.9570299   0.64026312   418189 
 2645000   0.61554336   -2.9584696   -2.9584696   -2.3168481  0.041664274   -2.9584696   0.64162147   418189 
 2646000   0.61286097   -2.9560051   -2.9560051   -2.3171796  0.031244881   -2.9560051   0.63882545   418189 
 2647000   0.61437116   -2.9577186   -2.9577186    -2.317319   0.03340448   -2.9577186   0.64039961   418189 
 2648000   0.61458249   -2.9576803   -2.9576803   -2.3170604  0.037433396   -2.9576803    0.6406199   418189 
 2649000   0.61545976   -2.9586902   -2.9586902   -2.3171559  0.035734028   -2.9586902   0.64153433   418189 
 2650000    0.6135093   -2.9570144   -2.9570144   -2.3175131   0.03803553   -2.9570144   0.63950124   418189 
 2651000   0.61307288   -2.9568949   -2.9568949   -2.3178486  0.029854428   -2.9568949   0.63904633   418189 
 2652000   0.61241439   -2.9563657   -2.9563657   -2.3180057  0.034425307   -2.9563657   0.63835994   418189 
 2653000   0.61472016   -2.9582212   -2.9582212   -2.3174578  0.041191938   -2.9582212    0.6407634   418189 
 2654000   0.61357334   -2.9572688   -2.9572688   -2.3177008  0.037632398   -2.9572688   0.63956799   418189 
 2655000   0.61579855   -2.9591049   -2.9591049   -2.3172174  0.044052858   -2.9591049   0.64188748   418189 
 2656000   0.61478283   -2.9581228   -2.9581228    -2.317294  0.034954196   -2.9581228   0.64082873   418189 
 2657000   0.61253903   -2.9560939   -2.9560939   -2.3176041  0.040924072   -2.9560939   0.63848986   418189 
 2658000   0.61478959   -2.9586195   -2.9586195   -2.3177838  0.028476556   -2.9586195   0.64083577   418189 
 2659000    0.6144459   -2.9585301   -2.9585301   -2.3180526   0.03451625   -2.9585301   0.64047752   418189 
 2660000   0.61478054   -2.9584864   -2.9584864     -2.31766  0.037530336   -2.9584864   0.64082634   418189 
 2661000   0.61592737    -2.959449    -2.959449   -2.3174273  0.040661203    -2.959449   0.64202175   418189 
 2662000   0.61342878   -2.9566614   -2.9566614   -2.3172441  0.045960164   -2.9566614   0.63941731   418189 
 2663000   0.61419062   -2.9570235   -2.9570235   -2.3168121  0.035814076   -2.9570235   0.64021142   418189 
 2664000   0.61659889   -2.9588197   -2.9588197    -2.316098  0.037777135   -2.9588197   0.64272173   418189 
 2665000   0.61507109   -2.9575796   -2.9575796   -2.3164504  0.027190996   -2.9575796   0.64112919   418189 
 2666000   0.61471026   -2.9568347   -2.9568347   -2.3160816  0.039232913   -2.9568347   0.64075308   418189 
 2667000   0.61411006   -2.9561745   -2.9561745   -2.3160471  0.030680983   -2.9561745   0.64012745   418189 
 2668000   0.61499306   -2.9569071   -2.9569071   -2.3158592  0.040681688   -2.9569071   0.64104786   418189 
 2669000   0.61527065   -2.9566907   -2.9566907   -2.3153535  0.043367489   -2.9566907   0.64133721   418189 
 2670000   0.61433907   -2.9563691   -2.9563691    -2.316003  0.038676834   -2.9563691   0.64036617   418189 
 2671000   0.61590829   -2.9580553   -2.9580553   -2.3160534  0.039360565   -2.9580553   0.64200187   418189 
 2672000   0.61562991   -2.9576436   -2.9576436   -2.3159319  0.036766503   -2.9576436   0.64171169   418189 
 2673000   0.61421062   -2.9570276   -2.9570276   -2.3167953  0.024700238   -2.9570276   0.64023227   418189 
 2674000   0.61330479    -2.956457    -2.956457   -2.3171689  0.039191315    -2.956457   0.63928807   418189 
 2675000   0.61453041   -2.9572345   -2.9572345   -2.3166689  0.022020883   -2.9572345   0.64056562   418189 
 2676000   0.61442929   -2.9570217   -2.9570217   -2.3165615  0.036612785   -2.9570217   0.64046021   418189 
 2677000    0.6130693   -2.9559494   -2.9559494   -2.3169068  0.039564686   -2.9559494    0.6390426   418189 
 2678000   0.61506977   -2.9577477   -2.9577477   -2.3166198  0.036059459   -2.9577477   0.64112782   418189 
 2679000   0.61405094   -2.9568388   -2.9568388    -2.316773  0.029016593   -2.9568388   0.64006583   418189 
 2680000   0.61546125   -2.9575639   -2.9575639    -2.316028  0.041064401   -2.9575639   0.64153589   418189 
 2681000   0.61484852   -2.9572979   -2.9572979   -2.3164007   0.04540485   -2.9572979    0.6408972   418189 
 2682000   0.61508978   -2.9582423   -2.9582423   -2.3170936  0.039312451   -2.9582423   0.64114868   418189 
 2683000   0.61394921   -2.9573043   -2.9573043   -2.3173445  0.046040009   -2.9573043   0.63995979   418189 
 2684000   0.61241108   -2.9564954   -2.9564954   -2.3181389  0.039809902   -2.9564954   0.63835649   418189 
 2685000   0.61389402   -2.9586932   -2.9586932    -2.318791  0.029803702   -2.9586932   0.63990226   418189 
 2686000   0.61449489   -2.9586643   -2.9586643   -2.3181357  0.040428818   -2.9586643   0.64052859   418189 
 2687000   0.61397276   -2.9587343   -2.9587343     -2.31875  0.041391841   -2.9587343   0.63998433   418189 
 2688000   0.61318775   -2.9584381   -2.9584381   -2.3192721  0.035405176   -2.9584381   0.63916607   418189 
 2689000   0.61479603   -2.9601804   -2.9601804   -2.3193379  0.025583414   -2.9601804   0.64084248   418189 
 2690000   0.61540869   -2.9601992   -2.9601992   -2.3187181  0.053427477   -2.9601992   0.64148111   418189 
 2691000   0.61461561   -2.9595633   -2.9595633   -2.3189088  0.045728372   -2.9595633   0.64065442   418189 
 2692000   0.61586299   -2.9608292   -2.9608292   -2.3188745  0.051851043   -2.9608292   0.64195465   418189 
 2693000   0.61549985   -2.9604832   -2.9604832    -2.318907  0.039864805   -2.9604832   0.64157612   418189 
 2694000   0.61413653   -2.9592685   -2.9592685   -2.3191135  0.023561958   -2.9592685   0.64015504   418189 
 2695000   0.61476599   -2.9603171   -2.9603171   -2.3195059  0.036763943   -2.9603171   0.64081117   418189 
 2696000    0.6159548   -2.9614404   -2.9614404     -2.31939  0.034216545   -2.9614404   0.64205035   418189 
 2697000    0.6158561   -2.9607774   -2.9607774   -2.3188299  0.039774182   -2.9607774   0.64194747   418189 
 2698000   0.61491941   -2.9601689   -2.9601689   -2.3191978  0.042068162   -2.9601689   0.64097109   418189 
 2699000   0.61416888   -2.9595555   -2.9595555   -2.3193667  0.034446603   -2.9595555   0.64018876   418189 
 2700000   0.61387726   -2.9590599   -2.9590599   -2.3191752  0.033451723   -2.9590599   0.63988479   418189 
 2701000   0.61349359   -2.9591418   -2.9591418    -2.319657  0.037703285   -2.9591418   0.63948487   418189 
 2702000   0.61326148   -2.9582981   -2.9582981   -2.3190552  0.022009209   -2.9582981   0.63924292   418189 
 2703000   0.61264753   -2.9573211   -2.9573211   -2.3187181   0.03910705   -2.9573211   0.63860296   418189 
 2704000   0.61504145   -2.9601593   -2.9601593    -2.319061  0.035712625   -2.9601593    0.6410983   418189 
 2705000   0.61364065   -2.9589691   -2.9589691    -2.319331  0.037093259   -2.9589691   0.63963815   418189 
 2706000   0.61379943   -2.9584289   -2.9584289   -2.3186253  0.035536552   -2.9584289   0.63980366   418189 
 2707000   0.61476023   -2.9591533   -2.9591533   -2.3183482    0.0365016   -2.9591533   0.64080517   418189 
 2708000   0.61435399   -2.9582317   -2.9582317   -2.3178499  0.039871034   -2.9582317   0.64038172   418189 
 2709000   0.61521058   -2.9591949   -2.9591949   -2.3179203  0.032970263   -2.9591949    0.6412746   418189 
 2710000   0.61530335   -2.9592466   -2.9592466   -2.3178753  0.030461781   -2.9592466    0.6413713   418189 
 2711000    0.6152092   -2.9597814   -2.9597814   -2.3185083  0.029899126   -2.9597814   0.64127316   418189 
 2712000   0.61476896   -2.9597877   -2.9597877   -2.3189734  0.034355732   -2.9597877   0.64081427   418189 
 2713000   0.61471791   -2.9589969   -2.9589969   -2.3182358  0.045857129   -2.9589969   0.64076106   418189 
 2714000   0.61518617   -2.9598489   -2.9598489   -2.3185997  0.039264816   -2.9598489   0.64124915   418189 
 2715000   0.61363853   -2.9585038   -2.9585038   -2.3188678  0.034105378   -2.9585038   0.63963594   418189 
 2716000   0.61345997   -2.9588637   -2.9588637   -2.3194139  0.049338157   -2.9588637   0.63944982   418189 
 2717000   0.61376946   -2.9592079   -2.9592079   -2.3194355  0.035431542   -2.9592079   0.63977242   418189 
 2718000   0.61446303   -2.9600228   -2.9600228   -2.3195274  0.035725374   -2.9600228   0.64049538   418189 
 2719000   0.61389821   -2.9586041   -2.9586041   -2.3186975  0.030861941   -2.9586041   0.63990663   418189 
 2720000   0.61466874   -2.9600396   -2.9600396   -2.3193298   0.04419751   -2.9600396   0.64070981   418189 
 2721000   0.61505146    -2.960621    -2.960621   -2.3195123  0.048487193    -2.960621   0.64110874   418189 
 2722000   0.61474297   -2.9600286   -2.9600286   -2.3192414  0.043023015   -2.9600286   0.64078717   418189 
 2723000   0.61446193   -2.9603516   -2.9603516   -2.3198574  0.032934797   -2.9603516   0.64049423   418189 
 2724000   0.61375801   -2.9594591   -2.9594591   -2.3196986  0.034912512   -2.9594591   0.63976049   418189 
 2725000   0.61328637   -2.9596024   -2.9596024   -2.3203335  0.038296984   -2.9596024   0.63926887   418189 
 2726000   0.61523072   -2.9611637   -2.9611637   -2.3198682  0.046451813   -2.9611637   0.64129559   418189 
 2727000   0.61389227   -2.9595924   -2.9595924    -2.319692  0.040180788   -2.9595924   0.63990044   418189 
 2728000   0.61413236   -2.9601238   -2.9601238   -2.3199731  0.038372247   -2.9601238    0.6401507   418189 
 2729000   0.61352374   -2.9594686   -2.9594686   -2.3199523    0.0424613   -2.9594686    0.6395163   418189 
 2730000   0.61477948   -2.9606805   -2.9606805   -2.3198552  0.039981683   -2.9606805   0.64082523   418189 
 2731000   0.61315851   -2.9596044   -2.9596044   -2.3204688  0.039643213   -2.9596044   0.63913559   418189 
 2732000   0.61374067   -2.9602322   -2.9602322   -2.3204897   0.03900698   -2.9602322   0.63974242   418189 
 2733000   0.61296522   -2.9596425   -2.9596425   -2.3207084  0.036310135   -2.9596425   0.63893411   418189 
 2734000   0.61308346   -2.9597838   -2.9597838   -2.3207264  0.034952342   -2.9597838   0.63905737   418189 
 2735000    0.6133402   -2.9598476   -2.9598476   -2.3205226  0.034166342   -2.9598476   0.63932498   418189 
 2736000   0.61240323   -2.9601252   -2.9601252   -2.3217768  0.037389578   -2.9601252   0.63834831   418189 
 2737000   0.61361684   -2.9606641   -2.9606641   -2.3210508  0.030637216   -2.9606641   0.63961333   418189 
 2738000   0.61359761   -2.9616295   -2.9616295   -2.3220362  0.039453343   -2.9616295   0.63959329   418189 
 2739000   0.61295353   -2.9611744   -2.9611744   -2.3222525  0.041414766   -2.9611744   0.63892192   418189 
 2740000   0.61518466   -2.9632814   -2.9632814   -2.3220338  0.039408557   -2.9632814   0.64124758   418189 
 2741000   0.61285399   -2.9609684   -2.9609684   -2.3221502  0.044959125   -2.9609684   0.63881817   418189 
 2742000   0.61499986   -2.9633298   -2.9633298   -2.3222748  0.045526112   -2.9633298   0.64105495   418189 
 2743000   0.61252065   -2.9613437   -2.9613437    -2.322873  0.039750822   -2.9613437    0.6384707   418189 
 2744000   0.61427005   -2.9620493   -2.9620493   -2.3217551  0.033542374   -2.9620493   0.64029422   418189 
 2745000   0.61416741    -2.962265    -2.962265   -2.3220778  0.040621156    -2.962265   0.64018724   418189 
 2746000   0.61346213   -2.9617972   -2.9617972   -2.3223451  0.027489497   -2.9617972   0.63945208   418189 
 2747000   0.61406869   -2.9624615   -2.9624615   -2.3223772  0.027417921   -2.9624615   0.64008433   418189 
 2748000   0.61334511   -2.9620194   -2.9620194   -2.3226893  0.035594285   -2.9620194    0.6393301   418189 
 2749000   0.61327912   -2.9615726   -2.9615726   -2.3223112  0.037980957   -2.9615726   0.63926131   418189 
 2750000    0.6142093   -2.9632242   -2.9632242   -2.3229933  0.034843042   -2.9632242    0.6402309   418189 
 2751000   0.61417412    -2.962786    -2.962786   -2.3225918  0.040281861    -2.962786   0.64019422   418189 
 2752000   0.61337941   -2.9620595   -2.9620595   -2.3226937  0.033080113   -2.9620595   0.63936585   418189 
 2753000   0.61417005   -2.9623234   -2.9623234   -2.3221335  0.029511578   -2.9623234   0.64018998   418189 
 2754000   0.61446126   -2.9625633   -2.9625633   -2.3220698  0.039460618   -2.9625633   0.64049353   418189 
 2755000   0.61507285   -2.9634309   -2.9634309   -2.3222998  0.030532846   -2.9634309   0.64113104   418189 
 2756000   0.61192137    -2.960643    -2.960643    -2.322797  0.038970057    -2.960643   0.63784604   418189 
 2757000   0.61547919   -2.9639556   -2.9639556    -2.322401  0.039472023   -2.9639556   0.64155458   418189 
 2758000   0.61348414   -2.9627442   -2.9627442   -2.3232692  0.030627056   -2.9627442   0.63947502   418189 
 2759000   0.61323133   -2.9619539   -2.9619539   -2.3227424  0.030664373   -2.9619539   0.63921149   418189 
 2760000   0.61485458   -2.9629229   -2.9629229   -2.3220194  0.035028925   -2.9629229   0.64090351   418189 
 2761000   0.61448849   -2.9632967   -2.9632967   -2.3227748  0.027661394   -2.9632967   0.64052191   418189 
 2762000   0.61329899   -2.9621282   -2.9621282   -2.3228462  0.043196126   -2.9621282   0.63928202   418189 
 2763000   0.61422106   -2.9631484   -2.9631484   -2.3229053  0.051297073   -2.9631484   0.64024316   418189 
 2764000   0.61441034   -2.9638786   -2.9638786   -2.3234381  0.035448436   -2.9638786   0.64044046   418189 
 2765000   0.61440927   -2.9645934   -2.9645934    -2.324154  0.032392676   -2.9645934   0.64043934   418189 
 2766000   0.61376295   -2.9631512   -2.9631512   -2.3233856  0.033625327   -2.9631512   0.63976564   418189 
 2767000   0.61396177   -2.9640681   -2.9640681   -2.3240952  0.045366046   -2.9640681   0.63997288   418189 
 2768000   0.61278763   -2.9631887   -2.9631887   -2.3244397   0.03753443   -2.9631887     0.638749   418189 
 2769000    0.6128367    -2.962742    -2.962742   -2.3239418  0.036912919    -2.962742   0.63880015   418189 
 2770000   0.61367765   -2.9637225   -2.9637225   -2.3240458  0.031102645   -2.9637225   0.63967672   418189 
 2771000   0.61184976   -2.9625252   -2.9625252   -2.3247538  0.032147614   -2.9625252   0.63777139   418189 
 2772000   0.61304116   -2.9630222   -2.9630222   -2.3240089  0.032615925   -2.9630222   0.63901327   418189 
 2773000   0.61368935    -2.963698    -2.963698   -2.3240091  0.036246288    -2.963698   0.63968892   418189 
 2774000   0.61500212   -2.9650931   -2.9650931   -2.3240358  0.034524675   -2.9650931   0.64105731   418189 
 2775000   0.61314016   -2.9635759   -2.9635759   -2.3244595  0.031201681   -2.9635759   0.63911646   418189 
 2776000    0.6128984   -2.9631232   -2.9631232   -2.3242587  0.044080051   -2.9631232   0.63886446   418189 
 2777000   0.61388991    -2.964019    -2.964019    -2.324121   0.03438774    -2.964019   0.63989798   418189 
 2778000   0.61473849   -2.9648175   -2.9648175    -2.324035   0.04333683   -2.9648175   0.64078251   418189 
 2779000   0.61484158   -2.9651333   -2.9651333   -2.3242433  0.034658456   -2.9651333   0.64088997   418189 
 2780000   0.61329106   -2.9637737   -2.9637737      -2.3245  0.033710337   -2.9637737   0.63927375   418189 
 2781000   0.61379091    -2.964994    -2.964994   -2.3251993  0.039571894    -2.964994   0.63979478   418189 
 2782000   0.61417681   -2.9652806   -2.9652806   -2.3250836  0.032502479   -2.9652806   0.64019703   418189 
 2783000   0.61374098   -2.9650641   -2.9650641   -2.3253214  0.041059683   -2.9650641   0.63974273   418189 
 2784000   0.61375642   -2.9658774   -2.9658774   -2.3261186  0.037130813   -2.9658774   0.63975884   418189 
 2785000   0.61336846    -2.964567    -2.964567   -2.3252126  0.039771839    -2.964567   0.63935443   418189 
 2786000    0.6141048    -2.965035    -2.965035    -2.324913   0.04456216    -2.965035   0.64012198   418189 
 2787000   0.61401624   -2.9651615   -2.9651615   -2.3251319  0.034434726   -2.9651615   0.64002966   418189 
 2788000   0.61345531   -2.9641247   -2.9641247   -2.3246797  0.027361926   -2.9641247   0.63944496   418189 
 2789000   0.61371011    -2.964789    -2.964789   -2.3250785  0.037139406    -2.964789   0.63971056   418189 
 2790000   0.61444372   -2.9656583   -2.9656583   -2.3251831  0.034433518   -2.9656583   0.64047525   418189 
 2791000   0.61256028    -2.963949    -2.963949   -2.3254369  0.036830307    -2.963949   0.63851201   418189 
 2792000   0.61413236   -2.9651902   -2.9651902   -2.3250395  0.026829364   -2.9651902    0.6401507   418189 
 2793000   0.61407728   -2.9657593   -2.9657593    -2.325666  0.039108304   -2.9657593   0.64009329   418189 
 2794000   0.61396707   -2.9657141   -2.9657141   -2.3257357  0.043727261   -2.9657141    0.6399784   418189 
 2795000    0.6129611   -2.9640597   -2.9640597   -2.3251299    0.0305856   -2.9640597   0.63892982   418189 
 2796000   0.61396426   -2.9653835   -2.9653835    -2.325408  0.040095562   -2.9653835   0.63997548   418189 
 2797000   0.61315775   -2.9648029   -2.9648029   -2.3256681  0.037458463   -2.9648029   0.63913479   418189 
 2798000   0.61264775   -2.9650107   -2.9650107   -2.3264075  0.027843772   -2.9650107   0.63860319   418189 
 2799000   0.61354761   -2.9657034   -2.9657034   -2.3261622   0.03251611   -2.9657034   0.63954117   418189 
 2800000   0.61317918   -2.9656752   -2.9656752    -2.326518  0.043061028   -2.9656752   0.63915713   418189 
 2801000   0.61266413     -2.96542     -2.96542   -2.3267997  0.039316503     -2.96542   0.63862027   418189 
 2802000    0.6133646   -2.9666982   -2.9666982   -2.3273477  0.039364518   -2.9666982   0.63935041   418189 
 2803000   0.61309422   -2.9660344   -2.9660344   -2.3269658  0.037199434   -2.9660344   0.63906857   418189 
 2804000   0.61064187   -2.9638502   -2.9638502   -2.3273379  0.038834488   -2.9638502   0.63651233   418189 
 2805000   0.61220577   -2.9649804   -2.9649804   -2.3268379  0.041058255   -2.9649804   0.63814249   418189 
 2806000   0.61299349   -2.9660324   -2.9660324   -2.3270688  0.035055129   -2.9660324   0.63896358   418189 
 2807000   0.61425394   -2.9682199   -2.9682199   -2.3279425  0.039648514   -2.9682199   0.64027743   418189 
 2808000   0.61346202   -2.9671227   -2.9671227   -2.3276707  0.039071541   -2.9671227   0.63945196   418189 
 2809000   0.61305265   -2.9665601   -2.9665601   -2.3275349  0.038303731   -2.9665601   0.63902525   418189 
 2810000   0.61302651   -2.9669763   -2.9669763   -2.3279783  0.041908455   -2.9669763   0.63899799   418189 
 2811000    0.6137293   -2.9679074   -2.9679074   -2.3281769  0.044951895   -2.9679074   0.63973056   418189 
 2812000   0.61377621   -2.9680249   -2.9680249   -2.3282455  0.043431824   -2.9680249   0.63977946   418189 
 2813000   0.61359791   -2.9676787   -2.9676787   -2.3280851  0.040270875   -2.9676787   0.63959361   418189 
 2814000   0.61384779   -2.9675595   -2.9675595   -2.3277054  0.041251058   -2.9675595   0.63985408   418189 
 2815000   0.61340278   -2.9674973   -2.9674973   -2.3281071  0.040600125   -2.9674973   0.63939021   418189 
 2816000    0.6128025   -2.9670435   -2.9670435    -2.328279  0.043588198   -2.9670435    0.6387645   418189 
 2817000   0.61240228   -2.9655523   -2.9655523    -2.327205  0.051764273   -2.9655523   0.63834732   418189 
 2818000   0.61276096   -2.9657002   -2.9657002    -2.326979  0.040988286   -2.9657002    0.6387212   418189 
 2819000   0.61424793   -2.9671187   -2.9671187   -2.3268475  0.041586489   -2.9671187   0.64027117   418189 
 2820000   0.61360735   -2.9665733   -2.9665733   -2.3269698  0.038905274   -2.9665733   0.63960345   418189 
 2821000   0.61392088   -2.9668778   -2.9668778   -2.3269476  0.045206636   -2.9668778   0.63993026   418189 
 2822000     0.613082   -2.9665205   -2.9665205   -2.3274647  0.025589846   -2.9665205   0.63905584   418189 
 2823000   0.61276911   -2.9662169   -2.9662169   -2.3274872  0.034187212   -2.9662169    0.6387297   418189 
 2824000   0.61341887   -2.9664085   -2.9664085   -2.3270016  0.040412319   -2.9664085   0.63940698   418189 
 2825000   0.61487849   -2.9682807   -2.9682807   -2.3273522  0.046803978   -2.9682807   0.64092844   418189 
 2826000   0.61417157   -2.9676387   -2.9676387   -2.3274472  0.036009677   -2.9676387   0.64019157   418189 
 2827000   0.61390661    -2.967887    -2.967887   -2.3279716   0.04175852    -2.967887   0.63991538   418189 
 2828000   0.61226369    -2.966432    -2.966432   -2.3282291  0.031170301    -2.966432   0.63820286   418189 
 2829000   0.61314516   -2.9672129   -2.9672129   -2.3280913  0.043943703   -2.9672129   0.63912168   418189 
 2830000   0.61446675   -2.9683342   -2.9683342    -2.327835  0.037330088   -2.9683342   0.64049925   418189 
 2831000    0.6133043   -2.9675254   -2.9675254   -2.3282379   0.03229392   -2.9675254   0.63928756   418189 
 2832000   0.61235802   -2.9667608   -2.9667608   -2.3284596  0.029472965   -2.9667608   0.63830119   418189 
 2833000   0.61385232   -2.9680752   -2.9680752   -2.3282164   0.03150239   -2.9680752   0.63985879   418189 
 2834000   0.61196196   -2.9672794   -2.9672794   -2.3293911  0.033212368   -2.9672794   0.63788835   418189 
 2835000   0.61210591   -2.9668045   -2.9668045   -2.3287661  0.032912868   -2.9668045    0.6380384   418189 
 2836000   0.61312382   -2.9675145   -2.9675145   -2.3284151  0.039040227   -2.9675145   0.63909943   418189 
 2837000   0.61441761   -2.9691763   -2.9691763   -2.3287282  0.040978708   -2.9691763   0.64044803   418189 
 2838000   0.61266538     -2.96833     -2.96833   -2.3297084  0.039405901     -2.96833   0.63862157   418189 
 2839000   0.61281671   -2.9688217   -2.9688217   -2.3300424  0.039529664   -2.9688217   0.63877931   418189 
 2840000   0.61252514   -2.9682069   -2.9682069   -2.3297315  0.039872962   -2.9682069   0.63847538   418189 
 2841000   0.61330051   -2.9687852   -2.9687852   -2.3295016  0.050780656   -2.9687852    0.6392836   418189 
 2842000   0.61391324   -2.9692672   -2.9692672   -2.3293449  0.049083689   -2.9692672    0.6399223   418189 
 2843000   0.61364742   -2.9683194   -2.9683194   -2.3286742  0.035701843   -2.9683194   0.63964521   418189 
 2844000   0.61287985   -2.9669684   -2.9669684   -2.3281233  0.036227481   -2.9669684   0.63884512   418189 
 2845000   0.61288572   -2.9673497   -2.9673497   -2.3284985  0.036556612   -2.9673497   0.63885125   418189 
 2846000   0.61352927   -2.9679171   -2.9679171    -2.328395  0.036310924   -2.9679171   0.63952206   418189 
 2847000   0.61452821   -2.9689596   -2.9689596   -2.3283963  0.036408891   -2.9689596   0.64056332   418189 
 2848000   0.61282083   -2.9663925   -2.9663925   -2.3276089   0.04283537   -2.9663925   0.63878361   418189 
 2849000   0.61255377   -2.9669039   -2.9669039   -2.3283987  0.036133899   -2.9669039   0.63850523   418189 
 2850000   0.61242453   -2.9671961   -2.9671961   -2.3288256  0.044568199   -2.9671961   0.63837051   418189 
 2851000   0.61465264   -2.9687199   -2.9687199   -2.3280269  0.036123828   -2.9687199   0.64069302   418189 
 2852000    0.6133634   -2.9671625   -2.9671625   -2.3278134  0.040126845   -2.9671625   0.63934916   418189 
 2853000   0.61433435   -2.9675079   -2.9675079   -2.3271466  0.039202193   -2.9675079   0.64036125   418189 
 2854000   0.61354922   -2.9668601   -2.9668601   -2.3273173  0.044171906   -2.9668601   0.63954286   418189 
 2855000   0.61394201   -2.9668133   -2.9668133    -2.326861  0.035930876   -2.9668133   0.63995228   418189 
 2856000   0.61474963   -2.9667572   -2.9667572   -2.3259631  0.034982529   -2.9667572   0.64079412   418189 
 2857000   0.61410675   -2.9661463   -2.9661463   -2.3260223  0.040774777   -2.9661463   0.64012401   418189 
 2858000   0.61395331   -2.9658385   -2.9658385   -2.3258744  0.034393512   -2.9658385   0.63996407   418189 
 2859000   0.61438316   -2.9662501   -2.9662501    -2.325838  0.038869419   -2.9662501   0.64041212   418189 
 2860000   0.61369535   -2.9659653   -2.9659653   -2.3262701  0.031953146   -2.9659653   0.63969517   418189 
 2861000   0.61325735   -2.9656303   -2.9656303   -2.3263917  0.039742086   -2.9656303   0.63923861   418189 
 2862000   0.61329283   -2.9655095   -2.9655095   -2.3262339  0.033899146   -2.9655095    0.6392756   418189 
 2863000   0.61257889   -2.9651817   -2.9651817   -2.3266503  0.021383204   -2.9651817   0.63853142   418189 
 2864000   0.61431021   -2.9670676   -2.9670676   -2.3267315  0.034635992   -2.9670676   0.64033609   418189 
 2865000   0.61371171   -2.9667408   -2.9667408   -2.3270286  0.040266881   -2.9667408   0.63971223   418189 
 2866000    0.6124264   -2.9656915   -2.9656915   -2.3273191  0.042915683   -2.9656915   0.63837246   418189 
 2867000    0.6133159   -2.9671178   -2.9671178   -2.3278181   0.02845412   -2.9671178   0.63929964   418189 
 2868000    0.6134339    -2.968186    -2.968186   -2.3287633  0.040635336    -2.968186   0.63942265   418189 
 2869000    0.6135224   -2.9681732   -2.9681732   -2.3286583  0.038841464   -2.9681732    0.6395149   418189 
 2870000   0.61479665   -2.9687878   -2.9687878   -2.3279446  0.036147426   -2.9687878   0.64084313   418189 
 2871000   0.61367027   -2.9681237   -2.9681237   -2.3284547  0.037763832   -2.9681237   0.63966904   418189 
 2872000   0.61326728   -2.9680474   -2.9680474   -2.3287984  0.043920617   -2.9680474   0.63924897   418189 
 2873000     0.613742   -2.9685811   -2.9685811   -2.3288373  0.048644029   -2.9685811   0.63974381   418189 
 2874000   0.61409187   -2.9690171   -2.9690171   -2.3289086  0.043867526   -2.9690171   0.64010849   418189 
 2875000   0.61258863   -2.9680545   -2.9680545    -2.329513   0.03403805   -2.9680545   0.63854157   418189 
 2876000   0.61275414   -2.9680096   -2.9680096   -2.3292955  0.036982887   -2.9680096   0.63871409   418189 
 2877000   0.61213039   -2.9674418   -2.9674418   -2.3293779  0.039229259   -2.9674418   0.63806391   418189 
 2878000    0.6122464    -2.968037    -2.968037   -2.3298522  0.028369925    -2.968037   0.63818484   418189 
 2879000   0.61297969   -2.9678631   -2.9678631   -2.3289139  0.029816919   -2.9678631    0.6389492   418189 
 2880000   0.61218633   -2.9672584   -2.9672584   -2.3291362  0.037279453   -2.9672584   0.63812222   418189 
 2881000   0.61278783   -2.9676947   -2.9676947   -2.3289455  0.034968172   -2.9676947   0.63874921   418189 
 2882000    0.6116442   -2.9673722   -2.9673722    -2.329815  0.038196604   -2.9673722   0.63755712   418189 
 2883000   0.61272063   -2.9684217   -2.9684217   -2.3297425  0.037926014   -2.9684217   0.63867916   418189 
 2884000   0.61221312   -2.9676856   -2.9676856   -2.3295354  0.035945568   -2.9676856   0.63815015   418189 
 2885000   0.61363514    -2.969425    -2.969425   -2.3297926  0.032462575    -2.969425   0.63963241   418189 
 2886000   0.61359956   -2.9687736   -2.9687736   -2.3291783  0.038077151   -2.9687736   0.63959533   418189 
 2887000   0.61327358    -2.969558    -2.969558   -2.3303025  0.029357255    -2.969558   0.63925553   418189 
 2888000   0.61183214   -2.9680814   -2.9680814   -2.3303284  0.035067933   -2.9680814   0.63775303   418189 
 2889000   0.61293797   -2.9689524   -2.9689524   -2.3300467  0.034338206   -2.9689524   0.63890571   418189 
 2890000    0.6127027   -2.9683612   -2.9683612   -2.3297007  0.041658812   -2.9683612   0.63866047   418189 
 2891000   0.61325149   -2.9689234   -2.9689234   -2.3296909  0.034090505   -2.9689234   0.63923251   418189 
 2892000   0.61376898   -2.9690576   -2.9690576   -2.3292856  0.042180918   -2.9690576   0.63977193   418189 
 2893000   0.61433463   -2.9696941   -2.9696941   -2.3293325  0.034272331   -2.9696941   0.64036154   418189 
 2894000    0.6142486   -2.9699523   -2.9699523   -2.3296805  0.042468346   -2.9699523   0.64027187   418189 
 2895000   0.61356702   -2.9690195   -2.9690195   -2.3294581  0.037879998   -2.9690195   0.63956141   418189 
 2896000   0.61131567   -2.9671128   -2.9671128   -2.3298981  0.039812906   -2.9671128   0.63721467   418189 
 2897000   0.61283267   -2.9688043   -2.9688043   -2.3300084  0.046161357   -2.9688043   0.63879595   418189 
 2898000   0.61243225   -2.9676533   -2.9676533   -2.3292748  0.034658553   -2.9676533   0.63837856   418189 
 2899000   0.61243509   -2.9684613   -2.9684613   -2.3300797  0.031401301   -2.9684613   0.63838152   418189 
 2900000   0.61442846   -2.9696807   -2.9696807   -2.3292213  0.032535979   -2.9696807   0.64045934   418189 
 2901000   0.61371089   -2.9698361   -2.9698361   -2.3301247  0.037320593   -2.9698361   0.63971138   418189 
 2902000   0.61343496   -2.9688586   -2.9688586   -2.3294348  0.024171646   -2.9688586   0.63942376   418189 
 2903000   0.61396979   -2.9681714   -2.9681714   -2.3281902  0.037545704   -2.9681714   0.63998124   418189 
 2904000   0.61466992   -2.9690504   -2.9690504   -2.3283393  0.034967859   -2.9690504   0.64071104   418189 
 2905000   0.61268438   -2.9674798   -2.9674798   -2.3288385  0.040772857   -2.9674798   0.63864138   418189 
 2906000   0.61411855   -2.9687464   -2.9687464   -2.3286101  0.034033998   -2.9687464   0.64013631   418189 
 2907000   0.61372292   -2.9685907   -2.9685907   -2.3288668  0.050589005   -2.9685907   0.63972391   418189 
 2908000   0.61390117   -2.9684089   -2.9684089   -2.3284992  0.042076616   -2.9684089   0.63990972   418189 
 2909000   0.61432734   -2.9692564   -2.9692564   -2.3289024  0.049949393   -2.9692564   0.64035394   418189 
 2910000   0.61357645   -2.9679688   -2.9679688   -2.3283976   0.04102564   -2.9679688   0.63957124   418189 
 2911000   0.61400964   -2.9687634   -2.9687634   -2.3287406  0.044844914   -2.9687634   0.64002278   418189 
 2912000   0.61390945   -2.9683031   -2.9683031   -2.3283848  0.033581277   -2.9683031   0.63991834   418189 
 2913000   0.61286833   -2.9677303   -2.9677303   -2.3288972  0.037967614   -2.9677303   0.63883312   418189 
 2914000   0.61417066   -2.9690778   -2.9690778   -2.3288872  0.041454167   -2.9690778   0.64019062   418189 
 2915000   0.61368937   -2.9691284   -2.9691284   -2.3294395  0.039573268   -2.9691284   0.63968895   418189 
 2916000   0.61391204   -2.9699664   -2.9699664   -2.3300453  0.042404452   -2.9699664   0.63992104   418189 
 2917000   0.61358009   -2.9699969   -2.9699969   -2.3304219  0.040090861   -2.9699969   0.63957503   418189 
 2918000   0.61326195   -2.9698393   -2.9698393   -2.3305958   0.03182715   -2.9698393   0.63924341   418189 
 2919000   0.61382743   -2.9703259   -2.9703259    -2.330493  0.038137017   -2.9703259   0.63983285   418189 
 2920000   0.61343182   -2.9701307   -2.9701307   -2.3307102  0.041996285   -2.9701307   0.63942048   418189 
 2921000   0.61476608   -2.9723316   -2.9723316   -2.3315203  0.038081571   -2.9723316   0.64081126   418189 
 2922000   0.61325573   -2.9706388   -2.9706388   -2.3314018  0.032402467   -2.9706388   0.63923693   418189 
 2923000   0.61227481   -2.9701507   -2.9701507   -2.3319362  0.040305943   -2.9701507   0.63821445   418189 
 2924000   0.61247488   -2.9699388   -2.9699388   -2.3315158    0.0318527   -2.9699388     0.638423   418189 
 2925000   0.61452503   -2.9715878   -2.9715878   -2.3310278  0.031464957   -2.9715878      0.64056   418189 
 2926000   0.61244667    -2.969632    -2.969632   -2.3312384  0.047285635    -2.969632    0.6383936   418189 
 2927000   0.61381704   -2.9713702   -2.9713702   -2.3315482  0.042716218   -2.9713702   0.63982202   418189 
 2928000    0.6133535   -2.9709013   -2.9709013   -2.3315625  0.033277775   -2.9709013   0.63933884   418189 
 2929000   0.61445008   -2.9723349   -2.9723349   -2.3318531  0.038930109   -2.9723349   0.64048188   418189 
 2930000   0.61344817   -2.9715317   -2.9715317   -2.3320942  0.044201457   -2.9715317   0.63943752   418189 
 2931000   0.61326423   -2.9709309   -2.9709309   -2.3316851  0.040357261   -2.9709309   0.63924579   418189 
 2932000   0.61351489   -2.9715798   -2.9715798   -2.3320727  0.039574761   -2.9715798   0.63950707   418189 
 2933000   0.61430789   -2.9716276   -2.9716276    -2.331294  0.041906659   -2.9716276   0.64033367   418189 
 2934000   0.61335343   -2.9710235   -2.9710235   -2.3316847  0.032325034   -2.9710235   0.63933877   418189 
 2935000   0.61197248   -2.9696289   -2.9696289   -2.3317296  0.033223326   -2.9696289   0.63789932   418189 
 2936000   0.61352893   -2.9714912   -2.9714912   -2.3319695  0.026995664   -2.9714912   0.63952171   418189 
 2937000   0.61403177   -2.9718827   -2.9718827   -2.3318368  0.034239339   -2.9718827   0.64004585   418189 
 2938000   0.61314475   -2.9701239   -2.9701239   -2.3310027  0.033777099   -2.9701239   0.63912125   418189 
 2939000   0.61198916   -2.9693563   -2.9693563   -2.3314396   0.04538876   -2.9693563    0.6379167   418189 
 2940000   0.61259658   -2.9701654   -2.9701654   -2.3316155  0.027943999   -2.9701654   0.63854986   418189 
 2941000   0.61297262   -2.9703982   -2.9703982   -2.3314563  0.029372733   -2.9703982   0.63894183   418189 
 2942000    0.6135829   -2.9709928   -2.9709928   -2.3314148  0.032185652   -2.9709928   0.63957796   418189 
 2943000   0.61320628   -2.9716819   -2.9716819   -2.3324966  0.044366362   -2.9716819   0.63918538   418189 
 2944000   0.61260882   -2.9711706   -2.9711706    -2.332608  0.055828504   -2.9711706   0.63856261   418189 
 2945000   0.61353696    -2.971559    -2.971559    -2.332029  0.037332101    -2.971559   0.63953007   418189 
 2946000   0.61312248   -2.9709199   -2.9709199   -2.3318219  0.024538291   -2.9709199   0.63909803   418189 
 2947000   0.61307444   -2.9706495   -2.9706495   -2.3316015  0.036203808   -2.9706495   0.63904795   418189 
 2948000   0.61394653   -2.9720805   -2.9720805   -2.3321235  0.040246584   -2.9720805     0.639957   418189 
 2949000   0.61403779   -2.9724399   -2.9724399   -2.3323878  0.038889064   -2.9724399   0.64005212   418189 
 2950000    0.6128713   -2.9711393   -2.9711393   -2.3323031   0.03605142   -2.9711393   0.63883621   418189 
 2951000   0.61323814   -2.9716964   -2.9716964   -2.3324778  0.040631126   -2.9716964   0.63921859   418189 
 2952000   0.61266535   -2.9704827   -2.9704827   -2.3318612  0.041940417   -2.9704827   0.63862154   418189 
 2953000   0.61356866   -2.9715569   -2.9715569   -2.3319938  0.032767244   -2.9715569   0.63956312   418189 
 2954000   0.61354875    -2.971569    -2.971569   -2.3320266  0.042239284    -2.971569   0.63954236   418189 
 2955000   0.61240131   -2.9710774   -2.9710774    -2.332731    0.0374465   -2.9710774   0.63834632   418189 
 2956000   0.61236422   -2.9719026   -2.9719026   -2.3335949  0.040743578   -2.9719026   0.63830764   418189 
 2957000     0.612447   -2.9722995   -2.9722995   -2.3339056  0.036175581   -2.9722995   0.63839393   418189 
 2958000   0.61322879    -2.972655    -2.972655   -2.3334461   0.04639708    -2.972655   0.63920885   418189 
 2959000   0.61395433   -2.9732026   -2.9732026   -2.3332375  0.041463934   -2.9732026   0.63996513   418189 
 2960000      0.61508    -2.973896    -2.973896   -2.3327575  0.044182857    -2.973896   0.64113848   418189 
 2961000    0.6136641   -2.9723729   -2.9723729   -2.3327103  0.035645198   -2.9723729    0.6396626   418189 
 2962000   0.61364454   -2.9728801   -2.9728801   -2.3332379  0.046573587   -2.9728801   0.63964221   418189 
 2963000    0.6139055    -2.972947    -2.972947   -2.3330327  0.045862056    -2.972947   0.63991423   418189 
 2964000   0.61425633   -2.9732174   -2.9732174   -2.3329375  0.034398544   -2.9732174   0.64027992   418189 
 2965000   0.61339722   -2.9720857   -2.9720857   -2.3327013  0.036374717   -2.9720857   0.63938441   418189 
 2966000   0.61333337   -2.9717496   -2.9717496   -2.3324317  0.037355324   -2.9717496   0.63931786   418189 
 2967000   0.61331893   -2.9715905   -2.9715905   -2.3322877  0.035826396   -2.9715905    0.6393028   418189 
 2968000   0.61343095   -2.9720971   -2.9720971   -2.3326775  0.026185069   -2.9720971   0.63941957   418189 
 2969000    0.6133231    -2.971922    -2.971922   -2.3326149  0.030246409    -2.971922   0.63930715   418189 
 2970000   0.61233414   -2.9707457   -2.9707457   -2.3324694  0.043769124   -2.9707457   0.63827629   418189 
 2971000   0.61191324   -2.9713419   -2.9713419   -2.3335043  0.035600199   -2.9713419   0.63783757   418189 
 2972000   0.61343119   -2.9730679   -2.9730679   -2.3336481  0.034681047   -2.9730679   0.63941983   418189 
 2973000   0.61229899   -2.9720776   -2.9720776   -2.3338379  0.044171637   -2.9720776   0.63823965   418189 
 2974000   0.61391407   -2.9740874   -2.9740874   -2.3341642  0.041412107   -2.9740874   0.63992316   418189 
 2975000   0.61291358   -2.9733701   -2.9733701   -2.3344898  0.028565956   -2.9733701   0.63888029   418189 
 2976000   0.61357747   -2.9745483   -2.9745483    -2.334976  0.045958318   -2.9745483    0.6395723   418189 
 2977000    0.6128862   -2.9738783   -2.9738783   -2.3350265  0.038778121   -2.9738783   0.63885175   418189 
 2978000   0.61331361   -2.9745615   -2.9745615   -2.3352642  0.030778229   -2.9745615   0.63929726   418189 
 2979000   0.61193853    -2.973533    -2.973533   -2.3356691  0.032038651    -2.973533   0.63786393   418189 
 2980000   0.61185292   -2.9729619   -2.9729619   -2.3351872   0.02775391   -2.9729619   0.63777469   418189 
 2981000   0.61188794   -2.9722806   -2.9722806   -2.3344694  0.042945797   -2.9722806   0.63781119   418189 
 2982000    0.6128986   -2.9729076   -2.9729076    -2.334043   0.04660357   -2.9729076   0.63886467   418189 
 2983000   0.61342658    -2.973484    -2.973484    -2.334069  0.029004843    -2.973484   0.63941502   418189 
 2984000   0.61271749   -2.9723619   -2.9723619    -2.333686  0.049405396   -2.9723619   0.63867589   418189 
 2985000   0.61206206   -2.9729335   -2.9729335   -2.3349409  0.039358723   -2.9729335   0.63799269   418189 
 2986000   0.61186155   -2.9727069   -2.9727069   -2.3349233  0.040224031   -2.9727069   0.63778369   418189 
 2987000   0.61304357   -2.9738795   -2.9738795   -2.3348637  0.033102482   -2.9738795   0.63901579   418189 
 2988000   0.61375427   -2.9747067   -2.9747067   -2.3349501  0.038803274   -2.9747067   0.63975659   418189 
 2989000   0.61198928   -2.9725248   -2.9725248    -2.334608  0.035727554   -2.9725248   0.63791682   418189 
 2990000   0.61364929   -2.9746208   -2.9746208   -2.3349736  0.038114025   -2.9746208   0.63964716   418189 
 2991000    0.6130428   -2.9742835   -2.9742835   -2.3352685  0.034260827   -2.9742835   0.63901498   418189 
 2992000   0.61119495   -2.9723866   -2.9723866   -2.3352978  0.032460012   -2.9723866   0.63708884   418189 
 2993000   0.61219561   -2.9731628   -2.9731628   -2.3350309  0.039439031   -2.9731628    0.6381319   418189 
 2994000   0.61277741   -2.9740645   -2.9740645   -2.3353262  0.033427747   -2.9740645   0.63873834   418189 
 2995000   0.61260025   -2.9739291   -2.9739291   -2.3353754  0.040649347   -2.9739291   0.63855368   418189 
 2996000   0.61202658   -2.9735044   -2.9735044   -2.3355487   0.03584743   -2.9735044    0.6379557   418189 
 2997000   0.61197461   -2.9731965   -2.9731965    -2.335295  0.031806532   -2.9731965   0.63790153   418189 
 2998000   0.61332085   -2.9740745   -2.9740745   -2.3347697  0.048628254   -2.9740745   0.63930481   418189 
 2999000   0.61305998   -2.9741302   -2.9741302   -2.3350973   0.03834796   -2.9741302   0.63903289   418189 
 3000000   0.61283917    -2.973953    -2.973953   -2.3351502  0.040810435    -2.973953   0.63880272   418189 
 3001000   0.61236536   -2.9734095   -2.9734095   -2.3351007   0.05040313   -2.9734095   0.63830884   418189 
 3002000   0.61274927   -2.9733919   -2.9733919   -2.3346829  0.041189535   -2.9733919   0.63870901   418189 
 3003000   0.61230001   -2.9733594   -2.9733594   -2.3351187  0.034598471   -2.9733594   0.63824072   418189 
 3004000   0.61345128   -2.9749721   -2.9749721   -2.3355313  0.026783353   -2.9749721   0.63944077   418189 
 3005000   0.61241196   -2.9744114   -2.9744114    -2.336054   0.03570657   -2.9744114   0.63835741   418189 
 3006000   0.61319552   -2.9748137   -2.9748137   -2.3356395  0.031862053   -2.9748137   0.63917417   418189 
 3007000   0.61180333   -2.9732259   -2.9732259   -2.3355029  0.032302972   -2.9732259     0.637723   418189 
 3008000   0.61214646   -2.9741854   -2.9741854   -2.3361047  0.040988935   -2.9741854   0.63808067   418189 
 3009000   0.61406874   -2.9755968   -2.9755968   -2.3355124  0.038983362   -2.9755968   0.64008438   418189 
 3010000   0.61394611   -2.9755819   -2.9755819   -2.3356254   0.03458733   -2.9755819   0.63995656   418189 
 3011000   0.61340767   -2.9754044   -2.9754044   -2.3360091  0.039841146   -2.9754044    0.6393953   418189 
 3012000   0.61256818   -2.9740753   -2.9740753   -2.3355551  0.042009025   -2.9740753   0.63852025   418189 
 3013000   0.61235864    -2.974551    -2.974551   -2.3362492  0.042284177    -2.974551   0.63830184   418189 
 3014000   0.61305109   -2.9752811   -2.9752811   -2.3362575  0.037345988   -2.9752811   0.63902362   418189 
 3015000   0.61174307   -2.9744676   -2.9744676   -2.3368074   0.03668952   -2.9744676   0.63766018   418189 
 3016000   0.61225262   -2.9754176   -2.9754176   -2.3372262  0.036559259   -2.9754176   0.63819132   418189 
 3017000   0.61330253   -2.9765783   -2.9765783   -2.3372926  0.047072001   -2.9765783   0.63928571   418189 
 3018000   0.61306977   -2.9752882   -2.9752882   -2.3362451  0.045332966   -2.9752882    0.6390431   418189 
 3019000    0.6133069    -2.975355    -2.975355   -2.3360647  0.040953865    -2.975355   0.63929027   418189 
 3020000   0.61118477   -2.9740919   -2.9740919   -2.3370137  0.037292277   -2.9740919   0.63707823   418189 
 3021000   0.61278618   -2.9751392   -2.9751392   -2.3363917  0.037939466   -2.9751392   0.63874748   418189 
 3022000   0.61318279   -2.9761274   -2.9761274   -2.3369665    0.0364042   -2.9761274    0.6391609   418189 
 3023000   0.61311178   -2.9762108   -2.9762108    -2.337124  0.034162455   -2.9762108   0.63908688   418189 
 3024000   0.61255059   -2.9761944   -2.9761944   -2.3376925  0.049465749   -2.9761944   0.63850192   418189 
 3025000    0.6117986   -2.9749816   -2.9749816   -2.3372635  0.037079595   -2.9749816   0.63771807   418189 
 3026000   0.61335642   -2.9769201   -2.9769201   -2.3375782  0.046432732   -2.9769201   0.63934189   418189 
 3027000   0.61335132   -2.9765869   -2.9765869   -2.3372503   0.04303429   -2.9765869   0.63933657   418189 
 3028000   0.61283159   -2.9755555   -2.9755555   -2.3367607  0.040279862   -2.9755555   0.63879482   418189 
 3029000   0.61224559   -2.9748022   -2.9748022   -2.3366182  0.038181762   -2.9748022     0.638184   418189 
 3030000   0.61275578   -2.9752448   -2.9752448    -2.336529  0.042653813   -2.9752448    0.6387158   418189 
 3031000   0.61397017   -2.9768805   -2.9768805   -2.3368989  0.042727681   -2.9768805   0.63998164   418189 
 3032000   0.61256561   -2.9762477   -2.9762477   -2.3377302  0.037871971   -2.9762477   0.63851757   418189 
 3033000   0.61234632   -2.9757853   -2.9757853   -2.3374963  0.042475987   -2.9757853   0.63828899   418189 
 3034000    0.6131341   -2.9771024   -2.9771024   -2.3379922  0.029471662   -2.9771024   0.63911015   418189 
 3035000    0.6126934   -2.9755258   -2.9755258    -2.336875  0.032071826   -2.9755258   0.63865077   418189 
 3036000   0.61273739   -2.9757801   -2.9757801   -2.3370835  0.040403627   -2.9757801   0.63869663   418189 
 3037000   0.61191011   -2.9752183   -2.9752183    -2.337384  0.041852663   -2.9752183    0.6378343   418189 
 3038000   0.61121292   -2.9747224   -2.9747224   -2.3376148  0.039836299   -2.9747224   0.63710757   418189 
 3039000   0.61219354   -2.9761291   -2.9761291   -2.3379994   0.03275852   -2.9761291   0.63812974   418189 
 3040000   0.61278716   -2.9768842   -2.9768842   -2.3381357  0.038485043   -2.9768842    0.6387485   418189 
 3041000   0.61211561   -2.9765968   -2.9765968   -2.3385483  0.024261974   -2.9765968   0.63804851   418189 
 3042000   0.61271034   -2.9763654   -2.9763654    -2.337697   0.04905481   -2.9763654   0.63866843   418189 
 3043000   0.61309354   -2.9768507   -2.9768507   -2.3377829  0.040676948   -2.9768507   0.63906786   418189 
 3044000   0.61308434   -2.9772136   -2.9772136   -2.3381554  0.037090145   -2.9772136   0.63905828   418189 
 3045000   0.61244295   -2.9765485   -2.9765485   -2.3381588  0.043629506   -2.9765485   0.63838971   418189 
 3046000   0.61300902   -2.9768778   -2.9768778    -2.337898  0.041248964   -2.9768778   0.63897976   418189 
 3047000   0.61180449   -2.9757026   -2.9757026   -2.3379784  0.037640707   -2.9757026    0.6377242   418189 
 3048000   0.61171199    -2.975446    -2.975446   -2.3378182  0.042712857    -2.975446   0.63762778   418189 
 3049000    0.6131699   -2.9767474   -2.9767474   -2.3375999  0.034730751   -2.9767474   0.63914747   418189 
 3050000    0.6124853   -2.9754866   -2.9754866   -2.3370528  0.029264753   -2.9754866   0.63843386   418189 
 3051000   0.61385233   -2.9765609   -2.9765609   -2.3367021  0.024578453   -2.9765609    0.6398588   418189 
 3052000   0.61249008   -2.9766065   -2.9766065   -2.3381677  0.036354157   -2.9766065   0.63843884   418189 
 3053000   0.61273747   -2.9768897   -2.9768897    -2.338193  0.034217699   -2.9768897   0.63869671   418189 
 3054000   0.61304304   -2.9769359   -2.9769359   -2.3379207  0.031546912   -2.9769359   0.63901523   418189 
 3055000   0.61325233   -2.9769338   -2.9769338   -2.3377004  0.043087997   -2.9769338   0.63923338   418189 
 3056000   0.61185548   -2.9758606   -2.9758606   -2.3380833  0.034268205   -2.9758606   0.63777736   418189 
 3057000   0.61425672    -2.978047    -2.978047   -2.3377666  0.040026346    -2.978047   0.64028033   418189 
 3058000   0.61256437   -2.9763896   -2.9763896   -2.3378734  0.037932638   -2.9763896   0.63851628   418189 
 3059000   0.61340129   -2.9772711   -2.9772711   -2.3378825  0.033934095   -2.9772711   0.63938865   418189 
 3060000    0.6120093   -2.9766213   -2.9766213   -2.3386836  0.025445825   -2.9766213   0.63793769   418189 
 3061000   0.61164172   -2.9761194   -2.9761194   -2.3385648  0.028445652   -2.9761194   0.63755454   418189 
 3062000   0.61138297    -2.975998    -2.975998   -2.3387132  0.030390084    -2.975998   0.63728483   418189 
 3063000   0.61262023   -2.9775902   -2.9775902   -2.3390157  0.037221455   -2.9775902   0.63857451   418189 
 3064000   0.61216314   -2.9762246   -2.9762246   -2.3381266   0.03725308   -2.9762246   0.63809805   418189 
 3065000   0.61319545   -2.9768965   -2.9768965   -2.3377224  0.031653285   -2.9768965   0.63917409   418189 
 3066000   0.61460017   -2.9777254   -2.9777254   -2.3370871  0.045603319   -2.9777254   0.64063833   418189 
 3067000   0.61308682   -2.9770673   -2.9770673   -2.3380064  0.036783774   -2.9770673   0.63906087   418189 
 3068000   0.61331142   -2.9777249   -2.9777249   -2.3384299  0.023356661   -2.9777249   0.63929498   418189 
 3069000   0.61282133   -2.9771816   -2.9771816   -2.3383975  0.038195384   -2.9771816   0.63878413   418189 
 3070000   0.61374967    -2.978136    -2.978136   -2.3383842  0.035531708    -2.978136    0.6397518   418189 
 3071000   0.61372123   -2.9779477   -2.9779477   -2.3382256  0.041586505   -2.9779477   0.63972215   418189 
 3072000   0.61371834   -2.9777784   -2.9777784   -2.3380593  0.049396574   -2.9777784   0.63971914   418189 
 3073000   0.61483558   -2.9792506   -2.9792506   -2.3383669  0.042782245   -2.9792506   0.64088371   418189 
 3074000   0.61300393   -2.9783469   -2.9783469   -2.3393724  0.033832127   -2.9783469   0.63897446   418189 
 3075000   0.61373052   -2.9787848   -2.9787848    -2.339053  0.038278315   -2.9787848   0.63973183   418189 
 3076000   0.61361546   -2.9780531   -2.9780531   -2.3384412   0.04404691   -2.9780531    0.6396119   418189 
 3077000    0.6128443   -2.9777957   -2.9777957   -2.3389877  0.042542365   -2.9777957   0.63880807   418189 
 3078000   0.61331111   -2.9780173   -2.9780173   -2.3387227  0.032342721   -2.9780173   0.63929466   418189 
 3079000   0.61220786   -2.9767597   -2.9767597    -2.338615  0.042304211   -2.9767597   0.63814467   418189 
 3080000   0.61197224   -2.9764323   -2.9764323   -2.3385332  0.039039011   -2.9764323   0.63789907   418189 
 3081000   0.61228536   -2.9768637   -2.9768637   -2.3386382  0.042876785   -2.9768637   0.63822545   418189 
 3082000   0.61116259   -2.9762862   -2.9762862    -2.339231  0.033618521   -2.9762862   0.63705511   418189 
 3083000   0.61286256   -2.9783816   -2.9783816   -2.3395545  0.035626483   -2.9783816    0.6388271   418189 
 3084000   0.61197994   -2.9764131   -2.9764131    -2.338506  0.035534585   -2.9764131   0.63790709   418189 
 3085000   0.61322797   -2.9775274   -2.9775274   -2.3383194  0.043695794   -2.9775274     0.639208   418189 
 3086000   0.61244721   -2.9774308   -2.9774308   -2.3390366  0.028763321   -2.9774308   0.63839415   418189 
 3087000   0.61327326   -2.9779132   -2.9779132    -2.338658  0.032538517   -2.9779132    0.6392552   418189 
 3088000    0.6127151   -2.9770132   -2.9770132   -2.3383398  0.045747334   -2.9770132    0.6386734   418189 
 3089000   0.61298015   -2.9776227   -2.9776227    -2.338673  0.053594579   -2.9776227   0.63894967   418189 
 3090000   0.61260594   -2.9776748   -2.9776748   -2.3391152  0.032516983   -2.9776748   0.63855961   418189 
 3091000   0.61128568    -2.976727    -2.976727   -2.3395436  0.036540284    -2.976727   0.63718342   418189 
 3092000   0.61211054   -2.9779235   -2.9779235   -2.3398803   0.03697467   -2.9779235   0.63804322   418189 
 3093000   0.61257758    -2.977616    -2.977616   -2.3390859  0.032541345    -2.977616   0.63853005   418189 
 3094000   0.61270245   -2.9778208   -2.9778208   -2.3391606  0.036366222   -2.9778208    0.6386602   418189 
 3095000   0.61203407   -2.9769647   -2.9769647   -2.3390012  0.045996925   -2.9769647   0.63796352   418189 
 3096000   0.61284017    -2.977456    -2.977456   -2.3386522  0.027688405    -2.977456   0.63880376   418189 
 3097000   0.61166353   -2.9769639   -2.9769639   -2.3393866  0.032151429   -2.9769639   0.63757728   418189 
 3098000   0.61316377   -2.9779114   -2.9779114   -2.3387704  0.041504026   -2.9779114   0.63914107   418189 
 3099000   0.61311707   -2.9785337   -2.9785337   -2.3394413  0.032546793   -2.9785337   0.63909239   418189 
 3100000   0.61243775   -2.9779688   -2.9779688   -2.3395845  0.038839478   -2.9779688    0.6383843   418189 
 3101000   0.61041665   -2.9760856   -2.9760856    -2.339808  0.036681972   -2.9760856   0.63627757   418189 
 3102000   0.61233521   -2.9783354   -2.9783354    -2.340058  0.037272337   -2.9783354   0.63827741   418189 
 3103000    0.6110805   -2.9767037   -2.9767037   -2.3397341  0.040000206   -2.9767037   0.63696955   418189 
 3104000   0.61244148    -2.977892    -2.977892   -2.3395038  0.036351793    -2.977892   0.63838819   418189 
 3105000   0.61358903   -2.9792238   -2.9792238   -2.3396395  0.039144228   -2.9792238   0.63958435   418189 
 3106000   0.61092922   -2.9771387   -2.9771387   -2.3403269   0.03982448   -2.9771387   0.63681185   418189 
 3107000   0.61168816   -2.9785456   -2.9785456   -2.3409427  0.044289043   -2.9785456   0.63760295   418189 
 3108000   0.61176904   -2.9788218   -2.9788218   -2.3411345  0.044627584   -2.9788218   0.63768725   418189 
 3109000    0.6130136   -2.9799283   -2.9799283   -2.3409437  0.028215291   -2.9799283   0.63898455   418189 
 3110000   0.61223087   -2.9792319   -2.9792319   -2.3410633  0.031230243   -2.9792319   0.63816865   418189 
 3111000   0.61291855   -2.9795726   -2.9795726   -2.3406871  0.039948034   -2.9795726   0.63888547   418189 
 3112000   0.61219831   -2.9781847   -2.9781847     -2.34005  0.039621494   -2.9781847   0.63813471   418189 
 3113000   0.61255867   -2.9782956   -2.9782956   -2.3397852  0.035419663   -2.9782956   0.63851034   418189 
 3114000    0.6120154   -2.9772817   -2.9772817   -2.3393376  0.043001278   -2.9772817   0.63794405   418189 
 3115000   0.61131377   -2.9767508   -2.9767508   -2.3395381   0.04067199   -2.9767508   0.63721269   418189 
 3116000   0.61062835   -2.9767134   -2.9767134   -2.3402151  0.038441588   -2.9767134   0.63649824   418189 
 3117000   0.61175942   -2.9778807   -2.9778807   -2.3402035  0.037200448   -2.9778807   0.63767723   418189 
 3118000   0.61094613   -2.9772187   -2.9772187   -2.3403893  0.034031237   -2.9772187   0.63682948   418189 
 3119000   0.61213801   -2.9781785   -2.9781785   -2.3401066  0.037569729   -2.9781785   0.63807186   418189 
 3120000   0.61307821   -2.9798396   -2.9798396   -2.3407877  0.029004039   -2.9798396   0.63905189   418189 
 3121000   0.61150299   -2.9781018   -2.9781018   -2.3406919  0.037636605   -2.9781018   0.63740993   418189 
 3122000   0.61159075    -2.978097    -2.978097   -2.3405956  0.032874294    -2.978097   0.63750141   418189 
 3123000   0.61123899   -2.9780132   -2.9780132   -2.3408785  0.029724568   -2.9780132   0.63713475   418189 
 3124000   0.61216087   -2.9793067   -2.9793067    -2.341211  0.027275551   -2.9793067   0.63809568   418189 
 3125000   0.61322482   -2.9799314   -2.9799314   -2.3407267  0.021384761   -2.9799314   0.63920471   418189 
 3126000   0.61293493   -2.9797243   -2.9797243   -2.3408218  0.043212151   -2.9797243   0.63890253   418189 
 3127000    0.6126463   -2.9798968   -2.9798968   -2.3412951   0.03121464   -2.9798968   0.63860168   418189 
 3128000   0.61305325    -2.980161    -2.980161   -2.3411351  0.033545942    -2.980161   0.63902587   418189 
 3129000   0.61243676   -2.9790789   -2.9790789   -2.3406956  0.039763342   -2.9790789   0.63838327   418189 
 3130000   0.61298979    -2.980722    -2.980722   -2.3417623   0.04263912    -2.980722   0.63895972   418189 
 3131000   0.61219393   -2.9801667   -2.9801667   -2.3420365   0.04294868   -2.9801667   0.63813014   418189 
 3132000   0.61185455   -2.9797447   -2.9797447   -2.3419683   0.03064472   -2.9797447   0.63777639   418189 
 3133000   0.61152042   -2.9799826   -2.9799826   -2.3425545  0.043103942   -2.9799826    0.6374281   418189 
 3134000   0.61168558   -2.9801945   -2.9801945   -2.3425942  0.040422221   -2.9801945   0.63760026   418189 
 3135000   0.61193417    -2.980493    -2.980493   -2.3426336  0.034854207    -2.980493   0.63785938   418189 
 3136000     0.611864   -2.9802769   -2.9802769   -2.3424907  0.033899327   -2.9802769   0.63778623   418189 
 3137000   0.61152333   -2.9798075   -2.9798075   -2.3423764  0.034872067   -2.9798075   0.63743113   418189 
 3138000   0.61224723   -2.9810937   -2.9810937   -2.3429079  0.037008028   -2.9810937    0.6381857   418189 
 3139000    0.6110383   -2.9800515   -2.9800515    -2.343126   0.03368554   -2.9800515   0.63692556   418189 
 3140000   0.61214377   -2.9816053   -2.9816053   -2.3435274  0.043149025   -2.9816053   0.63807786   418189 
 3141000   0.61023436   -2.9792389   -2.9792389   -2.3431513  0.043451845   -2.9792389   0.63608756   418189 
 3142000   0.61034086   -2.9789606   -2.9789606    -2.342762  0.035965161   -2.9789606   0.63619857   418189 
 3143000   0.60989475   -2.9787996   -2.9787996    -2.343066  0.028620427   -2.9787996   0.63573355   418189 
 3144000   0.61045111   -2.9796012   -2.9796012   -2.3432877  0.041060833   -2.9796012   0.63631349   418189 
 3145000   0.61170932    -2.980232    -2.980232    -2.342607  0.040015585    -2.980232     0.637625   418189 
 3146000   0.61134823    -2.979664    -2.979664   -2.3424154  0.042921638    -2.979664   0.63724861   418189 
 3147000   0.61108057   -2.9794562   -2.9794562   -2.3424866    0.0372122   -2.9794562   0.63696962   418189 
 3148000   0.61028407   -2.9788517   -2.9788517   -2.3427123  0.041165658   -2.9788517   0.63613937   418189 
 3149000   0.61003774   -2.9786293   -2.9786293   -2.3427467  0.040498848   -2.9786293    0.6358826   418189 
 3150000   0.61077656   -2.9794002   -2.9794002   -2.3427475  0.038748634   -2.9794002   0.63665272   418189 
 3151000   0.61145142   -2.9803698   -2.9803698   -2.3430137  0.034677125   -2.9803698   0.63735618   418189 
 3152000   0.61188144   -2.9801526   -2.9801526   -2.3423482  0.042262724   -2.9801526   0.63780441   418189 
 3153000   0.61170725   -2.9803849   -2.9803849   -2.3427621  0.040563062   -2.9803849   0.63762284   418189 
 3154000   0.61096315   -2.9796562   -2.9796562    -2.342809  0.045824942   -2.9796562   0.63684722   418189 
 3155000   0.61042568   -2.9800354   -2.9800354   -2.3437484   0.04717744   -2.9800354   0.63628698   418189 
 3156000   0.61101068   -2.9806857   -2.9806857   -2.3437889  0.041847777   -2.9806857   0.63689677   418189 
 3157000   0.61120521    -2.980846    -2.980846   -2.3437464  0.044043222    -2.980846   0.63709953   418189 
 3158000   0.61078991   -2.9801571   -2.9801571   -2.3434904  0.031214903   -2.9801571   0.63666664   418189 
 3159000   0.61170891   -2.9801639   -2.9801639   -2.3425394  0.038065657   -2.9801639   0.63762458   418189 
 3160000   0.61202043   -2.9808051   -2.9808051   -2.3428558  0.053450366   -2.9808051   0.63794929   418189 
 3161000   0.61060093   -2.9800195   -2.9800195   -2.3435498  0.037176357   -2.9800195   0.63646966   418189 
 3162000   0.61026148   -2.9797001   -2.9797001   -2.3435843  0.031782984   -2.9797001   0.63611583   418189 
 3163000   0.61001882   -2.9794766   -2.9794766   -2.3436137  0.033551267   -2.9794766   0.63586288   418189 
 3164000    0.6104521   -2.9797506   -2.9797506   -2.3434361  0.042917581   -2.9797506   0.63631452   418189 
 3165000   0.60937369   -2.9786335   -2.9786335   -2.3434431  0.044193861   -2.9786335   0.63519042   418189 
 3166000    0.6118556   -2.9804786   -2.9804786   -2.3427011  0.032971448   -2.9804786   0.63777748   418189 
 3167000   0.61256615   -2.9818914   -2.9818914   -2.3433732  0.027110987   -2.9818914   0.63851814   418189 
 3168000   0.61089088   -2.9803481   -2.9803481   -2.3435762  0.035944542   -2.9803481   0.63677189   418189 
 3169000   0.61101369   -2.9802485   -2.9802485   -2.3433486  0.035929699   -2.9802485    0.6368999   418189 
 3170000   0.61201234    -2.980485    -2.980485   -2.3425442  0.042840933    -2.980485   0.63794087   418189 
 3171000    0.6111519   -2.9809327   -2.9809327   -2.3438888  0.040032344   -2.9809327   0.63704397   418189 
 3172000   0.61196168   -2.9813814   -2.9813814   -2.3434933  0.036108395   -2.9813814   0.63788805   418189 
 3173000   0.61221626   -2.9817489   -2.9817489   -2.3435955  0.040386939   -2.9817489   0.63815342   418189 
 3174000   0.61388092   -2.9827759   -2.9827759   -2.3428873  0.037367943   -2.9827759    0.6398886   418189 
 3175000    0.6117883   -2.9808739   -2.9808739   -2.3431666   0.05306138   -2.9808739   0.63770733   418189 
 3176000   0.61133394   -2.9813308   -2.9813308    -2.344097  0.029439838   -2.9813308   0.63723373   418189 
 3177000   0.60967947   -2.9797137   -2.9797137   -2.3442045  0.037286419   -2.9797137   0.63550915   418189 
 3178000   0.60945385   -2.9794044   -2.9794044   -2.3441304  0.029986713   -2.9794044   0.63527398   418189 
 3179000    0.6095757   -2.9788599   -2.9788599   -2.3434589  0.032504926   -2.9788599   0.63540099   418189 
 3180000   0.61050207   -2.9805074   -2.9805074   -2.3441408  0.046544926   -2.9805074   0.63636661   418189 
 3181000    0.6102604   -2.9802776   -2.9802776   -2.3441629  0.042364927   -2.9802776   0.63611469   418189 
 3182000   0.61088073   -2.9810064   -2.9810064   -2.3442451  0.036147877   -2.9810064   0.63676131   418189 
 3183000   0.61135557   -2.9811331   -2.9811331   -2.3438768  0.030322285   -2.9811331   0.63725627   418189 
 3184000   0.61165773   -2.9819659   -2.9819659   -2.3443946  0.035785247   -2.9819659   0.63757123   418189 
 3185000   0.61073792    -2.981523    -2.981523   -2.3449105  0.025889077    -2.981523   0.63661245   418189 
 3186000    0.6102361   -2.9813836   -2.9813836   -2.3452942  0.031450943   -2.9813836   0.63608937   418189 
 3187000   0.61150392   -2.9826385   -2.9826385   -2.3452276  0.035157121   -2.9826385    0.6374109   418189 
 3188000   0.61265494   -2.9834036   -2.9834036   -2.3447929  0.038378962   -2.9834036   0.63861068   418189 
 3189000   0.61197434   -2.9828445   -2.9828445   -2.3449433  0.045411309   -2.9828445   0.63790126   418189 
 3190000   0.61105857    -2.981898    -2.981898   -2.3449513  0.039398965    -2.981898   0.63694668   418189 
 3191000   0.61232409    -2.982809    -2.982809   -2.3445432  0.040013829    -2.982809   0.63826582   418189 
 3192000   0.61099904   -2.9811802   -2.9811802   -2.3442955  0.040277325   -2.9811802   0.63688464   418189 
 3193000   0.61052481   -2.9806793   -2.9806793   -2.3442889  0.044775084   -2.9806793   0.63639032   418189 
 3194000   0.61154493   -2.9823849   -2.9823849   -2.3449313  0.033998164   -2.9823849   0.63745365   418189 
 3195000   0.61196803   -2.9829707   -2.9829707    -2.345076  0.044232117   -2.9829707   0.63789468   418189 
 3196000   0.60995242   -2.9807222   -2.9807222   -2.3449285  0.033844744   -2.9807222   0.63579368   418189 
 3197000   0.61108981   -2.9814511   -2.9814511   -2.3444719  0.040305945   -2.9814511   0.63697925   418189 
 3198000   0.61013694   -2.9807265   -2.9807265   -2.3447405  0.033607466   -2.9807265   0.63598601   418189 
 3199000   0.61056386   -2.9822289   -2.9822289   -2.3457979  0.032319324   -2.9822289   0.63643101   418189 
 3200000   0.61121676   -2.9819799   -2.9819799   -2.3448684  0.035026317   -2.9819799   0.63711158   418189 
 3201000   0.61165703   -2.9827365   -2.9827365    -2.345166  0.031457524   -2.9827365   0.63757049   418189 
 3202000   0.61091869   -2.9821686   -2.9821686   -2.3453677  0.033178077   -2.9821686   0.63680088   418189 
 3203000   0.61249311   -2.9831395   -2.9831395   -2.3446975  0.047632807   -2.9831395     0.638442   418189 
 3204000   0.61160784   -2.9822499   -2.9822499   -2.3447307  0.020890909   -2.9822499   0.63751922   418189 
 3205000   0.61085818   -2.9819154   -2.9819154   -2.3451776  0.042633063   -2.9819154    0.6367378   418189 
 3206000   0.61168996   -2.9826989   -2.9826989    -2.345094  0.041048992   -2.9826989   0.63760482   418189 
 3207000   0.61115308   -2.9825026   -2.9825026   -2.3454574   0.03930445   -2.9825026    0.6370452   418189 
 3208000   0.61127163   -2.9825663   -2.9825663   -2.3453975  0.041515609   -2.9825663   0.63716877   418189 
 3209000    0.6111623   -2.9820809   -2.9820809   -2.3450261  0.036922011   -2.9820809   0.63705481   418189 
 3210000   0.61005272   -2.9809598   -2.9809598   -2.3450616  0.036523954   -2.9809598   0.63589822   418189 
 3211000   0.61087034   -2.9815377   -2.9815377   -2.3447872  0.029015945   -2.9815377   0.63675048   418189 
 3212000   0.61125971   -2.9821755   -2.9821755   -2.3450192  0.043439056   -2.9821755   0.63715634   418189 
 3213000   0.61035367   -2.9806921   -2.9806921   -2.3444802  0.045154586   -2.9806921   0.63621192   418189 
 3214000   0.61059903   -2.9824826   -2.9824826   -2.3460149  0.021956594   -2.9824826   0.63646767   418189 
 3215000   0.61056688    -2.982799    -2.982799   -2.3463648  0.037761442    -2.982799   0.63643416   418189 
 3216000   0.61099362   -2.9821721   -2.9821721   -2.3452931  0.042112507   -2.9821721   0.63687898   418189 
 3217000   0.61050198   -2.9822946   -2.9822946    -2.345928  0.031472023   -2.9822946   0.63636651   418189 
 3218000   0.60972527    -2.981565    -2.981565   -2.3460081  0.028101685    -2.981565   0.63555689   418189 
 3219000   0.61151018   -2.9831815   -2.9831815   -2.3457641  0.038383627   -2.9831815   0.63741743   418189 
 3220000   0.61126315   -2.9835613   -2.9835613   -2.3464013  0.043418563   -2.9835613   0.63715993   418189 
 3221000   0.60995692   -2.9823716   -2.9823716   -2.3465732  0.027478487   -2.9823716   0.63579836   418189 
 3222000   0.61143875    -2.983237    -2.983237    -2.345894  0.041602421    -2.983237   0.63734297   418189 
 3223000   0.60998943   -2.9811825   -2.9811825   -2.3453502  0.029267489   -2.9811825   0.63583225   418189 
 3224000   0.61002526   -2.9825294   -2.9825294   -2.3466598   0.03949902   -2.9825294    0.6358696   418189 
 3225000   0.61170376   -2.9838151   -2.9838151   -2.3461959   0.03566312   -2.9838151   0.63761921   418189 
 3226000   0.61029438   -2.9826821   -2.9826821    -2.346532   0.03364323   -2.9826821   0.63615012   418189 
 3227000   0.61081165   -2.9830869   -2.9830869   -2.3463976   0.04001601   -2.9830869    0.6366893   418189 
 3228000   0.60983929   -2.9821133   -2.9821133   -2.3464376  0.046598895   -2.9821133   0.63567575   418189 
 3229000   0.61008928   -2.9816656   -2.9816656   -2.3457293  0.037427636   -2.9816656   0.63593633   418189 
 3230000   0.61186339   -2.9831393   -2.9831393   -2.3453537   0.03624854   -2.9831393    0.6377856   418189 
 3231000   0.61214285   -2.9830567   -2.9830567   -2.3449798   0.02930995   -2.9830567    0.6380769   418189 
 3232000   0.61060959   -2.9817191   -2.9817191   -2.3452404  0.030157286   -2.9817191   0.63647868   418189 
 3233000   0.61163714   -2.9827204   -2.9827204   -2.3451706  0.035712063   -2.9827204   0.63754976   418189 
 3234000   0.61185552   -2.9831081   -2.9831081   -2.3453307  0.036766729   -2.9831081    0.6377774   418189 
 3235000   0.61233472   -2.9835473   -2.9835473   -2.3452704  0.038277239   -2.9835473    0.6382769   418189 
 3236000   0.61220305   -2.9837444   -2.9837444   -2.3456048  0.040801282   -2.9837444   0.63813965   418189 
 3237000   0.61076774   -2.9822408   -2.9822408   -2.3455973  0.041085788   -2.9822408   0.63664354   418189 
 3238000   0.61154546   -2.9830169   -2.9830169   -2.3455627  0.054279324   -2.9830169   0.63745421   418189 
 3239000   0.61246604   -2.9841042   -2.9841042   -2.3456904  0.039781029   -2.9841042   0.63841379   418189 
 3240000   0.61127085   -2.9836576   -2.9836576   -2.3464897  0.033422369   -2.9836576   0.63716795   418189 
 3241000   0.61058389   -2.9830591   -2.9830591   -2.3466072  0.033230984   -2.9830591    0.6364519   418189 
 3242000   0.61017328   -2.9823262   -2.9823262   -2.3463023  0.037041986   -2.9823262   0.63602389   418189 
 3243000   0.61039063   -2.9833097   -2.9833097   -2.3470592  0.033017779   -2.9833097   0.63625045   418189 
 3244000   0.60881324   -2.9807981   -2.9807981   -2.3461919  0.034070766   -2.9807981   0.63460622   418189 
 3245000   0.61067081   -2.9827478   -2.9827478   -2.3462053   0.03711288   -2.9827478    0.6365425   418189 
 3246000    0.6105094   -2.9826772   -2.9826772   -2.3463029  0.043023874   -2.9826772   0.63637425   418189 
 3247000   0.61121523   -2.9834279   -2.9834279   -2.3463179  0.037508473   -2.9834279   0.63710998   418189 
 3248000   0.61033371   -2.9832966   -2.9832966   -2.3471055  0.029808293   -2.9832966   0.63619112   418189 
 3249000   0.60962067   -2.9821098   -2.9821098    -2.346662  0.049412473   -2.9821098   0.63544786   418189 
 3250000   0.61138985   -2.9835198   -2.9835198   -2.3462278  0.038866156   -2.9835198     0.637292   418189 
 3251000   0.61151758   -2.9832592   -2.9832592    -2.345834  0.030746983   -2.9832592   0.63742514   418189 
 3252000   0.61071789   -2.9835163   -2.9835163   -2.3469248  0.033138624   -2.9835163   0.63659157   418189 
 3253000   0.61118981   -2.9833876   -2.9833876   -2.3463041  0.033189108   -2.9833876   0.63708348   418189 
 3254000   0.61192117    -2.984744    -2.984744   -2.3468982  0.038154412    -2.984744   0.63784583   418189 
 3255000   0.61106826   -2.9844321   -2.9844321   -2.3474754  0.026442839   -2.9844321   0.63695678   418189 
 3256000    0.6113108   -2.9849201   -2.9849201   -2.3477105  0.032768834   -2.9849201    0.6372096   418189 
 3257000    0.6106643   -2.9848761   -2.9848761   -2.3483403  0.032690213   -2.9848761   0.63653571   418189 
 3258000   0.61084577   -2.9850186   -2.9850186   -2.3482937  0.036854092   -2.9850186   0.63672486   418189 
 3259000   0.61028253   -2.9844753   -2.9844753   -2.3483375  0.041851542   -2.9844753   0.63613776   418189 
 3260000   0.61040524    -2.984527    -2.984527   -2.3482613  0.045570222    -2.984527   0.63626567   418189 
 3261000   0.61096018   -2.9850315   -2.9850315   -2.3481874  0.037440941   -2.9850315   0.63684413   418189 
 3262000   0.61063842    -2.984646    -2.984646   -2.3481373  0.042107775    -2.984646   0.63650874   418189 
 3263000   0.61102824   -2.9848317   -2.9848317   -2.3479166  0.036725566   -2.9848317   0.63691506   418189 
 3264000   0.61020884   -2.9837082   -2.9837082   -2.3476473  0.036864999   -2.9837082   0.63606096   418189 
 3265000   0.61068738   -2.9841632   -2.9841632   -2.3476034  0.038280267   -2.9841632   0.63655976   418189 
 3266000   0.61051451   -2.9836398   -2.9836398   -2.3472603   0.04626415   -2.9836398   0.63637957   418189 
 3267000   0.61018264   -2.9829126   -2.9829126   -2.3468789  0.041744818   -2.9829126   0.63603364   418189 
 3268000   0.61011795   -2.9834694   -2.9834694   -2.3475032  0.023649704   -2.9834694   0.63596621   418189 
 3269000   0.61149623   -2.9845297   -2.9845297   -2.3471268  0.036453571   -2.9845297   0.63740289   418189 
 3270000   0.61107914   -2.9835057   -2.9835057   -2.3465375    0.0347184   -2.9835057   0.63696813   418189 
 3271000   0.61091643   -2.9836517   -2.9836517   -2.3468532  0.040703617   -2.9836517   0.63679853   418189 
 3272000   0.61100487   -2.9837142   -2.9837142   -2.3468235  0.047972008   -2.9837142   0.63689071   418189 
 3273000   0.61173351   -2.9850754   -2.9850754   -2.3474252   0.03347761   -2.9850754   0.63765022   418189 
 3274000   0.61040403    -2.983837    -2.983837   -2.3475726  0.026209972    -2.983837   0.63626441   418189 
 3275000   0.61208836   -2.9853821   -2.9853821    -2.347362  0.039962252   -2.9853821    0.6380201   418189 
 3276000   0.61028727   -2.9836544   -2.9836544   -2.3475117  0.039991953   -2.9836544    0.6361427   418189 
 3277000   0.60990787   -2.9834888   -2.9834888   -2.3477416  0.044404894   -2.9834888   0.63574724   418189 
 3278000   0.61140198   -2.9852288   -2.9852288   -2.3479242  0.036905782   -2.9852288   0.63730465   418189 
 3279000   0.61159687   -2.9854623   -2.9854623   -2.3479545  0.044376506   -2.9854623   0.63750779   418189 
 3280000   0.61047391   -2.9839529   -2.9839529   -2.3476156  0.024340195   -2.9839529   0.63633725   418189 
 3281000   0.61137137     -2.98488     -2.98488   -2.3476073  0.047511285     -2.98488   0.63727273   418189 
 3282000   0.61139945   -2.9847232   -2.9847232   -2.3474212  0.036093737   -2.9847232     0.637302   418189 
 3283000   0.61068319   -2.9843671   -2.9843671   -2.3478117  0.027853197   -2.9843671    0.6365554   418189 
 3284000   0.61067093    -2.984121    -2.984121   -2.3475784  0.031440618    -2.984121   0.63654262   418189 
 3285000   0.61032562   -2.9834436   -2.9834436   -2.3472609  0.046229029   -2.9834436   0.63618269   418189 
 3286000   0.61071253   -2.9840584   -2.9840584   -2.3474724  0.035482407   -2.9840584   0.63658598   418189 
 3287000   0.60979131   -2.9833368   -2.9833368    -2.347711  0.038673994   -2.9833368   0.63562574   418189 
 3288000   0.61051813   -2.9836275   -2.9836275   -2.3472442  0.040176947   -2.9836275   0.63638335   418189 
 3289000   0.60861916    -2.982147    -2.982147   -2.3477431  0.036396688    -2.982147   0.63440393   418189 
 3290000   0.60966726   -2.9833694   -2.9833694    -2.347873  0.035047733   -2.9833694   0.63549643   418189 
 3291000   0.61080685   -2.9853532   -2.9853532   -2.3486689  0.030933773   -2.9853532    0.6366843   418189 
 3292000   0.60994438   -2.9845141   -2.9845141   -2.3487288  0.032138589   -2.9845141   0.63578529   418189 
 3293000    0.6104527   -2.9853396   -2.9853396   -2.3490245  0.027032897   -2.9853396   0.63631515   418189 
 3294000   0.60960125    -2.984674    -2.984674   -2.3492464  0.030639925    -2.984674   0.63542763   418189 
 3295000    0.6102476   -2.9849948   -2.9849948   -2.3488935  0.041728669   -2.9849948   0.63610136   418189 
 3296000   0.61034867      -2.9844      -2.9844   -2.3481933  0.046128783      -2.9844   0.63620671   418189 
 3297000   0.61041052   -2.9843032   -2.9843032    -2.348032  0.033856149   -2.9843032   0.63627118   418189 
 3298000   0.61149432   -2.9848206   -2.9848206   -2.3474197  0.036344376   -2.9848206   0.63740089   418189 
 3299000   0.61204583   -2.9851992   -2.9851992   -2.3472235  0.040248583   -2.9851992   0.63797577   418189 
 3300000   0.61240523   -2.9855354   -2.9855354    -2.347185  0.037310216   -2.9855354    0.6383504   418189 
 3301000   0.61074112    -2.983328    -2.983328   -2.3467123  0.032838923    -2.983328   0.63661578   418189 
 3302000   0.61086896   -2.9838047   -2.9838047   -2.3470556  0.033690246   -2.9838047   0.63674904   418189 
 3303000   0.60970368   -2.9825539   -2.9825539   -2.3470195  0.027284067   -2.9825539    0.6355344   418189 
 3304000   0.61086198    -2.983947    -2.983947   -2.3472052  0.035997213    -2.983947   0.63674177   418189 
 3305000   0.61115856   -2.9837553   -2.9837553   -2.3467044  0.032639604   -2.9837553   0.63705091   418189 
 3306000   0.61244657   -2.9846599   -2.9846599   -2.3462664   0.03388252   -2.9846599   0.63839348   418189 
 3307000   0.61096431   -2.9830559   -2.9830559   -2.3462075   0.04159627   -2.9830559   0.63684843   418189 
 3308000   0.61112702   -2.9836607   -2.9836607   -2.3466427  0.041432321   -2.9836607   0.63701804   418189 
 3309000   0.60974396   -2.9825882   -2.9825882   -2.3470118  0.037001155   -2.9825882   0.63557637   418189 
 3310000   0.61000622   -2.9835922   -2.9835922   -2.3477424  0.034147044   -2.9835922   0.63584975   418189 
 3311000   0.61007969    -2.984027    -2.984027   -2.3481007  0.033780373    -2.984027   0.63592633   418189 
 3312000   0.60998297   -2.9841637   -2.9841637   -2.3483382  0.027540466   -2.9841637   0.63582551   418189 
 3313000   0.61190753   -2.9863257   -2.9863257   -2.3484941  0.034443616   -2.9863257   0.63783161   418189 
 3314000   0.61112921   -2.9846129   -2.9846129   -2.3475926  0.040252141   -2.9846129   0.63702032   418189 
 3315000   0.61120053   -2.9848948   -2.9848948   -2.3478002  0.038925163   -2.9848948   0.63709466   418189 
 3316000   0.61034824   -2.9838693   -2.9838693   -2.3476631  0.038840643   -2.9838693   0.63620626   418189 
 3317000   0.60994872    -2.983494    -2.983494   -2.3477042  0.034752763    -2.983494   0.63578981   418189 
 3318000   0.60994216   -2.9840204   -2.9840204   -2.3482374   0.03991722   -2.9840204   0.63578298   418189 
 3319000   0.61042955    -2.984425    -2.984425    -2.348134  0.037027267    -2.984425   0.63629101   418189 
 3320000   0.61141372   -2.9857871   -2.9857871   -2.3484702  0.032440063   -2.9857871   0.63731688   418189 
 3321000   0.61033046    -2.985158    -2.985158   -2.3489703  0.032355829    -2.985158   0.63618773   418189 
 3322000   0.61214706   -2.9867479   -2.9867479   -2.3486666  0.031651275   -2.9867479   0.63808129   418189 
 3323000   0.61076782   -2.9853232   -2.9853232   -2.3486796  0.040813985   -2.9853232   0.63664362   418189 
 3324000   0.61163497   -2.9877214   -2.9877214   -2.3501739  0.034814079   -2.9877214    0.6375475   418189 
 3325000   0.61208165   -2.9885674   -2.9885674   -2.3505543  0.035689219   -2.9885674   0.63801311   418189 
 3326000   0.60931295   -2.9865794   -2.9865794   -2.3514523  0.037830481   -2.9865794   0.63512711   418189 
 3327000   0.60982103   -2.9861465   -2.9861465   -2.3504898  0.033492507   -2.9861465   0.63565671   418189 
 3328000   0.61026847   -2.9861867   -2.9861867   -2.3500636   0.04679979   -2.9861867   0.63612311   418189 
 3329000   0.61014407   -2.9856017   -2.9856017   -2.3496083  0.044600586   -2.9856017   0.63599344   418189 
 3330000   0.61128363   -2.9868884   -2.9868884   -2.3497071  0.029028268   -2.9868884   0.63718128   418189 
 3331000   0.61046594   -2.9854443   -2.9854443   -2.3491154  0.049613288   -2.9854443   0.63632895   418189 
 3332000   0.61147545   -2.9856576   -2.9856576   -2.3482764  0.045004469   -2.9856576   0.63738122   418189 
 3333000   0.61213746   -2.9857696   -2.9857696   -2.3476983  0.033598574   -2.9857696   0.63807128   418189 
 3334000   0.61012708   -2.9848149   -2.9848149   -2.3488392  0.029937373   -2.9848149   0.63597573   418189 
 3335000   0.61216478   -2.9859189   -2.9859189   -2.3478191  0.031375179   -2.9859189   0.63809976   418189 
 3336000   0.61025366   -2.9850988   -2.9850988   -2.3489911  0.037681282   -2.9850988   0.63610767   418189 
 3337000     0.610861   -2.9856535   -2.9856535   -2.3489128  0.036159026   -2.9856535   0.63674075   418189 
 3338000   0.61090342   -2.9849747   -2.9849747   -2.3481898  0.045882009   -2.9849747   0.63678496   418189 
 3339000   0.61174139    -2.985556    -2.985556   -2.3478975  0.033896207    -2.985556   0.63765843   418189 
 3340000   0.61105468   -2.9852935   -2.9852935   -2.3483509   0.03763103   -2.9852935   0.63694263   418189 
 3341000   0.61019516   -2.9854063   -2.9854063   -2.3493596  0.033903926   -2.9854063    0.6360467   418189 
 3342000   0.61044703   -2.9860487   -2.9860487   -2.3497395  0.045869202   -2.9860487   0.63630923   418189 
 3343000   0.60958918   -2.9854181   -2.9854181   -2.3500031  0.038305321   -2.9854181   0.63541504   418189 
 3344000   0.61006656   -2.9864298   -2.9864298   -2.3505172  0.037135629   -2.9864298   0.63591265   418189 
 3345000   0.60922367   -2.9857456   -2.9857456   -2.3507116    0.0262394   -2.9857456   0.63503405   418189 
 3346000   0.60934304   -2.9859646   -2.9859646   -2.3508062  0.032589469   -2.9859646   0.63515848   418189 
 3347000   0.61014995   -2.9862901   -2.9862901   -2.3502905  0.040109097   -2.9862901   0.63599957   418189 
 3348000   0.61069578   -2.9867707   -2.9867707   -2.3502022  0.034954602   -2.9867707   0.63656853   418189 
 3349000   0.61123637   -2.9876103   -2.9876103   -2.3504783  0.038777581   -2.9876103   0.63713202   418189 
 3350000   0.61122012    -2.987091    -2.987091   -2.3499759  0.042313502    -2.987091   0.63711508   418189 
 3351000   0.61141377   -2.9873798   -2.9873798   -2.3500629  0.049639048   -2.9873798   0.63731693   418189 
 3352000    0.6095284   -2.9863129   -2.9863129   -2.3509612  0.039128884   -2.9863129   0.63535169   418189 
 3353000   0.61015691   -2.9873516   -2.9873516   -2.3513447  0.024631366   -2.9873516   0.63600683   418189 
 3354000   0.60987267   -2.9875964   -2.9875964   -2.3518859  0.034514205   -2.9875964   0.63571054   418189 
 3355000   0.61015042   -2.9870799   -2.9870799   -2.3510799  0.033260486   -2.9870799   0.63600006   418189 
 3356000   0.61071752   -2.9880317   -2.9880317   -2.3514405  0.043075909   -2.9880317   0.63659118   418189 
 3357000   0.60979613    -2.987061    -2.987061   -2.3514302   0.03872489    -2.987061   0.63563076   418189 
 3358000   0.61118574   -2.9883438   -2.9883438   -2.3512645  0.030746904   -2.9883438   0.63707924   418189 
 3359000   0.61030278   -2.9867525   -2.9867525   -2.3505936  0.029656863   -2.9867525   0.63615888   418189 
 3360000   0.61082867   -2.9871461   -2.9871461    -2.350439  0.025036902   -2.9871461   0.63670704   418189 
 3361000   0.61048327   -2.9864565   -2.9864565   -2.3501095   0.02774639   -2.9864565   0.63634701   418189 
 3362000    0.6105731   -2.9870225   -2.9870225   -2.3505819  0.045565871   -2.9870225   0.63644064   418189 
 3363000   0.61054762   -2.9874317   -2.9874317   -2.3510177  0.033694496   -2.9874317   0.63641409   418189 
 3364000   0.61111275   -2.9874806   -2.9874806   -2.3504775  0.027469872   -2.9874806   0.63700316   418189 
 3365000   0.60945258   -2.9854755   -2.9854755   -2.3502028   0.03578053   -2.9854755   0.63527265   418189 
 3366000   0.60977427   -2.9861978   -2.9861978   -2.3505898  0.032123963   -2.9861978   0.63560798   418189 
 3367000   0.61033672   -2.9866695   -2.9866695   -2.3504752  0.025176179   -2.9866695   0.63619425   418189 
 3368000   0.60948675   -2.9855822   -2.9855822   -2.3502739  0.032601442   -2.9855822   0.63530827   418189 
 3369000   0.60931735   -2.9854048   -2.9854048   -2.3502731  0.026008786   -2.9854048    0.6351317   418189 
 3370000   0.60942067     -2.98534     -2.98534   -2.3501006  0.031376551     -2.98534   0.63523939   418189 
 3371000   0.60975353   -2.9856726   -2.9856726   -2.3500862  0.037824304   -2.9856726   0.63558635   418189 
 3372000   0.61104576    -2.986934    -2.986934   -2.3500007  0.026004684    -2.986934   0.63693334   418189 
 3373000   0.61120587   -2.9868646   -2.9868646   -2.3497644  0.031644597   -2.9868646   0.63710022   418189 
 3374000   0.61090082   -2.9871392   -2.9871392    -2.350357  0.041536613   -2.9871392   0.63678225   418189 
 3375000   0.61104118   -2.9876183   -2.9876183   -2.3506897  0.038275625   -2.9876183   0.63692856   418189 
 3376000   0.61087764   -2.9870334   -2.9870334   -2.3502753  0.040168862   -2.9870334   0.63675809   418189 
 3377000   0.61173541   -2.9877272   -2.9877272    -2.350075  0.033455119   -2.9877272    0.6376522   418189 
 3378000    0.6106472   -2.9872522   -2.9872522   -2.3507343  0.040195254   -2.9872522   0.63651788   418189 
 3379000   0.61191908    -2.987724    -2.987724   -2.3498803  0.030897655    -2.987724   0.63784365   418189 
 3380000   0.61202509   -2.9878337   -2.9878337   -2.3498795   0.03124425   -2.9878337   0.63795415   418189 
 3381000   0.61061804   -2.9861852   -2.9861852   -2.3496977   0.04427365   -2.9861852   0.63648749   418189 
 3382000   0.61107961   -2.9873652   -2.9873652   -2.3503966  0.033504356   -2.9873652   0.63696862   418189 
 3383000   0.61000594   -2.9865676   -2.9865676   -2.3507181   0.03690239   -2.9865676   0.63584946   418189 
 3384000   0.61086268   -2.9871535   -2.9871535    -2.350411  0.035768483   -2.9871535   0.63674249   418189 
 3385000   0.61021381   -2.9865114   -2.9865114   -2.3504453  0.036559463   -2.9865114   0.63606614   418189 
 3386000   0.61175249    -2.987871    -2.987871    -2.350201  0.030388903    -2.987871   0.63767001   418189 
 3387000   0.61104386   -2.9863981   -2.9863981   -2.3494668   0.03018216   -2.9863981   0.63693135   418189 
 3388000   0.61079096   -2.9871819   -2.9871819   -2.3505141  0.036753018   -2.9871819   0.63666773   418189 
 3389000   0.60948034   -2.9864333   -2.9864333   -2.3511318  0.044271853   -2.9864333    0.6353016   418189 
 3390000   0.61133915   -2.9881442   -2.9881442    -2.350905  0.023946765   -2.9881442   0.63723915   418189 
 3391000   0.61109737   -2.9872625   -2.9872625   -2.3502754  0.044369266   -2.9872625   0.63698712   418189 
 3392000   0.60995705   -2.9859244   -2.9859244   -2.3501259  0.039690406   -2.9859244    0.6357985   418189 
 3393000   0.61023649   -2.9860656   -2.9860656   -2.3499758  0.039970704   -2.9860656   0.63608978   418189 
 3394000   0.61070911   -2.9868844   -2.9868844    -2.350302  0.037596757   -2.9868844   0.63658242   418189 
 3395000    0.6093793   -2.9870217   -2.9870217   -2.3518254  0.031630088   -2.9870217   0.63519627   418189 
 3396000   0.61067083   -2.9875145   -2.9875145    -2.350972  0.035968241   -2.9875145   0.63654252   418189 
 3397000   0.60975818   -2.9871422   -2.9871422    -2.351551  0.038061459   -2.9871422    0.6355912   418189 
 3398000   0.60920368   -2.9866578   -2.9866578   -2.3516446   0.03986626   -2.9866578   0.63501321   418189 
 3399000   0.61163429   -2.9892381   -2.9892381   -2.3516913  0.044336598   -2.9892381    0.6375468   418189 
 3400000   0.61131091   -2.9891951   -2.9891951   -2.3519854  0.031324046   -2.9891951   0.63720971   418189 
 3401000   0.61005106   -2.9882504   -2.9882504   -2.3523539  0.037294169   -2.9882504   0.63589649   418189 
 3402000   0.60945726   -2.9874611   -2.9874611   -2.3521836  0.034949957   -2.9874611   0.63527754   418189 
 3403000   0.60953576   -2.9877597   -2.9877597   -2.3524004  0.038861268   -2.9877597   0.63535936   418189 
 3404000   0.60904436   -2.9871174   -2.9871174   -2.3522703  0.030658311   -2.9871174   0.63484714   418189 
 3405000   0.60949165   -2.9875411   -2.9875411   -2.3522277  0.034372172   -2.9875411   0.63531338   418189 
 3406000   0.61084304   -2.9886028   -2.9886028   -2.3518808  0.037759923   -2.9886028   0.63672202   418189 
 3407000   0.61044168   -2.9877894   -2.9877894   -2.3514857   0.03730329   -2.9877894   0.63630366   418189 
 3408000   0.61050601    -2.988083    -2.988083   -2.3517123  0.033017627    -2.988083   0.63637072   418189 
 3409000    0.6106217   -2.9884993   -2.9884993    -2.352008  0.034058206   -2.9884993   0.63649131   418189 
 3410000   0.60973123   -2.9879525   -2.9879525   -2.3523894  0.042189241   -2.9879525   0.63556311   418189 
 3411000   0.61017867   -2.9876736   -2.9876736   -2.3516441  0.039123038   -2.9876736    0.6360295   418189 
 3412000   0.61086005   -2.9888563   -2.9888563   -2.3521165  0.040337645   -2.9888563   0.63673975   418189 
 3413000   0.60972275   -2.9880765   -2.9880765   -2.3525222  0.038074191   -2.9880765   0.63555427   418189 
 3414000   0.61004055   -2.9882338   -2.9882338   -2.3523482  0.028312667   -2.9882338   0.63588553   418189 
 3415000   0.61060656   -2.9894218   -2.9894218   -2.3529463  0.031324355   -2.9894218   0.63647553   418189 
 3416000   0.61104726    -2.990133    -2.990133   -2.3531981  0.030328622    -2.990133   0.63693489   418189 
 3417000   0.60967465   -2.9893308   -2.9893308   -2.3538266  0.036366588   -2.9893308   0.63550413   418189 
 3418000   0.61037656   -2.9902961   -2.9902961   -2.3540603  0.037545704   -2.9902961   0.63623579   418189 
 3419000   0.61035589   -2.9898607   -2.9898607   -2.3536465  0.038066929   -2.9898607   0.63621423   418189 
 3420000   0.61043444   -2.9900951   -2.9900951    -2.353799   0.03785816   -2.9900951   0.63629611   418189 
 3421000    0.6097925   -2.9901053   -2.9901053   -2.3544784   0.03873801   -2.9901053   0.63562698   418189 
 3422000   0.60879059   -2.9894066   -2.9894066    -2.354824  0.036566016   -2.9894066   0.63458261   418189 
 3423000   0.60867376   -2.9889311   -2.9889311   -2.3544702  0.035131475   -2.9889311   0.63446084   418189 
 3424000    0.6105025   -2.9904964   -2.9904964   -2.3541293  0.037375822   -2.9904964   0.63636705   418189 
 3425000   0.61038278   -2.9902528   -2.9902528   -2.3540105  0.045492772   -2.9902528   0.63624226   418189 
 3426000   0.60915246   -2.9883117   -2.9883117   -2.3533519  0.034742999   -2.9883117   0.63495982   418189 
 3427000   0.60997075   -2.9894755   -2.9894755   -2.3536628  0.041632663   -2.9894755   0.63581278   418189 
 3428000   0.61148055   -2.9911623   -2.9911623   -2.3537758  0.045602084   -2.9911623   0.63738654   418189 
 3429000   0.61077978   -2.9905128   -2.9905128   -2.3538567  0.022792382   -2.9905128   0.63665609   418189 
 3430000   0.61097385   -2.9908545   -2.9908545   -2.3539961  0.038789419   -2.9908545   0.63685838   418189 
 3431000   0.61051743   -2.9894892   -2.9894892   -2.3531065  0.040015086   -2.9894892   0.63638262   418189 
 3432000    0.6110558   -2.9899038   -2.9899038     -2.35296  0.038626566   -2.9899038    0.6369438   418189 
 3433000   0.61221857    -2.991958    -2.991958   -2.3538022   0.04147216    -2.991958   0.63815583   418189 
 3434000   0.60876033   -2.9892222   -2.9892222   -2.3546712  0.035129698   -2.9892222   0.63455108   418189 
 3435000   0.61019982   -2.9901465   -2.9901465    -2.354095  0.042331128   -2.9901465   0.63605155   418189 
 3436000   0.61096848   -2.9907193   -2.9907193   -2.3538665  0.041145371   -2.9907193   0.63685278   418189 
 3437000   0.61111684   -2.9912816   -2.9912816   -2.3542741  0.044078286   -2.9912816   0.63700743   418189 
 3438000   0.61130769   -2.9910936   -2.9910936   -2.3538873  0.035582581   -2.9910936   0.63720636   418189 
 3439000   0.61112438   -2.9901551   -2.9901551   -2.3531398  0.042888814   -2.9901551   0.63701528   418189 
 3440000   0.60951202   -2.9893208   -2.9893208   -2.3539862   0.04659747   -2.9893208   0.63533461   418189 
 3441000   0.60952706   -2.9897078   -2.9897078   -2.3543575  0.039837382   -2.9897078   0.63535029   418189 
 3442000   0.61037473   -2.9912253   -2.9912253   -2.3549914  0.032038152   -2.9912253   0.63623387   418189 
 3443000   0.61019648   -2.9912158   -2.9912158   -2.3551677  0.033001713   -2.9912158   0.63604807   418189 
 3444000   0.61094418   -2.9919516   -2.9919516   -2.3551241  0.032998111   -2.9919516   0.63682745   418189 
 3445000   0.60931045   -2.9899318   -2.9899318   -2.3548073  0.040326462   -2.9899318    0.6351245   418189 
 3446000   0.61030071   -2.9909519   -2.9909519   -2.3547951  0.031304538   -2.9909519   0.63615671   418189 
 3447000   0.61063157   -2.9906619   -2.9906619   -2.3541603    0.0348274   -2.9906619   0.63650159   418189 
 3448000   0.61047374   -2.9910797   -2.9910797   -2.3547426  0.046611655   -2.9910797   0.63633708   418189 
 3449000   0.61091755   -2.9916755   -2.9916755   -2.3548759   0.02500931   -2.9916755   0.63679969   418189 
 3450000   0.60958018   -2.9907767   -2.9907767    -2.355371  0.030085567   -2.9907767   0.63540566   418189 
 3451000   0.61061261   -2.9910554   -2.9910554   -2.3545736  0.036816656   -2.9910554   0.63648183   418189 
 3452000   0.61025875   -2.9906418   -2.9906418   -2.3545289  0.026438561   -2.9906418   0.63611298   418189 
 3453000   0.61039876   -2.9901315   -2.9901315   -2.3538725  0.019462659   -2.9901315   0.63625892   418189 
 3454000   0.60925193   -2.9892722   -2.9892722   -2.3542087  0.028652945   -2.9892722   0.63506351   418189 
 3455000   0.61122754   -2.9912804   -2.9912804   -2.3541576  0.034700692   -2.9912804   0.63712282   418189 
 3456000   0.61094336   -2.9911354   -2.9911354   -2.3543088  0.029745512   -2.9911354   0.63682659   418189 
 3457000    0.6095947    -2.989793    -2.989793   -2.3543722  0.030075474    -2.989793    0.6354208   418189 
 3458000   0.61017147   -2.9906786   -2.9906786   -2.3546566  0.028235337   -2.9906786     0.636022   418189 
 3459000   0.61122002   -2.9913979   -2.9913979    -2.354283  0.040201544   -2.9913979   0.63711498   418189 
 3460000   0.61041339   -2.9900573   -2.9900573   -2.3537832  0.034970805   -2.9900573   0.63627417   418189 
 3461000   0.61087706   -2.9909343   -2.9909343   -2.3541768  0.036191756   -2.9909343   0.63675748   418189 
 3462000   0.61085568    -2.991259    -2.991259   -2.3545238  0.035371824    -2.991259    0.6367352   418189 
 3463000   0.61014037   -2.9907512   -2.9907512   -2.3547616  0.028466542   -2.9907512   0.63598958   418189 
 3464000   0.61051838   -2.9910697   -2.9910697   -2.3546861  0.039663513   -2.9910697   0.63638361   418189 
 3465000   0.61000154   -2.9912533   -2.9912533   -2.3554084  0.037407101   -2.9912533   0.63584487   418189 
 3466000   0.61013576   -2.9908507   -2.9908507    -2.354866  0.040512898   -2.9908507   0.63598478   418189 
 3467000    0.6102115   -2.9909137   -2.9909137     -2.35485  0.037084907   -2.9909137   0.63606373   418189 
 3468000   0.61002509   -2.9910407   -2.9910407   -2.3551713  0.028389666   -2.9910407   0.63586942   418189 
 3469000   0.60966381   -2.9915538   -2.9915538    -2.356061  0.031867523   -2.9915538   0.63549284   418189 
 3470000   0.61000619   -2.9916336   -2.9916336   -2.3557839   0.03571571   -2.9916336   0.63584972   418189 
 3471000   0.60910025    -2.989882    -2.989882   -2.3549766  0.028438186    -2.989882   0.63490539   418189 
 3472000   0.61083852   -2.9916883   -2.9916883    -2.354971  0.037182678   -2.9916883   0.63671731   418189 
 3473000    0.6103022   -2.9906601   -2.9906601   -2.3545018  0.040333852   -2.9906601   0.63615827   418189 
 3474000   0.61012151    -2.990374    -2.990374    -2.354404  0.034022742    -2.990374   0.63596993   418189 
 3475000   0.61065442   -2.9909607   -2.9909607   -2.3544353  0.039292168   -2.9909607   0.63652541   418189 
 3476000   0.60998839     -2.99024     -2.99024   -2.3544089  0.036038853     -2.99024   0.63583117   418189 
 3477000   0.61055345   -2.9906583   -2.9906583   -2.3542382  0.024027297   -2.9906583   0.63642016   418189 
 3478000   0.61006837   -2.9902499   -2.9902499   -2.3543354  0.029054822   -2.9902499   0.63591453   418189 
 3479000   0.60993748   -2.9904524   -2.9904524   -2.3546743  0.033533388   -2.9904524    0.6357781   418189 
 3480000   0.61023699   -2.9906983   -2.9906983    -2.354608  0.025745067   -2.9906983    0.6360903   418189 
 3481000   0.60954114   -2.9906922   -2.9906922   -2.3553272  0.033948265   -2.9906922   0.63536497   418189 
 3482000   0.60969907   -2.9900449   -2.9900449   -2.3545153  0.043887323   -2.9900449   0.63552959   418189 
 3483000    0.6109527   -2.9922501   -2.9922501   -2.3554138  0.036033506   -2.9922501   0.63683633   418189 
 3484000   0.61088347   -2.9915319   -2.9915319   -2.3547678   0.03351379   -2.9915319   0.63676416   418189 
 3485000    0.6107161   -2.9912943   -2.9912943   -2.3547046  0.040105978   -2.9912943   0.63658971   418189 
 3486000   0.61151215   -2.9920128   -2.9920128   -2.3545933  0.040674609   -2.9920128   0.63741948   418189 
 3487000     0.611381    -2.992411    -2.992411   -2.3551282  0.041600859    -2.992411   0.63728278   418189 
 3488000   0.60977571   -2.9899147   -2.9899147   -2.3543052   0.03883159   -2.9899147   0.63560948   418189 
 3489000   0.61057209   -2.9911083   -2.9911083   -2.3546687  0.033541633   -2.9911083    0.6364396   418189 
 3490000   0.60981389    -2.990034    -2.990034   -2.3543847  0.036615267    -2.990034   0.63564927   418189 
 3491000   0.61005123       -2.991       -2.991   -2.3551033  0.036015083       -2.991   0.63589666   418189 
 3492000   0.61051326   -2.9919414   -2.9919414   -2.3555632  0.040987125   -2.9919414   0.63637827   418189 
 3493000   0.60940725   -2.9906915   -2.9906915   -2.3554661  0.043730779   -2.9906915    0.6352254   418189 
 3494000   0.61232958   -2.9937586   -2.9937586    -2.355487  0.034126435   -2.9937586   0.63827154   418189 
 3495000   0.61041676    -2.992074    -2.992074   -2.3557963  0.028958374    -2.992074   0.63627768   418189 
 3496000   0.61062399   -2.9925568   -2.9925568   -2.3560631  0.028469178   -2.9925568    0.6364937   418189 
 3497000   0.60933865   -2.9905545   -2.9905545   -2.3554007  0.024537728   -2.9905545    0.6351539   418189 
 3498000   0.61074801   -2.9913894   -2.9913894   -2.3547664  0.046108015   -2.9913894   0.63662297   418189 
 3499000   0.61095937    -2.991394    -2.991394   -2.3545507   0.04452374    -2.991394   0.63684328   418189 
 3500000   0.61097706   -2.9915397   -2.9915397    -2.354678  0.043150577   -2.9915397   0.63686172   418189 
 3501000   0.61167244   -2.9930101   -2.9930101   -2.3554236   0.04296907   -2.9930101   0.63758657   418189 
 3502000   0.61071122   -2.9924146   -2.9924146     -2.35583  0.036942337   -2.9924146   0.63658462   418189 
 3503000   0.61017164   -2.9918473   -2.9918473   -2.3558251  0.036493152   -2.9918473   0.63602218   418189 
 3504000   0.61149624     -2.99285     -2.99285   -2.3554472  0.036967213     -2.99285   0.63740289   418189 
 3505000   0.61143855   -2.9935434   -2.9935434   -2.3562006  0.036795607   -2.9935434   0.63734276   418189 
 3506000   0.61071135   -2.9936495   -2.9936495   -2.3570648  0.035175083   -2.9936495   0.63658475   418189 
 3507000   0.61013545   -2.9930296   -2.9930296   -2.3570451  0.039024909   -2.9930296   0.63598445   418189 
 3508000   0.61090928   -2.9940113   -2.9940113   -2.3572203  0.039060376   -2.9940113   0.63679107   418189 
 3509000    0.6095086   -2.9933347   -2.9933347   -2.3580036  0.037261353   -2.9933347   0.63533104   418189 
 3510000   0.60968085   -2.9928974   -2.9928974   -2.3573868   0.03497265   -2.9928974    0.6355106   418189 
 3511000   0.60906789   -2.9929362   -2.9929362   -2.3580645  0.032461849   -2.9929362   0.63487167   418189 
 3512000   0.60912159   -2.9926729   -2.9926729   -2.3577453  0.034786178   -2.9926729   0.63492764   418189 
 3513000   0.60962478   -2.9931472   -2.9931472    -2.357695    0.0361996   -2.9931472   0.63545215   418189 
 3514000   0.60872511   -2.9919369   -2.9919369   -2.3574225  0.045296589   -2.9919369   0.63451437   418189 
 3515000   0.61057517   -2.9941082   -2.9941082   -2.3576654  0.034037965   -2.9941082    0.6364428   418189 
 3516000   0.60879193   -2.9918721   -2.9918721   -2.3572881  0.034913061   -2.9918721   0.63458401   418189 
 3517000   0.61067839   -2.9934599   -2.9934599   -2.3569095  0.031496294   -2.9934599    0.6365504   418189 
 3518000   0.61055956   -2.9935654   -2.9935654   -2.3571388  0.041593104   -2.9935654   0.63642654   418189 
 3519000   0.61025385    -2.993256    -2.993256   -2.3571481  0.035285745    -2.993256   0.63610787   418189 
 3520000   0.61013506   -2.9931407   -2.9931407   -2.3571566   0.03754184   -2.9931407   0.63598405   418189 
 3521000   0.60983566    -2.992589    -2.992589    -2.356917  0.039143349    -2.992589   0.63567197   418189 
 3522000   0.61018481   -2.9933193   -2.9933193   -2.3572834  0.041236775   -2.9933193   0.63603591   418189 
 3523000   0.61139314   -2.9945768   -2.9945768   -2.3572814  0.032474708   -2.9945768   0.63729543   418189 
 3524000   0.60901551   -2.9924641   -2.9924641    -2.357647  0.030318494   -2.9924641   0.63481707   418189 
 3525000   0.60993215   -2.9931672   -2.9931672   -2.3573946  0.038638877   -2.9931672   0.63577254   418189 
 3526000   0.60935153   -2.9920784   -2.9920784   -2.3569111  0.033427072   -2.9920784   0.63516733   418189 
 3527000   0.60998577   -2.9928388   -2.9928388   -2.3570103  0.038936827   -2.9928388   0.63582843   418189 
 3528000   0.60877182   -2.9922547   -2.9922547   -2.3576916  0.036246146   -2.9922547   0.63456305   418189 
 3529000   0.61023741   -2.9928644   -2.9928644   -2.3567736  0.033237049   -2.9928644   0.63609074   418189 
 3530000    0.6103504   -2.9923804   -2.9923804   -2.3561719  0.046967148   -2.9923804   0.63620851   418189 
 3531000   0.61028566   -2.9929433   -2.9929433   -2.3568023   0.03877693   -2.9929433   0.63614103   418189 
 3532000   0.61059269   -2.9927295   -2.9927295   -2.3562684  0.035019619   -2.9927295   0.63646107   418189 
 3533000   0.60965244   -2.9915618   -2.9915618   -2.3560809  0.044500834   -2.9915618   0.63548098   418189 
 3534000   0.60766291   -2.9895934   -2.9895934   -2.3561862  0.027925819   -2.9895934   0.63340717   418189 
 3535000   0.60977104   -2.9924906   -2.9924906    -2.356886  0.021355154   -2.9924906    0.6356046   418189 
 3536000   0.60935919   -2.9919508   -2.9919508   -2.3567755  0.039286996   -2.9919508    0.6351753   418189 
 3537000   0.60993735   -2.9922273   -2.9922273   -2.3564494  0.043401944   -2.9922273   0.63577796   418189 
 3538000   0.60981275   -2.9926912   -2.9926912   -2.3570432  0.039630046   -2.9926912   0.63564808   418189 
 3539000    0.6088698   -2.9915073   -2.9915073   -2.3568421  0.036937657   -2.9915073   0.63466518   418189 
 3540000   0.60983159   -2.9919159   -2.9919159   -2.3562482  0.046025135   -2.9919159   0.63566772   418189 
 3541000   0.61015047   -2.9914906   -2.9914906   -2.3554905  0.035257592   -2.9914906   0.63600011   418189 
 3542000   0.61183622    -2.992939    -2.992939   -2.3551817  0.038354294    -2.992939   0.63775728   418189 
 3543000   0.61097944      -2.9915      -2.9915   -2.3546358  0.032047595      -2.9915    0.6368642   418189 
 3544000   0.60971612   -2.9907841   -2.9907841   -2.3552368  0.041191705   -2.9907841   0.63554736   418189 
 3545000   0.61111433   -2.9927805   -2.9927805   -2.3557757  0.034813966   -2.9927805   0.63700481   418189 
 3546000   0.61044484   -2.9923017   -2.9923017   -2.3559948  0.026477386   -2.9923017   0.63630695   418189 
 3547000   0.60957446   -2.9914877   -2.9914877    -2.356088  0.039601813   -2.9914877    0.6353997   418189 
 3548000   0.60828057   -2.9904283   -2.9904283   -2.3563773  0.040535337   -2.9904283   0.63405099   418189 
 3549000    0.6090675   -2.9913818   -2.9913818   -2.3565106  0.035737798   -2.9913818   0.63487126   418189 
 3550000   0.60984452   -2.9930602   -2.9930602    -2.357379  0.032631334   -2.9930602    0.6356812   418189 
 3551000   0.60889312   -2.9916706   -2.9916706   -2.3569811  0.036236434   -2.9916706   0.63468949   418189 
 3552000   0.60989379   -2.9934171   -2.9934171   -2.3576846  0.024066507   -2.9934171   0.63573255   418189 
 3553000   0.60787384    -2.991392    -2.991392   -2.3577649  0.032843924    -2.991392   0.63362703   418189 
 3554000   0.61000881   -2.9932807   -2.9932807   -2.3574283  0.037334288   -2.9932807   0.63585245   418189 
 3555000   0.61036467    -2.993647    -2.993647   -2.3574236  0.033410275    -2.993647   0.63622339   418189 
 3556000   0.60954097   -2.9929443   -2.9929443   -2.3575796  0.036970015   -2.9929443   0.63536479   418189 
 3557000    0.6102189   -2.9941647   -2.9941647   -2.3580932  0.034711056   -2.9941647   0.63607144   418189 
 3558000   0.61050817   -2.9941203   -2.9941203   -2.3577473  0.033528681   -2.9941203   0.63637296   418189 
 3559000   0.61022267   -2.9935439   -2.9935439   -2.3574685  0.042452951   -2.9935439   0.63607537   418189 
 3560000   0.61074273   -2.9950423   -2.9950423   -2.3584248  0.036249682   -2.9950423   0.63661746   418189 
 3561000   0.60976403   -2.9939977   -2.9939977   -2.3584004  0.035875015   -2.9939977    0.6355973   418189 
 3562000   0.61117155   -2.9951579   -2.9951579   -2.3580935  0.036161103   -2.9951579   0.63706446   418189 
 3563000   0.60919797   -2.9940728   -2.9940728   -2.3590655  0.028545007   -2.9940728   0.63500726   418189 
 3564000   0.60858896   -2.9935474   -2.9935474    -2.359175  0.042127804   -2.9935474   0.63437245   418189 
 3565000   0.60856723   -2.9934103   -2.9934103   -2.3590605  0.032814546   -2.9934103    0.6343498   418189 
 3566000   0.61044271   -2.9948724   -2.9948724   -2.3585677  0.028770137   -2.9948724   0.63630473   418189 
 3567000   0.60920272   -2.9941851   -2.9941851   -2.3591729  0.041728705   -2.9941851   0.63501221   418189 
 3568000   0.60997092   -2.9952424   -2.9952424   -2.3594294  0.046235799   -2.9952424   0.63581295   418189 
 3569000   0.61026722   -2.9956675   -2.9956675   -2.3595457  0.039189591   -2.9956675   0.63612181   418189 
 3570000   0.60928086   -2.9943153   -2.9943153   -2.3592216  0.026736323   -2.9943153   0.63509366   418189 
 3571000   0.61039783   -2.9952217   -2.9952217   -2.3589637   0.04091074   -2.9952217   0.63625795   418189 
 3572000   0.61104875   -2.9957301   -2.9957301   -2.3587936  0.037831015   -2.9957301   0.63693644   418189 
 3573000   0.61148802   -2.9961183   -2.9961183   -2.3587239  0.039317923   -2.9961183   0.63739432   418189 
 3574000   0.61066537    -2.994915    -2.994915   -2.3583782  0.035555054    -2.994915   0.63653683   418189 
 3575000   0.61113001   -2.9950145   -2.9950145   -2.3579933  0.039316153   -2.9950145   0.63702115   418189 
 3576000   0.61169097   -2.9959057   -2.9959057   -2.3582999   0.04292096   -2.9959057   0.63760588   418189 
 3577000   0.61092926   -2.9949037   -2.9949037   -2.3580918  0.044637798   -2.9949037    0.6368119   418189 
 3578000   0.60965373   -2.9934953   -2.9934953    -2.358013  0.034870276   -2.9934953   0.63548232   418189 
 3579000   0.60938775   -2.9935703   -2.9935703   -2.3583652  0.030577715   -2.9935703   0.63520508   418189 
 3580000   0.60882124   -2.9934049   -2.9934049   -2.3587904  0.024691794   -2.9934049   0.63461457   418189 
 3581000   0.60991832   -2.9936915   -2.9936915   -2.3579333  0.029409363   -2.9936915   0.63575812   418189 
 3582000   0.60967281   -2.9934276   -2.9934276   -2.3579254  0.026952638   -2.9934276   0.63550222   418189 
 3583000   0.60866708   -2.9919305   -2.9919305   -2.3574766  0.027974651   -2.9919305   0.63445387   418189 
 3584000   0.60821231   -2.9921069   -2.9921069   -2.3581271  0.045285283   -2.9921069   0.63397984   418189 
 3585000   0.60864514   -2.9927819   -2.9927819   -2.3583509  0.034328547   -2.9927819   0.63443101   418189 
 3586000   0.61041604   -2.9952186   -2.9952186   -2.3589416  0.035964215   -2.9952186   0.63627694   418189 
 3587000   0.60984614   -2.9943346   -2.9943346   -2.3586517  0.036863093   -2.9943346   0.63568289   418189 
 3588000   0.60967006   -2.9940065   -2.9940065   -2.3585071  0.045214558   -2.9940065   0.63549935   418189 
 3589000     0.610792   -2.9943155   -2.9943155   -2.3576467  0.030628392   -2.9943155   0.63666882   418189 
 3590000   0.61105146   -2.9951215   -2.9951215   -2.3581822  0.049301665   -2.9951215   0.63693927   418189 
 3591000   0.61015102   -2.9949147   -2.9949147    -2.358914  0.050068459   -2.9949147   0.63600068   418189 
 3592000   0.60967578   -2.9943483   -2.9943483    -2.358843  0.032726573   -2.9943483   0.63550531   418189 
 3593000   0.61021036   -2.9952917   -2.9952917   -2.3592292  0.028952896   -2.9952917   0.63606254   418189 
 3594000    0.6106244   -2.9944028   -2.9944028   -2.3579087  0.030452214   -2.9944028   0.63649412   418189 
 3595000   0.61103159   -2.9952323   -2.9952323   -2.3583137  0.029708375   -2.9952323   0.63691856   418189 
 3596000   0.60946251   -2.9934296   -2.9934296   -2.3581466  0.043079966   -2.9934296     0.635283   418189 
 3597000   0.60897363   -2.9924585   -2.9924585   -2.3576851  0.032265119   -2.9924585   0.63477341   418189 
 3598000   0.61036256   -2.9945135   -2.9945135   -2.3582923  0.036708661   -2.9945135   0.63622119   418189 
 3599000   0.60821369    -2.993248    -2.993248   -2.3592667  0.033614482    -2.993248   0.63398128   418189 
 3600000   0.60960557   -2.9944898   -2.9944898   -2.3590576  0.044046269   -2.9944898   0.63543213   418189 
 3601000   0.60910906    -2.993766    -2.993766   -2.3588514   0.04289664    -2.993766   0.63491459   418189 
 3602000   0.60981749   -2.9946052   -2.9946052   -2.3589522  0.033145108   -2.9946052   0.63565303   418189 
 3603000   0.60918865   -2.9936269   -2.9936269   -2.3586293  0.041041481   -2.9936269   0.63499754   418189 
 3604000   0.60983109   -2.9943004   -2.9943004   -2.3586332  0.030491331   -2.9943004    0.6356672   418189 
 3605000   0.60919187   -2.9929253   -2.9929253   -2.3579244  0.043314735   -2.9929253    0.6350009   418189 
 3606000   0.61023535   -2.9951803   -2.9951803   -2.3590917  0.041102635   -2.9951803   0.63608859   418189 
 3607000   0.60999847   -2.9953158   -2.9953158   -2.3594741  0.034699792   -2.9953158   0.63584168   418189 
 3608000   0.60895805   -2.9945993   -2.9945993   -2.3598421  0.034760571   -2.9945993   0.63475717   418189 
 3609000   0.60885948   -2.9945087   -2.9945087   -2.3598543  0.037772386   -2.9945087   0.63465442   418189 
 3610000    0.6096437   -2.9957045   -2.9957045   -2.3602327  0.039249229   -2.9957045   0.63547187   418189 
 3611000   0.60927393   -2.9957744   -2.9957744    -2.360688  0.039298279   -2.9957744   0.63508644   418189 
 3612000   0.60958679   -2.9964074   -2.9964074   -2.3609948  0.039499594   -2.9964074   0.63541255   418189 
 3613000   0.60975355    -2.995884    -2.995884   -2.3602977  0.034784983    -2.995884   0.63558638   418189 
 3614000   0.61041727    -2.996532    -2.996532   -2.3602538  0.045179541    -2.996532   0.63627822   418189 
 3615000   0.60949639   -2.9950375   -2.9950375   -2.3597192  0.037279558   -2.9950375   0.63531833   418189 
 3616000   0.60958397   -2.9952014   -2.9952014   -2.3597918  0.039695518   -2.9952014   0.63540961   418189 
 3617000   0.60999736   -2.9956498   -2.9956498   -2.3598093  0.047428463   -2.9956498   0.63584051   418189 
 3618000    0.6096738   -2.9949233   -2.9949233   -2.3594201  0.040731531   -2.9949233   0.63550325   418189 
 3619000   0.60963643   -2.9949941   -2.9949941   -2.3595298  0.031313259   -2.9949941   0.63546429   418189 
 3620000   0.60973497   -2.9950813   -2.9950813   -2.3595143  0.027287727   -2.9950813   0.63556701   418189 
 3621000   0.61042026    -2.996107    -2.996107   -2.3598257  0.045225702    -2.996107   0.63628134   418189 
 3622000   0.61030256   -2.9949798   -2.9949798   -2.3588211  0.031402917   -2.9949798   0.63615864   418189 
 3623000   0.61046449   -2.9947974   -2.9947974     -2.35847  0.039978226   -2.9947974   0.63632743   418189 
 3624000   0.61122123   -2.9946365   -2.9946365   -2.3575202  0.033897235   -2.9946365   0.63711624   418189 
 3625000    0.6102911   -2.9942861   -2.9942861   -2.3581394  0.039229966   -2.9942861    0.6361467   418189 
 3626000   0.61084848   -2.9943959   -2.9943959   -2.3576682  0.033756496   -2.9943959    0.6367277   418189 
 3627000    0.6099288   -2.9938961   -2.9938961   -2.3581271  0.023580082   -2.9938961   0.63576905   418189 
 3628000   0.61089111   -2.9952515   -2.9952515   -2.3584794  0.030820241   -2.9952515   0.63677213   418189 
 3629000   0.61017413   -2.9949397   -2.9949397    -2.358915  0.037582935   -2.9949397   0.63602477   418189 
 3630000   0.61082747   -2.9962912   -2.9962912   -2.3595854  0.036327087   -2.9962912    0.6367058   418189 
 3631000   0.60802085   -2.9925866   -2.9925866   -2.3588063   0.02835851   -2.9925866   0.63378027   418189 
 3632000   0.60989941   -2.9939941   -2.9939941   -2.3582557  0.028156971   -2.9939941   0.63573842   418189 
 3633000   0.60948881    -2.993153    -2.993153   -2.3578426  0.031417461    -2.993153   0.63531042   418189 
 3634000   0.60898588   -2.9921555   -2.9921555   -2.3573693   0.03186856   -2.9921555   0.63478618   418189 
 3635000   0.61001776   -2.9934576   -2.9934576   -2.3575958  0.037469845   -2.9934576   0.63586178   418189 
 3636000   0.60933681   -2.9923716   -2.9923716   -2.3572196  0.035316384   -2.9923716   0.63515198   418189 
 3637000   0.61074232   -2.9936244   -2.9936244   -2.3570074  0.034489918   -2.9936244   0.63661703   418189 
 3638000   0.61060579    -2.993339    -2.993339   -2.3568643   0.04416645    -2.993339   0.63647472   418189 
 3639000   0.61103254   -2.9939227   -2.9939227   -2.3570032  0.039560216   -2.9939227   0.63691955   418189 
 3640000   0.60995196   -2.9937137   -2.9937137   -2.3579205  0.030553005   -2.9937137   0.63579319   418189 
 3641000   0.61070101   -2.9941043   -2.9941043   -2.3575303  0.047007782   -2.9941043   0.63657397   418189 
 3642000   0.61004152   -2.9937831   -2.9937831   -2.3578966  0.038068073   -2.9937831   0.63588655   418189 
 3643000   0.61049971   -2.9946464   -2.9946464   -2.3582823  0.037738839   -2.9946464   0.63636415   418189 
 3644000   0.60997702   -2.9939259   -2.9939259   -2.3581066  0.030792154   -2.9939259   0.63581931   418189 
 3645000   0.60962236   -2.9943752   -2.9943752   -2.3589256  0.039264423   -2.9943752   0.63544963   418189 
 3646000   0.60913541   -2.9940555   -2.9940555   -2.3591135  0.043792808   -2.9940555   0.63494205   418189 
 3647000   0.61056296   -2.9956317   -2.9956317   -2.3592016  0.041170171   -2.9956317   0.63643008   418189 
 3648000   0.60973704   -2.9950915   -2.9950915   -2.3595223   0.03428575   -2.9950915   0.63556917   418189 
 3649000    0.6093412    -2.994752    -2.994752   -2.3595954  0.042070649    -2.994752   0.63515656   418189 
 3650000   0.61045805   -2.9953996   -2.9953996   -2.3590788  0.041889357   -2.9953996   0.63632072   418189 
 3651000   0.60962009   -2.9950113   -2.9950113    -2.359564  0.024457442   -2.9950113   0.63544726   418189 
 3652000   0.60956231   -2.9947123   -2.9947123   -2.3593253  0.039517111   -2.9947123   0.63538703   418189 
 3653000   0.60837255    -2.994112    -2.994112   -2.3599651  0.034612903    -2.994112   0.63414687   418189 
 3654000   0.60953418   -2.9956427   -2.9956427   -2.3602849  0.047171953   -2.9956427   0.63535771   418189 
 3655000   0.60855858   -2.9950848   -2.9950848    -2.360744   0.03301721   -2.9950848   0.63434078   418189 
 3656000   0.60933453   -2.9953991   -2.9953991   -2.3602495  0.041061643   -2.9953991    0.6351496   418189 
 3657000    0.6104899   -2.9970275   -2.9970275   -2.3606736  0.041698879   -2.9970275   0.63635392   418189 
 3658000   0.60862443   -2.9950198   -2.9950198   -2.3606104  0.039659792   -2.9950198   0.63440942   418189 
 3659000   0.61030849   -2.9962107   -2.9962107   -2.3600459  0.031139635   -2.9962107   0.63616483   418189 
 3660000   0.61075796   -2.9965669   -2.9965669   -2.3599336  0.030157113   -2.9965669   0.63663334   418189 
 3661000   0.60920153   -2.9949014   -2.9949014   -2.3598905  0.034243647   -2.9949014   0.63501097   418189 
 3662000   0.60931056   -2.9952873   -2.9952873   -2.3601626  0.038765988   -2.9952873   0.63512462   418189 
 3663000   0.60980618   -2.9971576   -2.9971576   -2.3615164  0.029773405   -2.9971576   0.63564123   418189 
 3664000   0.60869803   -2.9958072   -2.9958072   -2.3613211  0.041286858   -2.9958072   0.63448613   418189 
 3665000   0.61032313   -2.9976653   -2.9976653   -2.3614852  0.037774693   -2.9976653   0.63618009   418189 
 3666000   0.61000493   -2.9971583   -2.9971583   -2.3613099  0.031558526   -2.9971583    0.6358484   418189 
 3667000   0.60953476   -2.9958469   -2.9958469   -2.3604886  0.045000429   -2.9958469   0.63535832   418189 
 3668000   0.60929122   -2.9956608   -2.9956608   -2.3605563  0.030712114   -2.9956608   0.63510446   418189 
 3669000   0.61018822   -2.9970063   -2.9970063   -2.3609668  0.031180885   -2.9970063   0.63603946   418189 
 3670000   0.60926156   -2.9957726   -2.9957726   -2.3606991  0.041879777   -2.9957726   0.63507354   418189 
 3671000   0.60881066   -2.9953958   -2.9953958   -2.3607923  0.034419325   -2.9953958   0.63460354   418189 
 3672000   0.60969609   -2.9955044   -2.9955044   -2.3599779  0.040805304   -2.9955044   0.63552648   418189 
 3673000   0.60820895   -2.9947533   -2.9947533    -2.360777  0.024075081   -2.9947533   0.63397634   418189 
 3674000   0.60918331   -2.9962114   -2.9962114   -2.3612194   0.02955334   -2.9962114   0.63499197   418189 
 3675000   0.60942887   -2.9969415   -2.9969415   -2.3616935  0.028728401   -2.9969415   0.63524794   418189 
 3676000   0.60948176    -2.997019    -2.997019   -2.3617159  0.035233446    -2.997019   0.63530307   418189 
 3677000   0.60946054   -2.9963666   -2.9963666   -2.3610857  0.045117448   -2.9963666   0.63528095   418189 
 3678000   0.61102433   -2.9976165   -2.9976165   -2.3607055   0.03745898   -2.9976165   0.63691099   418189 
 3679000   0.60948824   -2.9970806   -2.9970806   -2.3617707  0.041284906   -2.9970806   0.63530983   418189 
 3680000   0.60977594   -2.9969105   -2.9969105   -2.3613008  0.040630066   -2.9969105   0.63560972   418189 
 3681000   0.60942569   -2.9970659   -2.9970659   -2.3618213  0.039143835   -2.9970659   0.63524463   418189 
 3682000   0.60990053   -2.9974179   -2.9974179   -2.3616783  0.029707601   -2.9974179   0.63573958   418189 
 3683000   0.60838517   -2.9966755   -2.9966755   -2.3625155  0.034691447   -2.9966755   0.63416002   418189 
 3684000   0.60968908   -2.9977914   -2.9977914   -2.3622722  0.036218055   -2.9977914   0.63551918   418189 
 3685000   0.61017013   -2.9986033   -2.9986033   -2.3625827  0.035573007   -2.9986033    0.6360206   418189 
 3686000   0.61011401   -2.9984531   -2.9984531   -2.3624909   0.03158669   -2.9984531   0.63596211   418189 
 3687000   0.60899587   -2.9971698   -2.9971698   -2.3623732  0.046450887   -2.9971698   0.63479659   418189 
 3688000   0.60898027   -2.9977748   -2.9977748   -2.3629945  0.036644979   -2.9977748   0.63478033   418189 
 3689000   0.61030962   -2.9986631   -2.9986631   -2.3624971  0.041316367   -2.9986631   0.63616601   418189 
 3690000   0.60976114   -2.9978115   -2.9978115   -2.3622172  0.035884338   -2.9978115   0.63559428   418189 
 3691000    0.6098282   -2.9976392   -2.9976392    -2.361975  0.042112104   -2.9976392   0.63566418   418189 
 3692000   0.60948434   -2.9979016   -2.9979016   -2.3625958  0.028668852   -2.9979016   0.63530576   418189 
 3693000   0.60755634   -2.9959638   -2.9959638   -2.3626677  0.044396455   -2.9959638   0.63329608   418189 
 3694000   0.60828834   -2.9964258   -2.9964258   -2.3623667  0.039879667   -2.9964258    0.6340591   418189 
 3695000   0.60954044   -2.9974846   -2.9974846   -2.3621204  0.035916695   -2.9974846   0.63536423   418189 
 3696000   0.61085319   -2.9974105   -2.9974105   -2.3606779  0.034687701   -2.9974105    0.6367326   418189 
 3697000   0.61074001    -2.997787    -2.997787   -2.3611723  0.036478885    -2.997787   0.63661463   418189 
 3698000   0.61002251   -2.9973669   -2.9973669   -2.3615001  0.043482222   -2.9973669   0.63586673   418189 
 3699000   0.60878855   -2.9959495   -2.9959495    -2.361369  0.038313655   -2.9959495   0.63458049   418189 
 3700000   0.60882051   -2.9965511   -2.9965511   -2.3619373  0.030145426   -2.9965511   0.63461381   418189 
 3701000     0.607598    -2.995246    -2.995246   -2.3619065  0.039656514    -2.995246    0.6333395   418189 
 3702000   0.60917816   -2.9970055   -2.9970055   -2.3620189  0.034885242   -2.9970055   0.63498661   418189 
 3703000   0.60924505   -2.9974932   -2.9974932   -2.3624369  0.035777051   -2.9974932   0.63505634   418189 
 3704000   0.60971267   -2.9973186   -2.9973186   -2.3617748  0.043238726   -2.9973186   0.63554377   418189 
 3705000   0.60936683   -2.9971427   -2.9971427   -2.3619594  0.031755797   -2.9971427   0.63518328   418189 
 3706000   0.60976833   -2.9978572   -2.9978572   -2.3622554  0.036370135   -2.9978572   0.63560178   418189 
 3707000   0.60874081   -2.9966177   -2.9966177    -2.362087  0.041448255   -2.9966177   0.63453073   418189 
 3708000   0.60897387   -2.9968203   -2.9968203   -2.3620466  0.039994351   -2.9968203   0.63477366   418189 
 3709000   0.60996968   -2.9982217   -2.9982217   -2.3624101  0.030362801   -2.9982217   0.63581166   418189 
 3710000   0.60949314    -2.998155    -2.998155   -2.3628401   0.03416446    -2.998155   0.63531493   418189 
 3711000   0.61061391   -2.9996198   -2.9996198   -2.3631366  0.035967336   -2.9996198   0.63648318   418189 
 3712000   0.60980271   -2.9993982   -2.9993982   -2.3637606  0.039817558   -2.9993982   0.63563761   418189 
 3713000   0.61059274   -3.0003121   -3.0003121   -2.3638509  0.042651311   -3.0003121   0.63646112   418189 
 3714000   0.60995609   -3.0000725   -3.0000725    -2.364275  0.038005889   -3.0000725   0.63579749   418189 
 3715000   0.60967795   -2.9991293   -2.9991293   -2.3636218  0.041879364   -2.9991293   0.63550758   418189 
 3716000   0.60939793   -2.9987269   -2.9987269   -2.3635112  0.030328786   -2.9987269   0.63521569   418189 
 3717000     0.610854   -2.9996941   -2.9996941   -2.3629607   0.03557948   -2.9996941   0.63673345   418189 
 3718000   0.60935041   -2.9984969   -2.9984969   -2.3633307  0.044470474   -2.9984969   0.63516616   418189 
 3719000   0.60993766   -2.9991883   -2.9991883     -2.36341  0.033822955   -2.9991883   0.63577828   418189 
 3720000    0.6099325   -2.9992033   -2.9992033   -2.3634304  0.042606783   -2.9992033    0.6357729   418189 
 3721000   0.60923987   -2.9984729   -2.9984729    -2.363422  0.038395684   -2.9984729   0.63505093   418189 
 3722000   0.60957444   -2.9988306   -2.9988306   -2.3634309  0.042624564   -2.9988306   0.63539967   418189 
 3723000   0.60872898   -2.9980697   -2.9980697   -2.3635513  0.040794027   -2.9980697    0.6345184   418189 
 3724000   0.60968713   -2.9986677   -2.9986677   -2.3631506  0.034483243   -2.9986677   0.63551714   418189 
 3725000   0.60895036   -2.9982283   -2.9982283   -2.3634791  0.037453772   -2.9982283   0.63474916   418189 
 3726000   0.60831393   -2.9974654   -2.9974654   -2.3633797  0.033699527   -2.9974654   0.63408576   418189 
 3727000   0.60900959   -2.9985771   -2.9985771   -2.3637662  0.029877533   -2.9985771   0.63481089   418189 
 3728000   0.61005239   -2.9998376   -2.9998376   -2.3639398  0.044557094   -2.9998376   0.63589787   418189 
 3729000   0.60945574   -2.9988333   -2.9988333   -2.3635574  0.036100762   -2.9988333   0.63527595   418189 
 3730000   0.60955075   -2.9986318   -2.9986318   -2.3632569  0.045223488   -2.9986318   0.63537499   418189 
 3731000   0.60894042   -2.9986752   -2.9986752   -2.3639364  0.035455619   -2.9986752   0.63473879   418189 
 3732000     0.609489    -2.999655    -2.999655   -2.3643444  0.033107142    -2.999655   0.63531061   418189 
 3733000   0.61037212   -3.0007148   -3.0007148   -2.3644836  0.036846219   -3.0007148   0.63623116   418189 
 3734000   0.60963827   -3.0001453   -3.0001453   -2.3646791  0.041598166   -3.0001453   0.63546621   418189 
 3735000   0.61039828   -3.0002864   -3.0002864    -2.364028  0.034178505   -3.0002864   0.63625842   418189 
 3736000   0.60949952   -3.0000499   -3.0000499   -2.3647283  0.044744773   -3.0000499   0.63532159   418189 
 3737000   0.60893654   -2.9999733   -2.9999733   -2.3652385  0.044922893   -2.9999733   0.63473475   418189 
 3738000   0.60871004   -2.9993464   -2.9993464   -2.3648478  0.051036923   -2.9993464   0.63449866   418189 
 3739000   0.60834691    -2.999312    -2.999312   -2.3651919  0.040162817    -2.999312   0.63412014   418189 
 3740000    0.6082616   -2.9996286   -2.9996286   -2.3655974  0.029387476   -2.9996286   0.63403121   418189 
 3741000   0.60818105   -2.9999248   -2.9999248   -2.3659775  0.033496467   -2.9999248   0.63394725   418189 
 3742000   0.60845237    -3.000598    -3.000598    -2.366368  0.036296433    -3.000598   0.63423007   418189 
 3743000   0.61005929   -3.0026777   -3.0026777   -2.3667727  0.027424184   -3.0026777   0.63590507   418189 
 3744000   0.60873629   -3.0011744   -3.0011744   -2.3666484  0.034380639   -3.0011744   0.63452602   418189 
 3745000   0.60749883   -2.9993312   -2.9993312   -2.3660951  0.034168041   -2.9993312   0.63323613   418189 
 3746000   0.60907754   -3.0001093   -3.0001093   -2.3652276  0.036444965   -3.0001093   0.63488173   418189 
 3747000   0.60841131   -3.0003844   -3.0003844   -2.3661972  0.032971963   -3.0003844   0.63418727   418189 
 3748000    0.6081119   -2.9997108   -2.9997108   -2.3658356  0.049795939   -2.9997108   0.63387518   418189 
 3749000   0.60793609   -2.9997954   -2.9997954   -2.3661034  0.034920831   -2.9997954   0.63369192   418189 
 3750000   0.60968237   -3.0018866   -3.0018866   -2.3663744   0.03853788   -3.0018866   0.63551218   418189 
 3751000   0.60913662   -3.0013895   -3.0013895   -2.3664462  0.037940764   -3.0013895   0.63494331   418189 
 3752000   0.60858817   -3.0009674   -3.0009674   -2.3665958  0.037846813   -3.0009674   0.63437163   418189 
 3753000   0.60876419   -3.0007453   -3.0007453   -2.3661902  0.039269503   -3.0007453    0.6345551   418189 
 3754000   0.60962212   -3.0008164   -3.0008164    -2.365367  0.042061907   -3.0008164   0.63544938   418189 
 3755000   0.60993791   -3.0014594   -3.0014594   -2.3656808  0.037248186   -3.0014594   0.63577854   418189 
 3756000   0.61095833   -3.0021509   -3.0021509   -2.3653087  0.047053901   -3.0021509   0.63684219   418189 
 3757000   0.60952783   -3.0005335   -3.0005335   -2.3651824  0.039804982   -3.0005335   0.63535109   418189 
 3758000   0.60957984   -3.0004899   -3.0004899   -2.3650846  0.036143364   -3.0004899   0.63540531   418189 
 3759000   0.60906295    -3.000839    -3.000839   -2.3659725   0.03055585    -3.000839   0.63486651   418189 
 3760000   0.60873201   -3.0007026   -3.0007026   -2.3661811  0.039891431   -3.0007026   0.63452155   418189 
 3761000   0.60961117    -3.001613    -3.001613    -2.366175  0.033605173    -3.001613   0.63543797   418189 
 3762000   0.60945087   -3.0021261   -3.0021261   -2.3668552   0.04410854   -3.0021261   0.63527088   418189 
 3763000   0.60893458   -3.0012299   -3.0012299   -2.3664972  0.039301388   -3.0012299   0.63473271   418189 
 3764000   0.60762184   -3.0009459   -3.0009459   -2.3675816  0.029764479   -3.0009459   0.63336436   418189 
 3765000   0.60896558   -3.0008413   -3.0008413   -2.3660763  0.040253728   -3.0008413   0.63476502   418189 
 3766000   0.61042528   -3.0020628   -3.0020628   -2.3657762   0.03834751   -3.0020628   0.63628657   418189 
 3767000   0.60875445   -3.0004484   -3.0004484   -2.3659035  0.041043643   -3.0004484   0.63454495   418189 
 3768000   0.60962067   -3.0015549   -3.0015549    -2.366107  0.045046052   -3.0015549   0.63544787   418189 
 3769000   0.60952386   -3.0014573   -3.0014573   -2.3661103  0.018914394   -3.0014573   0.63534696   418189 
 3770000   0.60918839   -3.0020967   -3.0020967   -2.3670995  0.031619276   -3.0020967   0.63499727   418189 
 3771000   0.60827343   -3.0012133   -3.0012133   -2.3671698   0.04588293   -3.0012133   0.63404355   418189 
 3772000   0.60913554    -3.001325    -3.001325   -2.3663828  0.034753974    -3.001325   0.63494218   418189 
 3773000   0.60850406   -3.0008312   -3.0008312   -2.3665473  0.043884697   -3.0008312   0.63428395   418189 
 3774000   0.60923182    -3.002215    -3.002215   -2.3671724  0.041494282    -3.002215   0.63504254   418189 
 3775000   0.60944118   -3.0025219   -3.0025219   -2.3672611  0.028650643   -3.0025219   0.63526077   418189 
 3776000   0.60923003   -3.0017977   -3.0017977    -2.366757  0.040406418   -3.0017977   0.63504068   418189 
 3777000   0.60912386     -3.00216     -3.00216     -2.36723  0.042621877     -3.00216   0.63493001   418189 
 3778000   0.60859154    -3.001032    -3.001032   -2.3666569   0.03951209    -3.001032   0.63437513   418189 
 3779000   0.60906786   -3.0018547   -3.0018547   -2.3669831  0.027173848   -3.0018547   0.63487164   418189 
 3780000   0.60990449   -3.0028482   -3.0028482   -2.3671045  0.045287653   -3.0028482   0.63574371   418189 
 3781000   0.60876909   -3.0015921   -3.0015921   -2.3670319  0.033908941   -3.0015921   0.63456021   418189 
 3782000   0.60894388   -3.0019415   -3.0019415   -2.3671991  0.040997473   -3.0019415   0.63474241   418189 
 3783000   0.60795624   -3.0008886   -3.0008886   -2.3671757  0.036441905   -3.0008886   0.63371292   418189 
 3784000   0.60804261    -3.000556    -3.000556    -2.366753  0.028603133    -3.000556   0.63380295   418189 
 3785000   0.60713142   -2.9994727   -2.9994727   -2.3666195  0.042771028   -2.9994727   0.63285316   418189 
 3786000   0.60866057   -3.0001801   -3.0001801    -2.365733  0.026229876   -3.0001801   0.63444709   418189 
 3787000   0.60852741   -3.0000927   -3.0000927   -2.3657844  0.042411243   -3.0000927   0.63430829   418189 
 3788000   0.60904296   -3.0015192   -3.0015192   -2.3666735   0.03507122   -3.0015192   0.63484568   418189 
 3789000   0.60984216   -3.0021124   -3.0021124   -2.3664337  0.045601269   -3.0021124   0.63567874   418189 
 3790000     0.610236   -3.0022163   -3.0022163   -2.3661271  0.042936064   -3.0022163   0.63608926   418189 
 3791000   0.60976534   -3.0015494   -3.0015494   -2.3659508  0.043821661   -3.0015494   0.63559866   418189 
 3792000   0.60923632   -3.0013498   -3.0013498   -2.3663025    0.0328113   -3.0013498   0.63504723   418189 
 3793000   0.60940414   -3.0015338   -3.0015338   -2.3663116  0.030102276   -3.0015338   0.63522216   418189 
 3794000   0.60945289   -3.0017358   -3.0017358   -2.3664628  0.040245386   -3.0017358   0.63527298   418189 
 3795000   0.60990512   -3.0019432   -3.0019432   -2.3661988    0.0415999   -3.0019432   0.63574437   418189 
 3796000   0.60999638   -3.0021701   -3.0021701   -2.3663306  0.039453646   -3.0021701   0.63583949   418189 
 3797000   0.60990233   -3.0017465   -3.0017465    -2.366005  0.039216001   -3.0017465   0.63574146   418189 
 3798000   0.60924958   -3.0014333   -3.0014333   -2.3663722   0.04073305   -3.0014333   0.63506106   418189 
 3799000   0.60920899    -3.001135    -3.001135   -2.3661162    0.0444291    -3.001135   0.63501875   418189 
 3800000   0.60897335   -3.0015014   -3.0015014   -2.3667283  0.025782498   -3.0015014   0.63477313   418189 
 3801000   0.60779357     -3.00048     -3.00048   -2.3669367  0.030697824     -3.00048   0.63354336   418189 
 3802000   0.60830327    -3.000885    -3.000885   -2.3668103  0.035425624    -3.000885   0.63407465   418189 
 3803000   0.60868198   -3.0005986   -3.0005986   -2.3661292  0.045570148   -3.0005986   0.63446941   418189 
 3804000   0.60923865    -3.001368    -3.001368   -2.3663183  0.040835026    -3.001368   0.63504966   418189 
 3805000   0.61005817   -3.0025963   -3.0025963   -2.3666924  0.032995233   -3.0025963   0.63590391   418189 
 3806000    0.6089856   -3.0008117   -3.0008117   -2.3660258  0.048123565   -3.0008117   0.63478589   418189 
 3807000   0.60947865   -3.0019148   -3.0019148    -2.366615  0.039895243   -3.0019148   0.63529983   418189 
 3808000   0.60927566    -3.001826    -3.001826   -2.3667377  0.049396264    -3.001826   0.63508824   418189 
 3809000   0.60916434   -3.0013168   -3.0013168   -2.3663446  0.042686111   -3.0013168    0.6349722   418189 
 3810000    0.6088028   -3.0007145   -3.0007145   -2.3661192  0.033498816   -3.0007145   0.63459535   418189 
 3811000   0.60878761   -3.0008364   -3.0008364   -2.3662569  0.029906537   -3.0008364   0.63457952   418189 
 3812000   0.61035669   -3.0015755   -3.0015755   -2.3653604  0.034620764   -3.0015755   0.63621507   418189 
 3813000   0.60991089   -3.0013381   -3.0013381   -2.3655877   0.02425598   -3.0013381   0.63575038   418189 
 3814000   0.60896588   -3.0005027   -3.0005027   -2.3657373  0.036686797   -3.0005027   0.63476534   418189 
 3815000   0.60992355     -3.00137     -3.00137   -2.3656065  0.042067713     -3.00137   0.63576358   418189 
 3816000   0.60981752   -3.0008924   -3.0008924   -2.3652394  0.028084448   -3.0008924   0.63565305   418189 
 3817000   0.60964992    -3.000996    -3.000996   -2.3655176  0.032898673    -3.000996   0.63547835   418189 
 3818000   0.60789961   -2.9992779   -2.9992779    -2.365624  0.029301608   -2.9992779   0.63365389   418189 
 3819000   0.60803973   -2.9998448   -2.9998448   -2.3660449  0.040187288   -2.9998448   0.63379994   418189 
 3820000   0.60966981   -3.0004839   -3.0004839   -2.3649848  0.034380337   -3.0004839   0.63549909   418189 
 3821000   0.60950718    -3.001706    -3.001706   -2.3663765  0.031785402    -3.001706   0.63532957   418189 
 3822000   0.61000265   -3.0021299   -3.0021299   -2.3662839   0.04169049   -3.0021299   0.63584603   418189 
 3823000   0.61008414   -3.0024837   -3.0024837   -2.3665527  0.032301739   -3.0024837   0.63593097   418189 
 3824000   0.60790785   -3.0003143   -3.0003143   -2.3666518  0.039216694   -3.0003143   0.63366248   418189 
 3825000   0.60914182   -3.0024309   -3.0024309   -2.3674822  0.031083985   -3.0024309   0.63494873   418189 
 3826000   0.60931532   -3.0019265   -3.0019265   -2.3667969  0.039566373   -3.0019265   0.63512958   418189 
 3827000   0.60860707   -3.0011394   -3.0011394   -2.3667481  0.045430584   -3.0011394   0.63439132   418189 
 3828000   0.60853614   -3.0011601   -3.0011601   -2.3668427  0.040470785   -3.0011601   0.63431739   418189 
 3829000   0.60918221   -3.0011354   -3.0011354   -2.3661445  0.039869954   -3.0011354   0.63499083   418189 
 3830000   0.60878789     -3.00062     -3.00062   -2.3660402  0.045973155     -3.00062    0.6345798   418189 
 3831000   0.60934719    -3.001145    -3.001145   -2.3659822  0.040092232    -3.001145    0.6351628   418189 
 3832000     0.608919    -3.001228    -3.001228   -2.3665116  0.047545411    -3.001228   0.63471647   418189 
 3833000    0.6097891   -3.0023976   -3.0023976   -2.3667741  0.027524444   -3.0023976   0.63562343   418189 
 3834000   0.60842346   -3.0002551   -3.0002551   -2.3660552  0.035292044   -3.0002551   0.63419993   418189 
 3835000   0.60827277   -3.0008131   -3.0008131   -2.3667702  0.025262442   -3.0008131   0.63404286   418189 
 3836000   0.60825356   -3.0008827   -3.0008827   -2.3668598  0.037435898   -3.0008827   0.63402284   418189 
 3837000   0.60972807   -3.0017861   -3.0017861   -2.3662263  0.039935395   -3.0017861   0.63555982   418189 
 3838000   0.60921764    -3.001342    -3.001342   -2.3663143  0.031582136    -3.001342   0.63502776   418189 
 3839000   0.61043959   -3.0024917   -3.0024917   -2.3661902   0.03611489   -3.0024917   0.63630149   418189 
 3840000   0.61211645   -3.0045614   -3.0045614    -2.366512  0.028471958   -3.0045614   0.63804938   418189 
 3841000    0.6108307   -3.0037708   -3.0037708   -2.3670616  0.040361531   -3.0037708   0.63670916   418189 
 3842000   0.60960784   -3.0020923   -3.0020923   -2.3666578   0.03587461   -3.0020923   0.63543449   418189 
 3843000   0.60995053   -3.0023305   -3.0023305   -2.3665388  0.041484603   -3.0023305   0.63579171   418189 
 3844000   0.60866031   -3.0024109   -3.0024109   -2.3679641  0.038099258   -3.0024109   0.63444681   418189 
 3845000   0.60851847   -3.0025386   -3.0025386   -2.3682396  0.038437218   -3.0025386   0.63429897   418189 
 3846000    0.6091826   -3.0030599   -3.0030599   -2.3680687  0.046634507   -3.0030599   0.63499123   418189 
 3847000   0.60868454   -3.0024684   -3.0024684   -2.3679963  0.043269038   -3.0024684   0.63447208   418189 
 3848000   0.60797153    -3.001883    -3.001883   -2.3681541  0.044491235    -3.001883   0.63372886   418189 
 3849000   0.60824107   -3.0018502   -3.0018502   -2.3678404  0.027234108   -3.0018502   0.63400982   418189 
 3850000   0.60961347   -3.0036971   -3.0036971   -2.3682568  0.045265639   -3.0036971   0.63544036   418189 
 3851000   0.60855524    -3.003386    -3.003386   -2.3690487  0.036961913    -3.003386   0.63433729   418189 
 3852000   0.60831258   -3.0028012   -3.0028012   -2.3687169  0.034178907   -3.0028012   0.63408436   418189 
 3853000    0.6077676   -3.0022506   -3.0022506   -2.3687343  0.036203346   -3.0022506   0.63351629   418189 
 3854000   0.60839054    -3.003002    -3.003002   -2.3688364  0.047792259    -3.003002   0.63416562   418189 
 3855000   0.60785601   -3.0020724   -3.0020724   -2.3684639  0.031549628   -3.0020724   0.63360845   418189 
 3856000   0.60727382   -3.0017956   -3.0017956    -2.368794  0.031338577   -3.0017956   0.63300159   418189 
 3857000   0.60880009   -3.0033134   -3.0033134   -2.3687209  0.040579369   -3.0033134   0.63459253   418189 
 3858000   0.60853855    -3.002733    -3.002733   -2.3684131  0.040888081    -3.002733    0.6343199   418189 
 3859000    0.6079759    -3.001952    -3.001952   -2.3682186  0.031535334    -3.001952   0.63373342   418189 
 3860000   0.60799645   -3.0012612   -3.0012612   -2.3675064  0.036744264   -3.0012612   0.63375483   418189 
 3861000   0.60878071   -3.0017605   -3.0017605   -2.3671881  0.041944041   -3.0017605   0.63457232   418189 
 3862000   0.60965883   -3.0022564   -3.0022564   -2.3667687  0.047871542   -3.0022564   0.63548765   418189 
 3863000   0.60950529   -3.0019021   -3.0019021   -2.3665745  0.028082449   -3.0019021    0.6353276   418189 
 3864000   0.60905107   -3.0015254   -3.0015254   -2.3666712   0.03891221   -3.0015254   0.63485413   418189 
 3865000   0.60888482   -3.0013179   -3.0013179    -2.366637  0.042192773   -3.0013179   0.63468085   418189 
 3866000   0.60834026   -3.0019082   -3.0019082   -2.3677949  0.045052346   -3.0019082   0.63411321   418189 
 3867000   0.60825859   -3.0017995   -3.0017995   -2.3677714  0.038777279   -3.0017995   0.63402809   418189 
 3868000   0.60757304   -3.0014169   -3.0014169   -2.3681034  0.031049975   -3.0014169   0.63331348   418189 
 3869000   0.60860931   -3.0031807   -3.0031807   -2.3687871   0.03990613   -3.0031807   0.63439366   418189 
 3870000   0.60965327   -3.0048895   -3.0048895   -2.3694077   0.03239624   -3.0048895   0.63548185   418189 
 3871000   0.60837438   -3.0035775   -3.0035775   -2.3694287   0.02747183   -3.0035775   0.63414877   418189 
 3872000    0.6096256   -3.0048237   -3.0048237   -2.3693707  0.032779107   -3.0048237   0.63545301   418189 
 3873000    0.6095336   -3.0039914   -3.0039914   -2.3686343  0.026337687   -3.0039914   0.63535711   418189 
 3874000   0.60808963   -3.0024277   -3.0024277   -2.3685758  0.031418406   -3.0024277   0.63385196   418189 
 3875000    0.6088111   -3.0039081   -3.0039081   -2.3693041  0.043038677   -3.0039081     0.634604   418189 
 3876000   0.60937165   -3.0048977   -3.0048977   -2.3697094  0.032796161   -3.0048977   0.63518829   418189 
 3877000   0.60829072    -3.003693    -3.003693   -2.3696314  0.048894955    -3.003693   0.63406158   418189 
 3878000   0.60832642   -3.0035787   -3.0035787   -2.3694799  0.046127019   -3.0035787   0.63409879   418189 
 3879000   0.60861819    -3.004203    -3.004203   -2.3698001  0.036256211    -3.004203   0.63440292   418189 
 3880000   0.60878367   -3.0046847   -3.0046847   -2.3701093  0.035239565   -3.0046847   0.63457541   418189 
 3881000   0.60736753   -3.0033095   -3.0033095   -2.3702102  0.043752644   -3.0033095   0.63309927   418189 
 3882000   0.60725533   -3.0030976   -3.0030976   -2.3701153  0.048315914   -3.0030976   0.63298232   418189 
 3883000   0.60802398   -3.0041781   -3.0041781   -2.3703945  0.034539315   -3.0041781   0.63378354   418189 
 3884000    0.6085521   -3.0051386   -3.0051386   -2.3708046  0.034258148   -3.0051386   0.63433403   418189 
 3885000   0.60681318   -3.0034402   -3.0034402   -2.3709187  0.040675172   -3.0034402   0.63252144   418189 
 3886000   0.60869192   -3.0048748   -3.0048748    -2.370395  0.035698861   -3.0048748   0.63447977   418189 
 3887000   0.60807582   -3.0045961   -3.0045961   -2.3707585  0.031014827   -3.0045961   0.63383757   418189 
 3888000   0.60950377   -3.0057059   -3.0057059   -2.3703798  0.024708108   -3.0057059   0.63532601   418189 
 3889000   0.60945777   -3.0054891   -3.0054891    -2.370211  0.032392757   -3.0054891   0.63527806   418189 
 3890000   0.60997067   -3.0054926   -3.0054926   -2.3696799  0.042100585   -3.0054926    0.6358127   418189 
 3891000   0.60894683   -3.0052067   -3.0052067   -2.3704612  0.024435627   -3.0052067   0.63474547   418189 
 3892000   0.60890873    -3.005227    -3.005227   -2.3705212  0.040518007    -3.005227   0.63470576   418189 
 3893000   0.60718443    -3.003786    -3.003786   -2.3708776  0.028625574    -3.003786   0.63290841   418189 
 3894000    0.6075687   -3.0035072   -3.0035072   -2.3701982  0.036104008   -3.0035072   0.63330896   418189 
 3895000   0.60972697    -3.005791    -3.005791   -2.3702323  0.045425346    -3.005791   0.63555867   418189 
 3896000   0.60858525   -3.0051152   -3.0051152   -2.3707466  0.031808019   -3.0051152   0.63436858   418189 
 3897000    0.6082297   -3.0051195   -3.0051195   -2.3711215  0.040931361   -3.0051195   0.63399796   418189 
 3898000   0.60837877   -3.0055729   -3.0055729   -2.3714195   0.02897589   -3.0055729   0.63415335   418189 
 3899000    0.6069663   -3.0039488   -3.0039488   -2.3712678  0.036544499   -3.0039488   0.63268104   418189 
 3900000   0.60697058   -3.0032169   -3.0032169   -2.3705314  0.041221119   -3.0032169   0.63268551   418189 
 3901000   0.60865343   -3.0047298   -3.0047298   -2.3702902  0.039702541   -3.0047298   0.63443965   418189 
 3902000   0.60824742   -3.0044904   -3.0044904    -2.370474  0.039621276   -3.0044904   0.63401644   418189 
 3903000   0.60832547   -3.0046362   -3.0046362   -2.3705384  0.047898468   -3.0046362   0.63409779   418189 
 3904000   0.60916699   -3.0043132   -3.0043132   -2.3693382  0.038664459   -3.0043132   0.63497496   418189 
 3905000   0.60749552   -3.0029588   -3.0029588   -2.3697261  0.033207993   -3.0029588   0.63323268   418189 
 3906000   0.60832638   -3.0034729   -3.0034729   -2.3693742  0.043918521   -3.0034729   0.63409874   418189 
 3907000   0.60757573   -3.0023009   -3.0023009   -2.3689847  0.040127775   -3.0023009   0.63331629   418189 
 3908000   0.60855843   -3.0033809   -3.0033809   -2.3690403  0.027483743   -3.0033809   0.63434062   418189 
 3909000    0.6088079   -3.0032668   -3.0032668   -2.3686662  0.035905496   -3.0032668   0.63460066   418189 
 3910000   0.60797458   -3.0026198   -3.0026198   -2.3688878  0.032612889   -3.0026198   0.63373204   418189 
 3911000   0.60817682   -3.0024375   -3.0024375   -2.3684946  0.034432705   -3.0024375   0.63394285   418189 
 3912000   0.60875947   -3.0027964   -3.0027964   -2.3682462  0.036573265   -3.0027964   0.63455018   418189 
 3913000   0.60915701   -3.0025882   -3.0025882   -2.3676237  0.034556573   -3.0025882   0.63496456   418189 
 3914000   0.60957169   -3.0033765   -3.0033765   -2.3679797  0.027718299   -3.0033765   0.63539681   418189 
 3915000   0.60788006   -3.0029156   -3.0029156   -2.3692821  0.033759739   -3.0029156   0.63363351   418189 
 3916000   0.60907975   -3.0042669   -3.0042669   -2.3693829  0.024225401   -3.0042669   0.63488403   418189 
 3917000   0.60931715    -3.004535    -3.004535   -2.3694035  0.044336629    -3.004535   0.63513149   418189 
 3918000   0.60974565   -3.0054691   -3.0054691    -2.369891  0.039524607   -3.0054691   0.63557814   418189 
 3919000   0.60999374   -3.0056073   -3.0056073   -2.3697706   0.03559625   -3.0056073   0.63583674   418189 
 3920000   0.60983905   -3.0056889   -3.0056889   -2.3700134  0.036765099   -3.0056889    0.6356755   418189 
 3921000   0.60949538   -3.0053201   -3.0053201   -2.3700028  0.029626133   -3.0053201   0.63531727   418189 
 3922000   0.60880921   -3.0043047   -3.0043047   -2.3697027  0.034158058   -3.0043047   0.63460202   418189 
 3923000    0.6075941   -3.0031714   -3.0031714    -2.369836  0.030364763   -3.0031714   0.63333544   418189 
 3924000   0.60903349   -3.0040794   -3.0040794   -2.3692436  0.023959205   -3.0040794   0.63483581   418189 
 3925000    0.6088923   -3.0045874   -3.0045874   -2.3698988  0.031296402   -3.0045874   0.63468864   418189 
 3926000   0.61029621   -3.0056803   -3.0056803   -2.3695283   0.04951741   -3.0056803   0.63615203   418189 
 3927000    0.6085261   -3.0037272   -3.0037272   -2.3694202  0.030074427   -3.0037272   0.63430692   418189 
 3928000   0.60757772   -3.0025745   -3.0025745   -2.3692561  0.029396995   -3.0025745   0.63331836   418189 
 3929000   0.60700859   -3.0019893   -3.0019893   -2.3692641  0.040818001   -3.0019893   0.63272512   418189 
 3930000   0.61012746   -3.0056595   -3.0056595   -2.3696834  0.032822161   -3.0056595   0.63597612   418189 
 3931000   0.60838175   -3.0030706   -3.0030706   -2.3689142  0.031587484   -3.0030706   0.63415646   418189 
 3932000   0.60827434   -3.0041425   -3.0041425    -2.370098  0.044746894   -3.0041425    0.6340445   418189 
 3933000   0.60895619   -3.0042393   -3.0042393    -2.369484  0.033113082   -3.0042393   0.63475523   418189 
 3934000   0.60818983   -3.0031166   -3.0031166   -2.3691602  0.024271973   -3.0031166   0.63395641   418189 
 3935000   0.60786571   -3.0033637   -3.0033637   -2.3697452   0.03625474   -3.0033637   0.63361856   418189 
 3936000   0.60889521   -3.0032247   -3.0032247    -2.368533  0.030268897   -3.0032247   0.63469167   418189 
 3937000   0.60848105   -3.0031338   -3.0031338   -2.3688738  0.035817947   -3.0031338   0.63425997   418189 
 3938000   0.60950229   -3.0046782   -3.0046782   -2.3693538  0.040214312   -3.0046782   0.63532447   418189 
 3939000   0.60856086   -3.0033142   -3.0033142    -2.368971  0.037206501   -3.0033142   0.63434316   418189 
 3940000   0.60923579   -3.0038609   -3.0038609   -2.3688143  0.036069042   -3.0038609   0.63504668   418189 
 3941000   0.60878421   -3.0040912   -3.0040912   -2.3695152  0.036795569   -3.0040912   0.63457597   418189 
 3942000   0.60979757   -3.0048484   -3.0048484   -2.3692162  0.039431864   -3.0048484   0.63563226   418189 
 3943000   0.60915197    -3.004892    -3.004892   -2.3699327  0.047676046    -3.004892    0.6349593   418189 
 3944000   0.60892823   -3.0050352   -3.0050352   -2.3703091  0.043259651   -3.0050352    0.6347261   418189 
 3945000   0.60852942   -3.0038636   -3.0038636   -2.3695532  0.032907529   -3.0038636   0.63431038   418189 
 3946000   0.60980356   -3.0053894   -3.0053894   -2.3697509   0.04521282   -3.0053894   0.63563851   418189 
 3947000   0.60837568   -3.0043631   -3.0043631   -2.3702129  0.031821871   -3.0043631   0.63415013   418189 
 3948000    0.6086134   -3.0041362   -3.0041362   -2.3697383  0.028418192   -3.0041362   0.63439793   418189 
 3949000   0.60788838   -3.0032611   -3.0032611    -2.369619  0.028189775   -3.0032611   0.63364218   418189 
 3950000   0.60768802    -3.002803    -3.002803   -2.3693697  0.045347947    -3.002803   0.63343334   418189 
 3951000   0.60878064   -3.0043257   -3.0043257   -2.3697534  0.035081128   -3.0043257   0.63457225   418189 
 3952000   0.60873754   -3.0045393   -3.0045393   -2.3700119  0.028252455   -3.0045393   0.63452732   418189 
 3953000   0.60865944   -3.0047283   -3.0047283   -2.3702824  0.037655449   -3.0047283   0.63444591   418189 
 3954000   0.60823809   -3.0048131   -3.0048131   -2.3708063  0.034704666   -3.0048131   0.63400671   418189 
 3955000   0.60639288   -3.0029491   -3.0029491   -2.3708658   0.02874749   -3.0029491   0.63208333   418189 
 3956000   0.60800369   -3.0043842   -3.0043842   -2.3706218  0.034339746   -3.0043842   0.63376238   418189 
 3957000   0.60743905   -3.0033095   -3.0033095   -2.3701357  0.041260975   -3.0033095   0.63317382   418189 
 3958000   0.60875256    -3.004471    -3.004471    -2.369928  0.032428158    -3.004471   0.63454297   418189 
 3959000   0.60967963   -3.0062396   -3.0062396   -2.3707302  0.035523869   -3.0062396   0.63550932   418189 
 3960000   0.60875411     -3.00486     -3.00486   -2.3703154  0.033290297     -3.00486   0.63454459   418189 
 3961000   0.60944249   -3.0058274   -3.0058274   -2.3705653  0.032382926   -3.0058274   0.63526214   418189 
 3962000   0.60860268   -3.0045256   -3.0045256   -2.3701388  0.041095141   -3.0045256   0.63438675   418189 
 3963000   0.60990584   -3.0051658   -3.0051658   -2.3694207  0.030425666   -3.0051658   0.63574512   418189 
 3964000   0.61075767   -3.0055046   -3.0055046   -2.3688716  0.042918962   -3.0055046   0.63663303   418189 
 3965000   0.60983306   -3.0044758   -3.0044758   -2.3688065  0.033274247   -3.0044758   0.63566925   418189 
 3966000   0.60933426   -3.0048786   -3.0048786   -2.3697293  0.036337914   -3.0048786   0.63514932   418189 
 3967000   0.60818294   -3.0041167   -3.0041167   -2.3701675   0.03788709   -3.0041167   0.63394922   418189 
 3968000   0.60852148   -3.0049714   -3.0049714   -2.3706693  0.033998973   -3.0049714   0.63430211   418189 
 3969000   0.60738269   -3.0037853   -3.0037853   -2.3706702  0.031547776   -3.0037853   0.63311507   418189 
 3970000    0.6069544   -3.0036568   -3.0036568   -2.3709882   0.03687672   -3.0036568   0.63266863   418189 
 3971000   0.60887254   -3.0053498   -3.0053498   -2.3706818  0.039051354   -3.0053498   0.63466804   418189 
 3972000    0.6084585   -3.0051274   -3.0051274    -2.370891  0.049740517   -3.0051274   0.63423646   418189 
 3973000   0.60946735   -3.0054481   -3.0054481   -2.3701601  0.043180715   -3.0054481   0.63528805   418189 
 3974000   0.61140056   -3.0075397   -3.0075397   -2.3702365  0.031676583   -3.0075397   0.63730316   418189 
 3975000   0.60948117   -3.0057021   -3.0057021   -2.3703997  0.040461531   -3.0057021   0.63530245   418189 
 3976000   0.61000922   -3.0061134   -3.0061134   -2.3702605  0.050078125   -3.0061134   0.63585288   418189 
 3977000   0.60967332   -3.0061889   -3.0061889   -2.3706861  0.033020831   -3.0061889   0.63550275   418189 
 3978000   0.60805463   -3.0050863   -3.0050863   -2.3712708  0.032618532   -3.0050863   0.63381548   418189 
 3979000   0.60945183   -3.0063801   -3.0063801   -2.3711082  0.038887216   -3.0063801   0.63527188   418189 
 3980000   0.60879591   -3.0054904   -3.0054904   -2.3709022  0.018421452   -3.0054904   0.63458816   418189 
 3981000   0.60819458   -3.0044094   -3.0044094   -2.3704481  0.037568272   -3.0044094   0.63396136   418189 
 3982000   0.60718734   -3.0032705   -3.0032705   -2.3703591  0.034337198   -3.0032705   0.63291144   418189 
 3983000   0.60826768   -3.0045467   -3.0045467   -2.3705092  0.028657599   -3.0045467   0.63403755   418189 
 3984000   0.60845575   -3.0054747   -3.0054747   -2.3712411  0.034242056   -3.0054747   0.63423359   418189 
 3985000   0.60826654   -3.0046709   -3.0046709   -2.3706345  0.020130164   -3.0046709   0.63403637   418189 
 3986000   0.60855312   -3.0054831   -3.0054831    -2.371148  0.036169217   -3.0054831   0.63433509   418189 
 3987000   0.60791514   -3.0048654   -3.0048654   -2.3711954  0.038133646   -3.0048654   0.63367008   418189 
 3988000   0.60787726   -3.0053082   -3.0053082   -2.3716776  0.038543662   -3.0053082    0.6336306   418189 
 3989000   0.60880857   -3.0059173   -3.0059173   -2.3713159  0.032778897   -3.0059173   0.63460136   418189 
 3990000   0.60871389   -3.0059201   -3.0059201   -2.3714174  0.032604119   -3.0059201   0.63450267   418189 
 3991000   0.60646911   -3.0044184   -3.0044184   -2.3722556  0.039535529   -3.0044184   0.63216279   418189 
 3992000   0.60782963   -3.0066813   -3.0066813   -2.3731004  0.030063701   -3.0066813   0.63358095   418189 
 3993000      0.60824   -3.0054876   -3.0054876   -2.3714789  0.037445103   -3.0054876    0.6340087   418189 
 3994000   0.60747174    -3.004638    -3.004638   -2.3714301  0.041297458    -3.004638    0.6332079   418189 
 3995000   0.60922706   -3.0061433   -3.0061433   -2.3711057  0.034884396   -3.0061433   0.63503758   418189 
 3996000   0.61029133   -3.0072245   -3.0072245   -2.3710776  0.041982868   -3.0072245   0.63614694   418189 
 3997000    0.6095795   -3.0071298   -3.0071298   -2.3717248  0.039026272   -3.0071298   0.63540496   418189 
 3998000   0.60898255   -3.0064084   -3.0064084   -2.3716257    0.0462734   -3.0064084   0.63478272   418189 
 3999000   0.60914021   -3.0068712   -3.0068712   -2.3719242   0.03490219   -3.0068712   0.63494705   418189 
 4000000   0.60921276   -3.0072707   -3.0072707    -2.372248  0.025994438   -3.0072707   0.63502268   418189 
 4001000   0.60768514   -3.0057042   -3.0057042   -2.3722739  0.033784777   -3.0057042   0.63343034   418189 
 4002000   0.60862064   -3.0073574   -3.0073574   -2.3729519  0.040116402   -3.0073574   0.63440547   418189 
 4003000   0.60671488   -3.0052094   -3.0052094   -2.3727905  0.040534731   -3.0052094   0.63241897   418189 
 4004000   0.60909745   -3.0073474   -3.0073474   -2.3724449  0.038207715   -3.0073474   0.63490248   418189 
 4005000   0.60895551   -3.0067798   -3.0067798   -2.3720253  0.033827419   -3.0067798   0.63475453   418189 
 4006000   0.60843279   -3.0063675   -3.0063675   -2.3721579  0.040517938   -3.0063675   0.63420966   418189 
 4007000   0.60758441   -3.0060998   -3.0060998   -2.3727745  0.029367845   -3.0060998   0.63332534   418189 
 4008000   0.60875847   -3.0067037   -3.0067037   -2.3721546  0.041614967   -3.0067037   0.63454914   418189 
 4009000   0.60929016   -3.0075275   -3.0075275   -2.3724242  0.039771749   -3.0075275   0.63510335   418189 
 4010000   0.60893985   -3.0075244   -3.0075244   -2.3727862  0.043925013   -3.0075244   0.63473821   418189 
 4011000   0.60842353    -3.007053    -3.007053    -2.372853  0.027671729    -3.007053   0.63420001   418189 
 4012000   0.60688883   -3.0061715   -3.0061715   -2.3735712  0.032190935   -3.0061715   0.63260029   418189 
 4013000   0.60836441   -3.0075195   -3.0075195   -2.3733811  0.039021645   -3.0075195   0.63413838   418189 
 4014000   0.60942443   -3.0080038   -3.0080038   -2.3727604  0.039574125   -3.0080038   0.63524331   418189 
 4015000   0.60969523   -3.0080882   -3.0080882   -2.3725626  0.040213149   -3.0080882   0.63552558   418189 
 4016000    0.6086357   -3.0066959   -3.0066959   -2.3722747  0.048075521   -3.0066959   0.63442117   418189 
 4017000   0.60983471   -3.0073748   -3.0073748   -2.3717038  0.036946016   -3.0073748   0.63567098   418189 
 4018000   0.60947557   -3.0063239   -3.0063239   -2.3710273  0.038333484   -3.0063239   0.63529662   418189 
 4019000   0.60855155   -3.0058248   -3.0058248   -2.3714913  0.029903892   -3.0058248   0.63433345   418189 
 4020000   0.60948936   -3.0064965   -3.0064965   -2.3711855  0.028354195   -3.0064965   0.63531099   418189 
 4021000   0.60910304   -3.0058406   -3.0058406   -2.3709323  0.043271128   -3.0058406    0.6349083   418189 
 4022000   0.60873347   -3.0059552   -3.0059552   -2.3714322  0.026546673   -3.0059552   0.63452308   418189 
 4023000   0.60791265   -3.0052297   -3.0052297   -2.3715622  0.029245621   -3.0052297   0.63366749   418189 
 4024000   0.60979919   -3.0072679   -3.0072679    -2.371634  0.029123667   -3.0072679   0.63563395   418189 
 4025000   0.60813565   -3.0051349   -3.0051349    -2.371235  0.040801456   -3.0051349   0.63389993   418189 
 4026000   0.60848449   -3.0057973   -3.0057973   -2.3715338  0.029170618   -3.0057973   0.63426355   418189 
 4027000    0.6083217   -3.0061426   -3.0061426   -2.3720488  0.040379131   -3.0061426   0.63409387   418189 
 4028000   0.60723662   -3.0041304   -3.0041304   -2.3711676   0.02509121   -3.0041304   0.63296281   418189 
 4029000   0.60831235   -3.0049784   -3.0049784   -2.3708943  0.037228595   -3.0049784   0.63408412   418189 
 4030000   0.60774419   -3.0051141   -3.0051141   -2.3716222  0.022934786   -3.0051141   0.63349189   418189 
 4031000   0.60822378   -3.0053765   -3.0053765   -2.3713847  0.036483121   -3.0053765    0.6339918   418189 
 4032000   0.60887484   -3.0066666   -3.0066666   -2.3719961   0.03414485   -3.0066666   0.63467043   418189 
 4033000   0.60762266   -3.0052489   -3.0052489   -2.3718837  0.030319579   -3.0052489    0.6333652   418189 
 4034000   0.60875996   -3.0063363   -3.0063363   -2.3717856  0.029261432   -3.0063363   0.63455069   418189 
 4035000   0.60803578   -3.0064999   -3.0064999   -2.3727041  0.034968255   -3.0064999   0.63379583   418189 
 4036000   0.60725838   -3.0055783   -3.0055783   -2.3725928  0.035423911   -3.0055783    0.6329855   418189 
 4037000    0.6094142   -3.0070115   -3.0070115   -2.3717789  0.026827802   -3.0070115   0.63523265   418189 
 4038000   0.60815932    -3.006062    -3.006062   -2.3721374   0.02603725    -3.006062    0.6339246   418189 
 4039000   0.60809143    -3.006093    -3.006093   -2.3722392  0.039139905    -3.006093   0.63385384   418189 
 4040000   0.60905423   -3.0070941   -3.0070941   -2.3722367  0.023566719   -3.0070941   0.63485743   418189 
 4041000   0.60774562   -3.0052588   -3.0052588   -2.3717655  0.031106992   -3.0052588   0.63349338   418189 
 4042000   0.60819212   -3.0060071   -3.0060071   -2.3720483   0.03372968   -3.0060071   0.63395879   418189 
 4043000    0.6080166   -3.0062749   -3.0062749   -2.3724991  0.036974881   -3.0062749   0.63377584   418189 
 4044000   0.60938509   -3.0073723   -3.0073723     -2.37217   0.03301113   -3.0073723    0.6352023   418189 
 4045000   0.60789885   -3.0062828   -3.0062828   -2.3726297  0.036990153   -3.0062828    0.6336531   418189 
 4046000   0.60878975   -3.0066593   -3.0066593   -2.3720775  0.042210122   -3.0066593   0.63458174   418189 
 4047000   0.60713334    -3.004375    -3.004375   -2.3715199  0.038916029    -3.004375   0.63285516   418189 
 4048000   0.60824357   -3.0054948   -3.0054948   -2.3714823  0.027277441   -3.0054948   0.63401243   418189 
 4049000   0.60858845   -3.0063183   -3.0063183   -2.3719464  0.045958851   -3.0063183   0.63437192   418189 
 4050000   0.60759196   -3.0063049   -3.0063049   -2.3729717  0.025547949   -3.0063049   0.63333321   418189 
 4051000   0.60616967   -3.0045771   -3.0045771   -2.3727264  0.041767873   -3.0045771   0.63185066   418189 
 4052000   0.60590253   -3.0045789   -3.0045789   -2.3730067  0.043900839   -3.0045789    0.6315722   418189 
 4053000   0.60711571   -3.0059382   -3.0059382   -2.3731014  0.030882955   -3.0059382   0.63283678   418189 
 4054000    0.6081684   -3.0063919   -3.0063919   -2.3724579  0.038426134   -3.0063919   0.63393407   418189 
 4055000   0.60832986   -3.0059109   -3.0059109   -2.3718085  0.035002053   -3.0059109   0.63410237   418189 
 4056000   0.60818842   -3.0054623   -3.0054623   -2.3715074  0.028688647   -3.0054623   0.63395494   418189 
 4057000   0.60836878   -3.0062343   -3.0062343   -2.3720914  0.036531468   -3.0062343   0.63414294   418189 
 4058000   0.60969998    -3.007004    -3.007004   -2.3714735  0.035522491    -3.007004   0.63553053   418189 
 4059000   0.60806288   -3.0055216   -3.0055216   -2.3716976    0.0373007   -3.0055216   0.63382408   418189 
 4060000   0.60868414   -3.0060497   -3.0060497    -2.371578  0.039704819   -3.0060497   0.63447166   418189 
 4061000   0.60797949   -3.0055246   -3.0055246   -2.3717874  0.043346278   -3.0055246   0.63373716   418189 
 4062000   0.60757075   -3.0053657   -3.0053657   -2.3720546   0.03647924   -3.0053657    0.6333111   418189 
 4063000   0.60794602   -3.0055149   -3.0055149   -2.3718126  0.039868348   -3.0055149   0.63370227   418189 
 4064000   0.60844442   -3.0060578   -3.0060578   -2.3718361  0.041400444   -3.0060578   0.63422179   418189 
 4065000   0.60857025   -3.0063452   -3.0063452   -2.3719922  0.036409869   -3.0063452   0.63435295   418189 
 4066000   0.60869397   -3.0068046   -3.0068046   -2.3723227    0.0229848   -3.0068046   0.63448191   418189 
 4067000   0.60786988   -3.0060358   -3.0060358   -2.3724129  0.036947518   -3.0060358    0.6336229   418189 
 4068000   0.60893019   -3.0073809   -3.0073809   -2.3726528   0.04361634   -3.0073809   0.63472813   418189 
 4069000   0.60818132   -3.0061327   -3.0061327   -2.3721852  0.037844381   -3.0061327   0.63394754   418189 
 4070000   0.60984661   -3.0081582   -3.0081582   -2.3724748  0.034201698   -3.0081582   0.63568338   418189 
 4071000   0.60785766   -3.0057747   -3.0057747   -2.3721646   0.03302614   -3.0057747   0.63361016   418189 
 4072000   0.60819007   -3.0057265   -3.0057265   -2.3717698  0.049045234   -3.0057265   0.63395666   418189 
 4073000   0.60857273   -3.0067697   -3.0067697   -2.3724141  0.042473806   -3.0067697   0.63435553   418189 
 4074000   0.60945462   -3.0082714   -3.0082714   -2.3729966  0.029568799   -3.0082714   0.63527478   418189 
 4075000    0.6082006   -3.0071133   -3.0071133   -2.3731457  0.029800297   -3.0071133   0.63396763   418189 
 4076000   0.60895247   -3.0074658   -3.0074658   -2.3727145  0.036518036   -3.0074658   0.63475135   418189 
 4077000   0.60855612   -3.0074671   -3.0074671   -2.3731289  0.028072158   -3.0074671   0.63433821   418189 
 4078000   0.60801652   -3.0076699   -3.0076699   -2.3738941  0.036538976   -3.0076699   0.63377575   418189 
 4079000   0.60764029   -3.0073134   -3.0073134   -2.3739298  0.029653528   -3.0073134   0.63338359   418189 
 4080000    0.6064075    -3.006693    -3.006693   -2.3745944   0.02953557    -3.006693   0.63209857   418189 
 4081000   0.60811061    -3.008226    -3.008226   -2.3743522   0.02527617    -3.008226   0.63387383   418189 
 4082000   0.60678397   -3.0064237   -3.0064237   -2.3739327  0.028956195   -3.0064237   0.63249099   418189 
 4083000   0.60905366   -3.0085161   -3.0085161   -2.3736593  0.040202527   -3.0085161   0.63485683   418189 
 4084000   0.60781099   -3.0065734   -3.0065734   -2.3730119  0.032189518   -3.0065734   0.63356152   418189 
 4085000    0.6080459   -3.0062792   -3.0062792   -2.3724728  0.039729084   -3.0062792   0.63380638   418189 
 4086000    0.6078434    -3.006445    -3.006445   -2.3728497  0.041455439    -3.006445    0.6335953   418189 
 4087000   0.60872695   -3.0075332   -3.0075332   -2.3730169  0.048294117   -3.0075332   0.63451629   418189 
 4088000   0.60963883    -3.009626    -3.009626   -2.3741592  0.030070688    -3.009626   0.63546679   418189 
 4089000   0.61029952   -3.0096773   -3.0096773   -2.3735218  0.039111397   -3.0096773   0.63615547   418189 
 4090000   0.60890397   -3.0096828   -3.0096828   -2.3749819  0.036664409   -3.0096828   0.63470081   418189 
 4091000   0.60713317   -3.0070381   -3.0070381   -2.3741831  0.026594787   -3.0070381   0.63285498   418189 
 4092000   0.60842132   -3.0087752   -3.0087752   -2.3745775  0.031192356   -3.0087752   0.63419771   418189 
 4093000   0.60712351   -3.0074091   -3.0074091   -2.3745642  0.032046539   -3.0074091   0.63284491   418189 
 4094000   0.60841426    -3.008853    -3.008853   -2.3746627  0.027806113    -3.008853   0.63419035   418189 
 4095000   0.60881784   -3.0087712   -3.0087712   -2.3741602  0.036395947   -3.0087712   0.63461102   418189 
 4096000   0.60852469   -3.0077288   -3.0077288   -2.3734233  0.038530523   -3.0077288   0.63430545   418189 
 4097000   0.60883365   -3.0075806   -3.0075806   -2.3729531  0.034634983   -3.0075806    0.6346275   418189 
 4098000   0.60883732   -3.0086166   -3.0086166   -2.3739853  0.036263737   -3.0086166   0.63463133   418189 
 4099000   0.60863646   -3.0086466   -3.0086466   -2.3742247  0.034948704   -3.0086466   0.63442196   418189 
 4100000    0.6086484   -3.0079498   -3.0079498   -2.3735154   0.02647924   -3.0079498   0.63443441   418189 
 4101000   0.60955086   -3.0094415   -3.0094415   -2.3740664  0.031824799   -3.0094415    0.6353751   418189 
 4102000    0.6102638   -3.0100707   -3.0100707   -2.3739525    0.0386383   -3.0100707   0.63611825   418189 
 4103000   0.60881464   -3.0085886   -3.0085886   -2.3739809   0.04503328   -3.0085886   0.63460769   418189 
 4104000   0.61030291   -3.0100529   -3.0100529   -2.3738939  0.040310692   -3.0100529   0.63615901   418189 
 4105000   0.61034775    -3.009657    -3.009657   -2.3734512  0.025809262    -3.009657   0.63620575   418189 
 4106000   0.60902454   -3.0080323   -3.0080323   -2.3732058  0.039249705   -3.0080323   0.63482648   418189 
 4107000    0.6078749   -3.0072277   -3.0072277   -2.3735995  0.028567024   -3.0072277   0.63362813   418189 
 4108000   0.60727927   -3.0062736   -3.0062736   -2.3732663  0.035613601   -3.0062736   0.63300727   418189 
 4109000   0.60775746   -3.0073092   -3.0073092   -2.3738035  0.030007104   -3.0073092   0.63350572   418189 
 4110000   0.60718065   -3.0067864   -3.0067864    -2.373882  0.032132684   -3.0067864   0.63290448   418189 
 4111000   0.60750609   -3.0070068   -3.0070068   -2.3737631   0.03346893   -3.0070068    0.6332437   418189 
 4112000   0.60745253   -3.0073328   -3.0073328   -2.3741449  0.029632556   -3.0073328   0.63318788   418189 
 4113000   0.60662599   -3.0068555   -3.0068555   -2.3745292  0.029531331   -3.0068555   0.63232631   418189 
 4114000    0.6090295    -3.008435    -3.008435   -2.3736033  0.039757345    -3.008435   0.63483165   418189 
 4115000   0.60779827   -3.0073742   -3.0073742   -2.3738259  0.045999561   -3.0073742   0.63354826   418189 
 4116000   0.60833472   -3.0075126   -3.0075126   -2.3734052  0.040754151   -3.0075126   0.63410744   418189 
 4117000   0.60866438   -3.0082582   -3.0082582   -2.3738072  0.035839076   -3.0082582   0.63445106   418189 
 4118000   0.60767402   -3.0075084   -3.0075084   -2.3740896  0.036652927   -3.0075084   0.63341875   418189 
 4119000   0.60753518   -3.0076549   -3.0076549   -2.3743809  0.030385372   -3.0076549   0.63327402   418189 
 4120000   0.60761642   -3.0074004   -3.0074004   -2.3740417  0.038381446   -3.0074004    0.6333587   418189 
 4121000   0.60801954   -3.0073032   -3.0073032   -2.3735243  0.033472765   -3.0073032   0.63377891   418189 
 4122000   0.60847711   -3.0085402   -3.0085402   -2.3742844  0.029420488   -3.0085402   0.63425586   418189 
 4123000   0.60809197   -3.0076881   -3.0076881   -2.3738337   0.04049746   -3.0076881    0.6338544   418189 
 4124000   0.60756992   -3.0078118   -3.0078118   -2.3745015  0.030333673   -3.0078118   0.63331024   418189 
 4125000   0.60844696   -3.0087385   -3.0087385   -2.3745141  0.036382345   -3.0087385   0.63422444   418189 
 4126000   0.60850606   -3.0093671   -3.0093671    -2.375081  0.039034203   -3.0093671   0.63428604   418189 
 4127000   0.60916418   -3.0090615   -3.0090615   -2.3740894  0.037944196   -3.0090615   0.63497204   418189 
 4128000   0.60910828   -3.0087914   -3.0087914   -2.3738777  0.041724629   -3.0087914   0.63491376   418189 
 4129000   0.60915031   -3.0096124   -3.0096124   -2.3746548   0.03687057   -3.0096124   0.63495758   418189 
 4130000   0.60784144    -3.008992    -3.008992   -2.3753987  0.031457753    -3.008992   0.63359325   418189 
 4131000   0.60829721   -3.0094897   -3.0094897   -2.3754213  0.032206204   -3.0094897   0.63406834   418189 
 4132000   0.60604517   -3.0072502   -3.0072502   -2.3755293  0.046724033   -3.0072502   0.63172089   418189 
 4133000   0.60748906   -3.0084212   -3.0084212   -2.3751953  0.030316218   -3.0084212   0.63322595   418189 
 4134000   0.60814315   -3.0088423   -3.0088423   -2.3749345  0.034605025   -3.0088423   0.63390775   418189 
 4135000   0.60818304   -3.0091431   -3.0091431   -2.3751937  0.035102147   -3.0091431   0.63394933   418189 
 4136000   0.60822866      -3.0092      -3.0092   -2.3752031  0.038008035      -3.0092   0.63399688   418189 
 4137000   0.60847963    -3.009494    -3.009494   -2.3752355  0.039986341    -3.009494   0.63425849   418189 
 4138000   0.60919562   -3.0095143   -3.0095143   -2.3745095   0.03304381   -3.0095143   0.63500481   418189 
 4139000   0.60843927   -3.0087965   -3.0087965   -2.3745801  0.040379384   -3.0087965   0.63421642   418189 
 4140000   0.60902044   -3.0094815   -3.0094815   -2.3746593  0.040547373   -3.0094815    0.6348222   418189 
 4141000   0.60918454   -3.0099005   -3.0099005   -2.3749072  0.037467917   -3.0099005   0.63499326   418189 
 4142000   0.60871423   -3.0092126   -3.0092126   -2.3747096  0.036285439   -3.0092126   0.63450302   418189 
 4143000   0.60825903   -3.0085831   -3.0085831   -2.3745546  0.042762536   -3.0085831   0.63402854   418189 
 4144000   0.60745535   -3.0088513   -3.0088513   -2.3756605  0.027792201   -3.0088513   0.63319081   418189 
 4145000   0.60852827   -3.0102834   -3.0102834   -2.3759743  0.033911771   -3.0102834   0.63430919   418189 
 4146000   0.60889381   -3.0097916   -3.0097916   -2.3751014  0.045223026   -3.0097916   0.63469021   418189 
 4147000   0.60741934   -3.0093895   -3.0093895   -2.3762363  0.038149375   -3.0093895   0.63315328   418189 
 4148000   0.60758731   -3.0100324   -3.0100324    -2.376704  0.036051619   -3.0100324   0.63332836   418189 
 4149000   0.60790088   -3.0104935   -3.0104935   -2.3768383  0.045359812   -3.0104935   0.63365521   418189 
 4150000   0.60792588    -3.010547    -3.010547   -2.3768657  0.027448315    -3.010547   0.63368127   418189 
 4151000   0.60826834   -3.0107627   -3.0107627   -2.3767244  0.039248323   -3.0107627   0.63403824   418189 
 4152000   0.60906558   -3.0115483   -3.0115483   -2.3766791  0.031151977   -3.0115483   0.63486926   418189 
 4153000   0.60894801    -3.011297    -3.011297   -2.3765503  0.041797478    -3.011297   0.63474671   418189 
 4154000   0.60795468   -3.0103323   -3.0103323    -2.376621  0.030934951   -3.0103323   0.63371129   418189 
 4155000   0.60665883   -3.0092684   -3.0092684   -2.3769079  0.033494163   -3.0092684   0.63236055   418189 
 4156000   0.60832424   -3.0106559   -3.0106559   -2.3765594  0.032464345   -3.0106559   0.63409651   418189 
 4157000   0.60771153   -3.0100953   -3.0100953   -2.3766375  0.033254347   -3.0100953   0.63345785   418189 
 4158000   0.60901695    -3.011283    -3.011283   -2.3764644  0.029742827    -3.011283   0.63481857   418189 
 4159000   0.60868143   -3.0103405   -3.0103405   -2.3758716  0.037907169   -3.0103405   0.63446883   418189 
 4160000   0.60836678   -3.0104015   -3.0104015   -2.3762607  0.034927452   -3.0104015   0.63414085   418189 
 4161000    0.6078108   -3.0109445   -3.0109445   -2.3773832  0.036060084   -3.0109445   0.63356132   418189 
 4162000   0.60879631   -3.0113439   -3.0113439   -2.3767553  0.040426317   -3.0113439   0.63458859   418189 
 4163000     0.607226   -3.0101358   -3.0101358    -2.377184   0.03954216   -3.0101358   0.63295174   418189 
 4164000    0.6071937   -3.0099295   -3.0099295   -2.3770114  0.021546621   -3.0099295   0.63291807   418189 
 4165000   0.60791798   -3.0108653   -3.0108653   -2.3771923  0.043197544   -3.0108653   0.63367304   418189 
 4166000    0.6071777   -3.0100836   -3.0100836   -2.3771822    0.0337148   -3.0100836    0.6329014   418189 
 4167000   0.60841099   -3.0109667   -3.0109667   -2.3767798  0.039038819   -3.0109667   0.63418694   418189 
 4168000   0.60732646   -3.0106056   -3.0106056   -2.3775491  0.040847264   -3.0106056   0.63305646   418189 
 4169000   0.60648135   -3.0095366   -3.0095366   -2.3773611   0.04253439   -3.0095366   0.63217555   418189 
 4170000   0.60848524    -3.011625    -3.011625   -2.3773607  0.024843891    -3.011625   0.63426433   418189 
 4171000   0.60649228   -3.0095097   -3.0095097   -2.3773227  0.032935178   -3.0095097   0.63218694   418189 
 4172000   0.60769519    -3.010103    -3.010103   -2.3766622  0.037375718    -3.010103   0.63344081   418189 
 4173000   0.60975778   -3.0122221   -3.0122221   -2.3766314  0.034973108   -3.0122221   0.63559078   418189 
 4174000   0.60646458    -3.009433    -3.009433   -2.3772749  0.032980699    -3.009433   0.63215807   418189 
 4175000   0.60916515   -3.0124424   -3.0124424   -2.3774694  0.040834017   -3.0124424   0.63497304   418189 
 4176000   0.60816449   -3.0114664   -3.0114664   -2.3775364  0.020057113   -3.0114664      0.63393   418189 
 4177000    0.6082998   -3.0113826   -3.0113826   -2.3773116  0.035336233   -3.0113826   0.63407104   418189 
 4178000   0.60744441   -3.0107965   -3.0107965   -2.3776171  0.032398729   -3.0107965   0.63317941   418189 
 4179000   0.60844144   -3.0113594   -3.0113594   -2.3771407   0.03895286   -3.0113594   0.63421867   418189 
 4180000   0.60807244    -3.011604    -3.011604   -2.3777699  0.037479482    -3.011604   0.63383405   418189 
 4181000    0.6085498   -3.0122143   -3.0122143   -2.3778827  0.041217766   -3.0122143   0.63433163   418189 
 4182000   0.60969792    -3.013526    -3.013526   -2.3779976  0.039013966    -3.013526   0.63552839   418189 
 4183000   0.60936695   -3.0128741   -3.0128741   -2.3776907  0.041350033   -3.0128741    0.6351834   418189 
 4184000   0.60919778   -3.0133047   -3.0133047   -2.3782976  0.040732445   -3.0133047   0.63500707   418189 
 4185000   0.60800667    -3.011736    -3.011736   -2.3779705  0.041870077    -3.011736   0.63376549   418189 
 4186000   0.60862622    -3.012824    -3.012824   -2.3784127  0.031406656    -3.012824   0.63441128   418189 
 4187000   0.60873795   -3.0123969   -3.0123969   -2.3778691  0.031670872   -3.0123969   0.63452774   418189 
 4188000   0.60654284   -3.0106729   -3.0106729   -2.3784332  0.033611139   -3.0106729   0.63223964   418189 
 4189000   0.60721149   -3.0104676   -3.0104676    -2.377531  0.030985254   -3.0104676   0.63293661   418189 
 4190000   0.60914994   -3.0119787   -3.0119787   -2.3770215  0.035325438   -3.0119787    0.6349572   418189 
 4191000   0.60859654   -3.0118899   -3.0118899   -2.3775095  0.028052817   -3.0118899   0.63438035   418189 
 4192000   0.60816098   -3.0118929   -3.0118929   -2.3779666  0.035341071   -3.0118929   0.63392633   418189 
 4193000   0.60879438   -3.0122169   -3.0122169   -2.3776304  0.032232967   -3.0122169   0.63458657   418189 
 4194000   0.60648477   -3.0098639   -3.0098639   -2.3776848  0.035828567   -3.0098639   0.63217911   418189 
 4195000   0.60855393   -3.0114446   -3.0114446   -2.3771087   0.02733507   -3.0114446   0.63433594   418189 
 4196000   0.60873813    -3.011781    -3.011781   -2.3772531  0.028497389    -3.011781   0.63452794   418189 
 4197000   0.60973159   -3.0134698   -3.0134698   -2.3779064  0.026533323   -3.0134698   0.63556349   418189 
 4198000   0.60864106   -3.0114939   -3.0114939   -2.3770671  0.035941318   -3.0114939   0.63442675   418189 
 4199000   0.60999298   -3.0123628   -3.0123628   -2.3765268  0.036364547   -3.0123628   0.63583595   418189 
 4200000   0.60864119   -3.0105001   -3.0105001   -2.3760733  0.029228405   -3.0105001   0.63442689   418189 
 4201000   0.60977395   -3.0119999   -3.0119999   -2.3763922  0.041378067   -3.0119999   0.63560764   418189 
 4202000   0.60937907   -3.0115263   -3.0115263   -2.3763303  0.044053006   -3.0115263   0.63519603   418189 
 4203000   0.60892822   -3.0121337   -3.0121337   -2.3774076  0.036503863   -3.0121337   0.63472608   418189 
 4204000   0.60839113   -3.0116985   -3.0116985   -2.3775322  0.031919191   -3.0116985   0.63416624   418189 
 4205000   0.60801293   -3.0116349   -3.0116349   -2.3778629  0.031100074   -3.0116349   0.63377201   418189 
 4206000   0.60860694   -3.0123258   -3.0123258   -2.3779346  0.038186083   -3.0123258   0.63439119   418189 
 4207000   0.60805048    -3.012686    -3.012686   -2.3788749  0.021746069    -3.012686   0.63381116   418189 
 4208000   0.60744207   -3.0125169   -3.0125169   -2.3793399  0.037164758   -3.0125169   0.63317697   418189 
 4209000   0.60881875    -3.013427    -3.013427    -2.378815  0.035967606    -3.013427   0.63461198   418189 
 4210000   0.60879778   -3.0133292   -3.0133292   -2.3787391  0.040213478   -3.0133292   0.63459011   418189 
 4211000   0.60915145   -3.0135135   -3.0135135   -2.3785547  0.044856313   -3.0135135   0.63495877   418189 
 4212000   0.60715757   -3.0128425   -3.0128425   -2.3799621  0.028804064   -3.0128425   0.63288042   418189 
 4213000   0.60756419   -3.0135746   -3.0135746   -2.3802704  0.040559698   -3.0135746   0.63330426   418189 
 4214000    0.6075772   -3.0136592   -3.0136592   -2.3803414  0.046152036   -3.0136592   0.63331783   418189 
 4215000   0.60884774   -3.0149724   -3.0149724   -2.3803302   0.04057616   -3.0149724   0.63464219   418189 
 4216000   0.60787906   -3.0137017   -3.0137017   -2.3800692  0.042747756   -3.0137017   0.63363248   418189 
 4217000   0.60805038   -3.0132887   -3.0132887   -2.3794776  0.031086584   -3.0132887   0.63381105   418189 
 4218000   0.60687644   -3.0120889   -3.0120889   -2.3795015  0.037458653   -3.0120889   0.63258738   418189 
 4219000   0.60964273   -3.0149193   -3.0149193   -2.3794484  0.032851003   -3.0149193   0.63547086   418189 
 4220000   0.60851607   -3.0134854   -3.0134854   -2.3791889  0.030417804   -3.0134854   0.63429647   418189 
 4221000   0.60768255    -3.013244    -3.013244   -2.3798163  0.046047429    -3.013244   0.63342764   418189 
 4222000   0.60892819   -3.0146234   -3.0146234   -2.3798973  0.030743513   -3.0146234   0.63472605   418189 
 4223000   0.60937937   -3.0143396   -3.0143396   -2.3791433  0.037453818   -3.0143396   0.63519634   418189 
 4224000   0.60845489   -3.0131443   -3.0131443   -2.3789116  0.039018597   -3.0131443    0.6342327   418189 
 4225000   0.60857894   -3.0141474   -3.0141474   -2.3797854  0.040697049   -3.0141474     0.634362   418189 
 4226000   0.60906362   -3.0140073   -3.0140073   -2.3791401  0.038923282   -3.0140073   0.63486722   418189 
 4227000   0.60916387   -3.0144763   -3.0144763   -2.3795046   0.04028278   -3.0144763   0.63497171   418189 
 4228000   0.60802501   -3.0127668   -3.0127668   -2.3789822  0.048997412   -3.0127668    0.6337846   418189 
 4229000   0.60808072   -3.0143272   -3.0143272   -2.3804845  0.032766854   -3.0143272   0.63384268   418189 
 4230000   0.60810186   -3.0150494   -3.0150494   -2.3811847  0.032036143   -3.0150494   0.63386471   418189 
 4231000   0.60663226   -3.0130828   -3.0130828   -2.3807499   0.03406336   -3.0130828   0.63233285   418189 
 4232000   0.60773552   -3.0134474   -3.0134474   -2.3799646  0.041559272   -3.0134474   0.63348285   418189 
 4233000   0.60777858   -3.0142241   -3.0142241   -2.3806963  0.041044701   -3.0142241   0.63352774   418189 
 4234000   0.60735125   -3.0128549   -3.0128549   -2.3797726  0.030767148   -3.0128549    0.6330823   418189 
 4235000   0.60778451   -3.0135152   -3.0135152   -2.3799812  0.033556875   -3.0135152   0.63353391   418189 
 4236000   0.60771667   -3.0138242   -3.0138242    -2.380361  0.032174063   -3.0138242    0.6334632   418189 
 4237000   0.60724649   -3.0133386   -3.0133386   -2.3803655  0.038277472   -3.0133386    0.6329731   418189 
 4238000   0.60782934   -3.0141298   -3.0141298   -2.3805491  0.041695955   -3.0141298   0.63358065   418189 
 4239000   0.60734552    -3.013757    -3.013757   -2.3806807  0.030702687    -3.013757   0.63307633   418189 
 4240000       0.6068   -3.0124307   -3.0124307   -2.3799231  0.041346054   -3.0124307    0.6325077   418189 
 4241000   0.60759385   -3.0128299   -3.0128299   -2.3794947  0.032446822   -3.0128299   0.63333518   418189 
 4242000   0.60777571   -3.0136149   -3.0136149   -2.3800902  0.041038341   -3.0136149   0.63352474   418189 
 4243000   0.60781922   -3.0139615   -3.0139615   -2.3803914  0.038350911   -3.0139615    0.6335701   418189 
 4244000   0.60766307   -3.0133109   -3.0133109   -2.3799035  0.036602088   -3.0133109   0.63340733   418189 
 4245000   0.60847519   -3.0147159   -3.0147159   -2.3804621  0.037450505   -3.0147159   0.63425386   418189 
 4246000   0.60816075    -3.015159    -3.015159   -2.3812329  0.037056897    -3.015159   0.63392609   418189 
 4247000   0.60894593   -3.0166699   -3.0166699   -2.3819254  0.040860605   -3.0166699   0.63474454   418189 
 4248000   0.60670624   -3.0140972   -3.0140972   -2.3816873  0.027170327   -3.0140972   0.63240997   418189 
 4249000   0.60904954   -3.0165251   -3.0165251   -2.3816725  0.032982384   -3.0165251   0.63485254   418189 
 4250000   0.60723932    -3.014946    -3.014946   -2.3819804  0.039265043    -3.014946   0.63296563   418189 
 4251000   0.60768719   -3.0152923   -3.0152923   -2.3818599  0.035533881   -3.0152923   0.63343247   418189 
 4252000   0.60810936   -3.0156278   -3.0156278   -2.3817553  0.030589971   -3.0156278   0.63387253   418189 
 4253000   0.60926763   -3.0165752   -3.0165752   -2.3814953  0.040913539   -3.0165752   0.63507987   418189 
 4254000   0.60715015   -3.0143381   -3.0143381   -2.3814654  0.037457182   -3.0143381   0.63287268   418189 
 4255000   0.60796984   -3.0153377   -3.0153377   -2.3816106  0.038785768   -3.0153377   0.63372709   418189 
 4256000   0.60849392   -3.0165101   -3.0165101   -2.3822367  0.030786365   -3.0165101   0.63427338   418189 
 4257000   0.60734393   -3.0145007   -3.0145007   -2.3814261  0.023865814   -3.0145007   0.63307467   418189 
 4258000   0.60849358   -3.0160706   -3.0160706   -2.3817976  0.033773715   -3.0160706   0.63427302   418189 
 4259000   0.60688184   -3.0140628   -3.0140628   -2.3814698  0.042490706   -3.0140628     0.632593   418189 
 4260000   0.60861089   -3.0156505   -3.0156505   -2.3812552  0.038539187   -3.0156505    0.6343953   418189 
 4261000    0.6087424   -3.0154495   -3.0154495   -2.3809171  0.047320705   -3.0154495   0.63453239   418189 
 4262000    0.6090786   -3.0169403   -3.0169403   -2.3820575  0.023736278   -3.0169403   0.63488283   418189 
 4263000   0.60978753   -3.0170413   -3.0170413   -2.3814195  0.039796203   -3.0170413    0.6356218   418189 
 4264000   0.60928616   -3.0166716   -3.0166716   -2.3815724  0.031167018   -3.0166716   0.63509918   418189 
 4265000   0.60755946    -3.015545    -3.015545   -2.3822456  0.030818248    -3.015545   0.63329933   418189 
 4266000    0.6086962   -3.0173105   -3.0173105   -2.3828263  0.033693849   -3.0173105   0.63448423   418189 
 4267000   0.60668385   -3.0154553   -3.0154553   -2.3830687  0.045943572   -3.0154553   0.63238662   418189 
 4268000   0.60785534   -3.0177059   -3.0177059   -2.3840981  0.026963851   -3.0177059   0.63360774   418189 
 4269000   0.60840136   -3.0179222   -3.0179222   -2.3837453  0.047767894   -3.0179222   0.63417689   418189 
 4270000   0.60767935   -3.0170814   -3.0170814   -2.3836571  0.028131337   -3.0170814    0.6334243   418189 
 4271000   0.60739537   -3.0164824   -3.0164824   -2.3833541  0.036613422   -3.0164824   0.63312829   418189 
 4272000   0.60718893   -3.0163974   -3.0163974   -2.3834843  0.041025813   -3.0163974    0.6329131   418189 
 4273000   0.60737783   -3.0160986   -3.0160986   -2.3829886   0.02447287   -3.0160986   0.63311001   418189 
 4274000   0.60737252   -3.0166987   -3.0166987   -2.3835942  0.038151156   -3.0166987   0.63310447   418189 
 4275000   0.60689146   -3.0163024   -3.0163024   -2.3836993  0.040291852   -3.0163024   0.63260303   418189 
 4276000   0.60865763   -3.0169562   -3.0169562   -2.3825122  0.026251021   -3.0169562   0.63444403   418189 
 4277000   0.60686859   -3.0151584   -3.0151584   -2.3825792  0.042659897   -3.0151584    0.6325792   418189 
 4278000   0.60830013   -3.0167597   -3.0167597   -2.3826883  0.037526918   -3.0167597   0.63407138   418189 
 4279000   0.60992197   -3.0182747   -3.0182747   -2.3825128  0.042441107   -3.0182747   0.63576193   418189 
 4280000    0.6079655   -3.0164947   -3.0164947   -2.3827721  0.042321157   -3.0164947   0.63372257   418189 
 4281000   0.60809124    -3.017108    -3.017108   -2.3832543  0.047564621    -3.017108   0.63385364   418189 
 4282000   0.60779687   -3.0169866   -3.0169866   -2.3834398  0.046359764   -3.0169866    0.6335468   418189 
 4283000   0.60757427   -3.0168142   -3.0168142   -2.3834995  0.037969949   -3.0168142   0.63331477   418189 
 4284000   0.60810821   -3.0175346   -3.0175346   -2.3836633  0.035685402   -3.0175346   0.63387133   418189 
 4285000    0.6076398    -3.017384    -3.017384    -2.384001  0.039617225    -3.017384   0.63338307   418189 
 4286000   0.60629333   -3.0163324   -3.0163324   -2.3843528  0.041645077   -3.0163324   0.63197956   418189 
 4287000    0.6071595   -3.0169501   -3.0169501   -2.3840677   0.03454566   -3.0169501   0.63288243   418189 
 4288000   0.60773007   -3.0176498   -3.0176498   -2.3841727  0.032671145   -3.0176498   0.63347716   418189 
 4289000    0.6078042   -3.0176687   -3.0176687   -2.3841143   0.03769043   -3.0176687   0.63355444   418189 
 4290000   0.60704316   -3.0161863   -3.0161863   -2.3834252  0.038457149   -3.0161863   0.63276116   418189 
 4291000   0.60722581   -3.0162382   -3.0162382   -2.3832867  0.040091836   -3.0162382   0.63295155   418189 
 4292000   0.60736268   -3.0163237   -3.0163237   -2.3832295  0.031040721   -3.0163237   0.63309421   418189 
 4293000   0.60890963   -3.0169978   -3.0169978   -2.3822911  0.030298141   -3.0169978   0.63470671   418189 
 4294000   0.60860149   -3.0164128   -3.0164128   -2.3820273  0.035651954   -3.0164128   0.63438551   418189 
 4295000   0.60841649   -3.0167786   -3.0167786   -2.3825859  0.031127814   -3.0167786   0.63419267   418189 
 4296000   0.60859525    -3.016296    -3.016296    -2.381917  0.038183368    -3.016296     0.634379   418189 
 4297000    0.6077609   -3.0158852   -3.0158852   -2.3823759  0.038293478   -3.0158852    0.6335093   418189 
 4298000   0.60910324   -3.0173851   -3.0173851   -2.3824766  0.043290977   -3.0173851   0.63490852   418189 
 4299000   0.60785739   -3.0166786   -3.0166786   -2.3830687  0.033002967   -3.0166786   0.63360988   418189 
 4300000    0.6078582   -3.0167164   -3.0167164   -2.3831057  0.036984403   -3.0167164   0.63361073   418189 
 4301000   0.60825783   -3.0164666   -3.0164666   -2.3824394  0.030260986   -3.0164666   0.63402729   418189 
 4302000   0.60795466   -3.0160827   -3.0160827   -2.3823714   0.03367933   -3.0160827   0.63371128   418189 
 4303000   0.60756785   -3.0156801   -3.0156801    -2.382372   0.03400229   -3.0156801   0.63330807   418189 
 4304000   0.60801671   -3.0158859   -3.0158859     -2.38211  0.032514626   -3.0158859   0.63377596   418189 
 4305000    0.6085328   -3.0159065   -3.0159065   -2.3815926  0.031997021   -3.0159065    0.6343139   418189 
 4306000   0.60807506   -3.0155329   -3.0155329   -2.3816961  0.030212785   -3.0155329   0.63383678   418189 
 4307000   0.60683588   -3.0146286   -3.0146286   -2.3820835  0.040066802   -3.0146286    0.6325451   418189 
 4308000   0.60589518   -3.0131281   -3.0131281   -2.3815636  0.029121063   -3.0131281   0.63156454   418189 
 4309000   0.60871197   -3.0166072   -3.0166072   -2.3821065   0.04032698   -3.0166072   0.63450066   418189 
 4310000   0.60660679   -3.0144798   -3.0144798   -2.3821735  0.032555037   -3.0144798    0.6323063   418189 
 4311000   0.60734676   -3.0153711   -3.0153711   -2.3822935  0.027377564   -3.0153711   0.63307762   418189 
 4312000   0.60659347   -3.0136904   -3.0136904    -2.381398  0.038247274   -3.0136904   0.63229242   418189 
 4313000   0.60719893   -3.0145807   -3.0145807   -2.3816572  0.032936676   -3.0145807   0.63292353   418189 
 4314000   0.60837389    -3.015744    -3.015744   -2.3815957  0.038837709    -3.015744   0.63414827   418189 
 4315000   0.60734466   -3.0149087   -3.0149087   -2.3818332  0.037713956   -3.0149087   0.63307543   418189 
 4316000   0.60785773   -3.0153593   -3.0153593   -2.3817491  0.043646375   -3.0153593   0.63361023   418189 
 4317000   0.60871245   -3.0162256   -3.0162256   -2.3817245  0.036143549   -3.0162256   0.63450117   418189 
 4318000   0.60791259   -3.0159821   -3.0159821   -2.3823147  0.032226581   -3.0159821   0.63366743   418189 
 4319000    0.6064438   -3.0149487   -3.0149487   -2.3828123  0.039113503   -3.0149487   0.63213641   418189 
 4320000   0.60690852   -3.0148611   -3.0148611   -2.3822403  0.038405076   -3.0148611   0.63262082   418189 
 4321000   0.60877285   -3.0164983   -3.0164983   -2.3819341  0.034255428   -3.0164983   0.63456412   418189 
 4322000   0.60896299    -3.017248    -3.017248   -2.3824856  0.042426833    -3.017248   0.63476233   418189 
 4323000   0.60809107   -3.0161678   -3.0161678   -2.3823143  0.035782265   -3.0161678   0.63385346   418189 
 4324000   0.60828852   -3.0165628   -3.0165628   -2.3825035  0.037116746   -3.0165628   0.63405928   418189 
 4325000   0.60874556   -3.0176276   -3.0176276   -2.3830919  0.034499926   -3.0176276   0.63453568   418189 
 4326000   0.60844956   -3.0160271   -3.0160271      -2.3818  0.043717021   -3.0160271   0.63422714   418189 
 4327000   0.60809208   -3.0154499   -3.0154499   -2.3815954   0.04381803   -3.0154499   0.63385452   418189 
 4328000   0.60685636   -3.0149723   -3.0149723   -2.3824059  0.023249894   -3.0149723   0.63256644   418189 
 4329000   0.60743968   -3.0154593   -3.0154593   -2.3822848  0.033205624   -3.0154593   0.63317448   418189 
 4330000    0.6071607   -3.0160018   -3.0160018   -2.3831181  0.042064836   -3.0160018   0.63288368   418189 
 4331000   0.60718387   -3.0153529   -3.0153529   -2.3824451  0.026765327   -3.0153529   0.63290783   418189 
 4332000   0.60712063   -3.0156364   -3.0156364   -2.3827945  0.042036759   -3.0156364   0.63284191   418189 
 4333000    0.6075272   -3.0161273   -3.0161273   -2.3828616  0.048697884   -3.0161273   0.63326571   418189 
 4334000   0.60639873   -3.0145164   -3.0145164    -2.382427  0.028108908   -3.0145164   0.63208943   418189 
 4335000   0.60695146   -3.0147485   -3.0147485    -2.382083  0.037303959   -3.0147485   0.63266558   418189 
 4336000   0.60717924   -3.0157399   -3.0157399   -2.3828369  0.033530258   -3.0157399     0.632903   418189 
 4337000   0.60673551   -3.0149343   -3.0149343   -2.3824938  0.031555369   -3.0149343   0.63244047   418189 
 4338000   0.60843395   -3.0166272   -3.0166272   -2.3824164  0.039625548   -3.0166272   0.63421087   418189 
 4339000   0.60691087   -3.0153583   -3.0153583   -2.3827351  0.046817563   -3.0153583   0.63262326   418189 
 4340000   0.60755027   -3.0162285   -3.0162285   -2.3829387  0.042501143   -3.0162285   0.63328976   418189 
 4341000   0.60717608   -3.0163648   -3.0163648   -2.3834651  0.041710917   -3.0163648   0.63289971   418189 
 4342000   0.60754022   -3.0164263   -3.0164263   -2.3831471  0.031111675   -3.0164263   0.63327928   418189 
 4343000   0.60713611   -3.0158101   -3.0158101    -2.382952  0.043688624   -3.0158101   0.63285804   418189 
 4344000   0.60623043   -3.0150989   -3.0150989   -2.3831849  0.035396658   -3.0150989   0.63191399   418189 
 4345000   0.60665162   -3.0158125   -3.0158125   -2.3834595  0.032051951   -3.0158125   0.63235303   418189 
 4346000   0.60761224   -3.0161988   -3.0161988   -2.3828444  0.038960347   -3.0161988   0.63335435   418189 
 4347000   0.60772055   -3.0164954   -3.0164954   -2.3830281  0.040673494   -3.0164954   0.63346724   418189 
 4348000   0.60891256   -3.0171229   -3.0171229   -2.3824131  0.033316872   -3.0171229   0.63470976   418189 
 4349000   0.60745576   -3.0160567   -3.0160567   -2.3828655   0.04472658   -3.0160567   0.63319124   418189 
 4350000   0.60709214   -3.0154153   -3.0154153   -2.3826031  0.041464566   -3.0154153   0.63281221   418189 
 4351000   0.60855867   -3.0164998   -3.0164998   -2.3821589  0.042614305   -3.0164998   0.63434087   418189 
 4352000     0.609761   -3.0178744   -3.0178744   -2.3822802  0.046414368   -3.0178744   0.63559414   418189 
 4353000   0.60754444   -3.0156531   -3.0156531   -2.3823695  0.047762152   -3.0156531   0.63328367   418189 
 4354000   0.60690384   -3.0147932   -3.0147932   -2.3821773  0.039292845   -3.0147932   0.63261594   418189 
 4355000   0.60656899   -3.0150613   -3.0150613   -2.3827944  0.039205242   -3.0150613    0.6322669   418189 
 4356000   0.60620157   -3.0150159   -3.0150159    -2.383132  0.033557121   -3.0150159   0.63188392   418189 
 4357000   0.60792785   -3.0167212   -3.0167212   -2.3830379  0.026177713   -3.0167212   0.63368332   418189 
 4358000   0.60691633   -3.0159312   -3.0159312   -2.3833022  0.038893119   -3.0159312   0.63262896   418189 
 4359000   0.60655039   -3.0157848   -3.0157848   -2.3835372  0.030457266   -3.0157848   0.63224751   418189 
 4360000   0.60568689    -3.013975    -3.013975   -2.3826276  0.032831352    -3.013975   0.63134743   418189 
 4361000   0.60596442   -3.0142565   -3.0142565   -2.3826198  0.042546586   -3.0142565   0.63163672   418189 
 4362000   0.60844472    -3.016586    -3.016586   -2.3823639   0.03982994    -3.016586    0.6342221   418189 
 4363000   0.60689827   -3.0149679   -3.0149679   -2.3823578  0.043318847   -3.0149679   0.63261013   418189 
 4364000   0.60649497   -3.0150798   -3.0150798   -2.3828901  0.036317728   -3.0150798   0.63218974   418189 
 4365000    0.6065183   -3.0153862   -3.0153862   -2.3831721  0.040156192   -3.0153862   0.63221406   418189 
 4366000   0.60713615   -3.0156849   -3.0156849   -2.3828268  0.040824774   -3.0156849   0.63285809   418189 
 4367000   0.60786915   -3.0166994   -3.0166994   -2.3830773  0.036809899   -3.0166994   0.63362214   418189 
 4368000   0.60733732   -3.0162161   -3.0162161   -2.3831484  0.046746866   -3.0162161   0.63306778   418189 
 4369000   0.60814461   -3.0164102   -3.0164102   -2.3825009  0.041992588   -3.0164102   0.63390927   418189 
 4370000   0.60750358   -3.0161525   -3.0161525   -2.3829114  0.031081047   -3.0161525   0.63324108   418189 
 4371000   0.60855174    -3.016847    -3.016847   -2.3825134  0.042716513    -3.016847   0.63433365   418189 
 4372000   0.60913778   -3.0174765   -3.0174765    -2.382532  0.032949821   -3.0174765   0.63494452   418189 
 4373000   0.60710698   -3.0155294   -3.0155294   -2.3827017   0.03887518   -3.0155294   0.63282768   418189 
 4374000   0.60771592   -3.0160832   -3.0160832   -2.3826207   0.02720699   -3.0160832   0.63346242   418189 
 4375000   0.60662988   -3.0154509   -3.0154509   -2.3831206  0.031172766   -3.0154509   0.63233037   418189 
 4376000   0.60594198   -3.0150452   -3.0150452   -2.3834318   0.03444255   -3.0150452   0.63161333   418189 
 4377000   0.60647474   -3.0149385   -3.0149385   -2.3827699  0.039277406   -3.0149385   0.63216865   418189 
 4378000   0.60617256   -3.0143907   -3.0143907    -2.382537  0.027521894   -3.0143907   0.63185368   418189 
 4379000   0.60704021   -3.0152862   -3.0152862   -2.3825281  0.042488842   -3.0152862   0.63275808   418189 
 4380000   0.60675318   -3.0149192   -3.0149192   -2.3824603  0.034102834   -3.0149192   0.63245889   418189 
 4381000   0.60745564   -3.0148288   -3.0148288   -2.3816376  0.033575728   -3.0148288   0.63319112   418189 
 4382000   0.60697198   -3.0148075   -3.0148075   -2.3821205   0.04040274   -3.0148075   0.63268696   418189 
 4383000   0.60768941   -3.0164821   -3.0164821   -2.3830473  0.017751072   -3.0164821   0.63343479   418189 
 4384000   0.60881654   -3.0167296   -3.0167296   -2.3821199  0.022180643   -3.0167296   0.63460967   418189 
 4385000   0.60763828    -3.016235    -3.016235   -2.3828535  0.041586722    -3.016235   0.63338149   418189 
 4386000   0.60802241   -3.0171671   -3.0171671   -2.3833852  0.044272174   -3.0171671   0.63378189   418189 
 4387000    0.6073498   -3.0166807   -3.0166807   -2.3835999  0.046533092   -3.0166807   0.63308078   418189 
 4388000   0.60738885   -3.0162127   -3.0162127   -2.3830912   0.04048133   -3.0162127   0.63312149   418189 
 4389000   0.60702743   -3.0159677   -3.0159677    -2.383223  0.027835711   -3.0159677   0.63274476   418189 
 4390000   0.60669294   -3.0162692   -3.0162692   -2.3838731  0.037190923   -3.0162692    0.6323961   418189 
 4391000   0.60754737   -3.0175287   -3.0175287   -2.3842419  0.033318516   -3.0175287   0.63328673   418189 
 4392000   0.60802096    -3.017463    -3.017463   -2.3836827  0.034437144    -3.017463   0.63378038   418189 
 4393000   0.60754369   -3.0174226   -3.0174226   -2.3841397  0.029018228   -3.0174226    0.6332829   418189 
 4394000   0.60763794   -3.0169942   -3.0169942    -2.383613  0.038631935   -3.0169942   0.63338113   418189 
 4395000   0.60796972   -3.0177285   -3.0177285   -2.3840015  0.042857384   -3.0177285   0.63372697   418189 
 4396000   0.60675235   -3.0164151   -3.0164151   -2.3839571  0.031879676   -3.0164151   0.63245802   418189 
 4397000   0.60639291   -3.0162998   -3.0162998   -2.3842164  0.032762985   -3.0162998   0.63208336   418189 
 4398000   0.60586463   -3.0162896   -3.0162896   -2.3847569  0.041701308   -3.0162896   0.63153269   418189 
 4399000   0.60753367   -3.0185353   -3.0185353   -2.3852629  0.045721108   -3.0185353   0.63327245   418189 
 4400000   0.60685846   -3.0172821   -3.0172821   -2.3847134  0.028008956   -3.0172821   0.63256863   418189 
 4401000    0.6077721   -3.0181998   -3.0181998   -2.3846788  0.027406694   -3.0181998   0.63352098   418189 
 4402000   0.60714322   -3.0179084   -3.0179084   -2.3850429  0.034420031   -3.0179084   0.63286546   418189 
 4403000   0.60746225   -3.0182177   -3.0182177   -2.3850197  0.030404423   -3.0182177     0.633198   418189 
 4404000   0.60768868   -3.0179373   -3.0179373   -2.3845033  0.038596386   -3.0179373   0.63343403   418189 
 4405000   0.60812371    -3.018099    -3.018099   -2.3842116  0.033398288    -3.018099   0.63388749   418189 
 4406000   0.60848926   -3.0190897   -3.0190897   -2.3848212  0.033656938   -3.0190897   0.63426852   418189 
 4407000   0.60883277   -3.0189188   -3.0189188   -2.3842922   0.04922744   -3.0189188   0.63462659   418189 
 4408000   0.60790202   -3.0175865   -3.0175865   -2.3839301  0.036653237   -3.0175865   0.63365641   418189 
 4409000   0.60647928   -3.0161577   -3.0161577   -2.3839844  0.039864924   -3.0161577   0.63217339   418189 
 4410000   0.60710024   -3.0169134   -3.0169134   -2.3840927  0.033975265   -3.0169134   0.63282066   418189 
 4411000   0.60715582   -3.0168636   -3.0168636    -2.383985  0.032287563   -3.0168636   0.63287859   418189 
 4412000   0.60876452   -3.0183871   -3.0183871   -2.3838317  0.034959504   -3.0183871   0.63455545   418189 
 4413000   0.60773187   -3.0171728   -3.0171728   -2.3836937  0.027262402   -3.0171728   0.63347904   418189 
 4414000   0.60744104   -3.0159278   -3.0159278   -2.3827519  0.036265267   -3.0159278    0.6331759   418189 
 4415000   0.60787307    -3.016294    -3.016294   -2.3826677  0.041454089    -3.016294   0.63362623   418189 
 4416000   0.60644708   -3.0163998   -3.0163998     -2.38426  0.035100357   -3.0163998   0.63213982   418189 
 4417000     0.608206   -3.0181838   -3.0181838   -2.3842105  0.039122103   -3.0181838   0.63397326   418189 
 4418000   0.60869611   -3.0185659   -3.0185659   -2.3840817  0.034892746   -3.0185659   0.63448413   418189 
 4419000   0.60864236   -3.0186884   -3.0186884   -2.3842603  0.039922407   -3.0186884   0.63442811   418189 
 4420000   0.60839757   -3.0187806   -3.0187806   -2.3846076  0.033489771   -3.0187806   0.63417295   418189 
 4421000   0.60828665    -3.018577    -3.018577   -2.3845197  0.037725197    -3.018577   0.63405733   418189 
 4422000   0.60704225   -3.0170959   -3.0170959   -2.3843357  0.040051496   -3.0170959   0.63276021   418189 
 4423000   0.60736508   -3.0178383   -3.0178383   -2.3847416  0.030956147   -3.0178383   0.63309671   418189 
 4424000   0.60761378   -3.0179247   -3.0179247   -2.3845688  0.033161816   -3.0179247   0.63335595   418189 
 4425000   0.60686618   -3.0175751   -3.0175751   -2.3849984  0.031613891   -3.0175751   0.63257667   418189 
 4426000   0.60587449   -3.0161126   -3.0161126   -2.3845697  0.038537445   -3.0161126   0.63154297   418189 
 4427000   0.60770058   -3.0173701   -3.0173701   -2.3839237  0.031904145   -3.0173701   0.63344643   418189 
 4428000   0.60622792   -3.0162077   -3.0162077   -2.3842963   0.02923324   -3.0162077   0.63191138   418189 
 4429000   0.60686398   -3.0173725   -3.0173725   -2.3847981   0.04545283   -3.0173725   0.63257439   418189 
 4430000   0.60736864   -3.0172411   -3.0172411   -2.3841406  0.030690326   -3.0172411   0.63310043   418189 
 4431000   0.60880656   -3.0185244   -3.0185244   -2.3839251  0.035342514   -3.0185244   0.63459927   418189 
 4432000   0.60878364   -3.0184786   -3.0184786   -2.3839033  0.032985271   -3.0184786   0.63457538   418189 
 4433000   0.60737299    -3.018355    -3.018355   -2.3852501   0.03004065    -3.018355   0.63310496   418189 
 4434000   0.60859117   -3.0188494   -3.0188494   -2.3844746  0.043358017   -3.0188494   0.63437475   418189 
 4435000   0.60923934   -3.0192928   -3.0192928   -2.3842424  0.030761336   -3.0192928   0.63505039   418189 
 4436000   0.60847148   -3.0186438   -3.0186438   -2.3843938  0.034898214   -3.0186438   0.63424999   418189 
 4437000   0.60813337   -3.0189117   -3.0189117   -2.3850142   0.03628636   -3.0189117   0.63389756   418189 
 4438000   0.60814713   -3.0190499   -3.0190499    -2.385138  0.037776128   -3.0190499    0.6339119   418189 
 4439000   0.60672181   -3.0174997   -3.0174997   -2.3850735  0.033979718   -3.0174997   0.63242619   418189 
 4440000   0.60717238   -3.0182467   -3.0182467   -2.3853508   0.03374472   -3.0182467   0.63289585   418189 
 4441000   0.60698833      -3.0187      -3.0187    -2.385996  0.031734996      -3.0187   0.63270401   418189 
 4442000   0.60789984   -3.0195785   -3.0195785   -2.3859243   0.03450309   -3.0195785   0.63365413   418189 
 4443000   0.60727563   -3.0185687   -3.0185687   -2.3855652  0.041637087   -3.0185687   0.63300347   418189 
 4444000   0.60696945   -3.0182475   -3.0182475   -2.3855632  0.031084049   -3.0182475   0.63268432   418189 
 4445000   0.60631091   -3.0181434   -3.0181434   -2.3861455  0.030387652   -3.0181434   0.63199788   418189 
 4446000   0.60583455   -3.0174007   -3.0174007   -2.3858993  0.046604547   -3.0174007   0.63150134   418189 
 4447000   0.60812307   -3.0200265   -3.0200265   -2.3861397  0.030102305   -3.0200265   0.63388681   418189 
 4448000   0.60664421   -3.0186659   -3.0186659   -2.3863206  0.020462109   -3.0186659    0.6323453   418189 
 4449000   0.60777414   -3.0195615   -3.0195615   -2.3860384  0.029179062   -3.0195615   0.63352311   418189 
 4450000    0.6071839   -3.0190427   -3.0190427   -2.3861349  0.034544639   -3.0190427   0.63290786   418189 
 4451000   0.60644695   -3.0183739   -3.0183739   -2.3862342  0.041434591   -3.0183739   0.63213969   418189 
 4452000   0.60606146   -3.0176699   -3.0176699   -2.3859321  0.032574408   -3.0176699   0.63173787   418189 
 4453000   0.60839483   -3.0192391   -3.0192391    -2.385069  0.041744167   -3.0192391   0.63417009   418189 
 4454000   0.60859009   -3.0199563   -3.0199563   -2.3855827  0.038615819   -3.0199563   0.63437363   418189 
 4455000   0.60887405   -3.0203891   -3.0203891   -2.3857195  0.035254262   -3.0203891   0.63466961   418189 
 4456000    0.6073902   -3.0179672   -3.0179672   -2.3848443  0.046336081   -3.0179672    0.6331229   418189 
 4457000   0.60713585   -3.0176454   -3.0176454   -2.3847876  0.036408332   -3.0176454   0.63285778   418189 
 4458000   0.60863669   -3.0190355   -3.0190355   -2.3846133  0.045101624   -3.0190355    0.6344222   418189 
 4459000   0.60758081   -3.0179396   -3.0179396    -2.384618  0.032108769   -3.0179396   0.63332158   418189 
 4460000   0.60786406   -3.0185619   -3.0185619   -2.3849451  0.037483007   -3.0185619   0.63361684   418189 
 4461000   0.60684842   -3.0173702   -3.0173702    -2.384812  0.032355662   -3.0173702   0.63255817   418189 
 4462000   0.60820629   -3.0185752   -3.0185752   -2.3846016  0.028641542   -3.0185752   0.63397356   418189 
 4463000   0.60562893   -3.0165867   -3.0165867   -2.3852997  0.024183666   -3.0165867   0.63128701   418189 
 4464000   0.60685323   -3.0185327   -3.0185327   -2.3859695  0.034522784   -3.0185327   0.63256318   418189 
 4465000   0.60916509    -3.020112    -3.020112    -2.385139  0.039571026    -3.020112   0.63497299   418189 
 4466000   0.60835976   -3.0190174   -3.0190174   -2.3848839  0.036170332   -3.0190174   0.63413354   418189 
 4467000   0.60797103   -3.0180912   -3.0180912   -2.3843629  0.028082757   -3.0180912   0.63372834   418189 
 4468000   0.60825493   -3.0180058   -3.0180058   -2.3839815  0.027113208   -3.0180058   0.63402427   418189 
 4469000   0.60681704   -3.0167918   -3.0167918   -2.3842663  0.043238344   -3.0167918   0.63252546   418189 
 4470000   0.60713868   -3.0175474   -3.0175474   -2.3846867  0.033274835   -3.0175474   0.63286072   418189 
 4471000   0.60693783   -3.0172142   -3.0172142   -2.3845628  0.026926176   -3.0172142   0.63265136   418189 
 4472000   0.60781786   -3.0177676   -3.0177676   -2.3841989  0.030937422   -3.0177676   0.63356867   418189 
 4473000   0.60670509   -3.0171614   -3.0171614   -2.3847526  0.031139506   -3.0171614   0.63240877   418189 
 4474000    0.6073511   -3.0184309   -3.0184309   -2.3853488  0.034362302   -3.0184309   0.63308215   418189 
 4475000   0.60770878   -3.0186803   -3.0186803   -2.3852253  0.038322443   -3.0186803   0.63345498   418189 
 4476000   0.60867721   -3.0197194   -3.0197194   -2.3852549  0.047875853   -3.0197194   0.63446444   418189 
 4477000   0.60795216   -3.0188643   -3.0188643   -2.3851556  0.034524351   -3.0188643   0.63370866   418189 
 4478000   0.60907896   -3.0197638   -3.0197638   -2.3848805  0.040420415   -3.0197638   0.63488321   418189 
 4479000   0.60771026   -3.0183997   -3.0183997   -2.3849432  0.035800712   -3.0183997   0.63345651   418189 
 4480000    0.6082831   -3.0191862   -3.0191862   -2.3851326  0.040624526   -3.0191862   0.63405363   418189 
 4481000   0.60838411   -3.0190868   -3.0190868   -2.3849279  0.037953413   -3.0190868   0.63415892   418189 
 4482000   0.60760784    -3.018147    -3.018147   -2.3847972  0.018208071    -3.018147   0.63334976   418189 
 4483000    0.6079091   -3.0190763   -3.0190763   -2.3854125  0.032091192   -3.0190763   0.63366378   418189 
 4484000   0.60747518   -3.0185849   -3.0185849   -2.3853734  0.033499004   -3.0185849   0.63321148   418189 
 4485000   0.60812679   -3.0188326   -3.0188326   -2.3849419  0.029673236   -3.0188326   0.63389069   418189 
 4486000   0.60799883   -3.0186476   -3.0186476   -2.3848902  0.032766669   -3.0186476   0.63375732   418189 
 4487000   0.60802447     -3.01822     -3.01822   -2.3844359  0.040153659     -3.01822   0.63378404   418189 
 4488000   0.60798841   -3.0184187   -3.0184187   -2.3846722  0.038032235   -3.0184187   0.63374645   418189 
 4489000   0.60844609   -3.0193542   -3.0193542   -2.3851307  0.042076376   -3.0193542   0.63422353   418189 
 4490000    0.6095414   -3.0204615   -3.0204615   -2.3850963  0.036541251   -3.0204615   0.63536524   418189 
 4491000   0.60752614   -3.0188649   -3.0188649   -2.3856003  0.045831494   -3.0188649   0.63326459   418189 
 4492000   0.60892729   -3.0202582   -3.0202582   -2.3855331  0.049526399   -3.0202582   0.63472511   418189 
 4493000    0.6078149   -3.0192245   -3.0192245   -2.3856589  0.037688059   -3.0192245   0.63356559   418189 
 4494000   0.60686703   -3.0179885   -3.0179885    -2.385411  0.040216469   -3.0179885   0.63257756   418189 
 4495000   0.60712673   -3.0189121   -3.0189121   -2.3860638  0.038828298   -3.0189121   0.63284827   418189 
 4496000    0.6076235   -3.0185366   -3.0185366   -2.3851705   0.03852368   -3.0185366   0.63336608   418189 
 4497000   0.60693654   -3.0180274   -3.0180274   -2.3853774   0.02902984   -3.0180274   0.63265002   418189 
 4498000   0.60861426   -3.0195439   -3.0195439   -2.3851451  0.037958183   -3.0195439   0.63439882   418189 
 4499000   0.60705881   -3.0182533   -3.0182533   -2.3854758  0.038268136   -3.0182533   0.63277747   418189 
 4500000   0.60622805   -3.0172753   -3.0172753   -2.3853637  0.033243702   -3.0172753   0.63191152   418189 
 4501000   0.60812826   -3.0189203   -3.0189203    -2.385028  0.036568474   -3.0189203   0.63389223   418189 
 4502000   0.60670643   -3.0183272   -3.0183272    -2.385917  0.036855583   -3.0183272   0.63241016   418189 
 4503000   0.60569966   -3.0178622   -3.0178622   -2.3865014  0.039960777   -3.0178622   0.63136074   418189 
 4504000   0.60671746   -3.0180965   -3.0180965   -2.3856748  0.039315717   -3.0180965   0.63242166   418189 
 4505000   0.60813682   -3.0191856   -3.0191856   -2.3852845  0.045923256   -3.0191856   0.63390115   418189 
 4506000    0.6082117   -3.0189623   -3.0189623   -2.3849831  0.047551978   -3.0189623    0.6339792   418189 
 4507000   0.60739905   -3.0186347   -3.0186347   -2.3855026   0.04520747   -3.0186347   0.63313212   418189 
 4508000   0.60715648   -3.0185559   -3.0185559   -2.3856766  0.035519448   -3.0185559   0.63287927   418189 
 4509000   0.60900997   -3.0212355   -3.0212355   -2.3864242  0.031977926   -3.0212355    0.6348113   418189 
 4510000   0.60684242   -3.0192868   -3.0192868   -2.3867349  0.030601494   -3.0192868   0.63255191   418189 
 4511000   0.60687949    -3.019109    -3.019109   -2.3865184  0.035541007    -3.019109   0.63259055   418189 
 4512000    0.6074975   -3.0198494   -3.0198494   -2.3866147  0.036947526   -3.0198494   0.63323475   418189 
 4513000   0.60733331   -3.0200102   -3.0200102   -2.3869466  0.047964915   -3.0200102    0.6330636   418189 
 4514000   0.60727238   -3.0194634   -3.0194634   -2.3864633  0.032955678   -3.0194634   0.63300009   418189 
 4515000   0.60655872   -3.0185515   -3.0185515   -2.3862953  0.024646849   -3.0185515   0.63225619   418189 
 4516000   0.60715333   -3.0191297   -3.0191297   -2.3862537  0.028264953   -3.0191297     0.632876   418189 
 4517000   0.60766431   -3.0193076   -3.0193076    -2.385899  0.031750139   -3.0193076   0.63340862   418189 
 4518000   0.60706531    -3.019602    -3.019602   -2.3868178  0.031062768    -3.019602   0.63278425   418189 
 4519000   0.60613624   -3.0180677   -3.0180677   -2.3862519  0.036118019   -3.0180677   0.63181581   418189 
 4520000   0.60746874    -3.018698    -3.018698   -2.3854933  0.033136356    -3.018698   0.63320477   418189 
 4521000   0.60691698   -3.0191027   -3.0191027   -2.3864731   0.03302587   -3.0191027   0.63262964   418189 
 4522000   0.60692228   -3.0191963   -3.0191963   -2.3865612  0.039636387   -3.0191963   0.63263516   418189 
 4523000   0.60549306   -3.0174032   -3.0174032   -2.3862578  0.043787564   -3.0174032   0.63114538   418189 
 4524000   0.60670005   -3.0188072   -3.0188072   -2.3864037  0.044183103   -3.0188072   0.63240351   418189 
 4525000   0.60735114    -3.018966    -3.018966   -2.3858838  0.048436241    -3.018966   0.63308219   418189 
 4526000   0.60775327   -3.0197365   -3.0197365   -2.3862352  0.042230251   -3.0197365   0.63350135   418189 
 4527000   0.60716142   -3.0192496   -3.0192496   -2.3863652  0.026148612   -3.0192496   0.63288443   418189 
 4528000   0.60669251   -3.0191628   -3.0191628   -2.3867672  0.029054452   -3.0191628   0.63239565   418189 
 4529000   0.60735238   -3.0196011   -3.0196011   -2.3865176  0.039376561   -3.0196011   0.63308347   418189 
 4530000   0.60737234    -3.019199    -3.019199   -2.3860947   0.04025289    -3.019199   0.63310428   418189 
 4531000   0.60714395   -3.0186159   -3.0186159   -2.3857497  0.038817325   -3.0186159   0.63286622   418189 
 4532000    0.6066681   -3.0184249   -3.0184249   -2.3860547  0.032105344   -3.0184249   0.63237021   418189 
 4533000   0.60595036   -3.0188883   -3.0188883   -2.3872663  0.034524458   -3.0188883   0.63162206   418189 
 4534000   0.60579118   -3.0180616   -3.0180616   -2.3866055  0.041611439   -3.0180616   0.63145613   418189 
 4535000   0.60771971   -3.0197356   -3.0197356   -2.3862693   0.03953067   -3.0197356   0.63346637   418189 
 4536000   0.60631562   -3.0172768   -3.0172768    -2.385274  0.033422916   -3.0172768   0.63200279   418189 
 4537000   0.60805663   -3.0197435   -3.0197435   -2.3859259  0.037117834   -3.0197435   0.63381756   418189 
 4538000   0.60665744   -3.0180516   -3.0180516   -2.3856925  0.041160104   -3.0180516    0.6323591   418189 
 4539000   0.60764955   -3.0192656   -3.0192656   -2.3858723  0.026769537   -3.0192656   0.63339323   418189 
 4540000   0.60556927   -3.0174721   -3.0174721   -2.3862473  0.035131083   -3.0174721   0.63122483   418189 
 4541000   0.60601973   -3.0177862   -3.0177862   -2.3860918  0.037123871   -3.0177862   0.63169437   418189 
 4542000   0.60576796   -3.0180866   -3.0180866   -2.3866546  0.029276675   -3.0180866   0.63143193   418189 
 4543000   0.60653919   -3.0190959   -3.0190959     -2.38686  0.032753453   -3.0190959   0.63223583   418189 
 4544000   0.60775022   -3.0203172   -3.0203172   -2.3868191  0.034943672   -3.0203172   0.63349817   418189 
 4545000   0.60645211   -3.0198592   -3.0198592   -2.3877141  0.027087827   -3.0198592   0.63214506   418189 
 4546000   0.60757101   -3.0201792   -3.0201792   -2.3868678   0.03634738   -3.0201792   0.63331137   418189 
 4547000   0.60680819   -3.0202351   -3.0202351   -2.3877189  0.035666039   -3.0202351   0.63251623   418189 
 4548000   0.60699243   -3.0208494   -3.0208494   -2.3881411   0.03129948   -3.0208494   0.63270828   418189 
 4549000   0.60529561   -3.0191982   -3.0191982   -2.3882587  0.026789946   -3.0191982   0.63093957   418189 
 4550000   0.60608154   -3.0195439   -3.0195439   -2.3877851  0.025500888   -3.0195439    0.6317588   418189 
 4551000   0.60726041   -3.0198232   -3.0198232   -2.3868356  0.035760893   -3.0198232   0.63298761   418189 
 4552000    0.6070806   -3.0196309   -3.0196309   -2.3868307  0.029799215   -3.0196309   0.63280018   418189 
 4553000   0.60765192   -3.0205374   -3.0205374   -2.3871417  0.031524542   -3.0205374   0.63339571   418189 
 4554000   0.60686381   -3.0197876   -3.0197876   -2.3872134  0.037737188   -3.0197876   0.63257421   418189 
 4555000   0.60723367    -3.020797    -3.020797   -2.3878373  0.034483574    -3.020797   0.63295974   418189 
 4556000   0.60723609   -3.0197591   -3.0197591   -2.3867968  0.027469605   -3.0197591   0.63296226   418189 
 4557000   0.60656055    -3.018937    -3.018937   -2.3866789  0.038275738    -3.018937    0.6322581   418189 
 4558000   0.60764226    -3.019494    -3.019494   -2.3861084  0.035126509    -3.019494   0.63338564   418189 
 4559000   0.60758118   -3.0189837   -3.0189837   -2.3856617  0.039146121   -3.0189837   0.63332197   418189 
 4560000   0.60767255   -3.0184482   -3.0184482    -2.385031  0.028108824   -3.0184482   0.63341722   418189 
 4561000   0.60766256   -3.0192186   -3.0192186   -2.3858118  0.028049447   -3.0192186    0.6334068   418189 
 4562000   0.60850503    -3.020157    -3.020157   -2.3858721  0.021376454    -3.020157   0.63428496   418189 
 4563000   0.60728362   -3.0199746   -3.0199746   -2.3869628  0.043166223   -3.0199746    0.6330118   418189 
 4564000   0.60679843   -3.0197551   -3.0197551   -2.3872491  0.037349889   -3.0197551   0.63250606   418189 
 4565000   0.60673339   -3.0196751   -3.0196751   -2.3872369  0.035940797   -3.0196751   0.63243826   418189 
 4566000   0.60752524     -3.02097     -3.02097   -2.3877064  0.029593024     -3.02097   0.63326366   418189 
 4567000   0.60797775   -3.0205519   -3.0205519   -2.3868165  0.048251617   -3.0205519   0.63373534   418189 
 4568000   0.60732624   -3.0197668   -3.0197668   -2.3867106   0.03448339   -3.0197668   0.63305623   418189 
 4569000   0.60759871   -3.0194176   -3.0194176   -2.3860774  0.024104534   -3.0194176   0.63334025   418189 
 4570000    0.6071896   -3.0198707   -3.0198707   -2.3869569  0.025544392   -3.0198707   0.63291381   418189 
 4571000   0.60818185   -3.0204686   -3.0204686   -2.3865206  0.042763576   -3.0204686   0.63394809   418189 
 4572000   0.60584897   -3.0181919   -3.0181919   -2.3866755  0.048032538   -3.0181919   0.63151637   418189 
 4573000   0.60588919   -3.0185411   -3.0185411   -2.3869828  0.037950245   -3.0185411    0.6315583   418189 
 4574000   0.60620759    -3.018984    -3.018984   -2.3870938  0.023849921    -3.018984   0.63189018   418189 
 4575000   0.60807626   -3.0207596   -3.0207596   -2.3869215  0.040850948   -3.0207596   0.63383802   418189 
 4576000   0.60691756   -3.0196129   -3.0196129   -2.3869826  0.029795633   -3.0196129   0.63263024   418189 
 4577000   0.60633538   -3.0192762   -3.0192762   -2.3872528  0.038466696   -3.0192762   0.63202339   418189 
 4578000   0.60682079   -3.0192981   -3.0192981   -2.3867687  0.026460392   -3.0192981   0.63252936   418189 
 4579000   0.60607392   -3.0191391   -3.0191391   -2.3873882  0.034250735   -3.0191391   0.63175085   418189 
 4580000   0.60671603   -3.0201278   -3.0201278   -2.3877077  0.034635355   -3.0201278   0.63242017   418189 
 4581000   0.60631151   -3.0189292   -3.0189292   -2.3869307   0.03939538   -3.0189292   0.63199851   418189 
 4582000   0.60698817   -3.0195284   -3.0195284   -2.3868246  0.036819708   -3.0195284   0.63270384   418189 
 4583000   0.60828589   -3.0205488   -3.0205488   -2.3864923  0.041858419   -3.0205488   0.63405654   418189 
 4584000   0.60735978   -3.0198147   -3.0198147   -2.3867235   0.03884109   -3.0198147   0.63309119   418189 
 4585000   0.60768666   -3.0201842   -3.0201842   -2.3867523  0.033167787   -3.0201842   0.63343192   418189 
 4586000   0.60791678   -3.0206584   -3.0206584   -2.3869866  0.028042756   -3.0206584   0.63367179   418189 
 4587000   0.60880288   -3.0218646   -3.0218646   -2.3872692  0.032011921   -3.0218646   0.63459543   418189 
 4588000   0.60731063   -3.0201524   -3.0201524   -2.3871124  0.033836726   -3.0201524   0.63303995   418189 
 4589000   0.60694537   -3.0197669   -3.0197669   -2.3871076  0.032516913   -3.0197669   0.63265923   418189 
 4590000     0.607478   -3.0202771   -3.0202771   -2.3870627  0.037589234   -3.0202771   0.63321442   418189 
 4591000   0.60676752   -3.0185491   -3.0185491   -2.3860753  0.041465819   -3.0185491   0.63247384   418189 
 4592000   0.60714702   -3.0190633   -3.0190633   -2.3861939  0.039149843   -3.0190633   0.63286942   418189 
 4593000   0.60746602    -3.019179    -3.019179   -2.3859771  0.026052884    -3.019179   0.63320194   418189 
 4594000   0.60743442   -3.0197993   -3.0197993   -2.3866303  0.033745051   -3.0197993   0.63316899   418189 
 4595000   0.60703637   -3.0197227   -3.0197227   -2.3869686  0.030452775   -3.0197227   0.63275408   418189 
 4596000   0.60759101   -3.0197789   -3.0197789   -2.3864467  0.040934414   -3.0197789   0.63333222   418189 
 4597000   0.60758687   -3.0193347   -3.0193347   -2.3860068  0.025037362   -3.0193347    0.6333279   418189 
 4598000   0.60661687    -3.018484    -3.018484   -2.3861672  0.037319597    -3.018484    0.6323168   418189 
 4599000   0.60664135   -3.0185925   -3.0185925   -2.3862502  0.028556055   -3.0185925   0.63234233   418189 
 4600000   0.60691303   -3.0189468   -3.0189468   -2.3863212   0.04291301   -3.0189468   0.63262552   418189 
 4601000   0.60749082   -3.0199725   -3.0199725   -2.3867447  0.030800278   -3.0199725   0.63322779   418189 
 4602000   0.60683635   -3.0190018   -3.0190018   -2.3864563  0.036642584   -3.0190018   0.63254558   418189 
 4603000   0.60799521   -3.0202219   -3.0202219   -2.3864683   0.03680947   -3.0202219   0.63375354   418189 
 4604000   0.60797251   -3.0205436   -3.0205436   -2.3868137  0.025633573   -3.0205436   0.63372988   418189 
 4605000   0.60725295   -3.0202537   -3.0202537   -2.3872738  0.036167988   -3.0202537   0.63297984   418189 
 4606000   0.60763314   -3.0210783   -3.0210783   -2.3877022  0.030787336   -3.0210783   0.63337613   418189 
 4607000   0.60743213   -3.0204358   -3.0204358   -2.3872692  0.042215008   -3.0204358    0.6331666   418189 
 4608000   0.60815105   -3.0204117   -3.0204117   -2.3864957  0.032931565   -3.0204117   0.63391599   418189 
 4609000    0.6069195   -3.0192319   -3.0192319   -2.3865997  0.040854487   -3.0192319   0.63263226   418189 
 4610000    0.6075861    -3.019738    -3.019738   -2.3864109  0.032546891    -3.019738    0.6333271   418189 
 4611000   0.60795482   -3.0202579   -3.0202579   -2.3865465  0.039662277   -3.0202579   0.63371144   418189 
 4612000   0.60705236   -3.0184991   -3.0184991   -2.3857284  0.034738413   -3.0184991   0.63277075   418189 
 4613000   0.60803439   -3.0202029   -3.0202029   -2.3864085  0.035169605   -3.0202029   0.63379438   418189 
 4614000   0.60686613    -3.019331    -3.019331   -2.3867544   0.04408285    -3.019331   0.63257663   418189 
 4615000   0.60833307    -3.021294    -3.021294   -2.3871883  0.031665781    -3.021294   0.63410572   418189 
 4616000   0.60651146   -3.0201098   -3.0201098   -2.3879028  0.036409992   -3.0201098   0.63220694   418189 
 4617000   0.60514576   -3.0182517   -3.0182517   -2.3874684  0.030095295   -3.0182517   0.63078338   418189 
 4618000   0.60640212   -3.0199333   -3.0199333   -2.3878403  0.021831845   -3.0199333   0.63209296   418189 
 4619000   0.60564844   -3.0191211   -3.0191211   -2.3878138  0.026134045   -3.0191211   0.63130735   418189 
 4620000   0.60655673   -3.0194068   -3.0194068   -2.3871527   0.02864669   -3.0194068   0.63225412   418189 
 4621000   0.60671785   -3.0194515   -3.0194515   -2.3870295  0.029265015   -3.0194515   0.63242207   418189 
 4622000    0.6055529   -3.0185877   -3.0185877     -2.38738  0.038041944   -3.0185877   0.63120776   418189 
 4623000   0.60652098   -3.0194174   -3.0194174   -2.3872006  0.039833877   -3.0194174   0.63221686   418189 
 4624000   0.60764449   -3.0206671   -3.0206671   -2.3872791  0.036453114   -3.0206671   0.63338797   418189 
 4625000   0.60768688   -3.0213984   -3.0213984   -2.3879662   0.03706934   -3.0213984   0.63343215   418189 
 4626000   0.60663217   -3.0200768   -3.0200768    -2.387744  0.043252093   -3.0200768   0.63233276   418189 
 4627000   0.60703803   -3.0202744   -3.0202744   -2.3875186  0.030514881   -3.0202744   0.63275581   418189 
 4628000    0.6081831   -3.0206697   -3.0206697   -2.3867203  0.032049788   -3.0206697   0.63394939   418189 
 4629000   0.60708677   -3.0200852   -3.0200852   -2.3872786  0.031294262   -3.0200852   0.63280662   418189 
 4630000   0.60769584   -3.0203898   -3.0203898   -2.3869483  0.032028883   -3.0203898   0.63344149   418189 
 4631000   0.60660522   -3.0196088   -3.0196088   -2.3873041  0.041083835   -3.0196088   0.63230467   418189 
 4632000   0.60775772   -3.0203255   -3.0203255   -2.3868195  0.027408306   -3.0203255   0.63350599   418189 
 4633000   0.60763206   -3.0202804   -3.0202804   -2.3869054  0.024972244   -3.0202804     0.633375   418189 
 4634000   0.60778897   -3.0200229   -3.0200229   -2.3864843  0.029380591   -3.0200229   0.63353857   418189 
 4635000    0.6085316   -3.0210509   -3.0210509   -2.3867383  0.034495091   -3.0210509   0.63431265   418189 
 4636000   0.60715235   -3.0197314   -3.0197314   -2.3868564   0.03005511   -3.0197314   0.63287498   418189 
 4637000   0.60687293   -3.0192978   -3.0192978    -2.386714  0.033786028   -3.0192978   0.63258372   418189 
 4638000   0.60661558   -3.0195254   -3.0195254   -2.3872099  0.039191038   -3.0195254   0.63231547   418189 
 4639000   0.60669613    -3.019908    -3.019908   -2.3875086   0.04196888    -3.019908   0.63239943   418189 
 4640000   0.60790936   -3.0204552   -3.0204552   -2.3867911   0.03416803   -3.0204552   0.63366405   418189 
 4641000   0.60841708   -3.0207528   -3.0207528   -2.3865595  0.035632289   -3.0207528   0.63419329   418189 
 4642000   0.60716235   -3.0200977   -3.0200977   -2.3872123  0.030737935   -3.0200977    0.6328854   418189 
 4643000     0.607059   -3.0198404   -3.0198404   -2.3870628  0.038335339   -3.0198404   0.63277766   418189 
 4644000   0.60655391   -3.0185433   -3.0185433   -2.3862921  0.043914296   -3.0185433   0.63225118   418189 
 4645000    0.6073064   -3.0199241   -3.0199241   -2.3868886  0.025069927   -3.0199241   0.63303555   418189 
 4646000   0.60806843   -3.0205516   -3.0205516   -2.3867218  0.033727123   -3.0205516   0.63382986   418189 
 4647000   0.60574473   -3.0181318   -3.0181318   -2.3867241  0.025167207   -3.0181318   0.63140771   418189 
 4648000   0.60644706   -3.0193714   -3.0193714   -2.3872316  0.026891494   -3.0193714    0.6321398   418189 
 4649000   0.60613153   -3.0196533   -3.0196533   -2.3878424  0.027400963   -3.0196533   0.63181091   418189 
 4650000   0.60680489   -3.0201833   -3.0201833   -2.3876705  0.037236132   -3.0201833   0.63251279   418189 
 4651000   0.60857352   -3.0215843   -3.0215843    -2.387228  0.030322587   -3.0215843   0.63435635   418189 
 4652000   0.60758915   -3.0212715   -3.0212715   -2.3879412  0.026187166   -3.0212715   0.63333028   418189 
 4653000   0.60709126   -3.0211526   -3.0211526   -2.3883413  0.040098694   -3.0211526   0.63281129   418189 
 4654000   0.60656486   -3.0206781   -3.0206781   -2.3884155  0.039246578   -3.0206781   0.63226259   418189 
 4655000   0.60741755   -3.0218919   -3.0218919   -2.3887405    0.0299599   -3.0218919   0.63315141   418189 
 4656000   0.60680983   -3.0208359   -3.0208359   -2.3883179  0.037197361   -3.0208359   0.63251794   418189 
 4657000   0.60821923   -3.0226557   -3.0226557   -2.3886687  0.044594996   -3.0226557   0.63398706   418189 
 4658000    0.6083729   -3.0233223   -3.0233223    -2.389175  0.032543289   -3.0233223   0.63414724   418189 
 4659000   0.60797273   -3.0225582   -3.0225582   -2.3888281  0.047049231   -3.0225582   0.63373011   418189 
 4660000   0.60737513   -3.0209861   -3.0209861   -2.3878789  0.037827056   -3.0209861    0.6331072   418189 
 4661000   0.60779577   -3.0223322   -3.0223322   -2.3887865  0.036571665   -3.0223322   0.63354565   418189 
 4662000   0.60732416   -3.0212433   -3.0212433   -2.3881892   0.03417543   -3.0212433   0.63305406   418189 
 4663000    0.6069565   -3.0205717   -3.0205717   -2.3879009   0.03580834   -3.0205717   0.63267083   418189 
 4664000   0.60618991   -3.0203725   -3.0203725   -2.3885008  0.021379386   -3.0203725   0.63187176   418189 
 4665000   0.60628044   -3.0201375   -3.0201375   -2.3881714  0.033642585   -3.0201375   0.63196612   418189 
 4666000   0.60722435   -3.0212152   -3.0212152   -2.3882652    0.0203025   -3.0212152   0.63295003   418189 
 4667000   0.60581839   -3.0198805   -3.0198805    -2.388396  0.038518425   -3.0198805    0.6314845   418189 
 4668000   0.60656793   -3.0210212   -3.0210212   -2.3887554  0.031326236   -3.0210212   0.63226579   418189 
 4669000   0.60608172   -3.0200192   -3.0200192   -2.3882602  0.036350769   -3.0200192   0.63175899   418189 
 4670000   0.60534329    -3.018688    -3.018688   -2.3876988  0.039519786    -3.018688   0.63098927   418189 
 4671000   0.60712017   -3.0198288   -3.0198288   -2.3869874   0.04219932   -3.0198288   0.63284143   418189 
 4672000   0.60840187    -3.021765    -3.021765   -2.3875876   0.04054849    -3.021765   0.63417743   418189 
 4673000   0.60640574   -3.0210281   -3.0210281   -2.3889314  0.043721876   -3.0210281   0.63209673   418189 
 4674000   0.60754343   -3.0209306   -3.0209306    -2.387648  0.035376634   -3.0209306   0.63328262   418189 
 4675000   0.60617729   -3.0206792   -3.0206792   -2.3888206  0.024026857   -3.0206792    0.6318586   418189 
 4676000   0.60635095   -3.0214834   -3.0214834   -2.3894438  0.041546649   -3.0214834   0.63203962   418189 
 4677000   0.60540025   -3.0196396   -3.0196396    -2.388591  0.035230571   -3.0196396   0.63104864   418189 
 4678000   0.60641803   -3.0203751   -3.0203751   -2.3882655  0.036308717   -3.0203751   0.63210954   418189 
 4679000   0.60509514   -3.0198433   -3.0198433   -2.3891127  0.037964418   -3.0198433   0.63073061   418189 
 4680000   0.60600598   -3.0199401   -3.0199401     -2.38826  0.039090285   -3.0199401   0.63168004   418189 
 4681000   0.60597084   -3.0205115   -3.0205115   -2.3888681  0.028313405   -3.0205115    0.6316434   418189 
 4682000   0.60735033   -3.0216908   -3.0216908   -2.3886095   0.04040636   -3.0216908   0.63308134   418189 
 4683000   0.60665411   -3.0211167   -3.0211167   -2.3887611  0.030572741   -3.0211167   0.63235563   418189 
 4684000   0.60580345   -3.0207909   -3.0207909   -2.3893219  0.029745281   -3.0207909   0.63146892   418189 
 4685000   0.60680067   -3.0216795   -3.0216795   -2.3891711  0.038587514   -3.0216795    0.6325084   418189 
 4686000   0.60637932   -3.0213062   -3.0213062    -2.389237  0.034621922   -3.0213062    0.6320692   418189 
 4687000   0.60593644   -3.0203543   -3.0203543   -2.3887468  0.028671542   -3.0203543   0.63160755   418189 
 4688000   0.60781404   -3.0224849   -3.0224849   -2.3889202  0.036804598   -3.0224849   0.63356469   418189 
 4689000   0.60718728   -3.0214751   -3.0214751   -2.3885637  0.028352883   -3.0214751   0.63291139   418189 
 4690000   0.60743774   -3.0215801   -3.0215801   -2.3884076  0.040371326   -3.0215801   0.63317245   418189 
 4691000   0.60739468   -3.0208566   -3.0208566   -2.3877291   0.03997886   -3.0208566   0.63312757   418189 
 4692000   0.60663956   -3.0206796   -3.0206796   -2.3883391  0.036820353   -3.0206796   0.63234046   418189 
 4693000   0.60732218   -3.0213647   -3.0213647   -2.3883127   0.03040683   -3.0213647     0.633052   418189 
 4694000   0.60696146   -3.0212303   -3.0212303   -2.3885543  0.029888174   -3.0212303     0.632676   418189 
 4695000   0.60754379   -3.0213744   -3.0213744   -2.3880914   0.03271325   -3.0213744   0.63328299   418189 
 4696000   0.60764283   -3.0207275   -3.0207275   -2.3873412  0.036534002   -3.0207275   0.63338623   418189 
 4697000   0.60663448   -3.0202725   -3.0202725   -2.3879373  0.024248283   -3.0202725   0.63233516   418189 
 4698000   0.60809099   -3.0212154   -3.0212154    -2.387362  0.031129393   -3.0212154   0.63385338   418189 
 4699000   0.60724037   -3.0202417   -3.0202417    -2.387275  0.029936465   -3.0202417   0.63296672   418189 
 4700000   0.60622592    -3.018893    -3.018893   -2.3869837  0.030421691    -3.018893   0.63190929   418189 
 4701000   0.60623172   -3.0187428   -3.0187428   -2.3868274  0.041852836   -3.0187428   0.63191534   418189 
 4702000   0.60754516   -3.0204662   -3.0204662   -2.3871818  0.037983028   -3.0204662   0.63328443   418189 
 4703000   0.60691263   -3.0195697   -3.0195697   -2.3869447  0.034732545   -3.0195697   0.63262509   418189 
 4704000   0.60689815   -3.0197207   -3.0197207   -2.3871107  0.033814942   -3.0197207   0.63261001   418189 
 4705000    0.6070349   -3.0197845   -3.0197845    -2.387032  0.043176431   -3.0197845   0.63275255   418189 
 4706000    0.6066713   -3.0190551   -3.0190551   -2.3866815  0.036753179   -3.0190551   0.63237354   418189 
 4707000   0.60689204   -3.0199888   -3.0199888   -2.3873852  0.052293879   -3.0199888   0.63260363   418189 
 4708000   0.60715844   -3.0204898   -3.0204898   -2.3876085  0.035922995   -3.0204898   0.63288132   418189 
 4709000   0.60734094   -3.0206459   -3.0206459   -2.3875743  0.044843057   -3.0206459   0.63307155   418189 
 4710000   0.60745794   -3.0203942   -3.0203942   -2.3872007  0.037409538   -3.0203942   0.63319351   418189 
 4711000   0.60705282   -3.0202266   -3.0202266   -2.3874553  0.036999449   -3.0202266   0.63277123   418189 
 4712000    0.6077047   -3.0201534   -3.0201534   -2.3867027   0.02765991   -3.0201534   0.63345073   418189 
 4713000   0.60748149   -3.0188996   -3.0188996   -2.3856816  0.051573326   -3.0188996   0.63321806   418189 
 4714000   0.60663519   -3.0188307   -3.0188307   -2.3864948  0.034231383   -3.0188307   0.63233591   418189 
 4715000   0.60780083   -3.0201148   -3.0201148   -2.3865638  0.027981419   -3.0201148   0.63355093   418189 
 4716000   0.60843046   -3.0207183   -3.0207183   -2.3865111  0.027242525   -3.0207183   0.63420723   418189 
 4717000   0.60753771   -3.0210272   -3.0210272   -2.3877506  0.037640904   -3.0210272   0.63327666   418189 
 4718000   0.60691578    -3.020486    -3.020486   -2.3878576  0.037905593    -3.020486   0.63262838   418189 
 4719000   0.60720841   -3.0203455   -3.0203455   -2.3874121  0.036695344   -3.0203455   0.63293341   418189 
 4720000   0.60625048   -3.0193347   -3.0193347   -2.3873999  0.030696757   -3.0193347   0.63193489   418189 
 4721000   0.60752542    -3.021249    -3.021249   -2.3879852  0.031389719    -3.021249   0.63326385   418189 
 4722000   0.60607788    -3.019803    -3.019803    -2.388048  0.030789996    -3.019803   0.63175498   418189 
 4723000   0.60584213   -3.0191925   -3.0191925   -2.3876833  0.032848703   -3.0191925   0.63150924   418189 
 4724000   0.60764927   -3.0206613   -3.0206613   -2.3872684  0.028334694   -3.0206613   0.63339295   418189 
 4725000   0.60476326   -3.0188124   -3.0188124   -2.3884278  0.025086261   -3.0188124   0.63038467   418189 
 4726000    0.6066525   -3.0205034   -3.0205034   -2.3881495  0.043937506   -3.0205034   0.63235395   418189 
 4727000   0.60566272   -3.0199576   -3.0199576   -2.3886354  0.039839016   -3.0199576   0.63132224   418189 
 4728000   0.60700004   -3.0212911   -3.0212911   -2.3885749   0.03423572   -3.0212911   0.63271621   418189 
 4729000    0.6077921   -3.0213927   -3.0213927   -2.3878509  0.033960769   -3.0213927   0.63354182   418189 
 4730000   0.60664934    -3.021289    -3.021289   -2.3889384  0.033960005    -3.021289   0.63235065   418189 
 4731000   0.60757117   -3.0224815   -3.0224815   -2.3891699  0.027635664   -3.0224815   0.63331154   418189 
 4732000   0.60720898   -3.0216089   -3.0216089   -2.3886749  0.040295811   -3.0216089     0.632934   418189 
 4733000   0.60793607   -3.0217638   -3.0217638   -2.3880719  0.046471455   -3.0217638   0.63369189   418189 
 4734000   0.60528879   -3.0193735   -3.0193735    -2.388441  0.038953286   -3.0193735   0.63093246   418189 
 4735000   0.60650594    -3.019857    -3.019857   -2.3876559  0.031432628    -3.019857   0.63220117   418189 
 4736000   0.60583285   -3.0193897   -3.0193897   -2.3878901  0.024160464   -3.0193897   0.63149957   418189 
 4737000   0.60675892   -3.0205968   -3.0205968   -2.3881319  0.026111911   -3.0205968   0.63246487   418189 
 4738000   0.60576652   -3.0189776   -3.0189776   -2.3875472   0.03577871   -3.0189776   0.63143043   418189 
 4739000    0.6059547   -3.0196105   -3.0196105   -2.3879839  0.039516689   -3.0196105   0.63162659   418189 
 4740000   0.60609043    -3.019489    -3.019489   -2.3877209  0.030117891    -3.019489   0.63176806   418189 
 4741000   0.60729561   -3.0208992   -3.0208992   -2.3878749  0.033831628   -3.0208992    0.6330243   418189 
 4742000   0.60742872   -3.0211951   -3.0211951    -2.388032  0.036537967   -3.0211951   0.63316305   418189 
 4743000   0.60664013   -3.0193933   -3.0193933   -2.3870523  0.041468414   -3.0193933   0.63234105   418189 
 4744000   0.60711005   -3.0196379   -3.0196379    -2.386807  0.041086928   -3.0196379   0.63283088   418189 
 4745000   0.60864249   -3.0214069   -3.0214069   -2.3869787  0.040075407   -3.0214069   0.63442825   418189 
 4746000   0.60715497   -3.0207226   -3.0207226   -2.3878449  0.025974299   -3.0207226    0.6328777   418189 
 4747000   0.60702084   -3.0214674   -3.0214674   -2.3887295  0.034097201   -3.0214674   0.63273789   418189 
 4748000   0.60778901    -3.022128    -3.022128   -2.3885894  0.025130736    -3.022128    0.6335386   418189 
 4749000   0.60603909   -3.0203698   -3.0203698   -2.3886553  0.035614046   -3.0203698   0.63171455   418189 
 4750000   0.60799964   -3.0223364   -3.0223364   -2.3885782  0.029464158   -3.0223364   0.63375816   418189 
 4751000   0.60619661   -3.0207176   -3.0207176   -2.3888388  0.037589653   -3.0207176   0.63187875   418189 
 4752000   0.60603966   -3.0202105   -3.0202105   -2.3884954  0.037519863   -3.0202105   0.63171514   418189 
 4753000   0.60617607    -3.020029    -3.020029   -2.3881717  0.035019468    -3.020029   0.63185734   418189 
 4754000   0.60621763   -3.0207957   -3.0207957   -2.3888951  0.042525265   -3.0207957   0.63190065   418189 
 4755000   0.60633885   -3.0205384   -3.0205384   -2.3885113  0.040236224   -3.0205384   0.63202701   418189 
 4756000   0.60644376   -3.0202215   -3.0202215   -2.3880852  0.026825729   -3.0202215   0.63213636   418189 
 4757000   0.60690018   -3.0210196   -3.0210196   -2.3884075  0.035311668   -3.0210196   0.63261212   418189 
 4758000    0.6063252   -3.0201944   -3.0201944   -2.3881816  0.032056328   -3.0201944   0.63201278   418189 
 4759000   0.60720455   -3.0202992   -3.0202992   -2.3873698  0.036249099   -3.0202992   0.63292939   418189 
 4760000   0.60803044   -3.0210702   -3.0210702   -2.3872799  0.040350159   -3.0210702   0.63379026   418189 
 4761000    0.6073163   -3.0207013   -3.0207013   -2.3876555  0.043146863   -3.0207013   0.63304587   418189 
 4762000   0.60638936   -3.0207196   -3.0207196     -2.38864  0.035508673   -3.0207196   0.63207966   418189 
 4763000   0.60714034   -3.0210268   -3.0210268   -2.3881644  0.027715072   -3.0210268   0.63286246   418189 
 4764000    0.6072906   -3.0216367   -3.0216367   -2.3886176  0.041470379   -3.0216367   0.63301908   418189 
 4765000   0.60625652   -3.0215219   -3.0215219   -2.3895807  0.032751779   -3.0215219   0.63194119   418189 
 4766000   0.60596391   -3.0210169   -3.0210169   -2.3893807  0.042179259   -3.0210169   0.63163618   418189 
 4767000   0.60606432   -3.0216199   -3.0216199   -2.3898791  0.037510466   -3.0216199   0.63174085   418189 
 4768000   0.60649627    -3.021833    -3.021833   -2.3896419  0.033994823    -3.021833    0.6321911   418189 
 4769000   0.60608725    -3.021723    -3.021723   -2.3899582  0.028677913    -3.021723   0.63176475   418189 
 4770000   0.60360754   -3.0190348   -3.0190348   -2.3898548  0.030289202   -3.0190348   0.62917998   418189 
 4771000   0.60692115   -3.0225044   -3.0225044   -2.3898704  0.032319209   -3.0225044   0.63263397   418189 
 4772000   0.60596824   -3.0213208   -3.0213208   -2.3896801  0.024170754   -3.0213208    0.6316407   418189 
 4773000   0.60646493   -3.0216906   -3.0216906   -2.3895322  0.039027837   -3.0216906   0.63215843   418189 
 4774000   0.60700921    -3.021968    -3.021968   -2.3892422   0.03529722    -3.021968   0.63272577   418189 
 4775000   0.60646036    -3.021273    -3.021273   -2.3891193   0.02703525    -3.021273   0.63215367   418189 
 4776000   0.60517454   -3.0203686   -3.0203686   -2.3895552  0.029375999   -3.0203686   0.63081338   418189 
 4777000      0.60734    -3.021686    -3.021686   -2.3886155  0.040001916    -3.021686   0.63307057   418189 
 4778000   0.60689145   -3.0207259   -3.0207259   -2.3881228  0.040226095   -3.0207259   0.63260302   418189 
 4779000   0.60819851   -3.0217121   -3.0217121   -2.3877467  0.033658344   -3.0217121   0.63396546   418189 
 4780000   0.60725245   -3.0211211   -3.0211211   -2.3881417  0.034613567   -3.0211211   0.63297931   418189 
 4781000   0.60567131   -3.0196434   -3.0196434   -2.3883122  0.042180836   -3.0196434   0.63133118   418189 
 4782000   0.60741721   -3.0210423   -3.0210423   -2.3878913  0.038324546   -3.0210423   0.63315106   418189 
 4783000   0.60803338   -3.0215914   -3.0215914   -2.3877981  0.034212622   -3.0215914   0.63379333   418189 
 4784000   0.60769789    -3.022375    -3.022375   -2.3889314  0.047672081    -3.022375   0.63344363   418189 
 4785000   0.60814603   -3.0224677   -3.0224677   -2.3885569  0.035750621   -3.0224677   0.63391075   418189 
 4786000   0.60782122   -3.0219461   -3.0219461   -2.3883739  0.047178845   -3.0219461   0.63357218   418189 
 4787000   0.60671785   -3.0219807   -3.0219807   -2.3895586  0.040219699   -3.0219807   0.63242207   418189 
 4788000   0.60771311   -3.0229506   -3.0229506   -2.3894911  0.036821148   -3.0229506   0.63345949   418189 
 4789000   0.60731133   -3.0224031   -3.0224031   -2.3893625  0.028197596   -3.0224031   0.63304068   418189 
 4790000   0.60767971   -3.0229717   -3.0229717   -2.3895471  0.024152902   -3.0229717   0.63342467   418189 
 4791000   0.60820767    -3.023353    -3.023353    -2.389378  0.028261798    -3.023353   0.63397501   418189 
 4792000   0.60536979   -3.0213368   -3.0213368   -2.3903199  0.033936901   -3.0213368   0.63101689   418189 
 4793000   0.60721112   -3.0233706   -3.0233706   -2.3904344  0.034298767   -3.0233706   0.63293623   418189 
 4794000   0.60788834     -3.02395     -3.02395   -2.3903078  0.032125922     -3.02395   0.63364215   418189 
 4795000   0.60819592   -3.0245285   -3.0245285   -2.3905657  0.028141399   -3.0245285   0.63396275   418189 
 4796000   0.60705181    -3.023916    -3.023916   -2.3911458  0.047672822    -3.023916   0.63277018   418189 
 4797000   0.60768908   -3.0241237   -3.0241237   -2.3906893  0.033764739   -3.0241237   0.63343444   418189 
 4798000   0.60651272   -3.0223461   -3.0223461   -2.3901378  0.029113164   -3.0223461   0.63220824   418189 
 4799000   0.60673801   -3.0224356   -3.0224356   -2.3899925  0.031733879   -3.0224356   0.63244308   418189 
 4800000   0.60641286   -3.0225291   -3.0225291    -2.390425  0.031310616   -3.0225291   0.63210416   418189 
 4801000   0.60554357   -3.0214951   -3.0214951   -2.3902971    0.0238861   -3.0214951   0.63119803   418189 
 4802000   0.60571041   -3.0220838   -3.0220838   -2.3907119  0.041956489   -3.0220838   0.63137194   418189 
 4803000   0.60521674   -3.0216679   -3.0216679   -2.3908105  0.033794891   -3.0216679   0.63085736   418189 
 4804000   0.60485534   -3.0208344   -3.0208344   -2.3903538  0.026392209   -3.0208344   0.63048065   418189 
 4805000   0.60609517   -3.0219251   -3.0219251   -2.3901521  0.042443002   -3.0219251   0.63177301   418189 
 4806000   0.60569594   -3.0212894   -3.0212894   -2.3899325  0.023773968   -3.0212894   0.63135686   418189 
 4807000   0.60621844    -3.021632    -3.021632   -2.3897305  0.030425415    -3.021632    0.6319015   418189 
 4808000   0.60589795   -3.0213635   -3.0213635   -2.3897961  0.035082472   -3.0213635   0.63156743   418189 
 4809000   0.60507534   -3.0205175   -3.0205175   -2.3898076  0.026614036   -3.0205175   0.63070997   418189 
 4810000    0.6070801   -3.0220342   -3.0220342   -2.3892345  0.040439477   -3.0220342   0.63279966   418189 
 4811000     0.607727   -3.0224773   -3.0224773   -2.3890033  0.046071592   -3.0224773   0.63347397   418189 
 4812000    0.6072935   -3.0224811   -3.0224811    -2.389459  0.044642749   -3.0224811    0.6330221   418189 
 4813000   0.60804858   -3.0237792   -3.0237792     -2.38997  0.024409932   -3.0237792   0.63380918   418189 
 4814000   0.60753865   -3.0234503   -3.0234503   -2.3901727   0.03420919   -3.0234503   0.63327764   418189 
 4815000   0.60597251   -3.0218049   -3.0218049   -2.3901597  0.040391189   -3.0218049   0.63164515   418189 
 4816000   0.60553943   -3.0223053   -3.0223053   -2.3911115  0.030206942   -3.0223053   0.63119372   418189 
 4817000   0.60636288    -3.023512    -3.023512     -2.39146   0.04702737    -3.023512   0.63205205   418189 
 4818000   0.60706662   -3.0243225   -3.0243225   -2.3915368  0.048060358   -3.0243225   0.63278561   418189 
 4819000    0.6061696   -3.0238566   -3.0238566    -2.392006   0.04235457   -3.0238566   0.63185059   418189 
 4820000   0.60641693   -3.0230529   -3.0230529   -2.3909445  0.042003906   -3.0230529   0.63210839   418189 
 4821000   0.60563298   -3.0221065   -3.0221065   -2.3908153  0.030469906   -3.0221065   0.63129124   418189 
 4822000   0.60654125   -3.0231251   -3.0231251   -2.3908871   0.03796476   -3.0231251   0.63223798   418189 
 4823000   0.60685233   -3.0226038   -3.0226038   -2.3900415  0.033369775   -3.0226038   0.63256225   418189 
 4824000   0.60669516   -3.0228248   -3.0228248   -2.3904264  0.027667215   -3.0228248   0.63239841   418189 
 4825000   0.60774326   -3.0228188   -3.0228188   -2.3893279  0.032710336   -3.0228188   0.63349091   418189 
 4826000   0.60706183   -3.0229248   -3.0229248   -2.3901442  0.030168021   -3.0229248   0.63278062   418189 
 4827000   0.60597946   -3.0220727   -3.0220727   -2.3904203  0.037276076   -3.0220727   0.63165239   418189 
 4828000    0.6061592   -3.0224608   -3.0224608   -2.3906211  0.032189522   -3.0224608   0.63183975   418189 
 4829000   0.60561387   -3.0224067   -3.0224067   -2.3911354  0.036470738   -3.0224067   0.63127131   418189 
 4830000   0.60605262   -3.0226351   -3.0226351   -2.3909065  0.020621498   -3.0226351   0.63172865   418189 
 4831000   0.60532195   -3.0214796   -3.0214796   -2.3905126  0.030786632   -3.0214796   0.63096702   418189 
 4832000   0.60579083   -3.0225042   -3.0225042   -2.3910484  0.034422071   -3.0225042   0.63145577   418189 
 4833000   0.60574748   -3.0221799   -3.0221799   -2.3907693  0.039812879   -3.0221799   0.63141059   418189 
 4834000   0.60606348   -3.0234276   -3.0234276   -2.3916876  0.033147176   -3.0234276   0.63173997   418189 
 4835000    0.6066848   -3.0249564   -3.0249564   -2.3925688  0.039779595   -3.0249564   0.63238761   418189 
 4836000   0.60641202   -3.0249937   -3.0249937   -2.3928904    0.0361369   -3.0249937   0.63210328   418189 
 4837000   0.60604967   -3.0248699   -3.0248699   -2.3931444  0.027902252   -3.0248699   0.63172558   418189 
 4838000   0.60555821   -3.0246119   -3.0246119   -2.3933986  0.035224117   -3.0246119    0.6312133   418189 
 4839000   0.60463387   -3.0229371   -3.0229371   -2.3926873  0.047227236   -3.0229371    0.6302498   418189 
 4840000   0.60605035   -3.0241037   -3.0241037   -2.3923774  0.035381054   -3.0241037   0.63172629   418189 
 4841000    0.6056736   -3.0231709   -3.0231709   -2.3918373  0.023362917   -3.0231709   0.63133357   418189 
 4842000   0.60604627   -3.0234531   -3.0234531    -2.391731  0.033154126   -3.0234531   0.63172204   418189 
 4843000   0.60658192    -3.023934    -3.023934   -2.3916536  0.026174448    -3.023934   0.63228037   418189 
 4844000   0.60660349   -3.0237313   -3.0237313   -2.3914284     0.032105   -3.0237313   0.63230286   418189 
 4845000   0.60727072   -3.0239535   -3.0239535   -2.3909551  0.032106508   -3.0239535   0.63299836   418189 
 4846000   0.60595755    -3.023289    -3.023289   -2.3916595  0.039496237    -3.023289   0.63162956   418189 
 4847000   0.60654143   -3.0235831   -3.0235831   -2.3913449  0.039932457   -3.0235831   0.63223817   418189 
 4848000   0.60668903   -3.0232168   -3.0232168   -2.3908248  0.041278308   -3.0232168   0.63239203   418189 
 4849000   0.60807121   -3.0244914   -3.0244914   -2.3906586  0.028339052   -3.0244914   0.63383276   418189 
 4850000   0.60700655   -3.0233607   -3.0233607   -2.3906377  0.034819114   -3.0233607     0.632723   418189 
 4851000   0.60603573   -3.0229284   -3.0229284   -2.3912173  0.038630607   -3.0229284   0.63171105   418189 
 4852000   0.60805402   -3.0247162   -3.0247162   -2.3909013  0.034623949   -3.0247162   0.63381485   418189 
 4853000    0.6059902    -3.022292    -3.022292   -2.3906284  0.032385872    -3.022292   0.63166359   418189 
 4854000   0.60650243   -3.0229115   -3.0229115    -2.390714  0.036922032   -3.0229115   0.63219752   418189 
 4855000   0.60580988   -3.0227745   -3.0227745   -2.3912989  0.033407576   -3.0227745   0.63147563   418189 
 4856000   0.60507454   -3.0223408   -3.0223408   -2.3916317  0.041922177   -3.0223408   0.63070914   418189 
 4857000   0.60678397   -3.0240325   -3.0240325   -2.3915415  0.034729152   -3.0240325   0.63249099   418189 
 4858000   0.60591414   -3.0225908   -3.0225908   -2.3910065  0.046038576   -3.0225908    0.6315843   418189 
 4859000   0.60601107   -3.0229919   -3.0229919   -2.3913066  0.037000881   -3.0229919   0.63168534   418189 
 4860000    0.6059472   -3.0228885   -3.0228885   -2.3912697  0.041030446   -3.0228885   0.63161877   418189 
 4861000   0.60592446   -3.0232852   -3.0232852   -2.3916901  0.030624868   -3.0232852   0.63159506   418189 
 4862000   0.60613004   -3.0242696   -3.0242696   -2.3924602  0.025981847   -3.0242696   0.63180935   418189 
 4863000   0.60460167   -3.0227804   -3.0227804   -2.3925642  0.034834759   -3.0227804   0.63021624   418189 
 4864000    0.6047398   -3.0226911   -3.0226911   -2.3923309  0.037775542   -3.0226911   0.63036021   418189 
 4865000    0.6066772   -3.0243648   -3.0243648   -2.3919851  0.033903859   -3.0243648   0.63237969   418189 
 4866000   0.60653402   -3.0245542   -3.0245542   -2.3923238  0.036735958   -3.0245542   0.63223045   418189 
 4867000   0.60694722   -3.0243053   -3.0243053   -2.3916441   0.03406097   -3.0243053   0.63266116   418189 
 4868000   0.60633988   -3.0242198   -3.0242198   -2.3921917  0.039316477   -3.0242198   0.63202809   418189 
 4869000   0.60555686   -3.0236308   -3.0236308   -2.3924189  0.042593997   -3.0236308   0.63121189   418189 
 4870000   0.60648955   -3.0242514   -3.0242514   -2.3920674  0.043098228   -3.0242514    0.6321841   418189 
 4871000   0.60685445   -3.0243699   -3.0243699   -2.3918054  0.034440791   -3.0243699   0.63256445   418189 
 4872000   0.60730068   -3.0247653   -3.0247653   -2.3917357  0.039125889   -3.0247653   0.63302959   418189 
 4873000   0.60771829   -3.0250663   -3.0250663   -2.3916014   0.02935512   -3.0250663   0.63346489   418189 
 4874000    0.6069983   -3.0243389   -3.0243389   -2.3916245  0.035366087   -3.0243389    0.6327144   418189 
 4875000   0.60687367   -3.0241375   -3.0241375    -2.391553  0.037401549   -3.0241375   0.63258449   418189 
 4876000   0.60630027   -3.0236373   -3.0236373   -2.3916505  0.040483578   -3.0236373    0.6319868   418189 
 4877000   0.60536134    -3.023232    -3.023232   -2.3922239  0.040500297    -3.023232   0.63100808   418189 
 4878000   0.60558478   -3.0228736   -3.0228736   -2.3916326  0.034640691   -3.0228736     0.631241   418189 
 4879000   0.60585315   -3.0231408   -3.0231408   -2.3916201  0.030134708   -3.0231408   0.63152074   418189 
 4880000   0.60453842   -3.0224994   -3.0224994   -2.3923491  0.037576135   -3.0224994    0.6301503   418189 
 4881000   0.60582345   -3.0225248   -3.0225248    -2.391035  0.027782109   -3.0225248   0.63148977   418189 
 4882000   0.60589182   -3.0229117   -3.0229117   -2.3913507  0.028256556   -3.0229117   0.63156104   418189 
 4883000   0.60653212   -3.0233123   -3.0233123   -2.3910838  0.031334099   -3.0233123   0.63222847   418189 
 4884000   0.60651795   -3.0234991   -3.0234991   -2.3912854  0.035806745   -3.0234991   0.63221369   418189 
 4885000   0.60602317   -3.0228993   -3.0228993   -2.3912013  0.024772221   -3.0228993   0.63169796   418189 
 4886000   0.60820022   -3.0250702   -3.0250702    -2.391103  0.030657216   -3.0250702   0.63396723   418189 
 4887000   0.60548618   -3.0234698   -3.0234698   -2.3923316  0.040551781   -3.0234698   0.63113822   418189 
 4888000   0.60762094   -3.0253738   -3.0253738   -2.3920104    0.0427406   -3.0253738   0.63336341   418189 
 4889000   0.60617488   -3.0249327   -3.0249327   -2.3930766   0.03628748   -3.0249327   0.63185609   418189 
 4890000   0.60549938   -3.0244433   -3.0244433   -2.3932913   0.03811464   -3.0244433   0.63115197   418189 
 4891000   0.60636605   -3.0250701   -3.0250701   -2.3930148  0.027884084   -3.0250701   0.63205536   418189 
 4892000   0.60657253   -3.0255515   -3.0255515    -2.393281  0.033738249   -3.0255515   0.63227059   418189 
 4893000   0.60534037   -3.0241825   -3.0241825   -2.3931963  0.044318887   -3.0241825   0.63098623   418189 
 4894000    0.6065689   -3.0253566   -3.0253566   -2.3930898  0.039637077   -3.0253566    0.6322668   418189 
 4895000   0.60718949   -3.0255214   -3.0255214   -2.3926077  0.030329018   -3.0255214   0.63291369   418189 
 4896000   0.60590439   -3.0243004   -3.0243004   -2.3927263  0.030251491   -3.0243004   0.63157414   418189 
 4897000    0.6058577   -3.0239675   -3.0239675    -2.392442  0.026195909   -3.0239675   0.63152548   418189 
 4898000    0.6053908   -3.0239124   -3.0239124   -2.3928736  0.045133147   -3.0239124    0.6310388   418189 
 4899000   0.60616488   -3.0249787   -3.0249787    -2.393133  0.033259353   -3.0249787   0.63184567   418189 
 4900000   0.60589639   -3.0244225   -3.0244225   -2.3928567  0.034345028   -3.0244225    0.6315658   418189 
 4901000   0.60641034   -3.0253037   -3.0253037   -2.3932022  0.037468832   -3.0253037   0.63210152   418189 
 4902000   0.60643863   -3.0251715   -3.0251715   -2.3930405  0.034768828   -3.0251715   0.63213101   418189 
 4903000   0.60794764    -3.026488    -3.026488    -2.392784  0.043926456    -3.026488   0.63370396   418189 
 4904000   0.60675825   -3.0255618   -3.0255618   -2.3930976  0.032520119   -3.0255618   0.63246418   418189 
 4905000   0.60681741   -3.0262913   -3.0262913   -2.3937655  0.035243205   -3.0262913   0.63252584   418189 
 4906000   0.60611615   -3.0255326   -3.0255326   -2.3937377  0.037259404   -3.0255326   0.63179487   418189 
 4907000   0.60641296   -3.0263254   -3.0263254   -2.3942211  0.035542218   -3.0263254   0.63210426   418189 
 4908000   0.60606927   -3.0260072   -3.0260072   -2.3942612  0.028431627   -3.0260072   0.63174601   418189 
 4909000   0.60608781   -3.0259941   -3.0259941   -2.3942288  0.041929759   -3.0259941   0.63176533   418189 
 4910000    0.6063734   -3.0260688   -3.0260688   -2.3940058  0.034952407   -3.0260688   0.63206302   418189 
 4911000   0.60634693   -3.0262507   -3.0262507   -2.3942153  0.041924336   -3.0262507   0.63203543   418189 
 4912000   0.60628733   -3.0254053   -3.0254053    -2.393432  0.030006071   -3.0254053   0.63197331   418189 
 4913000   0.60607185   -3.0260454   -3.0260454   -2.3942967  0.029676505   -3.0260454    0.6317487   418189 
 4914000   0.60689019   -3.0271671   -3.0271671   -2.3945654  0.028342282   -3.0271671   0.63260171   418189 
 4915000   0.60677101     -3.02624     -3.02624   -2.3937625  0.028134008     -3.02624   0.63247748   418189 
 4916000   0.60492705   -3.0244604   -3.0244604    -2.393905  0.035826591   -3.0244604   0.63055539   418189 
 4917000   0.60654833   -3.0254069   -3.0254069   -2.3931615  0.022792981   -3.0254069   0.63224536   418189 
 4918000   0.60519168   -3.0243572   -3.0243572   -2.3935259  0.043266458   -3.0243572   0.63083124   418189 
 4919000   0.60622637   -3.0255782   -3.0255782   -2.3936684  0.036900682   -3.0255782   0.63190977   418189 
 4920000   0.60544895    -3.025335    -3.025335   -2.3942356  0.038104698    -3.025335   0.63109941   418189 
 4921000   0.60547048   -3.0253771   -3.0253771   -2.3942552  0.035012423   -3.0253771   0.63112185   418189 
 4922000   0.60545014   -3.0243967   -3.0243967   -2.3932961  0.039221775   -3.0243967   0.63110065   418189 
 4923000   0.60545172   -3.0248529   -3.0248529   -2.3937506  0.038143809   -3.0248529    0.6311023   418189 
 4924000   0.60601735   -3.0257261   -3.0257261   -2.3940342  0.034782271   -3.0257261   0.63169189   418189 
 4925000   0.60578656   -3.0258539   -3.0258539   -2.3944026   0.02905343   -3.0258539   0.63145132   418189 
 4926000   0.60689477    -3.025751    -3.025751   -2.3931445  0.034506381    -3.025751   0.63260648   418189 
 4927000   0.60792497   -3.0267959   -3.0267959   -2.3931156  0.028624051   -3.0267959   0.63368033   418189 
 4928000   0.60552148   -3.0251659   -3.0251659   -2.3939909  0.042581669   -3.0251659   0.63117501   418189 
 4929000    0.6053493   -3.0249136   -3.0249136   -2.3939181  0.028405456   -3.0249136   0.63099553   418189 
 4930000   0.60708195   -3.0260599   -3.0260599   -2.3932583   0.02658393   -3.0260599   0.63280159   418189 
 4931000   0.60636046   -3.0253394   -3.0253394   -2.3932898  0.032919537   -3.0253394   0.63204953   418189 
 4932000   0.60590037   -3.0245722   -3.0245722   -2.3930022  0.043112351   -3.0245722   0.63156995   418189 
 4933000   0.60546045   -3.0240576   -3.0240576   -2.3929462  0.038851195   -3.0240576   0.63111139   418189 
 4934000   0.60618457   -3.0246031   -3.0246031   -2.3927369   0.02809505   -3.0246031    0.6318662   418189 
 4935000   0.60501798   -3.0239801   -3.0239801   -2.3933299  0.035905551   -3.0239801   0.63065018   418189 
 4936000   0.60478517   -3.0236327   -3.0236327   -2.3932252  0.043994783   -3.0236327    0.6304075   418189 
 4937000   0.60575628   -3.0244093   -3.0244093   -2.3929895  0.030762439   -3.0244093   0.63141975   418189 
 4938000    0.6053354   -3.0234189   -3.0234189   -2.3924379  0.027757076   -3.0234189   0.63098105   418189 
 4939000    0.6065876   -3.0250484   -3.0250484   -2.3927621   0.03027204   -3.0250484    0.6322863   418189 
 4940000   0.60785456   -3.0261186   -3.0261186   -2.3925116  0.032171856   -3.0261186   0.63360694   418189 
 4941000   0.60644614   -3.0247214   -3.0247214   -2.3925826  0.037937745   -3.0247214   0.63213885   418189 
 4942000   0.60625633   -3.0252388   -3.0252388   -2.3932978  0.042555742   -3.0252388   0.63194099   418189 
 4943000   0.60677223   -3.0255724   -3.0255724   -2.3930937  0.034549464   -3.0255724   0.63247875   418189 
 4944000   0.60712588   -3.0260862   -3.0260862   -2.3932388  0.028613619   -3.0260862   0.63284738   418189 
 4945000   0.60647608   -3.0258044   -3.0258044   -2.3936344  0.042180897   -3.0258044   0.63217005   418189 
 4946000   0.60488107   -3.0245452   -3.0245452   -2.3940377  0.037623214   -3.0245452   0.63050746   418189 
 4947000   0.60445682   -3.0244112   -3.0244112   -2.3943459  0.042673745   -3.0244112   0.63006525   418189 
 4948000   0.60561268   -3.0253234   -3.0253234   -2.3940533  0.030763778   -3.0253234   0.63127007   418189 
 4949000   0.60577064   -3.0247839   -3.0247839   -2.3933492  0.034255077   -3.0247839   0.63143473   418189 
 4950000   0.60625801    -3.025626    -3.025626   -2.3936832  0.033831221    -3.025626   0.63194274   418189 
 4951000   0.60563069    -3.024892    -3.024892   -2.3936031  0.034623591    -3.024892   0.63128885   418189 
 4952000   0.60688485   -3.0256605   -3.0256605   -2.3930643  0.032499037   -3.0256605   0.63259614   418189 
 4953000    0.6051448   -3.0242019   -3.0242019   -2.3934195  0.031013737   -3.0242019   0.63078237   418189 
 4954000   0.60700936   -3.0260216   -3.0260216   -2.3932957  0.027531848   -3.0260216   0.63272593   418189 
 4955000   0.60619702   -3.0251783   -3.0251783   -2.3932991  0.037134441   -3.0251783   0.63187917   418189 
 4956000   0.60705358   -3.0258645   -3.0258645   -2.3930925  0.041266476   -3.0258645   0.63277202   418189 
 4957000   0.60636287     -3.02598     -3.02598   -2.3939279   0.03977298     -3.02598   0.63205205   418189 
 4958000   0.60633155   -3.0260398   -3.0260398   -2.3940204  0.047689495   -3.0260398    0.6320194   418189 
 4959000   0.60604869   -3.0255538   -3.0255538   -2.3938292  0.039320455   -3.0255538   0.63172455   418189 
 4960000   0.60601247   -3.0254129   -3.0254129   -2.3937261   0.03911702   -3.0254129    0.6316868   418189 
 4961000   0.60489483   -3.0245569   -3.0245569   -2.3940351  0.035552475   -3.0245569   0.63052181   418189 
 4962000   0.60573123   -3.0261929   -3.0261929   -2.3947993   0.03235125   -3.0261929   0.63139365   418189 
 4963000   0.60657486   -3.0259411   -3.0259411   -2.3936681  0.030049035   -3.0259411   0.63227302   418189 
 4964000   0.60519763   -3.0252177   -3.0252177   -2.3943803  0.044254553   -3.0252177   0.63083744   418189 
 4965000   0.60521789    -3.025303    -3.025303   -2.3944444  0.040731303    -3.025303   0.63085856   418189 
 4966000   0.60623843   -3.0267807   -3.0267807   -2.3948583  0.027471304   -3.0267807   0.63192234   418189 
 4967000   0.60541664   -3.0251958   -3.0251958     -2.39413  0.030017618   -3.0251958   0.63106573   418189 
 4968000   0.60746439   -3.0273139   -3.0273139   -2.3941137  0.041169569   -3.0273139   0.63320023   418189 
 4969000   0.60700489   -3.0274973   -3.0274973   -2.3947761  0.030289654   -3.0274973   0.63272126   418189 
 4970000   0.60480574   -3.0257304   -3.0257304   -2.3953015  0.036705888   -3.0257304   0.63042895   418189 
 4971000   0.60578632   -3.0266615   -3.0266615   -2.3952104  0.034752693   -3.0266615   0.63145107   418189 
 4972000   0.60623231   -3.0267941   -3.0267941   -2.3948781  0.036145163   -3.0267941   0.63191595   418189 
 4973000   0.60546626   -3.0257233   -3.0257233   -2.3946059  0.033745329   -3.0257233   0.63111745   418189 
 4974000   0.60622974   -3.0263633   -3.0263633   -2.3944501  0.036988835   -3.0263633   0.63191327   418189 
 4975000   0.60603223   -3.0266658   -3.0266658   -2.3949584  0.044529006   -3.0266658    0.6317074   418189 
 4976000   0.60545968   -3.0258648   -3.0258648   -2.3947542  0.037327968   -3.0258648   0.63111059   418189 
 4977000   0.60661588   -3.0272295   -3.0272295   -2.3949137  0.028214168   -3.0272295   0.63231577   418189 
 4978000   0.60667496   -3.0275752   -3.0275752   -2.3951979  0.021901427   -3.0275752   0.63237736   418189 
 4979000   0.60723552   -3.0278848   -3.0278848   -2.3949232  0.034732635   -3.0278848   0.63296167   418189 
 4980000   0.60657524   -3.0269299   -3.0269299   -2.3946565  0.028892471   -3.0269299   0.63227342   418189 
 4981000   0.60561395   -3.0255686   -3.0255686   -2.3942972  0.031064645   -3.0255686    0.6312714   418189 
 4982000   0.60587673   -3.0252984   -3.0252984    -2.393753  0.040152136   -3.0252984   0.63154531   418189 
 4983000   0.60535284   -3.0252347   -3.0252347   -2.3942354  0.039151555   -3.0252347   0.63099923   418189 
 4984000   0.60474106   -3.0243275   -3.0243275    -2.393966  0.036932716   -3.0243275   0.63036153   418189 
 4985000   0.60454713   -3.0237936   -3.0237936   -2.3936342  0.031863329   -3.0237936   0.63015938   418189 
 4986000   0.60622537   -3.0256597   -3.0256597    -2.393751  0.031793175   -3.0256597   0.63190872   418189 
 4987000   0.60582672   -3.0253778   -3.0253778   -2.3938847  0.037098454   -3.0253778   0.63149319   418189 
 4988000   0.60429433   -3.0232316   -3.0232316   -2.3933357   0.03708484   -3.0232316   0.62989587   418189 
 4989000   0.60599951   -3.0253671   -3.0253671   -2.3936939  0.037890647   -3.0253671   0.63167329   418189 
 4990000   0.60577524   -3.0253977   -3.0253977   -2.3939582  0.037028363   -3.0253977   0.63143952   418189 
 4991000   0.60594965   -3.0261139   -3.0261139   -2.3944926  0.036422959   -3.0261139   0.63162132   418189 
 4992000   0.60682917   -3.0261529   -3.0261529   -2.3936148  0.028967449   -3.0261529    0.6325381   418189 
 4993000   0.60729894   -3.0264052   -3.0264052   -2.3933774  0.024375169   -3.0264052   0.63302777   418189 
 4994000    0.6063907   -3.0248082   -3.0248082   -2.3927272  0.035739633   -3.0248082   0.63208105   418189 
 4995000   0.60683065   -3.0260972   -3.0260972   -2.3935575  0.039845039   -3.0260972   0.63253965   418189 
 4996000   0.60790047   -3.0272626   -3.0272626   -2.3936078   0.03915698   -3.0272626   0.63365479   418189 
 4997000   0.60528211   -3.0248111   -3.0248111   -2.3938856  0.039271081   -3.0248111    0.6309255   418189 
 4998000   0.60588025   -3.0259135   -3.0259135   -2.3943645    0.0489496   -3.0259135   0.63154898   418189 
 4999000   0.60460705   -3.0243168   -3.0243168    -2.394095  0.038390218   -3.0243168   0.63022184   418189 
 5000000   0.60589831   -3.0255147   -3.0255147   -2.3939469  0.032199706   -3.0255147    0.6315678   418189 
Loop time of 16072.7 on 288 procs for 5000000 steps with 418189 atoms

Performance: 134389.242 tau/day, 311.086 timesteps/s
92.0% CPU use with 288 MPI tasks x 1 OpenMP threads

MPI task timing breakdown:
Section |  min time  |  avg time  |  max time  |%varavg|  %CPU | %total
-----------------------------------------------------------------------
Pair    | 231.46     | 2296.7     | 4480       |1882.0 |  95.1 | 14.29
Bond    | 3.2767     | 3.4367     | 3.8163     |   4.4 | 100.0 |  0.02
Neigh   | 521.58     | 3160.4     | 6227.5     |1898.1 |  98.9 | 19.66
Comm    | 3314.5     | 6330.6     | 12490      |2783.1 |  90.2 | 39.39
Output  | 787.82     | 793.8      | 807.25     |  28.1 |  88.0 |  4.94
Modify  | 948.32     | 3361.1     | 9538.6     |2195.3 |  91.2 | 20.91
Other   |            | 126.8      |            |       |       |  0.79

Nlocal:        1452.05 ave        2679 max         374 min
Histogram: 7 3 1 14 192 58 3 3 2 5
Nghost:        7233.65 ave       10035 max        1129 min
Histogram: 3 14 12 6 25 19 20 80 81 28
Neighs:        36023.9 ave       79160 max        1366 min
Histogram: 30 3 16 32 74 93 33 2 4 1

Total # of neighbors = 10374884
Ave neighs/atom = 24.809079
Ave special neighs/atom = 0.0000000
Neighbor list builds = 496390
Dangerous builds = 438616

Total wall time: 4:27:57
