LAMMPS (24 Dec 2020)
OMP_NUM_THREADS environment is not set. Defaulting to 1 thread. (src/comm.cpp:94)
  using 1 OpenMP thread(s) per MPI task
# Simple rigid body system
# needed variables:

units		lj
atom_style	full
dimension 	3
boundary	p p f
pair_style	lj/cut/opt 2.5


variable 	sigma		equal 1.0
variable 	epsilon 	equal 1.0


region		box block 0 80 0 80 0 80
create_box 	3 box
Created orthogonal box = (0.0000000 0.0000000 0.0000000) to (80.000000 80.000000 80.000000)
  2 by 4 by 4 MPI processor grid
lattice 	sc 1.0
Lattice spacing in x,y,z = 1.0000000 1.0000000 1.0000000

create_atoms 	1 region box
Created 512000 atoms
  create_atoms CPU = 0.028 seconds

mass		1 1.0
mass		2 1.0
mass		3 1.0


group		solvent type 1
512000 atoms in group solvent


velocity 	solvent create ${startTemp} 563435 loop geom
velocity 	solvent create 0.5 563435 loop geom

read_data	data.vac add append
Reading data file ...
  orthogonal box = (0.0000000 0.0000000 0.0000000) to (80.000000 80.000000 160.00000)
  2 by 2 by 8 MPI processor grid
Finding 1-2 1-3 1-4 neighbors ...
  special bond factors lj:    0        0        0       
  special bond factors coul:  0        0        0       
     0 = max # of 1-2 neighbors
     0 = max # of 1-3 neighbors
     0 = max # of 1-4 neighbors
     1 = max # of special neighbors
  special bonds CPU = 0.083 seconds
  read_data CPU = 0.092 seconds

neighbor 	0.4 bin

pair_coeff	1 1 1.0 1.0
pair_coeff	2 2 0.0 0.0
pair_coeff	3 3 0.0 0.0
pair_coeff	2 3 0.0 0.0
pair_coeff	1 2*3 0.0 0.0

pair_modify 	shift yes


balance 	1.05 shift z 10 1.05
Balancing ...
Neighbor list info ...
  update every 1 steps, delay 10 steps, check yes
  max neighbors/atom: 2000, page size: 100000
  master list distance cutoff = 2.9
  ghost atom cutoff = 2.9
  binsize = 1.45, bins = 56 56 111
  1 neighbor lists, perpetual/occasional/extra = 1 0 0
  (1) pair lj/cut/opt, perpetual
      attributes: half, newton on
      pair build: half/bin/newton
      stencil: half/bin/3d/newton
      bin: standard
 rebalancing time: 0.016 seconds
  iteration count = 5
  initial/final maximal load/proc = 32000.000 19200.000
  initial/final imbalance factor  = 2.0000000 1.2000000
  x cuts: 0.0000000 0.50000000 1.0000000
  y cuts: 0.0000000 0.50000000 1.0000000
  z cuts: 0.0000000 0.062500000 0.12890625 0.18750000 0.25781250 0.30859375 0.38671875 0.43750000 1.0000000


####################### WALLS ###########################


region	       low block  EDGE EDGE EDGE EDGE 0 2

region 	       top block  EDGE EDGE EDGE EDGE 159 160


delete_atoms   region low
WARNING: Ignoring 'compress yes' for molecular system (src/delete_atoms.cpp:125)
Deleted 19200 atoms, new total = 492800

delete_atoms   region top
WARNING: Ignoring 'compress yes' for molecular system (src/delete_atoms.cpp:125)
Deleted 0 atoms, new total = 492800


variable       epsilonWall equal 2*${epsilon}
variable       epsilonWall equal 2*1

variable       cutoffTop   equal   0.7147*${sigma}
variable       cutoffTop   equal   0.7147*1

variable       cutoffLow   equal   3*${sigma}
variable       cutoffLow   equal   3*1


fix            topWall all wall/lj93 zhi EDGE                ${epsilonWall} ${sigma} ${cutoffTop} units box
fix            topWall all wall/lj93 zhi EDGE                2 ${sigma} ${cutoffTop} units box
fix            topWall all wall/lj93 zhi EDGE                2 1 ${cutoffTop} units box
fix            topWall all wall/lj93 zhi EDGE                2 1 0.7147 units box

fix            lowWall all wall/lj93 zlo EDGE                ${epsilonWall} ${sigma} ${cutoffLow} units box
fix            lowWall all wall/lj93 zlo EDGE                2 ${sigma} ${cutoffLow} units box
fix            lowWall all wall/lj93 zlo EDGE                2 1 ${cutoffLow} units box
fix            lowWall all wall/lj93 zlo EDGE                2 1 3 units box


###################### COMPUTES ##########################

compute        bin1 solvent chunk/atom bin/1d z upper 1.0



######################	FIXES ############################


fix 		peclet solvent ave/chunk 1000 1 1000 bin1 density/number norm 		 none ave one file density.profile

fix 		2 solvent nve

## Thermostat


region		regthermo block EDGE EDGE EDGE EDGE 0 20

group 		thermo dynamic solvent region regthermo every 1000
dynamic group thermo defined

fix 		3 thermo langevin ${startTemp} ${temp} 10 156453
fix 		3 thermo langevin 0.5 ${temp} 10 156453
fix 		3 thermo langevin 0.5 1.0 10 156453



#### Load balancing


fix 		bal all balance 1000 1.05 shift z 10 1.05


############### Diagnostics and computes ###################
#compute 	com cube	  rigid/local	1 mol x y z
#compute 	quat cube	  rigid/local	1 mol quatw quati quatj quatk

thermo 		1000
thermo_style 	custom step temp epair evdwl etotal press pe ke vol

dump		1 all custom 100000 dump.lammpstrj id mol type x y z
dump 		2 all image 10000 image.*.png type type
dump 		3 all movie 1000 movie.avi type type
#dump 		com cube local 1000 dump.*.xyz c_com[*]
#dump		quat cube      local 1000 dump.*.quat c_quat[*]


restart 	500000 restart.dat
timestep 	0.0025
timer 		full
New timer settings: style=full  mode=nosync  timeout=off


run		1000000
Per MPI rank memory allocation (min/avg/max) = 21.45 | 22.19 | 22.73 Mbytes
Step Temp E_pair E_vdwl TotEng Press PotEng KinEng Volume 
       0   0.49998514   -3.2974116   -3.2974116   -2.5474355    8.3319627   -3.2974116   0.74997619      1024000 
    1000    1.4269541   -4.8131648   -4.8131648    -2.672738    3.6875315   -4.8131648    2.1404268      1024000 
    2000    1.3647035   -4.8602291   -4.8602291   -2.8131781    2.4739533   -4.8602291     2.047051      1024000 
    3000    1.2649312   -4.8381851   -4.8381851   -2.9407921    1.6291308   -4.8381851     1.897393      1024000 
    4000    1.2121589   -4.8480334   -4.8480334   -3.0297987    0.7259516   -4.8480334    1.8182347      1024000 
    5000    1.1428557   -4.7879468   -4.7879468   -3.0736667  0.081619807   -4.7879468    1.7142801      1024000 
    6000    1.0635419   -4.6838788   -4.6838788   -3.0885692  -0.25620909   -4.6838788    1.5953096      1024000 
    7000    1.0033734    -4.595361    -4.595361   -3.0903039   -0.3592134    -4.595361    1.5050571      1024000 
    8000    0.9898064   -4.5747744   -4.5747744   -3.0900678  -0.24284365   -4.5747744    1.4847066      1024000 
    9000    1.0040782   -4.6013276   -4.6013276   -3.0952133 -0.091367932   -4.6013276    1.5061143      1024000 
   10000    1.0090737   -4.6199769   -4.6199769   -3.1063694 -0.017142828   -4.6199769    1.5136074      1024000 
   11000    1.0062183   -4.6277122   -4.6277122   -3.1183878  0.013462026   -4.6277122    1.5093244      1024000 
   12000    1.0051245   -4.6359945   -4.6359945   -3.1283108  0.024980008   -4.6359945    1.5076837      1024000 
   13000    1.0091392   -4.6508003   -4.6508003   -3.1370945  0.064428182   -4.6508003    1.5137058      1024000 
   14000     1.011235    -4.662303    -4.662303   -3.1454535  0.094678637    -4.662303    1.5168495      1024000 
   15000    1.0096461   -4.6666646   -4.6666646   -3.1521985  0.096440287   -4.6666646    1.5144661      1024000 
   16000    1.0046796    -4.665606    -4.665606   -3.1585897  0.089177375    -4.665606    1.5070163      1024000 
   17000    1.0029847   -4.6684261   -4.6684261   -3.1639521  0.082802592   -4.6684261     1.504474      1024000 
   18000    1.0024853   -4.6726923   -4.6726923   -3.1689674  0.097308206   -4.6726923    1.5037249      1024000 
   19000    1.0046897   -4.6799728   -4.6799728   -3.1729413   0.10633599   -4.6799728    1.5070315      1024000 
   20000    1.0037625   -4.6822333   -4.6822333   -3.1765926   0.11653507   -4.6822333    1.5056407      1024000 
   21000    1.0028248   -4.6841502   -4.6841502    -3.179916   0.12108479   -4.6841502    1.5042342      1024000 
   22000    1.0013772   -4.6855874   -4.6855874   -3.1835247   0.10946067   -4.6855874    1.5020627      1024000 
   23000    1.0016665   -4.6892361   -4.6892361   -3.1867393   0.12216687   -4.6892361    1.5024968      1024000 
   24000    1.0067831    -4.700395    -4.700395   -3.1902234   0.27367078    -4.700395    1.5101716      1024000 
   25000    1.0202785   -4.7228441   -4.7228441   -3.1924294   0.73932748   -4.7228441    1.5304146      1024000 
   26000     1.032701   -4.7437299   -4.7437299   -3.1946815    1.0131917   -4.7437299    1.5490484      1024000 
   27000    1.0436539   -4.7613834   -4.7613834   -3.1959057    1.3539108   -4.7613834    1.5654777      1024000 
   28000    1.0424376   -4.7616217   -4.7616217   -3.1979684    1.6483398   -4.7616217    1.5636533      1024000 
   29000    1.0267139   -4.7408329   -4.7408329   -3.2007653    1.2980365   -4.7408329    1.5400677      1024000 
   30000    0.9991425   -4.7014317   -4.7014317    -3.202721   0.98334973   -4.7014317    1.4987107      1024000 
   31000   0.98165948    -4.675768    -4.675768   -3.2032818   0.63261897    -4.675768    1.4724862      1024000 
   32000    0.9562553   -4.6381252   -4.6381252   -3.2037451   0.38496121   -4.6381252      1.43438      1024000 
   33000   0.92296523    -4.589468    -4.589468    -3.205023   0.21958399    -4.589468     1.384445      1024000 
   34000   0.88646891   -4.5363912   -4.5363912   -3.2066905  0.059473985   -4.5363912    1.3297007      1024000 
   35000   0.85177076   -4.4860655   -4.4860655    -3.208412 -0.053253084   -4.4860655    1.2776535      1024000 
   36000   0.82948997   -4.4537637   -4.4537637   -3.2095313 -0.097089058   -4.4537637    1.2442324      1024000 
   37000   0.81846676   -4.4387129   -4.4387129   -3.2110152  -0.10644793   -4.4387129    1.2276976      1024000 
   38000   0.82078254   -4.4434296   -4.4434296   -3.2122583  -0.09479241   -4.4434296    1.2311713      1024000 
   39000   0.82587028   -4.4525209   -4.4525209   -3.2137179 -0.058243048   -4.4525209    1.2388029      1024000 
   40000   0.83761601   -4.4712801   -4.4712801   -3.2148586 -0.024723704   -4.4712801    1.2564215      1024000 
   41000   0.84895414   -4.4893622   -4.4893622   -3.2159335  0.022517825   -4.4893622    1.2734286      1024000 
   42000   0.86010169   -4.5074963   -4.5074963   -3.2173463  0.067760369   -4.5074963    1.2901499      1024000 
   43000   0.86864006   -4.5210329   -4.5210329   -3.2180754   0.10467329   -4.5210329    1.3029574      1024000 
   44000   0.87211388   -4.5267688   -4.5267688   -3.2186006   0.11876066   -4.5267688    1.3081682      1024000 
   45000   0.87044176   -4.5256796   -4.5256796   -3.2200196   0.10732353   -4.5256796      1.30566      1024000 
   46000   0.86537038   -4.5192898   -4.5192898   -3.2212369  0.090242013   -4.5192898    1.2980529      1024000 
   47000   0.85874757   -4.5111222   -4.5111222   -3.2230034  0.066526779   -4.5111222    1.2881187      1024000 
   48000    0.8553294   -4.5070576   -4.5070576   -3.2240661  0.041999123   -4.5070576    1.2829915      1024000 
   49000   0.85263161   -4.5046313   -4.5046313   -3.2256865  0.039372351   -4.5046313    1.2789448      1024000 
   50000   0.85203025   -4.5053789   -4.5053789   -3.2273362  0.041001731   -4.5053789    1.2780428      1024000 
   51000    0.8548579   -4.5106655   -4.5106655   -3.2283813  0.049731806   -4.5106655    1.2822842      1024000 
   52000   0.85643861   -4.5155252   -4.5155252   -3.2308699  0.059328342   -4.5155252    1.2846553      1024000 
   53000   0.85831993    -4.520074    -4.520074   -3.2325967  0.062062553    -4.520074    1.2874773      1024000 
   54000   0.86047002   -4.5250661   -4.5250661   -3.2343637  0.071275119   -4.5250661    1.2907024      1024000 
   55000   0.86176588   -4.5289491   -4.5289491   -3.2363029  0.085959205   -4.5289491    1.2926462      1024000 
   56000   0.86367027   -4.5340889   -4.5340889   -3.2385862  0.092769461   -4.5340889    1.2955028      1024000 
   57000   0.86375359   -4.5362943   -4.5362943   -3.2406665   0.10061296   -4.5362943    1.2956278      1024000 
   58000   0.86388958    -4.537762    -4.537762   -3.2419302   0.10855722    -4.537762    1.2958317      1024000 
   59000   0.86522278   -4.5424817   -4.5424817   -3.2446502   0.10864299   -4.5424817    1.2978315      1024000 
   60000   0.86453685   -4.5438176   -4.5438176   -3.2470149   0.11916655   -4.5438176    1.2968027      1024000 
   61000   0.86583967   -4.5496413   -4.5496413   -3.2508845   0.12289188   -4.5496413    1.2987569      1024000 
   62000   0.86719176   -4.5553182   -4.5553182   -3.2545332   0.14049728   -4.5553182     1.300785      1024000 
   63000   0.86863033   -4.5620611   -4.5620611   -3.2591183     0.159229   -4.5620611    1.3029429      1024000 
   64000   0.87248542   -4.5734383   -4.5734383   -3.2647129   0.17571336   -4.5734383    1.3087255      1024000 
   65000   0.87534494   -4.5827481   -4.5827481   -3.2697333   0.21525786   -4.5827481    1.3130148      1024000 
   66000   0.88069974   -4.5976708   -4.5976708   -3.2766238   0.26350917   -4.5976708    1.3210469      1024000 
   67000   0.88891207   -4.6180449   -4.6180449   -3.2846795   0.31803941   -4.6180449    1.3333654      1024000 
   68000   0.88993876   -4.6294273   -4.6294273   -3.2945219   0.37012011   -4.6294273    1.3349054      1024000 
   69000   0.88669085   -4.6369166   -4.6369166   -3.3068831    0.3862794   -4.6369166    1.3300336      1024000 
   70000   0.87850728    -4.635402    -4.635402   -3.3176438   0.35531345    -4.635402    1.3177582      1024000 
   71000   0.86781119   -4.6295353   -4.6295353   -3.3278212   0.35197269   -4.6295353    1.3017141      1024000 
   72000   0.85641622   -4.6339194   -4.6339194   -3.3492977   0.44105748   -4.6339194    1.2846217      1024000 
   73000   0.84733973   -4.6476818   -4.6476818   -3.3766748   0.48313006   -4.6476818     1.271007      1024000 
   74000   0.84072477   -4.6635892   -4.6635892   -3.4025046   0.48674246   -4.6635892    1.2610846      1024000 
   75000   0.83893502   -4.6809659   -4.6809659   -3.4225659   0.48215492   -4.6809659       1.2584      1024000 
   76000   0.84056426   -4.6999219   -4.6999219   -3.4390781   0.47109284   -4.6999219    1.2608438      1024000 
   77000   0.84281011    -4.716307    -4.716307   -3.4520944   0.47862122    -4.716307    1.2642126      1024000 
   78000   0.84823504   -4.7346932   -4.7346932   -3.4623432   0.49225013   -4.7346932      1.27235      1024000 
   79000   0.84214624   -4.7330574   -4.7330574   -3.4698406   0.45154758   -4.7330574    1.2632168      1024000 
   80000   0.82438243   -4.7110838   -4.7110838   -3.4745127    0.3377455   -4.7110838    1.2365711      1024000 
   81000   0.80414939   -4.6850771   -4.6850771   -3.4788555   0.22576732   -4.6850771    1.2062216      1024000 
   82000   0.78547676   -4.6608295   -4.6608295   -3.4826168   0.14993989   -4.6608295    1.1782128      1024000 
   83000   0.76799759   -4.6389572   -4.6389572   -3.4869631  0.094823236   -4.6389572    1.1519941      1024000 
   84000   0.75241738   -4.6198609   -4.6198609   -3.4912371  0.045086702   -4.6198609    1.1286238      1024000 
   85000   0.73917443   -4.6049874   -4.6049874    -3.496228 -0.013325619   -4.6049874    1.1087594      1024000 
   86000   0.72747336   -4.5904332   -4.5904332   -3.4992254 -0.076436856   -4.5904332    1.0912078      1024000 
   87000   0.71799169   -4.5764125   -4.5764125   -3.4994271  -0.13454592   -4.5764125    1.0769853      1024000 
   88000   0.70899048   -4.5601115   -4.5601115    -3.496628   -0.1841031   -4.5601115    1.0634836      1024000 
   89000   0.70124178   -4.5453588   -4.5453588   -3.4934983  -0.21892481   -4.5453588    1.0518605      1024000 
   90000   0.69663094   -4.5336166   -4.5336166   -3.4886723  -0.23694628   -4.5336166    1.0449443      1024000 
   91000   0.69498851   -4.5252762   -4.5252762   -3.4827956  -0.24707761   -4.5252762    1.0424806      1024000 
   92000    0.6959681   -4.5214834   -4.5214834   -3.4775333  -0.23761463   -4.5214834      1.04395      1024000 
   93000   0.69821555   -4.5209202   -4.5209202    -3.473599  -0.22076192   -4.5209202    1.0473212      1024000 
   94000   0.70338934   -4.5256668   -4.5256668   -3.4705849  -0.19534955   -4.5256668    1.0550819      1024000 
   95000   0.71151135   -4.5373767   -4.5373767   -3.4701118  -0.16549372   -4.5373767    1.0672649      1024000 
   96000   0.71815146   -4.5477151   -4.5477151   -3.4704901  -0.12203813   -4.5477151     1.077225      1024000 
   97000   0.72504641   -4.5612613   -4.5612613   -3.4736938 -0.078503742   -4.5612613    1.0875674      1024000 
   98000    0.7328495   -4.5769275   -4.5769275   -3.4776555 -0.029975011   -4.5769275     1.099272      1024000 
   99000    0.7392939   -4.5923586   -4.5923586     -3.48342 0.0097991963   -4.5923586    1.1089386      1024000 
  100000   0.74409852   -4.6057636   -4.6057636   -3.4896181  0.028739545   -4.6057636    1.1161455      1024000 
  101000    0.7459349   -4.6134069   -4.6134069   -3.4945068   0.04457072   -4.6134069    1.1189001      1024000 
  102000   0.74538916   -4.6172781   -4.6172781   -3.4991966  0.039712084   -4.6172781    1.1180815      1024000 
  103000   0.74211982   -4.6163941   -4.6163941   -3.5032167   0.02535329   -4.6163941    1.1131775      1024000 
  104000   0.73818808   -4.6135631   -4.6135631   -3.5062833 0.0038110853   -4.6135631    1.1072799      1024000 
  105000   0.73468179   -4.6103895   -4.6103895   -3.5083691 -0.014766828   -4.6103895    1.1020204      1024000 
  106000    0.7326244   -4.6085288   -4.6085288   -3.5095944 -0.029276733   -4.6085288    1.0989344      1024000 
  107000   0.73026378    -4.606039    -4.606039   -3.5106456 -0.031070833    -4.606039    1.0953934      1024000 
  108000   0.72958549   -4.6069486   -4.6069486   -3.5125726 -0.026463154   -4.6069486     1.094376      1024000 
  109000   0.73014057   -4.6098224   -4.6098224   -3.5146138 -0.025532069   -4.6098224    1.0952086      1024000 
  110000    0.7316472   -4.6144975   -4.6144975   -3.5170289 -0.021676792   -4.6144975    1.0974686      1024000 
  111000   0.73265727   -4.6183619   -4.6183619   -3.5193783 -0.011379794   -4.6183619    1.0989837      1024000 
  112000   0.73482832   -4.6233691   -4.6233691   -3.5211289 -0.0051740578   -4.6233691    1.1022402      1024000 
  113000   0.73653701   -4.6280095   -4.6280095   -3.5232062 0.0040048213   -4.6280095    1.1048033      1024000 
  114000   0.73646771   -4.6299929   -4.6299929   -3.5252935 0.0040677671   -4.6299929    1.1046993      1024000 
  115000   0.73663676   -4.6327234   -4.6327234   -3.5277705 0.0070497057   -4.6327234    1.1049529      1024000 
  116000   0.73520627    -4.632864    -4.632864   -3.5300568 0.0083903957    -4.632864    1.1028072      1024000 
  117000   0.73413395   -4.6329081   -4.6329081   -3.5317094   0.01125733   -4.6329081    1.1011987      1024000 
  118000    0.7336825   -4.6341432   -4.6341432   -3.5336217 0.0077037822   -4.6341432    1.1005215      1024000 
  119000   0.73217093   -4.6347598   -4.6347598   -3.5365056 -0.0029081764   -4.6347598    1.0982542      1024000 
  120000   0.73220377   -4.6368493   -4.6368493   -3.5385458 -0.0066274561   -4.6368493    1.0983034      1024000 
  121000   0.73005727   -4.6356387   -4.6356387    -3.540555 -0.0035324765   -4.6356387    1.0950837      1024000 
  122000   0.72983548   -4.6361729   -4.6361729   -3.5414219 -0.0050288343   -4.6361729     1.094751      1024000 
  123000   0.72954378   -4.6370322   -4.6370322   -3.5427187 -0.00078577796   -4.6370322    1.0943134      1024000 
  124000   0.73083105   -4.6400798   -4.6400798   -3.5438355 -3.8345538e-05   -4.6400798    1.0962443      1024000 
  125000   0.73103676   -4.6406971   -4.6406971   -3.5441442 0.0028855787   -4.6406971    1.0965529      1024000 
  126000   0.73197187   -4.6433437   -4.6433437   -3.5453881 -0.00072902944   -4.6433437    1.0979556      1024000 
  127000   0.73098481   -4.6435715   -4.6435715   -3.5470966 -0.0011869534   -4.6435715     1.096475      1024000 
  128000   0.73113399   -4.6448402   -4.6448402   -3.5481415 -0.0022497895   -4.6448402    1.0966988      1024000 
  129000   0.73144501   -4.6461994   -4.6461994   -3.5490341 0.0010775656   -4.6461994    1.0971653      1024000 
  130000   0.73063145   -4.6470987   -4.6470987   -3.5511537 0.0010509762   -4.6470987     1.095945      1024000 
  131000   0.73020952   -4.6484588   -4.6484588   -3.5531467 0.0037552901   -4.6484588    1.0953121      1024000 
  132000   0.73053796   -4.6511313   -4.6511313   -3.5553266 0.0042929308   -4.6511313    1.0958047      1024000 
  133000   0.73118543   -4.6539463   -4.6539463   -3.5571704 0.0042234682   -4.6539463    1.0967759      1024000 
  134000   0.73137977   -4.6549841   -4.6549841   -3.5579167 0.0027408024   -4.6549841    1.0970674      1024000 
  135000   0.73051339   -4.6559126   -4.6559126   -3.5601447 0.0073546424   -4.6559126    1.0957679      1024000 
  136000   0.72899712   -4.6550624   -4.6550624   -3.5615689 0.0097460652   -4.6550624    1.0934935      1024000 
  137000   0.73045309   -4.6578757   -4.6578757   -3.5621983 0.0054748511   -4.6578757    1.0956774      1024000 
  138000   0.73012704   -4.6583788   -4.6583788   -3.5631905 0.0066431368   -4.6583788    1.0951883      1024000 
  139000   0.72957806   -4.6594521   -4.6594521   -3.5650872 0.0053069766   -4.6594521    1.0943649      1024000 
  140000    0.7292591   -4.6607019   -4.6607019   -3.5668155 0.0047145945   -4.6607019    1.0938864      1024000 
  141000   0.72927995   -4.6619249   -4.6619249   -3.5680072 0.0062389463   -4.6619249    1.0939177      1024000 
  142000   0.72904277   -4.6632453   -4.6632453   -3.5696834 0.0032687843   -4.6632453    1.0935619      1024000 
  143000   0.72874249   -4.6641495   -4.6641495    -3.571038  0.001164987   -4.6641495    1.0931115      1024000 
  144000    0.7289855   -4.6652575   -4.6652575   -3.5717814 0.0013479819   -4.6652575     1.093476      1024000 
  145000    0.7302332   -4.6679281   -4.6679281   -3.5725805 0.0047168002   -4.6679281    1.0953476      1024000 
  146000   0.72991546   -4.6684627   -4.6684627   -3.5735917  0.005868783   -4.6684627     1.094871      1024000 
  147000   0.72965398   -4.6692252   -4.6692252   -3.5747464  0.012293919   -4.6692252    1.0944788      1024000 
  148000   0.72953794   -4.6706725   -4.6706725   -3.5763678  0.010371726   -4.6706725    1.0943047      1024000 
  149000   0.73013039   -4.6718596   -4.6718596   -3.5766662 0.0087220032   -4.6718596    1.0951934      1024000 
  150000   0.72959394   -4.6717746   -4.6717746    -3.577386  0.013483926   -4.6717746    1.0943887      1024000 
  151000   0.72907021   -4.6731206   -4.6731206   -3.5795175  0.011418377   -4.6731206    1.0936031      1024000 
  152000   0.72929576   -4.6740884   -4.6740884    -3.580147  0.014684353   -4.6740884    1.0939414      1024000 
  153000   0.72886115   -4.6749006   -4.6749006   -3.5816111  0.014445842   -4.6749006    1.0932895      1024000 
  154000    0.7301448   -4.6772172   -4.6772172   -3.5820022  0.012022362   -4.6772172     1.095215      1024000 
  155000   0.73004645   -4.6776763   -4.6776763   -3.5826088  0.010985139   -4.6776763    1.0950675      1024000 
  156000   0.72938804   -4.6785243   -4.6785243   -3.5844445  0.017730627   -4.6785243    1.0940798      1024000 
  157000   0.72906655   -4.6790571   -4.6790571   -3.5854595  0.017659157   -4.6790571    1.0935976      1024000 
  158000   0.73079949   -4.6821345   -4.6821345   -3.5859375  0.016137765   -4.6821345     1.096197      1024000 
  159000   0.73127463   -4.6837815   -4.6837815   -3.5868718  0.019850199   -4.6837815    1.0969097      1024000 
  160000   0.73143211   -4.6856064   -4.6856064   -3.5884605  0.025937688   -4.6856064    1.0971459      1024000 
  161000   0.73170435   -4.6863982   -4.6863982   -3.5888439  0.025844923   -4.6863982    1.0975543      1024000 
  162000   0.73221785       -4.688       -4.688   -3.5896755  0.036060561       -4.688    1.0983245      1024000 
  163000   0.73320214   -4.6911241   -4.6911241   -3.5913231  0.033463454   -4.6911241     1.099801      1024000 
  164000   0.73198634   -4.6907929   -4.6907929   -3.5928156  0.040391519   -4.6907929    1.0979773      1024000 
  165000   0.73322344   -4.6940693   -4.6940693   -3.5942363  0.043933175   -4.6940693    1.0998329      1024000 
  166000   0.73384338   -4.6962407   -4.6962407   -3.5954779  0.041262265   -4.6962407    1.1007628      1024000 
  167000   0.73340329   -4.6971029   -4.6971029   -3.5970002  0.044085031   -4.6971029    1.1001027      1024000 
  168000   0.73392243   -4.6994016   -4.6994016   -3.5985202  0.044557343   -4.6994016    1.1008814      1024000 
  169000   0.73316657    -4.698911    -4.698911   -3.5991633   0.04892312    -4.698911    1.0997476      1024000 
  170000   0.73381012   -4.7005985   -4.7005985   -3.5998855   0.05029185   -4.7005985     1.100713      1024000 
  171000   0.73493601   -4.7026885   -4.7026885   -3.6002867  0.052567694   -4.7026885    1.1024018      1024000 
  172000   0.73473735    -4.703731    -4.703731   -3.6016272  0.054898951    -4.703731    1.1021038      1024000 
  173000   0.73306289    -4.703581    -4.703581   -3.6039889  0.050999716    -4.703581    1.0995921      1024000 
  174000   0.73101484   -4.7016658   -4.7016658   -3.6051458   0.04630843   -4.7016658      1.09652      1024000 
  175000   0.73092835   -4.7037396   -4.7037396   -3.6073493   0.03688603   -4.7037396    1.0963903      1024000 
  176000   0.72964888   -4.7029119   -4.7029119   -3.6084408  0.033319441   -4.7029119    1.0944711      1024000 
  177000   0.72823086   -4.7006113   -4.7006113   -3.6082672  0.029566322   -4.7006113    1.0923441      1024000 
  178000    0.7276866   -4.7005722   -4.7005722   -3.6090445  0.024416519   -4.7005722    1.0915277      1024000 
  179000   0.72495192   -4.6975975   -4.6975975   -3.6101718  0.018085518   -4.6975975    1.0874257      1024000 
  180000   0.72432406   -4.6972065   -4.6972065   -3.6107227  0.011489654   -4.6972065    1.0864839      1024000 
  181000    0.7239562   -4.6976342   -4.6976342   -3.6117021 5.8250794e-06   -4.6976342    1.0859321      1024000 
  182000   0.72323105   -4.6970505   -4.6970505   -3.6122062 -0.0030346463   -4.6970505    1.0848444      1024000 
  183000   0.72194257   -4.6950705   -4.6950705   -3.6121589 -0.0082537396   -4.6950705    1.0829117      1024000 
  184000   0.72184658   -4.6950411   -4.6950411   -3.6122734 -0.012431147   -4.6950411    1.0827677      1024000 
  185000   0.72088985   -4.6927575   -4.6927575    -3.611425 -0.0083134985   -4.6927575    1.0813326      1024000 
  186000   0.71978219   -4.6919898   -4.6919898   -3.6123187  -0.01088731   -4.6919898    1.0796711      1024000 
  187000   0.72020495   -4.6931149   -4.6931149   -3.6128097 -0.018748991   -4.6931149    1.0803052      1024000 
  188000    0.7203028   -4.6938129   -4.6938129   -3.6133609  -0.02341526   -4.6938129     1.080452      1024000 
  189000   0.71946994   -4.6921018   -4.6921018   -3.6128991 -0.014900599   -4.6921018    1.0792027      1024000 
  190000   0.72082489   -4.6946186   -4.6946186   -3.6133835 -0.015920148   -4.6946186    1.0812351      1024000 
  191000   0.71899131   -4.6918293   -4.6918293   -3.6133445 -0.0072548469   -4.6918293    1.0784848      1024000 
  192000   0.72115284   -4.6944447   -4.6944447   -3.6127176 -0.0037217888   -4.6944447    1.0817271      1024000 
  193000    0.7221457   -4.6964174   -4.6964174   -3.6132011 0.0011011939   -4.6964174    1.0832163      1024000 
  194000    0.7232092   -4.6984015   -4.6984015   -3.6135899 0.0031330708   -4.6984015    1.0848116      1024000 
  195000   0.72418387   -4.7000417   -4.7000417   -3.6137681 0.0014166302   -4.7000417    1.0862736      1024000 
  196000   0.72409737   -4.7002137   -4.7002137   -3.6140698 0.0089833971   -4.7002137    1.0861438      1024000 
  197000   0.72520028   -4.7026414   -4.7026414   -3.6148431  0.016407845   -4.7026414    1.0877982      1024000 
  198000     0.726687   -4.7059951   -4.7059951   -3.6159668  0.021983431   -4.7059951    1.0900283      1024000 
  199000   0.72619654    -4.706285    -4.706285   -3.6169924  0.028080626    -4.706285    1.0892926      1024000 
  200000   0.72667365   -4.7082858   -4.7082858   -3.6182776  0.024385642   -4.7082858    1.0900083      1024000 
  201000   0.72743634   -4.7099385   -4.7099385   -3.6187862  0.028486345   -4.7099385    1.0911523      1024000 
  202000   0.72828684    -4.712053    -4.712053    -3.619625   0.02884331    -4.712053     1.092428      1024000 
  203000   0.72653723   -4.7098081   -4.7098081   -3.6200044  0.034873101   -4.7098081    1.0898036      1024000 
  204000   0.72727948   -4.7115115   -4.7115115   -3.6205945  0.034171209   -4.7115115     1.090917      1024000 
  205000   0.72617354   -4.7109951   -4.7109951    -3.621737   0.03724467   -4.7109951    1.0892581      1024000 
  206000   0.72774396   -4.7139596   -4.7139596   -3.6223458  0.032700447   -4.7139596    1.0916137      1024000 
  207000   0.72696446   -4.7138504   -4.7138504   -3.6234059  0.032698438   -4.7138504    1.0904445      1024000 
  208000   0.72583575   -4.7123657   -4.7123657   -3.6236143  0.031369299   -4.7123657    1.0887514      1024000 
  209000   0.72570846   -4.7128794   -4.7128794   -3.6243189  0.025064107   -4.7128794    1.0885605      1024000 
  210000   0.72550129   -4.7122682   -4.7122682   -3.6240185  0.024502457   -4.7122682    1.0882497      1024000 
  211000   0.72346376   -4.7101991   -4.7101991   -3.6250056  0.020559165   -4.7101991    1.0851934      1024000 
  212000   0.72296096   -4.7097411   -4.7097411   -3.6253018  0.017568933   -4.7097411    1.0844392      1024000 
  213000   0.72248052   -4.7097236   -4.7097236    -3.626005  0.011326555   -4.7097236    1.0837186      1024000 
  214000   0.72083038   -4.7074118   -4.7074118   -3.6261684  0.011764871   -4.7074118    1.0812434      1024000 
  215000   0.72050395    -4.706937    -4.706937   -3.6261832 0.0069322637    -4.706937    1.0807537      1024000 
  216000   0.72056603   -4.7067844   -4.7067844   -3.6259375 0.0006925346   -4.7067844    1.0808469      1024000 
  217000   0.72011802   -4.7059656   -4.7059656   -3.6257907 -0.0026933222   -4.7059656    1.0801748      1024000 
  218000   0.71977708   -4.7053206   -4.7053206   -3.6256572 -0.0012381672   -4.7053206    1.0796634      1024000 
  219000   0.71947234   -4.7056321   -4.7056321   -3.6264257 -0.0070075492   -4.7056321    1.0792063      1024000 
  220000   0.71999842   -4.7059007   -4.7059007   -3.6259052 -0.0032102337   -4.7059007    1.0799954      1024000 
  221000   0.72001631    -4.705879    -4.705879   -3.6258568 -0.0024300432    -4.705879    1.0800223      1024000 
  222000   0.71955486   -4.7052671   -4.7052671    -3.625937 -0.00043337126   -4.7052671    1.0793301      1024000 
  223000   0.71970175   -4.7055991   -4.7055991   -3.6260487 0.0018159353   -4.7055991    1.0795504      1024000 
  224000   0.72015939   -4.7063695   -4.7063695   -3.6261326 -0.0017211913   -4.7063695    1.0802369      1024000 
  225000   0.72034078    -4.706726    -4.706726   -3.6262171 0.0017888521    -4.706726     1.080509      1024000 
  226000   0.72026629   -4.7056392   -4.7056392    -3.625242 0.0067980305   -4.7056392    1.0803972      1024000 
  227000   0.72145081   -4.7076461   -4.7076461   -3.6254721  0.011452276   -4.7076461     1.082174      1024000 
  228000   0.72244678   -4.7106439   -4.7106439   -3.6269759  0.007091493   -4.7106439     1.083668      1024000 
  229000   0.72308342   -4.7120125   -4.7120125   -3.6273896  0.011608584   -4.7120125    1.0846229      1024000 
  230000   0.72166379   -4.7100624   -4.7100624   -3.6275689  0.014338264   -4.7100624    1.0824935      1024000 
  231000   0.72275262   -4.7124543   -4.7124543   -3.6283276  0.014930386   -4.7124543    1.0841267      1024000 
  232000   0.72193968   -4.7121008   -4.7121008   -3.6291935  0.019645169   -4.7121008    1.0829073      1024000 
  233000   0.72211452   -4.7129971   -4.7129971   -3.6298275  0.021411178   -4.7129971    1.0831696      1024000 
  234000   0.72223278   -4.7135144   -4.7135144   -3.6301674  0.027121015   -4.7135144     1.083347      1024000 
  235000   0.72265939   -4.7144301   -4.7144301   -3.6304432  0.023535173   -4.7144301    1.0839869      1024000 
  236000   0.72325086   -4.7165231   -4.7165231    -3.631649  0.022087345   -4.7165231    1.0848741      1024000 
  237000   0.72364992   -4.7169833   -4.7169833   -3.6315106  0.021318549   -4.7169833    1.0854727      1024000 
  238000    0.7233078   -4.7170745   -4.7170745    -3.632115  0.021487672   -4.7170745    1.0849595      1024000 
  239000   0.72298052   -4.7167907   -4.7167907   -3.6323221  0.021881065   -4.7167907    1.0844686      1024000 
  240000   0.72432422   -4.7185224   -4.7185224   -3.6320382  0.018347113   -4.7185224    1.0864841      1024000 
  241000   0.72253337    -4.716673    -4.716673   -3.6328751  0.023663847    -4.716673    1.0837979      1024000 
  242000   0.72217324   -4.7159735   -4.7159735   -3.6327159  0.027493672   -4.7159735    1.0832577      1024000 
  243000   0.72242557   -4.7166434   -4.7166434   -3.6330072  0.023544687   -4.7166434    1.0836362      1024000 
  244000   0.72387163    -4.718853    -4.718853   -3.6330477  0.016611634    -4.718853    1.0858052      1024000 
  245000    0.7217673   -4.7157589   -4.7157589   -3.6331101   0.02246064   -4.7157589    1.0826488      1024000 
  246000   0.72113766   -4.7146742   -4.7146742   -3.6329699  0.021244775   -4.7146742    1.0817043      1024000 
  247000   0.72037395   -4.7138067   -4.7138067   -3.6332479  0.017669342   -4.7138067    1.0805587      1024000 
  248000   0.72113248   -4.7147056   -4.7147056   -3.6330091  0.014375282   -4.7147056    1.0816965      1024000 
  249000   0.72082233   -4.7148331   -4.7148331   -3.6336018 0.0060425411   -4.7148331    1.0812313      1024000 
  250000   0.72071418   -4.7141774   -4.7141774   -3.6331083 0.0075222439   -4.7141774    1.0810691      1024000 
  251000   0.72037373   -4.7135165   -4.7135165   -3.6329581 0.0094133501   -4.7135165    1.0805584      1024000 
  252000   0.71999431   -4.7129327   -4.7129327   -3.6329435 0.0065120945   -4.7129327    1.0799893      1024000 
  253000    0.7201892   -4.7132249   -4.7132249   -3.6329433 0.0081007247   -4.7132249    1.0802816      1024000 
  254000   0.72060803   -4.7137127   -4.7137127   -3.6328028 0.0045431552   -4.7137127    1.0809099      1024000 
  255000   0.72107155   -4.7136976   -4.7136976   -3.6320924 0.0016576167   -4.7136976    1.0816051      1024000 
  256000   0.71975504   -4.7117261   -4.7117261   -3.6320957 0.0070488461   -4.7117261    1.0796304      1024000 
  257000   0.72070248   -4.7128094   -4.7128094   -3.6317579  0.010291751   -4.7128094    1.0810515      1024000 
  258000   0.72011011   -4.7116619   -4.7116619   -3.6314989  0.012525192   -4.7116619     1.080163      1024000 
  259000    0.7198401   -4.7113679   -4.7113679     -3.63161  0.012787624   -4.7113679     1.079758      1024000 
  260000   0.72171149    -4.713554    -4.713554   -3.6309889 0.0063245804    -4.713554     1.082565      1024000 
  261000   0.72130583   -4.7138518   -4.7138518   -3.6318952  0.010249788   -4.7138518    1.0819566      1024000 
  262000   0.72032382   -4.7130485   -4.7130485    -3.632565  0.013698094   -4.7130485    1.0804835      1024000 
  263000   0.72106967   -4.7139818   -4.7139818   -3.6323795 0.0076689031   -4.7139818    1.0816023      1024000 
  264000   0.72091766   -4.7142168   -4.7142168   -3.6328425  0.010486629   -4.7142168    1.0813743      1024000 
  265000   0.72043866   -4.7136931   -4.7136931   -3.6330373  0.010741919   -4.7136931    1.0806558      1024000 
  266000   0.72100952   -4.7152452   -4.7152452   -3.6337331  0.010523837   -4.7152452    1.0815121      1024000 
  267000   0.72152653   -4.7161985   -4.7161985   -3.6339109  0.015127137   -4.7161985    1.0822876      1024000 
  268000   0.72147936   -4.7158348   -4.7158348   -3.6336179  0.013233688   -4.7158348    1.0822168      1024000 
  269000   0.72161088   -4.7160995   -4.7160995   -3.6336853  0.015697219   -4.7160995    1.0824141      1024000 
  270000    0.7214103   -4.7150529   -4.7150529   -3.6329396  0.018980278   -4.7150529    1.0821133      1024000 
  271000   0.72279147   -4.7178549   -4.7178549   -3.6336699  0.014564177   -4.7178549     1.084185      1024000 
  272000   0.72262775   -4.7178456   -4.7178456   -3.6339062    0.0147124   -4.7178456    1.0839394      1024000 
  273000   0.72143744   -4.7158607   -4.7158607   -3.6337067  0.022453537   -4.7158607     1.082154      1024000 
  274000   0.72201126   -4.7164161   -4.7164161   -3.6334014  0.022450365   -4.7164161    1.0830147      1024000 
  275000   0.72233988   -4.7175666   -4.7175666    -3.634059  0.019078633   -4.7175666    1.0835076      1024000 
  276000   0.72229946   -4.7177837   -4.7177837   -3.6343367  0.018508042   -4.7177837     1.083447      1024000 
  277000   0.72127652    -4.716581    -4.716581   -3.6346684  0.017531178    -4.716581    1.0819126      1024000 
  278000   0.72213464   -4.7179966   -4.7179966   -3.6347968 0.0096177082   -4.7179966    1.0831998      1024000 
  279000   0.72137645   -4.7174537   -4.7174537   -3.6353913  0.014855275   -4.7174537    1.0820625      1024000 
  280000   0.72187016   -4.7173874   -4.7173874   -3.6345844  0.015405831   -4.7173874     1.082803      1024000 
  281000   0.72154069    -4.717465    -4.717465   -3.6351561  0.011604941    -4.717465    1.0823088      1024000 
  282000   0.72118268   -4.7171358   -4.7171358   -3.6353639  0.012573053   -4.7171358    1.0817718      1024000 
  283000   0.72015449   -4.7155264   -4.7155264   -3.6352969  0.011630555   -4.7155264    1.0802295      1024000 
  284000   0.72190163   -4.7177551   -4.7177551   -3.6349048 0.0057697583   -4.7177551    1.0828502      1024000 
  285000   0.72127312   -4.7158785   -4.7158785    -3.633971  0.012087481   -4.7158785    1.0819075      1024000 
  286000   0.72014129   -4.7138667   -4.7138667   -3.6336569  0.011830841   -4.7138667    1.0802097      1024000 
  287000   0.72137936   -4.7147761   -4.7147761   -3.6327093 0.0089942921   -4.7147761    1.0820668      1024000 
  288000   0.72127623   -4.7148884   -4.7148884   -3.6329763 0.0080447164   -4.7148884    1.0819122      1024000 
  289000   0.72012623    -4.712777    -4.712777   -3.6325898  0.015132707    -4.712777    1.0801872      1024000 
  290000   0.72068132   -4.7142303   -4.7142303   -3.6332105  0.013347191   -4.7142303    1.0810198      1024000 
  291000   0.72262325   -4.7160279   -4.7160279   -3.6320952 0.0062600124   -4.7160279    1.0839327      1024000 
  292000   0.71985467   -4.7118457   -4.7118457   -3.6320658  0.019832865   -4.7118457    1.0797798      1024000 
  293000   0.72117889   -4.7135555   -4.7135555   -3.6317893  0.012469125   -4.7135555    1.0817661      1024000 
  294000   0.72028989   -4.7126169   -4.7126169   -3.6321843   0.01252752   -4.7126169    1.0804326      1024000 
  295000   0.72158483   -4.7132819   -4.7132819   -3.6309069  0.012438613   -4.7132819     1.082375      1024000 
  296000   0.72045255   -4.7117502   -4.7117502   -3.6310736   0.01200765   -4.7117502    1.0806766      1024000 
  297000   0.72073445   -4.7126046   -4.7126046   -3.6315051  0.014851982   -4.7126046    1.0810995      1024000 
  298000   0.72120565   -4.7138725   -4.7138725   -3.6320663 0.0096891944   -4.7138725    1.0818063      1024000 
  299000   0.72154755   -4.7139884   -4.7139884   -3.6316693  0.011528327   -4.7139884    1.0823191      1024000 
  300000   0.72139269   -4.7137882   -4.7137882   -3.6317013 0.0085554023   -4.7137882    1.0820868      1024000 
  301000    0.7214586   -4.7143285   -4.7143285   -3.6321428 0.0065365869   -4.7143285    1.0821857      1024000 
  302000   0.72115085   -4.7134529   -4.7134529   -3.6317289  0.012519826   -4.7134529    1.0817241      1024000 
  303000   0.72122791   -4.7129022   -4.7129022   -3.6310625  0.013372882   -4.7129022    1.0818397      1024000 
  304000   0.72202916   -4.7144876   -4.7144876   -3.6314461 0.0098712378   -4.7144876    1.0830415      1024000 
  305000   0.72165812   -4.7131121   -4.7131121   -3.6306272  0.015992905   -4.7131121     1.082485      1024000 
  306000   0.72151619   -4.7136232   -4.7136232   -3.6313511  0.011871085   -4.7136232    1.0822721      1024000 
  307000   0.72296719   -4.7156064   -4.7156064   -3.6311578  0.013597167   -4.7156064    1.0844486      1024000 
  308000   0.72324386   -4.7156915   -4.7156915    -3.630828  0.015246279   -4.7156915    1.0848636      1024000 
  309000   0.72298628   -4.7146558   -4.7146558   -3.6301786  0.015069101   -4.7146558    1.0844772      1024000 
  310000   0.72278454   -4.7140144   -4.7140144   -3.6298398  0.016921629   -4.7140144    1.0841746      1024000 
  311000   0.72199973   -4.7129679   -4.7129679   -3.6299705  0.019438244   -4.7129679    1.0829974      1024000 
  312000   0.72182186   -4.7122634   -4.7122634   -3.6295328  0.021630066   -4.7122634    1.0827306      1024000 
  313000   0.72205089   -4.7119317   -4.7119317   -3.6288576  0.021724097   -4.7119317    1.0830741      1024000 
  314000   0.72244778   -4.7124371   -4.7124371   -3.6287676   0.01752698   -4.7124371    1.0836695      1024000 
  315000   0.72218276   -4.7123277   -4.7123277   -3.6290558  0.018714218   -4.7123277    1.0832719      1024000 
  316000   0.72335468   -4.7144142   -4.7144142   -3.6293844  0.014410272   -4.7144142    1.0850298      1024000 
  317000   0.72170691   -4.7116712   -4.7116712    -3.629113   0.01741238   -4.7116712    1.0825582      1024000 
  318000    0.7220836   -4.7120887   -4.7120887   -3.6289655  0.014716113   -4.7120887    1.0831232      1024000 
  319000   0.72045612    -4.709902    -4.709902     -3.62922  0.013773841    -4.709902     1.080682      1024000 
  320000   0.72193452   -4.7114308   -4.7114308   -3.6285312  0.011157013   -4.7114308    1.0828996      1024000 
  321000   0.72253416   -4.7117306   -4.7117306   -3.6279316  0.013501281   -4.7117306     1.083799      1024000 
  322000   0.72225046   -4.7106707   -4.7106707   -3.6272972  0.012981863   -4.7106707    1.0833735      1024000 
  323000   0.72201233   -4.7097556   -4.7097556   -3.6267393  0.011779657   -4.7097556    1.0830163      1024000 
  324000   0.72080708   -4.7078139   -4.7078139   -3.6266055    0.0135936   -4.7078139    1.0812084      1024000 
  325000   0.72269169   -4.7097159   -4.7097159   -3.6256805 0.0082936229   -4.7097159    1.0840353      1024000 
  326000   0.72282077    -4.709027    -4.709027   -3.6247981  0.010533122    -4.709027     1.084229      1024000 
  327000   0.72226892   -4.7069372   -4.7069372    -3.623536  0.018255429   -4.7069372    1.0834012      1024000 
  328000   0.72291723   -4.7079168   -4.7079168   -3.6235432  0.014047491   -4.7079168    1.0843736      1024000 
  329000   0.72209254    -4.706831    -4.706831   -3.6236944  0.017664655    -4.706831    1.0831366      1024000 
  330000   0.72409531   -4.7094091   -4.7094091   -3.6232684 0.0089396702   -4.7094091    1.0861408      1024000 
  331000   0.72378796   -4.7076564   -4.7076564   -3.6219766  0.012152841   -4.7076564    1.0856797      1024000 
  332000   0.72295296   -4.7068674   -4.7068674   -3.6224402 0.0093706689   -4.7068674    1.0844272      1024000 
  333000   0.72127046   -4.7036068   -4.7036068   -3.6217033  0.015845109   -4.7036068    1.0819035      1024000 
  334000   0.72239233   -4.7049616   -4.7049616   -3.6213753  0.012737833   -4.7049616    1.0835863      1024000 
  335000   0.72268927   -4.7042182   -4.7042182   -3.6201865  0.013583779   -4.7042182    1.0840317      1024000 
  336000   0.72398321   -4.7058231   -4.7058231   -3.6198505  0.011450416   -4.7058231    1.0859726      1024000 
  337000   0.72314179   -4.7044909   -4.7044909   -3.6197804  0.016944371   -4.7044909    1.0847105      1024000 
  338000    0.7245073   -4.7056976   -4.7056976   -3.6189388  0.012478394   -4.7056976    1.0867587      1024000 
  339000   0.72419638   -4.7043561   -4.7043561   -3.6180638  0.017859392   -4.7043561    1.0862924      1024000 
  340000   0.72346773    -4.703254    -4.703254   -3.6180546  0.016316255    -4.703254    1.0851994      1024000 
  341000    0.7244989   -4.7041568   -4.7041568   -3.6174107   0.01226572   -4.7041568    1.0867461      1024000 
  342000   0.72405616   -4.7033041   -4.7033041   -3.6172221   0.01123511   -4.7033041     1.086082      1024000 
  343000   0.72345341   -4.7023646   -4.7023646   -3.6171867  0.013851561   -4.7023646    1.0851779      1024000 
  344000   0.72447574   -4.7034227   -4.7034227   -3.6167113  0.010457025   -4.7034227    1.0867114      1024000 
  345000   0.72363294   -4.7019639   -4.7019639   -3.6165167  0.010958452   -4.7019639    1.0854472      1024000 
  346000   0.72429482   -4.7025674   -4.7025674   -3.6161274  0.011729098   -4.7025674      1.08644      1024000 
  347000   0.72464478   -4.7025887   -4.7025887   -3.6156237  0.013890436   -4.7025887     1.086965      1024000 
  348000   0.72405489   -4.7010785   -4.7010785   -3.6149984  0.014874377   -4.7010785    1.0860801      1024000 
  349000   0.72422493   -4.7009693   -4.7009693   -3.6146341  0.010603706   -4.7009693    1.0863352      1024000 
  350000   0.72386274   -4.6999079   -4.6999079    -3.614116  0.013397194   -4.6999079    1.0857919      1024000 
  351000   0.72531742   -4.7025747   -4.7025747   -3.6146008 0.0088675453   -4.7025747    1.0879739      1024000 
  352000   0.72499826   -4.7012998   -4.7012998   -3.6138046  0.014057058   -4.7012998    1.0874952      1024000 
  353000   0.72509032   -4.7013434   -4.7013434   -3.6137102  0.012189182   -4.7013434    1.0876333      1024000 
  354000    0.7247135   -4.7004999   -4.7004999   -3.6134318 0.0088178208   -4.7004999     1.087068      1024000 
  355000   0.72553928   -4.7019513   -4.7019513   -3.6136446 0.0093471275   -4.7019513    1.0883067      1024000 
  356000   0.72445953   -4.6996642   -4.6996642   -3.6129771  0.011249121   -4.6996642    1.0866871      1024000 
  357000   0.72359087   -4.6982234   -4.6982234   -3.6128393  0.012883894   -4.6982234    1.0853841      1024000 
  358000   0.72370552   -4.6972632   -4.6972632   -3.6117071  0.014731106   -4.6972632    1.0855561      1024000 
  359000   0.72528882   -4.6993918   -4.6993918   -3.6114608  0.011100245   -4.6993918     1.087931      1024000 
  360000   0.72494244   -4.6983136   -4.6983136   -3.6109021  0.014853407   -4.6983136    1.0874115      1024000 
  361000   0.72582514   -4.6995975   -4.6995975    -3.610862  0.015835091   -4.6995975    1.0887355      1024000 
  362000   0.72665069   -4.7000699   -4.7000699   -3.6100961   0.01468518   -4.7000699    1.0899738      1024000 
  363000   0.72721139   -4.6998831   -4.6998831   -3.6090682   0.01580645   -4.6998831    1.0908149      1024000 
  364000   0.72619321   -4.6978684   -4.6978684   -3.6085808  0.019151518   -4.6978684    1.0892876      1024000 
  365000   0.72629652   -4.6982428   -4.6982428   -3.6088003  0.012788237   -4.6982428    1.0894426      1024000 
  366000    0.7256615   -4.6973584   -4.6973584   -3.6088684  0.017468114   -4.6973584      1.08849      1024000 
  367000     0.725985   -4.6975925   -4.6975925   -3.6086172  0.012410857   -4.6975925    1.0889753      1024000 
  368000   0.72647711   -4.6976969   -4.6976969   -3.6079835  0.014197553   -4.6976969    1.0897134      1024000 
  369000   0.72586776   -4.6971333   -4.6971333   -3.6083339  0.011813645   -4.6971333    1.0887994      1024000 
  370000   0.72705059   -4.6977675   -4.6977675   -3.6071938  0.011411163   -4.6977675    1.0905737      1024000 
  371000   0.72698304   -4.6972013   -4.6972013    -3.606729  0.016883028   -4.6972013    1.0904723      1024000 
  372000   0.72650163   -4.6961613   -4.6961613   -3.6064111  0.013623619   -4.6961613    1.0897502      1024000 
  373000   0.72758254   -4.6961859   -4.6961859   -3.6048143   0.01235041   -4.6961859    1.0913716      1024000 
  374000   0.72683829   -4.6946223   -4.6946223   -3.6043671  0.017339657   -4.6946223    1.0902552      1024000 
  375000   0.72654729   -4.6941386   -4.6941386   -3.6043199  0.017287298   -4.6941386    1.0898187      1024000 
  376000   0.72597716    -4.693186    -4.693186   -3.6042225  0.014850019    -4.693186    1.0889635      1024000 
  377000   0.72640044   -4.6936294   -4.6936294   -3.6040309 0.0090517009   -4.6936294    1.0895985      1024000 
  378000   0.72708356   -4.6945462   -4.6945462   -3.6039231 0.0079435868   -4.6945462    1.0906231      1024000 
  379000    0.7256305   -4.6924486   -4.6924486   -3.6040051 0.0096819057   -4.6924486    1.0884435      1024000 
  380000   0.72657523   -4.6932514   -4.6932514   -3.6033908  0.012255141   -4.6932514    1.0898606      1024000 
  381000   0.72598338   -4.6912464   -4.6912464   -3.6022736  0.011800467   -4.6912464    1.0889729      1024000 
  382000   0.72717012   -4.6932596   -4.6932596   -3.6025066 0.0087107578   -4.6932596     1.090753      1024000 
  383000   0.72720173   -4.6925408   -4.6925408   -3.6017405 0.0098743678   -4.6925408    1.0908004      1024000 
  384000   0.72705044   -4.6912231   -4.6912231   -3.6006496  0.012473504   -4.6912231    1.0905735      1024000 
  385000     0.727072   -4.6908919   -4.6908919   -3.6002861   0.01264633   -4.6908919    1.0906058      1024000 
  386000   0.72709701   -4.6898503   -4.6898503    -3.599207  0.012607943   -4.6898503    1.0906433      1024000 
  387000   0.72860264   -4.6907764   -4.6907764   -3.5978746  0.011336605   -4.6907764    1.0929017      1024000 
  388000    0.7272471   -4.6881039   -4.6881039   -3.5972354  0.017620321   -4.6881039    1.0908684      1024000 
  389000   0.72770039   -4.6883769   -4.6883769   -3.5968285  0.014035933   -4.6883769    1.0915484      1024000 
  390000   0.72822998   -4.6895419   -4.6895419   -3.5971991  0.010896808   -4.6895419    1.0923428      1024000 
  391000   0.72798925   -4.6894257   -4.6894257    -3.597444  0.015094373   -4.6894257    1.0919817      1024000 
  392000   0.72866194   -4.6899373   -4.6899373   -3.5969466  0.012066508   -4.6899373    1.0929907      1024000 
  393000   0.72849499   -4.6884309   -4.6884309   -3.5956906  0.013310606   -4.6884309    1.0927403      1024000 
  394000   0.72687516    -4.686224    -4.686224   -3.5959135  0.015002986    -4.686224    1.0903105      1024000 
  395000   0.72873472   -4.6880569   -4.6880569    -3.594957 0.0093610138   -4.6880569    1.0930999      1024000 
  396000   0.72850862   -4.6869798   -4.6869798   -3.5942191  0.012646118   -4.6869798    1.0927607      1024000 
  397000   0.72898043   -4.6874316   -4.6874316   -3.5939632 0.0071479576   -4.6874316    1.0934684      1024000 
  398000   0.72794681    -4.685344    -4.685344   -3.5934259  0.015767936    -4.685344     1.091918      1024000 
  399000   0.72876858   -4.6866678   -4.6866678   -3.5935171  0.013143604   -4.6866678    1.0931507      1024000 
  400000   0.72906812   -4.6863687   -4.6863687   -3.5927688  0.010353043   -4.6863687       1.0936      1024000 
  401000   0.72951373   -4.6866128   -4.6866128   -3.5923445 0.0080081405   -4.6866128    1.0942684      1024000 
  402000   0.72959559   -4.6855497   -4.6855497   -3.5911585  0.013506502   -4.6855497    1.0943912      1024000 
  403000     0.728265     -4.68327     -4.68327   -3.5908747  0.017611753     -4.68327    1.0923953      1024000 
  404000   0.72986166   -4.6844757   -4.6844757   -3.5896854  0.013949663   -4.6844757    1.0947903      1024000 
  405000   0.72969847   -4.6827536   -4.6827536   -3.5882081  0.019193105   -4.6827536    1.0945455      1024000 
  406000   0.73066923   -4.6834248   -4.6834248   -3.5874232   0.01116475   -4.6834248    1.0960016      1024000 
  407000   0.72989133    -4.682559    -4.682559   -3.5877242  0.017153081    -4.682559    1.0948348      1024000 
  408000   0.72999562   -4.6819145   -4.6819145   -3.5869233  0.016118454   -4.6819145    1.0949912      1024000 
  409000   0.73064522   -4.6807879   -4.6807879   -3.5848223  0.016240767   -4.6807879    1.0959656      1024000 
  410000   0.72958419   -4.6798445   -4.6798445   -3.5854704   0.01599244   -4.6798445    1.0943741      1024000 
  411000   0.73027072   -4.6797602   -4.6797602   -3.5843564  0.012572646   -4.6797602    1.0954039      1024000 
  412000   0.72940349   -4.6781482   -4.6781482   -3.5840451  0.013295969   -4.6781482     1.094103      1024000 
  413000   0.73023422   -4.6786744   -4.6786744   -3.5833253  0.014747111   -4.6786744    1.0953491      1024000 
  414000   0.72941962   -4.6784069   -4.6784069   -3.5842796  0.013988342   -4.6784069    1.0941272      1024000 
  415000   0.73037493   -4.6789948   -4.6789948   -3.5834347  0.006896992   -4.6789948    1.0955602      1024000 
  416000   0.73003031   -4.6773068   -4.6773068   -3.5822635 0.0087847623   -4.6773068    1.0950432      1024000 
  417000   0.72931622   -4.6752195   -4.6752195   -3.5812474  0.014194042   -4.6752195    1.0939721      1024000 
  418000   0.72986809   -4.6749319   -4.6749319    -3.580132 0.0068315183   -4.6749319    1.0947999      1024000 
  419000   0.73079038    -4.675853    -4.675853   -3.5796696   0.00636341    -4.675853    1.0961833      1024000 
  420000   0.73120644   -4.6761858   -4.6761858   -3.5793784 0.0043920837   -4.6761858    1.0968074      1024000 
  421000   0.73135311   -4.6759556   -4.6759556   -3.5789282 0.0076626085   -4.6759556    1.0970274      1024000 
  422000   0.73204239   -4.6765293   -4.6765293    -3.578468  0.010936055   -4.6765293    1.0980614      1024000 
  423000   0.73089061   -4.6740183   -4.6740183   -3.5776846    0.0163247   -4.6740183    1.0963337      1024000 
  424000   0.73153953   -4.6745367   -4.6745367   -3.5772297  0.012477929   -4.6745367    1.0973071      1024000 
  425000   0.73196183   -4.6734579   -4.6734579   -3.5755174  0.013460686   -4.6734579    1.0979405      1024000 
  426000   0.73108388   -4.6714821   -4.6714821   -3.5748585  0.015146068   -4.6714821    1.0966236      1024000 
  427000   0.73152798   -4.6720374   -4.6720374   -3.5747476   0.01038444   -4.6720374    1.0972897      1024000 
  428000   0.73183654   -4.6718116   -4.6718116    -3.574059 0.0076684751   -4.6718116    1.0977526      1024000 
  429000   0.73122459   -4.6701628   -4.6701628   -3.5733281  0.011142422   -4.6701628    1.0968347      1024000 
  430000    0.7311918   -4.6699159   -4.6699159   -3.5731305  0.012678197   -4.6699159    1.0967855      1024000 
  431000   0.73243204   -4.6708544   -4.6708544   -3.5722086 0.0085861014   -4.6708544    1.0986458      1024000 
  432000   0.73201307   -4.6701753   -4.6701753    -3.572158  0.012493998   -4.6701753    1.0980174      1024000 
  433000   0.73277893   -4.6704559   -4.6704559   -3.5712897  0.014110993   -4.6704559    1.0991662      1024000 
  434000    0.7333652   -4.6707287   -4.6707287   -3.5706831  0.014139552   -4.6707287    1.1000456      1024000 
  435000   0.73328034   -4.6700184   -4.6700184   -3.5701002  0.021493526   -4.6700184    1.0999183      1024000 
  436000   0.73381688   -4.6696618   -4.6696618   -3.5689387  0.013880322   -4.6696618    1.1007231      1024000 
  437000   0.73400034   -4.6683562   -4.6683562   -3.5673579  0.017773185   -4.6683562    1.1009983      1024000 
  438000   0.73318152   -4.6677552   -4.6677552   -3.5679851  0.013961833   -4.6677552    1.0997701      1024000 
  439000   0.73323084   -4.6677174   -4.6677174   -3.5678734  0.013713167   -4.6677174     1.099844      1024000 
  440000   0.73222174    -4.666062    -4.666062   -3.5677316  0.012813999    -4.666062    1.0983304      1024000 
  441000   0.73255653    -4.665295    -4.665295   -3.5664625  0.011111373    -4.665295    1.0988326      1024000 
  442000   0.73185459   -4.6644283   -4.6644283   -3.5666487   0.01084163   -4.6644283    1.0977797      1024000 
  443000   0.73384513   -4.6661226   -4.6661226   -3.5653571 0.0093885982   -4.6661226    1.1007655      1024000 
  444000   0.73283496   -4.6638251   -4.6638251   -3.5645749  0.017388702   -4.6638251    1.0992502      1024000 
  445000   0.73388736   -4.6645788   -4.6645788     -3.56375  0.011432261   -4.6645788    1.1008288      1024000 
  446000   0.73342922   -4.6626483   -4.6626483   -3.5625067  0.013847164   -4.6626483    1.1001416      1024000 
  447000   0.73364121   -4.6627945   -4.6627945    -3.562335  0.014136762   -4.6627945    1.1004596      1024000 
  448000   0.73466132   -4.6623204   -4.6623204   -3.5603306   0.01783039   -4.6623204    1.1019897      1024000 
  449000   0.73475215   -4.6611551   -4.6611551   -3.5590291  0.017522049   -4.6611551     1.102126      1024000 
  450000   0.73420007   -4.6602772   -4.6602772   -3.5589793  0.015141478   -4.6602772    1.1012979      1024000 
  451000   0.73478206   -4.6608901   -4.6608901   -3.5587193  0.015414891   -4.6608901    1.1021709      1024000 
  452000   0.73524702   -4.6608333   -4.6608333    -3.557965  0.012520318   -4.6608333    1.1028683      1024000 
  453000   0.73485043   -4.6598193   -4.6598193   -3.5575459 0.0099693056   -4.6598193    1.1022734      1024000 
  454000   0.73519092   -4.6603417   -4.6603417   -3.5575575 0.0088136737   -4.6603417    1.1027841      1024000 
  455000   0.73615746   -4.6603766   -4.6603766   -3.5561427  0.007394949   -4.6603766     1.104234      1024000 
  456000   0.73582521   -4.6588142   -4.6588142   -3.5550786  0.012090068   -4.6588142    1.1037356      1024000 
  457000   0.73657817   -4.6587372   -4.6587372   -3.5538722 0.0089756952   -4.6587372     1.104865      1024000 
  458000   0.73606796   -4.6571049   -4.6571049   -3.5530052  0.010525183   -4.6571049    1.1040997      1024000 
  459000   0.73645854   -4.6561222   -4.6561222   -3.5514367  0.011715536   -4.6561222    1.1046856      1024000 
  460000   0.73589311   -4.6558042   -4.6558042   -3.5519667  0.016119466   -4.6558042    1.1038374      1024000 
  461000    0.7357363   -4.6555889   -4.6555889   -3.5519867  0.013711022   -4.6555889    1.1036022      1024000 
  462000   0.73649497   -4.6551466   -4.6551466   -3.5504064  0.013212053   -4.6551466    1.1047402      1024000 
  463000    0.7362887   -4.6539612   -4.6539612   -3.5495304  0.008130635   -4.6539612    1.1044308      1024000 
  464000   0.73651504   -4.6532324   -4.6532324   -3.5484621  0.013921978   -4.6532324    1.1047703      1024000 
  465000   0.73694065   -4.6531807   -4.6531807    -3.547772  0.012396133   -4.6531807    1.1054087      1024000 
  466000   0.73673043   -4.6523012   -4.6523012   -3.5472078  0.013300823   -4.6523012    1.1050934      1024000 
  467000   0.73674418   -4.6518545   -4.6518545   -3.5467404 0.0079441726   -4.6518545     1.105114      1024000 
  468000   0.73681888   -4.6514765   -4.6514765   -3.5462504  0.011767272   -4.6514765    1.1052261      1024000 
  469000   0.73631622    -4.649264    -4.649264   -3.5447919  0.015058668    -4.649264    1.1044721      1024000 
  470000   0.73886585   -4.6530137   -4.6530137   -3.5447172  0.010789005   -4.6530137    1.1082965      1024000 
  471000   0.73822568   -4.6520827   -4.6520827   -3.5447464 0.0080017271   -4.6520827    1.1073363      1024000 
  472000   0.73683027   -4.6497366   -4.6497366   -3.5444935  0.011945841   -4.6497366    1.1052432      1024000 
  473000   0.73709288    -4.649156    -4.649156   -3.5435189  0.012786766    -4.649156    1.1056371      1024000 
  474000   0.73720564   -4.6483056   -4.6483056   -3.5424994  0.011678435   -4.6483056    1.1058062      1024000 
  475000   0.73873075   -4.6485997   -4.6485997   -3.5405058  0.011128298   -4.6485997    1.1080939      1024000 
  476000   0.73762888   -4.6463054   -4.6463054   -3.5398643  0.012554708   -4.6463054    1.1064411      1024000 
  477000   0.73763698   -4.6464892   -4.6464892    -3.540036  0.012142893   -4.6464892    1.1064532      1024000 
  478000   0.73778086   -4.6456099   -4.6456099   -3.5389409  0.010799873   -4.6456099     1.106669      1024000 
  479000    0.7392534   -4.6466782   -4.6466782   -3.5378003 0.0091583376   -4.6466782    1.1088778      1024000 
  480000   0.73932373   -4.6456692   -4.6456692   -3.5366859  0.014150077   -4.6456692    1.1089833      1024000 
  481000   0.74086285   -4.6466962   -4.6466962   -3.5354042  0.014082455   -4.6466962     1.111292      1024000 
  482000   0.73939465   -4.6442075   -4.6442075   -3.5351177   0.01091333   -4.6442075    1.1090897      1024000 
  483000   0.74042654   -4.6456993   -4.6456993   -3.5350618  0.010867951   -4.6456993    1.1106376      1024000 
  484000   0.74022786   -4.6446473   -4.6446473   -3.5343078  0.012825396   -4.6446473    1.1103395      1024000 
  485000    0.7405219   -4.6442939   -4.6442939   -3.5335133  0.013878168   -4.6442939    1.1107806      1024000 
  486000   0.74063383    -4.643433    -4.643433   -3.5324845  0.016272075    -4.643433    1.1109485      1024000 
  487000   0.74070627   -4.6436547   -4.6436547   -3.5325976  0.009584984   -4.6436547    1.1110571      1024000 
  488000   0.73987998   -4.6424053   -4.6424053   -3.5325876  0.011099514   -4.6424053    1.1098177      1024000 
  489000   0.74040623   -4.6417056   -4.6417056   -3.5310985  0.012217689   -4.6417056    1.1106071      1024000 
  490000   0.74079448   -4.6412824   -4.6412824    -3.530093  0.011625387   -4.6412824    1.1111895      1024000 
  491000   0.74104268   -4.6401572   -4.6401572   -3.5285955  0.014988129   -4.6401572    1.1115618      1024000 
  492000   0.74158683   -4.6406101   -4.6406101   -3.5282321  0.015531266   -4.6406101     1.112378      1024000 
  493000   0.74082976   -4.6389639   -4.6389639   -3.5277215  0.013148963   -4.6389639    1.1112424      1024000 
  494000   0.74071298   -4.6379344   -4.6379344   -3.5268672  0.017039238   -4.6379344    1.1110672      1024000 
  495000   0.74207066   -4.6394849   -4.6394849   -3.5263812  0.013314105   -4.6394849    1.1131037      1024000 
  496000   0.74253182   -4.6392765   -4.6392765    -3.525481  0.015546268   -4.6392765    1.1137955      1024000 
  497000   0.74074957   -4.6353524   -4.6353524   -3.5242303   0.01900779   -4.6353524    1.1111221      1024000 
  498000   0.74105193   -4.6359965   -4.6359965   -3.5244209  0.011904832   -4.6359965    1.1115756      1024000 
  499000   0.74191787   -4.6351943   -4.6351943   -3.5223198  0.012839881   -4.6351943    1.1128745      1024000 
  500000   0.74276319   -4.6348089   -4.6348089   -3.5206664  0.013359217   -4.6348089    1.1141425      1024000 
  501000   0.74244011   -4.6338143   -4.6338143   -3.5201564   0.01418798   -4.6338143    1.1136579      1024000 
  502000   0.74276618   -4.6333313   -4.6333313   -3.5191843  0.014796733   -4.6333313     1.114147      1024000 
  503000   0.74334854   -4.6341374   -4.6341374   -3.5191169  0.013028396   -4.6341374    1.1150205      1024000 
  504000   0.74239313   -4.6323964   -4.6323964   -3.5188089  0.011747519   -4.6323964    1.1135874      1024000 
  505000   0.74198137   -4.6300405   -4.6300405   -3.5170707  0.014693752   -4.6300405    1.1129698      1024000 
  506000   0.74250044   -4.6303205   -4.6303205   -3.5165721  0.011652607   -4.6303205    1.1137484      1024000 
  507000   0.74252397   -4.6283918   -4.6283918   -3.5146081  0.017858542   -4.6283918    1.1137837      1024000 
  508000   0.74416569   -4.6293539   -4.6293539   -3.5131077  0.010057868   -4.6293539    1.1162463      1024000 
  509000   0.74319893    -4.627399    -4.627399   -3.5126029  0.012075423    -4.627399    1.1147961      1024000 
  510000   0.74321327   -4.6270833   -4.6270833   -3.5122657  0.013333946   -4.6270833    1.1148176      1024000 
  511000    0.7435543   -4.6266774   -4.6266774   -3.5113482  0.010912808   -4.6266774    1.1153292      1024000 
  512000   0.74399163   -4.6260483   -4.6260483   -3.5100631  0.011276369   -4.6260483    1.1159852      1024000 
  513000    0.7429827    -4.624283    -4.624283   -3.5098112  0.014002242    -4.624283    1.1144718      1024000 
  514000   0.74373176   -4.6248975   -4.6248975   -3.5093022 0.0074326693   -4.6248975    1.1155954      1024000 
  515000   0.74370338   -4.6238574   -4.6238574   -3.5083046 0.0075078988   -4.6238574    1.1155528      1024000 
  516000    0.7434671   -4.6232503   -4.6232503   -3.5080519 0.0099203163   -4.6232503    1.1151984      1024000 
  517000   0.74407357    -4.623378    -4.623378   -3.5072699 0.0089657588    -4.623378    1.1161081      1024000 
  518000   0.74379797   -4.6213299   -4.6213299   -3.5056352  0.010261348   -4.6213299    1.1156947      1024000 
  519000   0.74448198   -4.6216935   -4.6216935   -3.5049728  0.010813247   -4.6216935    1.1167207      1024000 
  520000   0.74533008   -4.6207437   -4.6207437   -3.5027508 0.0094256874   -4.6207437    1.1179929      1024000 
  521000   0.74507519   -4.6205813   -4.6205813   -3.5029708  0.012086173   -4.6205813    1.1176105      1024000 
  522000   0.74516056   -4.6197894   -4.6197894   -3.5020508 0.0089861006   -4.6197894    1.1177386      1024000 
  523000   0.74491585   -4.6186587   -4.6186587   -3.5012872 0.0095411086   -4.6186587    1.1173715      1024000 
  524000   0.74507496   -4.6183731   -4.6183731   -3.5007629  0.014149329   -4.6183731    1.1176102      1024000 
  525000   0.74687701   -4.6202368   -4.6202368   -3.4999236 0.0071425187   -4.6202368    1.1203132      1024000 
  526000   0.74588931   -4.6177541   -4.6177541   -3.4989224  0.011665744   -4.6177541    1.1188317      1024000 
  527000   0.74627637   -4.6171067   -4.6171067   -3.4976944 0.0090671697   -4.6171067    1.1194123      1024000 
  528000   0.74624698   -4.6171201   -4.6171201   -3.4977519  0.011338553   -4.6171201    1.1193682      1024000 
  529000   0.74639998   -4.6159068   -4.6159068   -3.4963091  0.018603899   -4.6159068    1.1195977      1024000 
  530000   0.74729447   -4.6160386   -4.6160386   -3.4950992  0.013162828   -4.6160386    1.1209394      1024000 
  531000   0.74787929   -4.6162895   -4.6162895   -3.4944728  0.012003252   -4.6162895    1.1218167      1024000 
  532000   0.74735395   -4.6155051   -4.6155051   -3.4944764  0.014011909   -4.6155051    1.1210286      1024000 
  533000     0.747706   -4.6154408   -4.6154408   -3.4938841  0.014759992   -4.6154408    1.1215567      1024000 
  534000   0.74770567   -4.6141488   -4.6141488   -3.4925926  0.011778763   -4.6141488    1.1215562      1024000 
  535000   0.74790429   -4.6131596   -4.6131596   -3.4913054  0.011166819   -4.6131596    1.1218542      1024000 
  536000   0.74777589   -4.6112887   -4.6112887   -3.4896271  0.016028111   -4.6112887    1.1216616      1024000 
  537000   0.74739259     -4.60942     -4.60942   -3.4883334  0.015112348     -4.60942    1.1210866      1024000 
  538000   0.74859934   -4.6108248   -4.6108248    -3.487928  0.011517052   -4.6108248    1.1228967      1024000 
  539000   0.74992759   -4.6115002   -4.6115002   -3.4866111 0.0098311583   -4.6115002    1.1248891      1024000 
  540000   0.74885692   -4.6088961   -4.6088961    -3.485613  0.015713743   -4.6088961    1.1232831      1024000 
  541000   0.74919064   -4.6087945   -4.6087945   -3.4850108  0.013745864   -4.6087945    1.1237837      1024000 
  542000   0.74806787   -4.6066062   -4.6066062   -3.4845067  0.014716788   -4.6066062    1.1220995      1024000 
  543000   0.75048597   -4.6084304   -4.6084304   -3.4827037   0.01191751   -4.6084304    1.1257267      1024000 
  544000   0.74944185   -4.6066469   -4.6066469   -3.4824864  0.013713688   -4.6066469    1.1241605      1024000 
  545000   0.74941258   -4.6057284   -4.6057284   -3.4816118  0.010925331   -4.6057284    1.1241166      1024000 
  546000   0.74862531   -4.6043008   -4.6043008   -3.4813652  0.010087913   -4.6043008    1.1229357      1024000 
  547000   0.74972143    -4.603943    -4.603943   -3.4793632 0.0086540984    -4.603943    1.1245799      1024000 
  548000   0.74867898   -4.6016128   -4.6016128   -3.4785966  0.010398965   -4.6016128    1.1230162      1024000 
  549000   0.74927012   -4.6020191   -4.6020191   -3.4781163 0.0088680779   -4.6020191    1.1239029      1024000 
  550000   0.74884765   -4.6003584   -4.6003584   -3.4770892 0.0090548445   -4.6003584    1.1232692      1024000 
  551000   0.74859486   -4.6000493   -4.6000493   -3.4771593 0.0065589915   -4.6000493      1.12289      1024000 
  552000   0.74958547   -4.6006632   -4.6006632   -3.4762873 0.0054019216   -4.6006632    1.1243759      1024000 
  553000   0.74914391   -4.5989938   -4.5989938   -3.4752802 0.0061080145   -4.5989938    1.1237136      1024000 
  554000     0.749427   -4.5986573   -4.5986573    -3.474519 0.0086799946   -4.5986573    1.1241382      1024000 
  555000   0.75048118   -4.5988007   -4.5988007   -3.4730812 0.0073174667   -4.5988007    1.1257195      1024000 
  556000   0.75018629   -4.5975296   -4.5975296   -3.4722524 0.0081261002   -4.5975296    1.1252772      1024000 
  557000    0.7506207    -4.596759    -4.596759   -3.4708302  0.010779941    -4.596759    1.1259288      1024000 
  558000    0.7510173   -4.5951253   -4.5951253   -3.4686017  0.015711685   -4.5951253    1.1265237      1024000 
  559000   0.75186515   -4.5955752   -4.5955752   -3.4677797  0.011967753   -4.5955752    1.1277954      1024000 
  560000   0.75330852   -4.5978534   -4.5978534    -3.467893 0.0071882438   -4.5978534    1.1299605      1024000 
  561000   0.75227331    -4.595101    -4.595101   -3.4666933  0.012427308    -4.595101    1.1284077      1024000 
  562000    0.7527987   -4.5949548   -4.5949548   -3.4657591  0.010285075   -4.5949548    1.1291958      1024000 
  563000   0.75116794   -4.5915317   -4.5915317    -3.464782  0.017017007   -4.5915317    1.1267496      1024000 
  564000   0.75287707   -4.5930959   -4.5930959   -3.4637826  0.017544978   -4.5930959    1.1293133      1024000 
  565000   0.75357448   -4.5938402   -4.5938402   -3.4634808  0.012659699   -4.5938402    1.1303594      1024000 
  566000   0.75263442   -4.5911223   -4.5911223    -3.462173  0.016951064   -4.5911223    1.1289493      1024000 
  567000   0.75251997   -4.5896514   -4.5896514   -3.4608737  0.022203905   -4.5896514    1.1287777      1024000 
  568000   0.75411062   -4.5908052   -4.5908052   -3.4596416  0.016300762   -4.5908052    1.1311636      1024000 
  569000   0.75459889   -4.5904658   -4.5904658   -3.4585698  0.016957435   -4.5904658     1.131896      1024000 
  570000   0.75340075    -4.588806    -4.588806   -3.4587072  0.015197845    -4.588806    1.1300988      1024000 
  571000   0.75262529   -4.5858645   -4.5858645   -3.4569289  0.014902972   -4.5858645    1.1289356      1024000 
  572000   0.75395773   -4.5861907   -4.5861907   -3.4552565  0.017438357   -4.5861907    1.1309343      1024000 
  573000   0.75545486   -4.5884654   -4.5884654   -3.4552854 0.0078266127   -4.5884654      1.13318      1024000 
  574000   0.75304844   -4.5834055   -4.5834055   -3.4538351  0.019365169   -4.5834055    1.1295704      1024000 
  575000   0.75412557   -4.5845989   -4.5845989   -3.4534129 0.0097313276   -4.5845989    1.1311861      1024000 
  576000    0.7533218   -4.5811681   -4.5811681   -3.4511877  0.014888545   -4.5811681    1.1299804      1024000 
  577000   0.75519605   -4.5833792   -4.5833792   -3.4505874   0.01121543   -4.5833792    1.1327918      1024000 
  578000   0.75432688   -4.5807443   -4.5807443   -3.4492563  0.013200683   -4.5807443     1.131488      1024000 
  579000   0.75453228   -4.5804533   -4.5804533   -3.4486572  0.010724055   -4.5804533    1.1317961      1024000 
  580000    0.7558793   -4.5813319   -4.5813319   -3.4475152  0.010410744   -4.5813319    1.1338166      1024000 
  581000   0.75582245   -4.5799529   -4.5799529   -3.4462215 0.0090877249   -4.5799529    1.1337314      1024000 
  582000    0.7559823   -4.5785233   -4.5785233   -3.4445522  0.011682352   -4.5785233    1.1339711      1024000 
  583000   0.75688869   -4.5783011   -4.5783011   -3.4429704  0.009221935   -4.5783011    1.1353307      1024000 
  584000   0.75551918   -4.5757176   -4.5757176   -3.4424411  0.011565926   -4.5757176    1.1332765      1024000 
  585000    0.7556376    -4.575372    -4.575372   -3.4419179 0.0083327109    -4.575372    1.1334541      1024000 
  586000   0.75610382    -4.574587    -4.574587   -3.4404336 0.0066951507    -4.574587    1.1341534      1024000 
  587000    0.7566258   -4.5735675   -4.5735675   -3.4386311  0.013040824   -4.5735675    1.1349364      1024000 
  588000   0.75785665   -4.5741758   -4.5741758   -3.4373931  0.011729697   -4.5741758    1.1367827      1024000 
  589000   0.75696351   -4.5722324   -4.5722324   -3.4367894  0.010453404   -4.5722324     1.135443      1024000 
  590000    0.7568236   -4.5713736   -4.5713736   -3.4361405 0.0096698167   -4.5713736    1.1352331      1024000 
  591000   0.75661549   -4.5696322   -4.5696322   -3.4347112 0.0070424446   -4.5696322    1.1349209      1024000 
  592000   0.75723075   -4.5687332   -4.5687332   -3.4328894   0.01112107   -4.5687332    1.1358438      1024000 
  593000   0.75670889    -4.567304    -4.567304   -3.4322429   0.01211067    -4.567304     1.135061      1024000 
  594000   0.75767937   -4.5680733   -4.5680733   -3.4315566  0.010978356   -4.5680733    1.1365168      1024000 
  595000   0.75798427    -4.567906    -4.567906   -3.4309319 0.0048285682    -4.567906    1.1369741      1024000 
  596000    0.7587232   -4.5679665   -4.5679665    -3.429884 0.0037932797   -4.5679665    1.1380825      1024000 
  597000   0.75799642   -4.5651011   -4.5651011   -3.4281088 0.0090457436   -4.5651011    1.1369923      1024000 
  598000   0.75830363   -4.5646168   -4.5646168   -3.4271637 0.0063839169   -4.5646168    1.1374531      1024000 
  599000   0.75837366   -4.5635341   -4.5635341    -3.425976 0.0089688269   -4.5635341    1.1375582      1024000 
  600000   0.75870108   -4.5625604   -4.5625604   -3.4245111  0.012250427   -4.5625604    1.1380493      1024000 
  601000   0.75898155   -4.5627302   -4.5627302   -3.4242602  0.013551507   -4.5627302      1.13847      1024000 
  602000   0.75874521   -4.5617734   -4.5617734   -3.4236579  0.011577469   -4.5617734    1.1381155      1024000 
  603000   0.75975116   -4.5626124   -4.5626124   -3.4229879  0.011471315   -4.5626124    1.1396244      1024000 
  604000   0.75974184   -4.5611382   -4.5611382   -3.4215278   0.01367505   -4.5611382    1.1396104      1024000 
  605000    0.7603818   -4.5604283   -4.5604283   -3.4198579 0.0083365174   -4.5604283    1.1405704      1024000 
  606000    0.7604025   -4.5602877   -4.5602877   -3.4196862  0.013410967   -4.5602877    1.1406014      1024000 
  607000   0.75994126   -4.5589065   -4.5589065   -3.4189969  0.010761746   -4.5589065    1.1399096      1024000 
  608000   0.76032478   -4.5590315   -4.5590315   -3.4185467 0.0059826008   -4.5590315    1.1404849      1024000 
  609000   0.76125662   -4.5590605   -4.5590605   -3.4171779 0.0043089797   -4.5590605    1.1418826      1024000 
  610000   0.76030087   -4.5562722   -4.5562722   -3.4158232  0.012888638   -4.5562722     1.140449      1024000 
  611000   0.76107246   -4.5564069   -4.5564069   -3.4148005  0.011283779   -4.5564069    1.1416064      1024000 
  612000   0.76073193   -4.5557476   -4.5557476    -3.414652  0.013835927   -4.5557476    1.1410956      1024000 
  613000   0.76096594   -4.5560487   -4.5560487   -3.4146021 0.0099953221   -4.5560487    1.1414466      1024000 
  614000   0.76059098   -4.5546337   -4.5546337   -3.4137495  0.011997416   -4.5546337    1.1408842      1024000 
  615000   0.76119033   -4.5547703   -4.5547703   -3.4129871   0.01208553   -4.5547703    1.1417832      1024000 
  616000   0.76116767   -4.5548406   -4.5548406   -3.4130914 0.0075153076   -4.5548406    1.1417492      1024000 
  617000   0.76175408    -4.554496    -4.554496   -3.4118672  0.010745628    -4.554496    1.1426288      1024000 
  618000   0.76156061    -4.552511    -4.552511   -3.4101724  0.014223238    -4.552511    1.1423386      1024000 
  619000   0.76121954   -4.5510806   -4.5510806   -3.4092536  0.012382898   -4.5510806     1.141827      1024000 
  620000   0.76187147   -4.5511201   -4.5511201   -3.4083152  0.014085054   -4.5511201    1.1428049      1024000 
  621000   0.76238137   -4.5513614   -4.5513614   -3.4077917  0.010620632   -4.5513614    1.1435697      1024000 
  622000   0.76317578   -4.5501711   -4.5501711   -3.4054097  0.011990027   -4.5501711    1.1447614      1024000 
  623000   0.76370987   -4.5498078   -4.5498078   -3.4042453  0.016792357   -4.5498078    1.1455625      1024000 
  624000   0.76403142   -4.5504523   -4.5504523   -3.4044075  0.010364511   -4.5504523    1.1460448      1024000 
  625000   0.76359975   -4.5488127   -4.5488127   -3.4034154  0.016814531   -4.5488127    1.1453973      1024000 
  626000   0.76405604   -4.5481713   -4.5481713   -3.4020896  0.012696066   -4.5481713    1.1460817      1024000 
  627000   0.76402016   -4.5469382   -4.5469382   -3.4009103  0.017931771   -4.5469382    1.1460279      1024000 
  628000   0.76498384   -4.5476967   -4.5476967   -3.4002233  0.014194377   -4.5476967    1.1474734      1024000 
  629000   0.76523517   -4.5461705   -4.5461705     -3.39832  0.016477492   -4.5461705    1.1478504      1024000 
  630000   0.76495493   -4.5448817   -4.5448817   -3.3974517   0.01562262   -4.5448817    1.1474301      1024000 
  631000   0.76469198   -4.5437881   -4.5437881   -3.3967524  0.018326906   -4.5437881    1.1470356      1024000 
  632000   0.76614902    -4.545335    -4.545335   -3.3961138  0.011846138    -4.545335    1.1492212      1024000 
  633000   0.76509621   -4.5431079   -4.5431079   -3.3954659  0.012300817   -4.5431079     1.147642      1024000 
  634000   0.76590503   -4.5433804   -4.5433804   -3.3945252  0.013842163   -4.5433804    1.1488552      1024000 
  635000   0.76542085   -4.5414842   -4.5414842   -3.3933552  0.013280547   -4.5414842    1.1481289      1024000 
  636000   0.76583259   -4.5407771   -4.5407771   -3.3920305  0.013047376   -4.5407771    1.1487465      1024000 
  637000    0.7657759   -4.5401925   -4.5401925    -3.391531 0.0089131302   -4.5401925    1.1486615      1024000 
  638000   0.76561153   -4.5386353   -4.5386353   -3.3902203 0.0080203637   -4.5386353     1.148415      1024000 
  639000   0.76613566   -4.5378782   -4.5378782    -3.388677  0.010575957   -4.5378782    1.1492012      1024000 
  640000     0.766583   -4.5373746   -4.5373746   -3.3875024 0.0095055884   -4.5373746    1.1498722      1024000 
  641000   0.76574988   -4.5347227   -4.5347227   -3.3861002  0.012951297   -4.5347227    1.1486225      1024000 
  642000    0.7651462   -4.5335465   -4.5335465   -3.3858295  0.014433336   -4.5335465     1.147717      1024000 
  643000   0.76621781   -4.5345009   -4.5345009   -3.3851765 0.0030399178   -4.5345009    1.1493244      1024000 
  644000   0.76534463   -4.5306326   -4.5306326    -3.382618  0.016043211   -4.5306326    1.1480146      1024000 
  645000   0.76644778   -4.5313494   -4.5313494   -3.3816801 0.0092948636   -4.5313494    1.1496693      1024000 
  646000   0.76537992   -4.5280334   -4.5280334   -3.3799658  0.014728765   -4.5280334    1.1480676      1024000 
  647000   0.76673464   -4.5285218   -4.5285218   -3.3784222  0.010521963   -4.5285218    1.1500996      1024000 
  648000   0.76772651   -4.5293181   -4.5293181   -3.3777307 0.0038186472   -4.5293181    1.1515874      1024000 
  649000   0.76608874   -4.5269402   -4.5269402   -3.3778094  0.010330324   -4.5269402    1.1491308      1024000 
  650000   0.76703656   -4.5278527   -4.5278527   -3.3773002 0.0028537822   -4.5278527    1.1505525      1024000 
  651000   0.76774224   -4.5274921   -4.5274921   -3.3758811 0.0046605315   -4.5274921     1.151611      1024000 
  652000   0.76825182   -4.5259156   -4.5259156   -3.3735402 0.0095358473   -4.5259156    1.1523754      1024000 
  653000   0.76846851   -4.5254571   -4.5254571   -3.3727567 0.0088771526   -4.5254571    1.1527004      1024000 
  654000   0.76927494   -4.5256817   -4.5256817   -3.3717716 0.0071800465   -4.5256817    1.1539101      1024000 
  655000   0.76975771   -4.5249153   -4.5249153   -3.3702811  0.010013663   -4.5249153    1.1546342      1024000 
  656000   0.76803727   -4.5224363   -4.5224363   -3.3703828  0.013108464   -4.5224363    1.1520536      1024000 
  657000   0.76939049   -4.5224771   -4.5224771   -3.3683937  0.010263006   -4.5224771    1.1540834      1024000 
  658000   0.77014128   -4.5218512   -4.5218512   -3.3666416 0.0094712295   -4.5218512    1.1552096      1024000 
  659000   0.77050143   -4.5217018   -4.5217018    -3.365952 0.0063168032   -4.5217018    1.1557498      1024000 
  660000   0.77027763   -4.5211097   -4.5211097   -3.3656956 0.0086756742   -4.5211097    1.1554141      1024000 
  661000   0.76990177   -4.5192671   -4.5192671   -3.3644167  0.012153244   -4.5192671    1.1548503      1024000 
  662000   0.77050142   -4.5192627   -4.5192627   -3.3635129 0.0093686835   -4.5192627    1.1557498      1024000 
  663000   0.77040461   -4.5189172   -4.5189172   -3.3633126  0.011458453   -4.5189172    1.1556046      1024000 
  664000   0.77016097   -4.5170596   -4.5170596   -3.3618205  0.011024019   -4.5170596    1.1552391      1024000 
  665000   0.77161535   -4.5176348   -4.5176348   -3.3602141   0.01331204   -4.5176348    1.1574207      1024000 
  666000   0.77245318   -4.5176953   -4.5176953   -3.3590178   0.01074737   -4.5176953    1.1586774      1024000 
  667000   0.77090367   -4.5141786   -4.5141786   -3.3578254  0.021750218   -4.5141786    1.1563532      1024000 
  668000   0.77110502   -4.5134856   -4.5134856   -3.3568304  0.017595172   -4.5134856    1.1566552      1024000 
  669000    0.7729747   -4.5146231   -4.5146231   -3.3551634  0.013654421   -4.5146231    1.1594597      1024000 
  670000   0.77217829   -4.5125705   -4.5125705   -3.3543054  0.016968879   -4.5125705    1.1582651      1024000 
  671000    0.7723076   -4.5117656   -4.5117656   -3.3533065  0.014773045   -4.5117656    1.1584591      1024000 
  672000   0.77300674   -4.5117527   -4.5117527   -3.3522449 0.0098079719   -4.5117527    1.1595078      1024000 
  673000   0.77329276   -4.5107869   -4.5107869   -3.3508501  0.017784541   -4.5107869    1.1599368      1024000 
  674000   0.77258091   -4.5080268   -4.5080268   -3.3491578  0.015988727   -4.5080268     1.158869      1024000 
  675000    0.7723164   -4.5068145   -4.5068145   -3.3483422  0.013868276   -4.5068145    1.1584722      1024000 
  676000   0.77356187    -4.507149    -4.507149   -3.3468086  0.010000852    -4.507149    1.1603404      1024000 
  677000   0.77481866   -4.5071632   -4.5071632   -3.3449375  0.012025921   -4.5071632    1.1622256      1024000 
  678000   0.77427922   -4.5055309   -4.5055309   -3.3441144  0.010621955   -4.5055309    1.1614165      1024000 
  679000   0.77464746   -4.5048067   -4.5048067   -3.3428378  0.017812498   -4.5048067    1.1619688      1024000 
  680000   0.77534839   -4.5045145   -4.5045145   -3.3414943  0.011926888   -4.5045145    1.1630202      1024000 
  681000   0.77483549   -4.5026547   -4.5026547   -3.3404038  0.019046264   -4.5026547    1.1622509      1024000 
  682000   0.77466342   -4.5021251   -4.5021251   -3.3401323  0.013112246   -4.5021251    1.1619928      1024000 
  683000   0.77457145   -4.5005021   -4.5005021   -3.3386472  0.013331074   -4.5005021    1.1618548      1024000 
  684000   0.77415934   -4.4982592   -4.4982592   -3.3370226  0.011111251   -4.4982592    1.1612367      1024000 
  685000   0.77367277   -4.4964711   -4.4964711   -3.3359643  0.013643685   -4.4964711    1.1605068      1024000 
  686000   0.77510883   -4.4972851   -4.4972851   -3.3346242 0.0059545723   -4.4972851    1.1626609      1024000 
  687000    0.7738123   -4.4944238   -4.4944238   -3.3337077 0.0070063042   -4.4944238    1.1607161      1024000 
  688000   0.77501924   -4.4950743   -4.4950743   -3.3325478 0.0044357304   -4.4950743    1.1625265      1024000 
  689000   0.77391177   -4.4925532   -4.4925532   -3.3316879  0.013960282   -4.4925532    1.1608653      1024000 
  690000   0.77528407   -4.4927393   -4.4927393   -3.3298155 0.0057379874   -4.4927393    1.1629237      1024000 
  691000   0.77611841   -4.4929825   -4.4929825   -3.3288072 0.0032960776   -4.4929825    1.1641753      1024000 
  692000   0.77566322   -4.4902287   -4.4902287   -3.3267363 0.0071093463   -4.4902287    1.1634925      1024000 
  693000   0.77652546    -4.490365    -4.490365   -3.3255792 0.0026992165    -4.490365    1.1647858      1024000 
  694000   0.77631838   -4.4882267   -4.4882267   -3.3237515  0.010717326   -4.4882267    1.1644752      1024000 
  695000   0.77618596   -4.4873897   -4.4873897   -3.3231131 0.0098617608   -4.4873897    1.1642766      1024000 
  696000   0.77683594   -4.4869514   -4.4869514   -3.3216999 0.0054099729   -4.4869514    1.1652515      1024000 
  697000   0.77758559   -4.4871207   -4.4871207   -3.3207447 0.0063167302   -4.4871207     1.166376      1024000 
  698000   0.77824126   -4.4865671   -4.4865671   -3.3192076 0.0059348319   -4.4865671    1.1673595      1024000 
  699000   0.77792978    -4.485804    -4.485804   -3.3189117 0.0062537765    -4.485804    1.1668923      1024000 
  700000   0.77677964   -4.4829775   -4.4829775   -3.3178104 0.0055649526   -4.4829775    1.1651671      1024000 
  701000   0.77683491   -4.4814344   -4.4814344   -3.3161844 0.0092637881   -4.4814344      1.16525      1024000 
  702000     0.777391   -4.4822181   -4.4822181    -3.316134 0.0042660809   -4.4822181    1.1660841      1024000 
  703000   0.77672364   -4.4806445   -4.4806445   -3.3155615  0.007934246   -4.4806445    1.1650831      1024000 
  704000   0.77838808   -4.4811085   -4.4811085   -3.3135287  0.011737408   -4.4811085    1.1675798      1024000 
  705000   0.77876345   -4.4803963   -4.4803963   -3.3122535 0.0076163603   -4.4803963    1.1681428      1024000 
  706000   0.77930089   -4.4798182   -4.4798182   -3.3108693 0.0080795638   -4.4798182     1.168949      1024000 
  707000   0.77840402   -4.4776725   -4.4776725   -3.3100689  0.013176875   -4.4776725    1.1676037      1024000 
  708000   0.78001547   -4.4787061   -4.4787061   -3.3086852  0.013510608   -4.4787061    1.1700208      1024000 
  709000   0.78048067    -4.477486    -4.477486   -3.3067674  0.020784967    -4.477486    1.1707186      1024000 
  710000   0.78191662   -4.4787687   -4.4787687   -3.3058961  0.012175473   -4.4787687    1.1728725      1024000 
  711000   0.78108307   -4.4759813   -4.4759813   -3.3043591  0.016793581   -4.4759813    1.1716222      1024000 
  712000   0.78074223   -4.4750136   -4.4750136   -3.3039026  0.018036326   -4.4750136     1.171111      1024000 
  713000   0.78242188   -4.4761125   -4.4761125    -3.302482  0.013544621   -4.4761125    1.1736304      1024000 
  714000    0.7817458   -4.4743001   -4.4743001   -3.3016838  0.013048732   -4.4743001    1.1726163      1024000 
  715000   0.78102187   -4.4726182   -4.4726182   -3.3010878  0.012618554   -4.4726182    1.1715304      1024000 
  716000   0.78226253   -4.4737062   -4.4737062   -3.3003148  0.014551436   -4.4737062    1.1733914      1024000 
  717000   0.78285877   -4.4728081   -4.4728081   -3.2985223  0.015909672   -4.4728081    1.1742858      1024000 
  718000   0.78290104   -4.4719803   -4.4719803   -3.2976311   0.01694198   -4.4719803    1.1743492      1024000 
  719000   0.78281779   -4.4712477   -4.4712477   -3.2970234  0.010878258   -4.4712477    1.1742243      1024000 
  720000   0.78298679   -4.4706049   -4.4706049   -3.2961271 0.0090782419   -4.4706049    1.1744778      1024000 
  721000    0.7828706   -4.4693547   -4.4693547   -3.2950512  0.010550265   -4.4693547    1.1743035      1024000 
  722000   0.78327227   -4.4689426   -4.4689426   -3.2940366    0.0103841   -4.4689426     1.174906      1024000 
  723000   0.78189824   -4.4660696   -4.4660696   -3.2932247  0.012156932   -4.4660696     1.172845      1024000 
  724000   0.78271285   -4.4657701   -4.4657701   -3.2917032  0.012453497   -4.4657701    1.1740669      1024000 
  725000   0.78277141    -4.464185    -4.464185   -3.2900303  0.010050957    -4.464185    1.1741547      1024000 
  726000   0.78287342   -4.4632701   -4.4632701   -3.2889623   0.01444097   -4.4632701    1.1743077      1024000 
  727000   0.78306955   -4.4631136   -4.4631136   -3.2885117 0.0091103951   -4.4631136    1.1746019      1024000 
  728000   0.78339261   -4.4621611   -4.4621611   -3.2870746 0.0092259854   -4.4621611    1.1750865      1024000 
  729000   0.78221022   -4.4599369   -4.4599369    -3.286624  0.010447515   -4.4599369    1.1733129      1024000 
  730000   0.78438533   -4.4618042   -4.4618042   -3.2852286 0.0038531117   -4.4618042    1.1765756      1024000 
  731000   0.78272943   -4.4574683   -4.4574683   -3.2833765  0.015508066   -4.4574683    1.1740918      1024000 
  732000   0.78370046   -4.4580434   -4.4580434   -3.2824951 0.0085950104   -4.4580434    1.1755483      1024000 
  733000   0.78297261   -4.4559344   -4.4559344   -3.2814779  0.013778111   -4.4559344    1.1744565      1024000 
  734000   0.78479896    -4.456854    -4.456854   -3.2796579  0.014455441    -4.456854    1.1771961      1024000 
  735000   0.78419022   -4.4546969   -4.4546969    -3.278414  0.015333652   -4.4546969    1.1762829      1024000 
  736000   0.78488865   -4.4544959   -4.4544959   -3.2771654 0.0087328389   -4.4544959    1.1773306      1024000 
  737000   0.78573942   -4.4537126   -4.4537126   -3.2751059  0.010032538   -4.4537126    1.1786067      1024000 
  738000   0.78695303   -4.4535968   -4.4535968   -3.2731697  0.010125813   -4.4535968    1.1804272      1024000 
  739000   0.78711866   -4.4518646   -4.4518646    -3.271189  0.014901109   -4.4518646    1.1806756      1024000 
  740000   0.78705596   -4.4512399   -4.4512399   -3.2706583   0.01295136   -4.4512399    1.1805816      1024000 
  741000   0.78660238    -4.449971    -4.449971   -3.2700699  0.011462198    -4.449971    1.1799012      1024000 
  742000   0.78645922   -4.4494802   -4.4494802   -3.2697938  0.015598579   -4.4494802    1.1796864      1024000 
  743000   0.78683018   -4.4485817   -4.4485817   -3.2683388  0.012944572   -4.4485817    1.1802429      1024000 
  744000   0.78571793   -4.4459411   -4.4459411   -3.2673666   0.01655637   -4.4459411    1.1785745      1024000 
  745000   0.78695736    -4.446989    -4.446989   -3.2665553 0.0097356675    -4.446989    1.1804336      1024000 
  746000   0.78566234   -4.4435787   -4.4435787   -3.2650876   0.01231466   -4.4435787    1.1784911      1024000 
  747000   0.78650512   -4.4445353   -4.4445353     -3.26478 0.0084310655   -4.4445353    1.1797553      1024000 
  748000   0.78565744   -4.4426113   -4.4426113   -3.2641276 0.0063647923   -4.4426113    1.1784838      1024000 
  749000   0.78581989   -4.4416076   -4.4416076   -3.2628802 0.0078899928   -4.4416076    1.1787274      1024000 
  750000   0.78699712   -4.4418233   -4.4418233     -3.26133 0.0028125878   -4.4418233    1.1804933      1024000 
  751000   0.78702569   -4.4413901   -4.4413901    -3.260854 0.0021910399   -4.4413901    1.1805361      1024000 
  752000   0.78683333   -4.4386758   -4.4386758   -3.2584282 0.0087017531   -4.4386758    1.1802476      1024000 
  753000   0.78828033    -4.439835    -4.439835   -3.2574169 0.0071185483    -4.439835    1.1824181      1024000 
  754000    0.7883352   -4.4394979   -4.4394979   -3.2569975  0.011537421   -4.4394979    1.1825004      1024000 
  755000   0.78874116   -4.4393894   -4.4393894   -3.2562801  0.015658535   -4.4393894    1.1831093      1024000 
  756000   0.78878601   -4.4388138   -4.4388138   -3.2556372  0.012312397   -4.4388138    1.1831766      1024000 
  757000   0.78770045   -4.4355165   -4.4355165   -3.2539682  0.019071895   -4.4355165    1.1815483      1024000 
  758000   0.78941012   -4.4361487   -4.4361487   -3.2520359 0.0088260713   -4.4361487    1.1841128      1024000 
  759000   0.78746999   -4.4321133   -4.4321133   -3.2509107  0.010547992   -4.4321133    1.1812026      1024000 
  760000   0.78935402   -4.4333784   -4.4333784   -3.2493498 0.0076485587   -4.4333784    1.1840286      1024000 
  761000   0.79074643   -4.4344149   -4.4344149   -3.2482977 0.0093125168   -4.4344149    1.1861172      1024000 
  762000   0.78960764   -4.4318233   -4.4318233   -3.2474143 0.0068166661   -4.4318233    1.1844091      1024000 
  763000   0.78974924   -4.4302959   -4.4302959   -3.2456745  0.011044815   -4.4302959    1.1846215      1024000 
  764000   0.79057962   -4.4302396   -4.4302396   -3.2443726 0.0095545469   -4.4302396     1.185867      1024000 
  765000   0.79049452   -4.4294926   -4.4294926   -3.2437532  0.010658566   -4.4294926    1.1857394      1024000 
  766000    0.7923543   -4.4304214   -4.4304214   -3.2418924 0.0098406033   -4.4304214     1.188529      1024000 
  767000   0.79163496   -4.4284972   -4.4284972   -3.2410472  0.013568145   -4.4284972      1.18745      1024000 
  768000    0.7922345   -4.4281589   -4.4281589   -3.2398096  0.011508114   -4.4281589    1.1883493      1024000 
  769000   0.79241763   -4.4272674   -4.4272674   -3.2386434  0.017617115   -4.4272674     1.188624      1024000 
  770000   0.79290391   -4.4255432   -4.4255432   -3.2361898  0.020565691   -4.4255432    1.1893534      1024000 
  771000   0.79409244   -4.4257444   -4.4257444   -3.2346081  0.017676318   -4.4257444    1.1911362      1024000 
  772000   0.79320533   -4.4229598   -4.4229598   -3.2331542  0.020509949   -4.4229598    1.1898056      1024000 
  773000   0.79417143   -4.4235594   -4.4235594   -3.2323047  0.018951265   -4.4235594    1.1912547      1024000 
  774000    0.7937061   -4.4218789   -4.4218789   -3.2313221   0.02034899   -4.4218789    1.1905567      1024000 
  775000   0.79339303   -4.4199672   -4.4199672   -3.2298801  0.016614785   -4.4199672    1.1900871      1024000 
  776000   0.79392028    -4.420183    -4.420183    -3.229305  0.015550613    -4.420183     1.190878      1024000 
  777000   0.79475169   -4.4195271   -4.4195271    -3.227402  0.015015629   -4.4195271    1.1921251      1024000 
  778000   0.79434734    -4.417279    -4.417279   -3.2257604  0.016844737    -4.417279    1.1915186      1024000 
  779000   0.79485245   -4.4177565   -4.4177565   -3.2254802  0.011176915   -4.4177565    1.1922763      1024000 
  780000    0.7949343   -4.4163246   -4.4163246   -3.2239256 0.0083771284   -4.4163246     1.192399      1024000 
  781000   0.79382182   -4.4140819   -4.4140819   -3.2233516  0.010756064   -4.4140819    1.1907303      1024000 
  782000   0.79345953   -4.4127372   -4.4127372   -3.2225503  0.013152199   -4.4127372    1.1901869      1024000 
  783000   0.79364772   -4.4117534   -4.4117534   -3.2212842  0.013108002   -4.4117534    1.1904692      1024000 
  784000   0.79487739   -4.4121978   -4.4121978   -3.2198841 0.0088052795   -4.4121978    1.1923137      1024000 
  785000   0.79452049   -4.4102474   -4.4102474   -3.2184691  0.012853816   -4.4102474    1.1917783      1024000 
  786000   0.79425291   -4.4080352   -4.4080352   -3.2166583 0.0095979918   -4.4080352    1.1913769      1024000 
  787000   0.79351606   -4.4065616   -4.4065616   -3.2162899 0.0066632612   -4.4065616    1.1902717      1024000 
  788000   0.79428813   -4.4061031   -4.4061031   -3.2146733 0.0033951757   -4.4061031    1.1914298      1024000 
  789000   0.79448334   -4.4032755   -4.4032755   -3.2115529 0.0062378525   -4.4032755    1.1917226      1024000 
  790000    0.7958242   -4.4032905   -4.4032905   -3.2095566 0.0042017961   -4.4032905    1.1937339      1024000 
  791000   0.79534985   -4.4012929   -4.4012929   -3.2082705  0.010578705   -4.4012929    1.1930223      1024000 
  792000   0.79576448   -4.4011207   -4.4011207   -3.2074764 0.0078044479   -4.4011207    1.1936443      1024000 
  793000   0.79565242    -4.398799    -4.398799   -3.2053228  0.005433228    -4.398799    1.1934762      1024000 
  794000   0.79652701    -4.398494    -4.398494   -3.2037059 0.0048459933    -4.398494    1.1947881      1024000 
  795000   0.79697531   -4.3977026   -4.3977026   -3.2022421 0.0098723048   -4.3977026    1.1954605      1024000 
  796000   0.79707397   -4.3966759   -4.3966759   -3.2010674  0.015985979   -4.3966759    1.1956085      1024000 
  797000   0.79816286    -4.397068    -4.397068   -3.1998261  0.011009626    -4.397068    1.1972419      1024000 
  798000   0.79814106   -4.3956671   -4.3956671    -3.198458  0.012035821   -4.3956671    1.1972092      1024000 
  799000    0.7983043   -4.3946272   -4.3946272   -3.1971731  0.010859834   -4.3946272     1.197454      1024000 
  800000    0.7986731   -4.3919928   -4.3919928   -3.1939856   0.01210102   -4.3919928    1.1980072      1024000 
  801000   0.79851142   -4.3906434   -4.3906434   -3.1928787 0.0068644296   -4.3906434    1.1977647      1024000 
  802000    0.7980446   -4.3887489   -4.3887489   -3.1916844  0.011517035   -4.3887489    1.1970645      1024000 
  803000   0.79939168   -4.3890575   -4.3890575   -3.1899724  0.006734803   -4.3890575    1.1990851      1024000 
  804000   0.79854295   -4.3865727   -4.3865727   -3.1887607 0.0094990708   -4.3865727     1.197812      1024000 
  805000   0.79829733   -4.3859701   -4.3859701   -3.1885266 0.0056711784   -4.3859701    1.1974436      1024000 
  806000   0.79908646   -4.3859172   -4.3859172   -3.1872899 0.0040341011   -4.3859172    1.1986273      1024000 
  807000   0.79846049   -4.3853026   -4.3853026   -3.1876143 0.0095881365   -4.3853026    1.1976883      1024000 
  808000    0.7989359   -4.3851678   -4.3851678   -3.1867664 0.0076741554   -4.3851678    1.1984014      1024000 
  809000   0.79828863   -4.3827368   -4.3827368   -3.1853063 0.0081970044   -4.3827368    1.1974305      1024000 
  810000   0.79824199   -4.3820749   -4.3820749   -3.1847144 0.0046962705   -4.3820749    1.1973606      1024000 
  811000    0.7985713   -4.3812544   -4.3812544   -3.1833999 -0.0012416781   -4.3812544    1.1978545      1024000 
  812000     0.798646   -4.3810659   -4.3810659   -3.1830994 0.0043526216   -4.3810659    1.1979666      1024000 
  813000   0.80021254   -4.3819449   -4.3819449   -3.1816286 0.0056094456   -4.3819449    1.2003164      1024000 
  814000   0.79930341    -4.378853    -4.378853   -3.1799003  0.011236124    -4.378853    1.1989527      1024000 
  815000   0.79970169   -4.3786055   -4.3786055   -3.1790554  0.011834364   -4.3786055    1.1995501      1024000 
  816000   0.80097669   -4.3789157   -4.3789157   -3.1774531 0.0098254651   -4.3789157    1.2014626      1024000 
  817000   0.80057492   -4.3774908   -4.3774908   -3.1766309  0.013000567   -4.3774908      1.20086      1024000 
  818000    0.8017057   -4.3782379   -4.3782379   -3.1756818 0.0095883226   -4.3782379    1.2025561      1024000 
  819000    0.8005614   -4.3746498   -4.3746498   -3.1738101  0.016681341   -4.3746498    1.2008397      1024000 
  820000   0.80220472   -4.3748988   -4.3748988   -3.1715942  0.012339828   -4.3748988    1.2033046      1024000 
  821000   0.80184588   -4.3735066   -4.3735066   -3.1707402  0.014323698   -4.3735066    1.2027664      1024000 
  822000   0.80285851   -4.3737272   -4.3737272   -3.1694419  0.010943613   -4.3737272    1.2042853      1024000 
  823000   0.80206638   -4.3717136   -4.3717136   -3.1686165 0.0087662315   -4.3717136    1.2030971      1024000 
  824000   0.80235104   -4.3716647   -4.3716647   -3.1681405  0.010861182   -4.3716647    1.2035241      1024000 
  825000   0.80227002   -4.3708086   -4.3708086    -3.167406  0.012062726   -4.3708086    1.2034026      1024000 
  826000    0.8028155   -4.3709159   -4.3709159   -3.1666951  0.016800558   -4.3709159    1.2042208      1024000 
  827000   0.80391624   -4.3717512   -4.3717512   -3.1658792  0.013951054   -4.3717512    1.2058719      1024000 
  828000   0.80349131   -4.3709199   -4.3709199   -3.1656854  0.011405004   -4.3709199    1.2052345      1024000 
  829000   0.80458136   -4.3714427   -4.3714427   -3.1645731  0.010896603   -4.3714427    1.2068696      1024000 
  830000   0.80292572   -4.3687249   -4.3687249   -3.1643388  0.014310088   -4.3687249    1.2043861      1024000 
  831000   0.80563235   -4.3703611   -4.3703611   -3.1619151  0.013497003   -4.3703611    1.2084461      1024000 
  832000   0.80513617   -4.3683976   -4.3683976   -3.1606958  0.015619494   -4.3683976    1.2077018      1024000 
  833000   0.80478264   -4.3671664   -4.3671664   -3.1599949  0.012855721   -4.3671664    1.2071715      1024000 
  834000   0.80509031   -4.3660207   -4.3660207   -3.1583877  0.016556021   -4.3660207     1.207633      1024000 
  835000   0.80585388   -4.3660664   -4.3660664    -3.157288  0.011974902   -4.3660664    1.2087784      1024000 
  836000   0.80496828   -4.3632626   -4.3632626   -3.1558126  0.019235794   -4.3632626      1.20745      1024000 
  837000   0.80549631   -4.3627513   -4.3627513   -3.1545093  0.016525957   -4.3627513     1.208242      1024000 
  838000   0.80576673   -4.3616414   -4.3616414   -3.1529937  0.018280187   -4.3616414    1.2086476      1024000 
  839000   0.80651665   -4.3617963   -4.3617963   -3.1520238 0.0099587034   -4.3617963    1.2097725      1024000 
  840000   0.80702497   -4.3616874   -4.3616874   -3.1511524  0.010053433   -4.3616874     1.210535      1024000 
  841000   0.80653705   -4.3604215   -4.3604215   -3.1506184   0.01451862   -4.3604215    1.2098031      1024000 
  842000   0.80731239   -4.3597484   -4.3597484   -3.1487823  0.019789866   -4.3597484    1.2109661      1024000 
  843000   0.80703429   -4.3582565   -4.3582565   -3.1477075  0.021465083   -4.3582565     1.210549      1024000 
  844000    0.8070682   -4.3571359   -4.3571359    -3.146536  0.018902375   -4.3571359    1.2105998      1024000 
  845000   0.80720696   -4.3571605   -4.3571605   -3.1463526  0.012924142   -4.3571605     1.210808      1024000 
  846000   0.80619622   -4.3545827   -4.3545827   -3.1452909  0.014077218   -4.3545827    1.2092919      1024000 
  847000   0.80642115   -4.3531406   -4.3531406   -3.1435113  0.011101044   -4.3531406    1.2096293      1024000 
  848000   0.80735006   -4.3530093   -4.3530093   -3.1419867  0.011528768   -4.3530093    1.2110226      1024000 
  849000   0.80630092   -4.3498099   -4.3498099   -3.1403609 0.0098459865   -4.3498099    1.2094489      1024000 
  850000   0.80527797   -4.3476562   -4.3476562   -3.1397417  0.012073166   -4.3476562    1.2079145      1024000 
  851000   0.80726722   -4.3484359   -4.3484359   -3.1375375   0.01042747   -4.3484359    1.2108984      1024000 
  852000   0.80876044   -4.3487205   -4.3487205   -3.1355823 0.0094351567   -4.3487205    1.2131382      1024000 
  853000   0.80863902   -4.3473567   -4.3473567   -3.1344006   0.01397472   -4.3473567    1.2129561      1024000 
  854000   0.80857372   -4.3447458   -4.3447458   -3.1318877  0.012945235   -4.3447458    1.2128581      1024000 
  855000   0.80997127   -4.3451274   -4.3451274    -3.130173  0.010643853   -4.3451274    1.2149544      1024000 
  856000   0.81002221   -4.3439978   -4.3439978    -3.128967  0.013589635   -4.3439978    1.2150309      1024000 
  857000   0.80950254   -4.3418239   -4.3418239   -3.1275726  0.016811121   -4.3418239    1.2142514      1024000 
  858000   0.81061982   -4.3410985   -4.3410985   -3.1251712  0.019060286   -4.3410985    1.2159273      1024000 
  859000   0.81221508   -4.3407708   -4.3407708   -3.1224507  0.012489193   -4.3407708    1.2183201      1024000 
  860000   0.80957322   -4.3364322   -4.3364322   -3.1220749  0.016576138   -4.3364322    1.2143574      1024000 
  861000   0.81059566   -4.3362201   -4.3362201    -3.120329 0.0079930152   -4.3362201     1.215891      1024000 
  862000   0.81181078   -4.3369887   -4.3369887    -3.119275  0.012051655   -4.3369887    1.2177137      1024000 
  863000   0.81038226   -4.3328849   -4.3328849   -3.1173139  0.016547748   -4.3328849    1.2155709      1024000 
  864000   0.81202602   -4.3329631   -4.3329631   -3.1149266  0.012707539   -4.3329631    1.2180366      1024000 
  865000   0.81111787   -4.3316422   -4.3316422   -3.1149679  0.010220638   -4.3316422    1.2166743      1024000 
  866000   0.81160871   -4.3304158   -4.3304158   -3.1130052 0.0062689836   -4.3304158    1.2174106      1024000 
  867000   0.81061857   -4.3281068   -4.3281068   -3.1121814 0.0085635865   -4.3281068    1.2159254      1024000 
  868000    0.8113389   -4.3272293   -4.3272293   -3.1102234  0.010466881   -4.3272293    1.2170059      1024000 
  869000   0.81134192   -4.3249751   -4.3249751   -3.1079647   0.01439581   -4.3249751    1.2170104      1024000 
  870000   0.81297208   -4.3262041   -4.3262041   -3.1067485  0.004756201   -4.3262041    1.2194557      1024000 
  871000   0.81228438   -4.3241478   -4.3241478   -3.1057237  0.008527055   -4.3241478    1.2184241      1024000 
  872000   0.81213851   -4.3223987   -4.3223987   -3.1041934 0.0097538393   -4.3223987    1.2182053      1024000 
  873000   0.81331907   -4.3226323   -4.3226323   -3.1026562 0.0094635722   -4.3226323    1.2199761      1024000 
  874000   0.81263178     -4.32022     -4.32022   -3.1012748 0.0093689792     -4.32022    1.2189452      1024000 
  875000   0.81388917    -4.320756    -4.320756   -3.0999247 0.0067960625    -4.320756    1.2208313      1024000 
  876000   0.81337614    -4.318633    -4.318633   -3.0985713 0.0091848122    -4.318633    1.2200617      1024000 
  877000   0.81278451   -4.3168894   -4.3168894   -3.0977151 0.0090326142   -4.3168894    1.2191743      1024000 
  878000   0.81274572   -4.3147289   -4.3147289   -3.0956128 0.0088653639   -4.3147289    1.2191161      1024000 
  879000    0.8118986   -4.3121792   -4.3121792   -3.0943337 0.0085030609   -4.3121792    1.2178454      1024000 
  880000    0.8129198   -4.3131497   -4.3131497   -3.0937725 0.0047017435   -4.3131497    1.2193772      1024000 
  881000   0.81333277   -4.3128426   -4.3128426   -3.0928459 0.0023520922   -4.3128426    1.2199967      1024000 
  882000   0.81196721   -4.3100344   -4.3100344    -3.092086 0.0041385848   -4.3100344    1.2179483      1024000 
  883000   0.81366664   -4.3113809   -4.3113809   -3.0908834 0.0038586106   -4.3113809    1.2204975      1024000 
  884000   0.81381048   -4.3104791   -4.3104791   -3.0897658 0.00087659412   -4.3104791    1.2207132      1024000 
  885000   0.81365017   -4.3096289   -4.3096289   -3.0891561 0.0030846536   -4.3096289    1.2204728      1024000 
  886000   0.81286954   -4.3060561   -4.3060561   -3.0867543 0.0051461833   -4.3060561    1.2193018      1024000 
  887000   0.81421969   -4.3065683   -4.3065683   -3.0852412 0.0068626918   -4.3065683    1.2213271      1024000 
  888000   0.81428767    -4.304169    -4.304169   -3.0827399  0.010277294    -4.304169     1.221429      1024000 
  889000   0.81525632   -4.3049787   -4.3049787   -3.0820967 0.0062033931   -4.3049787     1.222882      1024000 
  890000   0.81629895   -4.3046261   -4.3046261   -3.0801802 0.0066193166   -4.3046261    1.2244459      1024000 
  891000   0.81663614   -4.3036503   -4.3036503   -3.0786985  0.011212497   -4.3036503    1.2249517      1024000 
  892000   0.81725249   -4.3029741   -4.3029741   -3.0770978  0.011640645   -4.3029741    1.2258762      1024000 
  893000   0.81639109    -4.300477    -4.300477   -3.0758929  0.015806196    -4.300477    1.2245842      1024000 
  894000   0.81800301   -4.3025011   -4.3025011   -3.0754991  0.012984757   -4.3025011     1.227002      1024000 
  895000   0.81705105   -4.3010085   -4.3010085   -3.0754344  0.014191453   -4.3010085    1.2255741      1024000 
  896000   0.81828775   -4.3012352   -4.3012352    -3.073806 0.0066915083   -4.3012352    1.2274291      1024000 
  897000   0.81700961   -4.2980052   -4.2980052   -3.0724933   0.01575384   -4.2980052    1.2255119      1024000 
  898000   0.81745828   -4.2975245   -4.2975245   -3.0713396  0.014062408   -4.2975245    1.2261849      1024000 
  899000   0.81840368   -4.2971737   -4.2971737   -3.0695706  0.014702687   -4.2971737     1.227603      1024000 
  900000   0.81866086   -4.2968465   -4.2968465   -3.0688577  0.011929709   -4.2968465    1.2279888      1024000 
  901000    0.8185218   -4.2949517   -4.2949517   -3.0671715 0.0082204378   -4.2949517    1.2277802      1024000 
  902000   0.81886953   -4.2949219   -4.2949219   -3.0666201  0.013697381   -4.2949219    1.2283018      1024000 
  903000   0.81845664   -4.2930837   -4.2930837   -3.0654012  0.017550057   -4.2930837    1.2276825      1024000 
  904000   0.81777594   -4.2907412   -4.2907412   -3.0640798  0.018484648   -4.2907412    1.2266614      1024000 
  905000   0.81849817    -4.290595    -4.290595   -3.0628502  0.015169042    -4.290595    1.2277448      1024000 
  906000   0.81948091    -4.291206    -4.291206   -3.0619872  0.013114203    -4.291206    1.2292189      1024000 
  907000   0.82180169    -4.292475    -4.292475   -3.0597749  0.013434855    -4.292475       1.2327      1024000 
  908000    0.8209232   -4.2900366   -4.2900366   -3.0586543  0.020612156   -4.2900366    1.2313823      1024000 
  909000   0.82050038   -4.2884708   -4.2884708   -3.0577227  0.017674443   -4.2884708    1.2307481      1024000 
  910000   0.82140673   -4.2884176   -4.2884176     -3.05631  0.013442834   -4.2884176    1.2321076      1024000 
  911000   0.82069481   -4.2859324   -4.2859324   -3.0548927  0.016307842   -4.2859324    1.2310397      1024000 
  912000   0.82050039   -4.2847994   -4.2847994   -3.0540513  0.018593864   -4.2847994    1.2307481      1024000 
  913000   0.81952115   -4.2824122   -4.2824122   -3.0531329  0.011932498   -4.2824122    1.2292792      1024000 
  914000   0.82086767   -4.2822259   -4.2822259   -3.0509269  0.011814042   -4.2822259     1.231299      1024000 
  915000   0.82111962   -4.2813985   -4.2813985   -3.0497216  0.011646159   -4.2813985    1.2316769      1024000 
  916000   0.82084954   -4.2799062   -4.2799062   -3.0486343  0.012517257   -4.2799062    1.2312718      1024000 
  917000   0.82134296   -4.2793739   -4.2793739    -3.047362  0.014101331   -4.2793739    1.2320119      1024000 
  918000   0.82065264   -4.2775124   -4.2775124   -3.0465359  0.012502226   -4.2775124    1.2309765      1024000 
  919000   0.82080599    -4.276507    -4.276507   -3.0453006 0.0095243824    -4.276507    1.2312065      1024000 
  920000    0.8219773    -4.276311    -4.276311   -3.0433475  0.013082958    -4.276311    1.2329634      1024000 
  921000   0.82277001    -4.274494    -4.274494   -3.0403415  0.015127764    -4.274494    1.2341525      1024000 
  922000   0.82215004    -4.272977    -4.272977   -3.0397544  0.015358155    -4.272977    1.2332226      1024000 
  923000   0.82324878   -4.2720177   -4.2720177    -3.037147  0.015408539   -4.2720177    1.2348707      1024000 
  924000   0.82397955   -4.2723906   -4.2723906   -3.0364238  0.013865943   -4.2723906    1.2359668      1024000 
  925000   0.82274158   -4.2684956   -4.2684956   -3.0343858  0.017015176   -4.2684956    1.2341099      1024000 
  926000    0.8237914   -4.2681694   -4.2681694   -3.0324848  0.016270623   -4.2681694    1.2356846      1024000 
  927000   0.82498249    -4.267891    -4.267891   -3.0304198  0.013638353    -4.267891    1.2374712      1024000 
  928000   0.82449899   -4.2662497   -4.2662497   -3.0295038  0.015568415   -4.2662497     1.236746      1024000 
  929000     0.823828   -4.2646206   -4.2646206   -3.0288811  0.012695654   -4.2646206    1.2357395      1024000 
  930000   0.82423747   -4.2643254   -4.2643254   -3.0279717   0.01162968   -4.2643254    1.2363537      1024000 
  931000    0.8240505   -4.2624378   -4.2624378   -3.0263646  0.013481513   -4.2624378    1.2360732      1024000 
  932000    0.8248621   -4.2624568   -4.2624568   -3.0251662  0.011006714   -4.2624568    1.2372906      1024000 
  933000   0.82448013   -4.2596219   -4.2596219   -3.0229042  0.014019166   -4.2596219    1.2367177      1024000 
  934000   0.82392975   -4.2576419   -4.2576419   -3.0217498  0.010724529   -4.2576419    1.2358921      1024000 
  935000   0.82491275   -4.2580758   -4.2580758   -3.0207092  0.011778749   -4.2580758    1.2373666      1024000 
  936000   0.82405223   -4.2556182   -4.2556182   -3.0195424  0.016026696   -4.2556182    1.2360758      1024000 
  937000   0.82422269   -4.2542139   -4.2542139   -3.0178823  0.016739341   -4.2542139    1.2363315      1024000 
  938000   0.82457241   -4.2539972   -4.2539972   -3.0171411  0.010738293   -4.2539972    1.2368561      1024000 
  939000   0.82537269   -4.2531991   -4.2531991   -3.0151426 0.0097847502   -4.2531991    1.2380565      1024000 
  940000    0.8268049   -4.2524252   -4.2524252   -3.0122204  0.015539804   -4.2524252    1.2402048      1024000 
  941000   0.82697758   -4.2516424   -4.2516424   -3.0111785  0.012361092   -4.2516424    1.2404638      1024000 
  942000   0.82680423   -4.2507949   -4.2507949    -3.010591  0.010471817   -4.2507949    1.2402038      1024000 
  943000   0.82746011   -4.2498979   -4.2498979   -3.0087102  0.010666428   -4.2498979    1.2411876      1024000 
  944000   0.82707521   -4.2478721   -4.2478721   -3.0072618   0.01008244   -4.2478721    1.2406103      1024000 
  945000   0.82652995   -4.2466375   -4.2466375    -3.006845 0.0098841129   -4.2466375    1.2397924      1024000 
  946000   0.82653363   -4.2445667   -4.2445667   -3.0047688  0.012511734   -4.2445667    1.2397979      1024000 
  947000   0.82747106   -4.2442668   -4.2442668   -3.0030627  0.010964358   -4.2442668    1.2412041      1024000 
  948000   0.82648237   -4.2427623   -4.2427623   -3.0030412   0.01068558   -4.2427623     1.239721      1024000 
  949000   0.82768771   -4.2423162   -4.2423162   -3.0007871 0.0076635973   -4.2423162    1.2415291      1024000 
  950000   0.82672783    -4.238443    -4.238443   -2.9983538  0.014028862    -4.238443    1.2400892      1024000 
  951000   0.82751586   -4.2382395   -4.2382395   -2.9969682 0.0065751783   -4.2382395    1.2412713      1024000 
  952000   0.82897273    -4.239467    -4.239467   -2.9960105 0.0068347005    -4.239467    1.2434566      1024000 
  953000   0.82779051   -4.2357736   -4.2357736   -2.9940904  0.010399685   -4.2357736    1.2416832      1024000 
  954000   0.82788065   -4.2332696   -4.2332696   -2.9914512  0.010708844   -4.2332696    1.2418185      1024000 
  955000   0.82912068   -4.2340615   -4.2340615    -2.990383 0.0072378729   -4.2340615    1.2436785      1024000 
  956000   0.82939061   -4.2333753   -4.2333753   -2.9892919  0.007763957   -4.2333753    1.2440834      1024000 
  957000   0.82931634   -4.2325452   -4.2325452   -2.9885732   0.01295366   -4.2325452     1.243972      1024000 
  958000   0.82906907   -4.2310921   -4.2310921    -2.987491  0.018729778   -4.2310921    1.2436011      1024000 
  959000   0.83054074   -4.2319323   -4.2319323   -2.9861237  0.013504897   -4.2319323    1.2458086      1024000 
  960000   0.83064214   -4.2306597   -4.2306597    -2.984699  0.010559445   -4.2306597    1.2459607      1024000 
  961000   0.83111453   -4.2291403   -4.2291403   -2.9824711   0.01702225   -4.2291403    1.2466693      1024000 
  962000   0.83097982   -4.2281312   -4.2281312    -2.981664  0.011044601   -4.2281312    1.2464672      1024000 
  963000   0.83068991   -4.2265687   -4.2265687   -2.9805364 0.0094323147   -4.2265687    1.2460323      1024000 
  964000   0.83005177   -4.2236494   -4.2236494   -2.9785743  0.013029856   -4.2236494    1.2450751      1024000 
  965000   0.83135831   -4.2239182   -4.2239182   -2.9768833  0.010692055   -4.2239182    1.2470349      1024000 
  966000   0.83117941   -4.2220028   -4.2220028   -2.9752362  0.011717233   -4.2220028    1.2467666      1024000 
  967000   0.83215979   -4.2219507   -4.2219507   -2.9737136  0.012324497   -4.2219507    1.2482371      1024000 
  968000   0.83134854   -4.2189879   -4.2189879   -2.9719676    0.0155289   -4.2189879    1.2470203      1024000 
  969000   0.83239515   -4.2202883   -4.2202883   -2.9716981 0.0097880875   -4.2202883    1.2485902      1024000 
  970000   0.83158848   -4.2181949   -4.2181949   -2.9708147   0.01432168   -4.2181949    1.2473802      1024000 
  971000    0.8325104   -4.2180006   -4.2180006   -2.9692376 0.0096522703   -4.2180006    1.2487631      1024000 
  972000   0.83196417   -4.2158383   -4.2158383   -2.9678946  0.014591695   -4.2158383    1.2479437      1024000 
  973000   0.83262422   -4.2158075   -4.2158075   -2.9668737 0.0088460127   -4.2158075    1.2489338      1024000 
  974000   0.83294413   -4.2151035   -4.2151035   -2.9656899  0.012351976   -4.2151035    1.2494137      1024000 
  975000   0.83257997   -4.2128727   -4.2128727   -2.9640053  0.013295513   -4.2128727    1.2488674      1024000 
  976000   0.83237758    -4.211333    -4.211333   -2.9627691  0.013558241    -4.211333    1.2485638      1024000 
  977000     0.832975   -4.2095276   -4.2095276   -2.9600676   0.01609756   -4.2095276      1.24946      1024000 
  978000   0.83354993   -4.2097634   -4.2097634   -2.9594411  0.010662166   -4.2097634    1.2503224      1024000 
  979000   0.83329082   -4.2073499   -4.2073499   -2.9574162  0.017019785   -4.2073499    1.2499337      1024000 
  980000   0.83360792   -4.2073438   -4.2073438   -2.9569344  0.018126512   -4.2073438    1.2504093      1024000 
  981000   0.83465706   -4.2064914   -4.2064914   -2.9545083  0.015305275   -4.2064914    1.2519831      1024000 
  982000   0.83600919   -4.2068838   -4.2068838   -2.9528726  0.011703547   -4.2068838    1.2540112      1024000 
  983000   0.83536537   -4.2053972   -4.2053972   -2.9523517  0.014391057   -4.2053972    1.2530455      1024000 
  984000   0.83609225   -4.2046631   -4.2046631   -2.9505272   0.01845732   -4.2046631    1.2541358      1024000 
  985000   0.83634174   -4.2032845   -4.2032845   -2.9487744  0.012255572   -4.2032845    1.2545101      1024000 
  986000   0.83613118   -4.2025234   -4.2025234   -2.9483292  0.012743985   -4.2025234    1.2541942      1024000 
  987000   0.83611208   -4.2008984   -4.2008984   -2.9467329 0.0096420053   -4.2008984    1.2541656      1024000 
  988000   0.83728324   -4.2005139   -4.2005139   -2.9445916  0.017614738   -4.2005139    1.2559223      1024000 
  989000   0.83759673   -4.1989013   -4.1989013   -2.9425087  0.013574133   -4.1989013    1.2563925      1024000 
  990000   0.83666984   -4.1957674   -4.1957674   -2.9407652  0.017451249   -4.1957674    1.2550022      1024000 
  991000   0.83734589   -4.1957399   -4.1957399   -2.9397236  0.010754804   -4.1957399    1.2560163      1024000 
  992000   0.83713551     -4.19394     -4.19394   -2.9382393 0.0091952728     -4.19394    1.2557007      1024000 
  993000   0.83656093   -4.1923831   -4.1923831   -2.9375442  0.013498942   -4.1923831    1.2548389      1024000 
  994000   0.83684123   -4.1914615   -4.1914615   -2.9362022 0.0099476937   -4.1914615    1.2552593      1024000 
  995000    0.8355155   -4.1895092   -4.1895092   -2.9362385  0.015911418   -4.1895092    1.2532707      1024000 
  996000    0.8356724   -4.1883097   -4.1883097   -2.9348036  0.019455763   -4.1883097    1.2535061      1024000 
  997000   0.83605862   -4.1872801   -4.1872801   -2.9331947  0.015665065   -4.1872801    1.2540854      1024000 
  998000   0.83696609   -4.1873764   -4.1873764   -2.9319298  0.012530758   -4.1873764    1.2554466      1024000 
  999000   0.83777542   -4.1865169   -4.1865169   -2.9298563  0.013600364   -4.1865169    1.2566606      1024000 
 1000000   0.83777925   -4.1852789   -4.1852789   -2.9286126 0.0094318739   -4.1852789    1.2566663      1024000 
Loop time of 7561.75 on 32 procs for 1000000 steps with 492800 atoms

Performance: 28564.822 tau/day, 132.245 timesteps/s
99.7% CPU use with 32 MPI tasks x 1 OpenMP threads

MPI task timing breakdown:
Section |  min time  |  avg time  |  max time  |%varavg|  %CPU | %total
-----------------------------------------------------------------------
Pair    | 4132.9     | 4947.8     | 5159.4     | 442.0 |  99.7 | 65.43
Bond    | 0.63141    | 0.64752    | 0.68766    |   1.4 | 100.0 |  0.01
Neigh   | 1042.1     | 1220.1     | 1269.6     | 191.5 |  99.8 | 16.14
Comm    | 603.7      | 880.05     | 1886.6     |1302.8 |  99.4 | 11.64
Output  | 22.543     | 22.717     | 22.723     |   0.7 |  98.3 |  0.30
Modify  | 155.19     | 260.68     | 722.29     |1169.2 |  99.2 |  3.45
Other   |            | 229.7      |            |       |       |  3.04

Nlocal:        15400.0 ave       16148 max       15133 min
Histogram: 4 7 15 2 0 2 0 0 1 1
Nghost:        12275.1 ave       13933 max        8221 min
Histogram: 4 0 4 0 0 0 1 3 4 16
Neighs:        526164.0 ave      581220 max      424316 min
Histogram: 4 0 0 3 4 1 1 5 5 9

Total # of neighbors = 16837243
Ave neighs/atom = 34.166483
Ave special neighs/atom = 0.0000000
Neighbor list builds = 59567
Dangerous builds = 107
Total wall time: 2:06:02
