LAMMPS (3 Mar 2020)
OMP_NUM_THREADS environment is not set. Defaulting to 1 thread. (src/comm.cpp:94)
  using 1 OpenMP thread(s) per MPI task
# Simple rigid body system


units		lj
atom_style	full
dimension 	3
boundary	p p f
pair_style	lj/cut 4.4

variable 	sigma		equal 1.0
variable 	epsilon 	equal 1.0


region		box block 0 40 0 40 0 40
create_box 	3 box
Created orthogonal box = (0 0 0) to (40 40 40)
  1 by 2 by 2 MPI processor grid


create_atoms 	3 random 15000 15345 NULL
Created 15000 atoms
  create_atoms CPU = 0.002428 secs

mass		3 1.0

region		cubespace block 10 30 10 30 10 30

delete_atoms 	region cubespace
WARNING: Ignoring 'compress yes' for molecular system (src/delete_atoms.cpp:125)
Deleted 1941 atoms, new total = 13059

read_data	data.rigid add append
  orthogonal box = (0 0 0) to (40 40 40)
  1 by 2 by 2 MPI processor grid
  reading atoms ...
  1143 atoms
  0 = max # of 1-2 neighbors
  0 = max # of 1-3 neighbors
  0 = max # of 1-4 neighbors
  1 = max # of special neighbors
  special bonds CPU = 0.00082182 secs
  read_data CPU = 0.00617468 secs


group 		cube type 1 2
1143 atoms in group cube

group		solvent type 3
13059 atoms in group solvent


replicate 	2 2 2
WARNING: Replicating in a non-periodic dimension (src/replicate.cpp:72)
  orthogonal box = (0 0 0) to (80 80 80)
  1 by 2 by 2 MPI processor grid
  113616 atoms
  0 = max # of 1-2 neighbors
  0 = max # of 1-3 neighbors
  0 = max # of 1-4 neighbors
  1 = max # of special neighbors
  special bonds CPU = 0.00484384 secs
  replicate CPU = 0.0165398 secs

read_data	data.vac add append
  orthogonal box = (0 0 0) to (80 80 160)
  1 by 1 by 4 MPI processor grid
  0 = max # of 1-2 neighbors
  0 = max # of 1-3 neighbors
  0 = max # of 1-4 neighbors
  1 = max # of special neighbors
  special bonds CPU = 0.00461861 secs
  read_data CPU = 0.0325729 secs

neighbor 	0.4 bin

neigh_modify 	exclude molecule/intra cube



pair_modify 	shift yes
pair_coeff	1 1 0.6 1.0 2.2 #np
pair_coeff 	2 2 0.0 0.0 0.0 #dummy
pair_coeff	1 2 0.0 0.0 0.0 #np dummy
pair_coeff	3 3 1.0 1.0 4.4 #solvent
pair_coeff	1 3 0.8 1.0 4.4 #np solvent
pair_coeff 	2 3 0.0 0.0 0.0 #dummy solvent


reset_ids
Resetting atom IDs ...
Neighbor list info ...
  update every 1 steps, delay 10 steps, check yes
  max neighbors/atom: 2000, page size: 100000
  master list distance cutoff = 4.8
  ghost atom cutoff = 4.8
  binsize = 2.4, bins = 34 34 67
  1 neighbor lists, perpetual/occasional/extra = 1 0 0
  (1) pair lj/cut, perpetual
      attributes: half, newton on
      pair build: half/bin/newton
      stencil: half/bin/3d/newton
      bin: standard
  0 = max # of 1-2 neighbors
  0 = max # of 1-3 neighbors
  0 = max # of 1-4 neighbors
  1 = max # of special neighbors
  special bonds CPU = 0.00761698 secs
velocity 	solvent create 1.0 565153


comm_modify	cutoff 8.7

#delete_atoms 	overlap 4.4 solvent cube

delete_atoms 	overlap 1 solvent solvent compress yes
Neighbor list info ...
  update every 1 steps, delay 10 steps, check yes
  max neighbors/atom: 2000, page size: 100000
  master list distance cutoff = 4.8
  ghost atom cutoff = 8.7
  binsize = 2.4, bins = 34 34 67
  2 neighbor lists, perpetual/occasional/extra = 1 1 0
  (1) command delete_atoms, occasional
      attributes: full, newton on
      pair build: full/bin
      stencil: full/bin/3d
      bin: standard
  (2) pair lj/cut, perpetual
      attributes: half, newton on
      pair build: half/bin/newton
      stencil: half/bin/3d/newton
      bin: standard
WARNING: Delete_atoms cutoff > minimum neighbor cutoff (src/delete_atoms.cpp:338)
WARNING: Ignoring 'compress yes' for molecular system (src/delete_atoms.cpp:125)
Deleted 37746 atoms, new total = 75870


balance 	1.05 shift z 10 1.05
Neighbor list info ...
  update every 1 steps, delay 10 steps, check yes
  max neighbors/atom: 2000, page size: 100000
  master list distance cutoff = 4.8
  ghost atom cutoff = 8.7
  binsize = 2.4, bins = 34 34 67
  1 neighbor lists, perpetual/occasional/extra = 1 0 0
  (1) pair lj/cut, perpetual
      attributes: half, newton on
      pair build: half/bin/newton
      stencil: half/bin/3d/newton
      bin: standard
  rebalancing time: 0.0229806 seconds
  iteration count = 6
  initial/final max load/proc = 38027 20095
  initial/final imbalance factor = 2.00485 1.05944
  x cuts: 0 1
  y cuts: 0 1
  z cuts: 0 0.128906 0.253906 0.382812 1

####################### WALLS ###########################

region	       low block  EDGE EDGE EDGE EDGE 0 1
region 	       top block  EDGE EDGE EDGE EDGE 159 160

delete_atoms   region low compress yes
WARNING: Ignoring 'compress yes' for molecular system (src/delete_atoms.cpp:125)
Deleted 1038 atoms, new total = 74832

variable       epsilonWall equal 2*${epsilon}
variable       epsilonWall equal 2*1

variable       cutoffTop   equal   0.7147*${sigma}
variable       cutoffTop   equal   0.7147*1

variable       cutoffLow   equal   3*${sigma}
variable       cutoffLow   equal   3*1

fix            topWall all wall/lj93 zhi EDGE                ${epsilonWall} ${sigma} ${cutoffTop} units box
fix            topWall all wall/lj93 zhi EDGE                2 ${sigma} ${cutoffTop} units box
fix            topWall all wall/lj93 zhi EDGE                2 1 ${cutoffTop} units box
fix            topWall all wall/lj93 zhi EDGE                2 1 0.7147 units box

fix            lowWall all wall/lj93 zlo EDGE                ${epsilonWall} ${sigma} ${cutoffLow} units box
fix            lowWall all wall/lj93 zlo EDGE                2 ${sigma} ${cutoffLow} units box
fix            lowWall all wall/lj93 zlo EDGE                2 1 ${cutoffLow} units box
fix            lowWall all wall/lj93 zlo EDGE                2 1 3 units box



######################	FIXES ############################

fix		1 cube rigid/nvt/small molecule temp 1.0 1.0 0.25
  create bodies CPU = 0.000713518 secs
8 rigid bodies with 9144 atoms
  6.9282 = max distance from body owner to body atom

fix 		2 solvent nvt temp 1.0 1.0 0.25# iso 0 0.0 2.5

fix 		bal all balance 1000 1.05 shift z 10 1.05



compute 	com cube	  rigid/local	1 mol x y z
compute 	quat cube	  rigid/local	1 mol quatw quati quatj quatk

thermo 		100
thermo_style 	custom step temp epair evdwl etotal press pe ke vol

dump		1 all custom 1000 dump.lammpstrj id mol type x y z
dump 		2 all image 100 image.*.png type type
dump 		3 all movie 100 movie.avi type type
dump 		com cube local 1000 dump.*.xyz c_com[*]
dump		quat cube      local 1000 dump.*.quat c_quat[*]


restart 	1000 restart.dat
timestep 	0.0025
timer 		full
New timer settings: style=full  mode=nosync  timeout=off


run		10000
Per MPI rank memory allocation (min/avg/max) = 47.1 | 63.28 | 78.13 Mbytes
Step Temp E_pair E_vdwl TotEng Press PotEng KinEng Volume 
       0    1.0000731  -0.70356805  -0.70356805   0.61353838  0.015695577  -0.70356805    1.3171064      1024000 
     100    1.0257128    -0.742849    -0.742849   0.60802507  0.031846312    -0.742849    1.3508741      1024000 
     200    1.0588997    -0.814933    -0.814933   0.57964856  0.038010841    -0.814933    1.3945816      1024000 
     300    1.0517302  -0.85119927  -0.85119927   0.53394002  0.034911254  -0.85119927    1.3851393      1024000 
     400    1.0339062  -0.87615511  -0.87615511   0.48550983  0.032233963  -0.87615511    1.3616649      1024000 
     500    1.0158027   -0.8942878   -0.8942878   0.44353457  0.030335462   -0.8942878    1.3378224      1024000 
     600    1.0043507  -0.91157759  -0.91157759   0.41116248  0.028654196  -0.91157759    1.3227401      1024000 
     700   0.99817783  -0.92639196  -0.92639196   0.38821832  0.028363988  -0.92639196    1.3146103      1024000 
     800   0.99802073  -0.94035108  -0.94035108    0.3740523  0.028637365  -0.94035108    1.3144034      1024000 
     900   0.99711055  -0.94754276  -0.94754276   0.36566191  0.028509468  -0.94754276    1.3132047      1024000 
    1000    0.9997948  -0.95645684  -0.95645684   0.36028301  0.028685244  -0.95645684    1.3167399      1024000 
    1100   0.99986385  -0.96353299  -0.96353299   0.35329779  0.027425229  -0.96353299    1.3168308      1024000 
    1200   0.99783543  -0.96702856  -0.96702856   0.34713079  0.026647001  -0.96702856    1.3141593      1024000 
    1300    1.0011297  -0.97470711  -0.97470711   0.34379086  0.025360416  -0.97470711     1.318498      1024000 
    1400    1.0022648  -0.98313606  -0.98313606   0.33685678  0.025868605  -0.98313606    1.3199928      1024000 
    1500   0.99888946  -0.98806508  -0.98806508   0.32748243  0.025969215  -0.98806508    1.3155475      1024000 
    1600      1.00008  -0.99646615  -0.99646615   0.32064932  0.025540911  -0.99646615    1.3171155      1024000 
    1700   0.99982282   -1.0015663   -1.0015663   0.31521045  0.027846489   -1.0015663    1.3167768      1024000 
    1800    1.0009292   -1.0071516   -1.0071516   0.31108227  0.028428096   -1.0071516    1.3182339      1024000 
    1900    1.0014337   -1.0114517   -1.0114517   0.30744657  0.028502348   -1.0114517    1.3188983      1024000 
    2000   0.99918488   -1.0125367   -1.0125367    0.3033999  0.027516678   -1.0125367    1.3159366      1024000 
    2100    1.0000927    -1.015755    -1.015755   0.30137726  0.027316663    -1.015755    1.3171322      1024000 
    2200    1.0004675   -1.0182764   -1.0182764   0.29934942  0.027448719   -1.0182764    1.3176258      1024000 
    2300   0.99797828   -1.0191767   -1.0191767   0.29517082  0.028520095   -1.0191767    1.3143475      1024000 
    2400   0.99951032   -1.0238819   -1.0238819   0.29248328  0.028007781   -1.0238819    1.3163652      1024000 
    2500    0.9999332   -1.0237732   -1.0237732   0.29314889  0.026971143   -1.0237732    1.3169221      1024000 
    2600    1.0013154   -1.0254956   -1.0254956   0.29324694  0.025498486   -1.0254956    1.3187425      1024000 
    2700    1.0007332   -1.0295985   -1.0295985   0.28837725  0.026834553   -1.0295985    1.3179758      1024000 
    2800   0.99591235   -1.0295982   -1.0295982   0.28202839  0.028083572   -1.0295982    1.3116266      1024000 
    2900     1.000244   -1.0335708   -1.0335708   0.28376055  0.026475342   -1.0335708    1.3173314      1024000 
    3000    1.0037977   -1.0356566   -1.0356566   0.28635508  0.028579933   -1.0356566    1.3220117      1024000 
    3100   0.99871421   -1.0345375   -1.0345375   0.28077921  0.027598705   -1.0345375    1.3153167      1024000 
    3200   0.99738343   -1.0376755   -1.0376755   0.27588854  0.025949398   -1.0376755    1.3135641      1024000 
    3300   0.99879001   -1.0392339   -1.0392339   0.27618266  0.030400173   -1.0392339    1.3154165      1024000 
    3400    1.0021225   -1.0408196   -1.0408196   0.27898581  0.027114522   -1.0408196    1.3198055      1024000 
    3500      1.00187   -1.0431462   -1.0431462   0.27632674  0.026390411   -1.0431462     1.319473      1024000 
    3600   0.99917293    -1.047204    -1.047204    0.2687168  0.026703533    -1.047204    1.3159208      1024000 
    3700    1.0005508   -1.0520966   -1.0520966   0.26563894  0.025475775   -1.0520966    1.3177355      1024000 
    3800    1.0017451   -1.0535194   -1.0535194   0.26578899  0.027706979   -1.0535194    1.3193084      1024000 
    3900    1.0026281   -1.0553266   -1.0553266   0.26514476  0.027577462   -1.0553266    1.3204713      1024000 
    4000   0.99841104   -1.0553277   -1.0553277   0.25958968  0.024874862   -1.0553277    1.3149174      1024000 
    4100   0.99835826   -1.0596181   -1.0596181    0.2552298  0.025642981   -1.0596181    1.3148479      1024000 
    4200    1.0008602    -1.061642    -1.061642   0.25650099   0.02637285    -1.061642     1.318143      1024000 
    4300    1.0037427   -1.0598599   -1.0598599   0.26207933  0.030203842   -1.0598599    1.3219393      1024000 
    4400    1.0015059   -1.0601708   -1.0601708   0.25882255  0.027398972   -1.0601708    1.3189934      1024000 
    4500   0.99606945   -1.0616732   -1.0616732    0.2501603  0.026016659   -1.0616732    1.3118335      1024000 
    4600   0.99778484     -1.06211     -1.06211   0.25198276  0.027713546     -1.06211    1.3140927      1024000 
    4700    1.0027902    -1.065513    -1.065513   0.25517178  0.030348465    -1.065513    1.3206848      1024000 
    4800    1.0009151   -1.0686414   -1.0686414   0.24957389  0.027079182   -1.0686414    1.3182152      1024000 
    4900   0.99500087   -1.0698554   -1.0698554   0.24057078  0.027524935   -1.0698554    1.3104262      1024000 
    5000    1.0011593   -1.0728253   -1.0728253   0.24571166  0.028606527   -1.0728253    1.3185369      1024000 
    5100     1.003846    -1.073636    -1.073636   0.24843929  0.026507395    -1.073636    1.3220753      1024000 
    5200   0.99582675   -1.0722153   -1.0722153   0.23929861  0.027117982   -1.0722153    1.3115139      1024000 
    5300    0.9939411   -1.0724217   -1.0724217    0.2366088  0.026726301   -1.0724217    1.3090305      1024000 
    5400   0.99804127   -1.0723599   -1.0723599   0.24207054  0.029181287   -1.0723599    1.3144304      1024000 
    5500   0.99991491   -1.0707322   -1.0707322   0.24616588  0.028315815   -1.0707322     1.316898      1024000 
    5600    1.0014611   -1.0689306   -1.0689306   0.25000386   0.02642002   -1.0689306    1.3189344      1024000 
    5700    1.0004402   -1.0670473   -1.0670473   0.25054258  0.027681587   -1.0670473    1.3175899      1024000 
    5800   0.99817471   -1.0721303   -1.0721303   0.24247588  0.027852515   -1.0721303    1.3146062      1024000 
    5900   0.99682913   -1.0755214   -1.0755214    0.2373126  0.027664376   -1.0755214     1.312834      1024000 
    6000    1.0032377   -1.0808123   -1.0808123   0.24046191  0.025099111   -1.0808123    1.3212742      1024000 
    6100    1.0039669   -1.0799786   -1.0799786   0.24225595  0.027227283   -1.0799786    1.3222345      1024000 
    6200     0.996388   -1.0831083   -1.0831083   0.22914475  0.026336011   -1.0831083    1.3122531      1024000 
    6300   0.99750243   -1.0850505   -1.0850505   0.22867024  0.029099927   -1.0850505    1.3137208      1024000 
    6400    1.0020734   -1.0861208   -1.0861208   0.23361993  0.026601701   -1.0861208    1.3197407      1024000 
    6500    1.0042588   -1.0877938   -1.0877938   0.23482519  0.024255567   -1.0877938    1.3226189      1024000 
    6600    0.9970814   -1.0886967   -1.0886967   0.22446959  0.027642961   -1.0886967    1.3131663      1024000 
    6700   0.99759043   -1.0915485   -1.0915485   0.22228819  0.029340448   -1.0915485    1.3138367      1024000 
    6800      0.99897   -1.0908455   -1.0908455   0.22480812  0.028077569   -1.0908455    1.3156536      1024000 
    6900    1.0014761   -1.0928981   -1.0928981     0.226056  0.025418506   -1.0928981    1.3189542      1024000 
    7000    1.0002544   -1.0981236   -1.0981236   0.21922159  0.026953177   -1.0981236    1.3173451      1024000 
    7100   0.99495562   -1.0998699   -1.0998699   0.21049666  0.029451627   -1.0998699    1.3103666      1024000 
    7200   0.99858957   -1.1003567   -1.1003567   0.21479589  0.027989117   -1.1003567    1.3151526      1024000 
    7300    1.0049423   -1.1052782   -1.1052782   0.21824094  0.026654707   -1.1052782    1.3235191      1024000 
    7400    1.0011435   -1.1084241   -1.1084241   0.21009192   0.02535185   -1.1084241    1.3185161      1024000 
    7500     1.000832   -1.1116977   -1.1116977   0.20640817  0.026495142   -1.1116977    1.3181058      1024000 
    7600    1.0012691   -1.1127902   -1.1127902   0.20589138   0.02805033   -1.1127902    1.3186816      1024000 
    7700   0.99969332   -1.1113197   -1.1113197   0.20528647  0.027383134   -1.1113197    1.3166062      1024000 
    7800   0.99972135   -1.1068267   -1.1068267   0.20981646  0.025300841   -1.1068267    1.3166431      1024000 
    7900    1.0043314   -1.1053508   -1.1053508   0.21736381  0.025477541   -1.1053508    1.3227146      1024000 
    8000    1.0014595   -1.1039147   -1.1039147   0.21501757  0.026766639   -1.1039147    1.3189323      1024000 
    8100   0.99564501   -1.1053904   -1.1053904   0.20588417  0.028190022   -1.1053904    1.3112745      1024000 
    8200   0.99786895   -1.1072173   -1.1072173    0.2069862  0.027545141   -1.1072173    1.3142035      1024000 
    8300    1.0083532    -1.109149    -1.109149   0.21886232  0.024404192    -1.109149    1.3280114      1024000 
    8400     1.003479   -1.1085434   -1.1085434   0.21304867  0.027219332   -1.1085434     1.321592      1024000 
    8500   0.99963359   -1.1099202   -1.1099202   0.20660738  0.029361294   -1.1099202    1.3165275      1024000 
    8600   0.99780446   -1.1103593   -1.1103593   0.20375923  0.027959334   -1.1103593    1.3141186      1024000 
    8700   0.99996782   -1.1108868   -1.1108868   0.20608088  0.028224303   -1.1108868    1.3169677      1024000 
    8800    1.0044463   -1.1096939   -1.1096939   0.21317193  0.026674076   -1.1096939    1.3228659      1024000 
    8900    1.0051301   -1.1080388   -1.1080388   0.21572766  0.026106068   -1.1080388    1.3237664      1024000 
    9000   0.99638718   -1.1063429   -1.1063429   0.20590913  0.030126671   -1.1063429     1.312252      1024000 
    9100    0.9974887   -1.1105517   -1.1105517   0.20315099  0.031163224   -1.1105517    1.3137027      1024000 
    9200   0.99955785   -1.1093298   -1.1093298   0.20709801  0.022191137   -1.1093298    1.3164278      1024000 
    9300    1.0020628   -1.1063805   -1.1063805   0.21334628  0.022544953   -1.1063805    1.3197268      1024000 
    9400    1.0057449   -1.1039979   -1.1039979   0.22057822  0.029266198   -1.1039979    1.3245762      1024000 
    9500    1.0091071   -1.1060749   -1.1060749   0.22292935  0.028650403   -1.1060749    1.3290043      1024000 
    9600    1.0017816   -1.1089644   -1.1089644   0.21039212  0.027915691   -1.1089644    1.3193565      1024000 
    9700    1.0003007   -1.1130364   -1.1130364   0.20436964  0.024833275   -1.1130364    1.3174061      1024000 
    9800   0.99858288   -1.1150658   -1.1150658   0.20007793  0.025545894   -1.1150658    1.3151437      1024000 
    9900   0.99651131   -1.1131762   -1.1131762    0.1992393  0.029550664   -1.1131762    1.3124155      1024000 
   10000    1.0028321   -1.1150888   -1.1150888   0.20565125  0.026201266   -1.1150888    1.3207401      1024000 
Loop time of 229.402 on 4 procs for 10000 steps with 74832 atoms

Performance: 9415.779 tau/day, 43.592 timesteps/s
97.4% CPU use with 4 MPI tasks x 1 OpenMP threads

MPI task timing breakdown:
Section |  min time  |  avg time  |  max time  |%varavg|  %CPU | %total
-----------------------------------------------------------------------
Pair    | 108.49     | 129.66     | 142.85     | 115.7 |  98.8 | 56.52
Bond    | 0.012989   | 0.01346    | 0.014569   |   0.6 | 100.0 |  0.01
Neigh   | 27.799     | 34.719     | 38.214     |  71.4 |  99.5 | 15.13
Comm    | 13.044     | 26.412     | 54.963     | 330.0 |  95.7 | 11.51
Output  | 20.399     | 20.4       | 20.402     |   0.0 |  85.9 |  8.89
Modify  | 13.914     | 14.139     | 14.658     |   8.0 |  96.8 |  6.16
Other   |            | 4.054      |            |       |       |  1.77

Nlocal:    18708 ave 18879 max 18567 min
Histogram: 1 0 0 0 2 0 0 0 0 1
Nghost:    25742.5 ave 31665 max 20629 min
Histogram: 2 0 0 0 0 0 0 0 1 1
Neighs:    522806 ave 590381 max 379803 min
Histogram: 1 0 0 0 0 0 0 0 2 1

Total # of neighbors = 2091224
Ave neighs/atom = 27.9456
Ave special neighs/atom = 0
Neighbor list builds = 620
Dangerous builds = 0
Total wall time: 0:03:51
