LAMMPS (24 Dec 2020)
OMP_NUM_THREADS environment is not set. Defaulting to 1 thread. (src/comm.cpp:94)
  using 1 OpenMP thread(s) per MPI task
# Simple rigid body system
# needed variables:

#variable	startTemp equal 0.5
#variable 	temp 	  equal 0.8

units		lj
atom_style	full
dimension 	3
boundary	p p f
pair_style	lj/smooth/linear 2.5

variable 	sigma		equal 1.0
variable 	epsilon 	equal 1.0

region		box block 0 80 0 80 0 160
create_box 	3 box
Created orthogonal box = (0.0000000 0.0000000 0.0000000) to (80.000000 80.000000 160.00000)
  6 by 4 by 8 MPI processor grid



lattice 	sc 0.66
Lattice spacing in x,y,z = 1.1485556 1.1485556 1.1485556
region		fluid block EDGE EDGE EDGE EDGE 2 100 units box
create_atoms 	1 region fluid
Created 421400 atoms
  create_atoms CPU = 0.149 seconds

lattice 	sc 0.045
Lattice spacing in x,y,z = 2.8114422 2.8114422 2.8114422
region		gas block EDGE EDGE EDGE EDGE 101 158 units box
create_atoms    1 region gas
Created 17661 atoms
  create_atoms CPU = 0.005 seconds

group		solvent type 1
439061 atoms in group solvent

mass		1 1.0
mass		2 1.0
mass		3 1.0



neighbor 	0.4 bin

pair_coeff	1 1 1.0 1.0
pair_coeff	2 2 0.0 0.0
pair_coeff	3 3 0.0 0.0
pair_coeff	2 3 0.0 0.0
pair_coeff	1 2*3 0.0 0.0

pair_modify 	shift yes

delete_atoms	overlap 0.5 solvent solvent
System init for delete_atoms ...
Neighbor list info ...
  update every 1 steps, delay 10 steps, check yes
  max neighbors/atom: 2000, page size: 100000
  master list distance cutoff = 2.9
  ghost atom cutoff = 2.9
  binsize = 1.45, bins = 56 56 111
  2 neighbor lists, perpetual/occasional/extra = 1 1 0
  (1) command delete_atoms, occasional
      attributes: full, newton on
      pair build: full/bin
      stencil: full/bin/3d
      bin: standard
  (2) pair lj/smooth/linear, perpetual
      attributes: half, newton on
      pair build: half/bin/newton
      stencil: half/bin/3d/newton
      bin: standard
WARNING: Ignoring 'compress yes' for molecular system (src/delete_atoms.cpp:125)
Deleted 0 atoms, new total = 439061

velocity 	solvent create ${startTemp} 563435 loop geom
velocity 	solvent create .6 563435 loop geom

balance 	1.05 shift z 10 1.05
Balancing ...
Neighbor list info ...
  update every 1 steps, delay 10 steps, check yes
  max neighbors/atom: 2000, page size: 100000
  master list distance cutoff = 2.9
  ghost atom cutoff = 2.9
  binsize = 1.45, bins = 56 56 111
  1 neighbor lists, perpetual/occasional/extra = 1 0 0
  (1) pair lj/smooth/linear, perpetual
      attributes: half, newton on
      pair build: half/bin/newton
      stencil: half/bin/3d/newton
      bin: standard
 rebalancing time: 0.006 seconds
  iteration count = 5
  initial/final maximal load/proc = 3888.0000 2808.0000
  initial/final imbalance factor  = 1.7002102 1.2279296
  x cuts: 0.0000000 0.16666667 0.33333333 0.50000000 0.66666667 0.83333333 1.0000000
  y cuts: 0.0000000 0.25000000 0.50000000 0.75000000 1.0000000
  z cuts: 0.0000000 0.089843750 0.17578125 0.25390625 0.33593750 0.41406250 0.50390625 0.58203125 1.0000000


####################### WALLS ###########################


variable       epsilonWall equal 2*${epsilon}
variable       epsilonWall equal 2*1

variable       cutoffTop   equal   0.7147*${sigma}
variable       cutoffTop   equal   0.7147*1

variable       cutoffLow   equal   3*${sigma}
variable       cutoffLow   equal   3*1


fix            topWall all wall/lj93 zhi EDGE                ${epsilonWall} ${sigma} ${cutoffTop} units box
fix            topWall all wall/lj93 zhi EDGE                2 ${sigma} ${cutoffTop} units box
fix            topWall all wall/lj93 zhi EDGE                2 1 ${cutoffTop} units box
fix            topWall all wall/lj93 zhi EDGE                2 1 0.7147 units box

fix            lowWall all wall/lj93 zlo EDGE                ${epsilonWall} ${sigma} ${cutoffLow} units box
fix            lowWall all wall/lj93 zlo EDGE                2 ${sigma} ${cutoffLow} units box
fix            lowWall all wall/lj93 zlo EDGE                2 1 ${cutoffLow} units box
fix            lowWall all wall/lj93 zlo EDGE                2 1 3 units box


###################### COMPUTES ##########################

compute        bin1 solvent chunk/atom bin/1d z upper 1.0


######################	FIXES ############################


fix 		peclet solvent ave/chunk 1000 1 1000 bin1 density/number norm 		 none ave one file density.profile

fix 		 temp solvent ave/chunk 1000 1 1000 bin1 temp norm 		 none ave one file temp.profile

fix 		2 solvent nve


## Thermostat


region		regthermo block EDGE EDGE EDGE EDGE 0 20 units box

group 		thermo dynamic solvent region regthermo every 1000
dynamic group thermo defined

fix 		3 thermo langevin ${startTemp} ${temp} 10 156453
fix 		3 thermo langevin .6 ${temp} 10 156453
fix 		3 thermo langevin .6 .6 10 156453



#### Load balancing


fix 		bal all balance 1000 1.05 shift z 10 1.05


############### Diagnostics and computes ###################
#compute 	com cube	  rigid/local	1 mol x y z
#compute 	quat cube	  rigid/local	1 mol quatw quati quatj quatk

thermo 		1000
thermo_style 	custom step temp epair evdwl etotal press pe ke atoms

dump		1 all custom 100000 dump.lammpstrj id mol type x y z
dump 		2 all image 10000 image.*.png type type
dump 		3 all movie 1000 movie.avi type type

#dump 		com cube local 1000 dump.*.xyz c_com[*]
#dump		quat cube      local 1000 dump.*.quat c_quat[*]


restart 	1000000 restart.dat
timestep 	0.005
timer 		full
New timer settings: style=full  mode=nosync  timeout=off

run		5000000
Per MPI rank memory allocation (min/avg/max) = 9.982 | 10.06 | 10.45 Mbytes
Step Temp E_pair E_vdwl TotEng Press PotEng KinEng Atoms 
       0          0.6  -0.77633128  -0.77633128   0.12366667    4.0448336  -0.77633128   0.89999795   439061 
    1000    1.6991888   -2.9242788   -2.9242788  -0.37550139    1.8736164   -2.9242788    2.5487774   439061 
    2000    1.5856644   -2.9447066   -2.9447066  -0.56621533    1.0355375   -2.9447066    2.3784913   439061 
    3000    1.4092982   -2.8527127   -2.8527127  -0.73877025   0.69277955   -2.8527127    2.1139424   439061 
    4000    1.3203129   -2.8501555   -2.8501555  -0.86969063   0.55248782   -2.8501555    1.9804649   439061 
    5000    1.2656581   -2.8451431   -2.8451431  -0.94666031   0.43656165   -2.8451431    1.8984828   439061 
    6000     1.222918   -2.8199294   -2.8199294  -0.98555656   0.32259532   -2.8199294    1.8343728   439061 
    7000    1.1974914   -2.8049312   -2.8049312   -1.0086983    0.2918634   -2.8049312    1.7962329   439061 
    8000    1.1875147   -2.8038617   -2.8038617   -1.0225937     0.314089   -2.8038617     1.781268   439061 
    9000    1.1851579   -2.8138686   -2.8138686   -1.0361358   0.35504027   -2.8138686    1.7777328   439061 
   10000    1.1891888    -2.833852    -2.833852   -1.0500729   0.38065905    -2.833852    1.7837792   439061 
   11000    1.1941825   -2.8547281   -2.8547281   -1.0634584   0.40724781   -2.8547281    1.7912697   439061 
   12000    1.1931105   -2.8656745   -2.8656745   -1.0760128   0.41299615   -2.8656745    1.7896616   439061 
   13000    1.1871088   -2.8686074   -2.8686074   -1.0879483   0.40393174   -2.8686074    1.7806591   439061 
   14000    1.1729355    -2.857228    -2.857228   -1.0978288   0.38385525    -2.857228    1.7593992   439061 
   15000    1.1546995   -2.8375482   -2.8375482   -1.1055029   0.35141821   -2.8375482    1.7320453   439061 
   16000    1.1319567    -2.811655    -2.811655   -1.1137239   0.32199531    -2.811655    1.6979311   439061 
   17000    1.1143764   -2.7922778   -2.7922778    -1.120717   0.29266144   -2.7922778    1.6715608   439061 
   18000    1.0973569   -2.7727978   -2.7727978   -1.1267662   0.28261284   -2.7727978    1.6460317   439061 
   19000    1.0854898   -2.7669625   -2.7669625   -1.1387315   0.29974869   -2.7669625     1.628231   439061 
   20000    1.0746201   -2.7716748   -2.7716748   -1.1597483   0.33134353   -2.7716748    1.6119265   439061 
   21000     1.060276   -2.7772915   -2.7772915   -1.1868811   0.33362841   -2.7772915    1.5904103   439061 
   22000    1.0429399   -2.7770101   -2.7770101   -1.2126038   0.30523466   -2.7770101    1.5644063   439061 
   23000    1.0315497   -2.7788185   -2.7788185   -1.2314975   0.28782006   -2.7788185    1.5473211   439061 
   24000    1.0230148   -2.7845623   -2.7845623   -1.2500436    0.2782756   -2.7845623    1.5345187   439061 
   25000    1.0161612   -2.7921558   -2.7921558   -1.2679175    0.2849513   -2.7921558    1.5242383   439061 
   26000    1.0097452   -2.8006159   -2.8006159   -1.2860016   0.28386333   -2.8006159    1.5146143   439061 
   27000     1.003816    -2.809106    -2.809106   -1.3033854   0.28193311    -2.809106    1.5057206   439061 
   28000   0.99817504   -2.8158837   -2.8158837   -1.3186246   0.27194389   -2.8158837    1.4972591   439061 
   29000   0.99200488   -2.8197338   -2.8197338   -1.3317299   0.26786796   -2.8197338    1.4880039   439061 
   30000   0.98420122   -2.8213942   -2.8213942   -1.3450957   0.25382765   -2.8213942    1.4762985   439061 
   31000   0.97596739   -2.8219524   -2.8219524   -1.3580047   0.24084081   -2.8219524    1.4639478   439061 
   32000   0.96789914   -2.8214829   -2.8214829   -1.3696375   0.22838304   -2.8214829    1.4518454   439061 
   33000   0.96149013    -2.822503    -2.822503   -1.3802711   0.21470379    -2.822503    1.4422319   439061 
   34000   0.95171039   -2.8183249   -2.8183249   -1.3907626   0.20365204   -2.8183249    1.4275623   439061 
   35000   0.94307872   -2.8152117   -2.8152117   -1.4005968   0.19443857   -2.8152117    1.4146149   439061 
   36000   0.93426936   -2.8103869   -2.8103869   -1.4089861   0.18298187   -2.8103869    1.4014008   439061 
   37000   0.92711148   -2.8075304   -2.8075304   -1.4168663   0.16945656   -2.8075304     1.390664   439061 
   38000   0.91903121   -2.8035068   -2.8035068   -1.4249631   0.15481571   -2.8035068    1.3785437   439061 
   39000   0.91407949   -2.8033105   -2.8033105   -1.4321944    0.1491745   -2.8033105    1.3711161   439061 
   40000   0.91016792   -2.8042185   -2.8042185   -1.4389697   0.14373903   -2.8042185    1.3652488   439061 
   41000   0.90547864   -2.8048726   -2.8048726   -1.4466577   0.14564351   -2.8048726    1.3582149   439061 
   42000   0.90468763   -2.8097528   -2.8097528   -1.4527245   0.14100044   -2.8097528    1.3570284   439061 
   43000   0.90359117   -2.8132584   -2.8132584   -1.4578747   0.14137964   -2.8132584    1.3553837   439061 
   44000   0.90086458    -2.816003    -2.816003   -1.4647092   0.13216355    -2.816003    1.3512938   439061 
   45000   0.89932854   -2.8192301   -2.8192301   -1.4702404   0.13312178   -2.8192301    1.3489897   439061 
   46000   0.89657537   -2.8222293   -2.8222293   -1.4773693   0.12955634   -2.8222293      1.34486   439061 
   47000   0.89523957   -2.8265862   -2.8265862   -1.4837299   0.12858521   -2.8265862    1.3428563   439061 
   48000   0.89390647   -2.8301222   -2.8301222   -1.4892655   0.12817181   -2.8301222    1.3408566   439061 
   49000   0.89182963   -2.8323513   -2.8323513   -1.4946099   0.13269548   -2.8323513    1.3377414   439061 
   50000   0.89102748   -2.8357857   -2.8357857   -1.4992475   0.12970173   -2.8357857    1.3365382   439061 
   51000   0.88924251   -2.8386341   -2.8386341   -1.5047734   0.12496465   -2.8386341    1.3338607   439061 
   52000   0.88831763   -2.8417021   -2.8417021   -1.5092287   0.12136147   -2.8417021    1.3324734   439061 
   53000   0.88557158   -2.8424747   -2.8424747   -1.5141203   0.12100537   -2.8424747    1.3283544   439061 
   54000   0.88267958   -2.8428205   -2.8428205   -1.5188041   0.11233429   -2.8428205    1.3240164   439061 
   55000   0.87941631   -2.8440874   -2.8440874   -1.5249659   0.10933006   -2.8440874    1.3191215   439061 
   56000   0.87589076   -2.8444421   -2.8444421   -1.5306089    0.1137594   -2.8444421    1.3138332   439061 
   57000   0.87615658   -2.8511169   -2.8511169   -1.5368851   0.11088112   -2.8511169    1.3142319   439061 
   58000   0.87407499   -2.8539581   -2.8539581   -1.5428486   0.11580987   -2.8539581    1.3111095   439061 
   59000   0.87299257   -2.8597823   -2.8597823   -1.5502965   0.12397437   -2.8597823    1.3094859   439061 
   60000   0.86996155   -2.8629472   -2.8629472   -1.5580079    0.1204198   -2.8629472    1.3049394   439061 
   61000   0.86925447   -2.8684042   -2.8684042   -1.5645254   0.11844119   -2.8684042    1.3038787   439061 
   62000   0.86526191   -2.8699233   -2.8699233   -1.5720334   0.12299807   -2.8699233    1.2978899   439061 
   63000   0.86358626   -2.8743506   -2.8743506   -1.5789741   0.12248576   -2.8743506    1.2953764   439061 
   64000   0.86322224   -2.8805248   -2.8805248   -1.5856944   0.12111057   -2.8805248    1.2948304   439061 
   65000   0.86149971   -2.8841428   -2.8841428   -1.5918962   0.11738676   -2.8841428    1.2922466   439061 
   66000   0.86016323   -2.8883031   -2.8883031   -1.5980612   0.11871557   -2.8883031    1.2902419   439061 
   67000   0.85888276    -2.892288    -2.892288   -1.6039668    0.1137501    -2.892288    1.2883212   439061 
   68000   0.85890913   -2.8964531   -2.8964531   -1.6080923    0.1173755   -2.8964531    1.2883608   439061 
   69000   0.85767637   -2.9018518   -2.9018518   -1.6153401   0.12052601   -2.9018518    1.2865116   439061 
   70000   0.85502215   -2.9047382   -2.9047382   -1.6222079   0.11894213   -2.9047382    1.2825303   439061 
   71000   0.85404787   -2.9088212   -2.9088212   -1.6277523   0.11448479   -2.9088212    1.2810689   439061 
   72000   0.85307702   -2.9122868   -2.9122868   -1.6326742   0.11383311   -2.9122868    1.2796126   439061 
   73000   0.85097996   -2.9149117   -2.9149117   -1.6384447   0.11146856   -2.9149117     1.276467   439061 
   74000   0.84987179   -2.9182082   -2.9182082   -1.6434034   0.10624242   -2.9182082    1.2748048   439061 
   75000   0.84932775   -2.9221557   -2.9221557   -1.6481669   0.10955257   -2.9221557    1.2739887   439061 
   76000   0.84739323   -2.9235091   -2.9235091   -1.6524222   0.10735053   -2.9235091    1.2710869   439061 
   77000   0.84638573   -2.9266464   -2.9266464   -1.6570707   0.10671193   -2.9266464    1.2695757   439061 
   78000   0.84591008    -2.930713    -2.930713   -1.6618508   0.10161249    -2.930713    1.2688622   439061 
   79000   0.84301768   -2.9314665   -2.9314665   -1.6669429   0.10366817   -2.9314665    1.2645236   439061 
   80000   0.83927198   -2.9307504   -2.9307504   -1.6718453  0.099790223   -2.9307504    1.2589051   439061 
   81000   0.83827029   -2.9340506   -2.9340506   -1.6766481  0.096079186   -2.9340506    1.2574026   439061 
   82000   0.83593547   -2.9350073   -2.9350073    -1.681107  0.092767784   -2.9350073    1.2539003   439061 
   83000    0.8354504   -2.9383428   -2.9383428     -1.68517  0.095286219   -2.9383428    1.2531728   439061 
   84000   0.83239594   -2.9389598   -2.9389598   -1.6903687  0.088560275   -2.9389598    1.2485911   439061 
   85000   0.83157217   -2.9411847   -2.9411847   -1.6938293  0.089080619   -2.9411847    1.2473554   439061 
   86000   0.83026471   -2.9447393   -2.9447393    -1.699345  0.086456237   -2.9447393    1.2453942   439061 
   87000   0.82893994   -2.9468987   -2.9468987   -1.7034917   0.08903195   -2.9468987    1.2434071   439061 
   88000   0.82813083   -2.9482611   -2.9482611   -1.7060677  0.091228549   -2.9482611    1.2421934   439061 
   89000    0.8262845   -2.9499168   -2.9499168   -1.7104929  0.081172295   -2.9499168    1.2394239   439061 
   90000    0.8257067   -2.9529399   -2.9529399   -1.7143827  0.081883443   -2.9529399    1.2385572   439061 
   91000   0.82434362    -2.955863    -2.955863   -1.7193504  0.080667734    -2.955863    1.2365126   439061 
   92000   0.82575612   -2.9619343   -2.9619343    -1.723303  0.076657088   -2.9619343    1.2386314   439061 
   93000   0.82224388   -2.9606802   -2.9606802   -1.7273172  0.078200037   -2.9606802     1.233363   439061 
   94000     0.822809   -2.9663121   -2.9663121   -1.7321014  0.078417433   -2.9663121    1.2342107   439061 
   95000   0.82193077   -2.9684106   -2.9684106   -1.7355172  0.081469025   -2.9684106    1.2328934   439061 
   96000   0.81905145   -2.9677304   -2.9677304    -1.739156  0.077451425   -2.9677304    1.2285744   439061 
   97000   0.81842923   -2.9712033   -2.9712033   -1.7435622  0.074361362   -2.9712033    1.2276411   439061 
   98000   0.81989591   -2.9768044   -2.9768044   -1.7469633  0.076195164   -2.9768044    1.2298411   439061 
   99000   0.82028532   -2.9813394   -2.9813394   -1.7509142  0.077698621   -2.9813394    1.2304252   439061 
  100000   0.81829993   -2.9824953   -2.9824953   -1.7550482  0.074411384   -2.9824953    1.2274471   439061 
  101000   0.81790481   -2.9868477   -2.9868477   -1.7599933   0.07516598   -2.9868477    1.2268544   439061 
  102000   0.81923906   -2.9916803   -2.9916803   -1.7628245  0.082135606   -2.9916803    1.2288558   439061 
  103000    0.8163678    -2.990985    -2.990985   -1.7664361   0.07793293    -2.990985    1.2245489   439061 
  104000   0.81702891   -2.9965499   -2.9965499   -1.7710093  0.079406348   -2.9965499    1.2255406   439061 
  105000   0.81659466   -2.9985602   -2.9985602    -1.773671  0.078050882   -2.9985602    1.2248892   439061 
  106000   0.81455345    -2.999248    -2.999248   -1.7774206  0.075612883    -2.999248    1.2218274   439061 
  107000   0.81387121   -3.0026139   -3.0026139   -1.7818099  0.074644155   -3.0026139     1.220804   439061 
  108000   0.81292262   -3.0039125   -3.0039125   -1.7845314  0.075319801   -3.0039125    1.2193811   439061 
  109000   0.81237245   -3.0062335   -3.0062335   -1.7876776  0.071124485   -3.0062335    1.2185559   439061 
  110000   0.81298681   -3.0106893   -3.0106893   -1.7912119  0.076512004   -3.0106893    1.2194774   439061 
  111000   0.81102663   -3.0121945   -3.0121945   -1.7956573  0.074613028   -3.0121945    1.2165372   439061 
  112000   0.81122973   -3.0167061   -3.0167061   -1.7998643  0.073629705   -3.0167061    1.2168418   439061 
  113000   0.81138685   -3.0217026   -3.0217026   -1.8046251  0.075976075   -3.0217026    1.2170775   439061 
  114000   0.81060268   -3.0235522   -3.0235522   -1.8076509  0.077553429   -3.0235522    1.2159013   439061 
  115000   0.81019744   -3.0268022   -3.0268022   -1.8115088  0.079940896   -3.0268022    1.2152934   439061 
  116000   0.80938011    -3.029504    -3.029504   -1.8154366  0.077690605    -3.029504    1.2140674   439061 
  117000   0.80724922    -3.029337    -3.029337   -1.8184659  0.075159705    -3.029337    1.2108711   439061 
  118000   0.80908917    -3.035671    -3.035671     -1.82204  0.076075392    -3.035671     1.213631   439061 
  119000   0.80917341     -3.03911     -3.03911   -1.8253527  0.077613359     -3.03911    1.2137574   439061 
  120000   0.80680062   -3.0401274   -3.0401274   -1.8299292   0.07492761   -3.0401274    1.2101982   439061 
  121000    0.8059699   -3.0426002   -3.0426002   -1.8336481  0.079379055   -3.0426002    1.2089521   439061 
  122000   0.80709743   -3.0483215   -3.0483215   -1.8376781  0.075101071   -3.0483215    1.2106434   439061 
  123000   0.80566728   -3.0495427   -3.0495427   -1.8410445  0.082097925   -3.0495427    1.2084982   439061 
  124000   0.80504582   -3.0521975   -3.0521975   -1.8446315  0.073429736   -3.0521975     1.207566   439061 
  125000   0.80553608   -3.0569017   -3.0569017   -1.8486004  0.076009648   -3.0569017    1.2083014   439061 
  126000   0.80572106   -3.0595711   -3.0595711   -1.8509923  0.081287911   -3.0595711    1.2085788   439061 
  127000   0.80548865   -3.0623837   -3.0623837   -1.8541535  0.074016937   -3.0623837    1.2082302   439061 
  128000   0.80346984   -3.0626035   -3.0626035   -1.8574015  0.075314864   -3.0626035     1.205202   439061 
  129000   0.80365262   -3.0660863   -3.0660863   -1.8606101   0.07581929   -3.0660863    1.2054762   439061 
  130000   0.80272725   -3.0673661   -3.0673661    -1.863278  0.074087291   -3.0673661    1.2040881   439061 
  131000   0.80109079   -3.0682321   -3.0682321   -1.8665986  0.076344529   -3.0682321    1.2016335   439061 
  132000   0.80033825    -3.071496    -3.071496   -1.8709913  0.076152838    -3.071496    1.2005046   439061 
  133000   0.80166628   -3.0776077   -3.0776077    -1.875111  0.071759613   -3.0776077    1.2024967   439061 
  134000   0.80002011   -3.0782957   -3.0782957   -1.8782683  0.071160407   -3.0782957    1.2000274   439061 
  135000   0.80095507   -3.0825218   -3.0825218   -1.8810919  0.066099118   -3.0825218    1.2014299   439061 
  136000   0.79993068    -3.084771    -3.084771   -1.8848777  0.071562451    -3.084771    1.1998933   439061 
  137000   0.79842368   -3.0863113   -3.0863113   -1.8886785  0.077831028   -3.0863113    1.1976328   439061 
  138000   0.79954598   -3.0908721   -3.0908721   -1.8915559  0.072786368   -3.0908721    1.1993162   439061 
  139000   0.79680115   -3.0911752   -3.0911752   -1.8959762  0.069522773   -3.0911752     1.195199   439061 
  140000   0.79720149   -3.0947588   -3.0947588   -1.8989593   0.06982119   -3.0947588    1.1957995   439061 
  141000   0.79661253   -3.0977569   -3.0977569   -1.9028408  0.068600145   -3.0977569    1.1949161   439061 
  142000   0.79440213   -3.0971428   -3.0971428   -1.9055423  0.068874252   -3.0971428    1.1916005   439061 
  143000   0.79630391   -3.1021092   -3.1021092    -1.907656  0.070212858   -3.1021092    1.1944531   439061 
  144000   0.79517956   -3.1032089   -3.1032089   -1.9104423  0.066793558   -3.1032089    1.1927666   439061 
  145000   0.79463097   -3.1046761   -3.1046761   -1.9127323  0.070716785   -3.1046761    1.1919437   439061 
  146000   0.79223056   -3.1047941   -3.1047941   -1.9164509  0.068941617   -3.1047941    1.1883431   439061 
  147000   0.79230187   -3.1078912   -3.1078912   -1.9194411  0.072642056   -3.1078912    1.1884501   439061 
  148000   0.79260934   -3.1116169   -3.1116169   -1.9227056  0.069546239   -3.1116169    1.1889113   439061 
  149000   0.79321752   -3.1157679   -3.1157679   -1.9259443  0.068940816   -3.1157679    1.1898236   439061 
  150000   0.79134306   -3.1156599   -3.1156599    -1.928648  0.071930915   -3.1156599    1.1870119   439061 
  151000   0.79240247   -3.1197829   -3.1197829   -1.9311819  0.065107565   -3.1197829     1.188601   439061 
  152000   0.79228529   -3.1229377   -3.1229377   -1.9345125  0.064752353   -3.1229377    1.1884252   439061 
  153000   0.79106269   -3.1241301   -3.1241301   -1.9375388  0.066769692   -3.1241301    1.1865913   439061 
  154000   0.78975718   -3.1252956   -3.1252956   -1.9406625  0.064157105   -3.1252956    1.1846331   439061 
  155000   0.78887215   -3.1264383   -3.1264383   -1.9431328  0.066467484   -3.1264383    1.1833055   439061 
  156000   0.78876725   -3.1291063   -3.1291063   -1.9459581  0.062994662   -3.1291063    1.1831482   439061 
  157000   0.78796944    -3.130804    -3.130804   -1.9488525  0.059371187    -3.130804    1.1819515   439061 
  158000   0.78814012    -3.133808    -3.133808   -1.9516005  0.066335126    -3.133808    1.1822075   439061 
  159000   0.78882192   -3.1369278   -3.1369278   -1.9536977  0.066280317   -3.1369278    1.1832302   439061 
  160000   0.78813379   -3.1402814   -3.1402814   -1.9580834  0.067173364   -3.1402814     1.182198   439061 
  161000   0.78803454   -3.1423966   -3.1423966   -1.9603475  0.066369286   -3.1423966    1.1820491   439061 
  162000   0.78726819   -3.1445999   -3.1445999   -1.9637003  0.071222713   -3.1445999    1.1808996   439061 
  163000   0.78803575   -3.1477674   -3.1477674   -1.9657165  0.065870183   -3.1477674    1.1820509   439061 
  164000   0.78806299   -3.1509491   -3.1509491   -1.9688573   0.06678552   -3.1509491    1.1820918   439061 
  165000   0.78635213   -3.1510264   -3.1510264   -1.9715009  0.064199481   -3.1510264    1.1795255   439061 
  166000   0.78627571   -3.1540074   -3.1540074   -1.9745965  0.064239366   -3.1540074    1.1794109   439061 
  167000   0.78635325   -3.1568868   -3.1568868   -1.9773596  0.063558949   -3.1568868    1.1795272   439061 
  168000   0.78547482    -3.158431    -3.158431   -1.9802215  0.061583554    -3.158431    1.1782095   439061 
  169000   0.78556617   -3.1614536   -3.1614536    -1.983107  0.063071505   -3.1614536    1.1783466   439061 
  170000   0.78509987   -3.1626766   -3.1626766   -1.9850295  0.063177621   -3.1626766    1.1776471   439061 
  171000   0.78472418   -3.1655661   -3.1655661   -1.9884825  0.071110647   -3.1655661    1.1770836   439061 
  172000   0.78570298   -3.1699108   -3.1699108   -1.9913591  0.069453747   -3.1699108    1.1785518   439061 
  173000   0.78388258     -3.16995     -3.16995   -1.9941288  0.073474434     -3.16995    1.1758212   439061 
  174000   0.78471371   -3.1735026   -3.1735026   -1.9964348  0.072191912   -3.1735026    1.1770679   439061 
  175000   0.78456287   -3.1765704   -3.1765704   -1.9997288  0.066392145   -3.1765704    1.1768416   439061 
  176000   0.78221125   -3.1759641   -3.1759641   -2.0026499   0.06225717   -3.1759641    1.1733142   439061 
  177000   0.78301484    -3.179405    -3.179405   -2.0048854  0.065545827    -3.179405    1.1745196   439061 
  178000   0.78271342   -3.1804518   -3.1804518   -2.0063844  0.064833594   -3.1804518    1.1740674   439061 
  179000   0.78190211   -3.1815269   -3.1815269   -2.0086764  0.067873641   -3.1815269    1.1728505   439061 
  180000   0.78142742    -3.183221    -3.183221   -2.0110826  0.066495552    -3.183221    1.1721385   439061 
  181000   0.78176481   -3.1866159   -3.1866159   -2.0139714  0.067480407   -3.1866159    1.1726445   439061 
  182000   0.78004892   -3.1873259   -3.1873259   -2.0172552  0.065134732   -3.1873259    1.1700707   439061 
  183000   0.78045112   -3.1907949   -3.1907949   -2.0201209  0.063360261   -3.1907949     1.170674   439061 
  184000   0.78198532   -3.1939048   -3.1939048   -2.0209295  0.067426497   -3.1939048    1.1729753   439061 
  185000   0.78078824   -3.1957445   -3.1957445   -2.0245648  0.062091617   -3.1957445    1.1711797   439061 
  186000   0.78008836   -3.1968915   -3.1968915   -2.0267616  0.062486105   -3.1968915    1.1701299   439061 
  187000   0.78030852   -3.1996736   -3.1996736   -2.0292134  0.061959865   -3.1996736    1.1704601   439061 
  188000   0.78086734   -3.2033453   -3.2033453   -2.0320469    0.0659708   -3.2033453    1.1712983   439061 
  189000   0.77983654   -3.2059027   -3.2059027   -2.0361506  0.063747109   -3.2059027    1.1697521   439061 
  190000   0.78014596    -3.209417    -3.209417   -2.0392007  0.066239778    -3.209417    1.1702163   439061 
  191000   0.77915476   -3.2096639   -3.2096639   -2.0409344  0.064577831   -3.2096639    1.1687295   439061 
  192000   0.77876408   -3.2129406   -3.2129406   -2.0447972  0.069302669   -3.2129406    1.1681435   439061 
  193000   0.77877092   -3.2156036   -3.2156036   -2.0474498  0.066683987   -3.2156036    1.1681537   439061 
  194000   0.77900379   -3.2180222   -3.2180222   -2.0495192  0.069196847   -3.2180222     1.168503   439061 
  195000   0.77824752   -3.2201484   -3.2201484   -2.0527798  0.063142006   -3.2201484    1.1673686   439061 
  196000   0.77704628   -3.2212674   -3.2212674   -2.0557006  0.064654447   -3.2212674    1.1655668   439061 
  197000   0.77552189   -3.2219788   -3.2219788   -2.0586986  0.066408019   -3.2219788    1.1632802   439061 
  198000   0.77562664   -3.2253105   -3.2253105   -2.0618732   0.05791149   -3.2253105    1.1634373   439061 
  199000   0.77760327    -3.230847    -3.230847   -2.0644447  0.057419661    -3.230847    1.1664022   439061 
  200000   0.77612752   -3.2304682   -3.2304682   -2.0662796  0.064563457   -3.2304682    1.1641886   439061 
  201000    0.7751007    -3.231362    -3.231362   -2.0687136  0.062331573    -3.231362    1.1626484   439061 
  202000   0.77586628   -3.2348535   -3.2348535   -2.0710568  0.060731148   -3.2348535    1.1637968   439061 
  203000   0.77502612   -3.2357927   -3.2357927   -2.0732562  0.064120321   -3.2357927    1.1625365   439061 
  204000   0.77447909   -3.2377252   -3.2377252   -2.0760092   0.06251619   -3.2377252     1.161716   439061 
  205000   0.77520405   -3.2404452   -3.2404452   -2.0776417  0.065735009   -3.2404452    1.1628034   439061 
  206000   0.77294766   -3.2397457   -3.2397457   -2.0803269  0.067856477   -3.2397457    1.1594188   439061 
  207000   0.77387946   -3.2436597   -3.2436597   -2.0828432  0.061861914   -3.2436597    1.1608165   439061 
  208000   0.77286417   -3.2439272   -3.2439272   -2.0846336  0.059312594   -3.2439272    1.1592936   439061 
  209000   0.77178504   -3.2456179   -3.2456179    -2.087943  0.058417844   -3.2456179    1.1576749   439061 
  210000   0.77260046   -3.2486816   -3.2486816   -2.0897835   0.05749792   -3.2486816    1.1588981   439061 
  211000   0.77195943   -3.2501313   -3.2501313   -2.0921948  0.062147587   -3.2501313    1.1579365   439061 
  212000   0.77230247   -3.2531198   -3.2531198   -2.0946688  0.063471753   -3.2531198    1.1584511   439061 
  213000   0.77315335    -3.256085    -3.256085   -2.0963576  0.068925833    -3.256085    1.1597274   439061 
  214000    0.7729332   -3.2569736   -3.2569736   -2.0975764   0.06480662   -3.2569736    1.1593972   439061 
  215000   0.77334198   -3.2597153   -3.2597153    -2.099705  0.059868824   -3.2597153    1.1600103   439061 
  216000   0.77111414   -3.2598302   -3.2598302   -2.1031616  0.062778466   -3.2598302    1.1566686   439061 
  217000   0.77193215   -3.2633871   -3.2633871   -2.1054915  0.057737024   -3.2633871    1.1578956   439061 
  218000   0.77183921   -3.2647296   -3.2647296   -2.1069735  0.063727458   -3.2647296    1.1577562   439061 
  219000   0.77055651   -3.2654619   -3.2654619   -2.1096298  0.060051034   -3.2654619    1.1558321   439061 
  220000   0.77009117   -3.2676477   -3.2676477   -2.1125136  0.059908877   -3.2676477    1.1551341   439061 
  221000   0.77055139   -3.2702425   -3.2702425   -2.1144181  0.060056952   -3.2702425    1.1558244   439061 
  222000   0.77024876    -3.271908    -3.271908   -2.1165375  0.062224676    -3.271908    1.1553705   439061 
  223000   0.76871497   -3.2716961   -3.2716961   -2.1186263  0.058472498   -3.2716961    1.1530698   439061 
  224000   0.76937413   -3.2742225   -3.2742225    -2.120164  0.063818875   -3.2742225    1.1540586   439061 
  225000   0.76888222   -3.2767656   -3.2767656   -2.1234449  0.064647305   -3.2767656    1.1533207   439061 
  226000   0.76963456   -3.2801799   -3.2801799   -2.1257307  0.059466254   -3.2801799    1.1544492   439061 
  227000   0.76775161   -3.2793349   -3.2793349   -2.1277101  0.061969641   -3.2793349    1.1516248   439061 
  228000   0.76836647   -3.2820561   -3.2820561    -2.129509  0.062006405   -3.2820561    1.1525471   439061 
  229000   0.77081792   -3.2881465   -3.2881465   -2.1319223  0.059700099   -3.2881465    1.1562242   439061 
  230000   0.76874251   -3.2877106   -3.2877106   -2.1345995  0.060219152   -3.2877106    1.1531111   439061 
  231000   0.76748804   -3.2883594   -3.2883594   -2.1371299  0.061842932   -3.2883594    1.1512294   439061 
  232000   0.76827362   -3.2912502   -3.2912502   -2.1388423  0.059871805   -3.2912502    1.1524078   439061 
  233000   0.76774113   -3.2924891   -3.2924891     -2.14088  0.059395178   -3.2924891    1.1516091   439061 
  234000   0.76820494    -3.295536    -3.295536   -2.1432313   0.06225055    -3.295536    1.1523048   439061 
  235000   0.76836351   -3.2988332   -3.2988332   -2.1462905  0.061615398   -3.2988332    1.1525426   439061 
  236000   0.76618889   -3.2982319   -3.2982319   -2.1489512  0.064717587   -3.2982319    1.1492807   439061 
  237000    0.7667377   -3.3019738   -3.3019738   -2.1518699  0.061303419   -3.3019738    1.1501039   439061 
  238000   0.76698445   -3.3053401   -3.3053401    -2.154866  0.059161732   -3.3053401    1.1504741   439061 
  239000   0.76688242   -3.3056746   -3.3056746   -2.1553536  0.065624567   -3.3056746     1.150321   439061 
  240000    0.7661256   -3.3066261   -3.3066261   -2.1574403  0.063579165   -3.3066261    1.1491858   439061 
  241000   0.76601252   -3.3087892   -3.3087892   -2.1597731  0.060488903   -3.3087892    1.1490162   439061 
  242000   0.76494324   -3.3091173   -3.3091173    -2.161705   0.06275076   -3.3091173    1.1474122   439061 
  243000   0.76585013   -3.3108896   -3.3108896    -2.162117  0.063000525   -3.3108896    1.1487726   439061 
  244000   0.76544326    -3.312185    -3.312185   -2.1640228  0.059007651    -3.312185    1.1481623   439061 
  245000   0.76435187   -3.3133669   -3.3133669   -2.1668417  0.061551248   -3.3133669    1.1465252   439061 
  246000   0.76499097   -3.3166176   -3.3166176   -2.1691338  0.056083034   -3.3166176    1.1474838   439061 
  247000   0.76324586   -3.3171483   -3.3171483   -2.1722822  0.054559207   -3.3171483    1.1448662   439061 
  248000   0.76300827   -3.3194975   -3.3194975   -2.1749877   0.06043978   -3.3194975    1.1445098   439061 
  249000   0.76408121   -3.3236985   -3.3236985   -2.1775793  0.061785626   -3.3236985    1.1461192   439061 
  250000   0.76324256   -3.3235534   -3.3235534   -2.1786922   0.06503076   -3.3235534    1.1448612   439061 
  251000   0.76328865    -3.326314    -3.326314   -2.1813836  0.060701083    -3.326314    1.1449304   439061 
  252000   0.76377908   -3.3298697   -3.3298697   -2.1842037  0.060458596   -3.3298697     1.145666   439061 
  253000   0.76373465   -3.3325362   -3.3325362   -2.1869368  0.063375999   -3.3325362    1.1455994   439061 
  254000    0.7631337   -3.3339533   -3.3339533   -2.1892554  0.059335817   -3.3339533    1.1446979   439061 
  255000   0.76211119   -3.3344112   -3.3344112    -2.191247  0.063726243   -3.3344112    1.1431642   439061 
  256000   0.76085379   -3.3358146   -3.3358146   -2.1945365   0.05706187   -3.3358146    1.1412781   439061 
  257000   0.76200418   -3.3388945   -3.3388945   -2.1958908   0.06271354   -3.3388945    1.1430037   439061 
  258000   0.76233234   -3.3409987   -3.3409987   -2.1975028  0.060566019   -3.3409987    1.1434959   439061 
  259000   0.76018987   -3.3389795   -3.3389795   -2.1986973  0.061612483   -3.3389795    1.1402822   439061 
  260000   0.76172535   -3.3438823   -3.3438823   -2.2012968  0.060298869   -3.3438823    1.1425854   439061 
  261000   0.75956777   -3.3432637   -3.3432637   -2.2039146  0.059248812   -3.3432637    1.1393491   439061 
  262000   0.75992012   -3.3462722   -3.3462722   -2.2063946  0.057094534   -3.3462722    1.1398776   439061 
  263000   0.75886203    -3.348378    -3.348378   -2.2100875  0.058762185    -3.348378    1.1382904   439061 
  264000   0.75860469   -3.3496943   -3.3496943   -2.2117898  0.063268357   -3.3496943    1.1379044   439061 
  265000   0.75851633   -3.3520962   -3.3520962   -2.2143243  0.062406115   -3.3520962    1.1377719   439061 
  266000   0.75941149   -3.3552082   -3.3552082   -2.2160935  0.060069271   -3.3552082    1.1391146   439061 
  267000   0.75922958   -3.3565356   -3.3565356   -2.2176939  0.061183917   -3.3565356    1.1388418   439061 
  268000   0.75810526   -3.3577575   -3.3577575   -2.2206022   0.05934762   -3.3577575    1.1371553   439061 
  269000   0.75754845   -3.3595239   -3.3595239   -2.2232038  0.057997836   -3.3595239    1.1363201   439061 
  270000   0.75662264   -3.3601081   -3.3601081   -2.2251767  0.056479486   -3.3601081    1.1349314   439061 
  271000   0.75636713   -3.3603817   -3.3603817   -2.2258336  0.058184942   -3.3603817    1.1345481   439061 
  272000   0.75648356   -3.3620536   -3.3620536   -2.2273309  0.059199427   -3.3620536    1.1347228   439061 
  273000   0.75717633   -3.3645844   -3.3645844   -2.2288225  0.053702211   -3.3645844    1.1357619   439061 
  274000   0.75704094   -3.3658818   -3.3658818    -2.230323  0.055400603   -3.3658818    1.1355588   439061 
  275000    0.7551442   -3.3652665   -3.3652665   -2.2325528  0.058628823   -3.3652665    1.1327137   439061 
  276000   0.75793688   -3.3703839   -3.3703839   -2.2334812  0.055656067   -3.3703839    1.1369027   439061 
  277000   0.75596611   -3.3708537   -3.3708537   -2.2369071  0.060141897   -3.3708537    1.1339466   439061 
  278000   0.75292447   -3.3690645   -3.3690645   -2.2396804  0.059348132   -3.3690645    1.1293841   439061 
  279000   0.75408542   -3.3721731   -3.3721731   -2.2410476  0.053970816   -3.3721731    1.1311256   439061 
  280000   0.75447803   -3.3750753   -3.3750753   -2.2433609    0.0569448   -3.3750753    1.1317145   439061 
  281000   0.75539716   -3.3791672   -3.3791672    -2.246074  0.054110589   -3.3791672    1.1330932   439061 
  282000   0.75569292   -3.3810804   -3.3810804   -2.2475436  0.057182777   -3.3810804    1.1335368   439061 
  283000   0.75592932    -3.383448    -3.383448   -2.2495566  0.055735029    -3.383448    1.1338914   439061 
  284000   0.75458005   -3.3842066   -3.3842066   -2.2523391  0.058705957   -3.3842066    1.1318675   439061 
  285000   0.75430952   -3.3843194   -3.3843194   -2.2528577  0.061327267   -3.3843194    1.1314617   439061 
  286000   0.75501876   -3.3878753   -3.3878753   -2.2553497  0.060165085   -3.3878753    1.1325256   439061 
  287000   0.75439466   -3.3900447   -3.3900447   -2.2584553  0.056447015   -3.3900447    1.1315894   439061 
  288000   0.75223449    -3.389201    -3.389201   -2.2608519  0.061548174    -3.389201    1.1283492   439061 
  289000   0.75158293   -3.3912328   -3.3912328   -2.2638609   0.05144444   -3.3912328    1.1273718   439061 
  290000   0.75193554   -3.3936294   -3.3936294   -2.2657287  0.049959459   -3.3936294    1.1279007   439061 
  291000   0.75224706   -3.3957184   -3.3957184   -2.2673503  0.055623484   -3.3957184     1.128368   439061 
  292000   0.75117454   -3.3953212   -3.3953212    -2.268562  0.057869974   -3.3953212    1.1267592   439061 
  293000   0.75199097   -3.3979169   -3.3979169    -2.269933  0.057482744   -3.3979169    1.1279839   439061 
  294000   0.75193225   -3.3999589   -3.3999589   -2.2720631  0.058797788   -3.3999589    1.1278958   439061 
  295000   0.75203513   -3.4023707   -3.4023707   -2.2743206  0.061958275   -3.4023707    1.1280501   439061 
  296000   0.75274919   -3.4054453   -3.4054453   -2.2763241  0.061330329   -3.4054453    1.1291212   439061 
  297000   0.75195913   -3.4053267   -3.4053267   -2.2773906  0.059260329   -3.4053267    1.1279361   439061 
  298000   0.75090778   -3.4050151   -3.4050151   -2.2786559  0.063619401   -3.4050151    1.1263591   439061 
  299000   0.75282801   -3.4095528   -3.4095528   -2.2803133  0.052028491   -3.4095528    1.1292394   439061 
  300000   0.75130879   -3.4088871   -3.4088871   -2.2819265  0.055919182   -3.4088871    1.1269606   439061 
  301000   0.74950538   -3.4080612   -3.4080612   -2.2838057  0.055195157   -3.4080612    1.1242555   439061 
  302000   0.75152743   -3.4133548   -3.4133548   -2.2860662  0.048085723   -3.4133548    1.1272886   439061 
  303000   0.74924351   -3.4114733   -3.4114733   -2.2876106  0.059758772   -3.4114733    1.1238627   439061 
  304000   0.75027879   -3.4147743   -3.4147743   -2.2893587  0.054023285   -3.4147743    1.1254156   439061 
  305000   0.74940805   -3.4166859   -3.4166859   -2.2925764  0.054688198   -3.4166859    1.1241095   439061 
  306000   0.74789854   -3.4165909   -3.4165909   -2.2947456  0.054623326   -3.4165909    1.1218453   439061 
  307000   0.74800507   -3.4192575   -3.4192575   -2.2972525  0.052308244   -3.4192575     1.122005   439061 
  308000   0.74713809   -3.4197963   -3.4197963   -2.2990917  0.052875266   -3.4197963    1.1207046   439061 
  309000   0.74719912   -3.4212001   -3.4212001    -2.300404  0.055877088   -3.4212001    1.1207961   439061 
  310000   0.74801765   -3.4253172   -3.4253172   -2.3032933  0.055345825   -3.4253172    1.1220239   439061 
  311000   0.74845475   -3.4288218   -3.4288218   -2.3061422  0.054643212   -3.4288218    1.1226796   439061 
  312000   0.74746852   -3.4281919   -3.4281919   -2.3069917   0.06356511   -3.4281919    1.1212002   439061 
  313000   0.74669188   -3.4303056   -3.4303056   -2.3102703  0.065455707   -3.4303056    1.1200353   439061 
  314000   0.74853334   -3.4346603   -3.4346603   -2.3118629  0.055024207   -3.4346603    1.1227975   439061 
  315000   0.74793433    -3.435278    -3.435278   -2.3133791  0.059021844    -3.435278    1.1218989   439061 
  316000   0.74691964   -3.4359412   -3.4359412   -2.3155643  0.062430244   -3.4359412    1.1203769   439061 
  317000   0.74683745   -3.4372982   -3.4372982   -2.3170446  0.057367788   -3.4372982    1.1202536   439061 
  318000   0.74463425   -3.4369502   -3.4369502   -2.3200014  0.057813789   -3.4369502    1.1169488   439061 
  319000   0.74539807   -3.4406923   -3.4406923   -2.3225978  0.052284027   -3.4406923    1.1180946   439061 
  320000   0.74573066   -3.4421005   -3.4421005   -2.3235071  0.052505145   -3.4421005    1.1185934   439061 
  321000   0.74343892   -3.4405097   -3.4405097   -2.3253539  0.052253447   -3.4405097    1.1151558   439061 
  322000   0.74425922   -3.4434595   -3.4434595   -2.3270732   0.05669452   -3.4434595    1.1163863   439061 
  323000   0.74480339   -3.4460864   -3.4460864   -2.3288838  0.051583302   -3.4460864    1.1172025   439061 
  324000   0.74482188   -3.4488045   -3.4488045   -2.3315743  0.052092017   -3.4488045    1.1172303   439061 
  325000   0.74393774   -3.4491889   -3.4491889   -2.3332849  0.057558852   -3.4491889    1.1159041   439061 
  326000   0.74510788   -3.4534614   -3.4534614   -2.3358022  0.058537488   -3.4534614    1.1176593   439061 
  327000   0.74452177   -3.4548286   -3.4548286   -2.3380485  0.058960169   -3.4548286    1.1167801   439061 
  328000   0.74409665   -3.4563835   -3.4563835    -2.340241   0.05680874   -3.4563835    1.1161424   439061 
  329000   0.74391668   -3.4586408   -3.4586408   -2.3427683  0.062356224   -3.4586408    1.1158725   439061 
  330000   0.74257689   -3.4586298   -3.4586298    -2.344767  0.057687095   -3.4586298    1.1138628   439061 
  331000   0.74225851   -3.4606221   -3.4606221   -2.3472368  0.055287032   -3.4606221    1.1133852   439061 
  332000   0.74119321   -3.4610446   -3.4610446   -2.3492573  0.054092205   -3.4610446    1.1117873   439061 
  333000   0.74127156   -3.4624713   -3.4624713   -2.3505665  0.056581107   -3.4624713    1.1119048   439061 
  334000   0.74197376   -3.4650309   -3.4650309   -2.3520728  0.055804306   -3.4650309    1.1129581   439061 
  335000   0.74221564   -3.4675312   -3.4675312   -2.3542102  0.050248866   -3.4675312    1.1133209   439061 
  336000   0.74144088   -3.4676823   -3.4676823   -2.3555235  0.052144133   -3.4676823    1.1121588   439061 
  337000   0.74045474   -3.4679997   -3.4679997   -2.3573201  0.051642125   -3.4679997    1.1106796   439061 
  338000   0.74097905   -3.4699922   -3.4699922   -2.3585262  0.055576217   -3.4699922    1.1114661   439061 
  339000   0.74235706   -3.4743853   -3.4743853   -2.3608523  0.052001259   -3.4743853    1.1135331   439061 
  340000   0.74091317    -3.474323    -3.474323   -2.3629558   0.05153302    -3.474323    1.1113672   439061 
  341000   0.73995745   -3.4748901   -3.4748901   -2.3649564  0.057273852   -3.4748901    1.1099336   439061 
  342000   0.73957148   -3.4766709   -3.4766709   -2.3673163  0.050973451   -3.4766709    1.1093547   439061 
  343000   0.73917065   -3.4787027   -3.4787027   -2.3699492  0.054277827   -3.4787027    1.1087534   439061 
  344000   0.73970548   -3.4826875   -3.4826875   -2.3731318  0.050352708   -3.4826875    1.1095557   439061 
  345000   0.74033173   -3.4834646   -3.4834646   -2.3729696  0.056881419   -3.4834646    1.1104951   439061 
  346000   0.74017887   -3.4847474   -3.4847474   -2.3744816  0.057712815   -3.4847474    1.1102658   439061 
  347000   0.73915483   -3.4851238   -3.4851238   -2.3763941  0.051353927   -3.4851238    1.1087297   439061 
  348000   0.73883702    -3.486158    -3.486158    -2.377905  0.057962824    -3.486158     1.108253   439061 
  349000   0.73994332   -3.4886293   -3.4886293   -2.3787168  0.056700837   -3.4886293    1.1099125   439061 
  350000   0.73828354   -3.4875179   -3.4875179   -2.3800951  0.056981022   -3.4875179    1.1074228   439061 
  351000   0.73802321   -3.4894472   -3.4894472   -2.3824149   0.05563901   -3.4894472    1.1070323   439061 
  352000   0.73797225   -3.4911621   -3.4911621   -2.3842063  0.057996492   -3.4911621    1.1069559   439061 
  353000   0.73715355   -3.4919904   -3.4919904   -2.3862626  0.052721214   -3.4919904    1.1057278   439061 
  354000   0.73696453   -3.4929317   -3.4929317   -2.3874874  0.053699654   -3.4929317    1.1054443   439061 
  355000   0.73669293   -3.4943589   -3.4943589    -2.389322  0.050099002   -3.4943589    1.1050369   439061 
  356000   0.73688039    -3.495994    -3.495994    -2.390676  0.048790237    -3.495994    1.1053181   439061 
  357000   0.73659816   -3.4964446   -3.4964446   -2.3915499  0.050492521   -3.4964446    1.1048947   439061 
  358000   0.73633752    -3.498033    -3.498033   -2.3935293  0.053954063    -3.498033    1.1045038   439061 
  359000   0.73677911   -3.4998056   -3.4998056   -2.3946395  0.052590482   -3.4998056    1.1051662   439061 
  360000   0.73651408   -3.5016831   -3.5016831   -2.3969145  0.050298359   -3.5016831    1.1047686   439061 
  361000   0.73612553   -3.5023253   -3.5023253   -2.3981395  0.056224644   -3.5023253    1.1041858   439061 
  362000   0.73648588   -3.5052272   -3.5052272   -2.4005009  0.050818262   -3.5052272    1.1047263   439061 
  363000   0.73541925   -3.5053138   -3.5053138   -2.4021875  0.055810797   -3.5053138    1.1031264   439061 
  364000   0.73597492   -3.5086154   -3.5086154   -2.4046556  0.057146632   -3.5086154    1.1039599   439061 
  365000   0.73519887    -3.509469    -3.509469   -2.4066732   0.05061924    -3.509469    1.1027958   439061 
  366000   0.73519517   -3.5105665   -3.5105665   -2.4077763  0.057855375   -3.5105665    1.1027902   439061 
  367000   0.73506372   -3.5114179   -3.5114179   -2.4088248  0.060798692   -3.5114179    1.1025931   439061 
  368000   0.73519578    -3.513859    -3.513859   -2.4110678   0.05499964    -3.513859    1.1027912   439061 
  369000    0.7357967   -3.5163297   -3.5163297   -2.4126372  0.055530168   -3.5163297    1.1036925   439061 
  370000   0.73476304    -3.516468    -3.516468   -2.4143259  0.055318633    -3.516468    1.1021421   439061 
  371000   0.73533007   -3.5194484   -3.5194484   -2.4164558   0.05275852   -3.5194484    1.1029926   439061 
  372000   0.73400637   -3.5192095   -3.5192095   -2.4182025  0.057777124   -3.5192095    1.1010071   439061 
  373000   0.73273439   -3.5195013   -3.5195013   -2.4204022  0.055575247   -3.5195013    1.0990991   439061 
  374000   0.73418186     -3.52194     -3.52194   -2.4206697  0.048959941     -3.52194    1.1012703   439061 
  375000   0.73392383    -3.522477    -3.522477   -2.4215937    0.0525418    -3.522477    1.1008832   439061 
  376000   0.73297158   -3.5230043   -3.5230043   -2.4235494   0.05394319   -3.5230043    1.0994549   439061 
  377000   0.73351789   -3.5245869   -3.5245869   -2.4243126  0.049185352   -3.5245869    1.1002743   439061 
  378000   0.73193843   -3.5253507   -3.5253507   -2.4274456  0.046710878   -3.5253507    1.0979051   439061 
  379000   0.73189563   -3.5271185   -3.5271185   -2.4292775  0.043177704   -3.5271185    1.0978409   439061 
  380000   0.73096139   -3.5277732   -3.5277732   -2.4313336  0.045407498   -3.5277732    1.0964396   439061 
  381000   0.73094065   -3.5301407   -3.5301407   -2.4337322  0.047045828   -3.5301407    1.0964085   439061 
  382000   0.73058208   -3.5313366   -3.5313366    -2.435466  0.053910672   -3.5313366    1.0958706   439061 
  383000   0.73045297    -3.533075    -3.533075   -2.4373981  0.052676729    -3.533075     1.095677   439061 
  384000   0.73096523   -3.5357856   -3.5357856   -2.4393403  0.051035403   -3.5357856    1.0964454   439061 
  385000   0.73134358   -3.5370519   -3.5370519    -2.440039  0.052867153   -3.5370519    1.0970129   439061 
  386000   0.73162726   -3.5396858   -3.5396858   -2.4422474  0.052997637   -3.5396858    1.0974384   439061 
  387000   0.73098056    -3.540776    -3.540776   -2.4443076   0.05106273    -3.540776    1.0964683   439061 
  388000   0.73023353   -3.5406527   -3.5406527   -2.4453049  0.056020972   -3.5406527    1.0953478   439061 
  389000   0.72996251   -3.5412431   -3.5412431   -2.4463018  0.054603448   -3.5412431    1.0949413   439061 
  390000   0.72965446   -3.5428861   -3.5428861   -2.4484069  0.051810339   -3.5428861    1.0944792   439061 
  391000   0.73104253   -3.5462163   -3.5462163    -2.449655  0.043217465   -3.5462163    1.0965613   439061 
  392000   0.72804348   -3.5444382   -3.5444382   -2.4523754  0.048460933   -3.5444382    1.0920627   439061 
  393000    0.7289272   -3.5473391   -3.5473391   -2.4539508  0.047215837   -3.5473391    1.0933883   439061 
  394000   0.72878724   -3.5477552   -3.5477552   -2.4545769  0.052127701   -3.5477552    1.0931784   439061 
  395000   0.73060534   -3.5520644   -3.5520644   -2.4561588  0.050291277   -3.5520644    1.0959055   439061 
  396000   0.72946025   -3.5525283   -3.5525283   -2.4583404  0.048678078   -3.5525283    1.0941879   439061 
  397000   0.72907418    -3.552509    -3.552509   -2.4589002  0.054809917    -3.552509    1.0936088   439061 
  398000   0.72894809   -3.5546691   -3.5546691   -2.4612494  0.053082133   -3.5546691    1.0934196   439061 
  399000   0.73103175   -3.5596282   -3.5596282   -2.4630831  0.052179176   -3.5596282    1.0965451   439061 
  400000   0.72847218   -3.5585247   -3.5585247   -2.4658189  0.055529708   -3.5585247    1.0927058   439061 
  401000   0.72891112   -3.5605325   -3.5605325   -2.4671683  0.049843244   -3.5605325    1.0933642   439061 
  402000   0.72806809   -3.5617478   -3.5617478   -2.4696482  0.050240798   -3.5617478    1.0920996   439061 
  403000   0.72634313   -3.5606506   -3.5606506   -2.4711384  0.049462541   -3.5606506    1.0895122   439061 
  404000   0.72695443   -3.5630657   -3.5630657   -2.4726365  0.054977154   -3.5630657    1.0904292   439061 
  405000   0.72751513   -3.5656215   -3.5656215   -2.4743513  0.049207439   -3.5656215    1.0912702   439061 
  406000   0.72697842   -3.5665703   -3.5665703   -2.4761052  0.049878976   -3.5665703    1.0904651   439061 
  407000   0.72706449   -3.5674524   -3.5674524   -2.4768581   0.05253191   -3.5674524    1.0905943   439061 
  408000    0.7266973   -3.5693283   -3.5693283   -2.4792849  0.048664812   -3.5693283    1.0900435   439061 
  409000   0.72533662   -3.5689632   -3.5689632   -2.4809607    0.0483487   -3.5689632    1.0880025   439061 
  410000   0.72479804   -3.5701763   -3.5701763   -2.4829817  0.049549187   -3.5701763    1.0871946   439061 
  411000   0.72483786    -3.571405    -3.571405   -2.4841506  0.048703443    -3.571405    1.0872543   439061 
  412000   0.72556972   -3.5730147   -3.5730147   -2.4846626  0.048950462   -3.5730147    1.0883521   439061 
  413000   0.72523568   -3.5738497   -3.5738497   -2.4859986  0.051029872   -3.5738497     1.087851   439061 
  414000   0.72633892   -3.5765706   -3.5765706   -2.4870647   0.04818442   -3.5765706    1.0895059   439061 
  415000   0.72513056   -3.5765831   -3.5765831   -2.4888897  0.048629701   -3.5765831    1.0876934   439061 
  416000   0.72488504   -3.5776161   -3.5776161    -2.490291   0.04906788   -3.5776161    1.0873251   439061 
  417000   0.72489809   -3.5789182   -3.5789182   -2.4915735  0.052152103   -3.5789182    1.0873447   439061 
  418000   0.72524044   -3.5810135   -3.5810135   -2.4931554  0.052726486   -3.5810135    1.0878582   439061 
  419000   0.72312036   -3.5792601   -3.5792601    -2.494582  0.050978351   -3.5792601    1.0846781   439061 
  420000   0.72448563   -3.5830042   -3.5830042   -2.4962782  0.049580745   -3.5830042     1.086726   439061 
  421000   0.72391507   -3.5841911   -3.5841911    -2.498321  0.044635095   -3.5841911    1.0858701   439061 
  422000   0.72294474   -3.5854035   -3.5854035   -2.5009888  0.049047074   -3.5854035    1.0844146   439061 
  423000     0.722266   -3.5858565   -3.5858565   -2.5024599  0.049113501   -3.5858565    1.0833965   439061 
  424000   0.72277304   -3.5882807   -3.5882807   -2.5041236  0.042894702   -3.5882807    1.0841571   439061 
  425000   0.72256984   -3.5899476   -3.5899476   -2.5060953  0.044734567   -3.5899476    1.0838523   439061 
  426000   0.72315911   -3.5913634   -3.5913634   -2.5066272  0.050802421   -3.5913634    1.0847362   439061 
  427000   0.72309155   -3.5928003   -3.5928003   -2.5081655  0.052067586   -3.5928003    1.0846348   439061 
  428000   0.72276173   -3.5940338   -3.5940338   -2.5098937  0.047790198   -3.5940338    1.0841401   439061 
  429000   0.72275997   -3.5946346   -3.5946346   -2.5104971  0.054387268   -3.5946346    1.0841375   439061 
  430000   0.72223516   -3.5958766   -3.5958766   -2.5125263  0.050556381   -3.5958766    1.0833503   439061 
  431000   0.72248402   -3.5980023   -3.5980023   -2.5142788  0.051849802   -3.5980023    1.0837236   439061 
  432000   0.72189568   -3.5985667   -3.5985667   -2.5157257  0.050442166   -3.5985667     1.082841   439061 
  433000   0.72160219   -3.5995845   -3.5995845   -2.5171836  0.049707439   -3.5995845    1.0824008   439061 
  434000   0.72150244   -3.6007067   -3.6007067   -2.5184555  0.049121833   -3.6007067    1.0822512   439061 
  435000   0.72108793   -3.6018619   -3.6018619   -2.5202325  0.046749763   -3.6018619    1.0816294   439061 
  436000   0.72148834   -3.6027517   -3.6027517   -2.5205217  0.048185018   -3.6027517      1.08223   439061 
  437000   0.72065808   -3.6029893   -3.6029893   -2.5220046  0.044399955   -3.6029893    1.0809847   439061 
  438000   0.72146269   -3.6050535   -3.6050535   -2.5228619  0.048807095   -3.6050535    1.0821916   439061 
  439000   0.72044652   -3.6054258   -3.6054258   -2.5247585  0.045073494   -3.6054258    1.0806673   439061 
  440000   0.71935208   -3.6058346   -3.6058346   -2.5268089  0.048829146   -3.6058346    1.0790257   439061 
  441000   0.72023107   -3.6083788   -3.6083788   -2.5280346  0.047083175   -3.6083788    1.0803442   439061 
  442000   0.71955449   -3.6089597   -3.6089597   -2.5296304  0.046321142   -3.6089597    1.0793293   439061 
  443000   0.71935816   -3.6112065   -3.6112065   -2.5321718  0.044188846   -3.6112065    1.0790348   439061 
  444000    0.7200738   -3.6129153   -3.6129153   -2.5328071  0.046789383   -3.6129153    1.0801082   439061 
  445000   0.71927763   -3.6133826   -3.6133826   -2.5344686  0.047134942   -3.6133826     1.078914   439061 
  446000   0.71864297   -3.6147356   -3.6147356   -2.5367736  0.049927322   -3.6147356     1.077962   439061 
  447000   0.71914593   -3.6169334   -3.6169334    -2.538217   0.05054878   -3.6169334    1.0787164   439061 
  448000   0.71862074   -3.6170357   -3.6170357    -2.539107  0.052193023   -3.6170357    1.0779287   439061 
  449000   0.71897471   -3.6198192   -3.6198192   -2.5413596  0.045939231   -3.6198192    1.0784596   439061 
  450000   0.71807241   -3.6209882   -3.6209882   -2.5438821  0.049711102   -3.6209882    1.0771062   439061 
  451000   0.71782421   -3.6215447   -3.6215447   -2.5448108  0.039787712   -3.6215447    1.0767339   439061 
  452000   0.71694045    -3.622439    -3.622439   -2.5470308   0.04206132    -3.622439    1.0754082   439061 
  453000   0.71605632   -3.6221937   -3.6221937   -2.5481117  0.044762174   -3.6221937     1.074082   439061 
  454000   0.71726312    -3.625193    -3.625193   -2.5493008  0.040012204    -3.625193    1.0758922   439061 
  455000   0.71664115   -3.6249114   -3.6249114   -2.5499522  0.047334417   -3.6249114    1.0749593   439061 
  456000   0.71616901   -3.6259827   -3.6259827   -2.5517316   0.04542094   -3.6259827    1.0742511   439061 
  457000   0.71760634   -3.6302131   -3.6302131    -2.553806  0.047216083   -3.6302131    1.0764071   439061 
  458000   0.71594544   -3.6292135   -3.6292135   -2.5552978  0.044765173   -3.6292135    1.0739157   439061 
  459000    0.7159794   -3.6314795   -3.6314795   -2.5575129  0.048044207   -3.6314795    1.0739666   439061 
  460000   0.71678753   -3.6341536   -3.6341536   -2.5589747  0.046827205   -3.6341536    1.0751788   439061 
  461000   0.71530933   -3.6343384   -3.6343384   -2.5613768  0.048049646   -3.6343384    1.0729615   439061 
  462000   0.71628202   -3.6361481   -3.6361481   -2.5617275  0.045847243   -3.6361481    1.0744206   439061 
  463000   0.71605415   -3.6371742   -3.6371742   -2.5630954  0.047821722   -3.6371742    1.0740788   439061 
  464000   0.71485906   -3.6372313   -3.6372313   -2.5649452  0.049639317   -3.6372313    1.0722862   439061 
  465000   0.71549479    -3.638813    -3.638813   -2.5655732  0.047468391    -3.638813    1.0732397   439061 
  466000    0.7151847   -3.6395827   -3.6395827   -2.5668081  0.042413584   -3.6395827    1.0727746   439061 
  467000   0.71396657   -3.6400606   -3.6400606   -2.5691132  0.045369079   -3.6400606    1.0709474   439061 
  468000   0.71348186   -3.6404804   -3.6404804     -2.57026  0.041288196   -3.6404804    1.0702203   439061 
  469000   0.71277713   -3.6413423   -3.6413423   -2.5721791  0.046637074   -3.6413423    1.0691633   439061 
  470000   0.71301457   -3.6435335   -3.6435335   -2.5740141  0.042347102   -3.6435335    1.0695194   439061 
  471000   0.71397512   -3.6458548   -3.6458548   -2.5748946  0.041344029   -3.6458548    1.0709602   439061 
  472000   0.71311612   -3.6454822   -3.6454822   -2.5758105  0.045001415   -3.6454822    1.0696717   439061 
  473000   0.71443014   -3.6487451   -3.6487451   -2.5771024  0.046855808   -3.6487451    1.0716428   439061 
  474000   0.71337598   -3.6487796   -3.6487796   -2.5787181  0.046385532   -3.6487796    1.0700615   439061 
  475000   0.71321443   -3.6512189   -3.6512189   -2.5813997  0.045222637   -3.6512189    1.0698192   439061 
  476000   0.71272626   -3.6526368   -3.6526368   -2.5835498  0.047096994   -3.6526368     1.069087   439061 
  477000   0.71210784    -3.652544    -3.652544   -2.5843846  0.048911942    -3.652544    1.0681593   439061 
  478000    0.7126302   -3.6546247   -3.6546247   -2.5856818  0.050309026   -3.6546247    1.0689429   439061 
  479000   0.71141217   -3.6543799   -3.6543799    -2.587264  0.047815886   -3.6543799    1.0671158   439061 
  480000   0.71160325   -3.6566323   -3.6566323   -2.5892298  0.049629981   -3.6566323    1.0674024   439061 
  481000   0.71233021   -3.6583632   -3.6583632   -2.5898703    0.0459121   -3.6583632    1.0684929   439061 
  482000   0.71066985   -3.6572988   -3.6572988   -2.5912964  0.044999126   -3.6572988    1.0660023   439061 
  483000   0.71053854   -3.6582036   -3.6582036   -2.5923982  0.041430801   -3.6582036    1.0658054   439061 
  484000   0.71090174   -3.6610878   -3.6610878   -2.5947376  0.039278434   -3.6610878    1.0663502   439061 
  485000   0.71020594   -3.6615861   -3.6615861   -2.5962796  0.043509174   -3.6615861    1.0653065   439061 
  486000   0.71040757   -3.6624599   -3.6624599   -2.5968509   0.04115814   -3.6624599    1.0656089   439061 
  487000   0.70966748   -3.6626221   -3.6626221   -2.5981233  0.041552684   -3.6626221    1.0644988   439061 
  488000   0.71073297   -3.6644292   -3.6644292   -2.5983322  0.045655198   -3.6644292     1.066097   439061 
  489000   0.71156984   -3.6667564   -3.6667564   -2.5994041  0.044007186   -3.6667564    1.0673523   439061 
  490000   0.71036189   -3.6670531   -3.6670531   -2.6015127  0.044104256   -3.6670531    1.0655404   439061 
  491000   0.71056759   -3.6684843   -3.6684843   -2.6026354  0.046629415   -3.6684843     1.065849   439061 
  492000   0.70949714   -3.6686942   -3.6686942   -2.6044509   0.04266466   -3.6686942    1.0642433   439061 
  493000   0.70928428   -3.6708792   -3.6708792   -2.6069552  0.041744094   -3.6708792     1.063924   439061 
  494000     0.708876   -3.6703155   -3.6703155    -2.607004  0.041025187   -3.6703155    1.0633116   439061 
  495000   0.70903311   -3.6718935   -3.6718935   -2.6083462  0.044285088   -3.6718935    1.0635472   439061 
  496000    0.7092845   -3.6736789   -3.6736789   -2.6097545   0.04507342   -3.6736789    1.0639243   439061 
  497000   0.70905748   -3.6750296   -3.6750296   -2.6114458  0.040441444   -3.6750296    1.0635838   439061 
  498000   0.70825148   -3.6749141   -3.6749141   -2.6125393  0.043685753   -3.6749141    1.0623748   439061 
  499000    0.7084126   -3.6767278   -3.6767278   -2.6141113  0.042350312   -3.6767278    1.0626165   439061 
  500000   0.70797174   -3.6782807   -3.6782807   -2.6163255  0.041664593   -3.6782807    1.0619552   439061 
  501000   0.70699939    -3.679076    -3.679076   -2.6185793  0.041784007    -3.679076    1.0604967   439061 
  502000   0.70681354   -3.6802616   -3.6802616   -2.6200437  0.041259911   -3.6802616    1.0602179   439061 
  503000   0.70662895   -3.6814009   -3.6814009   -2.6214599  0.042940241   -3.6814009     1.059941   439061 
  504000   0.70645684   -3.6826984   -3.6826984   -2.6230156  0.042635675   -3.6826984    1.0596828   439061 
  505000   0.70679694   -3.6842899   -3.6842899   -2.6240969   0.04594404   -3.6842899     1.060193   439061 
  506000   0.70685778   -3.6846734   -3.6846734   -2.6243891  0.043897017   -3.6846734    1.0602843   439061 
  507000   0.70791405   -3.6881081   -3.6881081   -2.6262395  0.039989421   -3.6881081    1.0618687   439061 
  508000   0.70797515    -3.689479    -3.689479   -2.6275187  0.046148654    -3.689479    1.0619603   439061 
  509000    0.7066357   -3.6885665   -3.6885665   -2.6286154  0.044091877   -3.6885665    1.0599511   439061 
  510000   0.70706348    -3.690412    -3.690412   -2.6298192  0.044637112    -3.690412    1.0605928   439061 
  511000   0.70625477   -3.6911719   -3.6911719   -2.6317921  0.041427193   -3.6911719    1.0593797   439061 
  512000   0.70742491   -3.6938786   -3.6938786   -2.6327436  0.047027524   -3.6938786    1.0611349   439061 
  513000   0.70530959   -3.6935012   -3.6935012   -2.6355392   0.03881082   -3.6935012     1.057962   439061 
  514000   0.70526549   -3.6932722   -3.6932722   -2.6353764  0.040204428   -3.6932722    1.0578958   439061 
  515000   0.70396673   -3.6936109   -3.6936109   -2.6376632  0.039100999   -3.6936109    1.0559477   439061 
  516000   0.70440311   -3.6945978   -3.6945978   -2.6379956  0.037575763   -3.6945978    1.0566023   439061 
  517000   0.70489056    -3.696892    -3.696892   -2.6395586  0.037582613    -3.696892    1.0573334   439061 
  518000   0.70537681   -3.6980209   -3.6980209   -2.6399581  0.042333191   -3.6980209    1.0580628   439061 
  519000   0.70648194   -3.7010787   -3.7010787   -2.6413582  0.041360199   -3.7010787    1.0597205   439061 
  520000   0.70440237   -3.7004203   -3.7004203   -2.6438192  0.039717067   -3.7004203    1.0566012   439061 
  521000   0.70544135   -3.7027504   -3.7027504   -2.6445908  0.038496174   -3.7027504    1.0581596   439061 
  522000    0.7038798   -3.7011231   -3.7011231   -2.6453058  0.044478211   -3.7011231    1.0558173   439061 
  523000   0.70519725   -3.7044919   -3.7044919   -2.6466984  0.038691883   -3.7044919    1.0577935   439061 
  524000   0.70606309   -3.7075664   -3.7075664   -2.6484742  0.038968369   -3.7075664    1.0590922   439061 
  525000   0.70409469   -3.7068823   -3.7068823   -2.6507427  0.041910728   -3.7068823    1.0561396   439061 
  526000   0.70461794   -3.7086575   -3.7086575   -2.6517329  0.038806628   -3.7086575    1.0569245   439061 
  527000   0.70377444   -3.7098135   -3.7098135   -2.6541542   0.03574222   -3.7098135    1.0556593   439061 
  528000   0.70223901   -3.7086274   -3.7086274   -2.6552713  0.040282571   -3.7086274    1.0533561   439061 
  529000   0.70308235   -3.7105989   -3.7105989   -2.6559777  0.043954745   -3.7105989    1.0546211   439061 
  530000   0.70245312   -3.7111184   -3.7111184   -2.6574412  0.043164631   -3.7111184    1.0536773   439061 
  531000    0.7045098   -3.7148958   -3.7148958   -2.6581335  0.040905134   -3.7148958    1.0567623   439061 
  532000   0.70325365   -3.7142139   -3.7142139   -2.6593358  0.045484383   -3.7142139    1.0548781   439061 
  533000    0.7035728    -3.715928    -3.715928   -2.6605712  0.043656683    -3.715928    1.0553568   439061 
  534000   0.70226395   -3.7139747   -3.7139747   -2.6605812  0.047277472   -3.7139747    1.0533935   439061 
  535000   0.70311088   -3.7173853   -3.7173853   -2.6627214  0.043745053   -3.7173853    1.0546639   439061 
  536000   0.70317486   -3.7180902   -3.7180902   -2.6633303  0.040303636   -3.7180902    1.0547599   439061 
  537000   0.70325383   -3.7187367   -3.7187367   -2.6638584  0.038721985   -3.7187367    1.0548783   439061 
  538000   0.70328211   -3.7191594   -3.7191594   -2.6642386  0.035916228   -3.7191594    1.0549208   439061 
  539000   0.70118547   -3.7183611   -3.7183611   -2.6665853  0.038999528   -3.7183611    1.0517758   439061 
  540000   0.70046773   -3.7188847   -3.7188847   -2.6681855  0.035894217   -3.7188847    1.0506992   439061 
  541000   0.70068608   -3.7214934   -3.7214934   -2.6704667   0.03269442   -3.7214934    1.0510267   439061 
  542000   0.70108062   -3.7235545   -3.7235545    -2.671936  0.035769199   -3.7235545    1.0516185   439061 
  543000   0.70086161   -3.7245483   -3.7245483   -2.6732583  0.034886824   -3.7245483      1.05129   439061 
  544000   0.70036403   -3.7249408   -3.7249408   -2.6743971  0.042043159   -3.7249408    1.0505437   439061 
  545000    0.7012886    -3.727152    -3.727152   -2.6752215  0.043894876    -3.727152    1.0519305   439061 
  546000   0.70160926   -3.7292706   -3.7292706   -2.6768591  0.044965481   -3.7292706    1.0524115   439061 
  547000   0.70071016   -3.7299423   -3.7299423   -2.6788795  0.045131371   -3.7299423    1.0510628   439061 
  548000   0.70095115   -3.7314329   -3.7314329   -2.6800086  0.045370831   -3.7314329    1.0514243   439061 
  549000   0.70102623   -3.7338361   -3.7338361   -2.6822991  0.041399899   -3.7338361     1.051537   439061 
  550000   0.70173724   -3.7360714   -3.7360714   -2.6834679   0.03710317   -3.7360714    1.0526035   439061 
  551000    0.6989105   -3.7336253   -3.7336253    -2.685262  0.038025112   -3.7336253    1.0483634   439061 
  552000   0.69939673   -3.7357465   -3.7357465   -2.6866538  0.036728155   -3.7357465    1.0490927   439061 
  553000   0.69789431    -3.734415    -3.734415    -2.687576  0.034042277    -3.734415    1.0468391   439061 
  554000   0.69772293   -3.7351332   -3.7351332   -2.6885512  0.034029541   -3.7351332     1.046582   439061 
  555000   0.69838996   -3.7371449   -3.7371449   -2.6895624  0.030832294   -3.7371449    1.0475825   439061 
  556000   0.69846772    -3.737796    -3.737796   -2.6900968  0.036438293    -3.737796    1.0476992   439061 
  557000   0.69936102   -3.7393547   -3.7393547   -2.6903155  0.039860896   -3.7393547    1.0490391   439061 
  558000    0.6988243   -3.7394074   -3.7394074   -2.6911734  0.037783028   -3.7394074    1.0482341   439061 
  559000    0.6991811   -3.7423696   -3.7423696   -2.6936003  0.034028454   -3.7423696    1.0487693   439061 
  560000   0.69840406   -3.7420488   -3.7420488    -2.694445  0.037958296   -3.7420488    1.0476037   439061 
  561000   0.69878405   -3.7429428   -3.7429428   -2.6947691  0.038736551   -3.7429428    1.0481737   439061 
  562000   0.69853761   -3.7443675   -3.7443675   -2.6965635  0.040582964   -3.7443675     1.047804   439061 
  563000   0.69925037   -3.7466539   -3.7466539   -2.6977808  0.037186084   -3.7466539    1.0488732   439061 
  564000   0.69843391   -3.7471845   -3.7471845   -2.6995361  0.041589437   -3.7471845    1.0476485   439061 
  565000    0.6978904   -3.7472234   -3.7472234   -2.7003902  0.041610638   -3.7472234    1.0468332   439061 
  566000   0.69701368   -3.7474878   -3.7474878   -2.7019697  0.039082549   -3.7474878    1.0455181   439061 
  567000   0.69725658   -3.7483464   -3.7483464   -2.7024639  0.039191428   -3.7483464    1.0458825   439061 
  568000   0.69755198   -3.7509371   -3.7509371   -2.7046115  0.038536301   -3.7509371    1.0463256   439061 
  569000   0.69603458   -3.7512013   -3.7512013   -2.7071519  0.035887099   -3.7512013    1.0440495   439061 
  570000   0.69625063   -3.7517683   -3.7517683   -2.7073947  0.037418199   -3.7517683    1.0443736   439061 
  571000   0.69722112   -3.7550032   -3.7550032   -2.7091739  0.031248795   -3.7550032    1.0458293   439061 
  572000   0.69469071   -3.7525201   -3.7525201   -2.7104864  0.037794528   -3.7525201    1.0420337   439061 
  573000   0.69536904   -3.7543264   -3.7543264   -2.7112752   0.03307955   -3.7543264    1.0430512   439061 
  574000   0.69622347   -3.7565267   -3.7565267   -2.7121939  0.041257121   -3.7565267    1.0443328   439061 
  575000   0.69638136   -3.7581769   -3.7581769   -2.7136072  0.041426673   -3.7581769    1.0445697   439061 
  576000   0.69595841   -3.7592702   -3.7592702    -2.715335   0.03855536   -3.7592702    1.0439352   439061 
  577000   0.69528683   -3.7594063   -3.7594063   -2.7164784  0.040252869   -3.7594063    1.0429279   439061 
  578000   0.69510801   -3.7607142   -3.7607142   -2.7180546   0.03672714   -3.7607142    1.0426596   439061 
  579000   0.69532731   -3.7630353   -3.7630353   -2.7200467  0.037120843   -3.7630353    1.0429886   439061 
  580000   0.69506283   -3.7632112   -3.7632112   -2.7206194  0.039839092   -3.7632112    1.0425919   439061 
  581000   0.69565616   -3.7654156   -3.7654156   -2.7219337  0.037300425   -3.7654156    1.0434819   439061 
  582000   0.69446118   -3.7649699   -3.7649699   -2.7232805    0.0372993   -3.7649699    1.0416894   439061 
  583000   0.69468993   -3.7657233   -3.7657233   -2.7236908  0.038434821   -3.7657233    1.0420325   439061 
  584000   0.69320488   -3.7660761   -3.7660761   -2.7262711  0.038030188   -3.7660761    1.0398049   439061 
  585000   0.69381211   -3.7676611   -3.7676611   -2.7269453  0.037820812   -3.7676611    1.0407158   439061 
  586000   0.69357522   -3.7689183   -3.7689183   -2.7285578  0.035193029   -3.7689183    1.0403605   439061 
  587000   0.69372835   -3.7702977   -3.7702977   -2.7297075  0.034828709   -3.7702977    1.0405902   439061 
  588000   0.69371417   -3.7720385   -3.7720385   -2.7314696  0.031957469   -3.7720385    1.0405689   439061 
  589000   0.69380205   -3.7726159   -3.7726159   -2.7319152  0.032156749   -3.7726159    1.0407007   439061 
  590000   0.69334715   -3.7739779   -3.7739779   -2.7339596  0.034507647   -3.7739779    1.0400184   439061 
  591000   0.69243656   -3.7738911   -3.7738911   -2.7352387  0.035887147   -3.7738911    1.0386525   439061 
  592000   0.69276891   -3.7759016   -3.7759016   -2.7367506   0.03273747   -3.7759016     1.039151   439061 
  593000   0.69342387   -3.7784202   -3.7784202   -2.7382868  0.033008813   -3.7784202    1.0401334   439061 
  594000   0.69222553   -3.7773473   -3.7773473   -2.7390114  0.035489816   -3.7773473    1.0383359   439061 
  595000   0.69198697   -3.7786469   -3.7786469   -2.7406688  0.037786348   -3.7786469    1.0379781   439061 
  596000   0.69329039   -3.7807447   -3.7807447   -2.7408115  0.038169577   -3.7807447    1.0399332   439061 
  597000   0.69257957   -3.7815099   -3.7815099   -2.7426429  0.034807864   -3.7815099     1.038867   439061 
  598000   0.69253022   -3.7825315   -3.7825315   -2.7437385  0.038872953   -3.7825315     1.038793   439061 
  599000   0.69229262   -3.7833754   -3.7833754   -2.7449388   0.03821203   -3.7833754    1.0384366   439061 
  600000   0.69163658   -3.7843365   -3.7843365    -2.746884  0.035690303   -3.7843365    1.0374525   439061 
  601000   0.69111313   -3.7844413   -3.7844413   -2.7477739    0.0353411   -3.7844413    1.0366673   439061 
  602000   0.69078738   -3.7849298   -3.7849298   -2.7487511  0.030932238   -3.7849298    1.0361787   439061 
  603000   0.69097059   -3.7862014   -3.7862014   -2.7497478    0.0293346   -3.7862014    1.0364535   439061 
  604000   0.69209518   -3.7886033   -3.7886033   -2.7504629  0.033552892   -3.7886033    1.0381404   439061 
  605000   0.69107592   -3.7879364   -3.7879364   -2.7513249   0.03423883   -3.7879364    1.0366115   439061 
  606000    0.6923279   -3.7898719   -3.7898719   -2.7513824  0.036002076   -3.7898719    1.0384895   439061 
  607000   0.69182144   -3.7898276   -3.7898276   -2.7520979  0.037235317   -3.7898276    1.0377298   439061 
  608000   0.69194765   -3.7919824   -3.7919824   -2.7540633  0.032301546   -3.7919824    1.0379191   439061 
  609000   0.69105163   -3.7916297   -3.7916297   -2.7550546  0.035979003   -3.7916297    1.0365751   439061 
  610000   0.69113279   -3.7933581   -3.7933581   -2.7566612  0.036158186   -3.7933581    1.0366968   439061 
  611000   0.69029142   -3.7926589   -3.7926589   -2.7572242  0.035724423   -3.7926589    1.0354348   439061 
  612000   0.69060146   -3.7946699   -3.7946699   -2.7587701  0.037695004   -3.7946699    1.0358998   439061 
  613000   0.68969267   -3.7944329   -3.7944329   -2.7598963  0.031853202   -3.7944329    1.0345366   439061 
  614000   0.69076541   -3.7967665   -3.7967665   -2.7606208  0.030719815   -3.7967665    1.0361458   439061 
  615000   0.69046191   -3.7962359   -3.7962359   -2.7605454  0.033987034   -3.7962359    1.0356905   439061 
  616000   0.68980091   -3.7968905   -3.7968905   -2.7621914  0.032277799   -3.7968905     1.034699   439061 
  617000   0.69013065   -3.7979691   -3.7979691   -2.7627755  0.035982558   -3.7979691    1.0351936   439061 
  618000   0.68884519    -3.798343    -3.798343   -2.7650776  0.034596904    -3.798343    1.0332654   439061 
  619000   0.68804905   -3.7991729   -3.7991729   -2.7671017  0.033744108   -3.7991729    1.0320712   439061 
  620000   0.68949161   -3.8031278   -3.8031278   -2.7688927  0.030594678   -3.8031278    1.0342351   439061 
  621000   0.68899505   -3.8024841   -3.8024841   -2.7689939  0.031478447   -3.8024841    1.0334902   439061 
  622000   0.68973963    -3.804102    -3.804102   -2.7694949   0.03428691    -3.804102    1.0346071   439061 
  623000   0.69018221   -3.8068596   -3.8068596   -2.7715886  0.027585682   -3.8068596     1.035271   439061 
  624000     0.688716   -3.8071093   -3.8071093   -2.7740376  0.034154957   -3.8071093    1.0330716   439061 
  625000   0.68834686   -3.8078207   -3.8078207   -2.7753027   0.03673182   -3.8078207    1.0325179   439061 
  626000   0.68958957   -3.8107754   -3.8107754   -2.7763934  0.032628719   -3.8107754     1.034382   439061 
  627000   0.68801886   -3.8089346   -3.8089346   -2.7769087   0.03388942   -3.8089346    1.0320259   439061 
  628000   0.68978503   -3.8126281   -3.8126281   -2.7779529  0.030797507   -3.8126281    1.0346752   439061 
  629000   0.69024236   -3.8136933   -3.8136933   -2.7783322   0.03259694   -3.8136933    1.0353612   439061 
  630000   0.68940245   -3.8126712   -3.8126712   -2.7785699  0.034573105   -3.8126712    1.0341013   439061 
  631000   0.68818835   -3.8124627   -3.8124627   -2.7801826  0.033774849   -3.8124627    1.0322802   439061 
  632000   0.68823765   -3.8147979   -3.8147979   -2.7824438  0.028204136   -3.8147979    1.0323541   439061 
  633000   0.68710151   -3.8150516   -3.8150516   -2.7844017  0.027752266   -3.8150516    1.0306499   439061 
  634000   0.68766985   -3.8163493   -3.8163493   -2.7848469   0.02996188   -3.8163493    1.0315024   439061 
  635000   0.68749584   -3.8166125   -3.8166125   -2.7853711  0.027792193   -3.8166125    1.0312414   439061 
  636000   0.68651642    -3.818198    -3.818198   -2.7884258  0.029133151    -3.818198    1.0297723   439061 
  637000   0.68629341   -3.8184829   -3.8184829   -2.7890452   0.03218447   -3.8184829    1.0294378   439061 
  638000   0.68861066   -3.8204724   -3.8204724   -2.7875588  0.036253355   -3.8204724    1.0329136   439061 
  639000   0.68786548    -3.822119    -3.822119   -2.7903231  0.033204895    -3.822119    1.0317959   439061 
  640000   0.68773008   -3.8233675   -3.8233675   -2.7917748   0.03894799   -3.8233675    1.0315928   439061 
  641000   0.68768043   -3.8249823   -3.8249823    -2.793464  0.031750526   -3.8249823    1.0315183   439061 
  642000   0.68779734   -3.8264998   -3.8264998   -2.7948061  0.033007214   -3.8264998    1.0316937   439061 
  643000   0.68716472   -3.8270944   -3.8270944   -2.7963497  0.033753302   -3.8270944    1.0307447   439061 
  644000   0.68686972   -3.8266422   -3.8266422     -2.79634  0.036380314   -3.8266422    1.0303022   439061 
  645000   0.68783581    -3.828127    -3.828127   -2.7963756  0.031340026    -3.828127    1.0317514   439061 
  646000   0.68650338   -3.8281133   -3.8281133   -2.7983606  0.029995827   -3.8281133    1.0297527   439061 
  647000   0.68552641   -3.8279843   -3.8279843   -2.7996971   0.03063169   -3.8279843    1.0282873   439061 
  648000   0.68612596   -3.8290833   -3.8290833   -2.7998968  0.027887833   -3.8290833    1.0291866   439061 
  649000    0.6858519   -3.8283693   -3.8283693   -2.7995938  0.023450842   -3.8283693    1.0287755   439061 
  650000   0.68490238   -3.8280523   -3.8280523    -2.800701   0.02535014   -3.8280523    1.0273512   439061 
  651000   0.68443658   -3.8287371   -3.8287371   -2.8020846  0.028743165   -3.8287371    1.0266525   439061 
  652000   0.68447843   -3.8300896   -3.8300896   -2.8033743  0.030223861   -3.8300896    1.0267153   439061 
  653000   0.68561934   -3.8326657   -3.8326657    -2.804239  0.029691843   -3.8326657    1.0284267   439061 
  654000   0.68508894    -3.833908    -3.833908   -2.8062769   0.02845416    -3.833908    1.0276311   439061 
  655000   0.68433986   -3.8338423   -3.8338423   -2.8073349  0.031732555   -3.8338423    1.0265075   439061 
  656000   0.68618902   -3.8371054   -3.8371054   -2.8078242  0.035165553   -3.8371054    1.0292812   439061 
  657000   0.68565958   -3.8374515   -3.8374515   -2.8089645  0.038691903   -3.8374515     1.028487   439061 
  658000   0.68526171   -3.8380832   -3.8380832    -2.810193  0.038290879   -3.8380832    1.0278902   439061 
  659000   0.68576045   -3.8399402   -3.8399402   -2.8113019  0.036544351   -3.8399402    1.0286383   439061 
  660000   0.68499967   -3.8392073   -3.8392073   -2.8117102  0.033648198   -3.8392073    1.0274972   439061 
  661000   0.68447116   -3.8398859   -3.8398859   -2.8131815   0.03266948   -3.8398859    1.0267044   439061 
  662000   0.68399073   -3.8393578   -3.8393578    -2.813374  0.030361676   -3.8393578    1.0259838   439061 
  663000   0.68441162   -3.8403557   -3.8403557   -2.8137406  0.029530903   -3.8403557    1.0266151   439061 
  664000    0.6841829   -3.8404838   -3.8404838   -2.8142117  0.029326283   -3.8404838     1.026272   439061 
  665000   0.68323006    -3.839562    -3.839562   -2.8147192  0.029803411    -3.839562    1.0248428   439061 
  666000   0.68242118   -3.8393064   -3.8393064    -2.815677  0.027092339   -3.8393064    1.0236294   439061 
  667000   0.68421071   -3.8426865   -3.8426865   -2.8163727  0.023542015   -3.8426865    1.0263137   439061 
  668000   0.68360853   -3.8423865   -3.8423865   -2.8169761  0.023388363   -3.8423865    1.0254105   439061 
  669000    0.6832385   -3.8441379   -3.8441379   -2.8192825  0.021431921   -3.8441379    1.0248554   439061 
  670000   0.68293428   -3.8447776   -3.8447776   -2.8203785  0.027058842   -3.8447776    1.0243991   439061 
  671000   0.68275267    -3.845681    -3.845681   -2.8215543  0.025407551    -3.845681    1.0241267   439061 
  672000   0.68458626    -3.850206    -3.850206    -2.823329  0.026579735    -3.850206     1.026877   439061 
  673000   0.68434084   -3.8516177   -3.8516177   -2.8251088  0.027081075   -3.8516177    1.0265089   439061 
  674000   0.68493778   -3.8541246   -3.8541246   -2.8267203  0.028023802   -3.8541246    1.0274043   439061 
  675000   0.68340194   -3.8528879   -3.8528879   -2.8277874  0.031777688   -3.8528879    1.0251006   439061 
  676000   0.68356267   -3.8551357   -3.8551357    -2.829794  0.033005289   -3.8551357    1.0253417   439061 
  677000   0.68367666   -3.8571775   -3.8571775   -2.8316648  0.033244135   -3.8571775    1.0255127   439061 
  678000   0.68269013   -3.8561103   -3.8561103   -2.8320774  0.036091933   -3.8561103    1.0240329   439061 
  679000   0.68295037   -3.8571455   -3.8571455   -2.8327223  0.036381305   -3.8571455    1.0244232   439061 
  680000   0.68323949   -3.8588398   -3.8588398   -2.8339829  0.030580787   -3.8588398    1.0248569   439061 
  681000    0.6817594   -3.8584832   -3.8584832   -2.8358465  0.029306739   -3.8584832    1.0226368   439061 
  682000   0.68215873   -3.8590499   -3.8590499   -2.8358141  0.028261271   -3.8590499    1.0232358   439061 
  683000   0.68101407   -3.8576889   -3.8576889   -2.8361702  0.029504789   -3.8576889    1.0215188   439061 
  684000   0.68058526   -3.8585353   -3.8585353   -2.8376597  0.026031643   -3.8585353    1.0208756   439061 
  685000   0.67990637   -3.8584638   -3.8584638   -2.8386066   0.03172798   -3.8584638    1.0198572   439061 
  686000   0.68050838   -3.8595049   -3.8595049   -2.8387447  0.030660347   -3.8595049    1.0207602   439061 
  687000   0.68098733   -3.8623545   -3.8623545   -2.8408759  0.023726864   -3.8623545    1.0214787   439061 
  688000   0.68168839   -3.8644229   -3.8644229   -2.8418927  0.024083949   -3.8644229    1.0225303   439061 
  689000   0.68149331   -3.8645183   -3.8645183   -2.8422807  0.028849301   -3.8645183    1.0222376   439061 
  690000   0.68082761   -3.8643698   -3.8643698   -2.8431307  0.031552847   -3.8643698    1.0212391   439061 
  691000   0.68172612   -3.8676505   -3.8676505   -2.8450637   0.03002701   -3.8676505    1.0225869   439061 
  692000   0.68127392   -3.8676406   -3.8676406   -2.8457321  0.027631177   -3.8676406    1.0219086   439061 
  693000   0.68073367   -3.8680186   -3.8680186   -2.8469204  0.028903031   -3.8680186    1.0210982   439061 
  694000   0.68087966   -3.8697478   -3.8697478   -2.8484307   0.02736943   -3.8697478    1.0213172   439061 
  695000   0.67982798    -3.869106    -3.869106   -2.8493663  0.027456457    -3.869106    1.0197396   439061 
  696000   0.68052334   -3.8701051   -3.8701051   -2.8493225  0.031647785   -3.8701051    1.0207827   439061 
  697000     0.679452   -3.8702072   -3.8702072   -2.8510316  0.030801485   -3.8702072    1.0191757   439061 
  698000    0.6785293   -3.8709745   -3.8709745   -2.8531829  0.031106407   -3.8709745    1.0177916   439061 
  699000    0.6786477   -3.8705389   -3.8705389   -2.8525696  0.030650156   -3.8705389    1.0179692   439061 
  700000   0.67847521    -3.871422    -3.871422   -2.8537115  0.027530155    -3.871422    1.0177105   439061 
  701000   0.67919376   -3.8744837   -3.8744837   -2.8556954  0.025466283   -3.8744837    1.0187883   439061 
  702000   0.67884194   -3.8753507   -3.8753507   -2.8570902  0.023272301   -3.8753507    1.0182606   439061 
  703000   0.67750312   -3.8743467   -3.8743467   -2.8580943  0.029601497   -3.8743467    1.0162524   439061 
  704000   0.67789654   -3.8757248   -3.8757248   -2.8588823  0.027739148   -3.8757248    1.0168425   439061 
  705000   0.67835524   -3.8768847   -3.8768847   -2.8593541  0.027205578   -3.8768847    1.0175305   439061 
  706000     0.679108   -3.8789108   -3.8789108   -2.8602511  0.029200864   -3.8789108    1.0186597   439061 
  707000   0.67923801   -3.8796566   -3.8796566   -2.8608019  0.027924605   -3.8796566    1.0188547   439061 
  708000   0.67911809   -3.8814017   -3.8814017   -2.8627268  0.026535846   -3.8814017    1.0186748   439061 
  709000   0.67842706   -3.8815639   -3.8815639   -2.8639256  0.030717995   -3.8815639    1.0176383   439061 
  710000    0.6785185   -3.8830406   -3.8830406   -2.8652652  0.027350129   -3.8830406    1.0177754   439061 
  711000   0.67736469   -3.8819039   -3.8819039   -2.8658592  0.028919396   -3.8819039    1.0160447   439061 
  712000   0.67851793   -3.8847457   -3.8847457   -2.8669711  0.028515801   -3.8847457    1.0177746   439061 
  713000    0.6777644    -3.884946    -3.884946   -2.8683017   0.02964607    -3.884946    1.0166443   439061 
  714000   0.67764802   -3.8849865   -3.8849865   -2.8685168  0.029421786   -3.8849865    1.0164697   439061 
  715000   0.67736475   -3.8860203   -3.8860203   -2.8699755  0.029912205   -3.8860203    1.0160448   439061 
  716000   0.67691609   -3.8865551   -3.8865551   -2.8711833  0.026698975   -3.8865551    1.0153718   439061 
  717000   0.67777397   -3.8876753   -3.8876753   -2.8710166  0.027188891   -3.8876753    1.0166586   439061 
  718000   0.67766714   -3.8890291   -3.8890291   -2.8725308  0.026160295   -3.8890291    1.0164984   439061 
  719000   0.67739329    -3.890286    -3.890286   -2.8741983  0.029735512    -3.890286    1.0160876   439061 
  720000   0.67818561   -3.8930394   -3.8930394   -2.8757633    0.0226012   -3.8930394    1.0172761   439061 
  721000   0.67757918      -3.8929      -3.8929   -2.8765336  0.027418714      -3.8929    1.0163665   439061 
  722000   0.67715079   -3.8941572   -3.8941572   -2.8784334  0.027695978   -3.8941572    1.0157239   439061 
  723000   0.67563544   -3.8935103   -3.8935103   -2.8800594  0.025768483   -3.8935103    1.0134509   439061 
  724000   0.67556691   -3.8950217   -3.8950217   -2.8816736  0.023129494   -3.8950217    1.0133481   439061 
  725000    0.6759866   -3.8960503   -3.8960503   -2.8820727  0.024696696   -3.8960503    1.0139776   439061 
  726000   0.67618451   -3.8971532   -3.8971532   -2.8828787  0.024765585   -3.8971532    1.0142745   439061 
  727000   0.67646319   -3.8983871   -3.8983871   -2.8836946  0.027731905   -3.8983871    1.0146925   439061 
  728000   0.67644985   -3.8986402   -3.8986402   -2.8839678  0.031373801   -3.8986402    1.0146725   439061 
  729000   0.67700643   -3.9004043   -3.9004043    -2.884897   0.02763046   -3.9004043    1.0155073   439061 
  730000     0.675817   -3.8997685   -3.8997685   -2.8860453   0.03062735   -3.8997685    1.0137232   439061 
  731000   0.67593624   -3.9011598   -3.9011598   -2.8872577  0.026595012   -3.9011598    1.0139021   439061 
  732000   0.67669072   -3.9033334   -3.9033334   -2.8882996  0.026047846   -3.9033334    1.0150338   439061 
  733000   0.67655516    -3.903955    -3.903955   -2.8891246  0.029275792    -3.903955    1.0148304   439061 
  734000   0.67604285     -3.90386     -3.90386   -2.8897981  0.020117591     -3.90386     1.014062   439061 
  735000   0.67611534   -3.9040356   -3.9040356   -2.8898649  0.023283859   -3.9040356    1.0141707   439061 
  736000   0.67553754   -3.9041919   -3.9041919   -2.8908879  0.023510987   -3.9041919     1.013304   439061 
  737000   0.67466338   -3.9042188   -3.9042188   -2.8922261  0.024471483   -3.9042188    1.0119928   439061 
  738000   0.67396655   -3.9049679   -3.9049679   -2.8940204  0.020558709   -3.9049679    1.0109475   439061 
  739000   0.67502093   -3.9073743   -3.9073743   -2.8948452  0.022298897   -3.9073743    1.0125291   439061 
  740000   0.67474172   -3.9081718   -3.9081718   -2.8960615  0.023652939   -3.9081718    1.0121103   439061 
  741000    0.6746691   -3.9088619   -3.9088619   -2.8968606  0.023717929   -3.9088619    1.0120013   439061 
  742000   0.67518185   -3.9101315   -3.9101315    -2.897361  0.029179793   -3.9101315    1.0127705   439061 
  743000   0.67559161   -3.9114536   -3.9114536   -2.8980685  0.030856186   -3.9114536    1.0133851   439061 
  744000   0.67529019   -3.9120174   -3.9120174   -2.8990845    0.0318018   -3.9120174     1.012933   439061 
  745000   0.67565292   -3.9134138   -3.9134138   -2.8999367  0.030308712   -3.9134138    1.0134771   439061 
  746000   0.67338619   -3.9123875   -3.9123875   -2.9023105  0.029911235   -3.9123875     1.010077   439061 
  747000   0.67436646   -3.9153443   -3.9153443   -2.9037969  0.024306784   -3.9153443    1.0115474   439061 
  748000   0.67259845   -3.9118976   -3.9118976   -2.9030022  0.025213615   -3.9118976    1.0088954   439061 
  749000   0.67409461   -3.9147811   -3.9147811   -2.9036414  0.022775887   -3.9147811    1.0111396   439061 
  750000   0.67362949     -3.91594     -3.91594   -2.9054981  0.024299966     -3.91594    1.0104419   439061 
  751000   0.67308064   -3.9167968   -3.9167968   -2.9071781   0.02231976   -3.9167968    1.0096187   439061 
  752000   0.67222859   -3.9162673   -3.9162673   -2.9079268  0.027688016   -3.9162673    1.0083406   439061 
  753000   0.67405797   -3.9186117   -3.9186117   -2.9075271  0.021476805   -3.9186117    1.0110847   439061 
  754000    0.6726067   -3.9185603   -3.9185603   -2.9096526  0.024486247   -3.9185603    1.0089078   439061 
  755000   0.67319951    -3.920871    -3.920871    -2.911074  0.023936315    -3.920871     1.009797   439061 
  756000   0.67380086   -3.9231274   -3.9231274   -2.9124284  0.026268668   -3.9231274     1.010699   439061 
  757000   0.67285509    -3.922576    -3.922576   -2.9132957  0.028135636    -3.922576    1.0092803   439061 
  758000   0.67367801   -3.9242959   -3.9242959   -2.9137812  0.028903094   -3.9242959    1.0105147   439061 
  759000   0.67338298   -3.9248689   -3.9248689   -2.9147967  0.027383869   -3.9248689    1.0100722   439061 
  760000   0.67274281   -3.9249319   -3.9249319     -2.91582  0.030284364   -3.9249319    1.0091119   439061 
  761000   0.67271999   -3.9260005   -3.9260005   -2.9169228  0.027541815   -3.9260005    1.0090777   439061 
  762000   0.67232961    -3.926892    -3.926892   -2.9183999  0.025083306    -3.926892    1.0084921   439061 
  763000   0.67294515   -3.9280409   -3.9280409   -2.9186254  0.024017702   -3.9280409    1.0094154   439061 
  764000   0.67118455   -3.9260785   -3.9260785   -2.9193039   0.02477513   -3.9260785    1.0067745   439061 
  765000   0.67165552    -3.928751    -3.928751     -2.92127  0.020000095    -3.928751     1.007481   439061 
  766000   0.67226113   -3.9303596   -3.9303596   -2.9219702  0.021474949   -3.9303596    1.0083894   439061 
  767000   0.67037945   -3.9282786   -3.9282786   -2.9227117  0.023109535   -3.9282786    1.0055669   439061 
  768000   0.67026377   -3.9299178   -3.9299178   -2.9245244  0.019957344   -3.9299178    1.0053934   439061 
  769000   0.67031923   -3.9311129   -3.9311129   -2.9256363  0.023548131   -3.9311129    1.0054766   439061 
  770000   0.67079553   -3.9337015   -3.9337015   -2.9275105  0.023314227   -3.9337015     1.006191   439061 
  771000   0.67134883   -3.9344116   -3.9344116   -2.9273907  0.025555438   -3.9344116    1.0070209   439061 
  772000   0.67164159   -3.9356998   -3.9356998   -2.9282397   0.02835854   -3.9356998    1.0074601   439061 
  773000   0.67163648   -3.9372712   -3.9372712   -2.9298188  0.028965482   -3.9372712    1.0074524   439061 
  774000   0.67086221   -3.9374752   -3.9374752   -2.9311841  0.030178322   -3.9374752     1.006291   439061 
  775000    0.6719108   -3.9398611   -3.9398611   -2.9319972  0.026438455   -3.9398611    1.0078639   439061 
  776000   0.67186817   -3.9405175   -3.9405175   -2.9327176  0.023686463   -3.9405175       1.0078   439061 
  777000   0.67117057   -3.9409135   -3.9409135   -2.9341599   0.02892455   -3.9409135    1.0067536   439061 
  778000   0.66926261   -3.9396545   -3.9396545   -2.9357629  0.023966266   -3.9396545    1.0038916   439061 
  779000   0.66934924   -3.9398638   -3.9398638   -2.9358422  0.026377482   -3.9398638    1.0040216   439061 
  780000   0.66912524   -3.9402621   -3.9402621   -2.9365765  0.025746367   -3.9402621    1.0036856   439061 
  781000   0.66891413   -3.9404481   -3.9404481   -2.9370792  0.021999118   -3.9404481    1.0033689   439061 
  782000   0.66890398   -3.9411312   -3.9411312   -2.9377776  0.022682002   -3.9411312    1.0033537   439061 
  783000   0.66862564   -3.9427048   -3.9427048   -2.9397687  0.021909949   -3.9427048    1.0029362   439061 
  784000   0.66843906   -3.9433688   -3.9433688   -2.9407125  0.021925431   -3.9433688    1.0026563   439061 
  785000   0.66795812   -3.9435639   -3.9435639    -2.941629  0.021608794   -3.9435639    1.0019349   439061 
  786000   0.66869068   -3.9446885   -3.9446885   -2.9416548  0.024261569   -3.9446885    1.0030337   439061 
  787000   0.66812897   -3.9448151   -3.9448151   -2.9426239  0.027560076   -3.9448151    1.0021912   439061 
  788000   0.66952798   -3.9468079   -3.9468079   -2.9425182  0.025799934   -3.9468079    1.0042897   439061 
  789000   0.66948095   -3.9477166   -3.9477166   -2.9434975  0.027994698   -3.9477166    1.0042191   439061 
  790000   0.66896053   -3.9480539   -3.9480539   -2.9446154  0.027428853   -3.9480539    1.0034385   439061 
  791000   0.66862103   -3.9482935   -3.9482935   -2.9453643  0.023251453   -3.9482935    1.0029293   439061 
  792000   0.66844345   -3.9497183   -3.9497183   -2.9470554  0.022236851   -3.9497183    1.0026629   439061 
  793000   0.66824204   -3.9504348   -3.9504348    -2.948074  0.020984868   -3.9504348    1.0023608   439061 
  794000   0.66736212   -3.9496095   -3.9496095   -2.9485686   0.02261758   -3.9496095    1.0010409   439061 
  795000   0.66723452   -3.9506768   -3.9506768   -2.9498273  0.024032123   -3.9506768    1.0008495   439061 
  796000   0.66652151   -3.9508604   -3.9508604   -2.9510804   0.02417288   -3.9508604   0.99977998   439061 
  797000   0.66757706   -3.9533495   -3.9533495   -2.9519862  0.021584968   -3.9533495    1.0013633   439061 
  798000   0.66775005   -3.9540717   -3.9540717   -2.9524489  0.020600285   -3.9540717    1.0016228   439061 
  799000   0.66823034   -3.9570262   -3.9570262    -2.954683  0.020559996   -3.9570262    1.0023432   439061 
  800000   0.66829033   -3.9578363   -3.9578363   -2.9554031  0.019612249   -3.9578363    1.0024332   439061 
  801000   0.66740856   -3.9578934   -3.9578934   -2.9567828  0.022442762   -3.9578934    1.0011106   439061 
  802000   0.66787595   -3.9603215   -3.9603215   -2.9585099  0.020638742   -3.9603215    1.0018116   439061 
  803000   0.66869611   -3.9622665   -3.9622665   -2.9592246  0.025115584   -3.9622665    1.0030419   439061 
  804000   0.66809122   -3.9621745   -3.9621745   -2.9600399  0.022742148   -3.9621745    1.0021346   439061 
  805000   0.66854366   -3.9633508   -3.9633508   -2.9605375   0.02685386   -3.9633508    1.0028132   439061 
  806000   0.66841736   -3.9641697   -3.9641697    -2.961546  0.022098309   -3.9641697    1.0026238   439061 
  807000   0.66781157   -3.9645447   -3.9645447   -2.9628296  0.024065738   -3.9645447    1.0017151   439061 
  808000   0.66814513   -3.9642305   -3.9642305   -2.9620151  0.025643115   -3.9642305    1.0022154   439061 
  809000   0.66743472   -3.9644967   -3.9644967   -2.9633469  0.023301263   -3.9644967    1.0011498   439061 
  810000   0.66664844   -3.9645827   -3.9645827   -2.9646123  0.019176466   -3.9645827   0.99997038   439061 
  811000   0.66537819   -3.9631567   -3.9631567   -2.9650917  0.019148456   -3.9631567   0.99806502   439061 
  812000   0.66645726   -3.9647374   -3.9647374   -2.9650537   0.02202318   -3.9647374   0.99968362   439061 
  813000   0.66589371   -3.9646319   -3.9646319   -2.9657936  0.021440787   -3.9646319   0.99883829   439061 
  814000   0.66605671   -3.9656187   -3.9656187   -2.9665359  0.019433993   -3.9656187   0.99908278   439061 
  815000   0.66599826   -3.9668347   -3.9668347   -2.9678396  0.017596424   -3.9668347   0.99899512   439061 
  816000   0.66565979   -3.9670806   -3.9670806   -2.9685932  0.019147453   -3.9670806   0.99848741   439061 
  817000   0.66551134   -3.9678841   -3.9678841   -2.9696194  0.016932081   -3.9678841   0.99826474   439061 
  818000   0.66533759   -3.9682396   -3.9682396   -2.9702354  0.022371905   -3.9682396   0.99800412   439061 
  819000   0.66575329   -3.9701738   -3.9701738   -2.9715462   0.02490789   -3.9701738   0.99862767   439061 
  820000   0.66650608   -3.9713802   -3.9713802   -2.9716234  0.026482442   -3.9713802   0.99975685   439061 
  821000   0.66548695   -3.9719601   -3.9719601    -2.973732  0.027142693   -3.9719601   0.99822816   439061 
  822000   0.66696606   -3.9745556   -3.9745556   -2.9741088  0.026012311   -3.9745556    1.0004468   439061 
  823000   0.66611825   -3.9743361   -3.9743361    -2.975161  0.024898479   -3.9743361   0.99917509   439061 
  824000   0.66627408   -3.9749879   -3.9749879   -2.9755791  0.023844625   -3.9749879   0.99940884   439061 
  825000   0.66568869   -3.9758097   -3.9758097    -2.977279  0.022225825   -3.9758097   0.99853077   439061 
  826000   0.66605709   -3.9772586   -3.9772586   -2.9781753  0.022600011   -3.9772586   0.99908336   439061 
  827000   0.66483017   -3.9756794   -3.9756794   -2.9784365  0.023221961   -3.9756794   0.99724298   439061 
  828000    0.6640696   -3.9747842   -3.9747842    -2.978682  0.022207922   -3.9747842   0.99610213   439061 
  829000   0.66371412   -3.9747532   -3.9747532   -2.9791843  0.021874657   -3.9747532   0.99556892   439061 
  830000   0.66503096   -3.9779198   -3.9779198   -2.9803756   0.01721845   -3.9779198   0.99754418   439061 
  831000   0.66436475   -3.9774429   -3.9774429    -2.980898  0.017493653   -3.9774429   0.99654486   439061 
  832000   0.66414617   -3.9775659   -3.9775659   -2.9813489  0.017659259   -3.9775659   0.99621699   439061 
  833000   0.66372973   -3.9766816   -3.9766816   -2.9810893  0.021032541   -3.9766816   0.99559233   439061 
  834000   0.66263772   -3.9771329   -3.9771329   -2.9831786  0.025022134   -3.9771329   0.99395432   439061 
  835000   0.66334439    -3.979472    -3.979472   -2.9844576  0.018298553    -3.979472   0.99501431   439061 
  836000   0.66447179   -3.9818654   -3.9818654     -2.98516  0.023126499   -3.9818654   0.99670542   439061 
  837000   0.66544631   -3.9840042   -3.9840042   -2.9858371  0.021225234   -3.9840042    0.9981672   439061 
  838000   0.66441345   -3.9834014   -3.9834014   -2.9867835  0.022591867   -3.9834014    0.9966179   439061 
  839000   0.66459717   -3.9848217   -3.9848217   -2.9879282  0.021174474   -3.9848217   0.99689348   439061 
  840000     0.664568   -3.9871668   -3.9871668    -2.990317  0.020091006   -3.9871668   0.99684972   439061 
  841000   0.66252732   -3.9852436   -3.9852436   -2.9914549    0.0225797   -3.9852436   0.99378871   439061 
  842000   0.66355174   -3.9871239   -3.9871239   -2.9917986  0.021929362   -3.9871239   0.99532535   439061 
  843000   0.66418827   -3.9878163   -3.9878163   -2.9915361  0.024006387   -3.9878163   0.99628013   439061 
  844000   0.66358088   -3.9876715   -3.9876715   -2.9923025  0.026388469   -3.9876715   0.99536905   439061 
  845000   0.66419332   -3.9898392   -3.9898392   -2.9935515  0.019089616   -3.9898392   0.99628771   439061 
  846000   0.66329995   -3.9888927   -3.9888927    -2.993945  0.020555587   -3.9888927   0.99494765   439061 
  847000    0.6629871   -3.9897386   -3.9897386   -2.9952602  0.019004877   -3.9897386   0.99447839   439061 
  848000   0.66366683   -3.9912561   -3.9912561   -2.9957581  0.019465478   -3.9912561   0.99549798   439061 
  849000   0.66245189   -3.9905572   -3.9905572   -2.9968817   0.01864143   -3.9905572   0.99367557   439061 
  850000   0.66307922    -3.991569    -3.991569   -2.9969525  0.018463106    -3.991569   0.99461656   439061 
  851000   0.66269527   -3.9915655   -3.9915655   -2.9975249   0.02094521   -3.9915655   0.99404064   439061 
  852000   0.66260598   -3.9919403   -3.9919403   -2.9980336  0.020062553   -3.9919403    0.9939067   439061 
  853000   0.66359962   -3.9945512   -3.9945512    -2.999154   0.01674653   -3.9945512   0.99539717   439061 
  854000   0.66353781   -3.9943509   -3.9943509   -2.9990464  0.017778809   -3.9943509   0.99530444   439061 
  855000   0.66200736   -3.9937936   -3.9937936   -3.0007848   0.02060387   -3.9937936   0.99300878   439061 
  856000   0.66321297   -3.9962983   -3.9962983   -3.0014811  0.020850498   -3.9962983    0.9948172   439061 
  857000   0.66338748   -3.9969986   -3.9969986   -3.0019197  0.019215503   -3.9969986   0.99507896   439061 
  858000   0.66121755   -3.9948119   -3.9948119   -3.0029878  0.021799014   -3.9948119   0.99182406   439061 
  859000   0.66256155   -3.9983407   -3.9983407   -3.0045006  0.018000235   -3.9983407   0.99384005   439061 
  860000   0.66217071   -3.9982221   -3.9982221   -3.0049683  0.019614576   -3.9982221    0.9932538   439061 
  861000    0.6617496   -3.9979143   -3.9979143   -3.0052921  0.021276874   -3.9979143   0.99262214   439061 
  862000    0.6614845   -3.9980495   -3.9980495    -3.005825  0.020490644   -3.9980495    0.9922245   439061 
  863000   0.66195225   -3.9990157   -3.9990157   -3.0060896  0.017415959   -3.9990157   0.99292612   439061 
  864000    0.6618746    -4.000382    -4.000382   -3.0075724  0.017857246    -4.000382   0.99280963   439061 
  865000   0.66262777   -4.0024049   -4.0024049   -3.0084655  0.013422917   -4.0024049   0.99393939   439061 
  866000   0.65970598   -3.9993433   -3.9993433   -3.0097866  0.021979642   -3.9993433   0.98955671   439061 
  867000   0.66171693   -4.0024101   -4.0024101    -3.009837  0.020263219   -4.0024101   0.99257313   439061 
  868000    0.6611607   -4.0018357   -4.0018357   -3.0100969  0.020926064   -4.0018357   0.99173879   439061 
  869000   0.66146984    -4.003995    -4.003995   -3.0117925  0.020105663    -4.003995    0.9922025   439061 
  870000   0.66156157   -4.0046238   -4.0046238   -3.0122837  0.022325873   -4.0046238   0.99234009   439061 
  871000   0.66190569   -4.0057286   -4.0057286   -3.0128724  0.022313803   -4.0057286   0.99285627   439061 
  872000   0.66095612     -4.00608     -4.00608   -3.0146481   0.01936539     -4.00608   0.99143193   439061 
  873000   0.66115718   -4.0065761   -4.0065761   -3.0148425  0.022404477   -4.0065761   0.99173352   439061 
  874000   0.66031349    -4.006458    -4.006458     -3.01599  0.021860886    -4.006458   0.99046798   439061 
  875000   0.66088008   -4.0085003   -4.0085003   -3.0171825   0.01873404   -4.0085003   0.99131787   439061 
  876000    0.6607997   -4.0095423   -4.0095423    -3.018345   0.01954646   -4.0095423    0.9911973   439061 
  877000   0.66043312    -4.009286    -4.009286   -3.0186386  0.017717769    -4.009286   0.99064742   439061 
  878000   0.65961019   -4.0093477   -4.0093477   -3.0199347  0.020070936   -4.0093477   0.98941302   439061 
  879000   0.65999508   -4.0112785   -4.0112785   -3.0212881  0.017086024   -4.0112785   0.98999037   439061 
  880000   0.65967964    -4.011344    -4.011344   -3.0218268  0.016145468    -4.011344   0.98951721   439061 
  881000   0.65979896   -4.0112997   -4.0112997   -3.0216036  0.020647998   -4.0112997   0.98969618   439061 
  882000    0.6591159    -4.010403    -4.010403   -3.0217314  0.022027835    -4.010403   0.98867161   439061 
  883000   0.66066136    -4.013742    -4.013742   -3.0227522  0.017696635    -4.013742   0.99098979   439061 
  884000   0.66041223   -4.0137667   -4.0137667   -3.0231506  0.019463513   -4.0137667   0.99061609   439061 
  885000   0.65999343   -4.0142915   -4.0142915   -3.0243036  0.019558286   -4.0142915    0.9899879   439061 
  886000    0.6600644   -4.0153861   -4.0153861   -3.0252918  0.016627584   -4.0153861   0.99009435   439061 
  887000   0.65741017   -4.0136745   -4.0136745   -3.0275615  0.020172948   -4.0136745   0.98611301   439061 
  888000    0.6586276   -4.0161274   -4.0161274   -3.0281883  0.016385112   -4.0161274   0.98793914   439061 
  889000   0.65895403   -4.0175786   -4.0175786   -3.0291498  0.014937094   -4.0175786    0.9884288   439061 
  890000   0.65883013   -4.0187437   -4.0187437   -3.0305007  0.012645646   -4.0187437   0.98824294   439061 
  891000   0.65869691   -4.0197417   -4.0197417   -3.0316986  0.015440455   -4.0197417   0.98804311   439061 
  892000   0.65778604   -4.0186064   -4.0186064   -3.0319296  0.017191166   -4.0186064   0.98667681   439061 
  893000   0.65840026   -4.0203721   -4.0203721    -3.032774  0.017462648   -4.0203721   0.98759815   439061 
  894000   0.65993217   -4.0234572   -4.0234572   -3.0335612   0.01930074   -4.0234572   0.98989599   439061 
  895000    0.6589955   -4.0236284   -4.0236284   -3.0351374  0.023108579   -4.0236284   0.98849101   439061 
  896000   0.65964827   -4.0258569   -4.0258569   -3.0363867  0.019654393   -4.0258569   0.98947015   439061 
  897000   0.65945601   -4.0264571   -4.0264571   -3.0372753  0.017410085   -4.0264571   0.98918177   439061 
  898000    0.6574648   -4.0244531   -4.0244531   -3.0382582  0.018892657   -4.0244531   0.98619495   439061 
  899000   0.65785329   -4.0255761   -4.0255761   -3.0387984   0.02255038   -4.0255761   0.98677768   439061 
  900000   0.65780979   -4.0265011   -4.0265011   -3.0397887  0.017786275   -4.0265011   0.98671244   439061 
  901000   0.65698312   -4.0259696   -4.0259696   -3.0404971  0.017390687   -4.0259696   0.98547243   439061 
  902000   0.65737063   -4.0269501   -4.0269501   -3.0408964  0.015345099   -4.0269501    0.9860537   439061 
  903000   0.65656044   -4.0264755   -4.0264755   -3.0416371  0.016869942   -4.0264755   0.98483841   439061 
  904000   0.65596862   -4.0267882   -4.0267882   -3.0428375  0.021035272   -4.0267882    0.9839507   439061 
  905000   0.65664397   -4.0290635   -4.0290635   -3.0440998  0.016404165   -4.0290635   0.98496371   439061 
  906000   0.65662956   -4.0295674   -4.0295674   -3.0446253  0.016092937   -4.0295674   0.98494209   439061 
  907000    0.6566976   -4.0291521   -4.0291521   -3.0441079  0.018089028   -4.0291521   0.98504415   439061 
  908000   0.65634336   -4.0299785   -4.0299785   -3.0454657  0.017847673   -4.0299785    0.9845128   439061 
  909000   0.65724454   -4.0309043   -4.0309043   -3.0450397  0.018563503   -4.0309043   0.98586456   439061 
  910000     0.657565   -4.0324992   -4.0324992   -3.0461539  0.019547835   -4.0324992   0.98634525   439061 
  911000   0.65721501   -4.0325456   -4.0325456   -3.0467253  0.020487422   -4.0325456   0.98582027   439061 
  912000   0.65649485   -4.0320992   -4.0320992   -3.0473592   0.01770873   -4.0320992   0.98474003   439061 
  913000   0.65641195   -4.0332263   -4.0332263   -3.0486106  0.014275937   -4.0332263   0.98461568   439061 
  914000   0.65633713   -4.0331492   -4.0331492   -3.0486458  0.016346427   -4.0331492   0.98450346   439061 
  915000   0.65569994   -4.0336919   -4.0336919   -3.0501442  0.014875858   -4.0336919   0.98354767   439061 
  916000   0.65538722   -4.0339525   -4.0339525   -3.0508739  0.014779937   -4.0339525   0.98307859   439061 
  917000   0.65489904   -4.0332085   -4.0332085   -3.0508621  0.014300826   -4.0332085   0.98234632   439061 
  918000   0.65580042   -4.0350426   -4.0350426   -3.0513442  0.017736612   -4.0350426    0.9836984   439061 
  919000   0.65708702   -4.0362788   -4.0362788   -3.0506505  0.018276902   -4.0362788   0.98562828   439061 
  920000     0.656682   -4.0369064   -4.0369064   -3.0518856  0.023162083   -4.0369064   0.98502075   439061 
  921000    0.6565047   -4.0377275   -4.0377275   -3.0529727  0.022783629   -4.0377275    0.9847548   439061 
  922000   0.65607382   -4.0375531   -4.0375531   -3.0534446  0.020092322   -4.0375531   0.98410849   439061 
  923000   0.65565517   -4.0376502   -4.0376502   -3.0541696  0.014390592   -4.0376502   0.98348052   439061 
  924000   0.65388189   -4.0374379   -4.0374379   -3.0566173  0.016474738   -4.0374379    0.9808206   439061 
  925000   0.65518465   -4.0395732   -4.0395732   -3.0567984  0.017567538   -4.0395732   0.98277473   439061 
  926000   0.65479498   -4.0390384   -4.0390384   -3.0568482  0.020969945   -4.0390384   0.98219024   439061 
  927000   0.65544077   -4.0412318   -4.0412318   -3.0580729  0.012967675   -4.0412318   0.98315891   439061 
  928000   0.65479263   -4.0410318   -4.0410318   -3.0588451  0.014561014   -4.0410318    0.9821867   439061 
  929000   0.65421344   -4.0414345   -4.0414345   -3.0601166  0.016871438   -4.0414345   0.98131792   439061 
  930000    0.6539765   -4.0424323   -4.0424323   -3.0614698  0.012601702   -4.0424323   0.98096251   439061 
  931000   0.65407395   -4.0435396   -4.0435396   -3.0624309  0.011729493   -4.0435396   0.98110869   439061 
  932000   0.65384931   -4.0442297   -4.0442297   -3.0634579  0.015560968   -4.0442297   0.98077173   439061 
  933000   0.65405347   -4.0460237   -4.0460237   -3.0649458  0.018912604   -4.0460237   0.98107796   439061 
  934000    0.6545526   -4.0471454   -4.0471454   -3.0653187  0.020615927   -4.0471454   0.98182667   439061 
  935000    0.6546617   -4.0477096   -4.0477096   -3.0657193  0.019157286   -4.0477096   0.98199031   439061 
  936000   0.65322943   -4.0467791   -4.0467791   -3.0669372  0.025078335   -4.0467791   0.97984191   439061 
  937000   0.65419412   -4.0489438   -4.0489438   -3.0676548  0.022213493   -4.0489438   0.98128894   439061 
  938000   0.65444042   -4.0505947   -4.0505947   -3.0689363  0.018177357   -4.0505947   0.98165839   439061 
  939000   0.65402032   -4.0506367   -4.0506367   -3.0696085  0.021715101   -4.0506367   0.98102825   439061 
  940000   0.65401331   -4.0520596   -4.0520596   -3.0710419  0.017036836   -4.0520596   0.98101774   439061 
  941000   0.65312326   -4.0505828   -4.0505828   -3.0709001  0.018292225   -4.0505828   0.97968266   439061 
  942000   0.65225732   -4.0496995   -4.0496995   -3.0713157  0.016310828   -4.0496995   0.97838375   439061 
  943000   0.65253031   -4.0516707   -4.0516707   -3.0728775  0.013059633   -4.0516707   0.97879323   439061 
  944000   0.65266682   -4.0517468   -4.0517468   -3.0727488   0.01341119   -4.0517468     0.978998   439061 
  945000   0.65351192   -4.0534668   -4.0534668   -3.0732012  0.017465244   -4.0534668   0.98026564   439061 
  946000   0.65364602   -4.0534449   -4.0534449   -3.0729781  0.015055012   -4.0534449    0.9804668   439061 
  947000   0.65338401   -4.0532973   -4.0532973   -3.0732235  0.020747239   -4.0532973   0.98007378   439061 
  948000   0.65264271   -4.0523016   -4.0523016   -3.0733397  0.021258665   -4.0523016   0.97896184   439061 
  949000   0.65220473   -4.0528821   -4.0528821   -3.0745773  0.019030777   -4.0528821   0.97830486   439061 
  950000   0.65232783   -4.0535928   -4.0535928   -3.0751033  0.018255612   -4.0535928   0.97848952   439061 
  951000   0.65255391   -4.0548325   -4.0548325   -3.0760038  0.018681877   -4.0548325   0.97882864   439061 
  952000   0.65308653   -4.0567308   -4.0567308   -3.0771032  0.013121753   -4.0567308   0.97962757   439061 
  953000   0.65321736   -4.0569843   -4.0569843   -3.0771605  0.011722849   -4.0569843   0.97982382   439061 
  954000   0.65272747   -4.0575561   -4.0575561   -3.0784671  0.011050068   -4.0575561   0.97908898   439061 
  955000   0.65141996   -4.0572756   -4.0572756   -3.0801479  0.012023295   -4.0572756   0.97712772   439061 
  956000   0.65232595   -4.0594218   -4.0594218   -3.0809352  0.010943632   -4.0594218   0.97848669   439061 
  957000   0.65316885   -4.0612369   -4.0612369   -3.0814858  0.017725342   -4.0612369   0.97975105   439061 
  958000   0.65312376   -4.0620003   -4.0620003   -3.0823169  0.016645565   -4.0620003   0.97968341   439061 
  959000   0.65336064   -4.0628962   -4.0628962   -3.0828575  0.018083806   -4.0628962   0.98003873   439061 
  960000   0.65315787   -4.0635594   -4.0635594   -3.0838248  0.018339617   -4.0635594   0.97973457   439061 
  961000   0.65296966    -4.063506    -4.063506   -3.0840537  0.018955552    -4.063506   0.97945226   439061 
  962000   0.65305961   -4.0657466   -4.0657466   -3.0861594  0.019909955   -4.0657466   0.97958719   439061 
  963000   0.65231726   -4.0656523   -4.0656523   -3.0871786  0.020502796   -4.0656523   0.97847366   439061 
  964000    0.6526141   -4.0661959   -4.0661959    -3.087277  0.014764466   -4.0661959   0.97891892   439061 
  965000    0.6521154   -4.0654466   -4.0654466   -3.0872758  0.015624953   -4.0654466   0.97817087   439061 
  966000   0.65189609   -4.0661258   -4.0661258   -3.0882839  0.014927442   -4.0661258   0.97784191   439061 
  967000   0.65233388   -4.0676289   -4.0676289   -3.0891304  0.014769396   -4.0676289   0.97849859   439061 
  968000   0.65152248   -4.0674143   -4.0674143   -3.0901328   0.01521457   -4.0674143   0.97728149   439061 
  969000   0.65161987   -4.0679596   -4.0679596    -3.090532  0.015711556   -4.0679596   0.97742758   439061 
  970000   0.65091251   -4.0673054   -4.0673054   -3.0909388  0.015902507   -4.0673054   0.97636655   439061 
  971000   0.65085362    -4.068597    -4.068597   -3.0923188  0.012178141    -4.068597    0.9762782   439061 
  972000   0.65078221    -4.069839    -4.069839   -3.0936679  0.013852693    -4.069839   0.97617109   439061 
  973000   0.65023682   -4.0700135   -4.0700135   -3.0946605  0.015804916   -4.0700135   0.97535302   439061 
  974000   0.65130548   -4.0719742   -4.0719742   -3.0950182  0.016761951   -4.0719742     0.976956   439061 
  975000     0.651537   -4.0725326   -4.0725326   -3.0952294    0.0174171   -4.0725326   0.97730327   439061 
  976000   0.65150685   -4.0733805   -4.0733805   -3.0961224  0.019195296   -4.0733805   0.97725805   439061 
  977000   0.65103717   -4.0730041   -4.0730041   -3.0964505  0.020097791   -4.0730041   0.97655353   439061 
  978000   0.65161553   -4.0734293   -4.0734293   -3.0960082  0.021865336   -4.0734293   0.97742106   439061 
  979000   0.65234091   -4.0749099   -4.0749099   -3.0964008    0.0185598   -4.0749099   0.97850913   439061 
  980000   0.65097091   -4.0738761   -4.0738761    -3.097422  0.017895627   -4.0738761   0.97645414   439061 
  981000   0.65154357    -4.074953    -4.074953   -3.0976398  0.018408492    -4.074953   0.97731313   439061 
  982000   0.65013898    -4.072516    -4.072516   -3.0973097   0.01625561    -4.072516   0.97520625   439061 
  983000   0.65015764   -4.0741323   -4.0741323    -3.098898  0.011301005   -4.0741323   0.97523424   439061 
  984000    0.6492691   -4.0732945   -4.0732945   -3.0993931 0.0094272374   -4.0732945   0.97390143   439061 
  985000   0.64947046   -4.0745328   -4.0745328   -3.1003293  0.011696439   -4.0745328   0.97420347   439061 
  986000   0.64978073   -4.0741076   -4.0741076   -3.0994387  0.011527692   -4.0741076   0.97466888   439061 
  987000   0.65061943   -4.0763551   -4.0763551   -3.1004282  0.011987086   -4.0763551   0.97592693   439061 
  988000   0.65065986   -4.0777318   -4.0777318   -3.1017442  0.013158079   -4.0777318   0.97598757   439061 
  989000   0.64971331   -4.0775729   -4.0775729   -3.1030052  0.014597997   -4.0775729   0.97456775   439061 
  990000   0.64898999   -4.0775959   -4.0775959   -3.1041131  0.016194326   -4.0775959   0.97348276   439061 
  991000   0.64930905   -4.0800198   -4.0800198   -3.1060584  0.013708188   -4.0800198   0.97396135   439061 
  992000   0.64985033   -4.0824515   -4.0824515   -3.1076782  0.014311133   -4.0824515   0.97477327   439061 
  993000   0.64964907   -4.0829448   -4.0829448   -3.1084735  0.018635132   -4.0829448   0.97447138   439061 
  994000   0.65004593   -4.0840913   -4.0840913   -3.1090247  0.014359356   -4.0840913   0.97506667   439061 
  995000   0.64945885   -4.0847336   -4.0847336   -3.1105476  0.018543363   -4.0847336   0.97418606   439061 
  996000   0.64877306   -4.0845622   -4.0845622   -3.1114048  0.020806785   -4.0845622   0.97315737   439061 
  997000   0.64858639    -4.085021    -4.085021   -3.1121436   0.01755192    -4.085021   0.97287737   439061 
  998000   0.64895013   -4.0862687   -4.0862687   -3.1128457  0.015571288   -4.0862687   0.97342298   439061 
  999000    0.6499838   -4.0877557   -4.0877557   -3.1127822   0.01781244   -4.0877557   0.97497348   439061 
 1000000   0.64873598   -4.0866009   -4.0866009   -3.1134991  0.018101935   -4.0866009   0.97310176   439061 
 1001000   0.64891733     -4.08723     -4.08723   -3.1138563  0.019211926     -4.08723   0.97337377   439061 
 1002000   0.64850744   -4.0874146   -4.0874146   -3.1146557  0.016189323   -4.0874146   0.97275894   439061 
 1003000   0.64861502   -4.0881745   -4.0881745   -3.1152542  0.013305979   -4.0881745   0.97292031   439061 
 1004000   0.64715537   -4.0861128   -4.0861128   -3.1153819  0.013233609   -4.0861128   0.97073085   439061 
 1005000   0.64746975   -4.0870698   -4.0870698   -3.1158674  0.017244623   -4.0870698   0.97120242   439061 
 1006000   0.64836577   -4.0887415   -4.0887415   -3.1161951   0.01434891   -4.0887415   0.97254644   439061 
 1007000   0.64787098   -4.0888079   -4.0888079   -3.1170037  0.012136891   -4.0888079   0.97180426   439061 
 1008000   0.64836858   -4.0892143   -4.0892143   -3.1166636   0.01418746   -4.0892143   0.97255066   439061 
 1009000   0.64710919    -4.088549    -4.088549   -3.1178874  0.015462095    -4.088549   0.97066158   439061 
 1010000   0.64806883     -4.09046     -4.09046    -3.118359  0.011795319     -4.09046   0.97210104   439061 
 1011000    0.6482346   -4.0910479   -4.0910479   -3.1186982  0.011975398   -4.0910479   0.97234968   439061 
 1012000   0.64778154   -4.0913869   -4.0913869   -3.1197168  0.018338666   -4.0913869    0.9716701   439061 
 1013000   0.64859037   -4.0937359   -4.0937359   -3.1208526  0.013845126   -4.0937359   0.97288334   439061 
 1014000   0.64763406   -4.0931449   -4.0931449    -3.121696  0.017297406   -4.0931449   0.97144888   439061 
 1015000   0.64891087   -4.0958834   -4.0958834   -3.1225193  0.013697025   -4.0958834   0.97336408   439061 
 1016000   0.64818506   -4.0970164   -4.0970164    -3.124741  0.014219113   -4.0970164   0.97227537   439061 
 1017000   0.64796492   -4.0967753   -4.0967753   -3.1248302  0.018803057   -4.0967753   0.97194516   439061 
 1018000   0.64844585   -4.0973874   -4.0973874   -3.1247209  0.016243209   -4.0973874   0.97266656   439061 
 1019000   0.64743715   -4.0968629   -4.0968629   -3.1257093  0.017290602   -4.0968629   0.97115352   439061 
 1020000   0.64675319   -4.0970272   -4.0970272   -3.1268996  0.016262186   -4.0970272   0.97012757   439061 
 1021000   0.64572573   -4.0958171   -4.0958171   -3.1272307  0.015438191   -4.0958171   0.96858639   439061 
 1022000   0.64735245   -4.0991146   -4.0991146   -3.1280881  0.010644869   -4.0991146   0.97102646   439061 
 1023000   0.64665049   -4.0985171   -4.0985171   -3.1285436  0.010618863   -4.0985171   0.96997353   439061 
 1024000   0.64652435   -4.0989107   -4.0989107   -3.1291263  0.013198312   -4.0989107   0.96978431   439061 
 1025000   0.64717421   -4.0997252   -4.0997252    -3.128966  0.014601922   -4.0997252   0.97075911   439061 
 1026000   0.64583786    -4.098254    -4.098254   -3.1294994  0.014127576    -4.098254   0.96875459   439061 
 1027000   0.64611822   -4.0995156   -4.0995156   -3.1303405  0.015609793   -4.0995156   0.96917512   439061 
 1028000   0.64631539   -4.1005901   -4.1005901   -3.1311192  0.012707225   -4.1005901   0.96947088   439061 
 1029000   0.64633526   -4.1009093   -4.1009093   -3.1314086   0.01364228   -4.1009093   0.96950068   439061 
 1030000   0.64651045   -4.1024338   -4.1024338   -3.1326704  0.017847481   -4.1024338   0.96976346   439061 
 1031000   0.64699791   -4.1037339   -4.1037339   -3.1332393  0.017173772   -4.1037339   0.97049465   439061 
 1032000    0.6469934   -4.1041149   -4.1041149    -3.133627  0.016583656   -4.1041149   0.97048789   439061 
 1033000   0.64727289    -4.106004    -4.106004   -3.1350969  0.015176256    -4.106004   0.97090712   439061 
 1034000    0.6456824   -4.1046277   -4.1046277   -3.1361063  0.015524709   -4.1046277    0.9685214   439061 
 1035000   0.64472032    -4.104581    -4.104581   -3.1375027  0.016306354    -4.104581   0.96707828   439061 
 1036000   0.64478451   -4.1050911   -4.1050911   -3.1379166   0.01304015   -4.1050911   0.96717456   439061 
 1037000   0.64543713   -4.1064592   -4.1064592   -3.1383057  0.011135372   -4.1064592   0.96815348   439061 
 1038000   0.64543948   -4.1063019   -4.1063019   -3.1381449  0.013306664   -4.1063019   0.96815701   439061 
 1039000   0.64591529   -4.1072118   -4.1072118   -3.1383411  0.013994886   -4.1072118   0.96887073   439061 
 1040000   0.64603776   -4.1072718   -4.1072718   -3.1382173  0.015424247   -4.1072718   0.96905444   439061 
 1041000    0.6455882   -4.1076892   -4.1076892   -3.1393091  0.016537005   -4.1076892    0.9683801   439061 
 1042000   0.64568756    -4.107359    -4.107359   -3.1388298  0.013154058    -4.107359   0.96852913   439061 
 1043000   0.64462056   -4.1067665   -4.1067665   -3.1398378  0.018513084   -4.1067665   0.96692863   439061 
 1044000   0.64593307    -4.108678    -4.108678   -3.1397806  0.019814849    -4.108678    0.9688974   439061 
 1045000   0.64518085   -4.1081821   -4.1081821    -3.140413  0.016454225   -4.1081821   0.96776907   439061 
 1046000   0.64534479   -4.1088132   -4.1088132   -3.1407982  0.017083994   -4.1088132   0.96801498   439061 
 1047000   0.64441589   -4.1090306   -4.1090306    -3.142409  0.014445289   -4.1090306   0.96662163   439061 
 1048000   0.64449908   -4.1093874   -4.1093874    -3.142641  0.011169972   -4.1093874   0.96674642   439061 
 1049000   0.64424357   -4.1091025   -4.1091025   -3.1427394  0.014555959   -4.1091025   0.96636315   439061 
 1050000   0.64553499   -4.1115427   -4.1115427   -3.1432424 0.0068435578   -4.1115427   0.96830028   439061 
 1051000   0.64378131   -4.1091351   -4.1091351   -3.1434653  0.014836866   -4.1091351   0.96566976   439061 
 1052000   0.64425733   -4.1099648   -4.1099648    -3.143581 0.0098133156   -4.1099648   0.96638379   439061 
 1053000   0.64426173   -4.1115434   -4.1115434    -3.145153 0.0080520306   -4.1115434   0.96639039   439061 
 1054000    0.6433645   -4.1116318   -4.1116318   -3.1465873  0.013466611   -4.1116318   0.96504455   439061 
 1055000   0.64353383    -4.113296    -4.113296   -3.1479974 0.0084985627    -4.113296   0.96529855   439061 
 1056000   0.64325197   -4.1130472   -4.1130472   -3.1481715  0.014389192   -4.1130472   0.96487576   439061 
 1057000   0.64449858   -4.1148564   -4.1148564   -3.1481107  0.016308447   -4.1148564   0.96674568   439061 
 1058000   0.64629635   -4.1171211   -4.1171211   -3.1476788  0.015911393   -4.1171211   0.96944231   439061 
 1059000   0.64461186   -4.1159468   -4.1159468   -3.1490312  0.020768284   -4.1159468   0.96691559   439061 
 1060000   0.64468704   -4.1184641   -4.1184641   -3.1514358  0.015095512   -4.1184641   0.96702835   439061 
 1061000    0.6445376   -4.1191615   -4.1191615   -3.1523573  0.013864381   -4.1191615   0.96680419   439061 
 1062000   0.64300528   -4.1184693   -4.1184693   -3.1539636  0.014229852   -4.1184693   0.96450573   439061 
 1063000   0.64253753   -4.1177004   -4.1177004   -3.1538963  0.018212853   -4.1177004    0.9638041   439061 
 1064000   0.64249037   -4.1194098   -4.1194098   -3.1556765  0.015635528   -4.1194098   0.96373335   439061 
 1065000   0.64310876   -4.1205308   -4.1205308   -3.1558698   0.01389691   -4.1205308   0.96466094   439061 
 1066000   0.64298605    -4.119802    -4.119802   -3.1553252  0.015027934    -4.119802   0.96447687   439061 
 1067000    0.6438714   -4.1205915   -4.1205915   -3.1547865  0.016622123   -4.1205915   0.96580491   439061 
 1068000   0.64436752   -4.1220735   -4.1220735   -3.1555244  0.014657606   -4.1220735   0.96654908   439061 
 1069000   0.64265299   -4.1205176   -4.1205176   -3.1565403  0.017387473   -4.1205176   0.96397729   439061 
 1070000   0.64307916   -4.1218024   -4.1218024   -3.1571859  0.011653081   -4.1218024   0.96461655   439061 
 1071000   0.64189101    -4.120945    -4.120945   -3.1581106  0.013835223    -4.120945   0.96283431   439061 
 1072000   0.64201727   -4.1222601   -4.1222601   -3.1592364   0.01042463   -4.1222601   0.96302371   439061 
 1073000   0.64218621   -4.1227294   -4.1227294   -3.1594523   0.01116256   -4.1227294   0.96327713   439061 
 1074000   0.64270531    -4.123966    -4.123966   -3.1599102   0.01163537    -4.123966   0.96405576   439061 
 1075000    0.6424825   -4.1250728   -4.1250728   -3.1613512 0.0082214098   -4.1250728   0.96372155   439061 
 1076000   0.64223062   -4.1258814   -4.1258814   -3.1625377 0.0082896007   -4.1258814   0.96334373   439061 
 1077000   0.64216983    -4.126391    -4.126391   -3.1631384  0.011333458    -4.126391   0.96325255   439061 
 1078000   0.64301673   -4.1274654   -4.1274654   -3.1629425  0.010707095   -4.1274654    0.9645229   439061 
 1079000   0.64390564   -4.1282105   -4.1282105   -3.1623542  0.014584716   -4.1282105   0.96585626   439061 
 1080000   0.64276973   -4.1279978   -4.1279978   -3.1638454  0.017807977   -4.1279978    0.9641524   439061 
 1081000   0.64286304   -4.1288227   -4.1288227   -3.1645304  0.011948806   -4.1288227   0.96429236   439061 
 1082000     0.642058   -4.1271839   -4.1271839   -3.1640991  0.018392721   -4.1271839   0.96308481   439061 
 1083000   0.64280841   -4.1284954   -4.1284954    -3.164285  0.014266695   -4.1284954   0.96421043   439061 
 1084000   0.64279898   -4.1297028   -4.1297028   -3.1655065  0.012909302   -4.1297028   0.96419627   439061 
 1085000   0.64174573   -4.1286092   -4.1286092   -3.1659928  0.010272904   -4.1286092   0.96261641   439061 
 1086000   0.64086272   -4.1280141   -4.1280141   -3.1667222  0.009644478   -4.1280141   0.96129189   439061 
 1087000   0.64099664    -4.129866    -4.129866   -3.1683732 0.0040476324    -4.129866   0.96149277   439061 
 1088000   0.64091014   -4.1295547   -4.1295547   -3.1681917  0.007577312   -4.1295547   0.96136302   439061 
 1089000    0.6407634   -4.1301913   -4.1301913   -3.1690484  0.010298996   -4.1301913   0.96114291   439061 
 1090000   0.64186957   -4.1320379   -4.1320379   -3.1692357  0.010678456   -4.1320379   0.96280217   439061 
 1091000   0.64200843   -4.1325037   -4.1325037   -3.1694933   0.01197589   -4.1325037   0.96301045   439061 
 1092000    0.6413833   -4.1331422   -4.1331422   -3.1710695   0.01433348   -4.1331422   0.96207275   439061 
 1093000   0.64230783   -4.1348296   -4.1348296   -3.1713701  0.013450012   -4.1348296   0.96345955   439061 
 1094000   0.64056898   -4.1337578   -4.1337578   -3.1729065  0.015988323   -4.1337578   0.96085127   439061 
 1095000   0.64068483   -4.1354316   -4.1354316   -3.1744065  0.008595987   -4.1354316   0.96102505   439061 
 1096000   0.64008939   -4.1348263   -4.1348263   -3.1746944  0.023014401   -4.1348263    0.9601319   439061 
 1097000   0.64193756   -4.1381871   -4.1381871    -3.175283  0.015997542   -4.1381871   0.96290415   439061 
 1098000   0.64151831   -4.1387741   -4.1387741   -3.1764988  0.016058442   -4.1387741   0.96227527   439061 
 1099000   0.64114845   -4.1383675   -4.1383675    -3.176647  0.018184163   -4.1383675   0.96172048   439061 
 1100000   0.64022813   -4.1377253   -4.1377253   -3.1773853  0.014023193   -4.1377253   0.96034001   439061 
 1101000   0.64056275   -4.1388017   -4.1388017   -3.1779597 0.0099624564   -4.1388017   0.96084194   439061 
 1102000   0.64107719   -4.1394701   -4.1394701   -3.1778565   0.01523968   -4.1394701   0.96161359   439061 
 1103000   0.64064026   -4.1393309   -4.1393309   -3.1783727  0.013138057   -4.1393309    0.9609582   439061 
 1104000   0.64031055   -4.1397572   -4.1397572   -3.1792936 0.0092845487   -4.1397572   0.96046364   439061 
 1105000   0.63954001   -4.1390594   -4.1390594   -3.1797515 0.0091243542   -4.1390594   0.95930783   439061 
 1106000   0.64017549    -4.140533    -4.140533   -3.1802719 0.0089533813    -4.140533   0.96026105   439061 
 1107000   0.64075273   -4.1407605   -4.1407605   -3.1796336  0.012114898   -4.1407605   0.96112691   439061 
 1108000   0.64110915   -4.1402689   -4.1402689   -3.1786074  0.016431822   -4.1402689   0.96166154   439061 
 1109000   0.64082912   -4.1397526   -4.1397526   -3.1785111  0.013160153   -4.1397526   0.96124149   439061 
 1110000   0.64092986   -4.1402442   -4.1402442   -3.1788516  0.013413124   -4.1402442   0.96139261   439061 
 1111000   0.64050936   -4.1415028   -4.1415028    -3.180741 0.0071133374   -4.1415028   0.96076186   439061 
 1112000   0.63952976   -4.1413574   -4.1413574   -3.1820649  0.010862204   -4.1413574   0.95929245   439061 
 1113000   0.63897311   -4.1410413   -4.1410413   -3.1825838    0.0119016   -4.1410413   0.95845748   439061 
 1114000   0.63862473   -4.1425794   -4.1425794   -3.1846444 0.0046516683   -4.1425794   0.95793491   439061 
 1115000   0.63886839   -4.1432936   -4.1432936   -3.1849932 0.0095287651   -4.1432936    0.9583004   439061 
 1116000   0.63947888   -4.1445968   -4.1445968   -3.1853807  0.010195213   -4.1445968   0.95921614   439061 
 1117000   0.63983249   -4.1448167   -4.1448167   -3.1850701  0.012606359   -4.1448167   0.95974655   439061 
 1118000   0.64008283    -4.145975    -4.145975   -3.1858529  0.010274749    -4.145975   0.96012206   439061 
 1119000   0.63970779   -4.1456672   -4.1456672   -3.1861077   0.01602646   -4.1456672    0.9595595   439061 
 1120000   0.63950018   -4.1467168   -4.1467168   -3.1874687  0.014681513   -4.1467168   0.95924808   439061 
 1121000   0.63971697   -4.1473232   -4.1473232   -3.1877499  0.018564685   -4.1473232   0.95957327   439061 
 1122000   0.64053032   -4.1494712   -4.1494712    -3.188678  0.018507021   -4.1494712   0.96079329   439061 
 1123000   0.64091635   -4.1490281   -4.1490281   -3.1876557  0.015193437   -4.1490281   0.96137234   439061 
 1124000   0.64069267    -4.149738    -4.149738   -3.1887012 0.0094103539    -4.149738   0.96103681   439061 
 1125000   0.63965183   -4.1498473   -4.1498473   -3.1903717 0.0078643488   -4.1498473   0.95947555   439061 
 1126000   0.63847646   -4.1491669   -4.1491669   -3.1914544   0.01015528   -4.1491669   0.95771251   439061 
 1127000   0.63764673   -4.1487339   -4.1487339    -3.192266   0.01017363   -4.1487339   0.95646791   439061 
 1128000   0.63778119   -4.1495595   -4.1495595   -3.1928899 0.0078991387   -4.1495595    0.9566696   439061 
 1129000   0.63765565   -4.1493406   -4.1493406   -3.1928593 0.0092912826   -4.1493406    0.9564813   439061 
 1130000    0.6380127   -4.1499954   -4.1499954   -3.1929786 0.0080061612   -4.1499954   0.95701687   439061 
 1131000   0.63792142   -4.1500624   -4.1500624   -3.1931824  0.011146035   -4.1500624   0.95687996   439061 
 1132000   0.63786766   -4.1504044   -4.1504044   -3.1936051  0.015512538   -4.1504044   0.95679931   439061 
 1133000   0.63870981   -4.1523258   -4.1523258   -3.1942633  0.011803364   -4.1523258   0.95806254   439061 
 1134000   0.63832597   -4.1519809   -4.1519809   -3.1944941  0.016888583   -4.1519809   0.95748678   439061 
 1135000   0.63828129   -4.1529393   -4.1529393   -3.1955195  0.014941032   -4.1529393   0.95741975   439061 
 1136000    0.6375569   -4.1521802   -4.1521802    -3.195847    0.0160465   -4.1521802   0.95633317   439061 
 1137000   0.63805911   -4.1540231   -4.1540231   -3.1969366  0.011739841   -4.1540231   0.95708648   439061 
 1138000   0.63880066   -4.1553035   -4.1553035   -3.1971047  0.011846157   -4.1553035    0.9581988   439061 
 1139000   0.63782002   -4.1549995   -4.1549995   -3.1982717  0.011609089   -4.1549995   0.95672786   439061 
 1140000   0.63709706   -4.1543065   -4.1543065   -3.1986631  0.010817618   -4.1543065   0.95564341   439061 
 1141000   0.63733155   -4.1556495   -4.1556495   -3.1996543   0.01089644   -4.1556495   0.95599515   439061 
 1142000   0.63775359   -4.1560526   -4.1560526   -3.1994244 0.0079415672   -4.1560526    0.9566282   439061 
 1143000   0.63832182    -4.157163    -4.157163   -3.1996824  0.010082017    -4.157163   0.95748055   439061 
 1144000   0.63836773   -4.1568006   -4.1568006   -3.1992512 0.0070458331   -4.1568006   0.95754941   439061 
 1145000   0.63723911   -4.1569491   -4.1569491   -3.2010926 0.0098697173   -4.1569491   0.95585649   439061 
 1146000   0.63664642    -4.156498    -4.156498   -3.2015306 0.0078572356    -4.156498   0.95496746   439061 
 1147000   0.63680716   -4.1572884   -4.1572884   -3.2020799 0.0082661228   -4.1572884   0.95520857   439061 
 1148000   0.63605124   -4.1568709   -4.1568709   -3.2027962  0.011561969   -4.1568709   0.95407469   439061 
 1149000   0.63752299   -4.1578915   -4.1578915   -3.2016092  0.011026469   -4.1578915    0.9562823   439061 
 1150000   0.63793194   -4.1584281   -4.1584281   -3.2015324  0.010483403   -4.1584281   0.95689573   439061 
 1151000    0.6376855   -4.1592034   -4.1592034   -3.2026774 0.0082473265   -4.1592034   0.95652606   439061 
 1152000   0.63773869   -4.1606983   -4.1606983   -3.2040924  0.013957256   -4.1606983   0.95660586   439061 
 1153000   0.63742179   -4.1608774   -4.1608774   -3.2047469  0.013191628   -4.1608774   0.95613051   439061 
 1154000   0.63654377   -4.1602668   -4.1602668   -3.2054533  0.012023684   -4.1602668   0.95481349   439061 
 1155000    0.6366978    -4.161479    -4.161479   -3.2064345 0.0082503695    -4.161479   0.95504452   439061 
 1156000   0.63687411   -4.1632014   -4.1632014   -3.2078924  0.010396773   -4.1632014   0.95530899   439061 
 1157000   0.63535312   -4.1618746   -4.1618746   -3.2088471 0.0078775228   -4.1618746    0.9530275   439061 
 1158000   0.63606508   -4.1635365   -4.1635365    -3.209441 0.0092874372   -4.1635365   0.95409545   439061 
 1159000   0.63590565   -4.1644339   -4.1644339   -3.2105776  0.010576614   -4.1644339    0.9538563   439061 
 1160000   0.63712811   -4.1662224   -4.1662224   -3.2105324  0.015597772   -4.1662224   0.95568999   439061 
 1161000    0.6368644   -4.1670547   -4.1670547   -3.2117603  0.016001842   -4.1670547   0.95529443   439061 
 1162000   0.63671731   -4.1674646   -4.1674646   -3.2123908  0.017256286   -4.1674646   0.95507379   439061 
 1163000   0.63599225    -4.167458    -4.167458   -3.2134718  0.016685071    -4.167458   0.95398621   439061 
 1164000   0.63631005   -4.1680246   -4.1680246   -3.2135617  0.013213109   -4.1680246    0.9544629   439061 
 1165000   0.63714974   -4.1692726   -4.1692726   -3.2135502  0.012294741   -4.1692726   0.95572243   439061 
 1166000   0.63470393   -4.1660551   -4.1660551   -3.2140014   0.01721253   -4.1660551   0.95205373   439061 
 1167000   0.63500779    -4.167007    -4.167007   -3.2144975 0.0098695412    -4.167007   0.95250952   439061 
 1168000    0.6352925   -4.1682816   -4.1682816    -3.215345  0.010699072   -4.1682816   0.95293658   439061 
 1169000   0.63535963   -4.1683395   -4.1683395   -3.2153023 0.0062559156   -4.1683395   0.95303727   439061 
 1170000   0.63435382   -4.1674242   -4.1674242   -3.2158956 0.0093691215   -4.1674242   0.95152857   439061 
 1171000   0.63512543   -4.1678934   -4.1678934   -3.2152074 0.0055600333   -4.1678934   0.95268598   439061 
 1172000   0.63410948    -4.166773    -4.166773   -3.2156109 0.0099883521    -4.166773   0.95116205   439061 
 1173000   0.63494005   -4.1677748   -4.1677748   -3.2153669  0.008473535   -4.1677748    0.9524079   439061 
 1174000   0.63470891   -4.1690086   -4.1690086   -3.2169474 0.0083291936   -4.1690086   0.95206119   439061 
 1175000   0.63513677   -4.1694278   -4.1694278   -3.2167248 0.0079738816   -4.1694278   0.95270298   439061 
 1176000   0.63506221   -4.1687692   -4.1687692   -3.2161781  0.013033525   -4.1687692   0.95259114   439061 
 1177000   0.63590388   -4.1713642   -4.1713642   -3.2175105  0.010744772   -4.1713642   0.95385365   439061 
 1178000   0.63500342   -4.1700238   -4.1700238   -3.2175208  0.011979647   -4.1700238   0.95250296   439061 
 1179000   0.63531963   -4.1728961   -4.1728961   -3.2199188 0.0065885234   -4.1728961   0.95297727   439061 
 1180000   0.63449755   -4.1717012   -4.1717012   -3.2199571  0.010144971   -4.1717012   0.95174415   439061 
 1181000   0.63531424   -4.1730232   -4.1730232    -3.220054  0.011939885   -4.1730232   0.95296919   439061 
 1182000   0.63481095   -4.1734636   -4.1734636   -3.2212493  0.012844796   -4.1734636   0.95221426   439061 
 1183000   0.63571538   -4.1744928   -4.1744928   -3.2209219  0.015888501   -4.1744928   0.95357089   439061 
 1184000   0.63480607   -4.1736293   -4.1736293   -3.2214224  0.010765511   -4.1736293   0.95220694   439061 
 1185000    0.6343357    -4.173812    -4.173812   -3.2223106  0.015666623    -4.173812   0.95150138   439061 
 1186000    0.6352205   -4.1759469   -4.1759469   -3.2231183 0.0095909799   -4.1759469   0.95282858   439061 
 1187000   0.63470982   -4.1749535   -4.1749535   -3.2228909  0.012581557   -4.1749535   0.95206256   439061 
 1188000   0.63397745   -4.1754728   -4.1754728   -3.2245088 0.0096971481   -4.1754728     0.950964   439061 
 1189000   0.63383621   -4.1758367   -4.1758367   -3.2250846  0.012645247   -4.1758367   0.95075215   439061 
 1190000   0.63222806   -4.1728397   -4.1728397   -3.2244998   0.01198802   -4.1728397   0.94833994   439061 
 1191000   0.63369651   -4.1756765   -4.1756765   -3.2251339 0.0066618605   -4.1756765   0.95054259   439061 
 1192000   0.63374934   -4.1762894   -4.1762894   -3.2256676  0.009150108   -4.1762894   0.95062185   439061 
 1193000   0.63382462   -4.1769826   -4.1769826   -3.2262478 0.0076577452   -4.1769826   0.95073477   439061 
 1194000   0.63376944    -4.177081    -4.177081    -3.226429  0.011092831    -4.177081   0.95065199   439061 
 1195000   0.63395176   -4.1776409   -4.1776409   -3.2267154  0.013368478   -4.1776409   0.95092547   439061 
 1196000   0.63440627   -4.1786626   -4.1786626   -3.2270554  0.011881696   -4.1786626   0.95160724   439061 
 1197000   0.63464262   -4.1793505   -4.1793505   -3.2273887   0.01266018   -4.1793505   0.95196176   439061 
 1198000   0.63405775   -4.1792826   -4.1792826   -3.2281982   0.01685742   -4.1792826   0.95108446   439061 
 1199000    0.6330965   -4.1779393   -4.1779393   -3.2282968  0.014087416   -4.1779393   0.94964259   439061 
 1200000   0.63384923   -4.1804084   -4.1804084   -3.2296367 0.0094093588   -4.1804084   0.95077168   439061 
 1201000    0.6334973   -4.1801946   -4.1801946   -3.2299508  0.011301209   -4.1801946   0.95024378   439061 
 1202000   0.63361755   -4.1805088   -4.1805088   -3.2300846  0.010825557   -4.1805088   0.95042416   439061 
 1203000   0.63347711   -4.1806404   -4.1806404   -3.2304269  0.010206906   -4.1806404    0.9502135   439061 
 1204000   0.63234047   -4.1795233   -4.1795233   -3.2310148 0.0093326232   -4.1795233   0.94850854   439061 
 1205000   0.63387132   -4.1825955   -4.1825955   -3.2317907 0.0021768725   -4.1825955   0.95080481   439061 
 1206000   0.63359338   -4.1820855   -4.1820855   -3.2316976 0.0034665312   -4.1820855   0.95038791   439061 
 1207000   0.63298938   -4.1821163   -4.1821163   -3.2326344 0.0091489429   -4.1821163   0.94948191   439061 
 1208000   0.63363749   -4.1832834   -4.1832834   -3.2328293   0.00828925   -4.1832834   0.95045407   439061 
 1209000   0.63315547   -4.1831845   -4.1831845   -3.2334535 0.0096151894   -4.1831845   0.94973105   439061 
 1210000   0.63231493   -4.1835351   -4.1835351   -3.2350649  0.012537376   -4.1835351   0.94847024   439061 
 1211000   0.63279017   -4.1851025   -4.1851025   -3.2359194 0.0044689455   -4.1851025   0.94918309   439061 
 1212000   0.63286956   -4.1861181   -4.1861181   -3.2368159 0.0098636801   -4.1861181   0.94930217   439061 
 1213000   0.63344847   -4.1868915   -4.1868915   -3.2367209 0.0097890143   -4.1868915   0.95017054   439061 
 1214000   0.63170795   -4.1860875   -4.1860875   -3.2385277  0.013315277   -4.1860875   0.94755977   439061 
 1215000   0.63250366   -4.1882112   -4.1882112   -3.2394579 0.0093647439   -4.1882112   0.94875333   439061 
 1216000   0.63186232   -4.1869852   -4.1869852   -3.2391939  0.013923012   -4.1869852   0.94779132   439061 
 1217000   0.63198112   -4.1884684   -4.1884684   -3.2404988 0.0079617875   -4.1884684   0.94796952   439061 
 1218000   0.63269271   -4.1894806   -4.1894806   -3.2404437 0.0083026257   -4.1894806   0.94903691   439061 
 1219000    0.6317023   -4.1894168   -4.1894168   -3.2418655  0.010232398   -4.1894168   0.94755129   439061 
 1220000   0.63107332   -4.1886923   -4.1886923   -3.2420845  0.013785569   -4.1886923   0.94660782   439061 
 1221000   0.63079921   -4.1890905   -4.1890905   -3.2428938 0.0076067527   -4.1890905   0.94619666   439061 
 1222000   0.63165219    -4.190486    -4.190486   -3.2430099 0.0094460862    -4.190486   0.94747612   439061 
 1223000   0.63174032   -4.1901438   -4.1901438   -3.2425355  0.012455736   -4.1901438   0.94760832   439061 
 1224000   0.63179663   -4.1907863   -4.1907863   -3.2430935  0.010228362   -4.1907863   0.94769279   439061 
 1225000   0.63110206   -4.1921514   -4.1921514   -3.2455005  0.012559722   -4.1921514   0.94665093   439061 
 1226000   0.63160928   -4.1931824   -4.1931824   -3.2457707 0.0095002166   -4.1931824   0.94741176   439061 
 1227000   0.63149383   -4.1932532   -4.1932532   -3.2460146  0.007445152   -4.1932532   0.94723858   439061 
 1228000   0.63257133   -4.1949234   -4.1949234   -3.2460686 0.0089907993   -4.1949234   0.94885484   439061 
 1229000   0.63214888   -4.1951696   -4.1951696   -3.2469485 0.0090742329   -4.1951696   0.94822115   439061 
 1230000   0.63153333   -4.1954651   -4.1954651   -3.2481672  0.011506843   -4.1954651   0.94729784   439061 
 1231000   0.63068445   -4.1944036   -4.1944036   -3.2483791  0.012566668   -4.1944036   0.94602453   439061 
 1232000   0.63130956   -4.1954485   -4.1954485   -3.2484863  0.013015286   -4.1954485   0.94696219   439061 
 1233000   0.63144089   -4.1963248   -4.1963248   -3.2491656  0.010905753   -4.1963248   0.94715918   439061 
 1234000   0.63085697   -4.1944142   -4.1944142   -3.2481309  0.014069602   -4.1944142    0.9462833   439061 
 1235000   0.63067162   -4.1949563   -4.1949563    -3.248951 0.0097353641   -4.1949563   0.94600528   439061 
 1236000   0.63056867   -4.1959682   -4.1959682   -3.2501173 0.0080864506   -4.1959682   0.94585085   439061 
 1237000   0.63026419   -4.1951751   -4.1951751    -3.249781 0.0096563059   -4.1951751   0.94539413   439061 
 1238000   0.63036917   -4.1955526   -4.1955526    -3.250001 0.0084755211   -4.1955526    0.9455516   439061 
 1239000   0.63105287   -4.1981397   -4.1981397   -3.2515626 0.0050986885   -4.1981397   0.94657715   439061 
 1240000   0.62980218   -4.1966272   -4.1966272   -3.2519261 0.0099445125   -4.1966272   0.94470113   439061 
 1241000    0.6285448   -4.1962435   -4.1962435   -3.2534284  0.011197471   -4.1962435   0.94281506   439061 
 1242000   0.63010264   -4.1981304   -4.1981304   -3.2529786 0.0092336796   -4.1981304   0.94515181   439061 
 1243000   0.62919918   -4.1978222   -4.1978222   -3.2540256  0.014650143   -4.1978222   0.94379662   439061 
 1244000   0.63044373    -4.199552    -4.199552   -3.2538886  0.010904633    -4.199552   0.94566344   439061 
 1245000   0.63053107   -4.1999753   -4.1999753   -3.2541809  0.013875905   -4.1999753   0.94579446   439061 
 1246000   0.63019579   -4.2003716   -4.2003716     -3.25508   0.01549292   -4.2003716   0.94529154   439061 
 1247000   0.62916704   -4.1995796   -4.1995796   -3.2558312  0.010763425   -4.1995796   0.94374841   439061 
 1248000   0.62924866   -4.2004005   -4.2004005   -3.2565297  0.010675374   -4.2004005   0.94387084   439061 
 1249000   0.63031424   -4.2023127   -4.2023127   -3.2568435 0.0071087469   -4.2023127    0.9454692   439061 
 1250000   0.62897215   -4.2016701   -4.2016701    -3.258214 0.0037936699   -4.2016701   0.94345608   439061 
 1251000   0.62933293   -4.2020075   -4.2020075   -3.2580102 0.0083267699   -4.2020075   0.94399725   439061 
 1252000   0.62895511    -4.202764    -4.202764   -3.2593335 0.0053667785    -4.202764   0.94343052   439061 
 1253000   0.63002286   -4.2043547   -4.2043547   -3.2593225 0.0099663449   -4.2043547   0.94503213   439061 
 1254000   0.62934755   -4.2028339   -4.2028339   -3.2588147  0.012774148   -4.2028339   0.94401917   439061 
 1255000   0.63001761   -4.2041349   -4.2041349   -3.2591106  0.011292632   -4.2041349   0.94502426   439061 
 1256000   0.62870558   -4.2031991   -4.2031991   -3.2601428 0.0094673392   -4.2031991   0.94305622   439061 
 1257000   0.62904417   -4.2051944   -4.2051944   -3.2616303  0.011528536   -4.2051944    0.9435641   439061 
 1258000   0.62925724   -4.2053696   -4.2053696   -3.2614859 0.0089759896   -4.2053696   0.94388371   439061 
 1259000   0.62854552   -4.2048799   -4.2048799   -3.2620638   0.01247437   -4.2048799   0.94281613   439061 
 1260000   0.62938147   -4.2057941   -4.2057941   -3.2617241 0.0095861488   -4.2057941   0.94407006   439061 
 1261000   0.62860191   -4.2045729   -4.2045729   -3.2616722  0.013591185   -4.2045729   0.94290071   439061 
 1262000   0.62828438   -4.2040374   -4.2040374    -3.261613  0.010790976   -4.2040374   0.94242443   439061 
 1263000   0.62840241   -4.2062055   -4.2062055   -3.2636041 0.0087378719   -4.2062055   0.94260147   439061 
 1264000   0.62836663   -4.2061072   -4.2061072   -3.2635594 0.0085188937   -4.2061072   0.94254779   439061 
 1265000   0.62872072   -4.2074679   -4.2074679   -3.2643889  0.009275278   -4.2074679   0.94307893   439061 
 1266000   0.62895062   -4.2076508   -4.2076508    -3.264227 0.0080648698   -4.2076508   0.94342378   439061 
 1267000   0.62929918   -4.2078972   -4.2078972   -3.2639506 0.0076467935   -4.2078972   0.94394663   439061 
 1268000    0.6289875   -4.2068958   -4.2068958   -3.2634167  0.014517368   -4.2068958   0.94347909   439061 
 1269000   0.62911986    -4.207795    -4.207795   -3.2641173  0.010192518    -4.207795   0.94367764   439061 
 1270000   0.62965906   -4.2093282   -4.2093282   -3.2648418 0.0095026642   -4.2093282   0.94448643   439061 
 1271000   0.62823708   -4.2080263   -4.2080263   -3.2656728 0.0081795607   -4.2080263   0.94235347   439061 
 1272000   0.62802454   -4.2077946   -4.2077946   -3.2657599  0.011549916   -4.2077946   0.94203467   439061 
 1273000   0.62780405   -4.2090171   -4.2090171   -3.2673132 0.0073441183   -4.2090171   0.94170394   439061 
 1274000   0.62840107   -4.2102699   -4.2102699   -3.2676704 0.0079346033   -4.2102699   0.94259946   439061 
 1275000   0.62697678   -4.2082913   -4.2082913   -3.2678283  0.011957733   -4.2082913   0.94046303   439061 
 1276000   0.62756191    -4.210777    -4.210777   -3.2694363 0.0044027222    -4.210777   0.94134073   439061 
 1277000   0.62633825   -4.2096646   -4.2096646   -3.2701594  0.010254017   -4.2096646   0.93950524   439061 
 1278000   0.62748006   -4.2117053   -4.2117053   -3.2704874 0.0072541798   -4.2117053   0.94121795   439061 
 1279000   0.62793725   -4.2129715   -4.2129715   -3.2710678 0.0049556702   -4.2129715   0.94190373   439061 
 1280000   0.62765405   -4.2136321   -4.2136321   -3.2721532 0.0071054945   -4.2136321   0.94147893   439061 
 1281000   0.62767428    -4.214034    -4.214034   -3.2725247 0.0074804686    -4.214034   0.94150928   439061 
 1282000    0.6281636   -4.2147033   -4.2147033     -3.27246 0.0080460623   -4.2147033   0.94224326   439061 
 1283000   0.62851983    -4.214687    -4.214687   -3.2719095  0.010238123    -4.214687   0.94277759   439061 
 1284000   0.62698975   -4.2127203   -4.2127203   -3.2722378  0.015675549   -4.2127203   0.94048248   439061 
 1285000   0.62854071    -4.215804    -4.215804   -3.2729951 0.0079945841    -4.215804   0.94280892   439061 
 1286000   0.62836015   -4.2152646   -4.2152646   -3.2727266  0.015069172   -4.2152646   0.94253808   439061 
 1287000   0.62820568   -4.2157755   -4.2157755   -3.2734692  0.004415454   -4.2157755   0.94230637   439061 
 1288000   0.62822942   -4.2169591   -4.2169591   -3.2746172 0.0054428535   -4.2169591   0.94234199   439061 
 1289000   0.62695812    -4.216263    -4.216263   -3.2758279 0.0052683374    -4.216263   0.94043504   439061 
 1290000   0.62707654   -4.2156142   -4.2156142   -3.2750016 0.0080337798   -4.2156142   0.94061267   439061 
 1291000   0.62686325   -4.2167547   -4.2167547    -3.276462  0.007000679   -4.2167547   0.94029274   439061 
 1292000   0.62625761   -4.2155617   -4.2155617   -3.2761774 0.0076471152   -4.2155617   0.93938427   439061 
 1293000    0.6272883   -4.2175861   -4.2175861   -3.2766557 0.0069556603   -4.2175861   0.94093031   439061 
 1294000   0.62699758   -4.2169377   -4.2169377   -3.2764435 0.0079145975   -4.2169377   0.94049422   439061 
 1295000   0.62682375   -4.2165988   -4.2165988   -3.2763653  0.011855211   -4.2165988   0.94023348   439061 
 1296000   0.62770984   -4.2175731   -4.2175731   -3.2760104  0.012391088   -4.2175731   0.94156262   439061 
 1297000   0.62646746   -4.2173942   -4.2173942   -3.2776952  0.012341234   -4.2173942   0.93969905   439061 
 1298000   0.62810501   -4.2191206   -4.2191206   -3.2769652 0.0076028732   -4.2191206   0.94215537   439061 
 1299000   0.62567061   -4.2170314   -4.2170314   -3.2785276  0.016450369   -4.2170314   0.93850378   439061 
 1300000   0.62638413   -4.2193952   -4.2193952   -3.2798212  0.007424244   -4.2193952   0.93957406   439061 
 1301000   0.62563501    -4.218767    -4.218767   -3.2803166 0.0063999316    -4.218767   0.93845038   439061 
 1302000   0.62640794   -4.2183963   -4.2183963   -3.2787866 0.0093352804   -4.2183963   0.93960977   439061 
 1303000   0.62767504   -4.2203435   -4.2203435    -3.278833  0.005405313   -4.2203435   0.94151041   439061 
 1304000   0.62693995   -4.2197742   -4.2197742   -3.2793664 0.0067729588   -4.2197742   0.94040778   439061 
 1305000   0.62758731    -4.220849    -4.220849   -3.2794701 0.0055689927    -4.220849   0.94137882   439061 
 1306000   0.62724638   -4.2203748   -4.2203748   -3.2795074 0.0061915322   -4.2203748   0.94086743   439061 
 1307000   0.62700524   -4.2197207   -4.2197207    -3.279215 0.0075602615   -4.2197207   0.94050571   439061 
 1308000   0.62665342   -4.2200744   -4.2200744   -3.2800964 0.0069237148   -4.2200744     0.939978   439061 
 1309000   0.62544858   -4.2191359   -4.2191359   -3.2809651  0.011967186   -4.2191359   0.93817073   439061 
 1310000    0.6270603   -4.2222713   -4.2222713    -3.281683 0.0084687111   -4.2222713    0.9405883   439061 
 1311000   0.62650546   -4.2218321   -4.2218321    -3.282076  0.012920631   -4.2218321   0.93975605   439061 
 1312000   0.62655242    -4.223364    -4.223364   -3.2835375  0.011770493    -4.223364   0.93982648   439061 
 1313000   0.62607334   -4.2221533   -4.2221533   -3.2830454  0.012439171   -4.2221533   0.93910786   439061 
 1314000   0.62610596   -4.2233563   -4.2233563   -3.2841995  0.010966668   -4.2233563    0.9391568   439061 
 1315000   0.62620426   -4.2239361   -4.2239361   -3.2846318  0.014105684   -4.2239361   0.93930426   439061 
 1316000   0.62605678    -4.224549    -4.224549    -3.285466 0.0083967931    -4.224549   0.93908303   439061 
 1317000   0.62543552   -4.2233586   -4.2233586   -3.2852074  0.010012326   -4.2233586   0.93815114   439061 
 1318000   0.62561038   -4.2238766   -4.2238766   -3.2854632 0.0075396228   -4.2238766   0.93841343   439061 
 1319000   0.62589212   -4.2253402   -4.2253402   -3.2865042  0.011404489   -4.2253402   0.93883604   439061 
 1320000   0.62415998   -4.2237182   -4.2237182   -3.2874804  0.012294504   -4.2237182   0.93623784   439061 
 1321000   0.62514758   -4.2240183   -4.2240183   -3.2862991 0.0072036966   -4.2240183   0.93771924   439061 
 1322000   0.62557995   -4.2256972   -4.2256972   -3.2873295 0.0070733327   -4.2256972   0.93836779   439061 
 1323000   0.62559543   -4.2263419   -4.2263419   -3.2879509 0.0067872016   -4.2263419   0.93839101   439061 
 1324000   0.62499116   -4.2251163   -4.2251163   -3.2876317 0.0095640357   -4.2251163    0.9374846   439061 
 1325000   0.62533985   -4.2258454   -4.2258454   -3.2878377  0.011380535   -4.2258454   0.93800764   439061 
 1326000   0.62616551   -4.2273829   -4.2273829   -3.2881368  0.010639215   -4.2273829   0.93924613   439061 
 1327000   0.62508442   -4.2256575   -4.2256575    -3.288033  0.013105357   -4.2256575    0.9376245   439061 
 1328000   0.62605326   -4.2275107   -4.2275107    -3.288433  0.011978195   -4.2275107   0.93907775   439061 
 1329000   0.62519754   -4.2275385   -4.2275385   -3.2897443  0.011743171   -4.2275385   0.93779418   439061 
 1330000   0.62463914   -4.2272355   -4.2272355    -3.290279 0.0088987034   -4.2272355   0.93695658   439061 
 1331000    0.6264131   -4.2293977   -4.2293977   -3.2897802 0.0078262891   -4.2293977   0.93961751   439061 
 1332000   0.62464125   -4.2268041   -4.2268041   -3.2898443 0.0080441372   -4.2268041   0.93695974   439061 
 1333000   0.62472463   -4.2277742   -4.2277742   -3.2906894 0.0031067557   -4.2277742   0.93708481   439061 
 1334000   0.62428808   -4.2275802   -4.2275802   -3.2911502 0.0070015383   -4.2275802   0.93642999   439061 
 1335000    0.6252734   -4.2286433   -4.2286433   -3.2907353  0.010318497   -4.2286433   0.93790797   439061 
 1336000   0.62469306   -4.2276877   -4.2276877   -3.2906503 0.0062194078   -4.2276877   0.93703745   439061 
 1337000   0.62543207   -4.2295846   -4.2295846   -3.2914386 0.0074734302   -4.2295846   0.93814597   439061 
 1338000   0.62394046   -4.2281597   -4.2281597   -3.2922511  0.007440718   -4.2281597   0.93590857   439061 
 1339000   0.62461942   -4.2295128   -4.2295128   -3.2925858 0.0082229835   -4.2295128   0.93692699   439061 
 1340000   0.62469635   -4.2294641   -4.2294641   -3.2924217  0.011504465   -4.2294641   0.93704238   439061 
 1341000    0.6253515   -4.2310928   -4.2310928   -3.2930677  0.006323128   -4.2310928   0.93802512   439061 
 1342000   0.62489303   -4.2307867   -4.2307867   -3.2934493 0.0087305839   -4.2307867   0.93733741   439061 
 1343000   0.62497794   -4.2324082   -4.2324082   -3.2949434  0.011339088   -4.2324082   0.93746478   439061 
 1344000   0.62509225   -4.2331141   -4.2331141   -3.2954779  0.006257197   -4.2331141   0.93763624   439061 
 1345000   0.62568773   -4.2335626   -4.2335626   -3.2950331  0.010234123   -4.2335626   0.93852946   439061 
 1346000   0.62460712   -4.2333922   -4.2333922   -3.2964837  0.010748801   -4.2333922   0.93690854   439061 
 1347000   0.62427862   -4.2331044   -4.2331044   -3.2966886 0.0083864029   -4.2331044    0.9364158   439061 
 1348000   0.62416759   -4.2316918   -4.2316918   -3.2954426 0.0075231209   -4.2316918   0.93624925   439061 
 1349000   0.62496736    -4.233318    -4.233318   -3.2958691 0.0090434576    -4.233318   0.93744891   439061 
 1350000   0.62290415   -4.2311207   -4.2311207   -3.2967666 0.0092060262   -4.2311207    0.9343541   439061 
 1351000   0.62465021   -4.2337593   -4.2337593   -3.2967861    0.0101863   -4.2337593   0.93697319   439061 
 1352000    0.6237861   -4.2341221   -4.2341221   -3.2984451  0.008794077   -4.2341221   0.93567702   439061 
 1353000   0.62404921   -4.2342743   -4.2342743   -3.2982026  0.010710384   -4.2342743   0.93607168   439061 
 1354000   0.62351508   -4.2341387   -4.2341387   -3.2988682 0.0080657826   -4.2341387   0.93527049   439061 
 1355000   0.62371346   -4.2347754   -4.2347754   -3.2992073 0.0086242492   -4.2347754   0.93556806   439061 
 1356000   0.62338792   -4.2336717   -4.2336717   -3.2985919   0.01152904   -4.2336717   0.93507976   439061 
 1357000   0.62530906   -4.2368406   -4.2368406   -3.2988792 0.0056667174   -4.2368406   0.93796146   439061 
 1358000   0.62436401   -4.2349612   -4.2349612   -3.2984174   0.01183228   -4.2349612   0.93654388   439061 
 1359000   0.62390646   -4.2347699   -4.2347699   -3.2989123  0.011167468   -4.2347699   0.93585756   439061 
 1360000   0.62436549   -4.2358364   -4.2358364   -3.2992903 0.0066059268   -4.2358364   0.93654611   439061 
 1361000   0.62351473   -4.2352658   -4.2352658   -3.2999959 0.0070909482   -4.2352658   0.93526997   439061 
 1362000   0.62345379   -4.2349658   -4.2349658   -3.2997873  0.006416618   -4.2349658   0.93517856   439061 
 1363000   0.62282532   -4.2341285   -4.2341285   -3.2998926 0.0090370683   -4.2341285   0.93423585   439061 
 1364000   0.62338499    -4.235822    -4.235822   -3.3007467 0.0039814525    -4.235822   0.93507536   439061 
 1365000   0.62268562   -4.2354027   -4.2354027   -3.3013764 0.0074609642   -4.2354027    0.9340263   439061 
 1366000   0.62265204   -4.2348602   -4.2348602   -3.3008843 0.0053900237   -4.2348602   0.93397594   439061 
 1367000   0.62383324   -4.2372697   -4.2372697   -3.3015219 0.0034946752   -4.2372697   0.93574774   439061 
 1368000   0.62276563   -4.2368775   -4.2368775   -3.3027312 0.0076682595   -4.2368775   0.93414632   439061 
 1369000   0.62395441   -4.2383757   -4.2383757   -3.3024462  0.010527376   -4.2383757   0.93592949   439061 
 1370000     0.623323     -4.23681     -4.23681   -3.3018276  0.012547094     -4.23681   0.93498236   439061 
 1371000   0.62382028   -4.2390071   -4.2390071   -3.3032788  0.012158179   -4.2390071   0.93572829   439061 
 1372000    0.6239661   -4.2395473   -4.2395473   -3.3036003 0.0095821199   -4.2395473   0.93594702   439061 
 1373000   0.62328892   -4.2383085   -4.2383085   -3.3033772  0.012866697   -4.2383085   0.93493126   439061 
 1374000   0.62338611   -4.2387439   -4.2387439   -3.3036669 0.0096256395   -4.2387439   0.93507703   439061 
 1375000   0.62320049   -4.2381169   -4.2381169   -3.3033183  0.010144667   -4.2381169    0.9347986   439061 
 1376000   0.62238533   -4.2375891   -4.2375891   -3.3040132  0.012590243   -4.2375891   0.93357587   439061 
 1377000   0.62253014   -4.2378465   -4.2378465   -3.3040535 0.0098553623   -4.2378465   0.93379309   439061 
 1378000   0.62328685   -4.2393829   -4.2393829   -3.3044548 0.0047332931   -4.2393829   0.93492815   439061 
 1379000   0.62201282   -4.2385414   -4.2385414   -3.3055244 0.0031076838   -4.2385414    0.9330171   439061 
 1380000   0.62166431   -4.2379938   -4.2379938   -3.3054995 0.0037805182   -4.2379938   0.93249434   439061 
 1381000   0.62190815   -4.2391264   -4.2391264   -3.3062663 0.0021231271   -4.2391264    0.9328601   439061 
 1382000   0.62231566   -4.2388645   -4.2388645   -3.3053931 0.0079502575   -4.2388645   0.93347136   439061 
 1383000   0.62317145    -4.239525    -4.239525   -3.3047699  0.011455888    -4.239525   0.93475505   439061 
 1384000   0.62196515   -4.2391757   -4.2391757   -3.3062301 0.0087849989   -4.2391757    0.9329456   439061 
 1385000   0.62294621   -4.2420406   -4.2420406   -3.3076234  0.012215252   -4.2420406   0.93441718   439061 
 1386000   0.62269657     -4.24197     -4.24197   -3.3079273 0.0080986324     -4.24197   0.93404273   439061 
 1387000   0.62473132   -4.2447024   -4.2447024   -3.3076075 0.0049033084   -4.2447024   0.93709485   439061 
 1388000     0.622912   -4.2425742   -4.2425742   -3.3082084  0.010810892   -4.2425742   0.93436587   439061 
 1389000   0.62395901   -4.2443947   -4.2443947   -3.3084583 0.0079773044   -4.2443947   0.93593639   439061 
 1390000   0.62290439   -4.2415671   -4.2415671   -3.3072126   0.01334073   -4.2415671   0.93435445   439061 
 1391000   0.62285664   -4.2426486   -4.2426486   -3.3083658   0.01134851   -4.2426486   0.93428284   439061 
 1392000   0.62306139   -4.2430461   -4.2430461   -3.3084561  0.011598503   -4.2430461   0.93458996   439061 
 1393000    0.6233686   -4.2434116   -4.2434116   -3.3083609 0.0064840919   -4.2434116   0.93505078   439061 
 1394000   0.62176763   -4.2405923   -4.2405923    -3.307943  0.011158606   -4.2405923   0.93264931   439061 
 1395000    0.6222434   -4.2419456   -4.2419456   -3.3085826 0.0047422568   -4.2419456   0.93336297   439061 
 1396000   0.62172593    -4.241697    -4.241697   -3.3091102  0.002382157    -4.241697   0.93258677   439061 
 1397000   0.62103741   -4.2417168   -4.2417168   -3.3101628 0.0018622403   -4.2417168   0.93155399   439061 
 1398000   0.62044659   -4.2415128   -4.2415128   -3.3108451 0.0052700148   -4.2415128   0.93066777   439061 
 1399000   0.62116055   -4.2428188   -4.2428188   -3.3110801 0.0037498757   -4.2428188   0.93173871   439061 
 1400000   0.62207987   -4.2436919   -4.2436919   -3.3105743 0.0081548879   -4.2436919   0.93311768   439061 
 1401000   0.62254397   -4.2448988   -4.2448988    -3.311085  0.010284759   -4.2448988   0.93381383   439061 
 1402000   0.62273159   -4.2449294   -4.2449294   -3.3108341   0.01080793   -4.2449294   0.93409526   439061 
 1403000   0.62182769   -4.2454677   -4.2454677   -3.3127283  0.012984711   -4.2454677   0.93273941   439061 
 1404000    0.6217241   -4.2453903   -4.2453903   -3.3128062  0.011352994   -4.2453903   0.93258402   439061 
 1405000   0.62224617   -4.2472134   -4.2472134   -3.3138463  0.010941248   -4.2472134   0.93336713   439061 
 1406000   0.62211297   -4.2485874   -4.2485874   -3.3154201  0.010427732   -4.2485874   0.93316733   439061 
 1407000   0.62116538   -4.2479607   -4.2479607   -3.3162147 0.0095949611   -4.2479607   0.93174595   439061 
 1408000   0.62143961   -4.2488204   -4.2488204   -3.3166631 0.0061900991   -4.2488204    0.9321573   439061 
 1409000   0.62035941   -4.2472515   -4.2472515   -3.3167145 0.0041955731   -4.2472515     0.930537   439061 
 1410000   0.62019408   -4.2479168   -4.2479168   -3.3176279 0.0067481821   -4.2479168     0.930289   439061 
 1411000   0.62122381   -4.2492757   -4.2492757   -3.3174421  0.010801649   -4.2492757    0.9318336   439061 
 1412000   0.62136758   -4.2503251   -4.2503251   -3.3182759 0.0097586009   -4.2503251   0.93204924   439061 
 1413000   0.62084474   -4.2490067   -4.2490067   -3.3177417  0.008302934   -4.2490067     0.931265   439061 
 1414000   0.62042899   -4.2482114   -4.2482114     -3.31757 0.0084470916   -4.2482114   0.93064137   439061 
 1415000   0.62110981   -4.2504302   -4.2504302   -3.3187676 0.0095796283   -4.2504302    0.9316626   439061 
 1416000   0.62196391   -4.2509877   -4.2509877   -3.3180439  0.011158424   -4.2509877   0.93294375   439061 
 1417000   0.62159092    -4.250413    -4.250413   -3.3180288 0.0090128683    -4.250413   0.93238426   439061 
 1418000   0.62136652   -4.2502727   -4.2502727   -3.3182251 0.0084473036   -4.2502727   0.93204766   439061 
 1419000   0.62116911   -4.2501511   -4.2501511   -3.3183995 0.0075776525   -4.2501511   0.93175154   439061 
 1420000   0.62073226   -4.2494536   -4.2494536   -3.3183573  0.010256197   -4.2494536   0.93109628   439061 
 1421000   0.62083672   -4.2508412   -4.2508412   -3.3195882 0.0096838231   -4.2508412   0.93125295   439061 
 1422000   0.62124256   -4.2520437   -4.2520437    -3.320182 0.0061678284   -4.2520437   0.93186171   439061 
 1423000   0.62050596   -4.2504712   -4.2504712   -3.3197144 0.0041075707   -4.2504712   0.93075683   439061 
 1424000   0.62025061   -4.2502187   -4.2502187   -3.3198449 0.0064257725   -4.2502187    0.9303738   439061 
 1425000   0.62016906   -4.2514895   -4.2514895    -3.321238 0.0027135503   -4.2514895   0.93025147   439061 
 1426000   0.62001228   -4.2521109   -4.2521109   -3.3220946 0.0032900549   -4.2521109   0.93001631   439061 
 1427000   0.62052546   -4.2521628   -4.2521628   -3.3213767 0.0070836131   -4.2521628   0.93078607   439061 
 1428000   0.62100483   -4.2533386   -4.2533386   -3.3218334 0.0073802321   -4.2533386   0.93150512   439061 
 1429000   0.62104446    -4.253346    -4.253346   -3.3217814  0.010656655    -4.253346   0.93156457   439061 
 1430000   0.62034746   -4.2529758   -4.2529758   -3.3224567  0.011754648   -4.2529758   0.93051907   439061 
 1431000   0.62090953   -4.2538677   -4.2538677   -3.3225056 0.0082244372   -4.2538677   0.93136218   439061 
 1432000   0.62051852   -4.2539333   -4.2539333   -3.3231576  0.015006381   -4.2539333   0.93077565   439061 
 1433000   0.62073805   -4.2543605   -4.2543605   -3.3232556   0.01384285   -4.2543605   0.93110495   439061 
 1434000   0.62001742   -4.2533502   -4.2533502   -3.3233262  0.013018558   -4.2533502   0.93002401   439061 
 1435000   0.61944763   -4.2529685   -4.2529685   -3.3237992 0.0095587259   -4.2529685   0.92916933   439061 
 1436000   0.62066474    -4.255905    -4.255905     -3.32491 0.0032640298    -4.255905   0.93099499   439061 
 1437000   0.62059196   -4.2555809   -4.2555809    -3.324695 0.0052372937   -4.2555809   0.93088581   439061 
 1438000   0.61852826   -4.2531759   -4.2531759   -3.3253856  0.010197568   -4.2531759   0.92779028   439061 
 1439000   0.61862112   -4.2540561   -4.2540561   -3.3261265 0.0079323403   -4.2540561   0.92792957   439061 
 1440000   0.61956108   -4.2561377   -4.2561377   -3.3267982 0.0035391989   -4.2561377    0.9293395   439061 
 1441000   0.61911908   -4.2554631   -4.2554631   -3.3267866 0.0066345661   -4.2554631    0.9286765   439061 
 1442000   0.61994714   -4.2557767   -4.2557767   -3.3258581  0.007257099   -4.2557767    0.9299186   439061 
 1443000   0.62052147   -4.2570951   -4.2570951    -3.326315  0.011586166   -4.2570951   0.93078008   439061 
 1444000     0.620758   -4.2580115   -4.2580115   -3.3268766  0.010772984   -4.2580115   0.93113488   439061 
 1445000   0.61936658   -4.2555824   -4.2555824   -3.3265347  0.013264872   -4.2555824   0.92904776   439061 
 1446000   0.62062068   -4.2581592   -4.2581592   -3.3272303   0.00796811   -4.2581592    0.9309289   439061 
 1447000   0.61815708   -4.2572333   -4.2572333   -3.3299998 0.0089444951   -4.2572333   0.92723351   439061 
 1448000   0.61827866    -4.256622    -4.256622   -3.3292061 0.0074753165    -4.256622   0.92741589   439061 
 1449000   0.61904523   -4.2582388   -4.2582388   -3.3296731 0.0076508734   -4.2582388   0.92856572   439061 
 1450000   0.61947916   -4.2591293   -4.2591293   -3.3299127 0.0075688915   -4.2591293   0.92921662   439061 
 1451000   0.61927619    -4.259236    -4.259236   -3.3303238  0.009233217    -4.259236   0.92891216   439061 
 1452000   0.61874627    -4.259917    -4.259917   -3.3317997 0.0024256267    -4.259917    0.9281173   439061 
 1453000   0.61878931   -4.2596924   -4.2596924   -3.3315106  0.006452893   -4.2596924   0.92818185   439061 
 1454000   0.61970424   -4.2610258   -4.2610258   -3.3314715 0.0049101233   -4.2610258   0.92955424   439061 
 1455000   0.61816108   -4.2595131   -4.2595131   -3.3322736 0.0080446539   -4.2595131   0.92723951   439061 
 1456000   0.61930798   -4.2611547   -4.2611547   -3.3321949  0.011208278   -4.2611547   0.92895985   439061 
 1457000   0.62002029   -4.2624747   -4.2624747   -3.3324464 0.0080438029   -4.2624747   0.93002832   439061 
 1458000   0.61930977   -4.2615937   -4.2615937   -3.3326312 0.0063568271   -4.2615937   0.92896254   439061 
 1459000   0.61932056   -4.2618536   -4.2618536   -3.3328749 0.0072829058   -4.2618536   0.92897873   439061 
 1460000    0.6193208   -4.2624288   -4.2624288   -3.3334498 0.0029860384   -4.2624288   0.92897908   439061 
 1461000   0.61750699   -4.2612649   -4.2612649   -3.3350065 0.0086739423   -4.2612649   0.92625837   439061 
 1462000   0.61786772   -4.2608728   -4.2608728   -3.3340734 0.0082703926   -4.2608728   0.92679947   439061 
 1463000   0.61833496   -4.2624042   -4.2624042   -3.3349039 0.0076504802   -4.2624042   0.92750033   439061 
 1464000   0.61921596   -4.2625659   -4.2625659    -3.333744 0.0070080457   -4.2625659   0.92882183   439061 
 1465000   0.61870464    -4.262996    -4.262996   -3.3349412 0.0043836597    -4.262996   0.92805485   439061 
 1466000   0.61794648   -4.2614675   -4.2614675   -3.3345499  0.012901152   -4.2614675    0.9269176   439061 
 1467000   0.61828085   -4.2622367   -4.2622367   -3.3348176 0.0074196647   -4.2622367   0.92741916   439061 
 1468000   0.61816202   -4.2619198   -4.2619198   -3.3346788 0.0095520629   -4.2619198   0.92724092   439061 
 1469000   0.61891176     -4.26184     -4.26184   -3.3334745  0.010624121     -4.26184   0.92836553   439061 
 1470000   0.61953662   -4.2626636   -4.2626636   -3.3333608 0.0091902295   -4.2626636   0.92930281   439061 
 1471000   0.62003565   -4.2649754   -4.2649754    -3.334924 0.0022325447   -4.2649754   0.93005136   439061 
 1472000   0.61805292   -4.2619065   -4.2619065   -3.3348293 0.0097279224   -4.2619065   0.92707727   439061 
 1473000   0.61861312   -4.2632888   -4.2632888   -3.3353713 0.0045723788   -4.2632888   0.92791757   439061 
 1474000   0.61838591   -4.2626242   -4.2626242   -3.3350474 0.0037832818   -4.2626242   0.92757675   439061 
 1475000   0.61782606   -4.2622855   -4.2622855   -3.3355485 0.0070145245   -4.2622855   0.92673698   439061 
 1476000   0.61820624   -4.2632943   -4.2632943    -3.335987 0.0074536689   -4.2632943   0.92730725   439061 
 1477000   0.61806047   -4.2637024   -4.2637024   -3.3366138 0.0060563969   -4.2637024    0.9270886   439061 
 1478000   0.61811068   -4.2644044   -4.2644044   -3.3372405 0.0091387476   -4.2644044   0.92716391   439061 
 1479000   0.61827021   -4.2646323   -4.2646323   -3.3372291  0.006689547   -4.2646323    0.9274032   439061 
 1480000   0.61779038   -4.2642829   -4.2642829   -3.3375995 0.0089935563   -4.2642829   0.92668346   439061 
 1481000   0.61886792   -4.2666836   -4.2666836   -3.3383838 0.0073663672   -4.2666836   0.92829977   439061 
 1482000   0.61871262   -4.2661219   -4.2661219   -3.3380551 0.0094389262   -4.2661219   0.92806682   439061 
 1483000   0.61740096    -4.265528    -4.265528   -3.3394287  0.004977478    -4.265528   0.92609933   439061 
 1484000   0.61732879   -4.2660214   -4.2660214   -3.3400303 0.0080384761   -4.2660214   0.92599108   439061 
 1485000    0.6183241   -4.2675716   -4.2675716   -3.3400876 0.0028415669   -4.2675716   0.92748404   439061 
 1486000   0.61847693   -4.2685239   -4.2685239   -3.3408106 0.0042306669   -4.2685239   0.92771328   439061 
 1487000   0.61760141    -4.266747    -4.266747    -3.340347  0.011973171    -4.266747       0.9264   439061 
 1488000   0.61799514   -4.2677712   -4.2677712   -3.3407806 0.0078360272   -4.2677712    0.9269906   439061 
 1489000   0.61862262   -4.2698542   -4.2698542   -3.3419224 0.0067815168   -4.2698542   0.92793182   439061 
 1490000   0.61882275   -4.2700702   -4.2700702   -3.3418382 0.0077209371   -4.2700702   0.92823201   439061 
 1491000   0.61855238   -4.2697424   -4.2697424   -3.3419159  0.008794334   -4.2697424   0.92782645   439061 
 1492000   0.61703815   -4.2678644   -4.2678644   -3.3423093  0.007516004   -4.2678644   0.92555512   439061 
 1493000   0.61666857   -4.2685277   -4.2685277   -3.3435269   0.00573748   -4.2685277   0.92500075   439061 
 1494000   0.61702915   -4.2683741   -4.2683741   -3.3428325  0.012344398   -4.2683741   0.92554162   439061 
 1495000   0.61757782   -4.2686636   -4.2686636   -3.3422989 0.0068254078   -4.2686636   0.92636462   439061 
 1496000   0.61696233   -4.2685345   -4.2685345   -3.3430931 0.0042253958   -4.2685345   0.92544139   439061 
 1497000   0.61761074   -4.2693637   -4.2693637   -3.3429497  0.005903716   -4.2693637   0.92641399   439061 
 1498000   0.61772232   -4.2694253   -4.2694253    -3.342844 0.0054195998   -4.2694253   0.92658137   439061 
 1499000   0.61736661   -4.2700301   -4.2700301   -3.3439823 0.0061319763   -4.2700301    0.9260478   439061 
 1500000   0.61866035   -4.2696434   -4.2696434    -3.341655 0.0067743712   -4.2696434   0.92798841   439061 
 1501000   0.61746467   -4.2680394   -4.2680394   -3.3418445 0.0088789934   -4.2680394    0.9261949   439061 
 1502000   0.61808573   -4.2696664   -4.2696664   -3.3425399 0.0065210475   -4.2696664   0.92712648   439061 
 1503000   0.61807031   -4.2699544   -4.2699544    -3.342851  0.001536465   -4.2699544   0.92710335   439061 
 1504000   0.61683561   -4.2691722   -4.2691722   -3.3439209 0.0086802472   -4.2691722   0.92525131   439061 
 1505000   0.61783635    -4.270545    -4.270545   -3.3437926 0.0069238888    -4.270545   0.92675242   439061 
 1506000   0.61877446   -4.2723206   -4.2723206   -3.3441611 0.0050358242   -4.2723206   0.92815958   439061 
 1507000    0.6173966   -4.2702299   -4.2702299   -3.3441371 0.0090133816   -4.2702299   0.92609279   439061 
 1508000   0.61598149   -4.2694852   -4.2694852    -3.345515 0.0067040059   -4.2694852   0.92397013   439061 
 1509000   0.61650019   -4.2710818   -4.2710818   -3.3463336 0.0092006344   -4.2710818   0.92474818   439061 
 1510000   0.61660674    -4.271025    -4.271025    -3.346117 0.0098344991    -4.271025   0.92490801   439061 
 1511000   0.61658167   -4.2718814   -4.2718814   -3.3470111 0.0058229509   -4.2718814    0.9248704   439061 
 1512000   0.61711149   -4.2726236   -4.2726236   -3.3469585  0.010296414   -4.2726236   0.92566513   439061 
 1513000   0.61680462   -4.2723591   -4.2723591   -3.3471543  0.010655275   -4.2723591   0.92520482   439061 
 1514000   0.61673539   -4.2726103   -4.2726103   -3.3475093 0.0095200682   -4.2726103   0.92510097   439061 
 1515000   0.61618409    -4.273232    -4.273232    -3.348958 0.0062561191    -4.273232   0.92427403   439061 
 1516000   0.61630488   -4.2724734   -4.2724734   -3.3480182 0.0079683119   -4.2724734   0.92445521   439061 
 1517000   0.61675783   -4.2732731   -4.2732731   -3.3481384 0.0049765198   -4.2732731   0.92513464   439061 
 1518000   0.61671811    -4.273768    -4.273768   -3.3486929 0.0073810106    -4.273768   0.92507505   439061 
 1519000   0.61631654   -4.2734906   -4.2734906   -3.3490179 0.0064103264   -4.2734906    0.9244727   439061 
 1520000   0.61706989   -4.2749589   -4.2749589   -3.3493562 0.0016287784   -4.2749589   0.92560272   439061 
 1521000   0.61708708   -4.2752863   -4.2752863   -3.3496578  0.003704234   -4.2752863   0.92562851   439061 
 1522000   0.61647139   -4.2751572   -4.2751572   -3.3504522  0.005238403   -4.2751572   0.92470498   439061 
 1523000   0.61727693   -4.2754019   -4.2754019   -3.3494886 0.0089708436   -4.2754019   0.92591328   439061 
 1524000   0.61666258   -4.2748761   -4.2748761   -3.3498843 0.0071796381   -4.2748761   0.92499177   439061 
 1525000   0.61628341   -4.2750242   -4.2750242   -3.3506012 0.0045201086   -4.2750242   0.92442302   439061 
 1526000   0.61553113   -4.2743576   -4.2743576    -3.351063 0.0054183612   -4.2743576    0.9232946   439061 
 1527000   0.61535989   -4.2749133   -4.2749133   -3.3518756 0.0085480877   -4.2749133   0.92303773   439061 
 1528000    0.6168607   -4.2760263   -4.2760263   -3.3507374 0.0062360679   -4.2760263   0.92528894   439061 
 1529000   0.61646714   -4.2754332   -4.2754332   -3.3507346 0.0072982395   -4.2754332    0.9246986   439061 
 1530000   0.61552945   -4.2743056   -4.2743056   -3.3510135 0.0093989465   -4.2743056   0.92329208   439061 
 1531000   0.61663557   -4.2758802   -4.2758802    -3.350929 0.0043024935   -4.2758802   0.92495125   439061 
 1532000   0.61464046   -4.2744606   -4.2744606    -3.352502 0.0096021158   -4.2744606   0.92195859   439061 
 1533000   0.61638198   -4.2768652   -4.2768652   -3.3522943 0.0034356247   -4.2768652   0.92457086   439061 
 1534000   0.61528896   -4.2764341   -4.2764341   -3.3535027 0.0034357312   -4.2764341   0.92293134   439061 
 1535000   0.61620304   -4.2776996   -4.2776996   -3.3533971 0.0042402258   -4.2776996   0.92430245   439061 
 1536000    0.6162069    -4.278015    -4.278015   -3.3537068 0.0075362471    -4.278015   0.92430824   439061 
 1537000   0.61588293   -4.2776287   -4.2776287   -3.3538064  0.011720609   -4.2776287   0.92382229   439061 
 1538000   0.61627424   -4.2784636   -4.2784636   -3.3540544 0.0082245241   -4.2784636   0.92440926   439061 
 1539000   0.61640766   -4.2790266   -4.2790266   -3.3544172  0.008747009   -4.2790266   0.92460938   439061 
 1540000    0.6156734   -4.2788058   -4.2788058   -3.3552979  0.011616154   -4.2788058   0.92350799   439061 
 1541000   0.61539824   -4.2774293   -4.2774293   -3.3543341  0.014067656   -4.2774293   0.92309525   439061 
 1542000   0.61618475   -4.2779688   -4.2779688   -3.3536938  0.012584875   -4.2779688   0.92427502   439061 
 1543000   0.61600453   -4.2788965   -4.2788965   -3.3548918 0.0060254455   -4.2788965   0.92400469   439061 
 1544000   0.61571817   -4.2778404   -4.2778404   -3.3542653  0.010582199   -4.2778404   0.92357516   439061 
 1545000   0.61621014   -4.2784801   -4.2784801    -3.354167  0.005484079   -4.2784801   0.92431311   439061 
 1546000   0.61540509   -4.2773339   -4.2773339   -3.3542284 0.0046956288   -4.2773339   0.92310554   439061 
 1547000   0.61556322   -4.2776657   -4.2776657    -3.354323 0.0058486687   -4.2776657   0.92334272   439061 
 1548000   0.61542412   -4.2771474   -4.2771474   -3.3540133 0.0017504235   -4.2771474   0.92313407   439061 
 1549000   0.61542032   -4.2762471   -4.2762471   -3.3531187 0.0081524211   -4.2762471   0.92312838   439061 
 1550000   0.61582044   -4.2764086   -4.2764086   -3.3526801 -0.00074614667   -4.2764086   0.92372856   439061 
 1551000   0.61565536   -4.2772002   -4.2772002   -3.3537193 0.0046167638   -4.2772002   0.92348094   439061 
 1552000   0.61675445    -4.278125    -4.278125   -3.3529954 0.0053511967    -4.278125   0.92512957   439061 
 1553000    0.6166355   -4.2784491   -4.2784491    -3.353498 0.0069666709   -4.2784491   0.92495114   439061 
 1554000   0.61535061   -4.2785763   -4.2785763   -3.3555525 -0.00015176583   -4.2785763   0.92302381   439061 
 1555000   0.61529523   -4.2785117   -4.2785117   -3.3555709 0.0070337739   -4.2785117   0.92294075   439061 
 1556000   0.61589076   -4.2805911   -4.2805911   -3.3567571 0.0056604768   -4.2805911   0.92383403   439061 
 1557000   0.61607072   -4.2804575   -4.2804575   -3.3563536  0.008256617   -4.2804575   0.92410398   439061 
 1558000   0.61534177   -4.2791733   -4.2791733   -3.3561627  0.012295477   -4.2791733   0.92301056   439061 
 1559000   0.61627887   -4.2815308   -4.2815308   -3.3571146 0.0091568109   -4.2815308    0.9244162   439061 
 1560000   0.61651427   -4.2816408   -4.2816408   -3.3568715 0.0095724633   -4.2816408    0.9247693   439061 
 1561000   0.61618182   -4.2810428   -4.2810428   -3.3567722  0.010108725   -4.2810428   0.92427063   439061 
 1562000   0.61504949   -4.2788767   -4.2788767   -3.3563046  0.010822857   -4.2788767   0.92257213   439061 
 1563000   0.61597541     -4.28101     -4.28101    -3.357049 0.0056839669     -4.28101   0.92396101   439061 
 1564000   0.61480345   -4.2797015   -4.2797015   -3.3574984 0.0022858691   -4.2797015   0.92220307   439061 
 1565000   0.61514277   -4.2798309   -4.2798309   -3.3571188 -0.0026889273   -4.2798309   0.92271206   439061 
 1566000   0.61461609   -4.2796188   -4.2796188   -3.3576967 6.9842389e-05   -4.2796188   0.92192204   439061 
 1567000   0.61444075   -4.2781173   -4.2781173   -3.3564583 0.0036888904   -4.2781173   0.92165903   439061 
 1568000    0.6150166   -4.2801875   -4.2801875   -3.3576647 0.0046919992   -4.2801875    0.9225228   439061 
 1569000   0.61567519   -4.2811145   -4.2811145   -3.3576039  0.003623042   -4.2811145   0.92351067   439061 
 1570000   0.61586624   -4.2816036   -4.2816036   -3.3578063 0.0098054148   -4.2816036   0.92379725   439061 
 1571000     0.615056   -4.2817946   -4.2817946   -3.3592127 0.0083858961   -4.2817946    0.9225819   439061 
 1572000   0.61430211   -4.2814637   -4.2814637   -3.3600126  0.013991294   -4.2814637   0.92145107   439061 
 1573000   0.61414297   -4.2829875   -4.2829875   -3.3617752  0.010117187   -4.2829875   0.92121236   439061 
 1574000   0.61554772   -4.2851855   -4.2851855    -3.361866 0.0080845982   -4.2851855   0.92331948   439061 
 1575000   0.61496984   -4.2838865   -4.2838865   -3.3614339  0.013094896   -4.2838865   0.92245266   439061 
 1576000   0.61557623   -4.2855805   -4.2855805   -3.3622182 0.0074455482   -4.2855805   0.92336225   439061 
 1577000   0.61582287   -4.2858274   -4.2858274   -3.3620952 0.0074459709   -4.2858274    0.9237322   439061 
 1578000   0.61520286   -4.2847856   -4.2847856   -3.3619834 0.0064042227   -4.2847856   0.92280218   439061 
 1579000   0.61548979   -4.2860873   -4.2860873   -3.3628547 0.0040244498   -4.2860873   0.92323258   439061 
 1580000   0.61322261   -4.2823336   -4.2823336   -3.3625018 0.0065414398   -4.2823336   0.91983182   439061 
 1581000   0.61500948   -4.2856589   -4.2856589   -3.3631468 0.0029434074   -4.2856589   0.92251212   439061 
 1582000   0.61376171   -4.2840651   -4.2840651   -3.3634246 0.0063111258   -4.2840651   0.92064047   439061 
 1583000   0.61384022   -4.2847202   -4.2847202    -3.363962 0.0019318794   -4.2847202   0.92075823   439061 
 1584000   0.61396568    -4.285282    -4.285282   -3.3643356 0.0028051738    -4.285282   0.92094643   439061 
 1585000   0.61283431   -4.2845746   -4.2845746   -3.3653253 0.0062244485   -4.2845746   0.91924937   439061 
 1586000   0.61331466   -4.2848117   -4.2848117   -3.3648419 0.0076241947   -4.2848117   0.91996989   439061 
 1587000   0.61535755   -4.2868635   -4.2868635   -3.3638293 0.0079650831   -4.2868635   0.92303422   439061 
 1588000   0.61557577   -4.2866814   -4.2866814   -3.3633198  0.010262689   -4.2866814   0.92336155   439061 
 1589000   0.61531029     -4.28695     -4.28695   -3.3639867  0.011794063     -4.28695   0.92296334   439061 
 1590000   0.61433468   -4.2867526   -4.2867526   -3.3652526 0.0075665785   -4.2867526   0.92149992   439061 
 1591000     0.614524   -4.2884498   -4.2884498   -3.3666659 0.0044056681   -4.2884498    0.9217839   439061 
 1592000   0.61390959   -4.2874443   -4.2874443    -3.366582 0.0037556189   -4.2874443   0.92086228   439061 
 1593000   0.61423906   -4.2880805   -4.2880805    -3.366724 0.0054266952   -4.2880805   0.92135649   439061 
 1594000   0.61350866   -4.2874457   -4.2874457   -3.3671849 0.0060953594   -4.2874457   0.92026089   439061 
 1595000   0.61423064   -4.2887062   -4.2887062   -3.3673624 0.0062505981   -4.2887062   0.92134386   439061 
 1596000   0.61295549   -4.2866941   -4.2866941   -3.3672629 0.0069421044   -4.2866941   0.91943114   439061 
 1597000   0.61392955   -4.2891353   -4.2891353   -3.3682431 0.0035844713   -4.2891353   0.92089222   439061 
 1598000   0.61333909   -4.2886872   -4.2886872   -3.3686807 0.0077424625   -4.2886872   0.92000654   439061 
 1599000   0.61459621    -4.291035    -4.291035   -3.3691428 0.0022085903    -4.291035   0.92189222   439061 
 1600000   0.61378736   -4.2896492   -4.2896492   -3.3689702 0.0080823781   -4.2896492   0.92067894   439061 
 1601000   0.61390189   -4.2899866   -4.2899866   -3.3691359 0.0089881024   -4.2899866   0.92085074   439061 
 1602000   0.61395209   -4.2899678   -4.2899678   -3.3690418  0.010372567   -4.2899678   0.92092603   439061 
 1603000    0.6135156   -4.2901965   -4.2901965   -3.3699252  0.011245144   -4.2901965   0.92027131   439061 
 1604000   0.61359847   -4.2906566   -4.2906566   -3.3702609 0.0081443641   -4.2906566   0.92039561   439061 
 1605000   0.61357953   -4.2913122   -4.2913122    -3.370945 0.0071761686   -4.2913122    0.9203672   439061 
 1606000   0.61251986   -4.2902025   -4.2902025   -3.3714248 0.0099070078   -4.2902025   0.91877769   439061 
 1607000   0.61285328   -4.2908668   -4.2908668    -3.371589  0.004414657   -4.2908668   0.91927782   439061 
 1608000    0.6129675    -4.290537    -4.290537   -3.3710878 0.0045443911    -4.290537   0.91944916   439061 
 1609000   0.61384883   -4.2906384   -4.2906384   -3.3698673 0.0079837004   -4.2906384   0.92077114   439061 
 1610000   0.61327921   -4.2894683   -4.2894683   -3.3695516  0.010634141   -4.2894683   0.91991672   439061 
 1611000   0.61434174   -4.2904986   -4.2904986   -3.3689881 0.0089744831   -4.2904986   0.92151051   439061 
 1612000   0.61343148   -4.2902161   -4.2902161   -3.3700709 0.0057213079   -4.2902161   0.92014513   439061 
 1613000    0.6123604   -4.2886802   -4.2886802   -3.3701417 0.0037785425   -4.2886802   0.91853851   439061 
 1614000   0.61326359   -4.2905514   -4.2905514   -3.3706581  0.001225491   -4.2905514   0.91989329   439061 
 1615000   0.61398824   -4.2910019   -4.2910019   -3.3700217 0.0058295423   -4.2910019   0.92098027   439061 
 1616000   0.61424224   -4.2908539   -4.2908539   -3.3694927 0.0092584019   -4.2908539   0.92136126   439061 
 1617000   0.61362107   -4.2901786   -4.2901786    -3.369749 0.0022840444   -4.2901786   0.92042951   439061 
 1618000   0.61254936   -4.2899536   -4.2899536   -3.3711317 -0.00029752944   -4.2899536   0.91882195   439061 
 1619000   0.61226674   -4.2910723   -4.2910723   -3.3726743 9.1436322e-05   -4.2910723   0.91839802   439061 
 1620000   0.61242195   -4.2909481   -4.2909481   -3.3723172 0.0060840292   -4.2909481   0.91863084   439061 
 1621000   0.61266899   -4.2916639   -4.2916639   -3.3726625 0.0040318015   -4.2916639    0.9190014   439061 
 1622000   0.61290903   -4.2919332   -4.2919332   -3.3725718  0.005094198   -4.2919332   0.91936145   439061 
 1623000   0.61468553   -4.2936095   -4.2936095   -3.3715833 0.0095858915   -4.2936095    0.9220262   439061 
 1624000   0.61317617   -4.2925686   -4.2925686   -3.3728065 0.0076255199   -4.2925686   0.91976216   439061 
 1625000   0.61217385   -4.2921617   -4.2921617    -3.373903  0.011494383   -4.2921617   0.91825868   439061 
 1626000   0.61198471   -4.2925127   -4.2925127   -3.3745377 0.0078245167   -4.2925127   0.91797498   439061 
 1627000   0.61221552   -4.2928686   -4.2928686   -3.3745474   0.00844975   -4.2928686   0.91832119   439061 
 1628000   0.61250777   -4.2931926   -4.2931926    -3.374433 0.0075163481   -4.2931926   0.91875956   439061 
 1629000   0.61287659   -4.2929965   -4.2929965   -3.3736837 0.0081588176   -4.2929965    0.9193128   439061 
 1630000   0.61273427   -4.2941602   -4.2941602   -3.3750609 0.0062969315   -4.2941602   0.91909932   439061 
 1631000   0.61187747   -4.2934143   -4.2934143   -3.3756002 0.0031580444   -4.2934143   0.91781411   439061 
 1632000     0.612063   -4.2934678   -4.2934678   -3.3753754 0.0051893387   -4.2934678   0.91809241   439061 
 1633000   0.61269542   -4.2937325   -4.2937325   -3.3746915 0.0071208228   -4.2937325   0.91904104   439061 
 1634000   0.61171561   -4.2931456   -4.2931456   -3.3755743  0.011698567   -4.2931456   0.91757133   439061 
 1635000   0.61310799   -4.2956859   -4.2956859    -3.376026  0.002686879   -4.2956859   0.91965988   439061 
 1636000   0.61202535   -4.2933622   -4.2933622   -3.3753263 0.0037815234   -4.2933622   0.91803594   439061 
 1637000   0.61203069   -4.2940397   -4.2940397   -3.3759958 0.0052902352   -4.2940397   0.91804394   439061 
 1638000   0.61224535   -4.2951441   -4.2951441   -3.3767781 0.0069026046   -4.2951441   0.91836594   439061 
 1639000   0.61217253   -4.2961538   -4.2961538   -3.3778971 0.0042467563   -4.2961538   0.91825671   439061 
 1640000   0.61111979   -4.2944723   -4.2944723   -3.3777947 0.0098602803   -4.2944723    0.9166776   439061 
 1641000   0.61188214   -4.2957251   -4.2957251    -3.377904 0.0082252261   -4.2957251   0.91782112   439061 
 1642000   0.61221867   -4.2962165   -4.2962165   -3.3778906 0.0097375111   -4.2962165   0.91832591   439061 
 1643000   0.61185672   -4.2959899   -4.2959899   -3.3782069  0.010187389   -4.2959899   0.91778298   439061 
 1644000   0.61330206   -4.2981392   -4.2981392   -3.3781882 0.0089397972   -4.2981392     0.919951   439061 
 1645000   0.61330705   -4.2979857   -4.2979857   -3.3780272 0.0050628142   -4.2979857   0.91995848   439061 
 1646000   0.61251607    -4.296993    -4.296993    -3.378221 0.0081716837    -4.296993   0.91877201   439061 
 1647000   0.61148158   -4.2947629   -4.2947629   -3.3775426  0.010453433   -4.2947629   0.91722028   439061 
 1648000   0.61181939   -4.2955066   -4.2955066   -3.3777796 0.0093589034   -4.2955066     0.917727   439061 
 1649000   0.61244939   -4.2954911   -4.2954911   -3.3768191  0.010874712   -4.2954911   0.91867199   439061 
 1650000   0.61246731   -4.2952736   -4.2952736   -3.3765748  0.009522464   -4.2952736   0.91869887   439061 
 1651000   0.61298526   -4.2966032   -4.2966032   -3.3771274  0.001678062   -4.2966032    0.9194758   439061 
 1652000   0.61067963   -4.2943224   -4.2943224   -3.3783051 0.0035024978   -4.2943224   0.91601736   439061 
 1653000   0.61125799   -4.2949763   -4.2949763   -3.3780914 0.0049006265   -4.2949763   0.91688489   439061 
 1654000   0.61111971   -4.2948216   -4.2948216   -3.3781441  0.004563417   -4.2948216   0.91667747   439061 
 1655000   0.61160161   -4.2959312   -4.2959312   -3.3785309 0.0078647423   -4.2959312   0.91740032   439061 
 1656000    0.6119824   -4.2962735   -4.2962735    -3.378302 0.0086910575   -4.2962735   0.91797151   439061 
 1657000    0.6117373   -4.2962911   -4.2962911   -3.3786873 0.0081232685   -4.2962911   0.91760387   439061 
 1658000   0.61271189   -4.2989025   -4.2989025   -3.3798368 0.0074053219   -4.2989025   0.91906574   439061 
 1659000   0.61318351   -4.2989121   -4.2989121   -3.3791389   0.00922439   -4.2989121   0.91977317   439061 
 1660000   0.61327621    -4.299298    -4.299298   -3.3793858 0.0092628213    -4.299298   0.91991221   439061 
 1661000   0.61247499   -4.2991727   -4.2991727   -3.3804623 0.0086937173   -4.2991727   0.91871039   439061 
 1662000   0.61242361   -4.2990496   -4.2990496   -3.3804162 0.0085709964   -4.2990496   0.91863332   439061 
 1663000   0.61088303   -4.2979921   -4.2979921   -3.3816697 0.0042985144   -4.2979921   0.91632245   439061 
 1664000   0.61184424    -4.299542    -4.299542   -3.3817778 0.0028494202    -4.299542   0.91776427   439061 
 1665000    0.6111922   -4.2993823   -4.2993823   -3.3825961 0.0035759381   -4.2993823   0.91678622   439061 
 1666000   0.61138773   -4.2995694   -4.2995694   -3.3824899 0.0089050292   -4.2995694    0.9170795   439061 
 1667000   0.61048962   -4.2982377   -4.2982377   -3.3825053 0.0053528204   -4.2982377   0.91573234   439061 
 1668000   0.61060912   -4.3000742   -4.3000742   -3.3841626 0.0032182483   -4.3000742   0.91591159   439061 
 1669000   0.61058863   -4.2991657   -4.2991657   -3.3832848 0.0048979002   -4.2991657   0.91588086   439061 
 1670000   0.61208982   -4.3014103   -4.3014103   -3.3832777 0.0030166343   -4.3014103   0.91813263   439061 
 1671000   0.61234323   -4.3011074   -4.3011074   -3.3825947 0.0087600884   -4.3011074   0.91851275   439061 
 1672000   0.61086473   -4.3005588   -4.3005588   -3.3842638  0.007826109   -4.3005588   0.91629501   439061 
 1673000   0.61179526   -4.3016801   -4.3016801   -3.3839893 0.0091392356   -4.3016801   0.91769079   439061 
 1674000    0.6119294   -4.3019099   -4.3019099   -3.3840179 0.0067835049   -4.3019099   0.91789201   439061 
 1675000   0.61223454   -4.3022712   -4.3022712   -3.3839214 0.0079810103   -4.3022712   0.91834972   439061 
 1676000   0.61219117   -4.3019579   -4.3019579   -3.3836733 0.0070938587   -4.3019579   0.91828467   439061 
 1677000   0.61164529   -4.3021932   -4.3021932   -3.3847273 0.0090764119   -4.3021932   0.91746585   439061 
 1678000   0.61145347   -4.3017757   -4.3017757   -3.3845976 0.0087748056   -4.3017757   0.91717812   439061 
 1679000   0.61098372   -4.3016201   -4.3016201   -3.3851466 0.0068379049   -4.3016201   0.91647349   439061 
 1680000   0.61096406   -4.3021791   -4.3021791   -3.3857351 0.0056978796   -4.3021791     0.916444   439061 
 1681000   0.61136303   -4.3015116   -4.3015116   -3.3844692 0.0057416259   -4.3015116   0.91704246   439061 
 1682000   0.61125792   -4.3017355   -4.3017355   -3.3848507 0.0059465067   -4.3017355   0.91688479   439061 
 1683000   0.61075731   -4.3016695   -4.3016695   -3.3855357 0.0013294456   -4.3016695   0.91613387   439061 
 1684000   0.61044197   -4.3020056   -4.3020056   -3.3863447 0.0013076138   -4.3020056   0.91566087   439061 
 1685000   0.61068633   -4.3016893   -4.3016893   -3.3856619 0.0041874108   -4.3016893   0.91602741   439061 
 1686000   0.61130108   -4.3021662   -4.3021662   -3.3852167 0.0055545539   -4.3021662   0.91694953   439061 
 1687000   0.61024436   -4.3007753   -4.3007753   -3.3854109 0.0061754799   -4.3007753   0.91536446   439061 
 1688000   0.61088387   -4.3016326   -4.3016326   -3.3853089 0.0040002513   -4.3016326   0.91632372   439061 
 1689000   0.61185841   -4.3028407   -4.3028407   -3.3850552 0.00062325625   -4.3028407   0.91778553   439061 
 1690000   0.61067278    -4.301528    -4.301528    -3.385521 0.0079004321    -4.301528   0.91600708   439061 
 1691000   0.61006392   -4.3015682   -4.3015682   -3.3864744  0.010516614   -4.3015682    0.9150938   439061 
 1692000   0.61129219   -4.3034972   -4.3034972    -3.386561  0.004261686   -4.3034972    0.9169362   439061 
 1693000   0.61051788   -4.3027062   -4.3027062   -3.3869315 0.0072359315   -4.3027062   0.91577474   439061 
 1694000   0.61136179   -4.3034907   -4.3034907   -3.3864501 0.0099267166   -4.3034907   0.91704059   439061 
 1695000   0.61204251   -4.3047532   -4.3047532   -3.3866916  0.010295966   -4.3047532   0.91806167   439061 
 1696000   0.61161687   -4.3031075   -4.3031075   -3.3856842  0.010819727   -4.3031075   0.91742321   439061 
 1697000   0.61185494   -4.3040274   -4.3040274   -3.3862471 0.0047862152   -4.3040274   0.91778032   439061 
 1698000   0.61111203   -4.3014707   -4.3014707   -3.3848047 0.0095989086   -4.3014707   0.91666595   439061 
 1699000   0.61071127    -4.302729    -4.302729   -3.3866642 0.0081095144    -4.302729   0.91606482   439061 
 1700000    0.6098807   -4.3010758   -4.3010758   -3.3862568 0.0063045692   -4.3010758   0.91481897   439061 
 1701000   0.60956244   -4.3019204   -4.3019204   -3.3875788 0.0024685926   -4.3019204   0.91434158   439061 
 1702000   0.60972888   -4.3014739   -4.3014739   -3.3868827 0.0018649821   -4.3014739   0.91459124   439061 
 1703000   0.60948291   -4.3010849   -4.3010849   -3.3868626 0.0030015568   -4.3010849   0.91422228   439061 
 1704000   0.61109405   -4.3029767   -4.3029767   -3.3863377 0.0021217397   -4.3029767   0.91663898   439061 
 1705000   0.60995949   -4.3018686   -4.3018686   -3.3869314 0.0034302758   -4.3018686   0.91493715   439061 
 1706000   0.61179198   -4.3044509   -4.3044509    -3.386765 -0.0017660172   -4.3044509   0.91768588   439061 
 1707000   0.61061272   -4.3043152   -4.3043152   -3.3883982  0.002442917   -4.3043152   0.91591699   439061 
 1708000   0.61060297     -4.30386     -4.30386   -3.3879576 0.0051556252     -4.30386   0.91590237   439061 
 1709000   0.61236211   -4.3073378   -4.3073378   -3.3887967 0.0084098451   -4.3073378   0.91854107   439061 
 1710000   0.61198354   -4.3068375   -4.3068375   -3.3888643 0.0093556402   -4.3068375   0.91797321   439061 
 1711000   0.61107424   -4.3069949   -4.3069949   -3.3903856  0.010672766   -4.3069949   0.91660927   439061 
 1712000   0.61047374   -4.3060195   -4.3060195    -3.390311  0.013378018   -4.3060195   0.91570852   439061 
 1713000   0.60957389   -4.3052057   -4.3052057    -3.390847  0.014531703   -4.3052057   0.91435876   439061 
 1714000   0.61073851   -4.3062661   -4.3062661   -3.3901604  0.010843382   -4.3062661   0.91610568   439061 
 1715000   0.61123624   -4.3064945   -4.3064945   -3.3896423 0.0095193067   -4.3064945   0.91685226   439061 
 1716000   0.60976286   -4.3064068   -4.3064068   -3.3917646 0.0044988383   -4.3064068    0.9146422   439061 
 1717000   0.60983155   -4.3060883   -4.3060883    -3.391343 0.0031942078   -4.3060883   0.91474525   439061 
 1718000   0.61114289   -4.3064976   -4.3064976   -3.3897853 -0.00063442114   -4.3064976   0.91671224   439061 
 1719000   0.61034604   -4.3048328   -4.3048328   -3.3893158 0.0028290061   -4.3048328   0.91551698   439061 
 1720000   0.61000208   -4.3040893   -4.3040893   -3.3890883 0.0061757069   -4.3040893   0.91500104   439061 
 1721000    0.6097175   -4.3033299   -4.3033299   -3.3887557 0.0069860576   -4.3033299   0.91457417   439061 
 1722000   0.61008498   -4.3042178   -4.3042178   -3.3890924 0.0023698739   -4.3042178   0.91512539   439061 
 1723000    0.6099042   -4.3038336   -4.3038336   -3.3889794 0.00094577662   -4.3038336   0.91485422   439061 
 1724000   0.61012761   -4.3045241   -4.3045241   -3.3893347 0.0033033229   -4.3045241   0.91518932   439061 
 1725000    0.6099724   -4.3048151   -4.3048151   -3.3898586 0.0064117671   -4.3048151   0.91495651   439061 
 1726000   0.61000817     -4.30428     -4.30428   -3.3892699    0.0104081     -4.30428   0.91501016   439061 
 1727000   0.61081584   -4.3049782   -4.3049782   -3.3887565 0.0073071292   -4.3049782   0.91622167   439061 
 1728000   0.61144729   -4.3070117   -4.3070117   -3.3898428 0.0049196271   -4.3070117   0.91716885   439061 
 1729000   0.61132502   -4.3066334   -4.3066334   -3.3896479  0.010588196   -4.3066334   0.91698544   439061 
 1730000   0.61191233   -4.3078361   -4.3078361   -3.3899697 0.0093962147   -4.3078361    0.9178664   439061 
 1731000   0.60999431   -4.3049643   -4.3049643   -3.3899749  0.010699536   -4.3049643   0.91498938   439061 
 1732000    0.6105816    -4.307923    -4.307923   -3.3920527 0.0024626919    -4.307923   0.91587031   439061 
 1733000     0.609595    -4.306673    -4.306673   -3.3922826 0.0022898486    -4.306673   0.91439041   439061 
 1734000   0.61010558    -4.307341    -4.307341   -3.3921847 0.0026061651    -4.307341   0.91515628   439061 
 1735000    0.6104759   -4.3080796   -4.3080796   -3.3923679 0.0027429995   -4.3080796   0.91571176   439061 
 1736000   0.61026095   -4.3084337   -4.3084337   -3.3930444 0.0011761266   -4.3084337   0.91538934   439061 
 1737000   0.61011277   -4.3074794   -4.3074794   -3.3923123 0.0023878154   -4.3074794   0.91516708   439061 
 1738000   0.60837797   -4.3048055   -4.3048055   -3.3922406 0.0078134686   -4.3048055   0.91256487   439061 
 1739000   0.60939299   -4.3072203   -4.3072203   -3.3931329 0.0065133139   -4.3072203    0.9140874   439061 
 1740000   0.60977768   -4.3079882   -4.3079882   -3.3933238  0.010804086   -4.3079882   0.91466444   439061 
 1741000   0.61060147   -4.3083866   -4.3083866   -3.3924865 0.0079391241   -4.3083866   0.91590012   439061 
 1742000   0.61041775   -4.3089393   -4.3089393   -3.3933148 0.0070460892   -4.3089393   0.91562454   439061 
 1743000   0.61068149   -4.3095811   -4.3095811   -3.3935609 0.0038219766   -4.3095811   0.91602015   439061 
 1744000   0.60994537   -4.3098139   -4.3098139    -3.394898 0.0074843669   -4.3098139   0.91491597   439061 
 1745000   0.60977367   -4.3097214   -4.3097214    -3.395063 0.0053810899   -4.3097214   0.91465842   439061 
 1746000   0.60967965   -4.3094607   -4.3094607   -3.3949433 0.0083219027   -4.3094607   0.91451739   439061 
 1747000   0.61075966   -4.3113237   -4.3113237   -3.3951863 0.0036524329   -4.3113237    0.9161374   439061 
 1748000   0.60850172   -4.3086163   -4.3086163   -3.3958657 0.0060412325   -4.3086163   0.91275051   439061 
 1749000    0.6095421   -4.3100037   -4.3100037   -3.3956926 0.0099196727   -4.3100037   0.91431107   439061 
 1750000   0.61049597   -4.3106681   -4.3106681   -3.3949263 0.0048079375   -4.3106681   0.91574188   439061 
 1751000   0.60829357    -4.308323    -4.308323   -3.3958847  0.011244978    -4.308323   0.91243828   439061 
 1752000   0.60933459   -4.3101517   -4.3101517   -3.3961519 0.0046937888   -4.3101517    0.9139998   439061 
 1753000   0.60929374   -4.3097552   -4.3097552   -3.3958167  0.010852017   -4.3097552   0.91393853   439061 
 1754000   0.61027825   -4.3114291   -4.3114291   -3.3960138 0.0023191644   -4.3114291   0.91541529   439061 
 1755000   0.60939755    -4.311066    -4.311066   -3.3969718  0.003888157    -4.311066   0.91409424   439061 
 1756000   0.60891434    -4.310047    -4.310047   -3.3966776 0.0034599501    -4.310047   0.91336942   439061 
 1757000   0.60936895   -4.3107349   -4.3107349   -3.3966836 0.0078969786   -4.3107349   0.91405134   439061 
 1758000   0.60917412   -4.3106521   -4.3106521    -3.396893 0.0084137005   -4.3106521    0.9137591   439061 
 1759000   0.60864236   -4.3115474   -4.3115474   -3.3985859 0.0076784228   -4.3115474   0.91296146   439061 
 1760000   0.60935004    -4.313459    -4.313459   -3.3994361 0.00097506407    -4.313459   0.91402298   439061 
 1761000   0.60861327   -4.3121478   -4.3121478     -3.39923 0.0027315116   -4.3121478   0.91291783   439061 
 1762000   0.60859473   -4.3131422   -4.3131422   -3.4002522 0.0076307371   -4.3131422   0.91289002   439061 
 1763000   0.60923075    -4.314024    -4.314024     -3.40018 0.0099407625    -4.314024   0.91384404   439061 
 1764000   0.60880503   -4.3133536   -4.3133536   -3.4001481  0.012297181   -4.3133536   0.91320546   439061 
 1765000   0.60909921   -4.3136862   -4.3136862   -3.4000395  0.010890492   -4.3136862   0.91364674   439061 
 1766000    0.6086565   -4.3125679   -4.3125679   -3.3995852  0.013356899   -4.3125679   0.91298267   439061 
 1767000   0.60960961   -4.3146412   -4.3146412   -3.4002288  0.013024061   -4.3146412   0.91441233   439061 
 1768000   0.60947858   -4.3143346   -4.3143346   -3.4001188  0.011820049   -4.3143346   0.91421578   439061 
 1769000   0.60833474   -4.3127127   -4.3127127   -3.4002127  0.011710684   -4.3127127   0.91250003   439061 
 1770000   0.60772142   -4.3126161   -4.3126161   -3.4010361   0.00131158   -4.3126161   0.91158005   439061 
 1771000   0.60800022   -4.3132693   -4.3132693    -3.401271 0.00066605937   -4.3132693   0.91199826   439061 
 1772000   0.60823834    -4.313687    -4.313687   -3.4013316 -0.00019217958    -4.313687   0.91235543   439061 
 1773000   0.60946462   -4.3136457   -4.3136457   -3.3994509 0.0070876997   -4.3136457   0.91419485   439061 
 1774000   0.60879391   -4.3117567   -4.3117567    -3.398568  0.012365741   -4.3117567   0.91318878   439061 
 1775000   0.60950636   -4.3134279   -4.3134279   -3.3991705 0.0074353481   -4.3134279   0.91425746   439061 
 1776000   0.60961837   -4.3148832   -4.3148832   -3.4004577 0.0042893424   -4.3148832   0.91442548   439061 
 1777000   0.60888419   -4.3141291   -4.3141291   -3.4008049 0.0009953968   -4.3141291   0.91332421   439061 
 1778000   0.60877698   -4.3138316   -4.3138316   -3.4006682 0.0059954317   -4.3138316   0.91316339   439061 
 1779000   0.60877454   -4.3135581   -4.3135581   -3.4003984 0.0048774212   -4.3135581   0.91315973   439061 
 1780000   0.60843203   -4.3135176   -4.3135176   -3.4008716 0.0055781645   -4.3135176   0.91264597   439061 
 1781000    0.6075381   -4.3114068   -4.3114068   -3.4001017 0.0067402601   -4.3114068   0.91130507   439061 
 1782000   0.60764465   -4.3118545   -4.3118545   -3.4003896 0.0055170573   -4.3118545    0.9114649   439061 
 1783000   0.61069147   -4.3149356   -4.3149356   -3.3989005 0.0033173485   -4.3149356   0.91603511   439061 
 1784000   0.60924883   -4.3140586   -4.3140586   -3.4001874 0.0070274563   -4.3140586   0.91387117   439061 
 1785000   0.60965206    -4.315027    -4.315027    -3.400551 0.0039994809    -4.315027   0.91447601   439061 
 1786000   0.60771949   -4.3123662   -4.3123662    -3.400789 0.0026550309   -4.3123662   0.91157716   439061 
 1787000   0.60704694   -4.3116742   -4.3116742   -3.4011058 0.0092246682   -4.3116742   0.91056833   439061 
 1788000   0.60806962   -4.3135084   -4.3135084   -3.4014061 0.0040781897   -4.3135084   0.91210236   439061 
 1789000   0.60911435   -4.3148234   -4.3148234   -3.4011539 0.0053621038   -4.3148234   0.91366945   439061 
 1790000   0.60884135   -4.3141745   -4.3141745   -3.4009146 0.0079535942   -4.3141745   0.91325995   439061 
 1791000   0.60809927   -4.3145497   -4.3145497   -3.4024028 0.0048155816   -4.3145497   0.91214682   439061 
 1792000   0.60814221   -4.3151289   -4.3151289   -3.4029177 0.0030406075   -4.3151289   0.91221124   439061 
 1793000   0.60947587   -4.3171044   -4.3171044   -3.4028927 0.0040655828   -4.3171044   0.91421173   439061 
 1794000   0.61016015   -4.3172543   -4.3172543   -3.4020162 0.0045262113   -4.3172543   0.91523813   439061 
 1795000   0.60944649   -4.3159143   -4.3159143   -3.4017466  0.012801253   -4.3159143   0.91416765   439061 
 1796000    0.6094798   -4.3167103   -4.3167103   -3.4024927 0.0062301299   -4.3167103   0.91421762   439061 
 1797000   0.60871951   -4.3154476   -4.3154476   -3.4023704  0.008899858   -4.3154476   0.91307718   439061 
 1798000   0.60952789   -4.3164958   -4.3164958   -3.4022061 0.0039841909   -4.3164958   0.91428975   439061 
 1799000   0.60794163   -4.3155512   -4.3155512   -3.4036409  0.006821732   -4.3155512   0.91191037   439061 
 1800000   0.60835337   -4.3162982   -4.3162982   -3.4037702 0.0059606882   -4.3162982   0.91252798   439061 
 1801000   0.60927221   -4.3159662   -4.3159662     -3.40206 0.00034931999   -4.3159662   0.91390623   439061 
 1802000   0.60776061   -4.3135883   -4.3135883   -3.4019494 0.0035789083   -4.3135883   0.91163884   439061 
 1803000   0.60796135   -4.3138488   -4.3138488   -3.4019089  0.003311714   -4.3138488   0.91193994   439061 
 1804000   0.60875889   -4.3145071   -4.3145071   -3.4013709  0.004940003   -4.3145071   0.91313625   439061 
 1805000   0.60827827   -4.3138784   -4.3138784    -3.401463 0.0039646889   -4.3138784   0.91241532   439061 
 1806000   0.60745399   -4.3122813   -4.3122813   -3.4011024 0.0041636938   -4.3122813   0.91117891   439061 
 1807000   0.60904469   -4.3146343   -4.3146343   -3.4010693 0.0041799374   -4.3146343   0.91356495   439061 
 1808000   0.60922921   -4.3157094   -4.3157094   -3.4018677 0.0039326666   -4.3157094   0.91384173   439061 
 1809000   0.60883199   -4.3152153   -4.3152153   -3.4019694 0.0043878412   -4.3152153    0.9132459   439061 
 1810000   0.60778618   -4.3135259   -4.3135259   -3.4018487 0.0066690615   -4.3135259   0.91167719   439061 
 1811000   0.60838191   -4.3143964   -4.3143964   -3.4018256 0.0088433037   -4.3143964   0.91257078   439061 
 1812000   0.60748677   -4.3146468   -4.3146468   -3.4034187 0.0073672061   -4.3146468   0.91122808   439061 
 1813000   0.60749968   -4.3148954   -4.3148954    -3.403648  0.010398421   -4.3148954   0.91124745   439061 
 1814000   0.60770691   -4.3164246   -4.3164246   -3.4048663 0.0044286632   -4.3164246   0.91155829   439061 
 1815000   0.60777033   -4.3165753   -4.3165753   -3.4049219 0.0072906048   -4.3165753   0.91165342   439061 
 1816000   0.60803461   -4.3171771   -4.3171771   -3.4051273 0.0074893823   -4.3171771   0.91204983   439061 
 1817000   0.60869491   -4.3183053   -4.3183053    -3.405265 0.0090666618   -4.3183053   0.91304028   439061 
 1818000   0.60890756   -4.3189903   -4.3189903   -3.4056311 0.0087489008   -4.3189903   0.91335926   439061 
 1819000   0.60875382   -4.3177002   -4.3177002   -3.4045715   0.01198472   -4.3177002   0.91312865   439061 
 1820000   0.60862306   -4.3181784   -4.3181784   -3.4052459 0.0063071241   -4.3181784   0.91293251   439061 
 1821000   0.60830829   -4.3178623   -4.3178623   -3.4054019 0.0066172501   -4.3178623   0.91246035   439061 
 1822000   0.60799409   -4.3182732   -4.3182732   -3.4062841 0.0024790406   -4.3182732   0.91198906   439061 
 1823000   0.60746884   -4.3178188   -4.3178188   -3.4066176  0.003638671   -4.3178188   0.91120118   439061 
 1824000   0.60749664   -4.3186567   -4.3186567   -3.4074138 0.00026916642   -4.3186567   0.91124289   439061 
 1825000    0.6072379   -4.3174638   -4.3174638    -3.406609 0.0024153483   -4.3174638   0.91085477   439061 
 1826000   0.60715748   -4.3180464   -4.3180464   -3.4073122 0.0083302177   -4.3180464   0.91073415   439061 
 1827000    0.6088078   -4.3197445   -4.3197445   -3.4065349 0.0031045861   -4.3197445   0.91320962   439061 
 1828000   0.60797427    -4.318498    -4.318498   -3.4065387 0.0061121797    -4.318498   0.91195932   439061 
 1829000   0.60931867   -4.3206665   -4.3206665   -3.4066906 0.0050752505   -4.3206665   0.91397593   439061 
 1830000   0.60818414   -4.3195516   -4.3195516   -3.4072775 0.0077845706   -4.3195516   0.91227414   439061 
 1831000   0.60815022   -4.3200673   -4.3200673   -3.4078441  0.009919581   -4.3200673   0.91222325   439061 
 1832000   0.60817776   -4.3195875   -4.3195875   -3.4073229 0.0053878848   -4.3195875   0.91226457   439061 
 1833000   0.60898479   -4.3204478   -4.3204478   -3.4069727 0.0049260615   -4.3204478    0.9134751   439061 
 1834000   0.60813975   -4.3197604   -4.3197604   -3.4075529 0.0081820061   -4.3197604   0.91220755   439061 
 1835000   0.60888817   -4.3202251   -4.3202251   -3.4068949 0.0077580155   -4.3202251   0.91333017   439061 
 1836000   0.60770187   -4.3184527   -4.3184527   -3.4069019  0.007738112   -4.3184527   0.91155073   439061 
 1837000   0.60765674   -4.3189121   -4.3189121   -3.4074291 0.0031899091   -4.3189121   0.91148303   439061 
 1838000   0.60840609   -4.3197619   -4.3197619   -3.4071548 0.0055587784   -4.3197619   0.91260705   439061 
 1839000   0.60631808   -4.3170839   -4.3170839   -3.4076089 0.0037577286   -4.3170839   0.90947505   439061 
 1840000   0.60713897   -4.3187179   -4.3187179   -3.4080115 0.0013859308   -4.3187179   0.91070638   439061 
 1841000   0.60778702   -4.3190873   -4.3190873   -3.4074089 0.0010056566   -4.3190873   0.91167845   439061 
 1842000   0.60748135   -4.3192242   -4.3192242   -3.4080042 0.0012347806   -4.3192242   0.91121995   439061 
 1843000    0.6082528   -4.3201949   -4.3201949   -3.4078178 0.0037899444   -4.3201949   0.91237713   439061 
 1844000   0.60843347   -4.3199124   -4.3199124   -3.4072643 0.0071829205   -4.3199124   0.91264813   439061 
 1845000   0.60694495   -4.3182395   -4.3182395   -3.4078242 0.0068060821   -4.3182395   0.91041535   439061 
 1846000   0.60721323   -4.3194836   -4.3194836   -3.4086658 0.0059666853   -4.3194836   0.91081777   439061 
 1847000   0.60879047    -4.322576    -4.322576   -3.4093924 0.00038558207    -4.322576   0.91318363   439061 
 1848000   0.60760336   -4.3215252   -4.3215252   -3.4101222 0.0039629028   -4.3215252   0.91140296   439061 
 1849000   0.60747669   -4.3205242   -4.3205242   -3.4093113 0.0077766597   -4.3205242   0.91121297   439061 
 1850000   0.60824172   -4.3215274   -4.3215274   -3.4091669 0.0088906285   -4.3215274    0.9123605   439061 
 1851000   0.60770766   -4.3209213   -4.3209213   -3.4093619 0.0067255082   -4.3209213   0.91155941   439061 
 1852000   0.60713147   -4.3202238   -4.3202238   -3.4095287 0.0080532335   -4.3202238   0.91069513   439061 
 1853000    0.6070352    -4.320473    -4.320473   -3.4099222 0.0056464631    -4.320473   0.91055073   439061 
 1854000    0.6074002    -4.321301    -4.321301   -3.4102028 0.0077703061    -4.321301   0.91109823   439061 
 1855000   0.60773656   -4.3217094   -4.3217094   -3.4101066 0.0056306237   -4.3217094   0.91160276   439061 
 1856000   0.60733001   -4.3216452   -4.3216452   -3.4106523 4.8035222e-05   -4.3216452   0.91099293   439061 
 1857000   0.60837036    -4.322814    -4.322814   -3.4102605 0.0030507949    -4.322814   0.91255346   439061 
 1858000    0.6063047   -4.3196499   -4.3196499   -3.4101949  0.010118578   -4.3196499   0.90945497   439061 
 1859000   0.60719913   -4.3212514   -4.3212514   -3.4104548 0.0058443269   -4.3212514   0.91079662   439061 
 1860000   0.60660346   -4.3210903   -4.3210903   -3.4111871 0.0095622501   -4.3210903   0.90990312   439061 
 1861000   0.60627595   -4.3211726   -4.3211726   -3.4117608 0.0046424461   -4.3211726   0.90941185   439061 
 1862000   0.60724593   -4.3221524   -4.3221524   -3.4112856 0.0033044757   -4.3221524   0.91086681   439061 
 1863000   0.60667754   -4.3215842   -4.3215842     -3.41157 0.0091885873   -4.3215842   0.91001424   439061 
 1864000   0.60788591    -4.322644    -4.322644   -3.4108172  0.011222003    -4.322644   0.91182679   439061 
 1865000   0.60846986    -4.323339    -4.323339   -3.4106363 0.0091202455    -4.323339   0.91270271   439061 
 1866000   0.60617686   -4.3213368   -4.3213368   -3.4120736  0.010111919   -4.3213368   0.90926322   439061 
 1867000   0.60711485    -4.322099    -4.322099   -3.4114288 0.0097241636    -4.322099    0.9106702   439061 
 1868000   0.60734092   -4.3217818   -4.3217818   -3.4107725 0.0063473718   -4.3217818    0.9110093   439061 
 1869000   0.60727989   -4.3220179   -4.3220179   -3.4111002  0.006221784   -4.3220179   0.91091776   439061 
 1870000   0.60771873   -4.3220741   -4.3220741   -3.4104981 0.0067925258   -4.3220741   0.91157603   439061 
 1871000   0.60667343   -4.3207052   -4.3207052   -3.4106972 0.0053594581   -4.3207052   0.91000808   439061 
 1872000   0.60640009   -4.3208519   -4.3208519   -3.4112538 0.0035424022   -4.3208519   0.90959806   439061 
 1873000   0.60648274   -4.3214808   -4.3214808   -3.4117588 0.0018740548   -4.3214808   0.90972204   439061 
 1874000   0.60534932   -4.3204524   -4.3204524   -3.4124304 0.0032990525   -4.3204524   0.90802192   439061 
 1875000   0.60697098   -4.3219718   -4.3219718   -3.4115174 0.0036280221   -4.3219718    0.9104544   439061 
 1876000   0.60674782   -4.3216792   -4.3216792   -3.4115596 0.0081512337   -4.3216792   0.91011966   439061 
 1877000   0.60757049   -4.3231759   -4.3231759   -3.4118223 0.0084932571   -4.3231759   0.91135366   439061 
 1878000   0.60826142   -4.3244169   -4.3244169   -3.4120268 0.0070204871   -4.3244169   0.91239005   439061 
 1879000   0.60787737    -4.325175    -4.325175   -3.4133611 0.0070437243    -4.325175   0.91181398   439061 
 1880000   0.60651644   -4.3240232   -4.3240232   -3.4142506 0.0064740026   -4.3240232   0.90977259   439061 
 1881000   0.60644584   -4.3247203   -4.3247203   -3.4150536 0.0065698012   -4.3247203   0.90966669   439061 
 1882000   0.60642451   -4.3247764   -4.3247764   -3.4151417 0.0051137216   -4.3247764   0.90963469   439061 
 1883000   0.60737962   -4.3251871   -4.3251871   -3.4141198  0.006779399   -4.3251871   0.91106735   439061 
 1884000   0.60718595   -4.3254893   -4.3254893   -3.4147124 0.0071654407   -4.3254893   0.91077686   439061 
 1885000   0.60777886   -4.3257637   -4.3257637   -3.4140975 0.0053458479   -4.3257637   0.91166621   439061 
 1886000   0.60816375   -4.3270908   -4.3270908   -3.4148472 0.0037196043   -4.3270908   0.91224355   439061 
 1887000   0.60578216   -4.3230291   -4.3230291    -3.414358 0.0082489438   -4.3230291   0.90867117   439061 
 1888000   0.60812463   -4.3258209   -4.3258209   -3.4136361 0.0032331164   -4.3258209   0.91218486   439061 
 1889000   0.60630313   -4.3235804   -4.3235804   -3.4141277 0.0065409843   -4.3235804   0.90945263   439061 
 1890000    0.6059212   -4.3242071   -4.3242071   -3.4153273  0.005180304   -4.3242071   0.90887973   439061 
 1891000   0.60662495   -4.3241927   -4.3241927   -3.4142573 0.0026136826   -4.3241927   0.90993535   439061 
 1892000   0.60627663   -4.3229554   -4.3229554   -3.4135426 0.0064180171   -4.3229554   0.90941287   439061 
 1893000   0.60686314   -4.3244765   -4.3244765   -3.4141839 0.0037437054   -4.3244765   0.91029263   439061 
 1894000   0.60731812   -4.3253512   -4.3253512   -3.4143761 0.0093106187   -4.3253512    0.9109751   439061 
 1895000   0.60736919   -4.3252425   -4.3252425   -3.4141907 0.0069939829   -4.3252425   0.91105171   439061 
 1896000   0.60700336   -4.3254229   -4.3254229   -3.4149199 0.0051677336   -4.3254229   0.91050297   439061 
 1897000   0.60545182   -4.3236288   -4.3236288   -3.4154531 0.0037415421   -4.3236288   0.90817566   439061 
 1898000   0.60653723   -4.3258572   -4.3258572   -3.4160535 0.0027023223   -4.3258572   0.90980377   439061 
 1899000   0.60653378    -4.325776    -4.325776   -3.4159774 0.0040433245    -4.325776    0.9097986   439061 
 1900000   0.60614859   -4.3248548   -4.3248548    -3.415634 0.0061883446   -4.3248548   0.90922081   439061 
 1901000   0.60758522   -4.3260684   -4.3260684   -3.4146927 0.0088128257   -4.3260684   0.91137575   439061 
 1902000   0.60739264   -4.3262943   -4.3262943   -3.4152074  0.011878175   -4.3262943   0.91108689   439061 
 1903000   0.60680894    -4.324618    -4.324618   -3.4144067 0.0089737867    -4.324618   0.91021133   439061 
 1904000   0.60696648   -4.3245387   -4.3245387    -3.414091 0.0063022983   -4.3245387   0.91044764   439061 
 1905000   0.60692679   -4.3253707   -4.3253707   -3.4149826 0.0069421638   -4.3253707   0.91038811   439061 
 1906000   0.60652297   -4.3238285   -4.3238285   -3.4140461 0.0097369103   -4.3238285   0.90978238   439061 
 1907000    0.6064758    -4.323962    -4.323962   -3.4142504 0.0072282481    -4.323962   0.90971163   439061 
 1908000     0.605198   -4.3222931   -4.3222931   -3.4144981 0.0050568003   -4.3222931   0.90779494   439061 
 1909000   0.60562524   -4.3231914   -4.3231914   -3.4147556 0.0013249253   -4.3231914   0.90843579   439061 
 1910000   0.60604746   -4.3240622   -4.3240622   -3.4149931 0.0030691033   -4.3240622   0.90906913   439061 
 1911000   0.60581009   -4.3241662   -4.3241662   -3.4154531 0.0037327282   -4.3241662   0.90871307   439061 
 1912000   0.60598393   -4.3242822   -4.3242822   -3.4153084 0.0009211698   -4.3242822   0.90897383   439061 
 1913000   0.60644727   -4.3258209   -4.3258209   -3.4161521  0.005211498   -4.3258209   0.90966884   439061 
 1914000   0.60694464   -4.3256303   -4.3256303   -3.4152154 0.0069415505   -4.3256303   0.91041489   439061 
 1915000   0.60840867   -4.3266384   -4.3266384   -3.4140275 0.0068547564   -4.3266384   0.91261092   439061 
 1916000   0.60715767   -4.3253155   -4.3253155    -3.414581  0.011666249   -4.3253155   0.91073443   439061 
 1917000   0.60747124   -4.3261867   -4.3261867    -3.414982 0.0084618856   -4.3261867   0.91120478   439061 
 1918000   0.60789979   -4.3263444   -4.3263444   -3.4144968 0.0044671005   -4.3263444    0.9118476   439061 
 1919000   0.60727387   -4.3256383   -4.3256383   -3.4147296 0.0094209209   -4.3256383   0.91090873   439061 
 1920000   0.60719289   -4.3262855   -4.3262855   -3.4154982 0.0059165911   -4.3262855   0.91078727   439061 
 1921000   0.60762774   -4.3263797   -4.3263797   -3.4149401 0.0043216742   -4.3263797   0.91143953   439061 
 1922000   0.60595279   -4.3251889   -4.3251889   -3.4162617 0.0038049786   -4.3251889   0.90892712   439061 
 1923000   0.60591228   -4.3241278   -4.3241278   -3.4152614 0.0049228395   -4.3241278   0.90886635   439061 
 1924000   0.60566481   -4.3246286   -4.3246286   -3.4161334 -0.0001456893   -4.3246286   0.90849514   439061 
 1925000   0.60447272   -4.3241452   -4.3241452   -3.4174382 0.0022319902   -4.3241452   0.90670701   439061 
 1926000   0.60544874   -4.3248612   -4.3248612   -3.4166902 0.0018514611   -4.3248612   0.90817104   439061 
 1927000   0.60615653   -4.3263915   -4.3263915   -3.4171588 0.0033658519   -4.3263915   0.90923272   439061 
 1928000   0.60547265   -4.3258724   -4.3258724   -3.4176655 0.0057849257   -4.3258724   0.90820691   439061 
 1929000     0.605501   -4.3267213   -4.3267213   -3.4184719 0.0053039186   -4.3267213   0.90824944   439061 
 1930000   0.60589845   -4.3279261   -4.3279261   -3.4190805 0.0058090553   -4.3279261   0.90884561   439061 
 1931000   0.60695406   -4.3304816   -4.3304816   -3.4200526 0.0044668165   -4.3304816   0.91042902   439061 
 1932000   0.60646565    -4.330727    -4.330727   -3.4210306  0.005223963    -4.330727    0.9096964   439061 
 1933000   0.60627554   -4.3300326   -4.3300326   -3.4206213 0.0082073717   -4.3300326   0.90941123   439061 
 1934000   0.60622205   -4.3299774   -4.3299774   -3.4206464 0.0088131781   -4.3299774     0.909331   439061 
 1935000   0.60701967   -4.3306293   -4.3306293   -3.4201018  0.011577927   -4.3306293   0.91052744   439061 
 1936000   0.60631123   -4.3299786   -4.3299786   -3.4205138  0.011497063   -4.3299786   0.90946477   439061 
 1937000   0.60644359   -4.3301193   -4.3301193    -3.420456   0.01254311   -4.3301193   0.90966332   439061 
 1938000     0.606516   -4.3303048   -4.3303048   -3.4205328 0.0062270265   -4.3303048   0.90977194   439061 
 1939000   0.60456267   -4.3274547   -4.3274547   -3.4206128 0.0040998497   -4.3274547   0.90684194   439061 
 1940000   0.60530235   -4.3283112   -4.3283112   -3.4203597 0.0050310957   -4.3283112   0.90795146   439061 
 1941000   0.60468421   -4.3267205   -4.3267205   -3.4196962 0.0044163029   -4.3267205   0.90702426   439061 
 1942000   0.60401393   -4.3258638   -4.3258638    -3.419845 0.0064135484   -4.3258638   0.90601883   439061 
 1943000    0.6050937   -4.3271445   -4.3271445    -3.419506 0.0014023478   -4.3271445   0.90763848   439061 
 1944000   0.60471396   -4.3276482   -4.3276482   -3.4205793 0.0024617206   -4.3276482   0.90706887   439061 
 1945000   0.60433609   -4.3273958   -4.3273958   -3.4208937 0.0030529506   -4.3273958   0.90650206   439061 
 1946000   0.60520434   -4.3277197   -4.3277197   -3.4199152 0.0036706624   -4.3277197   0.90780445   439061 
 1947000   0.60674206   -4.3290317   -4.3290317   -3.4189207 0.0079308225   -4.3290317   0.91011102   439061 
 1948000    0.6066119   -4.3292094   -4.3292094   -3.4192936 0.0089339237   -4.3292094   0.90991578   439061 
 1949000   0.60622559   -4.3291359   -4.3291359   -3.4197996  0.014912259   -4.3291359   0.90933631   439061 
 1950000    0.6058048   -4.3288668   -4.3288668   -3.4201617  0.011655185   -4.3288668   0.90870513   439061 
 1951000   0.60582158   -4.3291382   -4.3291382   -3.4204079 0.0059579042   -4.3291382    0.9087303   439061 
 1952000   0.60509037   -4.3287175   -4.3287175    -3.421084 0.0061843416   -4.3287175   0.90763348   439061 
 1953000   0.60513378   -4.3290221   -4.3290221   -3.4213235 0.0069089232   -4.3290221    0.9076986   439061 
 1954000    0.6050966   -4.3283686   -4.3283686   -3.4207258 0.0066846006   -4.3283686   0.90764284   439061 
 1955000   0.60529057   -4.3277717   -4.3277717   -3.4198379  0.005037786   -4.3277717   0.90793379   439061 
 1956000   0.60536218   -4.3274376   -4.3274376   -3.4193964 0.0027290664   -4.3274376    0.9080412   439061 
 1957000   0.60542995   -4.3277059   -4.3277059   -3.4195631 0.0024575926   -4.3277059   0.90814286   439061 
 1958000   0.60541214   -4.3286026   -4.3286026   -3.4204865 0.0018911973   -4.3286026   0.90811614   439061 
 1959000   0.60469073   -4.3283647   -4.3283647   -3.4213307 0.0069234144   -4.3283647   0.90703403   439061 
 1960000    0.6057473    -4.329399    -4.329399   -3.4207801  0.001957338    -4.329399   0.90861887   439061 
 1961000   0.60644509   -4.3294199   -4.3294199   -3.4197543 0.0088696792   -4.3294199   0.90966556   439061 
 1962000   0.60622872   -4.3298695   -4.3298695   -3.4205285 0.0066078697   -4.3298695   0.90934101   439061 
 1963000   0.60632892   -4.3308044   -4.3308044   -3.4213131 0.0063727924   -4.3308044   0.90949132   439061 
 1964000   0.60665161   -4.3305883   -4.3305883   -3.4206129 0.0086867482   -4.3305883   0.90997534   439061 
 1965000   0.60573736   -4.3291709   -4.3291709   -3.4205669 0.0069739409   -4.3291709   0.90860397   439061 
 1966000   0.60462825   -4.3290791   -4.3290791   -3.4221388 0.0051733458   -4.3290791    0.9069403   439061 
 1967000   0.60591031   -4.3303082   -4.3303082   -3.4214448 0.0038468765   -4.3303082   0.90886339   439061 
 1968000   0.60540157   -4.3300694   -4.3300694   -3.4219691 0.0054558978   -4.3300694   0.90810028   439061 
 1969000   0.60474309   -4.3292583   -4.3292583   -3.4221458 0.0027643223   -4.3292583   0.90711257   439061 
 1970000   0.60583499   -4.3293946   -4.3293946   -3.4206442 0.0013956498   -4.3293946   0.90875041   439061 
 1971000   0.60623313   -4.3299808   -4.3299808   -3.4206331 0.0042966047   -4.3299808   0.90934763   439061 
 1972000   0.60597323   -4.3296041   -4.3296041   -3.4206463 0.0078762214   -4.3296041   0.90895778   439061 
 1973000   0.60630743   -4.3295768   -4.3295768   -3.4201177 0.0096696328   -4.3295768   0.90945907   439061 
 1974000   0.60559889   -4.3286176   -4.3286176   -3.4202214 0.0070673397   -4.3286176   0.90839627   439061 
 1975000   0.60515377   -4.3291987   -4.3291987   -3.4214701 0.0024546236   -4.3291987    0.9077286   439061 
 1976000   0.60479641   -4.3291029   -4.3291029   -3.4219104  0.006131119   -4.3291029   0.90719255   439061 
 1977000   0.60462041   -4.3296942   -4.3296942   -3.4227656 0.0019068628   -4.3296942   0.90692855   439061 
 1978000   0.60500161   -4.3303912   -4.3303912   -3.4228909 0.0032130626   -4.3303912   0.90750034   439061 
 1979000   0.60556488   -4.3311461   -4.3311461   -3.4228009 0.0047585013   -4.3311461   0.90834525   439061 
 1980000   0.60603283   -4.3306341   -4.3306341   -3.4215869 0.0068923694   -4.3306341   0.90904717   439061 
 1981000   0.60614159   -4.3301395   -4.3301395   -3.4209292 0.0083531275   -4.3301395   0.90921032   439061 
 1982000   0.60582903   -4.3305691   -4.3305691   -3.4218276  0.012484987   -4.3305691   0.90874148   439061 
 1983000   0.60594171   -4.3309924   -4.3309924   -3.4220819  0.010331841   -4.3309924    0.9089105   439061 
 1984000   0.60652384   -4.3318915   -4.3318915   -3.4221078 0.0091313518   -4.3318915   0.90978369   439061 
 1985000   0.60599757   -4.3307251   -4.3307251   -3.4217308 0.0088552747   -4.3307251   0.90899429   439061 
 1986000   0.60508722   -4.3300905   -4.3300905   -3.4224617 0.00050268796   -4.3300905   0.90762877   439061 
 1987000   0.60488878    -4.330479    -4.330479   -3.4231479 0.0027027224    -4.330479    0.9073311   439061 
 1988000   0.60428686   -4.3291295   -4.3291295   -3.4227012 0.0038592758   -4.3291295   0.90642823   439061 
 1989000   0.60441528   -4.3290338   -4.3290338   -3.4224129 0.0020247133   -4.3290338   0.90662085   439061 
 1990000   0.60447203   -4.3299155   -4.3299155   -3.4232095 0.00036541875   -4.3299155   0.90670597   439061 
 1991000   0.60530701   -4.3308028   -4.3308028   -3.4228443 0.0050914554   -4.3308028   0.90795844   439061 
 1992000   0.60495294   -4.3306027   -4.3306027   -3.4231753 0.0039250663   -4.3306027   0.90742734   439061 
 1993000   0.60524845   -4.3313636   -4.3313636    -3.423493 0.0077183712   -4.3313636   0.90787061   439061 
 1994000   0.60529785   -4.3307433   -4.3307433   -3.4227986 0.0073908579   -4.3307433    0.9079447   439061 
 1995000    0.6062765   -4.3321177   -4.3321177    -3.422705 0.0084785195   -4.3321177   0.90941268   439061 
 1996000   0.60421128   -4.3302191   -4.3302191   -3.4239042   0.01086262   -4.3302191   0.90631485   439061 
 1997000   0.60598903   -4.3315015   -4.3315015     -3.42252 0.0069192142   -4.3315015   0.90898148   439061 
 1998000    0.6056011   -4.3318119   -4.3318119   -3.4234123 0.0049496338   -4.3318119   0.90839958   439061 
 1999000    0.6048781   -4.3308504   -4.3308504   -3.4235353 0.0061061106   -4.3308504   0.90731508   439061 
 2000000    0.6045756   -4.3302366   -4.3302366   -3.4233752  0.005172348   -4.3302366   0.90686134   439061 
 2001000   0.60653807   -4.3323436   -4.3323436   -3.4225385 0.0022119597   -4.3323436   0.90980504   439061 
 2002000   0.60582448   -4.3313672   -4.3313672   -3.4226326 0.0044089501   -4.3313672   0.90873465   439061 
 2003000   0.60562825   -4.3315354   -4.3315354   -3.4230951 0.0014955522   -4.3315354   0.90844031   439061 
 2004000   0.60519724   -4.3303011   -4.3303011   -3.4225073 0.0033980499   -4.3303011   0.90779379   439061 
 2005000   0.60511376   -4.3308692   -4.3308692   -3.4232006 0.0040286783   -4.3308692   0.90766857   439061 
 2006000    0.6046296   -4.3306227   -4.3306227   -3.4236804 0.0024199983   -4.3306227   0.90694233   439061 
 2007000   0.60593438   -4.3321184   -4.3321184   -3.4232189 -0.00079500915   -4.3321184   0.90889951   439061 
 2008000   0.60540569   -4.3311583   -4.3311583   -3.4230519 0.0057533673   -4.3311583   0.90810646   439061 
 2009000   0.60624933    -4.332114    -4.332114   -3.4227421 0.0050894073    -4.332114   0.90937193   439061 
 2010000   0.60484737   -4.3305997   -4.3305997   -3.4233307 0.0089670703   -4.3305997   0.90726899   439061 
 2011000   0.60506682   -4.3310349   -4.3310349   -3.4234368 0.0098027592   -4.3310349   0.90759816   439061 
 2012000    0.6043207   -4.3301658   -4.3301658   -3.4236868 0.0035682596   -4.3301658   0.90647899   439061 
 2013000   0.60472874   -4.3305428   -4.3305428   -3.4234517 0.0042467034   -4.3305428   0.90709105   439061 
 2014000   0.60527551   -4.3318072   -4.3318072    -3.423896 0.0060116321   -4.3318072    0.9079112   439061 
 2015000   0.60552548    -4.332492    -4.332492   -3.4242058 0.0084731669    -4.332492   0.90828615   439061 
 2016000    0.6057167   -4.3329093   -4.3329093   -3.4243363 0.0073456503   -4.3329093   0.90857299   439061 
 2017000   0.60444118   -4.3318993   -4.3318993   -3.4252396 0.0057565427   -4.3318993    0.9066597   439061 
 2018000   0.60551641   -4.3330772   -4.3330772   -3.4248047 0.0029825298   -4.3330772   0.90827255   439061 
 2019000   0.60451219   -4.3317138   -4.3317138   -3.4249476 0.0059212104   -4.3317138   0.90676622   439061 
 2020000    0.6050542   -4.3318234   -4.3318234   -3.4242441 0.0059876964   -4.3318234   0.90757924   439061 
 2021000   0.60574273   -4.3331696   -4.3331696   -3.4245576 0.0055130167   -4.3331696   0.90861203   439061 
 2022000   0.60494055   -4.3324539   -4.3324539   -3.4250451 0.0061837101   -4.3324539   0.90740876   439061 
 2023000   0.60493429   -4.3319398   -4.3319398   -3.4245404 0.0074748711   -4.3319398   0.90739937   439061 
 2024000   0.60484015   -4.3321904   -4.3321904   -3.4249322 0.0012403029   -4.3321904   0.90725816   439061 
 2025000   0.60438445   -4.3309265   -4.3309265   -3.4243519 0.0084804242   -4.3309265   0.90657461   439061 
 2026000    0.6055437   -4.3322431   -4.3322431   -3.4239296 0.0053123659   -4.3322431   0.90831349   439061 
 2027000   0.60498052   -4.3315853   -4.3315853   -3.4241166 0.0063941179   -4.3315853   0.90746871   439061 
 2028000   0.60419501   -4.3309344   -4.3309344   -3.4246439 0.0012836754   -4.3309344   0.90629046   439061 
 2029000   0.60400306   -4.3314308   -4.3314308   -3.4254283 0.0018221041   -4.3314308   0.90600253   439061 
 2030000    0.6037274   -4.3310804   -4.3310804   -3.4254914 0.0028821806   -4.3310804   0.90558904   439061 
 2031000   0.60563043   -4.3336336   -4.3336336     -3.42519 0.0022139688   -4.3336336   0.90844357   439061 
 2032000   0.60504014   -4.3322512   -4.3322512   -3.4246931  0.010712835   -4.3322512   0.90755814   439061 
 2033000   0.60482792   -4.3323558   -4.3323558    -3.425116 0.0071967823   -4.3323558   0.90723981   439061 
 2034000   0.60521078   -4.3338747   -4.3338747   -3.4260605 0.0093073752   -4.3338747    0.9078141   439061 
 2035000   0.60574483   -4.3351181   -4.3351181   -3.4265029 0.0013826597   -4.3351181   0.90861518   439061 
 2036000   0.60499862   -4.3346275   -4.3346275   -3.4271316 0.0086881505   -4.3346275   0.90749587   439061 
 2037000   0.60556817   -4.3347308   -4.3347308   -3.4263806 0.0078252699   -4.3347308   0.90835018   439061 
 2038000   0.60478797   -4.3344448   -4.3344448   -3.4272649  0.011350542   -4.3344448   0.90717989   439061 
 2039000   0.60464841   -4.3337598   -4.3337598   -3.4267893 0.0057734124   -4.3337598   0.90697055   439061 
 2040000   0.60542122   -4.3349699   -4.3349699   -3.4268402 0.0073768401   -4.3349699   0.90812976   439061 
 2041000   0.60427129   -4.3342078   -4.3342078   -3.4278029 0.0082401414   -4.3342078   0.90640487   439061 
 2042000   0.60444242   -4.3339224   -4.3339224   -3.4272609 0.0062311292   -4.3339224   0.90666157   439061 
 2043000   0.60397851   -4.3332208   -4.3332208   -3.4272551 0.0096183028   -4.3332208   0.90596571   439061 
 2044000   0.60517731   -4.3340107   -4.3340107   -3.4262468 0.0059259345   -4.3340107    0.9077639   439061 
 2045000   0.60509623   -4.3345682   -4.3345682   -3.4269259 0.0060741185   -4.3345682   0.90764228   439061 
 2046000   0.60495659   -4.3346306   -4.3346306   -3.4271977 0.0066089866   -4.3346306   0.90743283   439061 
 2047000   0.60474326   -4.3341953   -4.3341953   -3.4270825 0.0064681211   -4.3341953   0.90711283   439061 
 2048000   0.60430433   -4.3339863   -4.3339863   -3.4275319 0.0056204714   -4.3339863   0.90645442   439061 
 2049000   0.60415659   -4.3336325   -4.3336325   -3.4273997 0.0070346569   -4.3336325   0.90623281   439061 
 2050000   0.60367038   -4.3327844   -4.3327844   -3.4272809 0.0051525322   -4.3327844   0.90550351   439061 
 2051000    0.6037082   -4.3330548   -4.3330548   -3.4274946 0.0054494607   -4.3330548   0.90556024   439061 
 2052000   0.60398399   -4.3332921   -4.3332921   -3.4273181 0.0077474843   -4.3332921   0.90597392   439061 
 2053000   0.60448659   -4.3340931   -4.3340931   -3.4273653 0.0047904564   -4.3340931   0.90672783   439061 
 2054000   0.60439437   -4.3328909   -4.3328909   -3.4263014 0.0074092219   -4.3328909   0.90658949   439061 
 2055000   0.60431876   -4.3337512   -4.3337512   -3.4272752  0.002251158   -4.3337512   0.90647607   439061 
 2056000    0.6048661   -4.3350054   -4.3350054   -3.4277083 0.0023717609   -4.3350054   0.90729709   439061 
 2057000   0.60349823   -4.3335361   -4.3335361   -3.4282908 0.0087587167   -4.3335361   0.90524528   439061 
 2058000   0.60438012     -4.33483     -4.33483   -3.4282619  0.004000535     -4.33483   0.90656812   439061 
 2059000   0.60342744   -4.3342649   -4.3342649   -3.4291258 0.0011547116   -4.3342649   0.90513909   439061 
 2060000   0.60479607   -4.3347167   -4.3347167   -3.4275247  0.002235552   -4.3347167   0.90719204   439061 
 2061000    0.6049863   -4.3350058   -4.3350058   -3.4275284 0.0086000168   -4.3350058   0.90747738   439061 
 2062000   0.60524347   -4.3353955   -4.3353955   -3.4275323 0.0075211703   -4.3353955   0.90786314   439061 
 2063000   0.60521053   -4.3351871   -4.3351871   -3.4273734   0.01048701   -4.3351871   0.90781373   439061 
 2064000   0.60521887   -4.3356921   -4.3356921   -3.4278659 0.0071125889   -4.3356921   0.90782623   439061 
 2065000   0.60583693   -4.3369149   -4.3369149   -3.4281616 0.0031949916   -4.3369149   0.90875332   439061 
 2066000   0.60502886    -4.336254    -4.336254   -3.4287128 0.0034647599    -4.336254   0.90754122   439061 
 2067000   0.60535616   -4.3373174   -4.3373174   -3.4292853 0.0038579529   -4.3373174   0.90803218   439061 
 2068000   0.60502428   -4.3366578   -4.3366578   -3.4291234 0.0050484062   -4.3366578   0.90753435   439061 
 2069000   0.60415607   -4.3360566   -4.3360566   -3.4298246 0.0044205019   -4.3360566   0.90623204   439061 
 2070000   0.60464213   -4.3368288   -4.3368288   -3.4298677 0.0040837668   -4.3368288   0.90696114   439061 
 2071000   0.60414148   -4.3357186   -4.3357186   -3.4295085 0.0070480913   -4.3357186   0.90621016   439061 
 2072000   0.60488132    -4.337386    -4.337386   -3.4300661 0.0092664683    -4.337386   0.90731992   439061 
 2073000    0.6044574   -4.3362121   -4.3362121   -3.4295281 0.0084229965   -4.3362121   0.90668403   439061 
 2074000   0.60392362   -4.3364393   -4.3364393   -3.4305559 0.0024379471   -4.3364393   0.90588337   439061 
 2075000   0.60470463   -4.3375188   -4.3375188   -3.4304639 0.0034274169   -4.3375188   0.90705488   439061 
 2076000   0.60470772   -4.3377489   -4.3377489   -3.4306893  0.001842039   -4.3377489   0.90705951   439061 
 2077000   0.60335301   -4.3360375   -4.3360375   -3.4310101 0.0036596324   -4.3360375   0.90502745   439061 
 2078000   0.60428571   -4.3371603   -4.3371603   -3.4307338 0.0011100711   -4.3371603    0.9064265   439061 
 2079000   0.60409905   -4.3366556   -4.3366556   -3.4305091 0.0058958371   -4.3366556   0.90614651   439061 
 2080000   0.60291059   -4.3353732   -4.3353732   -3.4310093 0.0085458503   -4.3353732   0.90436382   439061 
 2081000   0.60541352   -4.3384403   -4.3384403   -3.4303221   0.00772611   -4.3384403   0.90811821   439061 
 2082000   0.60472724   -4.3375574   -4.3375574   -3.4304686 0.0079663684   -4.3375574    0.9070888   439061 
 2083000   0.60520213   -4.3374783   -4.3374783   -3.4296772   0.01039947   -4.3374783   0.90780113   439061 
 2084000   0.60365138   -4.3368031   -4.3368031   -3.4313281 0.0094947958   -4.3368031     0.905475   439061 
 2085000   0.60366029   -4.3366882   -4.3366882   -3.4311998 0.0063766536   -4.3366882   0.90548837   439061 
 2086000   0.60385566   -4.3372002   -4.3372002   -3.4314188 0.0077612933   -4.3372002   0.90578143   439061 
 2087000   0.60410111   -4.3369415   -4.3369415   -3.4307919 0.0076685428   -4.3369415    0.9061496   439061 
 2088000   0.60326272   -4.3365791   -4.3365791   -3.4316871 0.00082709392   -4.3365791   0.90489202   439061 
 2089000   0.60236207   -4.3355023   -4.3355023   -3.4319612 0.0036492461   -4.3355023   0.90354104   439061 
 2090000   0.60352167   -4.3366019   -4.3366019   -3.4313214 0.0046669351   -4.3366019   0.90528045   439061 
 2091000   0.60433292   -4.3374763   -4.3374763    -3.430979 0.0015196291   -4.3374763   0.90649731   439061 
 2092000   0.60463999   -4.3375286   -4.3375286   -3.4305707 0.0035154853   -4.3375286   0.90695792   439061 
 2093000   0.60490574    -4.338421    -4.338421   -3.4310644 0.0033318514    -4.338421   0.90735654   439061 
 2094000   0.60373468   -4.3372809   -4.3372809    -3.431681 0.0091377152   -4.3372809   0.90559995   439061 
 2095000   0.60453522   -4.3387023   -4.3387023   -3.4319015 0.0019556809   -4.3387023   0.90680077   439061 
 2096000   0.60429859   -4.3386704   -4.3386704   -3.4322245 0.0065111658   -4.3386704   0.90644582   439061 
 2097000   0.60401697   -4.3379259   -4.3379259   -3.4319025 0.0066820771   -4.3379259   0.90602338   439061 
 2098000   0.60414692   -4.3377042   -4.3377042   -3.4314858  0.010233362   -4.3377042   0.90621832   439061 
 2099000   0.60426989   -4.3376847   -4.3376847   -3.4312819 0.0098783397   -4.3376847   0.90640277   439061 
 2100000   0.60493806   -4.3382426   -4.3382426   -3.4308375   0.00665605   -4.3382426   0.90740502   439061 
 2101000   0.60416442   -4.3366762   -4.3366762   -3.4304316 0.0076094376   -4.3366762   0.90624456   439061 
 2102000   0.60426328   -4.3368209   -4.3368209    -3.430428  0.011765901   -4.3368209   0.90639286   439061 
 2103000    0.6044876   -4.3368739   -4.3368739   -3.4301446 0.0059875209   -4.3368739   0.90672933   439061 
 2104000   0.60375162   -4.3357785   -4.3357785   -3.4301531 0.0074949667   -4.3357785   0.90562537   439061 
 2105000   0.60374497   -4.3373594   -4.3373594    -3.431744 -0.00013313716   -4.3373594   0.90561539   439061 
 2106000    0.6032796   -4.3361515   -4.3361515   -3.4312342 0.00066721292   -4.3361515   0.90491734   439061 
 2107000   0.60364246   -4.3370672   -4.3370672   -3.4316055 0.0032355849   -4.3370672   0.90546163   439061 
 2108000   0.60399765   -4.3371751   -4.3371751   -3.4311806 0.0043019045   -4.3371751   0.90599442   439061 
 2109000    0.6047224   -4.3366696   -4.3366696   -3.4295881 0.0077882423   -4.3366696   0.90708153   439061 
 2110000   0.60515753   -4.3366847   -4.3366847   -3.4289505 0.0088440886   -4.3366847   0.90773422   439061 
 2111000   0.60545077   -4.3387395   -4.3387395   -3.4305654 0.0039594126   -4.3387395   0.90817409   439061 
 2112000    0.6043371   -4.3374855   -4.3374855   -3.4309819 0.0072771674   -4.3374855   0.90650359   439061 
 2113000     0.603887   -4.3374046   -4.3374046   -3.4315761 0.0077873811   -4.3374046   0.90582844   439061 
 2114000   0.60422491   -4.3386114   -4.3386114   -3.4322761  0.001530843   -4.3386114    0.9063353   439061 
 2115000   0.60331601   -4.3367554   -4.3367554   -3.4317835 0.0015473951   -4.3367554   0.90497196   439061 
 2116000   0.60343857   -4.3365353   -4.3365353   -3.4313795 0.0065403747   -4.3365353   0.90515579   439061 
 2117000   0.60375689   -4.3386906   -4.3386906   -3.4330573 0.0029158942   -4.3386906   0.90563328   439061 
 2118000   0.60337153    -4.337612    -4.337612   -3.4325567 0.0060292173    -4.337612   0.90505524   439061 
 2119000   0.60349338   -4.3383543   -4.3383543   -3.4331163  0.004990037   -4.3383543   0.90523801   439061 
 2120000   0.60332935   -4.3371557   -4.3371557   -3.4321637 0.0084592029   -4.3371557   0.90499197   439061 
 2121000   0.60413003   -4.3386437   -4.3386437   -3.4324507 0.0076905623   -4.3386437   0.90619298   439061 
 2122000   0.60482484   -4.3395104   -4.3395104   -3.4322752 0.0058066061   -4.3395104   0.90723519   439061 
 2123000   0.60517596   -4.3405069   -4.3405069   -3.4327451 0.0020867177   -4.3405069   0.90776187   439061 
 2124000   0.60370074   -4.3375182   -4.3375182   -3.4319691 0.0049997404   -4.3375182   0.90554905   439061 
 2125000   0.60355485   -4.3379195   -4.3379195   -3.4325892  0.003145077   -4.3379195   0.90533021   439061 
 2126000   0.60336556   -4.3380344   -4.3380344   -3.4329882 0.0073707877   -4.3380344   0.90504629   439061 
 2127000   0.60282089   -4.3373329   -4.3373329   -3.4331036  0.002880458   -4.3373329   0.90422928   439061 
 2128000   0.60325959   -4.3379955   -4.3379955   -3.4331082 0.0012236623   -4.3379955   0.90488733   439061 
 2129000   0.60324039   -4.3380653   -4.3380653   -3.4332067 0.0060145071   -4.3380653   0.90485852   439061 
 2130000   0.60357511   -4.3396043   -4.3396043   -3.4342437 0.0047447138   -4.3396043   0.90536061   439061 
 2131000   0.60371132   -4.3393753   -4.3393753   -3.4338104 0.0078475227   -4.3393753   0.90556492   439061 
 2132000   0.60432077   -4.3406795   -4.3406795   -3.4342004 0.0059682376   -4.3406795    0.9064791   439061 
 2133000   0.60414873   -4.3410404   -4.3410404   -3.4348193 0.0061412868   -4.3410404   0.90622103   439061 
 2134000   0.60375896   -4.3407677   -4.3407677   -3.4351313  0.010500361   -4.3407677   0.90563637   439061 
 2135000   0.60358484   -4.3408954   -4.3408954   -3.4355202 0.0073776917   -4.3408954    0.9053752   439061 
 2136000   0.60356741     -4.34062     -4.34062   -3.4352709 0.0072251562     -4.34062   0.90534906   439061 
 2137000   0.60292337   -4.3396271   -4.3396271   -3.4352441 0.0061523035   -4.3396271   0.90438299   439061 
 2138000   0.60433511    -4.342292    -4.342292   -3.4357914 0.0020863333    -4.342292    0.9065006   439061 
 2139000   0.60332734    -4.339804    -4.339804   -3.4348151 0.0055179943    -4.339804   0.90498894   439061 
 2140000   0.60395163   -4.3408544   -4.3408544   -3.4349291  0.003786313   -4.3408544   0.90592538   439061 
 2141000   0.60410744   -4.3404818   -4.3404818   -3.4343227 0.0078191588   -4.3404818    0.9061591   439061 
 2142000   0.60364219   -4.3406169   -4.3406169   -3.4351557  0.004808454   -4.3406169   0.90546123   439061 
 2143000   0.60338849   -4.3392837   -4.3392837    -3.434203 0.0071609455   -4.3392837   0.90508068   439061 
 2144000   0.60419519   -4.3395041   -4.3395041   -3.4332133 0.0085518073   -4.3395041   0.90629073   439061 
 2145000    0.6034279   -4.3394129   -4.3394129   -3.4342731 0.0075134662   -4.3394129   0.90513979   439061 
 2146000   0.60386203   -4.3403566   -4.3403566   -3.4345656 0.0019847493   -4.3403566   0.90579097   439061 
 2147000   0.60412525   -4.3409808   -4.3409808    -3.434795  0.001251342   -4.3409808   0.90618581   439061 
 2148000   0.60333422   -4.3387246   -4.3387246   -3.4337253 0.0069326182   -4.3387246   0.90499927   439061 
 2149000   0.60296174   -4.3393282   -4.3393282   -3.4348876 0.0046646274   -4.3393282   0.90444056   439061 
 2150000    0.6029936   -4.3386381   -4.3386381   -3.4341498 0.0077084412   -4.3386381   0.90448834   439061 
 2151000   0.60412549   -4.3401458   -4.3401458   -3.4339596 0.0032187307   -4.3401458   0.90618617   439061 
 2152000   0.60379522    -4.339818    -4.339818   -3.4341273   0.00419838    -4.339818   0.90569076   439061 
 2153000   0.60460557   -4.3395874   -4.3395874   -3.4326811 0.0022919611   -4.3395874   0.90690629   439061 
 2154000   0.60249497   -4.3368897   -4.3368897   -3.4331493  0.007019677   -4.3368897   0.90374039   439061 
 2155000    0.6037115   -4.3389817   -4.3389817   -3.4334166 0.0030699173   -4.3389817   0.90556519   439061 
 2156000    0.6031457   -4.3382306   -4.3382306   -3.4335141 0.0070517593   -4.3382306   0.90471649   439061 
 2157000   0.60458821   -4.3396839   -4.3396839   -3.4328037 0.0034598584   -4.3396839   0.90688025   439061 
 2158000   0.60357779   -4.3387283   -4.3387283   -3.4333637 0.0061001948   -4.3387283   0.90536462   439061 
 2159000    0.6039388   -4.3396444   -4.3396444   -3.4337382 6.1160458e-05   -4.3396444   0.90590614   439061 
 2160000   0.60417876   -4.3411277   -4.3411277   -3.4348617 0.0039865733   -4.3411277   0.90626607   439061 
 2161000   0.60306793   -4.3392235   -4.3392235   -3.4346237 0.0031554541   -4.3392235   0.90459984   439061 
 2162000   0.60407052   -4.3407132   -4.3407132   -3.4346095 0.0030946953   -4.3407132   0.90610371   439061 
 2163000   0.60407531   -4.3405951   -4.3405951   -3.4344842 0.0074652672   -4.3405951    0.9061109   439061 
 2164000   0.60355054   -4.3396907   -4.3396907   -3.4343669 0.0062888166   -4.3396907   0.90532374   439061 
 2165000   0.60309956   -4.3397045   -4.3397045   -3.4350572 0.0077215548   -4.3397045   0.90464728   439061 
 2166000   0.60336594   -4.3412096   -4.3412096   -3.4361627 0.0063202502   -4.3412096   0.90504685   439061 
 2167000   0.60358705   -4.3411887   -4.3411887   -3.4358102 0.0029427289   -4.3411887   0.90537852   439061 
 2168000   0.60306201   -4.3413753   -4.3413753   -3.4367844 0.0039779328   -4.3413753   0.90459096   439061 
 2169000   0.60379111     -4.34188     -4.34188   -3.4361954 0.0037251418     -4.34188    0.9056846   439061 
 2170000   0.60382635   -4.3411041   -4.3411041   -3.4353666 0.0085370003   -4.3411041   0.90573746   439061 
 2171000   0.60276737   -4.3393732   -4.3393732   -3.4352242 0.0097498031   -4.3393732     0.904149   439061 
 2172000   0.60381669   -4.3412367   -4.3412367   -3.4355137 0.0044277463   -4.3412367   0.90572297   439061 
 2173000   0.60373391   -4.3404909   -4.3404909   -3.4348921 0.0068411403   -4.3404909   0.90559881   439061 
 2174000   0.60416426    -4.342129    -4.342129   -3.4358847  0.001504972    -4.342129   0.90624433   439061 
 2175000   0.60434714   -4.3421127   -4.3421127   -3.4355941  0.003553154   -4.3421127   0.90651864   439061 
 2176000   0.60454782   -4.3417732   -4.3417732   -3.4349535  0.004763377   -4.3417732   0.90681967   439061 
 2177000   0.60417235   -4.3422007   -4.3422007   -3.4359442  0.006787155   -4.3422007   0.90625646   439061 
 2178000   0.60375534   -4.3401753   -4.3401753   -3.4345444 0.0089292442   -4.3401753   0.90563095   439061 
 2179000   0.60359062   -4.3397665   -4.3397665   -3.4343827  0.008837594   -4.3397665   0.90538386   439061 
 2180000   0.60500667   -4.3422913   -4.3422913   -3.4347834 0.0021006234   -4.3422913   0.90750794   439061 
 2181000   0.60376967    -4.340711    -4.340711   -3.4350585 0.0042322955    -4.340711   0.90565244   439061 
 2182000   0.60393145   -4.3402566   -4.3402566   -3.4343615 0.0050696546   -4.3402566   0.90589511   439061 
 2183000    0.6044438   -4.3410733   -4.3410733   -3.4344097 0.0070891024   -4.3410733   0.90666364   439061 
 2184000   0.60308522   -4.3395695   -4.3395695   -3.4349437 0.0081236309   -4.3395695   0.90462577   439061 
 2185000   0.60171584   -4.3379407   -4.3379407    -3.435369 0.0062955209   -4.3379407   0.90257171   439061 
 2186000   0.60191714   -4.3389121   -4.3389121   -3.4360385 0.0035385434   -4.3389121   0.90287365   439061 
 2187000   0.60237617   -4.3384847   -4.3384847   -3.4349225 0.0041126914   -4.3384847    0.9035622   439061 
 2188000   0.60450746   -4.3400186   -4.3400186   -3.4332594 0.0065496863   -4.3400186   0.90675912   439061 
 2189000   0.60436368   -4.3403893   -4.3403893   -3.4338459 0.0083080555   -4.3403893   0.90654346   439061 
 2190000   0.60373312    -4.340024    -4.340024   -3.4344264  0.011187746    -4.340024   0.90559762   439061 
 2191000   0.60317616   -4.3390634   -4.3390634   -3.4343012 0.0033137066   -4.3390634   0.90476219   439061 
 2192000   0.60443911   -4.3405109   -4.3405109   -3.4338543 0.0030930396   -4.3405109   0.90665661   439061 
 2193000   0.60315865   -4.3390856   -4.3390856   -3.4343497 0.0073703217   -4.3390856   0.90473591   439061 
 2194000   0.60381148    -4.340374    -4.340374   -3.4346588 0.0089584631    -4.340374   0.90571515   439061 
 2195000   0.60182936   -4.3382626   -4.3382626   -3.4355206 0.0059929709   -4.3382626   0.90274198   439061 
 2196000    0.6025913   -4.3388817   -4.3388817   -3.4349968 0.0056748789   -4.3388817   0.90388489   439061 
 2197000   0.60301725   -4.3396602   -4.3396602   -3.4351364 0.0050055687   -4.3396602   0.90452382   439061 
 2198000   0.60448553   -4.3413645   -4.3413645   -3.4346382 0.0071406658   -4.3413645   0.90672623   439061 
 2199000   0.60388355    -4.342171    -4.342171   -3.4363478 0.0088066528    -4.342171   0.90582327   439061 
 2200000   0.60358742   -4.3419507   -4.3419507   -3.4365716 0.0051184085   -4.3419507   0.90537906   439061 
 2201000   0.60295712   -4.3405903   -4.3405903   -3.4361567 0.0066933516   -4.3405903   0.90443362   439061 
 2202000   0.60355527    -4.341975    -4.341975   -3.4366441 0.0060249845    -4.341975   0.90533084   439061 
 2203000   0.60333517   -4.3414092   -4.3414092   -3.4364085  0.011299958   -4.3414092   0.90500069   439061 
 2204000   0.60387896   -4.3422983   -4.3422983   -3.4364819 0.0083710522   -4.3422983   0.90581638   439061 
 2205000   0.60323762   -4.3422542   -4.3422542   -3.4373998 0.0091037937   -4.3422542   0.90485437   439061 
 2206000   0.60373492   -4.3424041   -4.3424041   -3.4368038  0.004790812   -4.3424041   0.90560032   439061 
 2207000   0.60384817   -4.3423027   -4.3423027   -3.4365325 0.0042780318   -4.3423027   0.90577019   439061 
 2208000   0.60369908   -4.3412413   -4.3412413   -3.4356947 0.0094505858   -4.3412413   0.90554656   439061 
 2209000   0.60363082   -4.3401498   -4.3401498   -3.4347056 0.0077770329   -4.3401498   0.90544417   439061 
 2210000   0.60356513   -4.3403464   -4.3403464   -3.4350008 0.0063837454   -4.3403464   0.90534563   439061 
 2211000   0.60412269   -4.3407226   -4.3407226   -3.4345406 0.0033582206   -4.3407226   0.90618197   439061 
 2212000   0.60351516   -4.3402175   -4.3402175   -3.4349468 0.00077952235   -4.3402175   0.90527067   439061 
 2213000   0.60341499   -4.3397258   -4.3397258   -3.4346054 0.0021801055   -4.3397258   0.90512042   439061 
 2214000   0.60325195   -4.3391302   -4.3391302   -3.4342543  0.011585969   -4.3391302   0.90487587   439061 
 2215000   0.60256801   -4.3382461   -4.3382461   -3.4343961 0.0071893006   -4.3382461   0.90384996   439061 
 2216000    0.6030357   -4.3389638   -4.3389638   -3.4344124 0.0076293635   -4.3389638   0.90455149   439061 
 2217000   0.60432101   -4.3403052   -4.3403052   -3.4338258 0.0042080597   -4.3403052   0.90647944   439061 
 2218000   0.60382951    -4.339891    -4.339891   -3.4341488 0.0048361167    -4.339891    0.9057422   439061 
 2219000   0.60439057   -4.3397887   -4.3397887   -3.4332049  0.005683472   -4.3397887   0.90658379   439061 
 2220000   0.60429484   -4.3396223   -4.3396223   -3.4331821  0.005300052   -4.3396223   0.90644019   439061 
 2221000   0.60376845    -4.339121    -4.339121   -3.4334704 0.0074157797    -4.339121   0.90565062   439061 
 2222000   0.60225467   -4.3383902   -4.3383902   -3.4350103 0.0053413901   -4.3383902   0.90337995   439061 
 2223000   0.60316948   -4.3389939   -4.3389939   -3.4342417 0.0014007021   -4.3389939   0.90475216   439061 
 2224000   0.60318988   -4.3387335   -4.3387335   -3.4339507 0.0051489886   -4.3387335   0.90478277   439061 
 2225000   0.60391934   -4.3400022   -4.3400022   -3.4341252 0.0036128812   -4.3400022   0.90587694   439061 
 2226000   0.60373536    -4.339483    -4.339483    -3.433882 0.0052215288    -4.339483   0.90560098   439061 
 2227000   0.60357033   -4.3402971   -4.3402971   -3.4349436 0.0036035049   -4.3402971   0.90535344   439061 
 2228000   0.60236188   -4.3390209   -4.3390209   -3.4354801 0.0044873139   -4.3390209   0.90354076   439061 
 2229000   0.60372067   -4.3408825   -4.3408825   -3.4353036 0.0043938123   -4.3408825   0.90557894   439061 
 2230000   0.60379768   -4.3420444   -4.3420444     -3.43635 0.0036949772   -4.3420444   0.90569445   439061 
 2231000   0.60292414   -4.3399181   -4.3399181    -3.435534 0.0056075795   -4.3399181   0.90438415   439061 
 2232000   0.60332105   -4.3414854   -4.3414854   -3.4365059 0.0026100531   -4.3414854   0.90497952   439061 
 2233000   0.60376307   -4.3416984   -4.3416984   -3.4360559 0.0058433933   -4.3416984   0.90564254   439061 
 2234000   0.60356146   -4.3422342   -4.3422342   -3.4368941 0.0080906447   -4.3422342   0.90534013   439061 
 2235000   0.60277611    -4.340983    -4.340983   -3.4368208  0.010394615    -4.340983   0.90416211   439061 
 2236000    0.6041576   -4.3426178   -4.3426178   -3.4363835 0.0026908036   -4.3426178   0.90623434   439061 
 2237000    0.6035968   -4.3437849   -4.3437849   -3.4383918 0.0032718439   -4.3437849   0.90539314   439061 
 2238000   0.60374664    -4.343499    -4.343499   -3.4378811 0.0051537392    -4.343499    0.9056179   439061 
 2239000    0.6039588   -4.3427946   -4.3427946   -3.4368585 0.0085537306   -4.3427946   0.90593613   439061 
 2240000   0.60307584   -4.3417482   -4.3417482   -3.4371365 0.0062693859   -4.3417482   0.90461169   439061 
 2241000   0.60276985   -4.3413998   -4.3413998   -3.4372471 0.0074880684   -4.3413998   0.90415272   439061 
 2242000    0.6030867   -4.3417647   -4.3417647   -3.4371367 0.0050113565   -4.3417647     0.904628   439061 
 2243000   0.60367857   -4.3425037   -4.3425037   -3.4369879 0.0030350693   -4.3425037   0.90551579   439061 
 2244000   0.60344326   -4.3416212   -4.3416212   -3.4364584 0.0071069411   -4.3416212   0.90516282   439061 
 2245000   0.60369196   -4.3418997   -4.3418997   -3.4363638 0.0032645033   -4.3418997   0.90553587   439061 
 2246000   0.60338941    -4.340157    -4.340157    -3.435075 -6.920224e-05    -4.340157   0.90508206   439061 
 2247000   0.60392145   -4.3409055   -4.3409055   -3.4350254 0.0024696315   -4.3409055   0.90588011   439061 
 2248000   0.60330579   -4.3408105   -4.3408105   -3.4358539 0.0018266568   -4.3408105   0.90495663   439061 
 2249000   0.60347968   -4.3406151   -4.3406151   -3.4353976 0.0027348633   -4.3406151   0.90521746   439061 
 2250000   0.60260821   -4.3392625   -4.3392625   -3.4353523 0.0051545706   -4.3392625   0.90391026   439061 
 2251000   0.60398792   -4.3395976   -4.3395976   -3.4336178  0.002946511   -4.3395976   0.90597982   439061 
 2252000    0.6044615   -4.3413151   -4.3413151   -3.4346249 0.0081245211   -4.3413151   0.90669018   439061 
 2253000    0.6043538   -4.3416652   -4.3416652   -3.4351366 0.0053664786   -4.3416652   0.90652863   439061 
 2254000   0.60338073   -4.3408566   -4.3408566   -3.4357876 0.0042171843   -4.3408566   0.90506903   439061 
 2255000   0.60201209   -4.3408221   -4.3408221   -3.4378061  0.004452615   -4.3408221   0.90301608   439061 
 2256000   0.60261146    -4.341551    -4.341551   -3.4376358 -0.0028220312    -4.341551   0.90391513   439061 
 2257000   0.60279911   -4.3408577   -4.3408577   -3.4366611 0.0087598015   -4.3408577    0.9041966   439061 
 2258000   0.60373675   -4.3424317   -4.3424317   -3.4368286 0.0094012133   -4.3424317   0.90560307   439061 
 2259000   0.60329266   -4.3431335   -4.3431335   -3.4381966 0.0067358626   -4.3431335   0.90493694   439061 
 2260000    0.6035678    -4.343362    -4.343362   -3.4380124 0.0065532784    -4.343362   0.90534964   439061 
 2261000    0.6031403   -4.3426913   -4.3426913   -3.4379829 0.0070179992   -4.3426913   0.90470839   439061 
 2262000   0.60456457   -4.3449349   -4.3449349   -3.4380901 0.0055681014   -4.3449349   0.90684479   439061 
 2263000   0.60358131   -4.3422703   -4.3422703   -3.4369004  0.010064799   -4.3422703   0.90536991   439061 
 2264000   0.60373322   -4.3423449   -4.3423449   -3.4367471 0.0095336811   -4.3423449   0.90559776   439061 
 2265000   0.60291256   -4.3407664   -4.3407664   -3.4363996 0.0063456899   -4.3407664   0.90436678   439061 
 2266000   0.60236611   -4.3400238   -4.3400238   -3.4364767 0.0025824644   -4.3400238    0.9035471   439061 
 2267000   0.60215153   -4.3408245   -4.3408245   -3.4375993 0.00088106599   -4.3408245   0.90322524   439061 
 2268000   0.60318794      -4.3422      -4.3422   -3.4374201 -0.0020263343      -4.3422   0.90477985   439061 
 2269000   0.60283033   -4.3424926   -4.3424926   -3.4382491 -0.0019108454   -4.3424926   0.90424344   439061 
 2270000   0.60236987   -4.3418293   -4.3418293   -3.4382765 0.0018418592   -4.3418293   0.90355274   439061 
 2271000   0.60253156   -4.3429463   -4.3429463    -3.439151 0.0038773361   -4.3429463   0.90379529   439061 
 2272000   0.60319162   -4.3436798   -4.3436798   -3.4388944 0.0020836991   -4.3436798   0.90478537   439061 
 2273000   0.60289233   -4.3429334   -4.3429334    -3.438597 0.0091914489   -4.3429334   0.90433643   439061 
 2274000   0.60434503   -4.3448649   -4.3448649   -3.4383494 0.0098567041   -4.3448649   0.90651548   439061 
 2275000    0.6044063    -4.345725    -4.345725   -3.4391176  0.012187927    -4.345725   0.90660738   439061 
 2276000   0.60405744   -4.3463035   -4.3463035   -3.4402194 0.0053310842   -4.3463035   0.90608409   439061 
 2277000   0.60276404   -4.3438141   -4.3438141   -3.4396701  0.010890733   -4.3438141   0.90414401   439061 
 2278000   0.60327245   -4.3444304   -4.3444304   -3.4395238 0.0057414345   -4.3444304   0.90490662   439061 
 2279000   0.60461312   -4.3460546   -4.3460546    -3.439137  0.005285779   -4.3460546   0.90691761   439061 
 2280000   0.60333236    -4.344819    -4.344819   -3.4398226 0.0066577847    -4.344819   0.90499649   439061 
 2281000   0.60224026   -4.3430528   -4.3430528   -3.4396945 0.0032638645   -4.3430528   0.90335833   439061 
 2282000   0.60115577   -4.3426625   -4.3426625   -3.4409309 0.00076030367   -4.3426625    0.9017316   439061 
 2283000    0.6025247   -4.3434164   -4.3434164   -3.4396314 -0.00042829247   -4.3434164   0.90378499   439061 
 2284000   0.60263066   -4.3436317   -4.3436317   -3.4396877 0.0023675105   -4.3436317   0.90394393   439061 
 2285000   0.60261713   -4.3429505   -4.3429505   -3.4390269 0.0068503964   -4.3429505   0.90392364   439061 
 2286000   0.60346664   -4.3433354   -4.3433354   -3.4381375 0.0080132242   -4.3433354   0.90519789   439061 
 2287000   0.60324697   -4.3437396   -4.3437396   -3.4388712 0.0066540988   -4.3437396   0.90486839   439061 
 2288000   0.60256134   -4.3426041   -4.3426041   -3.4387642 0.0075457674   -4.3426041   0.90383995   439061 
 2289000   0.60245824   -4.3429218   -4.3429218   -3.4392365 0.0043165665   -4.3429218   0.90368531   439061 
 2290000   0.60275295   -4.3435911   -4.3435911   -3.4394637 0.0056940041   -4.3435911   0.90412736   439061 
 2291000   0.60282569   -4.3431902   -4.3431902   -3.4389537 0.0069185788   -4.3431902   0.90423648   439061 
 2292000   0.60200842   -4.3411934   -4.3411934   -3.4381828  0.010622681   -4.3411934   0.90301057   439061 
 2293000   0.60334352   -4.3432781   -4.3432781   -3.4382649 0.0044050306   -4.3432781   0.90501322   439061 
 2294000   0.60223254    -4.341839    -4.341839   -3.4384922 0.0059312753    -4.341839   0.90334675   439061 
 2295000    0.6029296   -4.3424167   -4.3424167   -3.4380244 0.0098352736   -4.3424167   0.90439235   439061 
 2296000   0.60325534   -4.3427522   -4.3427522   -3.4378712 0.0072252416   -4.3427522   0.90488095   439061 
 2297000   0.60256072   -4.3416943   -4.3416943   -3.4378553 0.0061237992   -4.3416943   0.90383902   439061 
 2298000   0.60424029    -4.343761    -4.343761   -3.4374027 -0.00030682382    -4.343761   0.90635837   439061 
 2299000   0.60296026   -4.3425261   -4.3425261   -3.4380877 0.0065034153   -4.3425261   0.90443833   439061 
 2300000   0.60369934   -4.3428812   -4.3428812   -3.4373343 0.0055070866   -4.3428812   0.90554694   439061 
 2301000   0.60280512   -4.3423759   -4.3423759   -3.4381703 0.0013773193   -4.3423759   0.90420562   439061 
 2302000   0.60171682   -4.3420413   -4.3420413   -3.4394681  0.003488864   -4.3420413   0.90257317   439061 
 2303000   0.60263998   -4.3416751   -4.3416751   -3.4377172 0.0027989657   -4.3416751    0.9039579   439061 
 2304000   0.60301082   -4.3414618   -4.3414618   -3.4369476  0.010925447   -4.3414618   0.90451417   439061 
 2305000   0.60358749   -4.3434275   -4.3434275   -3.4380483 0.0087608577   -4.3434275   0.90537918   439061 
 2306000   0.60371984   -4.3433787   -4.3433787    -3.437801 0.0088955102   -4.3433787    0.9055777   439061 
 2307000   0.60272002   -4.3418857   -4.3418857   -3.4378077 0.0053502112   -4.3418857   0.90407797   439061 
 2308000    0.6028487   -4.3425467   -4.3425467   -3.4382757 0.0047014803   -4.3425467   0.90427099   439061 
 2309000   0.60231885   -4.3425475   -4.3425475   -3.4390713 0.0033260744   -4.3425475   0.90347622   439061 
 2310000   0.60248596   -4.3423664   -4.3423664   -3.4386395 0.0040300922   -4.3423664   0.90372689   439061 
 2311000   0.60297481   -4.3422125   -4.3422125   -3.4377523 0.0011741618   -4.3422125   0.90446016   439061 
 2312000   0.60187742   -4.3419342   -4.3419342   -3.4391201 -0.00060062958   -4.3419342   0.90281407   439061 
 2313000   0.60266409   -4.3426933   -4.3426933   -3.4386992 0.0030281077   -4.3426933   0.90399407   439061 
 2314000   0.60279289   -4.3437513   -4.3437513    -3.439564 9.5088609e-05   -4.3437513   0.90418728   439061 
 2315000   0.60324091   -4.3430562   -4.3430562   -3.4381969 0.0081476733   -4.3430562    0.9048593   439061 
 2316000   0.60328266   -4.3430201   -4.3430201   -3.4380982 0.0065007923   -4.3430201   0.90492193   439061 
 2317000   0.60319463   -4.3434747   -4.3434747   -3.4386848 0.0083851299   -4.3434747   0.90478989   439061 
 2318000   0.60305383   -4.3441713   -4.3441713   -3.4395927 0.0058759651   -4.3441713   0.90457869   439061 
 2319000     0.601914   -4.3429287   -4.3429287   -3.4400598 0.0070479207   -4.3429287   0.90286894   439061 
 2320000    0.6026761   -4.3442617   -4.3442617   -3.4402496 0.0070900796   -4.3442617   0.90401209   439061 
 2321000    0.6035969    -4.345497    -4.345497   -3.4401037  0.001768448    -4.345497   0.90539329   439061 
 2322000   0.60208069   -4.3441938   -4.3441938   -3.4410748 0.0044847127   -4.3441938   0.90311898   439061 
 2323000   0.60259111    -4.344393    -4.344393   -3.4405084  0.010877743    -4.344393   0.90388461   439061 
 2324000   0.60174897   -4.3431594   -4.3431594    -3.440538  0.010809454   -4.3431594    0.9026214   439061 
 2325000     0.601581   -4.3432386   -4.3432386   -3.4408691 0.0074292325   -4.3432386   0.90236944   439061 
 2326000   0.60297856   -4.3454494   -4.3454494   -3.4409837 0.0037456622   -4.3454494   0.90446577   439061 
 2327000   0.60302476   -4.3451232   -4.3451232   -3.4405881  0.001026595   -4.3451232   0.90453508   439061 
 2328000   0.60215181   -4.3441532   -4.3441532   -3.4409276 0.0028864096   -4.3441532   0.90322565   439061 
 2329000   0.60247403   -4.3452418   -4.3452418   -3.4415328  0.004161305   -4.3452418   0.90370899   439061 
 2330000   0.60231143    -4.344996    -4.344996   -3.4415309 0.0081969114    -4.344996   0.90346509   439061 
 2331000   0.60317356   -4.3464839   -4.3464839   -3.4417257  0.002133705   -4.3464839   0.90475827   439061 
 2332000   0.60298976   -4.3456024   -4.3456024   -3.4411198 0.0023860196   -4.3456024   0.90448258   439061 
 2333000   0.60289512   -4.3466512   -4.3466512   -3.4423106 0.0070577913   -4.3466512   0.90434062   439061 
 2334000   0.60191423   -4.3445265   -4.3445265   -3.4416572 0.0087019394   -4.3445265   0.90286929   439061 
 2335000   0.60266598   -4.3458651   -4.3458651   -3.4418681  0.011732154   -4.3458651   0.90399692   439061 
 2336000   0.60210338   -4.3454001   -4.3454001   -3.4422471 0.0061056825   -4.3454001   0.90315301   439061 
 2337000   0.60263622    -4.346119    -4.346119   -3.4421667  0.007755858    -4.346119   0.90395227   439061 
 2338000    0.6027899   -4.3460056   -4.3460056   -3.4418228 0.0066958496   -4.3460056   0.90418279   439061 
 2339000   0.60240356   -4.3457632   -4.3457632   -3.4421599 0.0047705315   -4.3457632   0.90360328   439061 
 2340000   0.60174904    -4.344453    -4.344453   -3.4418315 0.0051050339    -4.344453    0.9026215   439061 
 2341000   0.60226048   -4.3459013   -4.3459013   -3.4425126  0.002347692   -4.3459013   0.90338867   439061 
 2342000   0.60198795   -4.3459999   -4.3459999   -3.4430201 0.0019764032   -4.3459999   0.90297987   439061 
 2343000   0.60163448   -4.3454452   -4.3454452   -3.4429955 0.0024493227   -4.3454452   0.90244966   439061 
 2344000   0.60186802    -4.345126    -4.345126    -3.442326 0.0018625888    -4.345126   0.90279997   439061 
 2345000   0.60269373    -4.345463    -4.345463   -3.4414245 0.0076508663    -4.345463   0.90403853   439061 
 2346000   0.60247537   -4.3455747   -4.3455747   -3.4418637 0.0050695368   -4.3455747   0.90371099   439061 
 2347000   0.60300866   -4.3462386   -4.3462386   -3.4417276 0.0056981638   -4.3462386   0.90451093   439061 
 2348000   0.60337221   -4.3459528   -4.3459528   -3.4408966  0.012823024   -4.3459528   0.90505625   439061 
 2349000   0.60312109   -4.3459363   -4.3459363   -3.4412568 0.0055715938   -4.3459363   0.90467957   439061 
 2350000   0.60276395   -4.3453152   -4.3453152   -3.4411713  0.008678622   -4.3453152   0.90414386   439061 
 2351000   0.60151447   -4.3442778   -4.3442778   -3.4420082 0.0066750409   -4.3442778   0.90226965   439061 
 2352000   0.60171589    -4.344328    -4.344328   -3.4417562 0.0037491616    -4.344328   0.90257178   439061 
 2353000    0.6020531   -4.3444567   -4.3444567   -3.4413792 8.960238e-05   -4.3444567   0.90307759   439061 
 2354000   0.60351694   -4.3461344   -4.3461344   -3.4408611 0.0016630115   -4.3461344   0.90527335   439061 
 2355000   0.60331565   -4.3455635   -4.3455635   -3.4405921 0.0013029267   -4.3455635   0.90497141   439061 
 2356000   0.60290695   -4.3439576   -4.3439576   -3.4395992  0.003303475   -4.3439576   0.90435837   439061 
 2357000   0.60396889   -4.3456292   -4.3456292    -3.439678 -0.00017009616   -4.3456292   0.90595127   439061 
 2358000   0.60375941   -4.3453345   -4.3453345   -3.4396974 0.0063614821   -4.3453345   0.90563705   439061 
 2359000   0.60384374   -4.3459769   -4.3459769   -3.4402133 0.0048239935   -4.3459769   0.90576355   439061 
 2360000   0.60294929   -4.3445197   -4.3445197   -3.4400978 0.0066436744   -4.3445197   0.90442188   439061 
 2361000   0.60357179   -4.3446863   -4.3446863   -3.4393306 0.0078508649   -4.3446863   0.90535562   439061 
 2362000   0.60260151   -4.3438859   -4.3438859   -3.4399857  0.010734917   -4.3438859   0.90390021   439061 
 2363000   0.60372994   -4.3453137   -4.3453137   -3.4397209 0.0097275035   -4.3453137   0.90559285   439061 
 2364000   0.60292566   -4.3450053   -4.3450053   -3.4406188 0.0044072679   -4.3450053   0.90438643   439061 
 2365000   0.60247594   -4.3439248   -4.3439248   -3.4402129 0.0072346044   -4.3439248   0.90371186   439061 
 2366000   0.60223473   -4.3445008   -4.3445008   -3.4411507 0.00012785718   -4.3445008   0.90335004   439061 
 2367000   0.60190107   -4.3438077   -4.3438077   -3.4409581 0.00081743595   -4.3438077   0.90284954   439061 
 2368000   0.60253523   -4.3440322   -4.3440322   -3.4402314 0.0027810179   -4.3440322   0.90380079   439061 
 2369000   0.60303296   -4.3453547   -4.3453547   -3.4408073 2.5504287e-05   -4.3453547   0.90454738   439061 
 2370000   0.60214108   -4.3447008   -4.3447008   -3.4414912 -0.00022044141   -4.3447008   0.90320956   439061 
 2371000   0.60093739   -4.3431711   -4.3431711   -3.4417671 0.0022608802   -4.3431711   0.90140403   439061 
 2372000   0.60218969   -4.3450776   -4.3450776   -3.4417952 0.0044763054   -4.3450776   0.90328248   439061 
 2373000   0.60361322   -4.3472582   -4.3472582   -3.4418404 0.0041367511   -4.3472582   0.90541777   439061 
 2374000   0.60275101   -4.3452931   -4.3452931   -3.4411686  0.012154688   -4.3452931   0.90412446   439061 
 2375000   0.60358427    -4.346586    -4.346586   -3.4412117   0.01006573    -4.346586   0.90537434   439061 
 2376000   0.60357686   -4.3468911   -4.3468911   -3.4415278 0.0043795034   -4.3468911   0.90536323   439061 
 2377000   0.60234715   -4.3459535   -4.3459535   -3.4424349   0.00567377   -4.3459535   0.90351867   439061 
 2378000   0.60279883   -4.3479993   -4.3479993   -3.4438032 0.0029102201   -4.3479993   0.90419619   439061 
 2379000   0.60202422   -4.3462854   -4.3462854   -3.4432512 0.0026999969   -4.3462854   0.90303428   439061 
 2380000   0.60233669   -4.3469117   -4.3469117   -3.4434088 0.0018413633   -4.3469117   0.90350298   439061 
 2381000    0.6015489   -4.3456772   -4.3456772   -3.4433559 0.0052663813   -4.3456772   0.90232129   439061 
 2382000   0.60226266   -4.3461764   -4.3461764   -3.4427845 0.0058564054   -4.3461764   0.90339193   439061 
 2383000   0.60320119   -4.3476256   -4.3476256   -3.4428259 0.0026413403   -4.3476256   0.90479973   439061 
 2384000   0.60290773   -4.3456235   -4.3456235    -3.441264 0.0084079274   -4.3456235   0.90435953   439061 
 2385000   0.60245475   -4.3456734   -4.3456734   -3.4419933 0.0074652334   -4.3456734   0.90368007   439061 
 2386000     0.603924   -4.3470446   -4.3470446   -3.4411607 0.0065667608   -4.3470446   0.90588394   439061 
 2387000   0.60273754   -4.3457167   -4.3457167   -3.4416124 0.0088434875   -4.3457167   0.90410425   439061 
 2388000   0.60351396   -4.3477368   -4.3477368    -3.442468 0.0047356755   -4.3477368   0.90526888   439061 
 2389000   0.60147739   -4.3462385   -4.3462385   -3.4440244 0.0028439942   -4.3462385   0.90221402   439061 
 2390000   0.60226722   -4.3464684   -4.3464684   -3.4430696 -0.00071933815   -4.3464684   0.90339878   439061 
 2391000   0.60209792   -4.3460693   -4.3460693   -3.4429244 0.0022234399   -4.3460693   0.90314482   439061 
 2392000   0.60229647   -4.3457252   -4.3457252   -3.4422825 0.0071083546   -4.3457252   0.90344264   439061 
 2393000   0.60212898   -4.3464657   -4.3464657   -3.4432743  0.006393545   -4.3464657   0.90319141   439061 
 2394000   0.60125649   -4.3459783   -4.3459783   -3.4440956 0.0058273692   -4.3459783   0.90188268   439061 
 2395000   0.60183095   -4.3475905   -4.3475905   -3.4448461 0.00039783422   -4.3475905   0.90274436   439061 
 2396000   0.60314584   -4.3485799   -4.3485799   -3.4438632 0.0044090144   -4.3485799    0.9047167   439061 
 2397000   0.60271619   -4.3479478   -4.3479478   -3.4438755 0.0095547041   -4.3479478   0.90407223   439061 
 2398000   0.60261553    -4.348437    -4.348437   -3.4445158  0.011429227    -4.348437   0.90392123   439061 
 2399000   0.60306372   -4.3495334   -4.3495334   -3.4449398 0.0088448478   -4.3495334   0.90459351   439061 
 2400000    0.6019245   -4.3477429   -4.3477429   -3.4448582 0.0093566882   -4.3477429    0.9028847   439061 
 2401000   0.60181122   -4.3483161   -4.3483161   -3.4456013 0.0049630255   -4.3483161   0.90271477   439061 
 2402000   0.60150616   -4.3476525   -4.3476525   -3.4453953 0.0071936696   -4.3476525   0.90225718   439061 
 2403000   0.60163481   -4.3475446   -4.3475446   -3.4450944   0.00544279   -4.3475446   0.90245015   439061 
 2404000   0.60194068   -4.3474834   -4.3474834   -3.4445745 -0.00042720298   -4.3474834   0.90290897   439061 
 2405000   0.60122766   -4.3457437   -4.3457437   -3.4439043   0.00249557   -4.3457437   0.90183943   439061 
 2406000   0.60177452   -4.3466849   -4.3466849   -3.4440251 0.0066297127   -4.3466849   0.90265972   439061 
 2407000   0.60234448   -4.3469285   -4.3469285   -3.4434138 0.0043960471   -4.3469285   0.90351467   439061 
 2408000   0.60248899   -4.3471206   -4.3471206   -3.4433892 0.0042662873   -4.3471206   0.90373142   439061 
 2409000   0.60246546   -4.3461688   -4.3461688   -3.4424727 0.0041760811   -4.3461688   0.90369613   439061 
 2410000    0.6022044   -4.3463029   -4.3463029   -3.4429984 0.0019376552   -4.3463029   0.90330455   439061 
 2411000   0.60316666   -4.3487457   -4.3487457   -3.4439978 0.00037116456   -4.3487457   0.90474793   439061 
 2412000   0.60344377   -4.3482274   -4.3482274   -3.4430638 0.0065992685   -4.3482274   0.90516359   439061 
 2413000   0.60209327   -4.3475474   -4.3475474   -3.4444095 0.0044835586   -4.3475474   0.90313785   439061 
 2414000   0.60238098   -4.3480832   -4.3480832   -3.4445138 0.0013566596   -4.3480832   0.90356941   439061 
 2415000    0.6029325   -4.3490586   -4.3490586   -3.4446619 0.0017254628   -4.3490586    0.9043967   439061 
 2416000   0.60268348   -4.3480172   -4.3480172   -3.4439941 0.0073477733   -4.3480172   0.90402317   439061 
 2417000   0.60199222   -4.3482672   -4.3482672    -3.445281 0.0071201934   -4.3482672   0.90298627   439061 
 2418000   0.60300568   -4.3490113   -4.3490113   -3.4445049  0.006755004   -4.3490113   0.90450646   439061 
 2419000   0.60150727   -4.3470883   -4.3470883   -3.4448295 0.0064895926   -4.3470883   0.90225885   439061 
 2420000   0.60206341   -4.3479182   -4.3479182   -3.4448251 0.0056583297   -4.3479182   0.90309306   439061 
 2421000   0.60236935    -4.348597    -4.348597   -3.4450451 0.0064081343    -4.348597   0.90355196   439061 
 2422000   0.60173163   -4.3469429   -4.3469429   -3.4443475 0.0059728182   -4.3469429    0.9025954   439061 
 2423000   0.60277616    -4.348696    -4.348696   -3.4445339 0.0057973359    -4.348696   0.90416218   439061 
 2424000   0.60248648    -4.347404    -4.347404   -3.4436763 0.0073893081    -4.347404   0.90372766   439061 
 2425000   0.60262148   -4.3482152   -4.3482152    -3.444285 0.0059798076   -4.3482152   0.90393017   439061 
 2426000   0.60076445   -4.3460165   -4.3460165   -3.4448719 0.0087805107   -4.3460165   0.90114463   439061 
 2427000   0.60182456   -4.3469899   -4.3469899   -3.4442551 0.0059029897   -4.3469899   0.90273478   439061 
 2428000   0.60239787   -4.3480518   -4.3480518   -3.4444571  0.003450655   -4.3480518   0.90359474   439061 
 2429000   0.60174527   -4.3470635   -4.3470635   -3.4444476 0.0072315482   -4.3470635   0.90261585   439061 
 2430000   0.60201019   -4.3478684   -4.3478684   -3.4448552 0.0042046044   -4.3478684   0.90301324   439061 
 2431000   0.60221041   -4.3482549   -4.3482549   -3.4449413 0.0058722882   -4.3482549   0.90331356   439061 
 2432000   0.60135345   -4.3480295   -4.3480295   -3.4460014   0.00385933   -4.3480295   0.90202812   439061 
 2433000    0.6023697   -4.3481806   -4.3481806   -3.4446282 0.0045775467   -4.3481806   0.90355249   439061 
 2434000   0.60156266   -4.3477599   -4.3477599    -3.445418 0.0099805682   -4.3477599   0.90234193   439061 
 2435000   0.60213171   -4.3484245   -4.3484245    -3.445229 0.0062184054   -4.3484245   0.90319551   439061 
 2436000   0.60147891     -4.34801     -4.34801   -3.4457936 0.0051528429     -4.34801   0.90221631   439061 
 2437000   0.60342072   -4.3507197   -4.3507197   -3.4455907 0.0035507392   -4.3507197   0.90512902   439061 
 2438000   0.60248264   -4.3498868   -4.3498868   -3.4461649 0.0044261181   -4.3498868    0.9037219   439061 
 2439000   0.60333827   -4.3506246   -4.3506246   -3.4456193 0.0037532399   -4.3506246   0.90500534   439061 
 2440000   0.60137871   -4.3478164   -4.3478164   -3.4457504  0.011688455   -4.3478164   0.90206601   439061 
 2441000   0.60168647   -4.3488172   -4.3488172   -3.4462895 0.0071855375   -4.3488172   0.90252766   439061 
 2442000   0.60186164   -4.3493521   -4.3493521   -3.4465617 0.0084576778   -4.3493521   0.90279041   439061 
 2443000   0.60212693   -4.3501984   -4.3501984   -3.4470101  0.003534399   -4.3501984   0.90318834   439061 
 2444000   0.60183438   -4.3493404   -4.3493404   -3.4465909 0.0050637653   -4.3493404   0.90274952   439061 
 2445000   0.60232654    -4.350115    -4.350115   -3.4466273 0.0021912893    -4.350115   0.90348775   439061 
 2446000   0.60176225     -4.34857     -4.34857   -3.4459287 0.0073241462     -4.34857   0.90264132   439061 
 2447000   0.60235048    -4.348895    -4.348895   -3.4453714 0.0042633724    -4.348895   0.90352366   439061 
 2448000   0.60211865   -4.3481448   -4.3481448   -3.4449689  0.010472801   -4.3481448   0.90317591   439061 
 2449000   0.60130805   -4.3473468   -4.3473468   -3.4453868 0.0035871918   -4.3473468   0.90196002   439061 
 2450000   0.60144276   -4.3478541   -4.3478541    -3.445692 0.0033003028   -4.3478541   0.90216208   439061 
 2451000   0.60166311   -4.3482479   -4.3482479   -3.4457552 0.0037370813   -4.3482479   0.90249261   439061 
 2452000   0.60161458   -4.3477505   -4.3477505   -3.4453306 0.0016017808   -4.3477505   0.90241982   439061 
 2453000   0.60177455   -4.3492766   -4.3492766   -3.4466169 0.0013631091   -4.3492766   0.90265977   439061 
 2454000   0.60140828   -4.3491728   -4.3491728   -3.4470624 -0.0013698619   -4.3491728   0.90211037   439061 
 2455000   0.60172416   -4.3484773   -4.3484773   -3.4458931 0.0016835137   -4.3484773   0.90258419   439061 
 2456000   0.60183611   -4.3497866   -4.3497866   -3.4470345 0.0032736293   -4.3497866   0.90275211   439061 
 2457000   0.60294818   -4.3500192   -4.3500192    -3.445599 0.0081951616   -4.3500192    0.9044202   439061 
 2458000     0.603296   -4.3510015   -4.3510015   -3.4460596  0.007999209   -4.3510015   0.90494194   439061 
 2459000   0.60327461   -4.3506303   -4.3506303   -3.4457205  0.010520778   -4.3506303   0.90490986   439061 
 2460000    0.6031185   -4.3507984   -4.3507984   -3.4461227 0.0043824517   -4.3507984   0.90467569   439061 
 2461000    0.6020279   -4.3499981   -4.3499981   -3.4469583 0.0071906947   -4.3499981    0.9030398   439061 
 2462000   0.60218727   -4.3498561   -4.3498561   -3.4465772 0.0080978281   -4.3498561   0.90327885   439061 
 2463000   0.60123137   -4.3491669   -4.3491669   -3.4473219 0.0054647736   -4.3491669     0.901845   439061 
 2464000   0.60159962   -4.3510787   -4.3510787   -3.4486813 0.0044451789   -4.3510787   0.90239738   439061 
 2465000   0.60083378   -4.3505479   -4.3505479   -3.4492993 -0.0017205678   -4.3505479   0.90124861   439061 
 2466000   0.60134169   -4.3501229   -4.3501229   -3.4481124 -0.0037649337   -4.3501229   0.90201048   439061 
 2467000   0.60187311   -4.3503029   -4.3503029   -3.4474953 0.0032527354   -4.3503029   0.90280762   439061 
 2468000   0.60171186   -4.3496809   -4.3496809   -3.4471151 0.0064620799   -4.3496809   0.90256574   439061 
 2469000   0.60214771   -4.3499963   -4.3499963   -3.4467768  0.004972604   -4.3499963   0.90321951   439061 
 2470000   0.60221497   -4.3496406   -4.3496406   -3.4463202  0.005098396   -4.3496406    0.9033204   439061 
 2471000   0.60167629   -4.3498279   -4.3498279   -3.4473155 0.0043988887   -4.3498279   0.90251239   439061 
 2472000   0.60026082   -4.3483539   -4.3483539   -3.4479647 0.0056998726   -4.3483539   0.90038918   439061 
 2473000   0.60293756   -4.3512057   -4.3512057   -3.4468014 0.0048265299   -4.3512057   0.90440428   439061 
 2474000   0.60186575   -4.3504561   -4.3504561   -3.4476595 0.0062514702   -4.3504561   0.90279658   439061 
 2475000   0.60183702     -4.34995     -4.34995   -3.4471966  0.006361827     -4.34995   0.90275347   439061 
 2476000   0.60128558   -4.3493327   -4.3493327   -3.4474064 0.0066801812   -4.3493327   0.90192631   439061 
 2477000   0.60171506   -4.3505964   -4.3505964   -3.4480259 0.0038314899   -4.3505964   0.90257053   439061 
 2478000    0.6018354   -4.3510942   -4.3510942   -3.4483432 0.0023105817   -4.3510942   0.90275104   439061 
 2479000   0.60144799   -4.3510302   -4.3510302   -3.4488603 -0.00079374872   -4.3510302   0.90216993   439061 
 2480000   0.60081727    -4.349461    -4.349461   -3.4482371  0.002527348    -4.349461   0.90122385   439061 
 2481000   0.60048632    -4.349417    -4.349417   -3.4486895 0.0095460668    -4.349417   0.90072743   439061 
 2482000   0.60097612   -4.3494266   -4.3494266   -3.4479644 0.0053166917   -4.3494266   0.90146213   439061 
 2483000   0.60180557   -4.3502601   -4.3502601   -3.4475538  0.012010613   -4.3502601   0.90270629   439061 
 2484000   0.60122448   -4.3493903   -4.3493903   -3.4475556 0.0094540622   -4.3493903   0.90183466   439061 
 2485000   0.60202054   -4.3500833   -4.3500833   -3.4470546 0.0090612283   -4.3500833   0.90302876   439061 
 2486000   0.60193745   -4.3504826   -4.3504826   -3.4475785 0.0065161136   -4.3504826   0.90290412   439061 
 2487000   0.60129484   -4.3510577   -4.3510577   -3.4491175 0.0017809978   -4.3510577    0.9019402   439061 
 2488000   0.60143549   -4.3504536   -4.3504536   -3.4483024 0.0097692303   -4.3504536   0.90215118   439061 
 2489000    0.6024076   -4.3510223   -4.3510223   -3.4474129 0.0062407536   -4.3510223   0.90360934   439061 
 2490000   0.60081273   -4.3484386   -4.3484386   -3.4472215 0.0055262614   -4.3484386   0.90121704   439061 
 2491000   0.60150087   -4.3497807   -4.3497807   -3.4475315 0.0018317911   -4.3497807   0.90224925   439061 
 2492000   0.60189032   -4.3497104   -4.3497104    -3.446877 0.0035071548   -4.3497104   0.90283342   439061 
 2493000   0.60121855   -4.3493369   -4.3493369   -3.4475111 0.0048404474   -4.3493369   0.90182577   439061 
 2494000   0.60141264   -4.3496653   -4.3496653   -3.4475484 0.0062517831   -4.3496653    0.9021169   439061 
 2495000   0.60173862   -4.3492773   -4.3492773   -3.4466714 0.0027220002   -4.3492773   0.90260588   439061 
 2496000   0.60127442   -4.3492195   -4.3492195   -3.4473099 0.00073281585   -4.3492195   0.90190958   439061 
 2497000   0.60203879   -4.3508572   -4.3508572   -3.4478011   0.00169084   -4.3508572   0.90305612   439061 
 2498000   0.60193365    -4.350216    -4.350216   -3.4473176  0.006989771    -4.350216   0.90289842   439061 
 2499000   0.60089075    -4.349274    -4.349274     -3.44794 0.0062263922    -4.349274   0.90133407   439061 
 2500000   0.60205556    -4.350276    -4.350276   -3.4471947 0.0063826751    -4.350276   0.90308128   439061 
 2501000   0.60183857   -4.3500437   -4.3500437   -3.4472879 0.0061140273   -4.3500437    0.9027558   439061 
 2502000   0.60191676    -4.349982    -4.349982   -3.4471089  0.010754425    -4.349982   0.90287308   439061 
 2503000    0.6016585   -4.3496932   -4.3496932   -3.4472076 0.0096182555   -4.3496932   0.90248569   439061 
 2504000   0.60172463   -4.3502624   -4.3502624   -3.4476775 0.0051761663   -4.3502624   0.90258489   439061 
 2505000    0.6007225   -4.3489577   -4.3489577    -3.447876 0.0053892391   -4.3489577    0.9010817   439061 
 2506000    0.6004169   -4.3491347   -4.3491347   -3.4485114 0.0041967132   -4.3491347    0.9006233   439061 
 2507000   0.60081589   -4.3495279   -4.3495279   -3.4483062 0.0034264206   -4.3495279   0.90122178   439061 
 2508000   0.60119892   -4.3502219   -4.3502219   -3.4484255 0.00091401284   -4.3502219   0.90179633   439061 
 2509000   0.60061969   -4.3496934   -4.3496934   -3.4487659 0.00073445301   -4.3496934   0.90092749   439061 
 2510000     0.600658   -4.3495795   -4.3495795   -3.4485946 0.0028448668   -4.3495795   0.90098494   439061 
 2511000   0.60187614   -4.3506197   -4.3506197   -3.4478075 0.0068596952   -4.3506197   0.90281215   439061 
 2512000   0.60116611   -4.3499994   -4.3499994   -3.4482523 0.0098525703   -4.3499994   0.90174711   439061 
 2513000   0.60181759   -4.3519842   -4.3519842   -3.4492599 0.0064375826   -4.3519842   0.90272432   439061 
 2514000   0.60201304   -4.3520801   -4.3520801   -3.4490626 0.0043320059   -4.3520801    0.9030175   439061 
 2515000   0.60194202   -4.3514676   -4.3514676   -3.4485566 0.0081430507   -4.3514676   0.90291098   439061 
 2516000   0.60225733   -4.3514503   -4.3514503   -3.4480664 0.0095318039   -4.3514503   0.90338394   439061 
 2517000   0.60302949   -4.3519225   -4.3519225   -3.4473803  0.008425196   -4.3519225   0.90454218   439061 
 2518000   0.60097787    -4.349501    -4.349501   -3.4480363 0.0097050601    -4.349501   0.90146475   439061 
 2519000   0.60170316   -4.3509445   -4.3509445   -3.4483918 0.0034823656   -4.3509445   0.90255269   439061 
 2520000   0.60206184   -4.3501839   -4.3501839   -3.4470932 0.0045971092   -4.3501839    0.9030907   439061 
 2521000   0.60185191   -4.3506325   -4.3506325   -3.4478567 -4.3859184e-05   -4.3506325   0.90277581   439061 
 2522000    0.6007681   -4.3493639   -4.3493639   -3.4482138 -0.00029827651   -4.3493639    0.9011501   439061 
 2523000   0.60130318   -4.3498065   -4.3498065   -3.4478537 0.00049079979   -4.3498065   0.90195272   439061 
 2524000   0.59985033   -4.3476111   -4.3476111   -3.4478376 0.0037669356   -4.3476111   0.89977345   439061 
 2525000   0.60045641   -4.3488562   -4.3488562   -3.4481736 0.00098653064   -4.3488562   0.90068257   439061 
 2526000   0.60056481   -4.3483296   -4.3483296   -3.4474845 0.0070200642   -4.3483296   0.90084516   439061 
 2527000   0.60092092   -4.3491938   -4.3491938   -3.4478145 0.0036924584   -4.3491938   0.90137933   439061 
 2528000   0.60236005   -4.3515395   -4.3515395   -3.4480015 0.0046613599   -4.3515395   0.90353801   439061 
 2529000   0.60201154   -4.3507453   -4.3507453     -3.44773 0.0051852025   -4.3507453   0.90301526   439061 
 2530000   0.60204061   -4.3512654   -4.3512654   -3.4482066 0.0087843192   -4.3512654   0.90305886   439061 
 2531000   0.60229214   -4.3517185   -4.3517185   -3.4482824  0.011776801   -4.3517185   0.90343616   439061 
 2532000   0.60224473   -4.3513125   -4.3513125   -3.4479475  0.010379198   -4.3513125   0.90336504   439061 
 2533000   0.60251674   -4.3527847   -4.3527847   -3.4490117 0.0059442855   -4.3527847   0.90377305   439061 
 2534000   0.60106536   -4.3514196   -4.3514196   -3.4498236 0.0045513656   -4.3514196   0.90159599   439061 
 2535000   0.60159136   -4.3516936   -4.3516936   -3.4493086 0.0052328769   -4.3516936   0.90238499   439061 
 2536000   0.60188924   -4.3516732   -4.3516732   -3.4488414 0.00026238002   -4.3516732    0.9028318   439061 
 2537000   0.60184015   -4.3505619   -4.3505619   -3.4478037 0.00046626325   -4.3505619   0.90275817   439061 
 2538000   0.60046952   -4.3485628   -4.3485628   -3.4478606  0.006864958   -4.3485628   0.90070223   439061 
 2539000   0.60174288   -4.3498417   -4.3498417   -3.4472295 0.0023376324   -4.3498417   0.90261227   439061 
 2540000   0.60144087   -4.3496244   -4.3496244   -3.4474651 0.00021711714   -4.3496244   0.90215925   439061 
 2541000   0.60096355   -4.3498543   -4.3498543    -3.448411  0.002641187   -4.3498543   0.90144327   439061 
 2542000   0.60053135   -4.3494395   -4.3494395   -3.4486445 -0.0013910041   -4.3494395   0.90079498   439061 
 2543000   0.59988388   -4.3496709   -4.3496709   -3.4498471 0.0030468189   -4.3496709   0.89982377   439061 
 2544000   0.60165575   -4.3517087   -4.3517087   -3.4492271 0.0077260155   -4.3517087   0.90248157   439061 
 2545000   0.60225843   -4.3529238   -4.3529238   -3.4495383 0.0050035972   -4.3529238   0.90338559   439061 
 2546000   0.60249306   -4.3520519   -4.3520519   -3.4483144  0.009892213   -4.3520519   0.90373753   439061 
 2547000   0.60196143   -4.3518583   -4.3518583   -3.4489182  0.011204462   -4.3518583   0.90294009   439061 
 2548000   0.60202432   -4.3519758   -4.3519758   -3.4489414  0.011452947   -4.3519758   0.90303442   439061 
 2549000   0.60198089   -4.3522671   -4.3522671   -3.4492978 0.0096237251   -4.3522671   0.90296928   439061 
 2550000   0.60058628   -4.3497239   -4.3497239   -3.4488466 0.0089196938   -4.3497239   0.90087737   439061 
 2551000   0.60194547   -4.3517032   -4.3517032    -3.448787 0.0041914188   -4.3517032   0.90291615   439061 
 2552000   0.60216768   -4.3504738   -4.3504738   -3.4472243 0.0075283668   -4.3504738   0.90324946   439061 
 2553000   0.60089938   -4.3487946   -4.3487946   -3.4474476 0.0056247522   -4.3487946   0.90134702   439061 
 2554000   0.60009035    -4.348363    -4.348363   -3.4482296 0.0062992544    -4.348363   0.90013348   439061 
 2555000   0.60060154   -4.3487451   -4.3487451   -3.4478449 -0.0020044348   -4.3487451   0.90090026   439061 
 2556000   0.60019304   -4.3483313   -4.3483313   -3.4480438 0.0019599834   -4.3483313   0.90028751   439061 
 2557000    0.6014015   -4.3490635   -4.3490635   -3.4469633 0.0011547755   -4.3490635    0.9021002   439061 
 2558000   0.60156566   -4.3484662   -4.3484662   -3.4461198 0.0059716075   -4.3484662   0.90234644   439061 
 2559000   0.60241439   -4.3493084   -4.3493084   -3.4456888 0.0043005955   -4.3493084   0.90361953   439061 
 2560000   0.60227533   -4.3497765   -4.3497765   -3.4463656 0.0074610233   -4.3497765   0.90341094   439061 
 2561000   0.60266525   -4.3515494   -4.3515494   -3.4475536 0.0040415458   -4.3515494   0.90399582   439061 
 2562000   0.60297388   -4.3515343   -4.3515343   -3.4470755 0.0039631488   -4.3515343   0.90445877   439061 
 2563000   0.60280514   -4.3510524   -4.3510524   -3.4468468 0.0086484937   -4.3510524   0.90420566   439061 
 2564000   0.60223209   -4.3512917   -4.3512917   -3.4479457 0.0048398586   -4.3512917   0.90334607   439061 
 2565000   0.60218272   -4.3506035   -4.3506035   -3.4473314 0.0067929987   -4.3506035   0.90327202   439061 
 2566000   0.60218415   -4.3516456   -4.3516456   -3.4483715 0.0032382363   -4.3516456   0.90327416   439061 
 2567000   0.60213723   -4.3506449   -4.3506449   -3.4474411 0.0071177528   -4.3506449   0.90320379   439061 
 2568000   0.60077773    -4.349133    -4.349133   -3.4479684   0.00675118    -4.349133   0.90116455   439061 
 2569000   0.60170774   -4.3502941   -4.3502941   -3.4477345 0.0027097296   -4.3502941   0.90255956   439061 
 2570000    0.6015359   -4.3500011   -4.3500011   -3.4476993 -0.00010372913   -4.3500011   0.90230179   439061 
 2571000   0.60191618   -4.3504743   -4.3504743   -3.4476021 0.0013019286   -4.3504743   0.90287222   439061 
 2572000   0.60180076   -4.3502546   -4.3502546   -3.4475555 0.00031776017   -4.3502546   0.90269909   439061 
 2573000   0.60105672   -4.3486453   -4.3486453   -3.4470622 0.0029227942   -4.3486453   0.90158302   439061 
 2574000   0.60116769   -4.3491673   -4.3491673   -3.4474178 0.0034117969   -4.3491673   0.90174948   439061 
 2575000   0.60152785   -4.3495264   -4.3495264   -3.4472367 0.0053162254   -4.3495264   0.90228972   439061 
 2576000   0.60184093   -4.3505561   -4.3505561   -3.4477968 0.0035761282   -4.3505561   0.90275934   439061 
 2577000   0.60108003   -4.3489621   -4.3489621   -3.4473441 0.0062962752   -4.3489621   0.90161799   439061 
 2578000   0.60109045   -4.3487701   -4.3487701   -3.4471365 0.0092340131   -4.3487701   0.90163362   439061 
 2579000   0.60158229   -4.3496376   -4.3496376   -3.4472662 0.0081476701   -4.3496376   0.90237138   439061 
 2580000   0.60228133   -4.3514123   -4.3514123   -3.4479924 0.0066374522   -4.3514123   0.90341993   439061 
 2581000    0.6022083    -4.351131    -4.351131   -3.4478207 0.0037435743    -4.351131   0.90331039   439061 
 2582000   0.60263463   -4.3505612   -4.3505612   -3.4466113 0.0073032976   -4.3505612   0.90394988   439061 
 2583000    0.6025169   -4.3505542   -4.3505542   -3.4467809  0.004897811   -4.3505542   0.90377329   439061 
 2584000   0.60204296   -4.3516464   -4.3516464    -3.448584 -0.0016081999   -4.3516464   0.90306238   439061 
 2585000   0.60076609   -4.3502838   -4.3502838   -3.4491367 -0.001597002   -4.3502838   0.90114708   439061 
 2586000   0.60031501   -4.3490451   -4.3490451   -3.4485746 0.0033594972   -4.3490451   0.90047046   439061 
 2587000   0.60072467   -4.3497338   -4.3497338   -3.4486488 -0.00018098802   -4.3497338   0.90108495   439061 
 2588000   0.60248753    -4.351578    -4.351578   -3.4478487  0.003641841    -4.351578   0.90372924   439061 
 2589000   0.60229958   -4.3508926   -4.3508926   -3.4474452 0.0086406149   -4.3508926   0.90344731   439061 
 2590000   0.60236734   -4.3518131   -4.3518131   -3.4482642 0.0076818744   -4.3518131   0.90354895   439061 
 2591000   0.60274747   -4.3519866   -4.3519866   -3.4478675 0.0052984741   -4.3519866   0.90411915   439061 
 2592000   0.60172653   -4.3517175   -4.3517175   -3.4491298 0.0076916059   -4.3517175   0.90258774   439061 
 2593000   0.60124404   -4.3523672   -4.3523672   -3.4505032 0.0043797925   -4.3523672   0.90186401   439061 
 2594000   0.60131754   -4.3513187   -4.3513187   -3.4493444 0.0091864453   -4.3513187   0.90197426   439061 
 2595000   0.60163857   -4.3515605   -4.3515605   -3.4491047 0.0044728352   -4.3515605    0.9024558   439061 
 2596000   0.60058043    -4.350471    -4.350471   -3.4496024 0.0058620126    -4.350471   0.90086859   439061 
 2597000   0.60090347   -4.3512988   -4.3512988   -3.4499457 0.0049478325   -4.3512988   0.90135316   439061 
 2598000   0.60079733    -4.351332    -4.351332   -3.4501381 -0.0016250018    -4.351332   0.90119394   439061 
 2599000   0.60038263   -4.3517876   -4.3517876   -3.4512157 -0.0015886925   -4.3517876   0.90057189   439061 
 2600000   0.60055181   -4.3510227   -4.3510227    -3.450197 0.0034635707   -4.3510227   0.90082566   439061 
 2601000   0.60030727   -4.3509819   -4.3509819   -3.4505231 0.0077383449   -4.3509819   0.90045885   439061 
 2602000   0.60166326   -4.3520825   -4.3520825   -3.4495897  0.012631957   -4.3520825   0.90249283   439061 
 2603000   0.60208996   -4.3523641   -4.3523641   -3.4492312 0.0091389285   -4.3523641   0.90313288   439061 
 2604000   0.60157234   -4.3511273   -4.3511273   -3.4487708  0.014119872   -4.3511273   0.90235645   439061 
 2605000   0.60262055   -4.3531663   -4.3531663   -3.4492375 0.0075906997   -4.3531663   0.90392876   439061 
 2606000   0.60191884   -4.3529408   -4.3529408   -3.4500646 0.0063340756   -4.3529408    0.9028762   439061 
 2607000   0.60213942   -4.3534765   -4.3534765   -3.4502695 0.0060442264   -4.3534765   0.90320707   439061 
 2608000   0.60052473   -4.3520452   -4.3520452   -3.4512602 -0.00040847086   -4.3520452   0.90078504   439061 
 2609000   0.60003903    -4.351074    -4.351074   -3.4510175 0.0019114479    -4.351074   0.90005649   439061 
 2610000   0.60078762   -4.3526691   -4.3526691   -3.4514897 -0.00034865821   -4.3526691   0.90117938   439061 
 2611000   0.59981291   -4.3511627   -4.3511627   -3.4514454 0.0046359726   -4.3511627   0.89971732   439061 
 2612000   0.60200861   -4.3528009   -4.3528009     -3.44979 0.00045698972   -4.3528009   0.90301086   439061 
 2613000   0.60165445   -4.3523192   -4.3523192   -3.4498396 0.0066311323   -4.3523192   0.90247961   439061 
 2614000   0.60162587   -4.3533406   -4.3533406   -3.4509038 0.0045326455   -4.3533406   0.90243675   439061 
 2615000   0.60191189   -4.3536282   -4.3536282   -3.4507624 0.0067885469   -4.3536282   0.90286577   439061 
 2616000    0.6016464   -4.3539239   -4.3539239   -3.4514564 0.0057879616   -4.3539239   0.90246754   439061 
 2617000   0.60108739   -4.3528208   -4.3528208   -3.4511917 0.0086881079   -4.3528208   0.90162903   439061 
 2618000   0.60166381   -4.3526031   -4.3526031   -3.4501094  0.010241963   -4.3526031   0.90249367   439061 
 2619000   0.60220783   -4.3522789   -4.3522789   -3.4489692 0.0083128613   -4.3522789   0.90330969   439061 
 2620000   0.60196729   -4.3522719   -4.3522719    -3.449323 0.0052470585   -4.3522719   0.90294888   439061 
 2621000   0.60069924   -4.3514366   -4.3514366   -3.4503898  0.007936702   -4.3514366   0.90104681   439061 
 2622000   0.60040512   -4.3500077   -4.3500077   -3.4494021 0.0033276194   -4.3500077   0.90060563   439061 
 2623000   0.60071147   -4.3510806   -4.3510806   -3.4500154 0.0031178805   -4.3510806   0.90106515   439061 
 2624000   0.60014427   -4.3500414   -4.3500414    -3.449827 0.0035364052   -4.3500414   0.90021436   439061 
 2625000   0.60222775    -4.352977    -4.352977   -3.4496375 -0.001553354    -4.352977   0.90333957   439061 
 2626000   0.60012865   -4.3499338   -4.3499338   -3.4497429 0.0036875416   -4.3499338   0.90019092   439061 
 2627000    0.6006061   -4.3502544   -4.3502544   -3.4493473 0.0079792785   -4.3502544    0.9009071   439061 
 2628000   0.60130603   -4.3514817   -4.3514817   -3.4495247 0.0075193565   -4.3514817   0.90195699   439061 
 2629000   0.60074419   -4.3518096   -4.3518096   -3.4506954 0.0059856316   -4.3518096   0.90111423   439061 
 2630000   0.60260225   -4.3543612   -4.3543612   -3.4504599 0.0038153049   -4.3543612   0.90390132   439061 
 2631000   0.60142785   -4.3528352   -4.3528352   -3.4506955 0.0056236816   -4.3528352   0.90213972   439061 
 2632000   0.60143159   -4.3533349   -4.3533349   -3.4511896   0.01043449   -4.3533349   0.90214533   439061 
 2633000   0.60164271   -4.3538384   -4.3538384   -3.4513764 0.0093658871   -4.3538384   0.90246202   439061 
 2634000   0.60111012   -4.3543727   -4.3543727   -3.4527096 0.0055120671   -4.3543727   0.90166313   439061 
 2635000   0.60249271   -4.3552166   -4.3552166   -3.4514796 0.0029308874   -4.3552166     0.903737   439061 
 2636000    0.6015472   -4.3536398   -4.3536398   -3.4513211 0.0063371028   -4.3536398   0.90231875   439061 
 2637000   0.60107041   -4.3516568   -4.3516568   -3.4500532 0.0065840229   -4.3516568   0.90160356   439061 
 2638000   0.60155947   -4.3517193   -4.3517193   -3.4493822 0.0085996267   -4.3517193   0.90233715   439061 
 2639000   0.60083002    -4.351658    -4.351658    -3.450415 0.0026266399    -4.351658   0.90124298   439061 
 2640000   0.60084923   -4.3505567   -4.3505567   -3.4492849 0.0016146438   -4.3505567    0.9012718   439061 
 2641000   0.59959085   -4.3493953   -4.3493953   -3.4500111 0.00083247846   -4.3493953   0.89938422   439061 
 2642000    0.6007793    -4.350783    -4.350783   -3.4496161 -0.0018342904    -4.350783   0.90116689   439061 
 2643000   0.60076876   -4.3505771   -4.3505771    -3.449426 -0.0006261847   -4.3505771   0.90115109   439061 
 2644000    0.6017389   -4.3515408   -4.3515408   -3.4489345 0.0047739835   -4.3515408    0.9026063   439061 
 2645000   0.60184858    -4.350987    -4.350987   -3.4482162 0.0081784104    -4.350987   0.90277081   439061 
 2646000   0.60234338   -4.3522068   -4.3522068   -3.4486938 0.0083675943   -4.3522068   0.90351302   439061 
 2647000   0.60207655   -4.3528057   -4.3528057    -3.449693  0.010263583   -4.3528057   0.90311277   439061 
 2648000   0.60091622    -4.351226    -4.351226   -3.4498537 0.0070569553    -4.351226   0.90137227   439061 
 2649000   0.60158408   -4.3526603   -4.3526603   -3.4502862 0.0072496391   -4.3526603   0.90237406   439061 
 2650000   0.60174319   -4.3532542   -4.3532542   -3.4506415 0.0068625289   -4.3532542   0.90261273   439061 
 2651000   0.60053492   -4.3514643   -4.3514643    -3.450664  0.010125966   -4.3514643   0.90080032   439061 
 2652000   0.60076638   -4.3510169   -4.3510169   -3.4498693  0.007969002   -4.3510169   0.90114752   439061 
 2653000   0.60023148   -4.3508795   -4.3508795   -3.4505343 0.0042055435   -4.3508795   0.90034517   439061 
 2654000   0.60025471   -4.3507957   -4.3507957   -3.4504157 0.0073230849   -4.3507957   0.90038001   439061 
 2655000   0.60133078   -4.3521244   -4.3521244   -3.4501302 0.0066752489   -4.3521244   0.90199411   439061 
 2656000   0.60063899   -4.3513516   -4.3513516   -3.4503951  0.005862642   -4.3513516   0.90095643   439061 
 2657000   0.60090307   -4.3509112   -4.3509112   -3.4495586 0.0055856217   -4.3509112   0.90135255   439061 
 2658000   0.60033805    -4.351306    -4.351306    -3.450801 0.0042773691    -4.351306   0.90050502   439061 
 2659000   0.60097116   -4.3511128   -4.3511128   -3.4496581 0.0066967998   -4.3511128   0.90145469   439061 
 2660000   0.60131969   -4.3517045   -4.3517045    -3.449727  0.003847637   -4.3517045   0.90197748   439061 
 2661000   0.60135066   -4.3513977   -4.3513977   -3.4493738  0.005669134   -4.3513977   0.90202393   439061 
 2662000   0.60173415   -4.3521993   -4.3521993   -3.4496001 0.0046965907   -4.3521993   0.90259916   439061 
 2663000   0.60139805   -4.3499815   -4.3499815   -3.4478864  0.010170743   -4.3499815   0.90209503   439061 
 2664000   0.60170229   -4.3521761   -4.3521761   -3.4496248 0.0038710527   -4.3521761   0.90255137   439061 
 2665000   0.60176473   -4.3518971   -4.3518971   -3.4492521 0.0041102951   -4.3518971   0.90264504   439061 
 2666000   0.60109674    -4.349903    -4.349903   -3.4482599 0.0038480717    -4.349903   0.90164305   439061 
 2667000   0.60066793   -4.3499589   -4.3499589   -3.4489591  0.003410447   -4.3499589   0.90099984   439061 
 2668000   0.60086807   -4.3507728   -4.3507728   -3.4494727 0.00029729169   -4.3507728   0.90130006   439061 
 2669000   0.60085529   -4.3517596   -4.3517596   -3.4504787 -0.00035980998   -4.3517596   0.90128088   439061 
 2670000   0.60098691   -4.3507916   -4.3507916   -3.4493133 0.0054810485   -4.3507916   0.90147832   439061 
 2671000    0.6014795   -4.3511797   -4.3511797   -3.4489625 0.0036240509   -4.3511797    0.9022172   439061 
 2672000   0.60113612   -4.3513082   -4.3513082    -3.449606 0.0049889332   -4.3513082   0.90170212   439061 
 2673000   0.60118583   -4.3505776   -4.3505776    -3.448801 0.0097220318   -4.3505776   0.90177668   439061 
 2674000   0.60229557   -4.3529339   -4.3529339   -3.4494926 0.0054318671   -4.3529339    0.9034413   439061 
 2675000    0.6022706   -4.3532532   -4.3532532   -3.4498494 0.0058085976   -4.3532532   0.90340384   439061 
 2676000    0.6014129   -4.3535682   -4.3535682   -3.4514509 0.0028795505   -4.3535682    0.9021173   439061 
 2677000   0.60118679   -4.3530249   -4.3530249   -3.4512468 0.0055042256   -4.3530249   0.90177813   439061 
 2678000   0.60065199   -4.3528577   -4.3528577   -3.4518818 0.0034181191   -4.3528577   0.90097593   439061 
 2679000   0.60027676   -4.3520881   -4.3520881    -3.451675 0.0056820244   -4.3520881   0.90041308   439061 
 2680000   0.60170427   -4.3527419   -4.3527419   -3.4501876 0.0077086887   -4.3527419   0.90255435   439061 
 2681000   0.60201164   -4.3523463   -4.3523463   -3.4493309 0.0093674697   -4.3523463    0.9030154   439061 
 2682000   0.60222377   -4.3526687   -4.3526687   -3.4493351 0.0084902009   -4.3526687   0.90333359   439061 
 2683000   0.60153509   -4.3529434   -4.3529434   -3.4506428 0.0031342581   -4.3529434   0.90230058   439061 
 2684000   0.60080803   -4.3516075   -4.3516075   -3.4503975 0.0022736556   -4.3516075   0.90120999   439061 
 2685000    0.6006004    -4.351459    -4.351459   -3.4505605 0.0021775229    -4.351459   0.90089855   439061 
 2686000   0.60123162   -4.3526679   -4.3526679   -3.4508225 0.0028178244   -4.3526679   0.90184538   439061 
 2687000    0.6016611   -4.3527571   -4.3527571   -3.4502675 0.0081034476   -4.3527571    0.9024896   439061 
 2688000   0.60112322   -4.3527836   -4.3527836   -3.4511008 0.0038251458   -4.3527836   0.90168277   439061 
 2689000   0.60108564   -4.3522109   -4.3522109   -3.4505845 0.0029053772   -4.3522109   0.90162641   439061 
 2690000    0.6026857   -4.3536009   -4.3536009   -3.4495745 0.0024343748   -4.3536009   0.90402648   439061 
 2691000   0.60144056   -4.3522568   -4.3522568    -3.450098 0.0065142781   -4.3522568   0.90215879   439061 
 2692000   0.60154932   -4.3529578   -4.3529578   -3.4506359 0.0074403635   -4.3529578   0.90232192   439061 
 2693000   0.60177338   -4.3529837   -4.3529837   -3.4503257 0.0048958597   -4.3529837   0.90265802   439061 
 2694000   0.60074437   -4.3505946   -4.3505946   -3.4494801 0.0058106545   -4.3505946    0.9011145   439061 
 2695000   0.60243922   -4.3528422   -4.3528422   -3.4491855 0.0044924879   -4.3528422   0.90365678   439061 
 2696000    0.6016488    -4.351723    -4.351723   -3.4492519 0.0053174503    -4.351723   0.90247115   439061 
 2697000   0.60195936   -4.3530688   -4.3530688   -3.4501318 0.0040386278   -4.3530688   0.90293698   439061 
 2698000   0.60055738   -4.3519982   -4.3519982   -3.4511641 0.0027450505   -4.3519982   0.90083402   439061 
 2699000    0.6009815    -4.352094    -4.352094   -3.4506238 0.0015479946    -4.352094    0.9014702   439061 
 2700000    0.6000653   -4.3507834   -4.3507834   -3.4506875 0.0021022074   -4.3507834    0.9000959   439061 
 2701000    0.6006906   -4.3515896   -4.3515896   -3.4505558 0.00082637717   -4.3515896   0.90103384   439061 
 2702000   0.60010872   -4.3520027   -4.3520027   -3.4518417 0.0040870756   -4.3520027   0.90016103   439061 
 2703000   0.60109696   -4.3531798   -4.3531798   -3.4515364 0.0070116716   -4.3531798   0.90164339   439061 
 2704000   0.60113648   -4.3530974   -4.3530974   -3.4513948 0.0084004511   -4.3530974   0.90170267   439061 
 2705000   0.60165223   -4.3540299   -4.3540299   -3.4515536 0.0098411784   -4.3540299   0.90247628   439061 
 2706000    0.6020223   -4.3547883   -4.3547883   -3.4517569 0.0091979143   -4.3547883    0.9030314   439061 
 2707000   0.60190374   -4.3549713   -4.3549713   -3.4521177  0.007694288   -4.3549713   0.90285355   439061 
 2708000   0.60125826   -4.3535132   -4.3535132   -3.4516279 0.0056906342   -4.3535132   0.90188533   439061 
 2709000   0.60118085   -4.3531466   -4.3531466   -3.4513774 0.0048808018   -4.3531466   0.90176922   439061 
 2710000   0.60179787    -4.352922    -4.352922   -3.4502272 0.0025489589    -4.352922   0.90269475   439061 
 2711000   0.60102213    -4.352509    -4.352509   -3.4509779 0.0085115066    -4.352509   0.90153115   439061 
 2712000   0.60063599   -4.3521442   -4.3521442   -3.4511922 0.0038287084   -4.3521442   0.90095193   439061 
 2713000   0.60045098   -4.3505601   -4.3505601   -3.4498857 0.0074504397   -4.3505601   0.90067441   439061 
 2714000   0.60038783   -4.3508712   -4.3508712   -3.4502915 0.0047454688   -4.3508712   0.90057969   439061 
 2715000   0.59991034   -4.3494941   -4.3494941   -3.4496306 0.0057146971   -4.3494941   0.89986346   439061 
 2716000    0.6014927   -4.3515781   -4.3515781   -3.4493411 0.0041634795   -4.3515781   0.90223699   439061 
 2717000   0.60061342   -4.3507285   -4.3507285   -3.4498104 0.0036448577   -4.3507285   0.90091808   439061 
 2718000   0.60076451   -4.3510143   -4.3510143   -3.4498696 0.0031916405   -4.3510143   0.90114471   439061 
 2719000    0.6011125   -4.3512832   -4.3512832   -3.4496165   0.00396051   -4.3512832   0.90166669   439061 
 2720000   0.60112074   -4.3519531   -4.3519531   -3.4502741 0.0075911588   -4.3519531   0.90167906   439061 
 2721000   0.60151255   -4.3523263   -4.3523263   -3.4500595  0.011377495   -4.3523263   0.90226677   439061 
 2722000   0.60308544    -4.354597    -4.354597   -3.4499709 0.0060790511    -4.354597    0.9046261   439061 
 2723000   0.60141766   -4.3531251   -4.3531251   -3.4510007 0.0065604348   -4.3531251   0.90212443   439061 
 2724000   0.60152873   -4.3537696   -4.3537696   -3.4514786 0.0030050962   -4.3537696   0.90229103   439061 
 2725000   0.60083058   -4.3534258   -4.3534258    -3.452182 0.0061760934   -4.3534258   0.90124382   439061 
 2726000   0.60140064   -4.3533026   -4.3533026   -3.4512037 0.0043549241   -4.3533026    0.9020989   439061 
 2727000   0.60232849   -4.3544591   -4.3544591   -3.4509684 0.0027909402   -4.3544591   0.90349068   439061 
 2728000   0.60151854   -4.3532854   -4.3532854   -3.4510097 0.0067364517   -4.3532854   0.90227575   439061 
 2729000   0.60117919    -4.351492    -4.351492   -3.4497253  0.006739687    -4.351492   0.90176674   439061 
 2730000    0.6020007   -4.3520593   -4.3520593   -3.4490603 0.0018565906   -4.3520593   0.90299899   439061 
 2731000   0.60076208   -4.3514333   -4.3514333   -3.4502922 0.0058612827   -4.3514333   0.90114106   439061 
 2732000   0.60058047   -4.3517576   -4.3517576    -3.450889 0.0049462691   -4.3517576   0.90086865   439061 
 2733000     0.601359   -4.3525979   -4.3525979   -3.4505615 0.0042588925   -4.3525979   0.90203644   439061 
 2734000   0.60056553   -4.3520481   -4.3520481   -3.4512019 0.0042824126   -4.3520481   0.90084625   439061 
 2735000   0.60089472   -4.3520969   -4.3520969   -3.4507569  0.007362126   -4.3520969   0.90134003   439061 
 2736000   0.60191773   -4.3537667   -4.3537667   -3.4508922 0.0019006382   -4.3537667   0.90287454   439061 
 2737000   0.60167032   -4.3530259   -4.3530259   -3.4505225 0.0062631471   -4.3530259   0.90250343   439061 
 2738000   0.60133338   -4.3529403   -4.3529403   -3.4509423  0.004833469   -4.3529403   0.90199801   439061 
 2739000   0.60186872   -4.3530109   -4.3530109   -3.4502099 0.0089683367   -4.3530109   0.90280102   439061 
 2740000    0.6014631   -4.3512778   -4.3512778   -3.4490852  0.010725837   -4.3512778    0.9021926   439061 
 2741000    0.6027989    -4.352613    -4.352613   -3.4484167 0.0097412861    -4.352613    0.9041963   439061 
 2742000   0.60273873   -4.3533897   -4.3533897   -3.4492837 0.0059800555   -4.3533897   0.90410604   439061 
 2743000     0.601981    -4.352827    -4.352827   -3.4498575 0.0027233152    -4.352827   0.90296944   439061 
 2744000   0.59986982   -4.3498058   -4.3498058   -3.4500032 0.0019146174   -4.3498058   0.89980268   439061 
 2745000   0.60045839   -4.3505085   -4.3505085   -3.4498229 -0.0011022294   -4.3505085   0.90068553   439061 
 2746000   0.60049589   -4.3509274   -4.3509274   -3.4501857 -0.0033258787   -4.3509274   0.90074178   439061 
 2747000   0.60056153    -4.350769    -4.350769   -3.4499287  0.005187598    -4.350769   0.90084025   439061 
 2748000   0.60180044   -4.3525349   -4.3525349   -3.4498363 -8.2461753e-05   -4.3525349    0.9026986   439061 
 2749000   0.60089742   -4.3504674   -4.3504674   -3.4491234 -0.0003865533   -4.3504674   0.90134407   439061 
 2750000   0.60106635   -4.3516341   -4.3516341   -3.4500367 0.0035049383   -4.3516341   0.90159748   439061 
 2751000   0.60067481   -4.3519947   -4.3519947   -3.4509845 0.0049471348   -4.3519947   0.90101017   439061 
 2752000   0.60102328   -4.3532494   -4.3532494   -3.4517165   0.01000823   -4.3532494   0.90153287   439061 
 2753000   0.60258258   -4.3552956   -4.3552956   -3.4514238 0.0058472169   -4.3552956   0.90387181   439061 
 2754000   0.60192691   -4.3547414   -4.3547414   -3.4518531   0.01069494   -4.3547414    0.9028883   439061 
 2755000   0.60091813   -4.3547239   -4.3547239   -3.4533488 0.0065314632   -4.3547239   0.90137514   439061 
 2756000   0.60123077   -4.3559442   -4.3559442   -3.4541001 0.0087289176   -4.3559442   0.90184409   439061 
 2757000   0.60200956   -4.3561485   -4.3561485   -3.4531362  0.010207474   -4.3561485   0.90301228   439061 
 2758000   0.60166886   -4.3551667   -4.3551667   -3.4526655   0.01197802   -4.3551667   0.90250124   439061 
 2759000   0.60094607   -4.3542785   -4.3542785   -3.4528615 0.0073240708   -4.3542785   0.90141705   439061 
 2760000     0.599791   -4.3532784   -4.3532784    -3.453594 0.0015812954   -4.3532784   0.89968445   439061 
 2761000   0.60036445   -4.3541038   -4.3541038   -3.4535592 -0.0019632314   -4.3541038   0.90054462   439061 
 2762000   0.59959331   -4.3532614   -4.3532614   -3.4538735 0.00023698433   -4.3532614   0.89938791   439061 
 2763000   0.60033641   -4.3538332   -4.3538332   -3.4533307 0.0023356139   -4.3538332   0.90050257   439061 
 2764000   0.60133756   -4.3545698   -4.3545698   -3.4525655 -0.0012918811   -4.3545698   0.90200429   439061 
 2765000    0.6003703   -4.3527075   -4.3527075   -3.4521541 0.0047465186   -4.3527075   0.90055339   439061 
 2766000   0.60156428   -4.3543678   -4.3543678   -3.4520234 0.0034700569   -4.3543678   0.90234436   439061 
 2767000   0.60142997   -4.3538831   -4.3538831   -3.4517402  0.010046709   -4.3538831    0.9021429   439061 
 2768000   0.60165583   -4.3544501   -4.3544501   -3.4519684 0.0070844849   -4.3544501   0.90248169   439061 
 2769000   0.60105147   -4.3534408   -4.3534408   -3.4518656 0.0084009814   -4.3534408   0.90157516   439061 
 2770000   0.60207753   -4.3543886   -4.3543886   -3.4512743 0.0085447183   -4.3543886   0.90311424   439061 
 2771000   0.60077594   -4.3533088   -4.3533088   -3.4521469 0.0087924816   -4.3533088   0.90116185   439061 
 2772000   0.60117084   -4.3533456   -4.3533456   -3.4515914 0.0046044395   -4.3533456   0.90175421   439061 
 2773000   0.60072196   -4.3532317   -4.3532317   -3.4521508 0.0015638988   -4.3532317   0.90108089   439061 
 2774000   0.60021836   -4.3524742   -4.3524742   -3.4521487 0.0020002005   -4.3524742   0.90032549   439061 
 2775000   0.59996128   -4.3512319   -4.3512319   -3.4512921 0.0012700158   -4.3512319   0.89993986   439061 
 2776000   0.60122734   -4.3541903   -4.3541903   -3.4523513 -0.0044170543   -4.3541903   0.90183895   439061 
 2777000   0.60133616   -4.3523947   -4.3523947   -3.4503925 0.0043359107   -4.3523947   0.90200219   439061 
 2778000   0.60164719   -4.3524816   -4.3524816   -3.4500129 0.0046893442   -4.3524816   0.90246872   439061 
 2779000   0.60088127   -4.3518991   -4.3518991   -3.4505793 0.0095392429   -4.3518991   0.90131985   439061 
 2780000   0.60238636   -4.3540684   -4.3540684   -3.4504909 0.0095822728   -4.3540684   0.90357748   439061 
 2781000   0.60129507   -4.3521289   -4.3521289   -3.4501883 0.0086348907   -4.3521289   0.90194056   439061 
 2782000   0.60188365   -4.3531044   -4.3531044    -3.450281 0.0093412235   -4.3531044   0.90282341   439061 
 2783000   0.60220935   -4.3547001   -4.3547001   -3.4513881  0.006722439   -4.3547001   0.90331197   439061 
 2784000   0.60086749   -4.3529605   -4.3529605   -3.4516613 0.0054146242   -4.3529605   0.90129918   439061 
 2785000    0.6004871   -4.3534834   -4.3534834   -3.4527548 0.0034414654   -4.3534834    0.9007286   439061 
 2786000   0.60058981   -4.3534908   -4.3534908   -3.4526082 0.00031531796   -4.3534908   0.90088266   439061 
 2787000   0.60133422   -4.3545356   -4.3545356   -3.4525363 0.00085748871   -4.3545356   0.90199927   439061 
 2788000   0.60085388   -4.3535029   -4.3535029   -3.4522241 0.0046645401   -4.3535029   0.90127877   439061 
 2789000   0.60198483    -4.354726    -4.354726   -3.4517508 0.0072626165    -4.354726   0.90297519   439061 
 2790000   0.60151505   -4.3536947   -4.3536947   -3.4514241 0.0098235237   -4.3536947   0.90227052   439061 
 2791000   0.60160292   -4.3533393   -4.3533393    -3.450937 0.0072964205   -4.3533393   0.90240233   439061 
 2792000    0.6007687   -4.3521877   -4.3521877   -3.4510367 0.0066435301   -4.3521877     0.901151   439061 
 2793000   0.60203911   -4.3544121   -4.3544121   -3.4513555 0.0063644111   -4.3544121   0.90305661   439061 
 2794000   0.60195677   -4.3528212   -4.3528212   -3.4498881   0.00722683   -4.3528212    0.9029331   439061 
 2795000   0.60068032   -4.3517908   -4.3517908   -3.4507723 0.0076468861   -4.3517908   0.90101843   439061 
 2796000   0.59965425   -4.3516446   -4.3516446   -3.4521653 0.0013924229   -4.3516446   0.89947932   439061 
 2797000   0.60105698   -4.3545375   -4.3545375    -3.452954 -0.0043740734   -4.3545375   0.90158342   439061 
 2798000   0.60023684   -4.3522338   -4.3522338   -3.4518806 -0.0036240707   -4.3522338   0.90035321   439061 
 2799000    0.6008607   -4.3531252   -4.3531252   -3.4518362 0.0062282559   -4.3531252   0.90128899   439061 
 2800000   0.60083402   -4.3530186   -4.3530186   -3.4517696  0.010967106   -4.3530186   0.90124898   439061 
 2801000   0.60130855    -4.353356    -4.353356   -3.4513952 0.0097718854    -4.353356   0.90196077   439061 
 2802000   0.60125594   -4.3534084   -4.3534084   -3.4515266 0.0051862134   -4.3534084   0.90188185   439061 
 2803000   0.60165413   -4.3541637   -4.3541637   -3.4516846 0.0071744999   -4.3541637   0.90247914   439061 
 2804000   0.60198444    -4.355661    -4.355661   -3.4526864 0.0071928884    -4.355661   0.90297461   439061 
 2805000   0.60073352   -4.3544596   -4.3544596   -3.4533613 0.0079799657   -4.3544596   0.90109822   439061 
 2806000   0.59985898    -4.353222    -4.353222   -3.4534355   0.01017792    -4.353222   0.89978642   439061 
 2807000   0.59946719   -4.3534734   -4.3534734   -3.4542747 0.0046504036   -4.3534734   0.89919873   439061 
 2808000    0.6007419   -4.3546552   -4.3546552   -3.4535444 0.0026320417   -4.3546552    0.9011108   439061 
 2809000   0.60018739   -4.3541912   -4.3541912   -3.4539122   0.00368331   -4.3541912   0.90027904   439061 
 2810000   0.60118097   -4.3547636   -4.3547636   -3.4529942 0.0031221754   -4.3547636   0.90176941   439061 
 2811000    0.5999777   -4.3532547   -4.3532547   -3.4532902 0.0050819491   -4.3532547   0.89996451   439061 
 2812000    0.5992069   -4.3522046   -4.3522046   -3.4533962 0.0099434108   -4.3522046   0.89880831   439061 
 2813000    0.6008021    -4.354563    -4.354563   -3.4533619 0.0057361655    -4.354563    0.9012011   439061 
 2814000   0.60048295   -4.3553509   -4.3553509   -3.4546285 0.00014244547   -4.3553509   0.90072237   439061 
 2815000   0.59995383   -4.3532596   -4.3532596    -3.453331 0.0062134895   -4.3532596   0.89992869   439061 
 2816000   0.60160548   -4.3560166   -4.3560166   -3.4536104 0.0078689162   -4.3560166   0.90240617   439061 
 2817000   0.60121062   -4.3561462   -4.3561462   -3.4543323 0.0063603188   -4.3561462   0.90181387   439061 
 2818000   0.59988349   -4.3540444   -4.3540444   -3.4542213 0.0081312691   -4.3540444   0.89982318   439061 
 2819000   0.60133363   -4.3557075   -4.3557075   -3.4537092 0.0067675863   -4.3557075   0.90199839   439061 
 2820000   0.60031019   -4.3545282   -4.3545282    -3.454065 0.0053988922   -4.3545282   0.90046323   439061 
 2821000   0.60073749   -4.3555342   -4.3555342     -3.45443 0.0066163569   -4.3555342   0.90110419   439061 
 2822000   0.60034066   -4.3544454   -4.3544454   -3.4539364 0.0091064867   -4.3544454   0.90050894   439061 
 2823000   0.60070301   -4.3549913   -4.3549913   -3.4539389 0.0030930731   -4.3549913   0.90105247   439061 
 2824000   0.60064973   -4.3549638   -4.3549638   -3.4539913 0.0077615948   -4.3549638   0.90097255   439061 
 2825000   0.59946113   -4.3532768   -4.3532768   -3.4540872  0.004505086   -4.3532768   0.89918964   439061 
 2826000   0.60012403   -4.3534049   -4.3534049   -3.4532209 0.0029363256   -4.3534049     0.900184   439061 
 2827000   0.60068852   -4.3543795   -4.3543795   -3.4533488 0.0055672587   -4.3543795   0.90103073   439061 
 2828000   0.60021273   -4.3531966   -4.3531966   -3.4528795 0.0049779344   -4.3531966   0.90031705   439061 
 2829000   0.60035631   -4.3538442   -4.3538442   -3.4533118 0.0046005104   -4.3538442   0.90053241   439061 
 2830000   0.60030742   -4.3537259   -4.3537259   -3.4532668   0.00145011   -4.3537259   0.90045908   439061 
 2831000    0.6006281    -4.354164    -4.354164   -3.4532239 0.0014244994    -4.354164   0.90094009   439061 
 2832000   0.60014433    -4.354223    -4.354223   -3.4540086 0.00017386196    -4.354223   0.90021444   439061 
 2833000   0.60032368   -4.3541742   -4.3541742   -3.4536907 0.0054601049   -4.3541742   0.90048346   439061 
 2834000   0.60111619   -4.3548358   -4.3548358   -3.4531636 0.0051999021   -4.3548358   0.90167223   439061 
 2835000   0.60104247   -4.3548105   -4.3548105   -3.4532488 0.0089506934   -4.3548105   0.90156165   439061 
 2836000   0.60127737   -4.3553139   -4.3553139   -3.4533999 0.0076996437   -4.3553139     0.901914   439061 
 2837000   0.60053328   -4.3545661   -4.3545661   -3.4537682 0.0046985783   -4.3545661   0.90079786   439061 
 2838000    0.6008355   -4.3550738   -4.3550738   -3.4538226 0.0058403611   -4.3550738    0.9012512   439061 
 2839000    0.6000428   -4.3546894   -4.3546894   -3.4546272 0.0082780862   -4.3546894   0.90006215   439061 
 2840000    0.6004183    -4.354275    -4.354275   -3.4536496 0.0062133281    -4.354275    0.9006254   439061 
 2841000   0.60015531   -4.3532567   -4.3532567   -3.4530258 0.0031451085   -4.3532567   0.90023092   439061 
 2842000   0.60031411    -4.354541    -4.354541   -3.4540718 0.0067061424    -4.354541   0.90046912   439061 
 2843000   0.59967037    -4.353173    -4.353173   -3.4536695 0.0065185073    -4.353173    0.8995035   439061 
 2844000   0.60007824   -4.3538292   -4.3538292   -3.4537139 0.0039565194   -4.3538292   0.90011531   439061 
 2845000   0.60010242   -4.3544671   -4.3544671   -3.4543155 0.0066834912   -4.3544671   0.90015158   439061 
 2846000   0.60068194   -4.3544187   -4.3544187   -3.4533978 0.0063547768   -4.3544187   0.90102086   439061 
 2847000   0.60206995   -4.3556872   -4.3556872   -3.4525843 0.0030884724   -4.3556872   0.90310287   439061 
 2848000   0.60026792   -4.3532061   -4.3532061   -3.4528062 0.0064974854   -4.3532061   0.90039983   439061 
 2849000   0.59998343   -4.3529851   -4.3529851    -3.453012 0.0090838247   -4.3529851   0.89997309   439061 
 2850000   0.60060267   -4.3549918   -4.3549918   -3.4540899 0.0035167534   -4.3549918   0.90090195   439061 
 2851000   0.60002671   -4.3541421   -4.3541421   -3.4541041 0.0005322966   -4.3541421   0.90003801   439061 
 2852000   0.60002705   -4.3544532   -4.3544532   -3.4544146 0.0036186373   -4.3544532   0.90003853   439061 
 2853000    0.6005261   -4.3540629   -4.3540629   -3.4532758 0.0036364661   -4.3540629   0.90078711   439061 
 2854000   0.60170319   -4.3555983   -4.3555983   -3.4530456 0.0050743847   -4.3555983   0.90255273   439061 
 2855000   0.59973104   -4.3531106   -4.3531106    -3.453516  0.010174169   -4.3531106   0.89959451   439061 
 2856000   0.60104301   -4.3548577   -4.3548577   -3.4532952 0.0055428102   -4.3548577   0.90156246   439061 
 2857000   0.60062412    -4.355559    -4.355559   -3.4546249 0.0044118333    -4.355559   0.90093413   439061 
 2858000   0.60019097   -4.3546328   -4.3546328   -3.4543484 0.0056427302   -4.3546328    0.9002844   439061 
 2859000   0.60026879   -4.3549115   -4.3549115   -3.4545104 0.0044411877   -4.3549115   0.90040113   439061 
 2860000     0.600046    -4.353379    -4.353379   -3.4533121 0.0088589094    -4.353379   0.90006695   439061 
 2861000   0.60101135   -4.3548817   -4.3548817   -3.4533667 0.0034269446   -4.3548817   0.90151497   439061 
 2862000   0.60194663   -4.3564771   -4.3564771   -3.4535592 0.0041784395   -4.3564771   0.90291789   439061 
 2863000   0.60059924   -4.3544082   -4.3544082   -3.4535114 0.0018484868   -4.3544082   0.90089681   439061 
 2864000   0.60062192   -4.3550959   -4.3550959   -3.4541651 0.0021695089   -4.3550959   0.90093082   439061 
 2865000   0.60056467   -4.3555623   -4.3555623   -3.4547174 0.00026987736   -4.3555623   0.90084495   439061 
 2866000    0.6007391    -4.355681    -4.355681   -3.4545744 0.00047082584    -4.355681    0.9011066   439061 
 2867000   0.59974685   -4.3545388   -4.3545388   -3.4549206 0.0092156862   -4.3545388   0.89961823   439061 
 2868000   0.60021198   -4.3563865   -4.3563865   -3.4560706 0.0029668695   -4.3563865   0.90031592   439061 
 2869000   0.60036505   -4.3557909   -4.3557909   -3.4552454 0.0065889074   -4.3557909   0.90054553   439061 
 2870000    0.6004653   -4.3561421   -4.3561421   -3.4554462  0.010027053   -4.3561421   0.90069589   439061 
 2871000   0.60100608    -4.356902    -4.356902   -3.4553949 0.0097527884    -4.356902   0.90150707   439061 
 2872000   0.60094853   -4.3570223   -4.3570223   -3.4556016   0.01021337   -4.3570223   0.90142075   439061 
 2873000    0.5998358   -4.3555784   -4.3555784   -3.4558267 0.0088785967   -4.3555784   0.89975165   439061 
 2874000   0.59988933   -4.3568247   -4.3568247   -3.4569928 0.0039834993   -4.3568247   0.89983195   439061 
 2875000   0.59940527   -4.3567638   -4.3567638   -3.4576579 0.0044930908   -4.3567638   0.89910585   439061 
 2876000    0.5991674   -4.3570956   -4.3570956   -3.4583466 0.0021681358   -4.3570956   0.89874906   439061 
 2877000   0.59988309   -4.3566877   -4.3566877   -3.4568652 0.0052965156   -4.3566877   0.89982259   439061 
 2878000   0.59977977   -4.3563014   -4.3563014   -3.4566338 0.0042717819   -4.3563014    0.8996676   439061 
 2879000   0.59953004   -4.3561821   -4.3561821   -3.4568891 0.0062085055   -4.3561821   0.89929301   439061 
 2880000   0.59959917   -4.3570533   -4.3570533   -3.4576566 0.0045867849   -4.3570533   0.89939671   439061 
 2881000   0.60030387   -4.3571471   -4.3571471   -3.4566933 0.0050247138   -4.3571471   0.90045376   439061 
 2882000   0.60065194   -4.3573262   -4.3573262   -3.4563503  0.010025481   -4.3573262   0.90097586   439061 
 2883000   0.60072646   -4.3574422   -4.3574422   -3.4563546  0.010128531   -4.3574422   0.90108764   439061 
 2884000   0.59995991   -4.3568785   -4.3568785   -3.4569407 0.0082827185   -4.3568785   0.89993782   439061 
 2885000   0.60023838   -4.3570909   -4.3570909   -3.4567354 0.0070199226   -4.3570909   0.90035551   439061 
 2886000    0.5998224   -4.3561808   -4.3561808   -3.4564493  0.006654553   -4.3561808   0.89973154   439061 
 2887000   0.60114191   -4.3575157   -4.3575157   -3.4558049 0.0059454219   -4.3575157   0.90171081   439061 
 2888000   0.60100821   -4.3572807   -4.3572807   -3.4557704 0.0058597278   -4.3572807   0.90151026   439061 
 2889000   0.60061922   -4.3565436   -4.3565436   -3.4556168 0.0052516612   -4.3565436   0.90092677   439061 
 2890000   0.59979647   -4.3556534   -4.3556534   -3.4559608 0.00068343334   -4.3556534   0.89969266   439061 
 2891000   0.59982326   -4.3551346   -4.3551346   -3.4554017 -0.00083463168   -4.3551346   0.89973284   439061 
 2892000   0.60063511    -4.355253    -4.355253   -3.4543024 0.00030164346    -4.355253   0.90095061   439061 
 2893000   0.60033798    -4.354106    -4.354106   -3.4536011 0.0034764474    -4.354106   0.90050491   439061 
 2894000   0.60189318   -4.3556637   -4.3556637    -3.452826 0.0058511103   -4.3556637   0.90283771   439061 
 2895000   0.60127163   -4.3537593   -4.3537593   -3.4518539 0.0065524196   -4.3537593   0.90190539   439061 
 2896000   0.60092539   -4.3542622   -4.3542622   -3.4528762 0.0021902207   -4.3542622   0.90138603   439061 
 2897000   0.60076049   -4.3531068   -4.3531068   -3.4519682  0.011073421   -4.3531068   0.90113868   439061 
 2898000   0.60180758   -4.3543551   -4.3543551   -3.4516458 0.0030651743   -4.3543551   0.90270932   439061 
 2899000   0.60099443   -4.3539535   -4.3539535   -3.4524639 0.0050163045   -4.3539535   0.90148959   439061 
 2900000   0.60145859   -4.3535621   -4.3535621   -3.4513763  0.003668279   -4.3535621   0.90218583   439061 
 2901000   0.60147246   -4.3535753   -4.3535753   -3.4513687 0.0046643648   -4.3535753   0.90220663   439061 
 2902000   0.60182056   -4.3542794   -4.3542794   -3.4515506 0.0018875634   -4.3542794   0.90272879   439061 
 2903000   0.60103942   -4.3529272   -4.3529272   -3.4513702 0.00085000617   -4.3529272   0.90155707   439061 
 2904000   0.60165331   -4.3530741   -4.3530741   -3.4505962 0.00087035232   -4.3530741    0.9024779   439061 
 2905000   0.60026591   -4.3516277   -4.3516277   -3.4512308 0.0024996712   -4.3516277   0.90039681   439061 
 2906000   0.60056366   -4.3526064   -4.3526064    -3.451763  0.003699004   -4.3526064   0.90084343   439061 
 2907000   0.60074339   -4.3535254   -4.3535254   -3.4524124 0.0032320959   -4.3535254   0.90111304   439061 
 2908000   0.59992278   -4.3528012   -4.3528012   -3.4529191 0.0010405179   -4.3528012   0.89988211   439061 
 2909000   0.60118309   -4.3548981   -4.3548981   -3.4531255 -0.002194317   -4.3548981   0.90177259   439061 
 2910000   0.60032343   -4.3534482   -4.3534482   -3.4529651 0.0071342257   -4.3534482   0.90048309   439061 
 2911000    0.6018592   -4.3556226   -4.3556226   -3.4528358  0.005046158   -4.3556226   0.90278675   439061 
 2912000   0.60133898   -4.3551271   -4.3551271   -3.4531207 0.0065165622   -4.3551271   0.90200641   439061 
 2913000    0.6010226   -4.3557693   -4.3557693   -3.4542375 0.0055712003   -4.3557693   0.90153184   439061 
 2914000   0.60156999   -4.3568729   -4.3568729     -3.45452 0.0031052984   -4.3568729   0.90235293   439061 
 2915000   0.60087774   -4.3563075   -4.3563075    -3.454993 0.0029654448   -4.3563075   0.90131456   439061 
 2916000   0.60119546   -4.3564647   -4.3564647   -3.4546736 0.0062391734   -4.3564647   0.90179113   439061 
 2917000   0.60055356   -4.3551706   -4.3551706   -3.4543424 0.0091714239   -4.3551706   0.90082828   439061 
 2918000   0.60047206   -4.3552206   -4.3552206   -3.4545145 0.0090321663   -4.3552206   0.90070603   439061 
 2919000   0.60058974   -4.3557031   -4.3557031   -3.4548206 0.0086997359   -4.3557031   0.90088256   439061 
 2920000   0.60148801   -4.3560538   -4.3560538   -3.4538239 0.0066293029   -4.3560538   0.90222996   439061 
 2921000   0.60070007   -4.3544827   -4.3544827   -3.4534347  0.010255314   -4.3544827   0.90104805   439061 
 2922000   0.60034253   -4.3544036   -4.3544036   -3.4538918 0.0051115091   -4.3544036   0.90051175   439061 
 2923000   0.60111022   -4.3548284   -4.3548284   -3.4531651 0.0012932093   -4.3548284   0.90166327   439061 
 2924000   0.60004842   -4.3530797   -4.3530797   -3.4530091 0.0042728959   -4.3530797   0.90007058   439061 
 2925000   0.59965189   -4.3529919   -4.3529919   -3.4535161 0.0032927122   -4.3529919   0.89947578   439061 
 2926000   0.60172979   -4.3565521   -4.3565521   -3.4539594 -0.00086679088   -4.3565521   0.90259263   439061 
 2927000   0.59972729   -4.3533109   -4.3533109    -3.453722 0.00072566445   -4.3533109   0.89958889   439061 
 2928000   0.59990809    -4.352551    -4.352551   -3.4526909 0.0039859175    -4.352551   0.89986008   439061 
 2929000   0.60081967    -4.353751    -4.353751   -3.4525236 0.0058724582    -4.353751   0.90122745   439061 
 2930000   0.60084549   -4.3543805   -4.3543805   -3.4531144 0.0077369055   -4.3543805   0.90126618   439061 
 2931000   0.60090757   -4.3540758   -4.3540758   -3.4527165 0.0097523407   -4.3540758   0.90135929   439061 
 2932000   0.60172356   -4.3544198   -4.3544198   -3.4518365 0.0033599559   -4.3544198   0.90258328   439061 
 2933000   0.60165663   -4.3560024   -4.3560024   -3.4535195 0.0027774942   -4.3560024   0.90248289   439061 
 2934000   0.60008528   -4.3538759   -4.3538759     -3.45375 0.0060879266   -4.3538759   0.90012587   439061 
 2935000   0.59993503   -4.3542976   -4.3542976   -3.4543971 0.0037155455   -4.3542976    0.8999005   439061 
 2936000   0.60120174   -4.3551021   -4.3551021   -3.4533015 0.0031190823   -4.3551021   0.90180055   439061 
 2937000   0.60082253   -4.3542284   -4.3542284   -3.4529966  0.004156106   -4.3542284   0.90123175   439061 
 2938000   0.60115611   -4.3540881   -4.3540881    -3.452356  0.007214798   -4.3540881   0.90173211   439061 
 2939000   0.59981406   -4.3524172   -4.3524172   -3.4526981 0.0094628939   -4.3524172   0.89971904   439061 
 2940000   0.60226034   -4.3549882   -4.3549882   -3.4515997 0.0035813023   -4.3549882   0.90338846   439061 
 2941000    0.6016734   -4.3553891   -4.3553891    -3.452881 0.0023243814   -4.3553891   0.90250804   439061 
 2942000   0.60084612   -4.3538155   -4.3538155   -3.4525484 0.0046557039   -4.3538155   0.90126713   439061 
 2943000   0.60198994   -4.3544616   -4.3544616   -3.4514787 0.0030531411   -4.3544616   0.90298285   439061 
 2944000   0.60108942   -4.3529944   -4.3529944   -3.4513623 0.0057149531   -4.3529944   0.90163207   439061 
 2945000   0.60040236    -4.351378    -4.351378   -3.4507765  0.006995223    -4.351378   0.90060149   439061 
 2946000   0.60068829   -4.3525717   -4.3525717   -3.4515413 0.0064279474   -4.3525717   0.90103039   439061 
 2947000   0.59970464   -4.3518008   -4.3518008   -3.4522459 0.0048027148   -4.3518008   0.89955492   439061 
 2948000   0.60083154   -4.3536938   -4.3536938   -3.4524486 -0.00048224777   -4.3536938   0.90124525   439061 
 2949000    0.6005363   -4.3526994   -4.3526994    -3.451897  0.001742626   -4.3526994   0.90080239   439061 
 2950000   0.60181349   -4.3536173   -4.3536173   -3.4508992 0.0012307999   -4.3536173   0.90271818   439061 
 2951000   0.60182562   -4.3537304   -4.3537304   -3.4509941 0.0072124274   -4.3537304   0.90273637   439061 
 2952000   0.60198691   -4.3544075   -4.3544075   -3.4514292  0.006223215   -4.3544075    0.9029783   439061 
 2953000   0.60256737   -4.3549309   -4.3549309   -3.4510819 0.0025671792   -4.3549309   0.90384899   439061 
 2954000   0.60165052   -4.3538287   -4.3538287    -3.451355  0.005974074   -4.3538287   0.90247372   439061 
 2955000   0.60165978   -4.3531186   -4.3531186   -3.4506309 0.0052121569   -4.3531186   0.90248761   439061 
 2956000   0.60099643   -4.3526532   -4.3526532   -3.4511606 0.0069951225   -4.3526532    0.9014926   439061 
 2957000   0.60214856    -4.354151    -4.354151   -3.4509302 0.0033703287    -4.354151   0.90322079   439061 
 2958000   0.60175469   -4.3533727   -4.3533727   -3.4507427 0.0026307053   -4.3533727   0.90262997   439061 
 2959000   0.60006681   -4.3506856   -4.3506856   -3.4505874 0.0051069453   -4.3506856   0.90009817   439061 
 2960000    0.6007907   -4.3528257   -4.3528257   -3.4516417 -0.00064887645   -4.3528257     0.901184   439061 
 2961000   0.60095644   -4.3522955   -4.3522955   -3.4508629 -0.0013639236   -4.3522955   0.90143261   439061 
 2962000   0.60090618   -4.3520235   -4.3520235   -3.4506663 -0.00030620052   -4.3520235   0.90135721   439061 
 2963000   0.60062075   -4.3527187   -4.3527187   -3.4517896 0.0019039493   -4.3527187   0.90092907   439061 
 2964000   0.60265662   -4.3538319   -4.3538319   -3.4498491 0.0050306779   -4.3538319   0.90398287   439061 
 2965000   0.60101409   -4.3511669   -4.3511669   -3.4496478 0.0076757968   -4.3511669   0.90151908   439061 
 2966000   0.60212686   -4.3531792   -4.3531792    -3.449991 0.0058021502   -4.3531792   0.90318823   439061 
 2967000   0.60192459   -4.3538816   -4.3538816   -3.4509968  0.006254063   -4.3538816   0.90288482   439061 
 2968000   0.60018794   -4.3516439   -4.3516439    -3.451364 0.0070793202   -4.3516439   0.90027985   439061 
 2969000   0.60141033   -4.3547135   -4.3547135   -3.4526001 0.0031270877   -4.3547135   0.90211343   439061 
 2970000   0.60068891    -4.354848    -4.354848   -3.4538167 0.0044985191    -4.354848   0.90103131   439061 
 2971000   0.60100785   -4.3556867   -4.3556867    -3.454177 0.00074115416   -4.3556867   0.90150972   439061 
 2972000   0.60074369   -4.3556462   -4.3556462   -3.4545327 1.8289167e-05   -4.3556462   0.90111349   439061 
 2973000   0.60133071   -4.3561396   -4.3561396   -3.4541456 0.0058546879   -4.3561396   0.90199402   439061 
 2974000   0.60136742   -4.3548654   -4.3548654   -3.4528163 0.0092473081   -4.3548654   0.90204908   439061 
 2975000   0.60133599   -4.3546681   -4.3546681   -3.4526661 0.0088149891   -4.3546681   0.90200193   439061 
 2976000   0.60120162   -4.3552728   -4.3552728   -3.4534724 0.0069615003   -4.3552728   0.90180037   439061 
 2977000   0.60176632   -4.3555977   -4.3555977   -3.4529502 0.0021871332   -4.3555977   0.90264742   439061 
 2978000   0.60017533   -4.3537215   -4.3537215   -3.4534606 0.0047348154   -4.3537215   0.90026095   439061 
 2979000   0.60036965   -4.3548902   -4.3548902   -3.4543378 0.0042125874   -4.3548902   0.90055242   439061 
 2980000   0.60037261   -4.3541184   -4.3541184   -3.4535615  0.003239111   -4.3541184   0.90055687   439061 
 2981000   0.59937312   -4.3531057   -4.3531057    -3.454048 0.0025170687   -4.3531057   0.89905764   439061 
 2982000   0.60023736    -4.353689    -4.353689    -3.453335 0.0012566956    -4.353689   0.90035399   439061 
 2983000   0.60027391   -4.3538198   -4.3538198    -3.453411 0.0057554344   -4.3538198   0.90040882   439061 
 2984000   0.60166482   -4.3556508   -4.3556508   -3.4531556 0.0035685106   -4.3556508   0.90249517   439061 
 2985000   0.60071197    -4.355182    -4.355182   -3.4541161  0.008202373    -4.355182    0.9010659   439061 
 2986000   0.60147758   -4.3557333   -4.3557333   -3.4535189 0.0062454871   -4.3557333   0.90221431   439061 
 2987000   0.60110268   -4.3548253   -4.3548253   -3.4531733 0.0070706077   -4.3548253   0.90165197   439061 
 2988000   0.60147256    -4.356431    -4.356431   -3.4542242 0.0054543496    -4.356431   0.90220678   439061 
 2989000   0.60145607   -4.3561656   -4.3561656   -3.4539836 0.0067769653   -4.3561656   0.90218204   439061 
 2990000   0.60078932   -4.3552258   -4.3552258   -3.4540438 0.0072212166   -4.3552258   0.90118193   439061 
 2991000   0.60149138   -4.3559843   -4.3559843   -3.4537492 0.0053740671   -4.3559843   0.90223502   439061 
 2992000   0.60113226   -4.3561091   -4.3561091   -3.4544128 0.0040871964   -4.3561091   0.90169634   439061 
 2993000   0.60061418   -4.3567912   -4.3567912    -3.455872 0.0039819278   -4.3567912   0.90091922   439061 
 2994000   0.60048785   -4.3562585   -4.3562585   -3.4555287 0.0050389194   -4.3562585   0.90072973   439061 
 2995000   0.60117216   -4.3559242   -4.3559242    -3.454168 0.0052010655   -4.3559242   0.90175619   439061 
 2996000   0.59959505   -4.3532594   -4.3532594   -3.4538688  0.011168769   -4.3532594   0.89939052   439061 
 2997000   0.60048742   -4.3554218   -4.3554218   -3.4546927 0.0070179914   -4.3554218   0.90072908   439061 
 2998000   0.60094995     -4.35661     -4.35661   -3.4551872 0.0059102822     -4.35661   0.90142287   439061 
 2999000   0.60080298   -4.3558249   -4.3558249   -3.4546225 0.0066959908   -4.3558249   0.90120241   439061 
 3000000   0.60095347   -4.3551386   -4.3551386   -3.4537104 0.0081878537   -4.3551386   0.90142815   439061 
 3001000   0.60035034   -4.3540172   -4.3540172   -3.4534938 0.0095876545   -4.3540172   0.90052346   439061 
 3002000   0.60131425   -4.3554214   -4.3554214    -3.453452 0.0057727734   -4.3554214   0.90196932   439061 
 3003000   0.60135723   -4.3549664   -4.3549664   -3.4529326 0.0053065495   -4.3549664   0.90203379   439061 
 3004000   0.60072878    -4.354544    -4.354544   -3.4534529 0.0023431729    -4.354544   0.90109112   439061 
 3005000   0.60019644    -4.354235    -4.354235   -3.4539423 0.0033862695    -4.354235   0.90029261   439061 
 3006000   0.60057534   -4.3550038   -4.3550038   -3.4541429 0.0011620019   -4.3550038   0.90086096   439061 
 3007000   0.60067814   -4.3550926   -4.3550926   -3.4540774 0.0029600616   -4.3550926   0.90101515   439061 
 3008000   0.60116424   -4.3550609   -4.3550609   -3.4533166 0.0031420354   -4.3550609   0.90174431   439061 
 3009000   0.60059072   -4.3543382   -4.3543382   -3.4534542 0.0062148488   -4.3543382   0.90088404   439061 
 3010000    0.6012344   -4.3533734   -4.3533734   -3.4515238 0.0092846027   -4.3533734   0.90184955   439061 
 3011000   0.60121756   -4.3535679   -4.3535679   -3.4517437 0.0088144937   -4.3535679   0.90182428   439061 
 3012000   0.60194099    -4.355031    -4.355031   -3.4521215 0.0074720722    -4.355031   0.90290943   439061 
 3013000   0.60151564   -4.3544748   -4.3544748   -3.4522034 0.0069714478   -4.3544748    0.9022714   439061 
 3014000   0.60060062   -4.3522981   -4.3522981   -3.4513993 0.0074913366   -4.3522981   0.90089888   439061 
 3015000   0.60199608   -4.3545023   -4.3545023   -3.4515102 0.0030874084   -4.3545023   0.90299206   439061 
 3016000   0.60099074   -4.3524123   -4.3524123   -3.4509282 0.0059128554   -4.3524123   0.90148406   439061 
 3017000   0.60062559   -4.3528281   -4.3528281   -3.4518917 0.0031182815   -4.3528281   0.90093634   439061 
 3018000   0.60102962    -4.352523    -4.352523   -3.4509806 2.0858153e-06    -4.352523   0.90154237   439061 
 3019000   0.60150293   -4.3526629   -4.3526629   -3.4504105  0.001189774   -4.3526629   0.90225234   439061 
 3020000   0.60109541   -4.3523509   -4.3523509   -3.4507098 0.0073251556   -4.3523509   0.90164107   439061 
 3021000   0.60185099   -4.3541347   -4.3541347   -3.4513602 0.0029708304   -4.3541347   0.90277443   439061 
 3022000   0.60225921   -4.3538774   -4.3538774   -3.4504906 0.0037273197   -4.3538774   0.90338675   439061 
 3023000   0.60190006    -4.353024    -4.353024   -3.4501759 0.0087983131    -4.353024   0.90284803   439061 
 3024000   0.60136627   -4.3532295   -4.3532295   -3.4511821 0.0057760859   -4.3532295   0.90204734   439061 
 3025000   0.60146044   -4.3537574   -4.3537574   -3.4515688 0.0054977877   -4.3537574   0.90218861   439061 
 3026000   0.60134431   -4.3544028   -4.3544028   -3.4523884  0.004724765   -4.3544028   0.90201441   439061 
 3027000   0.60061402   -4.3533583   -4.3533583   -3.4524394 0.0039541113   -4.3533583   0.90091898   439061 
 3028000   0.60063258   -4.3535045   -4.3535045   -3.4525577 0.0083900703   -4.3535045   0.90094681   439061 
 3029000   0.60130034   -4.3549557   -4.3549557   -3.4530072 0.0050648339   -4.3549557   0.90194845   439061 
 3030000    0.6016363   -4.3548204   -4.3548204    -3.452368 0.0064506519   -4.3548204   0.90245239   439061 
 3031000   0.60147806   -4.3541464   -4.3541464   -3.4519313  0.005736369   -4.3541464   0.90221504   439061 
 3032000   0.60204107   -4.3559922   -4.3559922   -3.4529326 0.0047735476   -4.3559922   0.90305954   439061 
 3033000   0.60089739   -4.3542161   -4.3542161    -3.452872 0.0043314664   -4.3542161   0.90134403   439061 
 3034000   0.60058473   -4.3536085   -4.3536085   -3.4527334 0.0023883137   -4.3536085   0.90087505   439061 
 3035000   0.60091364   -4.3540712   -4.3540712   -3.4527028 0.00085671232   -4.3540712    0.9013684   439061 
 3036000   0.59936548   -4.3525948   -4.3525948   -3.4535486 0.0015861589   -4.3525948   0.89904617   439061 
 3037000   0.60053265   -4.3535228   -4.3535228   -3.4527259 0.0025049206   -4.3535228   0.90079693   439061 
 3038000   0.59985476   -4.3537723   -4.3537723   -3.4539922 0.0041331862   -4.3537723    0.8997801   439061 
 3039000   0.60068599   -4.3549302   -4.3549302   -3.4539033 0.0020648226   -4.3549302   0.90102693   439061 
 3040000   0.60030946   -4.3543343   -4.3543343   -3.4538722 0.0063410162   -4.3543343   0.90046214   439061 
 3041000    0.6002441   -4.3544571   -4.3544571    -3.454093 0.0073180899   -4.3544571    0.9003641   439061 
 3042000   0.60111653   -4.3549255   -4.3549255   -3.4532527 0.0089485194   -4.3549255   0.90167274   439061 
 3043000   0.60108498    -4.356214    -4.356214   -3.4545886 0.0065081477    -4.356214   0.90162542   439061 
 3044000   0.60161958   -4.3571249   -4.3571249   -3.4546976 0.0059581737   -4.3571249   0.90242731   439061 
 3045000   0.60098779   -4.3565841   -4.3565841   -3.4551045  0.008258456   -4.3565841   0.90147964   439061 
 3046000   0.60043149   -4.3557909   -4.3557909   -3.4551458 0.0074755612   -4.3557909   0.90064518   439061 
 3047000   0.60160395   -4.3578574   -4.3578574   -3.4554535 0.0060597736   -4.3578574   0.90240388   439061 
 3048000   0.60051993   -4.3557454   -4.3557454   -3.4549675 0.0088466501   -4.3557454   0.90077784   439061 
 3049000   0.59980412   -4.3542087   -4.3542087   -3.4545046  0.006775048   -4.3542087   0.89970412   439061 
 3050000    0.5995889   -4.3535859   -4.3535859   -3.4542046 0.0065460436   -4.3535859    0.8993813   439061 
 3051000   0.60024855   -4.3550267   -4.3550267    -3.454656 -0.00076873512   -4.3550267   0.90037077   439061 
 3052000    0.6006552   -4.3544346   -4.3544346   -3.4534539 0.0060881317   -4.3544346   0.90098075   439061 
 3053000   0.59954565    -4.352206    -4.352206   -3.4528896  0.005810893    -4.352206   0.89931642   439061 
 3054000    0.5999166    -4.353126    -4.353126   -3.4532532 0.0019938974    -4.353126   0.89987285   439061 
 3055000   0.60061176   -4.3552459   -4.3552459   -3.4543303 -0.0020413863   -4.3552459   0.90091559   439061 
 3056000     0.600831   -4.3561026   -4.3561026   -3.4548582 -0.0011207263   -4.3561026   0.90124444   439061 
 3057000   0.60084427   -4.3549747   -4.3549747   -3.4537103 0.0051025154   -4.3549747   0.90126435   439061 
 3058000   0.60031416   -4.3544442   -4.3544442    -3.453975 0.0068012748   -4.3544442   0.90046919   439061 
 3059000   0.60185481   -4.3566987   -4.3566987   -3.4539186 0.0016466526   -4.3566987   0.90278016   439061 
 3060000   0.60159925   -4.3567539   -4.3567539   -3.4543571 0.0057188076   -4.3567539   0.90239681   439061 
 3061000   0.60067513   -4.3566618   -4.3566618   -3.4556512 0.0072296284   -4.3566618   0.90101064   439061 
 3062000   0.60061611   -4.3561731   -4.3561731    -3.455251  0.010193107   -4.3561731   0.90092212   439061 
 3063000   0.60141911   -4.3571183   -4.3571183   -3.4549917 0.0091642611   -4.3571183   0.90212661   439061 
 3064000   0.60174878   -4.3581558   -4.3581558   -3.4555347 0.0067663533   -4.3581558   0.90262112   439061 
 3065000   0.60055666   -4.3562588   -4.3562588   -3.4554259 0.0060555659   -4.3562588   0.90083294   439061 
 3066000   0.60025195   -4.3562837   -4.3562837   -3.4559078 0.0082503121   -4.3562837   0.90037587   439061 
 3067000    0.6005841   -4.3553879   -4.3553879   -3.4545138 0.0067922544   -4.3553879    0.9008741   439061 
 3068000   0.60127885   -4.3560163   -4.3560163   -3.4541001 0.0029627427   -4.3560163   0.90191622   439061 
 3069000   0.59948388   -4.3540503   -4.3540503   -3.4548266 -0.00087587027   -4.3540503   0.89922378   439061 
 3070000   0.59929815   -4.3541843   -4.3541843   -3.4552391 0.0023822161   -4.3541843   0.89894518   439061 
 3071000   0.59922254    -4.353995    -4.353995   -3.4551633 0.0014554605    -4.353995   0.89883176   439061 
 3072000   0.60047802   -4.3553993   -4.3553993   -3.4546843 0.00022822536   -4.3553993   0.90071498   439061 
 3073000   0.60116482     -4.35577     -4.35577   -3.4540248 0.0008969921     -4.35577   0.90174517   439061 
 3074000   0.60039267   -4.3552071   -4.3552071   -3.4546201 0.0057834107   -4.3552071   0.90058696   439061 
 3075000   0.60013926   -4.3551973   -4.3551973   -3.4549905 0.0050305737   -4.3551973   0.90020684   439061 
 3076000   0.60020728   -4.3554396   -4.3554396   -3.4551307 0.0089475333   -4.3554396   0.90030887   439061 
 3077000   0.59941464   -4.3548203   -4.3548203   -3.4557004 0.0093967172   -4.3548203   0.89911991   439061 
 3078000   0.60042488   -4.3568464   -4.3568464   -3.4562111 0.0041962285   -4.3568464   0.90063527   439061 
 3079000   0.60158252   -4.3584739   -4.3584739   -3.4561021 0.0030903147   -4.3584739   0.90237172   439061 
 3080000   0.60142404   -4.3572132   -4.3572132   -3.4550792 0.0083949519   -4.3572132     0.902134   439061 
 3081000   0.60129845   -4.3572621   -4.3572621   -3.4553164 0.0065964492   -4.3572621   0.90194562   439061 
 3082000   0.60010341   -4.3553153   -4.3553153   -3.4551623  0.010478074   -4.3553153   0.90015306   439061 
 3083000   0.60048715   -4.3565409   -4.3565409   -3.4558122 0.0051236308   -4.3565409   0.90072867   439061 
 3084000   0.59998664   -4.3562896   -4.3562896   -3.4563117 0.0029875785   -4.3562896   0.89997791   439061 
 3085000   0.59937041   -4.3550569   -4.3550569   -3.4560033 0.0043336987   -4.3550569   0.89905357   439061 
 3086000   0.59991578   -4.3553432   -4.3553432   -3.4554716 0.0030656706   -4.3553432   0.89987162   439061 
 3087000   0.60025214   -4.3565386   -4.3565386   -3.4561625 -0.0019984141   -4.3565386   0.90037616   439061 
 3088000   0.59972163   -4.3541379   -4.3541379   -3.4545575   0.00215545   -4.3541379    0.8995804   439061 
 3089000   0.60025878    -4.355786    -4.355786   -3.4553999 0.0018963043    -4.355786   0.90038612   439061 
 3090000   0.59999439   -4.3561548   -4.3561548   -3.4561652 0.0056730199   -4.3561548   0.89998953   439061 
 3091000   0.60073963   -4.3564752   -4.3564752   -3.4553678 0.0035080027   -4.3564752    0.9011074   439061 
 3092000   0.60066532   -4.3557541   -4.3557541   -3.4547582   0.00602413   -4.3557541   0.90099593   439061 
 3093000   0.60101121   -4.3560794   -4.3560794   -3.4545646 0.0081907103   -4.3560794   0.90151476   439061 
 3094000   0.60223718   -4.3572743   -4.3572743   -3.4539206 0.0096620294   -4.3572743   0.90335371   439061 
 3095000   0.60138571   -4.3555666   -4.3555666   -3.4534901  0.011484164   -4.3555666   0.90207651   439061 
 3096000   0.60050826    -4.354236    -4.354236   -3.4534756  0.010351278    -4.354236   0.90076034   439061 
 3097000   0.60064574   -4.3538772   -4.3538772   -3.4529106 0.0063448675   -4.3538772   0.90096655   439061 
 3098000   0.60068977   -4.3544959   -4.3544959   -3.4534633 0.0066024075   -4.3544959    0.9010326   439061 
 3099000   0.60021007   -4.3537295   -4.3537295   -3.4534164 0.0071952321   -4.3537295   0.90031305   439061 
 3100000   0.60069543   -4.3544016   -4.3544016   -3.4533605 -0.0002083031   -4.3544016    0.9010411   439061 
 3101000   0.60037242   -4.3529682   -4.3529682   -3.4524116 0.0033026864   -4.3529682   0.90055658   439061 
 3102000   0.60066086    -4.354331    -4.354331   -3.4533417 0.00064441843    -4.354331   0.90098923   439061 
 3103000   0.59976482   -4.3526434   -4.3526434   -3.4529982 0.0018729106   -4.3526434   0.89964518   439061 
 3104000   0.60028922   -4.3535689   -4.3535689   -3.4531371 0.00091265625   -4.3535689   0.90043178   439061 
 3105000   0.60028507   -4.3538508   -4.3538508   -3.4534252 0.0031516378   -4.3538508   0.90042555   439061 
 3106000   0.60068292   -4.3545191   -4.3545191   -3.4534968 0.0046288877   -4.3545191   0.90102233   439061 
 3107000   0.60208531   -4.3567825   -4.3567825   -3.4536566 0.0039156388   -4.3567825   0.90312591   439061 
 3108000   0.60136016   -4.3570668   -4.3570668   -3.4550286 0.0070802534   -4.3570668   0.90203818   439061 
 3109000   0.60123827   -4.3559745   -4.3559745   -3.4541191 0.0061563547   -4.3559745   0.90185534   439061 
 3110000   0.60174948   -4.3569802   -4.3569802   -3.4543581 0.0089728385   -4.3569802   0.90262216   439061 
 3111000    0.6026628   -4.3576489   -4.3576489   -3.4536568 0.0055037073   -4.3576489   0.90399214   439061 
 3112000   0.60049996   -4.3552003   -4.3552003   -3.4544524 0.0078863181   -4.3552003   0.90074788   439061 
 3113000   0.60120454   -4.3561767   -4.3561767    -3.454372 0.0025857198   -4.3561767   0.90180476   439061 
 3114000   0.60021978   -4.3547134   -4.3547134   -3.4543858  0.004385699   -4.3547134   0.90032762   439061 
 3115000   0.60033944   -4.3547825   -4.3547825   -3.4542754 0.0036489936   -4.3547825   0.90050711   439061 
 3116000   0.60092601   -4.3551418   -4.3551418   -3.4537548 0.00033007536   -4.3551418   0.90138696   439061 
 3117000   0.60149495    -4.356156    -4.356156   -3.4539157 0.0009998125    -4.356156   0.90224037   439061 
 3118000   0.60031263   -4.3541605   -4.3541605   -3.4536936 0.0028684376   -4.3541605    0.9004669   439061 
 3119000   0.60099025     -4.35463     -4.35463   -3.4531467 0.00025001151     -4.35463   0.90148333   439061 
 3120000   0.60103432   -4.3560361   -4.3560361   -3.4544866 0.0017877915   -4.3560361   0.90154943   439061 
 3121000   0.60039363   -4.3557135   -4.3557135   -3.4551251 0.0078691829   -4.3557135   0.90058839   439061 
 3122000   0.60037387   -4.3566221   -4.3566221   -3.4560634 0.0012214006   -4.3566221   0.90055876   439061 
 3123000   0.60019522   -4.3557849   -4.3557849   -3.4554941 0.0055076035   -4.3557849   0.90029078   439061 
 3124000   0.59964402    -4.356017    -4.356017    -3.456553 0.0014229644    -4.356017   0.89946399   439061 
 3125000   0.60098731   -4.3571156   -4.3571156   -3.4556367 0.0064861596   -4.3571156   0.90147891   439061 
 3126000   0.60199839   -4.3584388   -4.3584388   -3.4554432 0.0082896234   -4.3584388   0.90299553   439061 
 3127000   0.60096877   -4.3561661   -4.3561661   -3.4547149 0.0063028167   -4.3561661    0.9014511   439061 
 3128000   0.60092764   -4.3559471   -4.3559471   -3.4545577  0.011977012   -4.3559471   0.90138941   439061 
 3129000   0.60075633   -4.3565705   -4.3565705   -3.4554381 0.0094059836   -4.3565705   0.90113245   439061 
 3130000   0.60043963   -4.3554736   -4.3554736   -3.4548162  0.007006384   -4.3554736   0.90065739   439061 
 3131000   0.60034145   -4.3547304   -4.3547304   -3.4542203 0.0049108143   -4.3547304   0.90051012   439061 
 3132000   0.59966573   -4.3539153   -4.3539153   -3.4544187 0.0043574294   -4.3539153   0.89949655   439061 
 3133000   0.60099215    -4.356333    -4.356333   -3.4548469 -0.0034327037    -4.356333   0.90148617   439061 
 3134000   0.60018552   -4.3541988   -4.3541988   -3.4539226 0.0010653154   -4.3541988   0.90027622   439061 
 3135000   0.59933197   -4.3531336   -4.3531336   -3.4541377 0.00089748406   -4.3531336   0.89899591   439061 
 3136000   0.60078445   -4.3560878   -4.3560878   -3.4549132 0.0013961286   -4.3560878   0.90117463   439061 
 3137000   0.59994102   -4.3541016   -4.3541016   -3.4541921 0.0032647509   -4.3541016   0.89990947   439061 
 3138000   0.60056916   -4.3556087   -4.3556087    -3.454757 0.00086660596   -4.3556087   0.90085169   439061 
 3139000   0.60089182   -4.3559424   -4.3559424   -3.4546067 0.0066561388   -4.3559424   0.90133567   439061 
 3140000   0.60129062   -4.3564885   -4.3564885   -3.4545546 0.0062476284   -4.3564885   0.90193388   439061 
 3141000    0.6009394   -4.3565021   -4.3565021   -3.4550951  0.012641587   -4.3565021   0.90140705   439061 
 3142000   0.60155508   -4.3575817   -4.3575817   -3.4552511 0.0066859523   -4.3575817   0.90233056   439061 
 3143000   0.60085082   -4.3567546   -4.3567546   -3.4554805  0.005949221   -4.3567546   0.90127417   439061 
 3144000   0.60139691   -4.3569242   -4.3569242   -3.4548309 0.0051341392   -4.3569242   0.90209332   439061 
 3145000   0.60115276   -4.3567921   -4.3567921    -3.455065 0.0036169326   -4.3567921   0.90172708   439061 
 3146000   0.60142968     -4.35735     -4.35735   -3.4552075 0.0011928289     -4.35735   0.90214246   439061 
 3147000   0.60040236   -4.3556333   -4.3556333   -3.4550318 0.0059677503   -4.3556333   0.90060149   439061 
 3148000   0.60016504   -4.3556682   -4.3556682   -3.4554227 -9.1734772e-05   -4.3556682   0.90024551   439061 
 3149000   0.60032029   -4.3554669   -4.3554669   -3.4549885 9.5872706e-05   -4.3554669   0.90047838   439061 
 3150000    0.5998946   -4.3553362   -4.3553362   -3.4554964 0.0055511501   -4.3553362   0.89983985   439061 
 3151000   0.60030295   -4.3562659   -4.3562659   -3.4558135 0.00022414711   -4.3562659   0.90045237   439061 
 3152000   0.60021638   -4.3546805   -4.3546805    -3.454358 0.0049850123   -4.3546805   0.90032252   439061 
 3153000   0.60126534    -4.356224    -4.356224    -3.454328 0.0045812177    -4.356224   0.90189596   439061 
 3154000   0.60076764   -4.3557216   -4.3557216   -3.4545722 0.0089517634   -4.3557216   0.90114941   439061 
 3155000   0.59969733   -4.3551945   -4.3551945   -3.4556505 0.0065708915   -4.3551945   0.89954395   439061 
 3156000   0.60139442   -4.3579154   -4.3579154   -3.4558259 0.0038797232   -4.3579154   0.90208957   439061 
 3157000   0.59976505   -4.3551145   -4.3551145    -3.455469 0.0047876727   -4.3551145   0.89964552   439061 
 3158000    0.6003808   -4.3551876   -4.3551876   -3.4546185 0.0061840167   -4.3551876   0.90056915   439061 
 3159000   0.60076698   -4.3567836   -4.3567836   -3.4556352 0.0079544441   -4.3567836   0.90114841   439061 
 3160000   0.60093608   -4.3569879   -4.3569879   -3.4555858 0.0042411358   -4.3569879   0.90140206   439061 
 3161000    0.6000281   -4.3552857   -4.3552857   -3.4552456 0.0036127031   -4.3552857   0.90004011   439061 
 3162000    0.6001779   -4.3550189   -4.3550189   -3.4547541 0.0062035404   -4.3550189    0.9002648   439061 
 3163000   0.60079409   -4.3554789   -4.3554789   -3.4542898 0.0055711318   -4.3554789   0.90118908   439061 
 3164000   0.60122751   -4.3561954   -4.3561954   -3.4543562 0.0066031299   -4.3561954   0.90183922   439061 
 3165000   0.60071573   -4.3554859   -4.3554859   -3.4544144 0.0036463901   -4.3554859   0.90107155   439061 
 3166000   0.60036636   -4.3555038   -4.3555038   -3.4549563 0.0011163261   -4.3555038   0.90054749   439061 
 3167000   0.60078914   -4.3553412   -4.3553412   -3.4541595  0.002988291   -4.3553412   0.90118166   439061 
 3168000   0.60017905   -4.3549798   -4.3549798   -3.4547133 0.0053991569   -4.3549798   0.90026653   439061 
 3169000   0.59973961   -4.3553539   -4.3553539   -3.4557465 0.0045825781   -4.3553539   0.89960736   439061 
 3170000   0.60038319   -4.3561572   -4.3561572   -3.4555844 0.0015451958   -4.3561572   0.90057274   439061 
 3171000   0.60010378   -4.3555201   -4.3555201   -3.4553664   0.00132234   -4.3555201   0.90015363   439061 
 3172000   0.60174491   -4.3572041   -4.3572041   -3.4545888 0.0034657946   -4.3572041   0.90261531   439061 
 3173000   0.60080184   -4.3566918   -4.3566918   -3.4554911 0.0058525156   -4.3566918   0.90120071   439061 
 3174000   0.60122406   -4.3570538   -4.3570538   -3.4552198 0.0073701132   -4.3570538   0.90183403   439061 
 3175000   0.60021104   -4.3555871   -4.3555871   -3.4552726 0.0082580868   -4.3555871   0.90031451   439061 
 3176000   0.60112219   -4.3568016   -4.3568016   -3.4551204 0.0023912301   -4.3568016   0.90168123   439061 
 3177000   0.59995706   -4.3548685   -4.3548685   -3.4549349 0.0077079679   -4.3548685   0.89993354   439061 
 3178000    0.6004384   -4.3557137   -4.3557137   -3.4550581 0.0071362284   -4.3557137   0.90065555   439061 
 3179000   0.60072605   -4.3558664   -4.3558664   -3.4547794 0.0070684609   -4.3558664   0.90108702   439061 
 3180000   0.60155008   -4.3576598   -4.3576598   -3.4553368 0.0012750058   -4.3576598   0.90232306   439061 
 3181000   0.59920904   -4.3538356   -4.3538356   -3.4550241 0.0046364532   -4.3538356   0.89881151   439061 
 3182000   0.59958586   -4.3552063   -4.3552063   -3.4558295 0.00044920417   -4.3552063   0.89937674   439061 
 3183000   0.60030244   -4.3562614   -4.3562614   -3.4558098  0.004283385   -4.3562614   0.90045161   439061 
 3184000   0.60043703    -4.356049    -4.356049   -3.4553955 0.0068488975    -4.356049    0.9006535   439061 
 3185000   0.60147243   -4.3570924   -4.3570924   -3.4548858 0.0038910548   -4.3570924   0.90220659   439061 
 3186000   0.60194246   -4.3566025   -4.3566025   -3.4536909 0.0016571322   -4.3566025   0.90291164   439061 
 3187000   0.60172146   -4.3562494   -4.3562494   -3.4536692 0.0046409059   -4.3562494   0.90258014   439061 
 3188000   0.60144302   -4.3564244   -4.3564244   -3.4542619  0.010459503   -4.3564244   0.90216247   439061 
 3189000   0.60178111   -4.3566848   -4.3566848   -3.4540152 0.0059303004   -4.3566848    0.9026696   439061 
 3190000   0.60073817   -4.3554984   -4.3554984   -3.4543932 0.0017413769   -4.3554984    0.9011052   439061 
 3191000   0.59981619   -4.3543002   -4.3543002    -3.454578 0.0021714558   -4.3543002   0.89972224   439061 
 3192000   0.59961172   -4.3552798   -4.3552798   -3.4558643 -0.00022432222   -4.3552798   0.89941553   439061 
 3193000   0.59972359   -4.3549723   -4.3549723    -3.455389 -0.00074920495   -4.3549723   0.89958333   439061 
 3194000   0.59933871   -4.3536863   -4.3536863   -3.4546802 0.0015117447   -4.3536863   0.89900601   439061 
 3195000   0.59983135   -4.3543112   -4.3543112   -3.4545663 -0.00079843913   -4.3543112   0.89974498   439061 
 3196000   0.60024723   -4.3548152   -4.3548152   -3.4544464  0.003520672   -4.3548152    0.9003688   439061 
 3197000   0.60033862   -4.3555469   -4.3555469   -3.4550411 0.0029699054   -4.3555469   0.90050588   439061 
 3198000   0.60100295   -4.3560681   -4.3560681   -3.4545657 0.0071727314   -4.3560681   0.90150237   439061 
 3199000   0.60032498   -4.3552708   -4.3552708   -3.4547853 0.0083927324   -4.3552708   0.90048542   439061 
 3200000   0.60163881   -4.3581832   -4.3581832    -3.455727  0.003836471   -4.3581832   0.90245616   439061 
 3201000   0.60173868   -4.3566614   -4.3566614   -3.4540554 0.0096038619   -4.3566614   0.90260597   439061 
 3202000    0.6015165   -4.3573334   -4.3573334   -3.4550608 0.0070941199   -4.3573334   0.90227269   439061 
 3203000   0.60196979   -4.3571969   -4.3571969   -3.4542442 0.0052318322   -4.3571969   0.90295263   439061 
 3204000   0.60008767   -4.3544233   -4.3544233   -3.4542938 0.0083511041   -4.3544233   0.90012946   439061 
 3205000   0.60062831   -4.3546289   -4.3546289   -3.4536884  0.006039968   -4.3546289   0.90094042   439061 
 3206000   0.60066651   -4.3548578   -4.3548578     -3.45386 -0.00039716149   -4.3548578   0.90099772   439061 
 3207000   0.60089237   -4.3540487   -4.3540487   -3.4527122 -0.0012193873   -4.3540487    0.9013365   439061 
 3208000   0.60014426   -4.3526811   -4.3526811   -3.4524668 0.00016915239   -4.3526811   0.90021434   439061 
 3209000   0.60053006   -4.3529504   -4.3529504   -3.4521574 0.0064873148   -4.3529504   0.90079304   439061 
 3210000   0.60137924   -4.3556857   -4.3556857   -3.4536189 -0.0015282188   -4.3556857    0.9020668   439061 
 3211000   0.59940975    -4.352445    -4.352445   -3.4533324 0.0032899924    -4.352445   0.89911258   439061 
 3212000   0.60019858   -4.3543926   -4.3543926   -3.4540968  0.000236441   -4.3543926   0.90029583   439061 
 3213000    0.5994573   -4.3536623   -4.3536623   -3.4544784   0.00579746   -4.3536623    0.8991839   439061 
 3214000   0.60062755   -4.3555405   -4.3555405   -3.4546012 0.0045085834   -4.3555405   0.90093927   439061 
 3215000   0.60188119   -4.3571327   -4.3571327    -3.454313  0.007124717   -4.3571327   0.90281972   439061 
 3216000   0.60151325   -4.3572673   -4.3572673   -3.4549995 0.0062067145   -4.3572673   0.90226781   439061 
 3217000    0.6017434   -4.3573263   -4.3573263   -3.4547133 0.0048519178   -4.3573263   0.90261304   439061 
 3218000   0.60096788   -4.3564977   -4.3564977   -3.4550479 0.0096003767   -4.3564977   0.90144977   439061 
 3219000   0.60127134   -4.3574951   -4.3574951   -3.4555902 0.0078419394   -4.3574951   0.90190496   439061 
 3220000   0.60120628   -4.3565775   -4.3565775   -3.4547701 0.0081414613   -4.3565775   0.90180736   439061 
 3221000   0.60117455   -4.3576494   -4.3576494   -3.4558896  0.002009555   -4.3576494   0.90175978   439061 
 3222000   0.59974559   -4.3556861   -4.3556861   -3.4560698 0.0029809857   -4.3556861   0.89961634   439061 
 3223000    0.6002683   -4.3555759   -4.3555759   -3.4551755  0.001602147   -4.3555759    0.9004004   439061 
 3224000   0.59909246   -4.3543569   -4.3543569   -3.4557203 0.0045971715   -4.3543569   0.89863664   439061 
 3225000   0.59946032   -4.3544069   -4.3544069   -3.4552184 0.0042739153   -4.3544069   0.89918844   439061 
 3226000   0.60056455    -4.356604    -4.356604   -3.4557592 -0.0021885425    -4.356604   0.90084477   439061 
 3227000   0.60063502   -4.3558025   -4.3558025    -3.454852 -0.0014249832   -4.3558025   0.90095048   439061 
 3228000   0.59990695   -4.3551291   -4.3551291   -3.4552707 0.0072254192   -4.3551291   0.89985838   439061 
 3229000   0.60091209   -4.3564656   -4.3564656   -3.4550995 0.0049851361   -4.3564656   0.90136608   439061 
 3230000   0.60159952   -4.3569329   -4.3569329   -3.4545356 0.0074148944   -4.3569329   0.90239722   439061 
 3231000   0.60188655   -4.3574471   -4.3574471   -3.4546194  0.006369572   -4.3574471   0.90282776   439061 
 3232000   0.60054894   -4.3562174   -4.3562174   -3.4553961 0.0062242058   -4.3562174   0.90082136   439061 
 3233000   0.60121581   -4.3566707   -4.3566707    -3.454849 0.0061048587   -4.3566707   0.90182165   439061 
 3234000   0.60147796   -4.3562181   -4.3562181   -3.4540032 0.0071358029   -4.3562181   0.90221489   439061 
 3235000   0.60065157   -4.3553163   -4.3553163    -3.454341 0.0088427101   -4.3553163    0.9009753   439061 
 3236000    0.6011278   -4.3561608   -4.3561608   -3.4544711  0.004066253   -4.3561608   0.90168965   439061 
 3237000   0.59980925   -4.3550051   -4.3550051   -3.4552933 0.0046002332   -4.3550051   0.89971182   439061 
 3238000   0.59901263   -4.3544982   -4.3544982   -3.4559813 0.0028329124   -4.3544982   0.89851689   439061 
 3239000   0.59863997   -4.3537208   -4.3537208   -3.4557629 -0.00087812482   -4.3537208   0.89795791   439061 
 3240000   0.60015754   -4.3554094   -4.3554094   -3.4551751 0.0003712114   -4.3554094   0.90023425   439061 
 3241000   0.60111907   -4.3567808   -4.3567808   -3.4551042 0.00016658274   -4.3567808   0.90167655   439061 
 3242000   0.60043247   -4.3560659   -4.3560659   -3.4554192 0.0043855114   -4.3560659   0.90064666   439061 
 3243000   0.60027337    -4.356325    -4.356325    -3.455917 0.0010161193    -4.356325   0.90040801   439061 
 3244000    0.5999758   -4.3560453   -4.3560453   -3.4560836 0.0024305492   -4.3560453   0.89996164   439061 
 3245000   0.60109452   -4.3580836   -4.3580836   -3.4564439 0.0025379002   -4.3580836   0.90163972   439061 
 3246000   0.60107857   -4.3574477   -4.3574477   -3.4558319  0.010731008   -4.3574477    0.9016158   439061 
 3247000   0.60180998   -4.3581574   -4.3581574   -3.4554445  0.013965595   -4.3581574   0.90271292   439061 
 3248000   0.60079936   -4.3567408   -4.3567408   -3.4555439  0.008200075   -4.3567408   0.90119698   439061 
 3249000   0.59970447   -4.3554484   -4.3554484   -3.4558937  0.010203822   -4.3554484   0.89955465   439061 
 3250000   0.60064183    -4.357141    -4.357141   -3.4561803 0.0080248903    -4.357141    0.9009607   439061 
 3251000   0.60163901   -4.3583611   -4.3583611   -3.4559047 0.0038588005   -4.3583611   0.90245646   439061 
 3252000   0.60043162   -4.3577354   -4.3577354     -3.45709 -0.001462242   -4.3577354   0.90064538   439061 
 3253000   0.59995248   -4.3568754   -4.3568754   -3.4569488 -0.0010174315   -4.3568754   0.89992667   439061 
 3254000   0.59971676   -4.3568345   -4.3568345   -3.4572614 -0.0050303054   -4.3568345   0.89957309   439061 
 3255000   0.59854434   -4.3543959   -4.3543959   -3.4565814   0.00572541   -4.3543959   0.89781447   439061 
 3256000   0.60020063   -4.3563838   -4.3563838   -3.4560849 0.00083283509   -4.3563838   0.90029889   439061 
 3257000   0.59987939   -4.3563036   -4.3563036   -3.4564865 0.0046523587   -4.3563036   0.89981703   439061 
 3258000   0.60063456   -4.3574779   -4.3574779   -3.4565281 0.0036340199   -4.3574779   0.90094979   439061 
 3259000   0.60058343   -4.3574776   -4.3574776   -3.4566046  0.003007115   -4.3574776    0.9008731   439061 
 3260000   0.60075173   -4.3581146   -4.3581146   -3.4569891 0.0059229594   -4.3581146   0.90112555   439061 
 3261000   0.60108954   -4.3578055   -4.3578055   -3.4561733  0.012340648   -4.3578055   0.90163225   439061 
 3262000   0.60137293   -4.3580944   -4.3580944   -3.4560371  0.012244341   -4.3580944   0.90205734   439061 
 3263000   0.60092791   -4.3579485   -4.3579485   -3.4565587  0.009983691   -4.3579485   0.90138981   439061 
 3264000   0.59984407   -4.3577426   -4.3577426   -3.4579785 0.0045177273   -4.3577426   0.89976406   439061 
 3265000   0.60034872   -4.3578827   -4.3578827   -3.4573617 0.0052513292   -4.3578827   0.90052102   439061 
 3266000    0.6004791    -4.357693    -4.357693   -3.4569764 0.0055538705    -4.357693    0.9007166   439061 
 3267000   0.60135293   -4.3586218   -4.3586218   -3.4565945 0.0020265369   -4.3586218   0.90202734   439061 
 3268000   0.59988099   -4.3568508   -4.3568508   -3.4570314 0.0034401564   -4.3568508   0.89981944   439061 
 3269000   0.59927156   -4.3563358   -4.3563358   -3.4574306 0.00063616652   -4.3563358   0.89890529   439061 
 3270000   0.59986953   -4.3563515   -4.3563515   -3.4565493 0.0019202744   -4.3563515   0.89980225   439061 
 3271000   0.59996132   -4.3563544   -4.3563544   -3.4564145 0.0015608696   -4.3563544   0.89993992   439061 
 3272000   0.59966188   -4.3554524   -4.3554524   -3.4559616 0.0078149418   -4.3554524   0.89949077   439061 
 3273000   0.60120145   -4.3589244   -4.3589244   -3.4571243 0.0015352852   -4.3589244   0.90180012   439061 
 3274000   0.60076214   -4.3569215   -4.3569215   -3.4557803 0.0026218551   -4.3569215   0.90114116   439061 
 3275000   0.60047898   -4.3568712   -4.3568712   -3.4561548 0.0050701653   -4.3568712   0.90071641   439061 
 3276000   0.60021663   -4.3562886   -4.3562886   -3.4559658 0.0050524592   -4.3562886   0.90032289   439061 
 3277000    0.6012032   -4.3581511   -4.3581511   -3.4563484 0.0058944765   -4.3581511   0.90180275   439061 
 3278000   0.60136271   -4.3587715   -4.3587715   -3.4567295 0.0084756952   -4.3587715   0.90204201   439061 
 3279000   0.60006739   -4.3578526   -4.3578526   -3.4577536 0.0027873209   -4.3578526   0.90009903   439061 
 3280000   0.59954504   -4.3564634   -4.3564634   -3.4571479 0.0038489999   -4.3564634   0.89931551   439061 
 3281000   0.60056756   -4.3581599   -4.3581599   -3.4573106 0.0020118573   -4.3581599   0.90084929   439061 
 3282000   0.59904589   -4.3555843   -4.3555843   -3.4570175 0.0059513765   -4.3555843   0.89856679   439061 
 3283000   0.60046167    -4.356771    -4.356771   -3.4560806 0.0050051814    -4.356771   0.90069046   439061 
 3284000   0.60051076   -4.3570712   -4.3570712   -3.4563071 0.0044486369   -4.3570712    0.9007641   439061 
 3285000   0.60084787   -4.3567898   -4.3567898   -3.4555201 0.0050170591   -4.3567898   0.90126975   439061 
 3286000   0.60044714   -4.3572673   -4.3572673   -3.4565986 0.0066288367   -4.3572673   0.90066866   439061 
 3287000   0.60093546   -4.3594089   -4.3594089   -3.4580078 0.0011489062   -4.3594089   0.90140113   439061 
 3288000   0.60080325   -4.3590116   -4.3590116   -3.4578088 -0.00010742499   -4.3590116   0.90120283   439061 
 3289000   0.59991271   -4.3580767   -4.3580767   -3.4582096 0.00068786346   -4.3580767   0.89986701   439061 
 3290000   0.59993137   -4.3585084   -4.3585084   -3.4586134 0.0037818105   -4.3585084   0.89989501   439061 
 3291000   0.60147907   -4.3604677   -4.3604677   -3.4582511 0.0025480929   -4.3604677   0.90221655   439061 
 3292000   0.60037102   -4.3587426   -4.3587426   -3.4581881 0.0077521468   -4.3587426   0.90055448   439061 
 3293000   0.60087646   -4.3591674   -4.3591674   -3.4578548  0.006348466   -4.3591674   0.90131264   439061 
 3294000    0.6004723   -4.3584389   -4.3584389   -3.4577325 0.0053963204   -4.3584389   0.90070641   439061 
 3295000    0.6007379   -4.3591011   -4.3591011   -3.4579963 0.0038880187   -4.3591011    0.9011048   439061 
 3296000   0.60044715   -4.3582925   -4.3582925   -3.4576238 0.0025368109   -4.3582925   0.90066868   439061 
 3297000   0.59933213   -4.3569719   -4.3569719   -3.4579757 0.0080391645   -4.3569719   0.89899614   439061 
 3298000   0.60088712   -4.3588924   -4.3588924   -3.4575638  0.004905538   -4.3588924   0.90132863   439061 
 3299000     0.601066   -4.3580702   -4.3580702   -3.4564732  0.004038107   -4.3580702   0.90159694   439061 
 3300000   0.60019145   -4.3565075   -4.3565075   -3.4562223 0.0036299395   -4.3565075   0.90028512   439061 
 3301000   0.60053666    -4.357575    -4.357575    -3.456772 -0.00021946349    -4.357575   0.90080294   439061 
 3302000   0.60056651   -4.3577717   -4.3577717    -3.456924 -0.001182094   -4.3577717   0.90084771   439061 
 3303000   0.60054187   -4.3580407   -4.3580407     -3.45723 -5.0936274e-05   -4.3580407   0.90081075   439061 
 3304000   0.60006719   -4.3565852   -4.3565852   -3.4564864 0.0054558713   -4.3565852   0.90009874   439061 
 3305000   0.60012486   -4.3570226   -4.3570226   -3.4568373 0.0039209851   -4.3570226   0.90018523   439061 
 3306000   0.60030787   -4.3565241   -4.3565241   -3.4560643 0.0061418609   -4.3565241   0.90045976   439061 
 3307000   0.60007995   -4.3567509   -4.3567509    -3.456633  0.005797412   -4.3567509   0.90011788   439061 
 3308000   0.59971776   -4.3565428   -4.3565428   -3.4569682 0.0097389833   -4.3565428   0.89957459   439061 
 3309000   0.60040118    -4.358286    -4.358286   -3.4576863 0.0059004041    -4.358286   0.90059971   439061 
 3310000   0.60093744   -4.3580618   -4.3580618   -3.4566577 0.0040574846   -4.3580618   0.90140411   439061 
 3311000     0.600959   -4.3578982   -4.3578982   -3.4564618 0.0051970416   -4.3578982   0.90143645   439061 
 3312000   0.60034069   -4.3578687   -4.3578687   -3.4573597 0.0095744843   -4.3578687   0.90050899   439061 
 3313000   0.60003191   -4.3571905   -4.3571905   -3.4571447 0.0042670697   -4.3571905   0.90004581   439061 
 3314000   0.60092804   -4.3585599   -4.3585599   -3.4571699 0.0012192227   -4.3585599   0.90139001   439061 
 3315000   0.59954029    -4.356092    -4.356092   -3.4567836 0.0053935525    -4.356092   0.89930838   439061 
 3316000   0.60008477   -4.3574616   -4.3574616   -3.4573365 0.0069261726   -4.3574616    0.9001251   439061 
 3317000   0.59996104   -4.3568408   -4.3568408   -3.4569013 0.00061535325   -4.3568408   0.89993951   439061 
 3318000   0.60118241    -4.358299    -4.358299   -3.4565274 0.0017837208    -4.358299   0.90177157   439061 
 3319000   0.59923891   -4.3543579   -4.3543579   -3.4555016 0.0077134697   -4.3543579   0.89885632   439061 
 3320000   0.60150312   -4.3575694   -4.3575694   -3.4553168 0.0065100313   -4.3575694   0.90225262   439061 
 3321000   0.60048713    -4.355921    -4.355921   -3.4551923 0.0047782317    -4.355921   0.90072865   439061 
 3322000   0.60115406   -4.3565951   -4.3565951   -3.4548661 0.0034734913   -4.3565951   0.90172904   439061 
 3323000   0.60009887   -4.3551117   -4.3551117   -3.4549654 0.0040720651   -4.3551117   0.90014625   439061 
 3324000   0.60038941   -4.3557046   -4.3557046   -3.4551225 0.0087522174   -4.3557046   0.90058207   439061 
 3325000   0.60041924     -4.35619     -4.35619   -3.4555632 0.0029326836     -4.35619   0.90062681   439061 
 3326000   0.60039827   -4.3559729   -4.3559729   -3.4553775 0.0028538448   -4.3559729   0.90059535   439061 
 3327000   0.60140419   -4.3578172   -4.3578172    -3.455713 -3.5919613e-05   -4.3578172   0.90210422   439061 
 3328000   0.59931176   -4.3550396   -4.3550396    -3.456074 0.0067201474   -4.3550396   0.89896559   439061 
 3329000   0.60095499   -4.3547234   -4.3547234    -3.453293  0.004045918   -4.3547234   0.90143043   439061 
 3330000   0.60060382   -4.3550166   -4.3550166   -3.4541129  0.011979278   -4.3550166   0.90090368   439061 
 3331000   0.60102994    -4.356692    -4.356692   -3.4551491 0.0060438202    -4.356692   0.90154285   439061 
 3332000   0.60039072   -4.3557571   -4.3557571   -3.4551731 0.0020459672   -4.3557571   0.90058402   439061 
 3333000   0.60043519   -4.3554353   -4.3554353   -3.4547846 0.0027861804   -4.3554353   0.90065073   439061 
 3334000   0.60174903   -4.3571631   -4.3571631   -3.4545416 0.0057455919   -4.3571631   0.90262149   439061 
 3335000   0.60053605   -4.3551669   -4.3551669   -3.4543649 0.0079870501   -4.3551669   0.90080202   439061 
 3336000   0.60149707   -4.3560511   -4.3560511   -3.4538076 0.0080517139   -4.3560511   0.90224355   439061 
 3337000   0.60149362   -4.3565781   -4.3565781   -3.4543397 0.00099553148   -4.3565781   0.90223837   439061 
 3338000   0.59955642   -4.3535503   -4.3535503   -3.4542177 0.0019709721   -4.3535503   0.89933259   439061 
 3339000   0.59955279   -4.3551508   -4.3551508   -3.4558237 0.0032635428   -4.3551508   0.89932714   439061 
 3340000   0.60135546   -4.3561368   -4.3561368   -3.4541056 0.0036079586   -4.3561368   0.90203114   439061 
 3341000   0.60060135   -4.3552081   -4.3552081   -3.4543082 0.0034607785   -4.3552081   0.90089997   439061 
 3342000   0.59977983   -4.3538763   -4.3538763   -3.4542086  0.007895299   -4.3538763    0.8996677   439061 
 3343000   0.60048642   -4.3560241   -4.3560241   -3.4552965  0.003293008   -4.3560241   0.90072758   439061 
 3344000   0.60078808    -4.356155    -4.356155    -3.454975 0.0021737819    -4.356155   0.90118006   439061 
 3345000     0.600698   -4.3562802   -4.3562802   -3.4552352 0.0089882908   -4.3562802   0.90104494   439061 
 3346000   0.60110911    -4.356726    -4.356726   -3.4550644   0.00652589    -4.356726   0.90166162   439061 
 3347000   0.60089648   -4.3560589   -4.3560589   -3.4547162 0.0058518339   -4.3560589   0.90134267   439061 
 3348000   0.60021099   -4.3562813   -4.3562813   -3.4559669 0.0022404087   -4.3562813   0.90031444   439061 
 3349000   0.59940889   -4.3555096   -4.3555096   -3.4563983 0.0052674545   -4.3555096   0.89911128   439061 
 3350000    0.5998503   -4.3566722   -4.3566722   -3.4568988 0.0044229775   -4.3566722   0.89977341   439061 
 3351000   0.60071686   -4.3568008   -4.3568008   -3.4557276 0.0081909067   -4.3568008   0.90107323   439061 
 3352000    0.6008273   -4.3570702   -4.3570702   -3.4558313 0.0094996181   -4.3570702   0.90123889   439061 
 3353000   0.60119442   -4.3575616   -4.3575616    -3.455772 0.0060692599   -4.3575616   0.90178958   439061 
 3354000   0.59991924   -4.3558249   -4.3558249   -3.4559481  0.008769305   -4.3558249   0.89987681   439061 
 3355000   0.60111469   -4.3571921   -4.3571921   -3.4555221 0.0038517379   -4.3571921   0.90166999   439061 
 3356000   0.60119642   -4.3564924   -4.3564924   -3.4546998  0.005073937   -4.3564924   0.90179258   439061 
 3357000   0.59956372   -4.3553374   -4.3553374   -3.4559939 0.0011410543   -4.3553374   0.89934353   439061 
 3358000   0.60159809   -4.3575918   -4.3575918   -3.4551967 -0.00024862932   -4.3575918   0.90239508   439061 
 3359000   0.59888204   -4.3535026   -4.3535026   -3.4551816 0.0065025002   -4.3535026   0.89832101   439061 
 3360000   0.60032032   -4.3558084   -4.3558084     -3.45533 0.00048662933   -4.3558084   0.90047843   439061 
 3361000   0.60022811   -4.3545529   -4.3545529   -3.4542128 0.0035918106   -4.3545529   0.90034012   439061 
 3362000     0.600274   -4.3555853   -4.3555853   -3.4551763 0.00089026279   -4.3555853   0.90040896   439061 
 3363000   0.60040941   -4.3555059   -4.3555059   -3.4548939 0.0017476935   -4.3555059   0.90061206   439061 
 3364000   0.60212074    -4.357608    -4.357608   -3.4544289 0.0023325797    -4.357608   0.90317905   439061 
 3365000   0.60126152   -4.3558727   -4.3558727   -3.4539825 0.0082089772   -4.3558727   0.90189022   439061 
 3366000   0.60143605   -4.3560683   -4.3560683   -3.4539163  0.007436908   -4.3560683   0.90215202   439061 
 3367000   0.60161817   -4.3572612   -4.3572612    -3.454836 0.0043999982   -4.3572612    0.9024252   439061 
 3368000    0.6010139   -4.3567808   -4.3567808    -3.455262 0.0064198567   -4.3567808   0.90151879   439061 
 3369000   0.59983339    -4.355297    -4.355297    -3.455549  0.010378928    -4.355297   0.89974804   439061 
 3370000   0.60051247   -4.3564544   -4.3564544   -3.4556878 0.0029902757   -4.3564544   0.90076666   439061 
 3371000   0.60096112   -4.3571305   -4.3571305   -3.4556908 0.0062450885   -4.3571305   0.90143962   439061 
 3372000    0.6011673   -4.3569964   -4.3569964   -3.4552475 0.0044647797   -4.3569964    0.9017489   439061 
 3373000   0.60106436   -4.3572711   -4.3572711   -3.4556766 0.0013351434   -4.3572711   0.90159449   439061 
 3374000   0.60040855   -4.3567066   -4.3567066   -3.4560959 0.0041179693   -4.3567066   0.90061078   439061 
 3375000   0.60061826   -4.3568162   -4.3568162   -3.4558909 0.0083345416   -4.3568162   0.90092534   439061 
 3376000   0.60001181   -4.3574466   -4.3574466   -3.4574309 0.0026947171   -4.3574466   0.90001567   439061 
 3377000    0.6000411   -4.3567011   -4.3567011   -3.4566415 0.0024776561   -4.3567011   0.90005959   439061 
 3378000   0.60065663   -4.3569891   -4.3569891   -3.4560062 0.0083209475   -4.3569891    0.9009829   439061 
 3379000   0.60096673   -4.3578702   -4.3578702   -3.4564221 0.0036129358   -4.3578702   0.90144803   439061 
 3380000   0.60091659   -4.3568932   -4.3568932   -3.4555203 0.0069269133   -4.3568932   0.90137283   439061 
 3381000   0.60074309   -4.3572683   -4.3572683   -3.4561558 0.0077262375   -4.3572683   0.90111259   439061 
 3382000   0.60039632     -4.35651     -4.35651   -3.4559176 0.0037909625     -4.35651   0.90059243   439061 
 3383000   0.60053588   -4.3574565   -4.3574565   -3.4566547 0.0029807828   -4.3574565   0.90080177   439061 
 3384000   0.60014872   -4.3570173   -4.3570173   -3.4567963 0.0013812413   -4.3570173   0.90022103   439061 
 3385000     0.599615   -4.3561674   -4.3561674   -3.4567469 0.0038239128   -4.3561674   0.89942045   439061 
 3386000   0.59964707   -4.3558491   -4.3558491   -3.4563806 0.0019414685   -4.3558491   0.89946856   439061 
 3387000   0.60050758   -4.3570252   -4.3570252   -3.4562659 0.0072102676   -4.3570252   0.90075931   439061 
 3388000    0.6004755   -4.3574108   -4.3574108   -3.4566996 0.0072599501   -4.3574108   0.90071119   439061 
 3389000   0.60132136   -4.3577062   -4.3577062   -3.4557262 0.0069763368   -4.3577062   0.90197998   439061 
 3390000   0.60037446   -4.3564973   -4.3564973   -3.4559377 0.0079332134   -4.3564973   0.90055964   439061 
 3391000   0.60043123   -4.3571062   -4.3571062   -3.4564614 0.0027783811   -4.3571062   0.90064479   439061 
 3392000   0.59953431   -4.3563706   -4.3563706   -3.4570712  0.006965721   -4.3563706   0.89929942   439061 
 3393000   0.60073519   -4.3581519   -4.3581519   -3.4570512 0.00087758704   -4.3581519   0.90110073   439061 
 3394000    0.6012007   -4.3580827   -4.3580827   -3.4562837 -0.00021193532   -4.3580827   0.90179899   439061 
 3395000    0.6007148   -4.3570782   -4.3570782    -3.456008 0.0040806845   -4.3570782   0.90107014   439061 
 3396000   0.60069893   -4.3580405   -4.3580405   -3.4569941 0.00063584633   -4.3580405   0.90104635   439061 
 3397000   0.60004362    -4.356349    -4.356349   -3.4562856 0.0036124518    -4.356349   0.90006339   439061 
 3398000   0.60040893   -4.3576518   -4.3576518   -3.4570405 0.0045547961   -4.3576518   0.90061134   439061 
 3399000    0.6009266   -4.3574086   -4.3574086   -3.4560208 0.0036596651   -4.3574086   0.90138784   439061 
 3400000   0.60056118   -4.3565083   -4.3565083   -3.4556686 0.0083956573   -4.3565083   0.90083972   439061 
 3401000   0.59990131   -4.3562413   -4.3562413   -3.4563914  0.007024964   -4.3562413   0.89984991   439061 
 3402000   0.60084231   -4.3571105   -4.3571105   -3.4558491 0.0098769246   -4.3571105   0.90126142   439061 
 3403000   0.60202838   -4.3581252   -4.3581252   -3.4550847 0.0048661738   -4.3581252   0.90304052   439061 
 3404000   0.60044259   -4.3564486   -4.3564486   -3.4557868 0.0043189759   -4.3564486   0.90066183   439061 
 3405000   0.60055645   -4.3564351   -4.3564351   -3.4556025 -0.00076674444   -4.3564351   0.90083262   439061 
 3406000   0.60084581   -4.3572506   -4.3572506   -3.4559839 0.00076314782   -4.3572506   0.90126666   439061 
 3407000   0.59922979   -4.3553321   -4.3553321   -3.4564895 0.0040183312   -4.3553321   0.89884264   439061 
 3408000   0.59962862   -4.3550529   -4.3550529    -3.455612 0.0042614942   -4.3550529   0.89944089   439061 
 3409000   0.59923448   -4.3547407   -4.3547407    -3.455891 0.0054125372   -4.3547407   0.89884968   439061 
 3410000   0.60075089   -4.3557546   -4.3557546   -3.4546303  0.007084665   -4.3557546   0.90112429   439061 
 3411000   0.60083992   -4.3566265   -4.3566265   -3.4553687 0.0094826971   -4.3566265   0.90125782   439061 
 3412000   0.60074035   -4.3569981   -4.3569981   -3.4558896 0.0091469222   -4.3569981   0.90110847   439061 
 3413000   0.60067562   -4.3556144   -4.3556144    -3.454603 0.0092450734   -4.3556144   0.90101137   439061 
 3414000   0.60025297   -4.3556836   -4.3556836   -3.4553062 0.0065449233   -4.3556836    0.9003774   439061 
 3415000   0.60051278   -4.3564321   -4.3564321    -3.455665 0.0026400023   -4.3564321   0.90076712   439061 
 3416000   0.60054159   -4.3569636   -4.3569636   -3.4561533 0.0056047885   -4.3569636   0.90081034   439061 
 3417000   0.60102555   -4.3571563   -4.3571563   -3.4556201 0.0023145633   -4.3571563   0.90153627   439061 
 3418000   0.60109827   -4.3580153   -4.3580153   -3.4563699 0.0049620505   -4.3580153   0.90164534   439061 
 3419000    0.6008637   -4.3572131   -4.3572131   -3.4559196 0.0023798459   -4.3572131    0.9012935   439061 
 3420000   0.60000356   -4.3566028   -4.3566028   -3.4565995 0.0026328096   -4.3566028   0.90000329   439061 
 3421000   0.60036964   -4.3567377   -4.3567377   -3.4561853 0.0034998488   -4.3567377   0.90055241   439061 
 3422000   0.59972394   -4.3554579   -4.3554579    -3.455874 0.0016211942   -4.3554579   0.89958386   439061 
 3423000   0.59931714   -4.3543285   -4.3543285   -3.4553548 0.0053353073   -4.3543285   0.89897366   439061 
 3424000   0.60109257   -4.3566319   -4.3566319   -3.4549951 0.0019988799   -4.3566319    0.9016368   439061 
 3425000   0.60153551     -4.35645     -4.35645   -3.4541488 0.0085494432     -4.35645   0.90230121   439061 
 3426000   0.60022172   -4.3548416   -4.3548416   -3.4545111  0.011726236   -4.3548416   0.90033053   439061 
 3427000   0.60066003   -4.3566912   -4.3566912   -3.4557033 0.0048735826   -4.3566912   0.90098799   439061 
 3428000   0.60098564   -4.3576287   -4.3576287   -3.4561523 0.0013971756   -4.3576287    0.9014764   439061 
 3429000   0.60011742   -4.3565145   -4.3565145   -3.4563404 0.0014775127   -4.3565145   0.90017408   439061 
 3430000   0.60034577   -4.3553841   -4.3553841   -3.4548675 0.0095229023   -4.3553841   0.90051661   439061 
 3431000   0.60065466   -4.3555607   -4.3555607   -3.4545808   0.01133755   -4.3555607   0.90097994   439061 
 3432000   0.60148862   -4.3560504   -4.3560504   -3.4538195 0.0088280806   -4.3560504   0.90223087   439061 
 3433000   0.60052035   -4.3556378   -4.3556378   -3.4548593 0.0068222657   -4.3556378   0.90077847   439061 
 3434000   0.60065587   -4.3561026   -4.3561026   -3.4551208    0.0060807   -4.3561026   0.90098175   439061 
 3435000   0.59958169   -4.3550541   -4.3550541   -3.4556836 0.0076318555   -4.3550541   0.89937049   439061 
 3436000   0.59967039   -4.3552677   -4.3552677   -3.4557642 0.0011525883   -4.3552677   0.89950353   439061 
 3437000   0.60010253   -4.3560468   -4.3560468    -3.455895 0.0026722982   -4.3560468   0.90015175   439061 
 3438000   0.59930869   -4.3547218   -4.3547218   -3.4557608 0.0048326665   -4.3547218   0.89896099   439061 
 3439000   0.59993228   -4.3556079   -4.3556079   -3.4557115 0.0030216807   -4.3556079   0.89989637   439061 
 3440000   0.60077056   -4.3561325   -4.3561325   -3.4549787 0.0024855816   -4.3561325   0.90115379   439061 
 3441000   0.60077753   -4.3565846   -4.3565846   -3.4554204 0.0062801938   -4.3565846   0.90116425   439061 
 3442000   0.60107189   -4.3571952   -4.3571952   -3.4555894 0.0027099207   -4.3571952   0.90160579   439061 
 3443000   0.60128527    -4.357197    -4.357197   -3.4552712 0.0058290156    -4.357197   0.90192584   439061 
 3444000   0.60179121   -4.3577153   -4.3577153   -3.4550305 0.0074755049   -4.3577153   0.90268475   439061 
 3445000   0.59983392   -4.3559147   -4.3559147   -3.4561659 0.0077922382   -4.3559147   0.89974883   439061 
 3446000   0.60116261    -4.357776    -4.357776   -3.4560342 0.0027686669    -4.357776   0.90174186   439061 
 3447000   0.59953236   -4.3564132   -4.3564132   -3.4571167 0.0060161557   -4.3564132   0.89929649   439061 
 3448000   0.60018299   -4.3560947   -4.3560947   -3.4558223 0.0061798842   -4.3560947   0.90027243   439061 
 3449000   0.59961127    -4.356251    -4.356251   -3.4568361 0.0024699056    -4.356251   0.89941486   439061 
 3450000   0.59918694   -4.3558838   -4.3558838   -3.4571054 0.0029801271   -4.3558838   0.89877836   439061 
 3451000   0.59945504    -4.356946    -4.356946   -3.4577655  0.004568692    -4.356946   0.89918051   439061 
 3452000   0.60079898   -4.3593214   -4.3593214    -3.458125 -0.00034178273   -4.3593214   0.90119642   439061 
 3453000    0.6005604   -4.3590716   -4.3590716   -3.4582331 0.0029559423   -4.3590716   0.90083855   439061 
 3454000   0.60030882    -4.358939    -4.358939   -3.4584779 0.0042006353    -4.358939   0.90046117   439061 
 3455000   0.60044331   -4.3584878   -4.3584878   -3.4578249 0.0050747959   -4.3584878   0.90066291   439061 
 3456000   0.60129799   -4.3592025   -4.3592025   -3.4572576  0.006115965   -4.3592025   0.90194493   439061 
 3457000   0.60195354    -4.359866    -4.359866   -3.4569377  0.011272318    -4.359866   0.90292826   439061 
 3458000    0.6004959   -4.3580893   -4.3580893   -3.4573475  0.013200443   -4.3580893   0.90074179   439061 
 3459000   0.59983193   -4.3576014   -4.3576014   -3.4578556 0.0055717166   -4.3576014   0.89974584   439061 
 3460000   0.60107389   -4.3591259   -4.3591259   -3.4575171 0.0030023708   -4.3591259   0.90160878   439061 
 3461000   0.59985331   -4.3573681   -4.3573681   -3.4575902 0.0035899809   -4.3573681   0.89977791   439061 
 3462000   0.60080267   -4.3580141   -4.3580141   -3.4568122 0.0040731174   -4.3580141   0.90120195   439061 
 3463000   0.60025843   -4.3572946   -4.3572946    -3.456909 0.0026884465   -4.3572946   0.90038559   439061 
 3464000    0.5996832   -4.3567324   -4.3567324   -3.4572097 0.0025707787   -4.3567324   0.89952275   439061 
 3465000   0.59924747   -4.3551491   -4.3551491   -3.4562799 8.1901948e-05   -4.3551491   0.89886916   439061 
 3466000   0.59905775   -4.3558424   -4.3558424   -3.4572579 0.0018488178   -4.3558424   0.89858458   439061 
 3467000    0.6002726   -4.3572102   -4.3572102   -3.4568034 0.0012356976   -4.3572102   0.90040685   439061 
 3468000   0.60084134   -4.3564855   -4.3564855   -3.4552255 0.0047582533   -4.3564855   0.90125996   439061 
 3469000   0.60094983   -4.3571427   -4.3571427     -3.45572 0.0044921238   -4.3571427   0.90142269   439061 
 3470000   0.60131476    -4.357197    -4.357197   -3.4552269  0.010722435    -4.357197   0.90197009   439061 
 3471000   0.60042338   -4.3560607   -4.3560607   -3.4554277  0.010664712   -4.3560607   0.90063303   439061 
 3472000   0.60228491   -4.3593712   -4.3593712   -3.4559458 0.0064216388   -4.3593712   0.90342531   439061 
 3473000    0.6001517   -4.3565197   -4.3565197   -3.4562942 0.0039664289   -4.3565197    0.9002255   439061 
 3474000   0.59944876   -4.3549488   -4.3549488   -3.4557777 0.0050399053   -4.3549488   0.89917109   439061 
 3475000   0.59976607   -4.3559383   -4.3559383   -3.4562913 0.0045271993   -4.3559383   0.89964705   439061 
 3476000   0.60044469   -4.3566991   -4.3566991   -3.4560341 0.0041105707   -4.3566991   0.90066498   439061 
 3477000   0.59957738   -4.3551541   -4.3551541     -3.45579 0.0044739452   -4.3551541   0.89936402   439061 
 3478000   0.60018557   -4.3563665   -4.3563665   -3.4560902 0.0025983984   -4.3563665    0.9002763   439061 
 3479000   0.60026155   -4.3561443   -4.3561443    -3.455754  0.001697227   -4.3561443   0.90039028   439061 
 3480000   0.59986518   -4.3566073   -4.3566073   -3.4568115 0.0035135151   -4.3566073   0.89979573   439061 
 3481000   0.60090911   -4.3576822   -4.3576822   -3.4563206 0.0055664496   -4.3576822   0.90136161   439061 
 3482000   0.60020475   -4.3574617   -4.3574617   -3.4571566 0.0042937929   -4.3574617   0.90030507   439061 
 3483000   0.60053914   -4.3569192   -4.3569192   -3.4561125 0.0079661916   -4.3569192   0.90080666   439061 
 3484000    0.5995781   -4.3563843   -4.3563843   -3.4570192 0.0096550891   -4.3563843    0.8993651   439061 
 3485000   0.59909835   -4.3564496   -4.3564496   -3.4578041 0.0068415061   -4.3564496   0.89864548   439061 
 3486000   0.60086813   -4.3592977   -4.3592977   -3.4579976 0.0025171807   -4.3592977   0.90130015   439061 
 3487000   0.60145801   -4.3603354   -4.3603354   -3.4581504 0.0041830295   -4.3603354   0.90218496   439061 
 3488000   0.60049988   -4.3589161   -4.3589161   -3.4581684 0.0084300904   -4.3589161   0.90074777   439061 
 3489000   0.60110117   -4.3587522   -4.3587522   -3.4571025 0.0054908415   -4.3587522    0.9016497   439061 
 3490000   0.60034593   -4.3579734   -4.3579734   -3.4574566 0.0068306116   -4.3579734   0.90051684   439061 
 3491000   0.60056643   -4.3586452   -4.3586452   -3.4577976 0.00097676627   -4.3586452   0.90084759   439061 
 3492000   0.59982489   -4.3579579   -4.3579579   -3.4582226 0.0012818469   -4.3579579   0.89973528   439061 
 3493000   0.60002347   -4.3585586   -4.3585586   -3.4585254 0.0032319982   -4.3585586   0.90003315   439061 
 3494000   0.59922642   -4.3577205   -4.3577205   -3.4588829 0.0038213041   -4.3577205   0.89883758   439061 
 3495000   0.60017728   -4.3588444   -4.3588444   -3.4585806 0.0018823624   -4.3588444   0.90026387   439061 
 3496000   0.59873834    -4.358057    -4.358057   -3.4599516 0.0067602014    -4.358057   0.89810546   439061 
 3497000   0.59966471   -4.3585979   -4.3585979   -3.4591029  0.003794532   -4.3585979   0.89949502   439061 
 3498000   0.60003545   -4.3593598   -4.3593598   -3.4593086 0.0020861627   -4.3593598   0.90005112   439061 
 3499000   0.60026591   -4.3581666   -4.3581666   -3.4577698 0.0061873669   -4.3581666   0.90039681   439061 
 3500000   0.60079567   -4.3587372   -4.3587372   -3.4575457 0.0058872357   -4.3587372   0.90119146   439061 
 3501000   0.60070433    -4.358804    -4.358804   -3.4577496 0.0062609477    -4.358804   0.90105444   439061 
 3502000   0.59900067   -4.3577259   -4.3577259    -3.459227 0.0055080083   -4.3577259   0.89849895   439061 
 3503000   0.59984199   -4.3589448   -4.3589448   -3.4591839 0.0037120016   -4.3589448   0.89976093   439061 
 3504000   0.59938584    -4.358347    -4.358347   -3.4592703  0.003181418    -4.358347   0.89907671   439061 
 3505000   0.59988403   -4.3591462   -4.3591462   -3.4593222 0.0050231921   -4.3591462   0.89982399   439061 
 3506000   0.59952518   -4.3587672   -4.3587672   -3.4594815 0.0059820561   -4.3587672   0.89928573   439061 
 3507000    0.5997264   -4.3591268   -4.3591268   -3.4595392 0.0034688054   -4.3591268   0.89958756   439061 
 3508000   0.60007756   -4.3595068   -4.3595068   -3.4593925 0.0035984087   -4.3595068   0.90011429   439061 
 3509000   0.59995212    -4.359405    -4.359405   -3.4594788 0.0076667273    -4.359405   0.89992612   439061 
 3510000   0.59948043   -4.3575412   -4.3575412   -3.4583226 0.0083657666   -4.3575412   0.89921859   439061 
 3511000   0.60083596   -4.3594676   -4.3594676   -3.4582158 0.0053448208   -4.3594676   0.90125189   439061 
 3512000   0.60021228   -4.3588187   -4.3588187   -3.4585024 0.0030756902   -4.3588187   0.90031637   439061 
 3513000   0.60002159   -4.3586292   -4.3586292   -3.4585989 0.0033439681   -4.3586292   0.90003034   439061 
 3514000   0.60003127   -4.3577234   -4.3577234   -3.4576785 0.0037345956   -4.3577234   0.90004486   439061 
 3515000   0.59980597   -4.3578055   -4.3578055   -3.4580986 0.0032456264   -4.3578055   0.89970691   439061 
 3516000   0.60058958   -4.3580401   -4.3580401   -3.4571578 0.0049107005   -4.3580401   0.90088231   439061 
 3517000   0.60009115    -4.357439    -4.357439   -3.4573043 0.0066656102    -4.357439   0.90013468   439061 
 3518000   0.60023975   -4.3577955   -4.3577955   -3.4574379 0.0003386714   -4.3577955   0.90035757   439061 
 3519000   0.60025651   -4.3579916   -4.3579916   -3.4576089 0.0015175441   -4.3579916   0.90038272   439061 
 3520000   0.59849825   -4.3562206   -4.3562206   -3.4584753  0.005562049   -4.3562206   0.89774533   439061 
 3521000   0.59972379   -4.3580152   -4.3580152   -3.4584316 0.0021447897   -4.3580152   0.89958364   439061 
 3522000    0.6002299   -4.3586745   -4.3586745   -3.4583317 0.0036093307   -4.3586745    0.9003428   439061 
 3523000   0.60040683   -4.3584162   -4.3584162    -3.457808 0.00054838258   -4.3584162    0.9006082   439061 
 3524000    0.6002671   -4.3592324   -4.3592324   -3.4588338 0.0028903325   -4.3592324    0.9003986   439061 
 3525000   0.60010907   -4.3589667   -4.3589667   -3.4588051 0.0046534399   -4.3589667   0.90016156   439061 
 3526000   0.59993115   -4.3595706   -4.3595706   -3.4596759 0.0034087831   -4.3595706   0.89989467   439061 
 3527000   0.60018507   -4.3592791   -4.3592791   -3.4590035 0.0099040675   -4.3592791   0.90027556   439061 
 3528000   0.60085846   -4.3598076   -4.3598076   -3.4585219 0.0040075402   -4.3598076   0.90128563   439061 
 3529000   0.59992176   -4.3586258   -4.3586258   -3.4587452 0.0092759242   -4.3586258   0.89988059   439061 
 3530000   0.60006758   -4.3591525   -4.3591525   -3.4590532 0.0021511685   -4.3591525   0.90009932   439061 
 3531000   0.59836011   -4.3574459   -4.3574459   -3.4599077 0.0060752769   -4.3574459   0.89753813   439061 
 3532000   0.59922601   -4.3596238   -4.3596238   -3.4607869 0.0010574391   -4.3596238   0.89883696   439061 
 3533000    0.5994493   -4.3593831   -4.3593831   -3.4602112 0.0063803115   -4.3593831   0.89917191   439061 
 3534000   0.59975824   -4.3595059   -4.3595059   -3.4598706  0.005896243   -4.3595059   0.89963531   439061 
 3535000   0.59981202   -4.3598882   -4.3598882   -3.4601722 0.0027653414   -4.3598882   0.89971598   439061 
 3536000   0.59919611   -4.3595926   -4.3595926   -3.4608005 0.0028675976   -4.3595926   0.89879212   439061 
 3537000   0.59947629   -4.3605191   -4.3605191   -3.4613068 0.0030692352   -4.3605191   0.89921238   439061 
 3538000   0.60009075   -4.3620191   -4.3620191   -3.4618851 0.0017808417   -4.3620191   0.90013407   439061 
 3539000   0.59836981   -4.3591195   -4.3591195   -3.4615668 0.0078399682   -4.3591195   0.89755267   439061 
 3540000   0.59944334   -4.3615046   -4.3615046   -3.4623416 0.0055987859   -4.3615046   0.89916296   439061 
 3541000   0.59991317   -4.3616454   -4.3616454   -3.4617777 0.0082228295   -4.3616454   0.89986771   439061 
 3542000    0.5998078   -4.3611972   -4.3611972   -3.4614876 0.0087355846   -4.3611972   0.89970964   439061 
 3543000   0.60157312   -4.3636175   -4.3636175   -3.4612598 0.0042887879   -4.3636175   0.90235762   439061 
 3544000    0.6008904   -4.3611141   -4.3611141   -3.4597806 0.0052064871   -4.3611141   0.90133354   439061 
 3545000   0.60004304    -4.360938    -4.360938   -3.4608755 0.0043974925    -4.360938   0.90006252   439061 
 3546000    0.5992952   -4.3586983   -4.3586983   -3.4597575 0.0046640615   -4.3586983   0.89894076   439061 
 3547000   0.59852682   -4.3578477   -4.3578477   -3.4600595 0.0086577843   -4.3578477   0.89778818   439061 
 3548000   0.59844416   -4.3571351   -4.3571351   -3.4594709 0.0023698057   -4.3571351    0.8976642   439061 
 3549000   0.59899341   -4.3578404   -4.3578404   -3.4593523 0.0011052849   -4.3578404   0.89848806   439061 
 3550000   0.59775545   -4.3558617   -4.3558617   -3.4592306 0.0015858984   -4.3558617   0.89663113   439061 
 3551000   0.59905142   -4.3574979   -4.3574979   -3.4589228 0.00076562835   -4.3574979   0.89857509   439061 
 3552000   0.60071774   -4.3579969   -4.3579969   -3.4569223 0.0053403578   -4.3579969   0.90107456   439061 
 3553000   0.60040427   -4.3571013   -4.3571013    -3.456497  0.010942789   -4.3571013   0.90060435   439061 
 3554000    0.5999371   -4.3559644   -4.3559644   -3.4560608 0.0095916461   -4.3559644   0.89990359   439061 
 3555000   0.60059461   -4.3580528   -4.3580528   -3.4571629  0.010020421   -4.3580528   0.90088987   439061 
 3556000   0.60088629   -4.3580615   -4.3580615   -3.4567341 0.0047944263   -4.3580615   0.90132738   439061 
 3557000   0.59942487   -4.3568538   -4.3568538   -3.4577186 0.0061625322   -4.3568538   0.89913526   439061 
 3558000   0.60073397   -4.3575903   -4.3575903   -3.4564914 0.0052708288   -4.3575903    0.9010989   439061 
 3559000   0.59928403   -4.3555083   -4.3555083   -3.4565844 0.0084027697   -4.3555083     0.898924   439061 
 3560000   0.59958472   -4.3561178   -4.3561178   -3.4567428 0.0056161744   -4.3561178   0.89937504   439061 
 3561000   0.59992678   -4.3563709   -4.3563709   -3.4564828 0.0039329678   -4.3563709   0.89988812   439061 
 3562000    0.6012032   -4.3577441   -4.3577441   -3.4559414 0.0030266293   -4.3577441   0.90180275   439061 
 3563000   0.60086175   -4.3568055   -4.3568055   -3.4555149 0.0015998904   -4.3568055   0.90129057   439061 
 3564000   0.60163073   -4.3574347   -4.3574347   -3.4549906 0.00083410474   -4.3574347   0.90244405   439061 
 3565000   0.59977837   -4.3553011   -4.3553011   -3.4556356 0.0017245676   -4.3553011    0.8996655   439061 
 3566000   0.59923365   -4.3545768   -4.3545768   -3.4557284 0.00074361136   -4.3545768   0.89884843   439061 
 3567000    0.5995494   -4.3552973   -4.3552973   -3.4559753 0.00064248907   -4.3552973   0.89932205   439061 
 3568000    0.5999619   -4.3564835   -4.3564835   -3.4565427 -0.0016156001   -4.3564835    0.8999408   439061 
 3569000   0.59957599   -4.3561892   -4.3561892   -3.4568273 0.0022909887   -4.3561892   0.89936193   439061 
 3570000   0.59937273   -4.3562946   -4.3562946   -3.4572375 0.0059472081   -4.3562946   0.89905704   439061 
 3571000   0.59955885   -4.3569087   -4.3569087   -3.4575724 0.0048039818   -4.3569087   0.89933622   439061 
 3572000   0.60046158   -4.3588703   -4.3588703     -3.45818 0.0040917115   -4.3588703   0.90069032   439061 
 3573000   0.60102098    -4.360001    -4.360001   -3.4584716 0.0078124362    -4.360001   0.90152942   439061 
 3574000   0.60136345   -4.3609018   -4.3609018   -3.4588587 0.0088737883   -4.3609018   0.90204312   439061 
 3575000    0.6008245   -4.3597626   -4.3597626   -3.4585279  0.010136679   -4.3597626    0.9012347   439061 
 3576000   0.60066026   -4.3599251   -4.3599251   -3.4589367 0.0083614302   -4.3599251   0.90098833   439061 
 3577000   0.60095248   -4.3604614   -4.3604614   -3.4590347 0.0071970427   -4.3604614   0.90142666   439061 
 3578000   0.59981089   -4.3592235   -4.3592235   -3.4595092  0.004070202   -4.3592235   0.89971428   439061 
 3579000   0.60058904   -4.3586266   -4.3586266   -3.4577451 0.0044464596   -4.3586266   0.90088151   439061 
 3580000   0.60023065   -4.3583695   -4.3583695   -3.4580256 0.0043591602   -4.3583695   0.90034392   439061 
 3581000   0.59915066   -4.3565496   -4.3565496   -3.4578256  0.002687164   -4.3565496   0.89872395   439061 
 3582000   0.59920936   -4.3565765   -4.3565765   -3.4577645 0.0016511922   -4.3565765     0.898812   439061 
 3583000   0.60027402   -4.3575434   -4.3575434   -3.4571344 0.00058395724   -4.3575434   0.90040898   439061 
 3584000   0.59868807   -4.3562059   -4.3562059   -3.4581758 0.0015192571   -4.3562059   0.89803005   439061 
 3585000   0.60052919   -4.3567541   -4.3567541   -3.4559624  0.003675024   -4.3567541   0.90079173   439061 
 3586000   0.60141814   -4.3570011   -4.3570011   -3.4548759 0.0072486376   -4.3570011   0.90212516   439061 
 3587000    0.6010602   -4.3577334   -4.3577334   -3.4561451 0.0067596214   -4.3577334   0.90158825   439061 
 3588000   0.60124192   -4.3570702   -4.3570702   -3.4552093 0.0054839025   -4.3570702   0.90186083   439061 
 3589000   0.60045516   -4.3580797   -4.3580797    -3.457399 0.0013528327   -4.3580797   0.90068068   439061 
 3590000   0.59970848   -4.3571763   -4.3571763   -3.4576157 0.0059126414   -4.3571763   0.89956067   439061 
 3591000   0.59975929   -4.3582724   -4.3582724   -3.4586355 0.0014162064   -4.3582724   0.89963688   439061 
 3592000    0.5985661   -4.3556836   -4.3556836   -3.4578365  0.009216922   -4.3556836    0.8978471   439061 
 3593000   0.59934896   -4.3575394   -4.3575394    -3.458518 0.0064103812   -4.3575394   0.89902139   439061 
 3594000   0.59968007   -4.3578822   -4.3578822   -3.4583642 0.0039654966   -4.3578822   0.89951806   439061 
 3595000   0.59910039   -4.3564621   -4.3564621   -3.4578136 0.0079982322   -4.3564621   0.89864853   439061 
 3596000   0.59940232   -4.3579328   -4.3579328   -3.4588314 0.0069438592   -4.3579328   0.89910144   439061 
 3597000   0.60001357   -4.3581476   -4.3581476   -3.4581292 0.0078982705   -4.3581476   0.90001831   439061 
 3598000   0.59978583   -4.3579437   -4.3579437    -3.458267 0.0066644247   -4.3579437   0.89967669   439061 
 3599000   0.60161988   -4.3608089   -4.3608089   -3.4583811 0.0036215376   -4.3608089   0.90242777   439061 
 3600000   0.60084757   -4.3594324   -4.3594324   -3.4581631  0.004602989   -4.3594324   0.90126931   439061 
 3601000   0.60083347   -4.3585248   -4.3585248   -3.4572767 0.0067301136   -4.3585248   0.90124815   439061 
 3602000   0.59895579   -4.3560155   -4.3560155   -3.4575838 0.0038195504   -4.3560155   0.89843164   439061 
 3603000   0.60023856   -4.3581102   -4.3581102   -3.4577544 0.0043704639   -4.3581102    0.9003558   439061 
 3604000   0.60008263   -4.3582171   -4.3582171   -3.4580952 -0.000769636   -4.3582171    0.9001219   439061 
 3605000   0.60047634   -4.3582194   -4.3582194   -3.4575069 0.00023164016   -4.3582194   0.90071246   439061 
 3606000   0.59950248   -4.3568575   -4.3568575   -3.4576058 0.00094059247   -4.3568575   0.89925167   439061 
 3607000   0.59950576   -4.3571403   -4.3571403   -3.4578837 0.0012676778   -4.3571403   0.89925658   439061 
 3608000   0.60000099    -4.357978    -4.357978   -3.4579786 0.0016737705    -4.357978   0.89999944   439061 
 3609000   0.59921458   -4.3567772   -4.3567772   -3.4579574 0.0057827366   -4.3567772   0.89881983   439061 
 3610000   0.59991497    -4.358537    -4.358537   -3.4586666 0.0051520678    -4.358537    0.8998704   439061 
 3611000   0.60013404   -4.3595445   -4.3595445   -3.4593455 0.0063957147   -4.3595445     0.900199   439061 
 3612000   0.60108986   -4.3591478   -4.3591478    -3.457515 0.0086530389   -4.3591478   0.90163274   439061 
 3613000   0.60146614   -4.3597518   -4.3597518   -3.4575547 0.0098713805   -4.3597518   0.90219715   439061 
 3614000   0.60206504   -4.3615686   -4.3615686   -3.4584731 0.0012722569   -4.3615686    0.9030955   439061 
 3615000   0.59974802    -4.359057    -4.359057    -3.459437  0.010233588    -4.359057   0.89961997   439061 
 3616000   0.59877905   -4.3567429   -4.3567429   -3.4585764  0.010809005   -4.3567429   0.89816653   439061 
 3617000   0.60065651   -4.3602128   -4.3602128   -3.4592301  0.001286646   -4.3602128   0.90098272   439061 
 3618000   0.60021965   -4.3604839   -4.3604839   -3.4601565 -1.9261472e-05   -4.3604839   0.90032742   439061 
 3619000   0.60004733   -4.3592429   -4.3592429   -3.4591739 0.0031408696   -4.3592429   0.90006895   439061 
 3620000    0.5998196    -4.358951    -4.358951   -3.4592237 0.0026800277    -4.358951   0.89972736   439061 
 3621000   0.60123838   -4.3595791   -4.3595791   -3.4577236 0.0031072791   -4.3595791   0.90185552   439061 
 3622000   0.60132123   -4.3595463   -4.3595463   -3.4575665 0.0046234776   -4.3595463    0.9019798   439061 
 3623000   0.60025726   -4.3578219   -4.3578219   -3.4574381 0.0053638039   -4.3578219   0.90038384   439061 
 3624000   0.59992937    -4.357542    -4.357542     -3.45765 0.0061878104    -4.357542     0.899892   439061 
 3625000   0.59991254   -4.3574813   -4.3574813   -3.4576145 0.0068025298   -4.3574813   0.89986676   439061 
 3626000   0.60030744   -4.3568613   -4.3568613   -3.4564022 0.0048517933   -4.3568613   0.90045912   439061 
 3627000   0.59995984   -4.3570839   -4.3570839   -3.4571461 0.0035629081   -4.3570839   0.89993771   439061 
 3628000   0.60038448   -4.3572386   -4.3572386   -3.4566639 0.0055458837   -4.3572386   0.90057466   439061 
 3629000   0.60020778   -4.3569571   -4.3569571   -3.4566475 0.0015147001   -4.3569571   0.90030962   439061 
 3630000   0.60050492   -4.3579046   -4.3579046   -3.4571493 -0.00054567213   -4.3579046   0.90075532   439061 
 3631000   0.59953155   -4.3561585   -4.3561585   -3.4568633 0.0045143407   -4.3561585   0.89929528   439061 
 3632000   0.59983973   -4.3566564   -4.3566564   -3.4568989 0.0045964743   -4.3566564   0.89975755   439061 
 3633000   0.60040131   -4.3576511   -4.3576511   -3.4570512 0.0033145024   -4.3576511   0.90059991   439061 
 3634000   0.60040262   -4.3571613   -4.3571613   -3.4565594 0.0087409512   -4.3571613   0.90060187   439061 
 3635000   0.60152145   -4.3587774   -4.3587774   -3.4564972 0.0067595084   -4.3587774   0.90228012   439061 
 3636000   0.60066054    -4.358158    -4.358158   -3.4571692 0.0046065456    -4.358158   0.90098875   439061 
 3637000   0.60006677   -4.3579279   -4.3579279   -3.4578298 0.0079481613   -4.3579279    0.9000981   439061 
 3638000   0.59946362   -4.3580852   -4.3580852   -3.4588918 0.0047488244   -4.3580852   0.89919338   439061 
 3639000   0.60023013   -4.3589746   -4.3589746   -3.4586315 0.0023941173   -4.3589746   0.90034315   439061 
 3640000   0.60079683   -4.3597895   -4.3597895   -3.4585963 -0.0009056098   -4.3597895    0.9011932   439061 
 3641000    0.5992755   -4.3574309   -4.3574309   -3.4585197 0.0046617232   -4.3574309   0.89891121   439061 
 3642000   0.60012144   -4.3577812   -4.3577812   -3.4576011 0.0053746729   -4.3577812   0.90018011   439061 
 3643000   0.60025341   -4.3583165   -4.3583165   -3.4579384 0.0059680864   -4.3583165   0.90037807   439061 
 3644000   0.59981825    -4.358008    -4.358008   -3.4582827 0.0071023207    -4.358008   0.89972533   439061 
 3645000   0.60019087   -4.3584342   -4.3584342   -3.4581499 0.0022154872   -4.3584342   0.90028425   439061 
 3646000   0.60110002   -4.3579193   -4.3579193   -3.4562714 0.0034967347   -4.3579193   0.90164798   439061 
 3647000   0.59887583   -4.3559485   -4.3559485   -3.4576369 0.0089434307   -4.3559485   0.89831169   439061 
 3648000    0.6004122   -4.3581671   -4.3581671   -3.4575509 0.0051889428   -4.3581671   0.90061625   439061 
 3649000   0.60030642   -4.3582738   -4.3582738   -3.4578162  0.003659644   -4.3582738   0.90045758   439061 
 3650000   0.60005689   -4.3578512   -4.3578512   -3.4577679 0.0036281889   -4.3578512   0.90008328   439061 
 3651000   0.60056209    -4.357793    -4.357793   -3.4569519 0.0030119888    -4.357793   0.90084109   439061 
 3652000   0.60011248   -4.3575076   -4.3575076   -3.4573409 0.0026372967   -4.3575076   0.90016667   439061 
 3653000    0.5998342   -4.3571889   -4.3571889   -3.4574397 0.0057660285   -4.3571889   0.89974925   439061 
 3654000   0.59989477   -4.3577596   -4.3577596   -3.4579195 0.0092010603   -4.3577596   0.89984011   439061 
 3655000   0.60155131   -4.3599242   -4.3599242   -3.4575993 0.0061510699   -4.3599242   0.90232491   439061 
 3656000   0.60046166   -4.3574876   -4.3574876   -3.4567971 0.0078677413   -4.3574876   0.90069044   439061 
 3657000   0.59952557   -4.3556888   -4.3556888   -3.4564025 0.0075437256   -4.3556888    0.8992863   439061 
 3658000   0.59966361   -4.3574508   -4.3574508   -3.4579574 0.0059908627   -4.3574508   0.89949337   439061 
 3659000   0.60006041    -4.358658    -4.358658   -3.4585695 0.0049294756    -4.358658   0.90008857   439061 
 3660000   0.60034134   -4.3579612   -4.3579612   -3.4574513 0.0028293148   -4.3579612   0.90050995   439061 
 3661000   0.59892895   -4.3561697   -4.3561697   -3.4577784 0.0043996913   -4.3561697   0.89839138   439061 
 3662000   0.59867651   -4.3565425   -4.3565425   -3.4585298 0.0062564181   -4.3565425   0.89801272   439061 
 3663000   0.59926785   -4.3571783   -4.3571783   -3.4582786  0.009237933   -4.3571783   0.89889972   439061 
 3664000   0.59936142   -4.3568864   -4.3568864   -3.4578463 0.0081848165   -4.3568864   0.89904008   439061 
 3665000   0.60091559   -4.3587032   -4.3587032   -3.4573318 0.0072097645   -4.3587032   0.90137133   439061 
 3666000   0.60046586   -4.3582568   -4.3582568   -3.4575601 0.0051534744   -4.3582568   0.90069674   439061 
 3667000   0.60045511   -4.3585772   -4.3585772   -3.4578966 0.0091718042   -4.3585772   0.90068061   439061 
 3668000    0.6013162   -4.3595091   -4.3595091   -3.4575368 0.0083667874   -4.3595091   0.90197225   439061 
 3669000   0.59989302   -4.3582006   -4.3582006   -3.4583632 0.0060531169   -4.3582006   0.89983748   439061 
 3670000     0.599554   -4.3581757   -4.3581757   -3.4588468 0.0072552085   -4.3581757   0.89932895   439061 
 3671000   0.59867523    -4.357821    -4.357821   -3.4598102 0.0036440558    -4.357821   0.89801079   439061 
 3672000   0.59814477     -4.35594     -4.35594   -3.4587249 0.0063993731     -4.35594   0.89721511   439061 
 3673000   0.59899686   -4.3575404   -4.3575404   -3.4590472 0.0048130999   -4.3575404   0.89849324   439061 
 3674000   0.60020968   -4.3592582   -4.3592582   -3.4589457 0.00092164933   -4.3592582   0.90031246   439061 
 3675000   0.59996495   -4.3583827   -4.3583827   -3.4584373 0.0018828248   -4.3583827   0.89994538   439061 
 3676000   0.59997791   -4.3593883   -4.3593883   -3.4594235 0.0039755966   -4.3593883   0.89996481   439061 
 3677000    0.5991215   -4.3587952   -4.3587952    -3.460115 0.0043616347   -4.3587952    0.8986802   439061 
 3678000   0.60052698   -4.3604642   -4.3604642   -3.4596758 0.0022875435   -4.3604642   0.90078842   439061 
 3679000    0.6000312   -4.3590246   -4.3590246   -3.4589799 0.0039742552   -4.3590246   0.90004476   439061 
 3680000   0.60036756   -4.3599562   -4.3599562   -3.4594069 0.0043867184   -4.3599562   0.90054929   439061 
 3681000   0.59999301   -4.3589817   -4.3589817   -3.4589942 0.0071526164   -4.3589817   0.89998747   439061 
 3682000   0.60027901   -4.3594968   -4.3594968   -3.4590803  0.006355211   -4.3594968   0.90041646   439061 
 3683000   0.59912897   -4.3585229   -4.3585229   -3.4598315 0.0061517691   -4.3585229   0.89869141   439061 
 3684000   0.59917425   -4.3595739   -4.3595739   -3.4608145 0.0039887314   -4.3595739   0.89875933   439061 
 3685000   0.59971989   -4.3595083   -4.3595083   -3.4599305 0.0024717284   -4.3595083   0.89957778   439061 
 3686000   0.60043337   -4.3594603   -4.3594603   -3.4588123  0.005081596   -4.3594603     0.900648   439061 
 3687000   0.59910178   -4.3577611   -4.3577611   -3.4591105 0.0071219962   -4.3577611   0.89865063   439061 
 3688000   0.59896858   -4.3587607   -4.3587607   -3.4603099 0.0020169152   -4.3587607   0.89845082   439061 
 3689000   0.59933371    -4.359855    -4.359855   -3.4608565 -0.00062560956    -4.359855   0.89899852   439061 
 3690000   0.59862071   -4.3595475   -4.3595475   -3.4616185 0.0025997645   -4.3595475   0.89792902   439061 
 3691000     0.599502    -4.360647    -4.360647    -3.461396 0.0048540872    -4.360647   0.89925096   439061 
 3692000    0.6004169   -4.3623156   -4.3623156   -3.4616923 0.0024917871   -4.3623156    0.9006233   439061 
 3693000   0.59991703   -4.3618858   -4.3618858   -3.4620123  0.004487858   -4.3618858    0.8998735   439061 
 3694000   0.59903893   -4.3607638   -4.3607638   -3.4622075 0.0059716706   -4.3607638   0.89855635   439061 
 3695000    0.6003558   -4.3630054   -4.3630054   -3.4624738 0.0050893545   -4.3630054   0.90053165   439061 
 3696000   0.60014666   -4.3618512   -4.3618512   -3.4616333  0.005496123   -4.3618512   0.90021794   439061 
 3697000   0.59970845   -4.3613519   -4.3613519   -3.4617913 0.0068288674   -4.3613519   0.89956063   439061 
 3698000   0.60000895   -4.3614557   -4.3614557   -3.4614443 0.0061793431   -4.3614557   0.90001137   439061 
 3699000   0.60034465    -4.361437    -4.361437   -3.4609221 0.0033312599    -4.361437   0.90051492   439061 
 3700000   0.59994426   -4.3597964   -4.3597964   -3.4598821 0.0085627448   -4.3597964   0.89991434   439061 
 3701000   0.60075323   -4.3609436   -4.3609436   -3.4598158  0.003752767   -4.3609436    0.9011278   439061 
 3702000   0.59931442   -4.3594659   -4.3594659   -3.4604963 0.0027800603   -4.3594659   0.89896958   439061 
 3703000    0.5981749   -4.3585912   -4.3585912   -3.4613309 -0.00058418535   -4.3585912   0.89726031   439061 
 3704000   0.59865067   -4.3594637   -4.3594637   -3.4614897 -0.003579332   -4.3594637   0.89797395   439061 
 3705000   0.59903225   -4.3595672   -4.3595672   -3.4610209 0.00010521302   -4.3595672   0.89854633   439061 
 3706000   0.59960147   -4.3603842   -4.3603842    -3.460984 -0.0024795956   -4.3603842   0.89940015   439061 
 3707000   0.59932093   -4.3608869   -4.3608869   -3.4619076 0.0020561788   -4.3608869   0.89897934   439061 
 3708000   0.60025142   -4.3612445   -4.3612445   -3.4608694 0.0025981175   -4.3612445   0.90037508   439061 
 3709000   0.60102716   -4.3612079   -4.3612079   -3.4596692 0.0089968844   -4.3612079   0.90153869   439061 
 3710000   0.60071013   -4.3610938   -4.3610938   -3.4600307  0.010412896   -4.3610938   0.90106315   439061 
 3711000   0.60088856   -4.3612414   -4.3612414   -3.4599106  0.013850707   -4.3612414   0.90133079   439061 
 3712000   0.60100876   -4.3613892   -4.3613892   -3.4598781  0.011751312   -4.3613892   0.90151108   439061 
 3713000   0.60011287   -4.3608622   -4.3608622   -3.4606949 0.0073173896   -4.3608622   0.90016726   439061 
 3714000   0.59846943   -4.3592515   -4.3592515   -3.4615494 0.0048111561   -4.3592515    0.8977021   439061 
 3715000   0.59910638   -4.3602721   -4.3602721   -3.4616146 0.0043435741   -4.3602721   0.89865753   439061 
 3716000   0.59909341   -4.3591038   -4.3591038   -3.4604658 0.0058783879   -4.3591038   0.89863807   439061 
 3717000   0.59895041   -4.3596433   -4.3596433   -3.4612197  0.001846059   -4.3596433   0.89842357   439061 
 3718000   0.59953526   -4.3601315   -4.3601315   -3.4608307  -0.00227146   -4.3601315   0.89930084   439061 
 3719000   0.59851719   -4.3583126   -4.3583126   -3.4605389 0.0031719072   -4.3583126   0.89777374   439061 
 3720000   0.59875594   -4.3583579   -4.3583579    -3.460226 -0.00013464904   -4.3583579   0.89813186   439061 
 3721000   0.60005698    -4.360106    -4.360106   -3.4600226   0.00625217    -4.360106   0.90008341   439061 
 3722000   0.59977066    -4.359456    -4.359456   -3.4598021  0.008220001    -4.359456   0.89965395   439061 
 3723000   0.59898893   -4.3589674   -4.3589674    -3.460486 0.0054733866   -4.3589674   0.89848135   439061 
 3724000   0.59869309   -4.3592337   -4.3592337   -3.4611961  0.007547508   -4.3592337   0.89803759   439061 
 3725000   0.59982181   -4.3601355   -4.3601355   -3.4604048 0.0057278581   -4.3601355   0.89973066   439061 
 3726000   0.60008564   -4.3608271   -4.3608271   -3.4607006 0.0070566945   -4.3608271   0.90012641   439061 
 3727000   0.59878692    -4.359615    -4.359615   -3.4614367 0.0060175573    -4.359615   0.89817834   439061 
 3728000   0.60005621   -4.3611136   -4.3611136   -3.4610314 0.0068257495   -4.3611136   0.90008226   439061 
 3729000   0.59891585   -4.3602437   -4.3602437    -3.461872 0.0047196459   -4.3602437   0.89837173   439061 
 3730000   0.59888969   -4.3605358   -4.3605358   -3.4622033 0.0064622044   -4.3605358   0.89833249   439061 
 3731000     0.599988   -4.3617811   -4.3617811   -3.4618011 0.0032204422   -4.3617811   0.89997995   439061 
 3732000   0.59967171   -4.3613344   -4.3613344   -3.4618289 0.0050527377   -4.3613344   0.89950551   439061 
 3733000   0.59929154   -4.3606553   -4.3606553     -3.46172 0.0018119034   -4.3606553   0.89893526   439061 
 3734000   0.59865961   -4.3603951   -4.3603951   -3.4624077 0.0045331914   -4.3603951   0.89798736   439061 
 3735000   0.59802506   -4.3592001   -4.3592001   -3.4621646 0.0031934727   -4.3592001   0.89703554   439061 
 3736000   0.60017014   -4.3608294   -4.3608294   -3.4605762 0.0023900677   -4.3608294   0.90025317   439061 
 3737000   0.59978303   -4.3601207   -4.3601207   -3.4604482 0.0090933572   -4.3601207    0.8996725   439061 
 3738000    0.6004874   -4.3607481   -4.3607481    -3.460019 0.0067843622   -4.3607481   0.90072905   439061 
 3739000   0.60020174   -4.3598192   -4.3598192   -3.4595187 0.0072351844   -4.3598192   0.90030056   439061 
 3740000   0.60043561    -4.360711    -4.360711   -3.4600596 0.00085742787    -4.360711   0.90065137   439061 
 3741000   0.59834779   -4.3583866   -4.3583866    -3.460867 0.0087344383   -4.3583866   0.89751964   439061 
 3742000   0.59956725   -4.3608517   -4.3608517   -3.4615029 0.00049880978   -4.3608517   0.89934882   439061 
 3743000   0.60013825   -4.3612706   -4.3612706   -3.4610652 -0.0011663506   -4.3612706   0.90020533   439061 
 3744000   0.59893646   -4.3586103   -4.3586103   -3.4602076 0.0011097601   -4.3586103   0.89840265   439061 
 3745000   0.59879681   -4.3595317   -4.3595317   -3.4613385 0.0011603945   -4.3595317   0.89819316   439061 
 3746000   0.59943873   -4.3604536   -4.3604536   -3.4612975 0.0027788127   -4.3604536   0.89915605   439061 
 3747000   0.60040592   -4.3624753   -4.3624753   -3.4618685 0.0034590541   -4.3624753   0.90060683   439061 
 3748000   0.59967552    -4.360108    -4.360108   -3.4605967 0.0038172977    -4.360108   0.89951123   439061 
 3749000   0.59933607   -4.3606773   -4.3606773   -3.4616752 0.0030451798   -4.3606773   0.89900206   439061 
 3750000   0.60018807   -4.3618314   -4.3618314   -3.4615514 0.0032234172   -4.3618314   0.90028006   439061 
 3751000    0.5999339   -4.3616035   -4.3616035   -3.4617047 0.0048551917   -4.3616035   0.89989881   439061 
 3752000   0.59988269   -4.3608371   -4.3608371   -3.4610151  0.012291663   -4.3608371   0.89982198   439061 
 3753000   0.60092321   -4.3624945   -4.3624945   -3.4611118 0.0076188002   -4.3624945   0.90138276   439061 
 3754000   0.60026687   -4.3602776   -4.3602776   -3.4598794 0.0084100122   -4.3602776   0.90039826   439061 
 3755000   0.59951547   -4.3601228   -4.3601228   -3.4608516 0.0034558447   -4.3601228   0.89927116   439061 
 3756000   0.59992127    -4.361266    -4.361266   -3.4613861 0.0039002162    -4.361266   0.89987985   439061 
 3757000    0.5999413   -4.3605303   -4.3605303   -3.4606204 -0.00077904174   -4.3605303    0.8999099   439061 
 3758000   0.59867892   -4.3582972   -4.3582972   -3.4602808 0.0052022318   -4.3582972   0.89801634   439061 
 3759000   0.59992005   -4.3598725   -4.3598725   -3.4599945 0.00017326874   -4.3598725   0.89987803   439061 
 3760000   0.59964278   -4.3594403   -4.3594403   -3.4599782 0.0017042996   -4.3594403   0.89946212   439061 
 3761000   0.59920301    -4.358224    -4.358224   -3.4594216 0.0041023647    -4.358224   0.89880247   439061 
 3762000   0.59966124    -4.359129    -4.359129   -3.4596391 -0.0007220619    -4.359129   0.89948981   439061 
 3763000   0.59993442   -4.3593224   -4.3593224   -3.4594228 0.0067789111   -4.3593224   0.89989958   439061 
 3764000   0.60049598   -4.3601773   -4.3601773   -3.4594354 0.0044895655   -4.3601773   0.90074192   439061 
 3765000   0.59964032   -4.3601685   -4.3601685   -3.4607101 0.00018420896   -4.3601685   0.89945843   439061 
 3766000   0.59949217   -4.3590534   -4.3590534   -3.4598172 0.0018400993   -4.3590534    0.8992362   439061 
 3767000   0.59932411   -4.3593917   -4.3593917   -3.4604076 0.0020710199   -4.3593917   0.89898412   439061 
 3768000   0.59916973   -4.3597291   -4.3597291   -3.4609766 0.0021172796   -4.3597291   0.89875255   439061 
 3769000   0.59958613   -4.3609987   -4.3609987   -3.4616215 0.0055749089   -4.3609987   0.89937715   439061 
 3770000   0.59932661   -4.3601748   -4.3601748   -3.4611869 0.0069025891   -4.3601748   0.89898786   439061 
 3771000    0.6008524   -4.3614541   -4.3614541   -3.4601776 0.0074167184   -4.3614541   0.90127655   439061 
 3772000   0.60067533   -4.3618119   -4.3618119    -3.460801 0.0096569651   -4.3618119   0.90101095   439061 
 3773000   0.60107528    -4.362927    -4.362927   -3.4613161 0.0073030938    -4.362927   0.90161086   439061 
 3774000   0.60123992   -4.3624921   -4.3624921   -3.4606343 0.0047569866   -4.3624921   0.90185782   439061 
 3775000   0.59940329   -4.3598855   -4.3598855   -3.4607826  0.010649124   -4.3598855   0.89910289   439061 
 3776000   0.59838978    -4.358825    -4.358825   -3.4612424 0.0052241006    -4.358825   0.89758263   439061 
 3777000    0.5986995   -4.3591506   -4.3591506   -3.4611034   0.00404072   -4.3591506    0.8980472   439061 
 3778000   0.59947605   -4.3613006   -4.3613006   -3.4620885 0.00024776774   -4.3613006   0.89921203   439061 
 3779000   0.59816464   -4.3594063   -4.3594063   -3.4621614 0.0022629624   -4.3594063   0.89724491   439061 
 3780000   0.59879813   -4.3589065   -4.3589065   -3.4607114 0.0020683028   -4.3589065   0.89819514   439061 
 3781000    0.5987277    -4.359896    -4.359896   -3.4618065 0.00045563896    -4.359896   0.89808951   439061 
 3782000   0.59924065   -4.3600133   -4.3600133   -3.4611544 0.0031216682   -4.3600133   0.89885893   439061 
 3783000   0.59989454   -4.3605544   -4.3605544   -3.4607146 0.0067976636   -4.3605544   0.89983975   439061 
 3784000   0.59970621   -4.3608244   -4.3608244   -3.4612671  0.009168542   -4.3608244   0.89955726   439061 
 3785000   0.60020849   -4.3614916   -4.3614916   -3.4611809  0.010776801   -4.3614916   0.90031069   439061 
 3786000   0.59924508   -4.3611449   -4.3611449   -3.4622793  0.012139541   -4.3611449   0.89886557   439061 
 3787000   0.59967266   -4.3621806   -4.3621806   -3.4626737 0.0041128576   -4.3621806   0.89950694   439061 
 3788000   0.59932483      -4.3609      -4.3609   -3.4619148  0.006636188      -4.3609   0.89898519   439061 
 3789000   0.60004199   -4.3609932   -4.3609932   -3.4609323 0.0055079244   -4.3609932   0.90006093   439061 
 3790000   0.60050074   -4.3612772   -4.3612772   -3.4605282 0.0055306691   -4.3612772   0.90074906   439061 
 3791000   0.59970528   -4.3599573   -4.3599573   -3.4604014 0.0080403565   -4.3599573   0.89955588   439061 
 3792000   0.59987125   -4.3591335   -4.3591335   -3.4593287 0.0044486793   -4.3591335   0.89980482   439061 
 3793000   0.60031385   -4.3606309   -4.3606309   -3.4601622 0.0034775066   -4.3606309   0.90046873   439061 
 3794000   0.59972161   -4.3597371   -4.3597371   -3.4601567 -0.0020335992   -4.3597371   0.89958037   439061 
 3795000   0.59942057   -4.3587063   -4.3587063   -3.4595775 0.00060068337   -4.3587063   0.89912881   439061 
 3796000     0.598722   -4.3579216   -4.3579216   -3.4598406 -0.00098421085   -4.3579216   0.89808095   439061 
 3797000   0.59890948   -4.3578904   -4.3578904   -3.4595282 0.0024229799   -4.3578904   0.89836217   439061 
 3798000   0.60054311    -4.359561    -4.359561   -3.4587484 0.0047382945    -4.359561   0.90081261   439061 
 3799000   0.59915708   -4.3579614   -4.3579614   -3.4592278 0.0070592388   -4.3579614   0.89873358   439061 
 3800000   0.60043412   -4.3596405   -4.3596405   -3.4589914 0.0055757363   -4.3596405   0.90064913   439061 
 3801000   0.59997881   -4.3589246   -4.3589246   -3.4589584 0.0078431084   -4.3589246   0.89996617   439061 
 3802000   0.60066664   -4.3606678   -4.3606678   -3.4596699  0.002706364   -4.3606678   0.90099791   439061 
 3803000   0.60048071   -4.3602958   -4.3602958   -3.4595768 0.0067374476   -4.3602958   0.90071902   439061 
 3804000   0.60022598    -4.359737    -4.359737   -3.4594001 0.0063084259    -4.359737   0.90033692   439061 
 3805000   0.59989336   -4.3593122   -4.3593122   -3.4594742 0.0051980596   -4.3593122   0.89983799   439061 
 3806000   0.59986277    -4.359567    -4.359567   -3.4597749 0.00018291834    -4.359567   0.89979211   439061 
 3807000   0.59925989   -4.3583941   -4.3583941   -3.4595063  0.001717636   -4.3583941   0.89888778   439061 
 3808000    0.5997436   -4.3585313   -4.3585313    -3.458918  0.004270611   -4.3585313   0.89961335   439061 
 3809000    0.6000707   -4.3591622   -4.3591622   -3.4590582 0.0033432087   -4.3591622     0.900104   439061 
 3810000   0.59931787   -4.3579054   -4.3579054   -3.4589306 0.0033501847   -4.3579054   0.89897476   439061 
 3811000   0.60002172   -4.3588212   -4.3588212   -3.4587907 0.0046070332   -4.3588212   0.90003053   439061 
 3812000    0.6008672   -4.3599409   -4.3599409   -3.4586422 0.0031140743   -4.3599409   0.90129874   439061 
 3813000   0.60040125   -4.3580574   -4.3580574   -3.4574576 0.0083783136   -4.3580574   0.90059982   439061 
 3814000   0.60166983   -4.3607574   -4.3607574   -3.4582547 0.0031307295   -4.3607574   0.90250269   439061 
 3815000   0.60106441   -4.3600076   -4.3600076    -3.458413 0.0025331956   -4.3600076   0.90159456   439061 
 3816000   0.59984883   -4.3587422   -4.3587422    -3.458971 0.0050191555   -4.3587422   0.89977119   439061 
 3817000   0.59908879   -4.3567812   -4.3567812     -3.45815 0.0063275444   -4.3567812   0.89863113   439061 
 3818000   0.59905209   -4.3576693   -4.3576693   -3.4590932 0.0036449936   -4.3576693   0.89857609   439061 
 3819000     0.600749    -4.359945    -4.359945   -3.4588236 0.00050699843    -4.359945   0.90112145   439061 
 3820000   0.59932628   -4.3593359   -4.3593359   -3.4603486 0.0030347253   -4.3593359   0.89898737   439061 
 3821000   0.59903091    -4.359246    -4.359246   -3.4607016 0.0017333806    -4.359246   0.89854431   439061 
 3822000   0.59948996   -4.3602413   -4.3602413   -3.4610084 -0.00045137983   -4.3602413   0.89923289   439061 
 3823000   0.60040643   -4.3617337   -4.3617337   -3.4611261 0.0046247666   -4.3617337   0.90060759   439061 
 3824000   0.60004806   -4.3607575   -4.3607575   -3.4606875  0.011232614   -4.3607575   0.90007004   439061 
 3825000   0.60033299   -4.3595012   -4.3595012   -3.4590038  0.010572197   -4.3595012   0.90049743   439061 
 3826000   0.60036295    -4.360951    -4.360951   -3.4604086 0.0077373428    -4.360951   0.90054237   439061 
 3827000   0.60040426   -4.3610776   -4.3610776   -3.4604732 0.0053325691   -4.3610776   0.90060434   439061 
 3828000   0.59997504   -4.3601256   -4.3601256   -3.4601651 0.0057700542   -4.3601256   0.89996051   439061 
 3829000   0.59881476   -4.3586158   -4.3586158   -3.4603957  0.007565895   -4.3586158    0.8982201   439061 
 3830000   0.59898045   -4.3585795   -4.3585795   -3.4601109 0.0028563253   -4.3585795   0.89846863   439061 
 3831000   0.59881833   -4.3584358   -4.3584358   -3.4602103 0.0057832158   -4.3584358   0.89822545   439061 
 3832000   0.59904465   -4.3580935   -4.3580935   -3.4595286 0.0047805813   -4.3580935   0.89856493   439061 
 3833000    0.5990179   -4.3578923   -4.3578923   -3.4593675 0.0060956943   -4.3578923    0.8985248   439061 
 3834000   0.59847453   -4.3572044   -4.3572044   -3.4594946 0.0030602081   -4.3572044   0.89770975   439061 
 3835000   0.59978948   -4.3588125   -4.3588125   -3.4591303 0.0012546884   -4.3588125   0.89968217   439061 
 3836000   0.60056937     -4.35943     -4.35943    -3.458578 0.0051408102     -4.35943   0.90085201   439061 
 3837000   0.59933701   -4.3579284   -4.3579284   -3.4589249 0.0069353606   -4.3579284   0.89900347   439061 
 3838000   0.59983851    -4.358126    -4.358126   -3.4583702 0.0093278231    -4.358126   0.89975572   439061 
 3839000   0.60039539   -4.3597879   -4.3597879   -3.4591968 0.0045545608   -4.3597879   0.90059104   439061 
 3840000   0.59876982   -4.3572425   -4.3572425   -3.4590898  0.011692644   -4.3572425   0.89815268   439061 
 3841000   0.59876469   -4.3568601   -4.3568601   -3.4587151  0.008142797   -4.3568601     0.898145   439061 
 3842000   0.59963113   -4.3595361   -4.3595361   -3.4600915 0.0025885704   -4.3595361   0.89944465   439061 
 3843000   0.60033284   -4.3602679   -4.3602679   -3.4597707 0.0050125194   -4.3602679   0.90049721   439061 
 3844000   0.60060319   -4.3611311   -4.3611311   -3.4602283 0.0040914112   -4.3611311   0.90090273   439061 
 3845000   0.59856778    -4.357814    -4.357814   -3.4599644  0.010327071    -4.357814   0.89784963   439061 
 3846000   0.60054371   -4.3607059   -4.3607059   -3.4598923 0.0048371989   -4.3607059   0.90081351   439061 
 3847000   0.59982372   -4.3598944   -4.3598944   -3.4601609 0.0062170863   -4.3598944   0.89973353   439061 
 3848000   0.59871647   -4.3573505   -4.3573505   -3.4592779 0.0065336841   -4.3573505   0.89807266   439061 
 3849000   0.60007042   -4.3595412   -4.3595412   -3.4594376 0.0015186091   -4.3595412   0.90010358   439061 
 3850000    0.6000334   -4.3591973   -4.3591973   -3.4591493 -0.0011765375   -4.3591973   0.90004805   439061 
 3851000    0.6000693   -4.3585013   -4.3585013   -3.4583994 0.0037531736   -4.3585013   0.90010189   439061 
 3852000   0.59973458   -4.3579968   -4.3579968    -3.458397 0.0044477002   -4.3579968   0.89959983   439061 
 3853000   0.59946548    -4.357777    -4.357777   -3.4585808 0.0028149748    -4.357777   0.89919617   439061 
 3854000   0.59906164   -4.3576571   -4.3576571   -3.4590667 0.0044333242   -4.3576571   0.89859042   439061 
 3855000   0.60117875   -4.3606041   -4.3606041    -3.458838 0.0022179052   -4.3606041   0.90176607   439061 
 3856000   0.60115993   -4.3598614   -4.3598614   -3.4581236 0.0055020971   -4.3598614   0.90173784   439061 
 3857000   0.60036424   -4.3591254   -4.3591254   -3.4585811 0.0083012677   -4.3591254    0.9005443   439061 
 3858000   0.60063822   -4.3592901   -4.3592901   -3.4583349 0.0063355101   -4.3592901   0.90095528   439061 
 3859000   0.59980655   -4.3578743   -4.3578743   -3.4581665 0.0071121946   -4.3578743   0.89970777   439061 
 3860000   0.60014653    -4.359518    -4.359518   -3.4593002 0.0037483369    -4.359518   0.90021774   439061 
 3861000   0.59942527   -4.3575997   -4.3575997   -3.4584638 0.0052361969   -4.3575997   0.89913586   439061 
 3862000   0.59951331   -4.3574889   -4.3574889    -3.458221 0.0039335976   -4.3574889   0.89926792   439061 
 3863000   0.59863026   -4.3574031   -4.3574031   -3.4594597 0.0051955264   -4.3574031   0.89794334   439061 
 3864000   0.59971536   -4.3591465   -4.3591465   -3.4595755 0.0022929584   -4.3591465   0.89957099   439061 
 3865000   0.59887583   -4.3574818   -4.3574818   -3.4591701 0.00092140872   -4.3574818    0.8983117   439061 
 3866000   0.59861955   -4.3565954   -4.3565954   -3.4586682 0.0033877384   -4.3565954   0.89792727   439061 
 3867000   0.59829706   -4.3566524   -4.3566524   -3.4592088 0.0068664952   -4.3566524   0.89744354   439061 
 3868000   0.59989787   -4.3588003   -4.3588003   -3.4589555 0.0078011411   -4.3588003   0.89984476   439061 
 3869000   0.60101377   -4.3585417   -4.3585417   -3.4570231 0.0074105145   -4.3585417    0.9015186   439061 
 3870000   0.60104591   -4.3588857   -4.3588857   -3.4573189 0.0072497727   -4.3588857   0.90156681   439061 
 3871000   0.60122214   -4.3582808   -4.3582808   -3.4564497 0.0068602716   -4.3582808   0.90183115   439061 
 3872000   0.60035266   -4.3578401   -4.3578401   -3.4573132 0.0078600266   -4.3578401   0.90052694   439061 
 3873000   0.59965258   -4.3566562   -4.3566562   -3.4571794 0.0067072153   -4.3566562   0.89947681   439061 
 3874000   0.59970141   -4.3583261   -4.3583261    -3.458776 0.0046165686   -4.3583261   0.89955007   439061 
 3875000   0.59926075   -4.3580244   -4.3580244   -3.4591353 0.0013703653   -4.3580244   0.89888907   439061 
 3876000   0.59967595   -4.3578396   -4.3578396   -3.4583277 0.0035224542   -4.3578396   0.89951188   439061 
 3877000   0.59961513   -4.3577444   -4.3577444   -3.4583237 0.0045618826   -4.3577444   0.89942065   439061 
 3878000   0.60048386   -4.3585912   -4.3585912   -3.4578674 0.0029095418   -4.3585912   0.90072375   439061 
 3879000   0.60038046   -4.3583354   -4.3583354   -3.4577668 0.0058928231   -4.3583354   0.90056864   439061 
 3880000   0.59986217   -4.3583213   -4.3583213   -3.4585301 0.0022287989   -4.3583213    0.8997912   439061 
 3881000   0.60107191   -4.3593298   -4.3593298    -3.457724 0.0051272315   -4.3593298   0.90160582   439061 
 3882000    0.6004582    -4.359849    -4.359849   -3.4591638 0.0059574312    -4.359849   0.90068525   439061 
 3883000   0.60067628   -4.3595341   -4.3595341   -3.4585217 0.0081239334   -4.3595341   0.90101236   439061 
 3884000   0.60021446   -4.3592085   -4.3592085   -3.4588889 0.0071953545   -4.3592085   0.90031964   439061 
 3885000   0.60018963   -4.3589857   -4.3589857   -3.4587033 0.0075881679   -4.3589857   0.90028239   439061 
 3886000   0.60012438   -4.3583311   -4.3583311   -3.4581466 0.0044870719   -4.3583311   0.90018452   439061 
 3887000   0.60079507   -4.3585554   -4.3585554   -3.4573649 0.0046843673   -4.3585554   0.90119055   439061 
 3888000   0.60071668   -4.3581174   -4.3581174   -3.4570445 0.0061189997   -4.3581174   0.90107297   439061 
 3889000   0.59968556    -4.356938    -4.356938   -3.4574117 0.0067162709    -4.356938   0.89952629   439061 
 3890000   0.59963376   -4.3572438   -4.3572438   -3.4577952 -0.0015104111   -4.3572438   0.89944858   439061 
 3891000    0.5993143   -4.3568055   -4.3568055   -3.4578361 -0.0028932976   -4.3568055    0.8989694   439061 
 3892000   0.60033028   -4.3572862   -4.3572862   -3.4567928 0.00049960894   -4.3572862   0.90049337   439061 
 3893000   0.60000555   -4.3574522   -4.3574522   -3.4574459 0.0028735648   -4.3574522   0.90000627   439061 
 3894000   0.59985335   -4.3572135   -4.3572135   -3.4574355 -0.00060039942   -4.3572135   0.89977797   439061 
 3895000   0.60045513   -4.3580815   -4.3580815   -3.4574008 0.0015295701   -4.3580815   0.90068065   439061 
 3896000   0.59977995   -4.3577838   -4.3577838   -3.4581159 0.0042619424   -4.3577838   0.89966788   439061 
 3897000   0.60082479   -4.3585381   -4.3585381    -3.457303  0.004208514   -4.3585381   0.90123513   439061 
 3898000   0.60058778   -4.3585237   -4.3585237   -3.4576441 0.0077088669   -4.3585237   0.90087962   439061 
 3899000   0.60115748   -4.3582194   -4.3582194   -3.4564853  0.010706059   -4.3582194   0.90173416   439061 
 3900000   0.60106532   -4.3592071   -4.3592071   -3.4576112 0.0040715146   -4.3592071   0.90159593   439061 
 3901000   0.60025982    -4.358623    -4.358623   -3.4582353 0.0044575805    -4.358623   0.90038767   439061 
 3902000   0.60078902   -4.3587028   -4.3587028   -3.4575213 0.0038226036   -4.3587028   0.90118148   439061 
 3903000   0.59993799   -4.3571445   -4.3571445   -3.4572396 0.0055310831   -4.3571445   0.89990494   439061 
 3904000   0.59968893   -4.3576994   -4.3576994    -3.458168 0.0035561536   -4.3576994   0.89953135   439061 
 3905000   0.59981409   -4.3574967   -4.3574967   -3.4577777 0.0032508993   -4.3574967   0.89971909   439061 
 3906000   0.60013834   -4.3586623   -4.3586623   -3.4584568 0.0027737945   -4.3586623   0.90020547   439061 
 3907000   0.59993726   -4.3586367   -4.3586367   -3.4587329 0.00070441967   -4.3586367   0.89990384   439061 
 3908000   0.59915092   -4.3584116   -4.3584116   -3.4596873   0.00306583   -4.3584116   0.89872434   439061 
 3909000   0.60042287   -4.3596041   -4.3596041   -3.4589719 0.0031611864   -4.3596041   0.90063226   439061 
 3910000   0.59979113   -4.3588191   -4.3588191   -3.4591344 0.0092110167   -4.3588191   0.89968465   439061 
 3911000   0.60059694   -4.3601023   -4.3601023   -3.4592089 0.0067449576   -4.3601023   0.90089336   439061 
 3912000   0.60039015   -4.3605794   -4.3605794   -3.4599962 0.0095024761   -4.3605794   0.90058317   439061 
 3913000   0.60004968   -4.3600295   -4.3600295    -3.459957 0.0081827895   -4.3600295   0.90007247   439061 
 3914000    0.5999866    -4.360283    -4.360283   -3.4603051 0.0055209848    -4.360283   0.89997785   439061 
 3915000   0.60074341   -4.3603422   -4.3603422   -3.4592291  0.004909415   -4.3603422   0.90111306   439061 
 3916000   0.60038766   -4.3601109   -4.3601109   -3.4595315 0.0070989176   -4.3601109   0.90057943   439061 
 3917000   0.60103378   -4.3604276   -4.3604276    -3.458879 0.0041982081   -4.3604276   0.90154861   439061 
 3918000    0.6004241   -4.3593774   -4.3593774   -3.4587433 0.0034516562   -4.3593774   0.90063409   439061 
 3919000   0.59985458   -4.3583259   -4.3583259   -3.4585461  0.003594472   -4.3583259   0.89977982   439061 
 3920000   0.59896499   -4.3573968   -4.3573968   -3.4589514 -0.00042717606   -4.3573968   0.89844544   439061 
 3921000   0.59897042   -4.3574648   -4.3574648   -3.4590112 0.0016561925   -4.3574648   0.89845358   439061 
 3922000   0.59965476   -4.3566459   -4.3566459   -3.4571658 0.0066544913   -4.3566459   0.89948009   439061 
 3923000   0.59978817   -4.3565351   -4.3565351   -3.4568549 0.0066620043   -4.3565351    0.8996802   439061 
 3924000   0.60036518    -4.357374    -4.357374   -3.4568283 0.0055812458    -4.357374   0.90054572   439061 
 3925000   0.59976108   -4.3562229   -4.3562229   -3.4565834 0.0062704908   -4.3562229   0.89963956   439061 
 3926000   0.60080319   -4.3581128   -4.3581128   -3.4569101 0.0047740289   -4.3581128   0.90120273   439061 
 3927000   0.59987847   -4.3578772   -4.3578772   -3.4580616 0.0047293781   -4.3578772   0.89981565   439061 
 3928000   0.60002478   -4.3581576   -4.3581576   -3.4581225 0.0043137696   -4.3581576   0.90003512   439061 
 3929000   0.59990973   -4.3582257   -4.3582257   -3.4583631 0.0031758239   -4.3582257   0.89986255   439061 
 3930000   0.60039679   -4.3592162   -4.3592162   -3.4586231 0.0033521476   -4.3592162   0.90059313   439061 
 3931000   0.59981907   -4.3585398   -4.3585398   -3.4588132 0.0055738643   -4.3585398   0.89972656   439061 
 3932000   0.59917446   -4.3582131   -4.3582131   -3.4594535 0.0016756512   -4.3582131   0.89875964   439061 
 3933000    0.6000755   -4.3584751   -4.3584751   -3.4583639 0.0020197876   -4.3584751   0.90011119   439061 
 3934000   0.60052783   -4.3588133   -4.3588133   -3.4580236 0.0043034333   -4.3588133    0.9007897   439061 
 3935000   0.60057886   -4.3581604   -4.3581604   -3.4572942 0.0053534928   -4.3581604   0.90086623   439061 
 3936000   0.60032194    -4.358647    -4.358647   -3.4581661 0.0044810774    -4.358647   0.90048086   439061 
 3937000   0.60020681   -4.3594113   -4.3594113   -3.4591031 0.0014582551   -4.3594113   0.90030817   439061 
 3938000   0.59848201   -4.3568352   -4.3568352   -3.4591142 0.0044653565   -4.3568352   0.89772097   439061 
 3939000    0.5985515   -4.3568652   -4.3568652     -3.45904 0.0045149547   -4.3568652    0.8978252   439061 
 3940000   0.59941357   -4.3576466   -4.3576466   -3.4585283 0.0044462817   -4.3576466    0.8991183   439061 
 3941000   0.59968501   -4.3587661   -4.3587661   -3.4592407 0.0028341197   -4.3587661   0.89952547   439061 
 3942000   0.60022192   -4.3589258   -4.3589258    -3.458595 0.0051848159   -4.3589258   0.90033084   439061 
 3943000   0.59918345   -4.3574064   -4.3574064   -3.4586333 0.0064755232   -4.3574064   0.89877312   439061 
 3944000   0.59895665   -4.3578431   -4.3578431   -3.4594102 0.0045215139   -4.3578431   0.89843292   439061 
 3945000   0.59844215   -4.3567378   -4.3567378   -3.4590767  0.010029863   -4.3567378   0.89766118   439061 
 3946000   0.59890383   -4.3572028   -4.3572028   -3.4588492 0.0011764873   -4.3572028   0.89835369   439061 
 3947000   0.59965445   -4.3582099   -4.3582099   -3.4587303  0.005089539   -4.3582099   0.89947962   439061 
 3948000   0.59993374   -4.3589672   -4.3589672   -3.4590686 0.0032982397   -4.3589672   0.89989856   439061 
 3949000    0.5998778   -4.3578546   -4.3578546   -3.4580399 0.0051779538   -4.3578546   0.89981465   439061 
 3950000   0.60026763    -4.359875    -4.359875   -3.4594756 0.0024510124    -4.359875    0.9003994   439061 
 3951000   0.59894872   -4.3582647   -4.3582647   -3.4598436 0.0047353904   -4.3582647   0.89842103   439061 
 3952000   0.59967658    -4.358398    -4.358398   -3.4588852  0.008361963    -4.358398   0.89951282   439061 
 3953000   0.59942677   -4.3579934   -4.3579934   -3.4588553 0.0083734871   -4.3579934   0.89913811   439061 
 3954000   0.60157333   -4.3598301   -4.3598301   -3.4574722 0.0091181171   -4.3598301   0.90235793   439061 
 3955000   0.60072273   -4.3591507   -4.3591507   -3.4580687  0.010211693   -4.3591507   0.90108204   439061 
 3956000   0.60030442   -4.3585534   -4.3585534   -3.4580988 0.0048618668   -4.3585534   0.90045457   439061 
 3957000   0.59865701   -4.3570237   -4.3570237   -3.4590402 0.0027755177   -4.3570237   0.89798348   439061 
 3958000   0.59906206   -4.3581905   -4.3581905   -3.4595995 0.0025131571   -4.3581905   0.89859104   439061 
 3959000   0.59961327   -4.3582213   -4.3582213   -3.4588035 -0.00039602173   -4.3582213   0.89941786   439061 
 3960000   0.59998765   -4.3579248   -4.3579248   -3.4579454  0.002205441   -4.3579248   0.89997943   439061 
 3961000   0.60049824   -4.3581717   -4.3581717   -3.4574263 0.0013905553   -4.3581717   0.90074531   439061 
 3962000   0.59887979   -4.3555311   -4.3555311   -3.4572135 0.0060639344   -4.3555311   0.89831764   439061 
 3963000   0.59883787   -4.3562855   -4.3562855   -3.4580308 0.0066221192   -4.3562855   0.89825476   439061 
 3964000   0.59917163    -4.356868    -4.356868   -3.4581126 0.0037979433    -4.356868    0.8987554   439061 
 3965000   0.59849667    -4.356219    -4.356219    -3.458476 0.0080808114    -4.356219   0.89774296   439061 
 3966000    0.6002308   -4.3584175   -4.3584175   -3.4580734 0.0039013413   -4.3584175   0.90034415   439061 
 3967000   0.59995978   -4.3580038   -4.3580038   -3.4580662 0.0055899043   -4.3580038   0.89993762   439061 
 3968000   0.60105412   -4.3596875   -4.3596875   -3.4581084 0.0055172094   -4.3596875   0.90157913   439061 
 3969000   0.59966849   -4.3582578   -4.3582578   -3.4587572 0.0060512202   -4.3582578   0.89950068   439061 
 3970000   0.59971193    -4.358452    -4.358452   -3.4588861 0.0062352242    -4.358452   0.89956584   439061 
 3971000    0.5993934   -4.3580373   -4.3580373   -3.4589492 0.0056693977   -4.3580373   0.89908805   439061 
 3972000   0.59933955    -4.358274    -4.358274   -3.4592667 0.0038741212    -4.358274   0.89900728   439061 
 3973000   0.59914434   -4.3589971   -4.3589971   -3.4602827 0.0036072592   -4.3589971   0.89871446   439061 
 3974000   0.59941109    -4.358798    -4.358798   -3.4596834 0.0062395984    -4.358798   0.89911459   439061 
 3975000   0.59913603     -4.35834     -4.35834    -3.459638 0.0076482984     -4.35834     0.898702   439061 
 3976000   0.59953538   -4.3587199   -4.3587199   -3.4594189 0.0047903541   -4.3587199   0.89930102   439061 
 3977000   0.59929434   -4.3585763   -4.3585763   -3.4596369 0.0077380209   -4.3585763   0.89893946   439061 
 3978000   0.59851781    -4.356867    -4.356867   -3.4590924 0.0076736523    -4.356867   0.89777467   439061 
 3979000   0.59972692   -4.3585921   -4.3585921   -3.4590038  0.003598046   -4.3585921   0.89958833   439061 
 3980000    0.6008206   -4.3595765   -4.3595765   -3.4583477 0.0053119436   -4.3595765   0.90122885   439061 
 3981000   0.60133609   -4.3602083   -4.3602083   -3.4582063 0.0059519952   -4.3602083   0.90200208   439061 
 3982000    0.6005815   -4.3585459   -4.3585459   -3.4576757 0.0056855175   -4.3585459   0.90087019   439061 
 3983000     0.601213   -4.3593901   -4.3593901   -3.4575727 0.0020563929   -4.3593901   0.90181745   439061 
 3984000   0.60041591   -4.3577609   -4.3577609   -3.4571391 0.00095952839   -4.3577609   0.90062182   439061 
 3985000   0.59985349   -4.3571674   -4.3571674   -3.4573892 0.0015781848   -4.3571674   0.89977818   439061 
 3986000   0.59941591   -4.3563699   -4.3563699   -3.4572481 0.0071560599   -4.3563699   0.89912181   439061 
 3987000   0.60037201   -4.3580538   -4.3580538   -3.4574979 0.00044759079   -4.3580538   0.90055596   439061 
 3988000   0.60003159   -4.3569014   -4.3569014    -3.456856 0.0030512901   -4.3569014   0.90004534   439061 
 3989000   0.60030777   -4.3565706   -4.3565706    -3.456111 0.0022221139   -4.3565706   0.90045961   439061 
 3990000   0.59982011   -4.3564912   -4.3564912   -3.4567631 0.0066592109   -4.3564912   0.89972811   439061 
 3991000   0.60013715   -4.3576071   -4.3576071   -3.4574035 0.0077244579   -4.3576071   0.90020368   439061 
 3992000   0.60010216   -4.3573242   -4.3573242    -3.457173 0.0082581749   -4.3573242   0.90015118   439061 
 3993000    0.6007564   -4.3577092   -4.3577092   -3.4565766 0.0068758614   -4.3577092   0.90113255   439061 
 3994000   0.60170284   -4.3596974   -4.3596974   -3.4571452 0.0045254931   -4.3596974    0.9025522   439061 
 3995000   0.60039855   -4.3577518   -4.3577518    -3.457156 0.0093685925   -4.3577518   0.90059578   439061 
 3996000   0.60004069   -4.3576444   -4.3576444   -3.4575854  0.011964105   -4.3576444   0.90005898   439061 
 3997000   0.60075623   -4.3583284   -4.3583284   -3.4571961 0.0018337908   -4.3583284    0.9011323   439061 
 3998000   0.60004261   -4.3575729   -4.3575729   -3.4575111 0.0052152122   -4.3575729   0.90006187   439061 
 3999000   0.60031743   -4.3577003   -4.3577003   -3.4572262  0.004003836   -4.3577003    0.9004741   439061 
 4000000   0.60039887    -4.357776    -4.357776   -3.4571797 -0.00074453993    -4.357776   0.90059625   439061 
 4001000   0.60037926   -4.3570517   -4.3570517   -3.4564849 0.00059713608   -4.3570517   0.90056684   439061 
 4002000   0.60114415   -4.3577538   -4.3577538   -3.4560397 -0.0017066151   -4.3577538   0.90171417   439061 
 4003000   0.60008037    -4.356157    -4.356157   -3.4560385 0.0011337826    -4.356157    0.9001185   439061 
 4004000   0.60007609   -4.3564329   -4.3564329   -3.4563209 -0.0015042872   -4.3564329   0.90011209   439061 
 4005000   0.60027283    -4.356438    -4.356438   -3.4560308 0.0038229629    -4.356438   0.90040719   439061 
 4006000   0.59932669    -4.354935    -4.354935    -3.455947 0.0084270005    -4.354935   0.89898798   439061 
 4007000   0.60078026    -4.357662    -4.357662   -3.4564936 0.0088138406    -4.357662   0.90116833   439061 
 4008000   0.60164746   -4.3591009   -4.3591009   -3.4566317 0.0065988209   -4.3591009   0.90246913   439061 
 4009000   0.60037369   -4.3573216   -4.3573216   -3.4567631 0.0064077774   -4.3573216   0.90055849   439061 
 4010000    0.6003737   -4.3579451   -4.3579451   -3.4573866 0.0055756153   -4.3579451    0.9005585   439061 
 4011000   0.60032677   -4.3577607   -4.3577607   -3.4572726 0.0062430311   -4.3577607   0.90048811   439061 
 4012000   0.60007683   -4.3568725   -4.3568725   -3.4567593 0.0058058444   -4.3568725    0.9001132   439061 
 4013000   0.60084223   -4.3581369   -4.3581369   -3.4568756 0.0040911831   -4.3581369   0.90126129   439061 
 4014000   0.60034303   -4.3570113   -4.3570113   -3.4564988 0.0023548543   -4.3570113    0.9005125   439061 
 4015000   0.59979818    -4.356203    -4.356203   -3.4565078  0.004395133    -4.356203   0.89969521   439061 
 4016000   0.59971502   -4.3572015   -4.3572015    -3.457631 -0.0028147993   -4.3572015   0.89957048   439061 
 4017000   0.59949969   -4.3567484   -4.3567484   -3.4575009 0.0025424505   -4.3567484   0.89924748   439061 
 4018000   0.59899883    -4.355846    -4.355846   -3.4573498 0.00034173082    -4.355846   0.89849619   439061 
 4019000   0.59891901   -4.3564083   -4.3564083   -3.4580318   0.00130765   -4.3564083   0.89837647   439061 
 4020000   0.59955983   -4.3578244   -4.3578244   -3.4584867 0.0039725563   -4.3578244   0.89933769   439061 
 4021000   0.60015024   -4.3586184   -4.3586184   -3.4583951 0.0063450553   -4.3586184   0.90022331   439061 
 4022000   0.60094426   -4.3586005   -4.3586005   -3.4571862 0.0049507178   -4.3586005   0.90141433   439061 
 4023000   0.60093308   -4.3586883   -4.3586883   -3.4572908   0.00859728   -4.3586883   0.90139757   439061 
 4024000   0.60073163   -4.3592891   -4.3592891   -3.4581937  0.012764779   -4.3592891   0.90109539   439061 
 4025000   0.60046826   -4.3594323   -4.3594323    -3.458732 0.0076667403   -4.3594323   0.90070034   439061 
 4026000   0.60003655   -4.3581598   -4.3581598    -3.458107  0.010803126   -4.3581598   0.90005278   439061 
 4027000   0.60019882   -4.3584816   -4.3584816   -3.4581855 0.0037806204   -4.3584816   0.90029618   439061 
 4028000   0.59894968    -4.357127    -4.357127   -3.4587045 0.0033923692    -4.357127   0.89842247   439061 
 4029000   0.60022501   -4.3587618   -4.3587618   -3.4584263 -0.0004517825   -4.3587618   0.90033547   439061 
 4030000   0.59916713   -4.3582283   -4.3582283   -3.4594796 0.0031730776   -4.3582283   0.89874865   439061 
 4031000    0.5985231   -4.3573499   -4.3573499   -3.4595673 0.00083175822   -4.3573499    0.8977826   439061 
 4032000    0.5990963   -4.3581265   -4.3581265   -3.4594841 0.0014186223   -4.3581265    0.8986424   439061 
 4033000   0.59977484   -4.3581991   -4.3581991   -3.4585389 0.0026538668   -4.3581991   0.89966021   439061 
 4034000   0.60019782   -4.3591859   -4.3591859   -3.4588912 0.0053819001   -4.3591859   0.90029468   439061 
 4035000   0.59992428   -4.3596546   -4.3596546   -3.4597702 0.0018756304   -4.3596546   0.89988436   439061 
 4036000   0.59922174   -4.3578997   -4.3578997   -3.4590692 0.0067787364   -4.3578997   0.89883056   439061 
 4037000   0.59942833   -4.3586354   -4.3586354    -3.459495 0.0037463633   -4.3586354   0.89914044   439061 
 4038000   0.60007041   -4.3600667   -4.3600667   -3.4599632 0.0027934177   -4.3600667   0.90010356   439061 
 4039000   0.60136541   -4.3613699   -4.3613699   -3.4593239 0.0078312851   -4.3613699   0.90204606   439061 
 4040000   0.60016098   -4.3585611   -4.3585611   -3.4583217 0.0081570771   -4.3585611   0.90023942   439061 
 4041000   0.60008574   -4.3576892   -4.3576892   -3.4575627  0.010596236   -4.3576892   0.90012656   439061 
 4042000   0.60069405   -4.3589613   -4.3589613   -3.4579223 0.0059641214   -4.3589613   0.90103902   439061 
 4043000   0.60019727   -4.3583128   -4.3583128   -3.4580189 0.00098967881   -4.3583128   0.90029386   439061 
 4044000   0.59925398   -4.3566702   -4.3566702   -3.4577912 0.0057379705   -4.3566702   0.89887892   439061 
 4045000   0.60011104    -4.358281    -4.358281   -3.4581165 8.6854685e-06    -4.358281   0.90016451   439061 
 4046000   0.59814707   -4.3572507   -4.3572507   -3.4600321 -0.0024391928   -4.3572507   0.89721857   439061 
 4047000   0.59816117   -4.3574302   -4.3574302   -3.4601905 -0.001878787   -4.3574302   0.89723971   439061 
 4048000   0.59870286   -4.3581166   -4.3581166   -3.4600643 -0.0021410584   -4.3581166   0.89805225   439061 
 4049000   0.59959596   -4.3586892   -4.3586892   -3.4592973 0.0034919111   -4.3586892   0.89939189   439061 
 4050000   0.60048498   -4.3594444   -4.3594444   -3.4587189 0.0061822896   -4.3594444   0.90072542   439061 
 4051000    0.6004783   -4.3596131   -4.3596131   -3.4588977 0.0082947202   -4.3596131    0.9007154   439061 
 4052000   0.59982801    -4.359797    -4.359797    -3.460057 0.0098368473    -4.359797   0.89973997   439061 
 4053000   0.60066025   -4.3610883   -4.3610883      -3.4601 0.0071989963   -4.3610883   0.90098832   439061 
 4054000   0.60001783   -4.3609428   -4.3609428   -3.4609181  0.010310643   -4.3609428    0.9000247   439061 
 4055000   0.59861402   -4.3592234   -4.3592234   -3.4613044 0.0075182556   -4.3592234   0.89791899   439061 
 4056000   0.59927409   -4.3602963   -4.3602963   -3.4613873 0.0044087933   -4.3602963   0.89890908   439061 
 4057000   0.59913453   -4.3596133   -4.3596133   -3.4609135 0.0052654729   -4.3596133   0.89869974   439061 
 4058000   0.59924927   -4.3604037   -4.3604037   -3.4615318 0.0013072984   -4.3604037   0.89887186   439061 
 4059000   0.59937667   -4.3591123   -4.3591123   -3.4600494 0.0048800899   -4.3591123   0.89906296   439061 
 4060000   0.59899725   -4.3585194   -4.3585194   -3.4600256 0.0062868188   -4.3585194   0.89849383   439061 
 4061000   0.60061868    -4.361031    -4.361031   -3.4601051 0.00049123148    -4.361031   0.90092596   439061 
 4062000   0.60042991   -4.3602523   -4.3602523   -3.4596095 0.0033433242   -4.3602523   0.90064282   439061 
 4063000    0.6000356   -4.3593825   -4.3593825   -3.4593311 0.00093457755   -4.3593825   0.90005134   439061 
 4064000   0.59955438   -4.3585377   -4.3585377   -3.4592082 0.0077647719   -4.3585377   0.89932953   439061 
 4065000   0.59965411   -4.3592646   -4.3592646   -3.4597855 0.0045366594   -4.3592646   0.89947911   439061 
 4066000   0.60009632   -4.3596196   -4.3596196   -3.4594772 0.0055970952   -4.3596196   0.90014242   439061 
 4067000   0.60162038   -4.3615741   -4.3615741   -3.4591456 0.0029095586   -4.3615741   0.90242852   439061 
 4068000   0.60038249   -4.3595472   -4.3595472   -3.4589755 0.0059478223   -4.3595472   0.90057169   439061 
 4069000   0.60007818   -4.3587632   -4.3587632    -3.458648 0.0046403921   -4.3587632   0.90011521   439061 
 4070000   0.59858133    -4.358657    -4.358657   -3.4607871 0.0053063773    -4.358657   0.89786996   439061 
 4071000   0.59956864   -4.3598876   -4.3598876   -3.4605367 0.0058445073   -4.3598876    0.8993509   439061 
 4072000   0.59983474   -4.3595843   -4.3595843   -3.4598343 0.0050934746   -4.3595843   0.89975006   439061 
 4073000   0.60076985   -4.3596654   -4.3596654   -3.4585127 0.0059840846   -4.3596654   0.90115272   439061 
 4074000    0.6000758   -4.3595675   -4.3595675   -3.4594558 0.0038382023   -4.3595675   0.90011165   439061 
 4075000   0.59933235   -4.3573938   -4.3573938   -3.4583973 0.0088958816   -4.3573938   0.89899647   439061 
 4076000   0.60113828   -4.3603612   -4.3603612   -3.4586558  0.004922138   -4.3603612   0.90170537   439061 
 4077000   0.60064805   -4.3602219   -4.3602219   -3.4592519  0.002846085   -4.3602219   0.90097003   439061 
 4078000    0.6001424   -4.3595237   -4.3595237   -3.4593121 0.0018685928   -4.3595237   0.90021155   439061 
 4079000   0.59964278   -4.3591779   -4.3591779   -3.4597158 0.00081110072   -4.3591779   0.89946212   439061 
 4080000   0.59871748   -4.3583183   -4.3583183   -3.4602441 0.0008626874   -4.3583183   0.89807417   439061 
 4081000   0.59906798   -4.3586675   -4.3586675   -3.4600675 0.0076420519   -4.3586675   0.89859992   439061 
 4082000   0.60044644   -4.3604391   -4.3604391   -3.4597715 0.0042226174   -4.3604391   0.90066761   439061 
 4083000   0.59970504   -4.3591381   -4.3591381   -3.4595826 0.0058895399   -4.3591381   0.89955551   439061 
 4084000   0.59960223   -4.3598622   -4.3598622   -3.4604609  0.006717334   -4.3598622    0.8994013   439061 
 4085000   0.59935753   -4.3600731   -4.3600731   -3.4610389 0.0023453183   -4.3600731   0.89903425   439061 
 4086000   0.59990117   -4.3600324   -4.3600324   -3.4601827 0.0083709574   -4.3600324   0.89984971   439061 
 4087000   0.60044734   -4.3614819   -4.3614819   -3.4608129 0.0069690332   -4.3614819   0.90066895   439061 
 4088000   0.60069495   -4.3621841   -4.3621841   -3.4611437 0.0034490813   -4.3621841   0.90104038   439061 
 4089000   0.59922191   -4.3604176   -4.3604176   -3.4615868 0.0024885538   -4.3604176   0.89883082   439061 
 4090000   0.59910681   -4.3595159   -4.3595159   -3.4608577 0.0025773718   -4.3595159   0.89865817   439061 
 4091000   0.59972034   -4.3610481   -4.3610481   -3.4614697 0.0035860186   -4.3610481   0.89957846   439061 
 4092000   0.59946457    -4.360247    -4.360247   -3.4610522 0.0067631328    -4.360247   0.89919481   439061 
 4093000   0.59903227   -4.3597018   -4.3597018   -3.4611554 0.0043871969   -4.3597018   0.89854636   439061 
 4094000   0.59959332   -4.3603432   -4.3603432   -3.4609553 0.0042125454   -4.3603432   0.89938793   439061 
 4095000   0.59856723   -4.3587905   -4.3587905   -3.4609417 0.0065610557   -4.3587905    0.8978488   439061 
 4096000   0.59859529   -4.3593783   -4.3593783   -3.4614874 0.0061072174   -4.3593783   0.89789089   439061 
 4097000   0.59917083   -4.3597795   -4.3597795   -3.4610253 0.0058897927   -4.3597795    0.8987542   439061 
 4098000   0.59940899   -4.3595324   -4.3595324    -3.460421 0.0074739396   -4.3595324   0.89911143   439061 
 4099000   0.60013653   -4.3593948   -4.3593948    -3.459192 0.0070827691   -4.3593948   0.90020274   439061 
 4100000   0.60007816   -4.3594313   -4.3594313   -3.4593161 0.0083172384   -4.3594313   0.90011519   439061 
 4101000   0.59955735   -4.3585092   -4.3585092   -3.4591752 0.0097516016   -4.3585092   0.89933398   439061 
 4102000   0.60056632   -4.3588992   -4.3588992   -3.4580517 0.0044193365   -4.3588992   0.90084743   439061 
 4103000   0.60004117   -4.3588763   -4.3588763   -3.4588166 0.0060886462   -4.3588763    0.9000597   439061 
 4104000   0.60055893   -4.3594428   -4.3594428   -3.4586064  0.002979869   -4.3594428   0.90083634   439061 
 4105000   0.59999971   -4.3587606   -4.3587606   -3.4587631 0.0064784183   -4.3587606   0.89999751   439061 
 4106000      0.60044   -4.3593069   -4.3593069    -3.458649 0.0014343006   -4.3593069   0.90065795   439061 
 4107000   0.60009979   -4.3580308   -4.3580308   -3.4578832 6.1936552e-05   -4.3580308   0.90014764   439061 
 4108000   0.59876319   -4.3574759   -4.3574759   -3.4593331 0.0011160036   -4.3574759   0.89814274   439061 
 4109000   0.59890426   -4.3576991   -4.3576991   -3.4593448 0.0047098398   -4.3576991   0.89835435   439061 
 4110000   0.59966087    -4.358478    -4.358478   -3.4589887 0.0038857763    -4.358478   0.89948926   439061 
 4111000   0.59994373   -4.3589597   -4.3589597   -3.4590462 0.0022361822   -4.3589597   0.89991354   439061 
 4112000   0.60062749   -4.3592729   -4.3592729   -3.4583337 0.0059262642   -4.3592729   0.90093919   439061 
 4113000   0.60016278   -4.3590565   -4.3590565   -3.4588144   0.00828508   -4.3590565   0.90024213   439061 
 4114000   0.60026031   -4.3591131   -4.3591131   -3.4587247 0.0081502798   -4.3591131   0.90038842   439061 
 4115000   0.60041857   -4.3589407   -4.3589407   -3.4583149 0.0063531318   -4.3589407   0.90062581   439061 
 4116000   0.59977437   -4.3584499   -4.3584499   -3.4587904 0.0064969853   -4.3584499    0.8996595   439061 
 4117000   0.60021654   -4.3607274   -4.3607274   -3.4604047 0.0035639552   -4.3607274   0.90032276   439061 
 4118000   0.59775215   -4.3568639   -4.3568639   -3.4602377 0.0080600956   -4.3568639   0.89662618   439061 
 4119000   0.59965281   -4.3597068   -4.3597068   -3.4602296 0.00049502139   -4.3597068   0.89947716   439061 
 4120000   0.59924553    -4.359656    -4.359656   -3.4607898  0.004859939    -4.359656   0.89886625   439061 
 4121000   0.59940895    -4.359236    -4.359236   -3.4601246 -0.00072345982    -4.359236   0.89911138   439061 
 4122000   0.59899525   -4.3591091   -4.3591091   -3.4606183 0.0022363377   -4.3591091   0.89849083   439061 
 4123000   0.59962097    -4.360443    -4.360443   -3.4610136 0.0014077282    -4.360443   0.89942941   439061 
 4124000   0.60018444    -4.359999    -4.359999   -3.4597244 0.0058495989    -4.359999   0.90027461   439061 
 4125000   0.59944456   -4.3593107   -4.3593107   -3.4601459 0.0057342869   -4.3593107    0.8991648   439061 
 4126000   0.60006367   -4.3604799   -4.3604799   -3.4603864 0.0044976469   -4.3604799   0.90009346   439061 
 4127000   0.59969513   -4.3600516   -4.3600516    -3.460511 0.0091053091   -4.3600516   0.89954065   439061 
 4128000   0.60005532   -4.3602611   -4.3602611   -3.4601802 0.0086269718   -4.3602611   0.90008092   439061 
 4129000   0.60014644   -4.3605202   -4.3605202   -3.4603026 0.0063273375   -4.3605202   0.90021761   439061 
 4130000   0.60067719   -4.3607514   -4.3607514   -3.4597376  0.008208971   -4.3607514   0.90101373   439061 
 4131000   0.60001883   -4.3602338   -4.3602338   -3.4602076 0.0089917092   -4.3602338    0.9000262   439061 
 4132000    0.5987868    -4.359744    -4.359744   -3.4615658  0.002875898    -4.359744   0.89817815   439061 
 4133000   0.60011304   -4.3611659   -4.3611659   -3.4609984 0.00091951648   -4.3611659   0.90016751   439061 
 4134000   0.59996185   -4.3596338   -4.3596338   -3.4596931 0.0053485831   -4.3596338   0.89994072   439061 
 4135000   0.59970637   -4.3590906   -4.3590906   -3.4595331 0.0086004591   -4.3590906   0.89955751   439061 
 4136000   0.60067213   -4.3601853   -4.3601853   -3.4591791 0.0079677614   -4.3601853   0.90100614   439061 
 4137000    0.5999883   -4.3586156   -4.3586156   -3.4586352 0.0079728136   -4.3586156   0.89998039   439061 
 4138000   0.59863346   -4.3573941   -4.3573941    -3.459446  0.007182644   -4.3573941   0.89794815   439061 
 4139000   0.59922604   -4.3590128   -4.3590128   -3.4601758 0.00090462964   -4.3590128   0.89883702   439061 
 4140000   0.59981089    -4.359269    -4.359269   -3.4595547 0.00044413837    -4.359269   0.89971429   439061 
 4141000   0.60019701   -4.3597319   -4.3597319   -3.4594385 0.00095999681   -4.3597319   0.90029346   439061 
 4142000   0.59934626   -4.3572144   -4.3572144    -3.458197 0.0048168311   -4.3572144   0.89901734   439061 
 4143000   0.59920469   -4.3580864   -4.3580864   -3.4592814 0.0045466203   -4.3580864   0.89880499   439061 
 4144000   0.60038217   -4.3595362   -4.3595362    -3.458965 0.0019916568   -4.3595362   0.90057121   439061 
 4145000   0.59958009   -4.3585024   -4.3585024   -3.4591343   0.00463508   -4.3585024   0.89936809   439061 
 4146000   0.60026201   -4.3597181   -4.3597181   -3.4593271 0.0033939186   -4.3597181   0.90039096   439061 
 4147000   0.60030382   -4.3595897   -4.3595897    -3.459136  0.010817778   -4.3595897   0.90045368   439061 
 4148000   0.59992263   -4.3592907   -4.3592907   -3.4594089  0.006168041   -4.3592907   0.89988189   439061 
 4149000   0.59933484   -4.3583995   -4.3583995   -3.4593993 0.0095848258   -4.3583995   0.89900021   439061 
 4150000   0.60014386   -4.3602712   -4.3602712   -3.4600575 0.0023341737   -4.3602712   0.90021375   439061 
 4151000   0.59868975   -4.3583851   -4.3583851   -3.4603525 0.0078842546   -4.3583851   0.89803258   439061 
 4152000   0.59894001   -4.3584025   -4.3584025   -3.4599945 0.0066685028   -4.3584025   0.89840797   439061 
 4153000   0.59915046   -4.3583431   -4.3583431   -3.4596194 0.0071192869   -4.3583431   0.89872364   439061 
 4154000   0.60066616   -4.3597166   -4.3597166   -3.4587194  0.006802976   -4.3597166   0.90099719   439061 
 4155000   0.59887376   -4.3579714   -4.3579714   -3.4596628 0.0035687106   -4.3579714   0.89830859   439061 
 4156000    0.5996993   -4.3591068   -4.3591068   -3.4595599 -3.7099578e-06   -4.3591068   0.89954691   439061 
 4157000   0.59956257   -4.3585531   -4.3585531   -3.4592113 0.0027528316   -4.3585531   0.89934181   439061 
 4158000   0.59923867   -4.3581723   -4.3581723   -3.4593163 0.0064397197   -4.3581723   0.89885596   439061 
 4159000   0.60138018   -4.3608042   -4.3608042    -3.458736 0.0028829452   -4.3608042   0.90206822   439061 
 4160000    0.6005558    -4.359194    -4.359194   -3.4583623 0.0071437974    -4.359194   0.90083165   439061 
 4161000   0.60035425   -4.3591047   -4.3591047   -3.4585754 0.0076619805   -4.3591047   0.90052932   439061 
 4162000   0.60054845   -4.3596087   -4.3596087   -3.4587881 0.0072531876   -4.3596087   0.90082063   439061 
 4163000   0.60050955   -4.3592765   -4.3592765   -3.4585143 0.0051051851   -4.3592765   0.90076227   439061 
 4164000   0.59978173   -4.3591782   -4.3591782   -3.4595077 0.0075810837   -4.3591782   0.89967055   439061 
 4165000   0.59982589     -4.35916     -4.35916   -3.4594233 0.0056729421     -4.35916   0.89973678   439061 
 4166000   0.59880811   -4.3580609   -4.3580609   -3.4598508 0.0023215592   -4.3580609   0.89821012   439061 
 4167000   0.59952168   -4.3594332   -4.3594332   -3.4601528 0.00020947501   -4.3594332   0.89928046   439061 
 4168000   0.59875378   -4.3573748   -4.3573748   -3.4592462 0.0047008767   -4.3573748   0.89812863   439061 
 4169000   0.59941368   -4.3576225   -4.3576225   -3.4585041 0.0037699876   -4.3576225   0.89911847   439061 
 4170000   0.59933198   -4.3580945   -4.3580945   -3.4590986 0.0071269131   -4.3580945   0.89899592   439061 
 4171000   0.59995125   -4.3578917   -4.3578917   -3.4579669  0.003037258   -4.3578917   0.89992482   439061 
 4172000   0.59967327   -4.3581966   -4.3581966   -3.4586888 0.0025170497   -4.3581966   0.89950785   439061 
 4173000   0.59979964   -4.3594901   -4.3594901   -3.4597927  0.004998861   -4.3594901    0.8996974   439061 
 4174000   0.60004509   -4.3603363   -4.3603363   -3.4602707 0.0014100999   -4.3603363   0.90006558   439061 
 4175000   0.59982462   -4.3602896   -4.3602896   -3.4605548 0.0025626952   -4.3602896   0.89973488   439061 
 4176000   0.59942939   -4.3582969   -4.3582969   -3.4591549 0.0069991943   -4.3582969   0.89914204   439061 
 4177000   0.59967746   -4.3593539   -4.3593539   -3.4598398 0.0076717252   -4.3593539   0.89951414   439061 
 4178000   0.60009326    -4.359899    -4.359899   -3.4597612 0.0077032864    -4.359899   0.90013784   439061 
 4179000   0.60121543   -4.3606824   -4.3606824   -3.4588613  0.010352559   -4.3606824   0.90182109   439061 
 4180000   0.60038063   -4.3603585   -4.3603585   -3.4597896 0.0046279831   -4.3603585   0.90056889   439061 
 4181000   0.59988903   -4.3607794   -4.3607794   -3.4609479 0.0042447122   -4.3607794   0.89983149   439061 
 4182000   0.59987192     -4.36055     -4.36055   -3.4607442 0.0014170405     -4.36055   0.89980583   439061 
 4183000   0.59914613   -4.3589856   -4.3589856   -3.4602685 0.0058522719   -4.3589856   0.89871714   439061 
 4184000   0.59930899   -4.3599437   -4.3599437   -3.4609823 0.0021606497   -4.3599437   0.89896143   439061 
 4185000   0.59979897   -4.3603748   -4.3603748   -3.4606784 0.0039484817   -4.3603748    0.8996964   439061 
 4186000   0.59914699   -4.3591478   -4.3591478   -3.4604294 0.0020512978   -4.3591478   0.89871844   439061 
 4187000   0.59991545   -4.3600492   -4.3600492   -3.4601781 0.0019105313   -4.3600492   0.89987113   439061 
 4188000   0.60044839    -4.359703    -4.359703   -3.4590325   0.00696862    -4.359703   0.90067053   439061 
 4189000   0.60136624   -4.3613133   -4.3613133    -3.459266 0.0058494946   -4.3613133   0.90204731   439061 
 4190000    0.6011932   -4.3602144   -4.3602144   -3.4584267 0.0067301565   -4.3602144   0.90178774   439061 
 4191000   0.60056602   -4.3598748   -4.3598748   -3.4590279 0.0081184763   -4.3598748   0.90084698   439061 
 4192000   0.59950432   -4.3582212   -4.3582212   -3.4589667 0.0060736689   -4.3582212   0.89925443   439061 
 4193000   0.60011618   -4.3589807   -4.3589807   -3.4588085 0.0043326095   -4.3589807   0.90017221   439061 
 4194000   0.59965479   -4.3590008   -4.3590008   -3.4595206 0.0039960652   -4.3590008   0.89948014   439061 
 4195000   0.59957468   -4.3584129   -4.3584129   -3.4590529 0.0038709839   -4.3584129   0.89935997   439061 
 4196000   0.60000425   -4.3588399   -4.3588399   -3.4588356  0.001074308   -4.3588399   0.90000433   439061 
 4197000   0.60027041   -4.3582968   -4.3582968   -3.4578932 0.0024107279   -4.3582968   0.90040356   439061 
 4198000   0.60083053   -4.3586502   -4.3586502   -3.4574065 0.0024844311   -4.3586502   0.90124374   439061 
 4199000   0.60143867   -4.3595036   -4.3595036   -3.4573477 0.0056581703   -4.3595036   0.90215595   439061 
 4200000   0.60090563     -4.35925     -4.35925   -3.4578936 0.0039158894     -4.35925   0.90135639   439061 
 4201000   0.59944416   -4.3569934   -4.3569934   -3.4578292 0.0069203639   -4.3569934   0.89916419   439061 
 4202000   0.60069468   -4.3583521   -4.3583521   -3.4573121 0.0033479466   -4.3583521   0.90103997   439061 
 4203000   0.60108399   -4.3587481   -4.3587481   -3.4571242 0.0040830267   -4.3587481   0.90162393   439061 
 4204000   0.60091245   -4.3587258   -4.3587258   -3.4573592 0.0035976697   -4.3587258   0.90136662   439061 
 4205000   0.60069675    -4.359342    -4.359342   -3.4582989  0.002440956    -4.359342   0.90104307   439061 
 4206000   0.60059313    -4.357632    -4.357632   -3.4567444 0.0018403029    -4.357632   0.90088764   439061 
 4207000   0.60085144     -4.35803     -4.35803   -3.4567548  0.005465802     -4.35803   0.90127511   439061 
 4208000   0.60035632   -4.3578871   -4.3578871   -3.4573547  0.005572271   -4.3578871   0.90053242   439061 
 4209000   0.59987978   -4.3573382   -4.3573382   -3.4575206 0.0057738171   -4.3573382   0.89981763   439061 
 4210000   0.59922339   -4.3567311   -4.3567311    -3.457898 0.0055431999   -4.3567311   0.89883305   439061 
 4211000   0.60053216   -4.3581415   -4.3581415   -3.4573453 0.00077011595   -4.3581415   0.90079619   439061 
 4212000   0.59913463   -4.3561702   -4.3561702   -3.4574703 0.0040234944   -4.3561702    0.8986999   439061 
 4213000   0.59885929   -4.3563453   -4.3563453   -3.4580584 0.0036595288   -4.3563453   0.89828689   439061 
 4214000   0.59879692   -4.3556463   -4.3556463   -3.4574529 0.0066352276   -4.3556463   0.89819334   439061 
 4215000   0.59889476   -4.3560621   -4.3560621    -3.457722  0.002025115   -4.3560621    0.8983401   439061 
 4216000   0.59910547   -4.3568856   -4.3568856   -3.4582294 0.00084336623   -4.3568856   0.89865615   439061 
 4217000    0.5988288   -4.3573044   -4.3573044   -3.4590633  0.005250337   -4.3573044   0.89824115   439061 
 4218000   0.60086309   -4.3596353   -4.3596353   -3.4583427 0.0049069968   -4.3596353   0.90129259   439061 
 4219000   0.60041676   -4.3592387   -4.3592387   -3.4586156 0.0081074042   -4.3592387   0.90062308   439061 
 4220000   0.60063905   -4.3588004   -4.3588004   -3.4578439  0.010699697   -4.3588004   0.90095652   439061 
 4221000   0.60055293   -4.3592725   -4.3592725   -3.4584451 0.0061158828   -4.3592725   0.90082735   439061 
 4222000   0.60032297    -4.358568    -4.358568   -3.4580856 0.0092058329    -4.358568    0.9004824   439061 
 4223000   0.60157626   -4.3607371   -4.3607371   -3.4583748 0.0061965808   -4.3607371   0.90236233   439061 
 4224000   0.60025859   -4.3590965   -4.3590965   -3.4587107 0.0077097368   -4.3590965   0.90038584   439061 
 4225000   0.59960375   -4.3580776   -4.3580776    -3.458674 0.0075353739   -4.3580776   0.89940358   439061 
 4226000   0.60026407   -4.3591356   -4.3591356   -3.4587415 -0.00066950287   -4.3591356   0.90039405   439061 
 4227000    0.6001271    -4.358174    -4.358174   -3.4579854 0.0014646131    -4.358174    0.9001886   439061 
 4228000   0.59933188   -4.3568746   -4.3568746   -3.4578788 0.0051616151   -4.3568746   0.89899577   439061 
 4229000   0.60026834   -4.3575443   -4.3575443   -3.4571438 -0.00070405063   -4.3575443   0.90040046   439061 
 4230000   0.60031433    -4.357124    -4.357124   -3.4566545 0.0050204749    -4.357124   0.90046945   439061 
 4231000   0.59959196   -4.3559518   -4.3559518   -3.4565659  0.002480055   -4.3559518   0.89938589   439061 
 4232000   0.60023514   -4.3568455   -4.3568455   -3.4564948 0.0036163379   -4.3568455   0.90035066   439061 
 4233000   0.59993996   -4.3569085   -4.3569085   -3.4570006 0.0031131582   -4.3569085   0.89990789   439061 
 4234000   0.60053792   -4.3571397   -4.3571397   -3.4563349 0.0021129081   -4.3571397   0.90080483   439061 
 4235000   0.59972414   -4.3574499   -4.3574499   -3.4578658 0.0028231447   -4.3574499   0.89958416   439061 
 4236000   0.60007415    -4.357503    -4.357503   -3.4573938 0.00059093795    -4.357503   0.90010917   439061 
 4237000   0.60058548   -4.3593909   -4.3593909   -3.4585148 0.0018762029   -4.3593909   0.90087617   439061 
 4238000   0.59841875   -4.3570874   -4.3570874   -3.4594613  0.004628036   -4.3570874   0.89762609   439061 
 4239000   0.60002069   -4.3584974   -4.3584974   -3.4584684 0.0080916391   -4.3584974   0.90002899   439061 
 4240000   0.60079657   -4.3602566   -4.3602566   -3.4590638 0.0069204965   -4.3602566    0.9011928   439061 
 4241000   0.60162028   -4.3609988   -4.3609988   -3.4585705 0.0043823937   -4.3609988   0.90242836   439061 
 4242000   0.60108957   -4.3603705   -4.3603705   -3.4587382  0.006401672   -4.3603705    0.9016323   439061 
 4243000    0.5997227   -4.3600147   -4.3600147   -3.4604327   0.01102689   -4.3600147   0.89958201   439061 
 4244000   0.60022872   -4.3604775   -4.3604775   -3.4601364 0.0073850957   -4.3604775   0.90034103   439061 
 4245000    0.5999361   -4.3600127   -4.3600127   -3.4601106 0.0060750704   -4.3600127    0.8999021   439061 
 4246000   0.59921416   -4.3593638   -4.3593638   -3.4605446 0.0079755795   -4.3593638   0.89881919   439061 
 4247000   0.59874566   -4.3588494   -4.3588494   -3.4607329 0.0047709644   -4.3588494   0.89811645   439061 
 4248000   0.60110024   -4.3612251   -4.3612251   -3.4595768 0.0027046143   -4.3612251    0.9016483   439061 
 4249000   0.59987838   -4.3588093   -4.3588093   -3.4589938 0.0092575958   -4.3588093   0.89981551   439061 
 4250000   0.60052472   -4.3598081   -4.3598081    -3.459023 0.0036104395   -4.3598081   0.90078503   439061 
 4251000   0.59947362   -4.3588066   -4.3588066   -3.4595982 0.0049760662   -4.3588066   0.89920838   439061 
 4252000   0.59943025   -4.3587172   -4.3587172   -3.4595739 0.0012054192   -4.3587172   0.89914332   439061 
 4253000   0.59941111   -4.3588401   -4.3588401   -3.4597255 0.00014637576   -4.3588401   0.89911462   439061 
 4254000   0.59854752   -4.3579713   -4.3579713   -3.4601521 0.0021913731   -4.3579713   0.89781923   439061 
 4255000   0.59874528   -4.3586002   -4.3586002   -3.4604843 -0.00096591546   -4.3586002   0.89811587   439061 
 4256000   0.59911805   -4.3582773   -4.3582773   -3.4596023 0.0033824315   -4.3582773   0.89867502   439061 
 4257000   0.60038832   -4.3602071   -4.3602071   -3.4596267  0.005425448   -4.3602071   0.90058043   439061 
 4258000   0.59978197   -4.3611294   -4.3611294   -3.4614585 0.0021643574   -4.3611294   0.89967091   439061 
 4259000   0.60030021   -4.3614154   -4.3614154   -3.4609672  0.010001902   -4.3614154   0.90044826   439061 
 4260000   0.59976802   -4.3604457   -4.3604457   -3.4607957  0.012253259   -4.3604457   0.89964998   439061 
 4261000   0.60014799   -4.3604938   -4.3604938   -3.4602739 0.0072297371   -4.3604938   0.90021994   439061 
 4262000   0.60049163   -4.3614084   -4.3614084    -3.460673 0.0026407366   -4.3614084   0.90073539   439061 
 4263000   0.59951161   -4.3589673   -4.3589673    -3.459702 0.0093460125   -4.3589673   0.89926536   439061 
 4264000    0.6000844   -4.3602281   -4.3602281   -3.4601035 0.0047791617   -4.3602281   0.90012455   439061 
 4265000   0.59988443   -4.3594149   -4.3594149   -3.4595903 0.0018688851   -4.3594149    0.8998246   439061 
 4266000   0.59993555    -4.358905    -4.358905   -3.4590037 0.0049328316    -4.358905   0.89990127   439061 
 4267000   0.59965983     -4.35825     -4.35825   -3.4587623 0.0036307188     -4.35825    0.8994877   439061 
 4268000   0.59964845   -4.3581833   -4.3581833   -3.4587126 0.0017234741   -4.3581833   0.89947063   439061 
 4269000   0.59911825   -4.3579131   -4.3579131   -3.4592377 0.0037767906   -4.3579131   0.89867532   439061 
 4270000   0.59910674   -4.3574856   -4.3574856   -3.4588275 0.0033562601   -4.3574856   0.89865806   439061 
 4271000   0.59930366   -4.3587941   -4.3587941   -3.4598407 -0.0034293301   -4.3587941   0.89895344   439061 
 4272000    0.5991375   -4.3590532   -4.3590532    -3.460349 0.00031992174   -4.3590532    0.8987042   439061 
 4273000   0.60015009   -4.3605028   -4.3605028   -3.4602797 -0.0021870082   -4.3605028   0.90022308   439061 
 4274000   0.60033498   -4.3598124   -4.3598124    -3.459312 0.0044600224   -4.3598124   0.90050043   439061 
 4275000   0.60053065   -4.3602782   -4.3602782   -3.4594842 0.0059323046   -4.3602782   0.90079393   439061 
 4276000   0.60059518   -4.3604016   -4.3604016   -3.4595109 0.0097230864   -4.3604016   0.90089073   439061 
 4277000   0.60018742   -4.3600794   -4.3600794   -3.4598003  0.011066776   -4.3600794   0.90027908   439061 
 4278000   0.59998312     -4.36027     -4.36027   -3.4602974 0.0097234941     -4.36027   0.89997262   439061 
 4279000   0.60039472   -4.3618219   -4.3618219   -3.4612319 0.0028256561   -4.3618219   0.90059003   439061 
 4280000   0.59914584   -4.3605443   -4.3605443   -3.4618276 0.0056616594   -4.3605443   0.89871671   439061 
 4281000   0.59913682   -4.3607614   -4.3607614   -3.4620583 0.0068688285   -4.3607614   0.89870319   439061 
 4282000   0.59951082   -4.3616538   -4.3616538   -3.4623896 0.0048185023   -4.3616538   0.89926419   439061 
 4283000   0.59874468   -4.3600022   -4.3600022   -3.4618872 0.0084107175   -4.3600022   0.89811497   439061 
 4284000   0.59907118   -4.3605009   -4.3605009   -3.4618961 0.0027220994   -4.3605009   0.89860473   439061 
 4285000   0.59972799   -4.3613612   -4.3613612   -3.4617713 0.0027967173   -4.3613612   0.89958994   439061 
 4286000   0.60054218   -4.3609337   -4.3609337   -3.4601225 0.0049224558   -4.3609337   0.90081122   439061 
 4287000    0.6000786   -4.3604795   -4.3604795   -3.4603637 0.0051822542   -4.3604795   0.90011584   439061 
 4288000   0.59921802   -4.3593335   -4.3593335   -3.4605086 0.0058972301   -4.3593335   0.89882498   439061 
 4289000   0.59912644   -4.3602089   -4.3602089   -3.4615213  0.003654844   -4.3602089   0.89868761   439061 
 4290000   0.59821221   -4.3588791   -4.3588791   -3.4615628 0.0020794906   -4.3588791   0.89731627   439061 
 4291000   0.60015715   -4.3611456   -4.3611456   -3.4609119 0.0052269186   -4.3611456   0.90023368   439061 
 4292000   0.60009891   -4.3608888   -4.3608888   -3.4607425 0.0047430945   -4.3608888   0.90014631   439061 
 4293000   0.60008547   -4.3594852   -4.3594852    -3.459359 0.0083921232   -4.3594852   0.90012616   439061 
 4294000    0.6012261   -4.3619205   -4.3619205   -3.4600834  0.004024634   -4.3619205   0.90183709   439061 
 4295000   0.60059785    -4.362251    -4.362251   -3.4613563 0.00069878741    -4.362251   0.90089472   439061 
 4296000   0.59995153   -4.3617051   -4.3617051   -3.4617798 0.0013189211   -4.3617051   0.89992525   439061 
 4297000   0.59866523   -4.3588798   -4.3588798    -3.460884  0.003534609   -4.3588798    0.8979958   439061 
 4298000   0.59910963   -4.3603871   -4.3603871   -3.4617247 0.0041903227   -4.3603871    0.8986624   439061 
 4299000   0.60015013   -4.3607808   -4.3607808   -3.4605577 0.0033445155   -4.3607808   0.90022315   439061 
 4300000   0.59986338   -4.3608192   -4.3608192   -3.4610262 0.0052443604   -4.3608192   0.89979302   439061 
 4301000   0.59962345   -4.3601745   -4.3601745   -3.4607414 0.0088044241   -4.3601745   0.89943312   439061 
 4302000   0.59857582   -4.3584057   -4.3584057    -3.460544  0.011302085   -4.3584057   0.89786168   439061 
 4303000   0.59970333    -4.360057    -4.360057   -3.4605041 0.0060129644    -4.360057   0.89955294   439061 
 4304000   0.59934459    -4.360308    -4.360308   -3.4612932 0.0046344623    -4.360308   0.89901484   439061 
 4305000     0.598669   -4.3593552   -4.3593552   -3.4613538 0.0076853027   -4.3593552   0.89800146   439061 
 4306000   0.59882559    -4.359064    -4.359064   -3.4608277 0.0050636006    -4.359064   0.89823634   439061 
 4307000   0.59984807   -4.3611473   -4.3611473   -3.4613772 0.0035475834   -4.3611473   0.89977006   439061 
 4308000   0.59905314     -4.35842     -4.35842   -3.4598423 0.0069103133     -4.35842   0.89857766   439061 
 4309000   0.59912388   -4.3598999   -4.3598999   -3.4612161 0.0033931265   -4.3598999   0.89868378   439061 
 4310000   0.59905463   -4.3596404   -4.3596404   -3.4610605  0.003088687   -4.3596404   0.89857989   439061 
 4311000   0.59944718   -4.3603336   -4.3603336   -3.4611649 0.0048634703   -4.3603336   0.89916873   439061 
 4312000    0.6001813   -4.3616932   -4.3616932   -3.4614233 0.0046318606   -4.3616932   0.90026989   439061 
 4313000   0.59986468   -4.3602004   -4.3602004   -3.4604054 0.0052315775   -4.3602004   0.89979497   439061 
 4314000   0.59994041   -4.3609163   -4.3609163   -3.4610077 0.0047606275   -4.3609163   0.89990856   439061 
 4315000    0.5999177   -4.3614964   -4.3614964   -3.4616218 0.0085660753   -4.3614964    0.8998745   439061 
 4316000   0.59993569   -4.3614665   -4.3614665    -3.461565 0.0031395613   -4.3614665   0.89990148   439061 
 4317000   0.59996116   -4.3610449   -4.3610449   -3.4611052 0.0034059274   -4.3610449   0.89993969   439061 
 4318000   0.59934176   -4.3600883   -4.3600883   -3.4610777 0.0065009567   -4.3600883    0.8990106   439061 
 4319000   0.59977359   -4.3608289   -4.3608289   -3.4611705 0.0030482997   -4.3608289   0.89965833   439061 
 4320000    0.5987755   -4.3596838   -4.3596838   -3.4615226 0.0067462137   -4.3596838   0.89816121   439061 
 4321000   0.59929429   -4.3594081   -4.3594081   -3.4604687 0.0042073239   -4.3594081   0.89893939   439061 
 4322000   0.59952291   -4.3591769   -4.3591769   -3.4598946 0.0033059956   -4.3591769   0.89928232   439061 
 4323000   0.59833228   -4.3583793   -4.3583793   -3.4608829 0.0085501558   -4.3583793   0.89749637   439061 
 4324000   0.59960885   -4.3593744   -4.3593744   -3.4599631 0.0059788741   -4.3593744   0.89941123   439061 
 4325000   0.60059856   -4.3603457   -4.3603457   -3.4594499 0.0033905281   -4.3603457   0.90089578   439061 
 4326000   0.59944153   -4.3597362   -4.3597362    -3.460576 0.0023930152   -4.3597362   0.89916025   439061 
 4327000   0.59897582   -4.3588937   -4.3588937   -3.4604321 0.0026781009   -4.3588937   0.89846168   439061 
 4328000   0.59985091    -4.360073    -4.360073   -3.4602987 0.0036980615    -4.360073   0.89977431   439061 
 4329000   0.59994982   -4.3603092   -4.3603092   -3.4603865 0.0052928049   -4.3603092   0.89992268   439061 
 4330000   0.59952501   -4.3597273   -4.3597273   -3.4604419 0.0078816293   -4.3597273   0.89928546   439061 
 4331000   0.59991341   -4.3607091   -4.3607091    -3.460841 0.0071109024   -4.3607091   0.89986806   439061 
 4332000   0.59938632    -4.360439    -4.360439   -3.4613615 0.0053008673    -4.360439   0.89907743   439061 
 4333000    0.6002256   -4.3616537   -4.3616537   -3.4613174 0.00081558113   -4.3616537   0.90033635   439061 
 4334000   0.59977985   -4.3606657   -4.3606657    -3.460998 0.0077863598   -4.3606657   0.89966772   439061 
 4335000    0.5998508    -4.361466    -4.361466   -3.4616918 0.0035452825    -4.361466   0.89977415   439061 
 4336000   0.59951495   -4.3598913   -4.3598913   -3.4606209  0.005253553   -4.3598913   0.89927038   439061 
 4337000   0.59957897   -4.3597463   -4.3597463   -3.4603799 0.0067027575   -4.3597463   0.89936641   439061 
 4338000   0.59987457   -4.3593307   -4.3593307   -3.4595209  0.010238731   -4.3593307   0.89980981   439061 
 4339000   0.59949451   -4.3592217   -4.3592217    -3.459982 0.0091940975   -4.3592217   0.89923972   439061 
 4340000   0.60004342   -4.3605956   -4.3605956   -3.4605325 -0.00071839724   -4.3605956   0.90006308   439061 
 4341000   0.59945169   -4.3588205   -4.3588205    -3.459645 0.0041421871   -4.3588205   0.89917549   439061 
 4342000   0.59901812   -4.3595573   -4.3595573   -3.4610322 0.0020634607   -4.3595573   0.89852513   439061 
 4343000   0.59899772   -4.3585139   -4.3585139   -3.4600194 0.0051652098   -4.3585139   0.89849453   439061 
 4344000   0.59960153   -4.3593434   -4.3593434   -3.4599431  0.003686603   -4.3593434   0.89940025   439061 
 4345000   0.59911317   -4.3595239   -4.3595239   -3.4608562 0.00067902181   -4.3595239   0.89866771   439061 
 4346000   0.59860103   -4.3582473   -4.3582473   -3.4603478 0.0066313114   -4.3582473    0.8978995   439061 
 4347000   0.59986566   -4.3593714   -4.3593714    -3.459575 0.0082281397   -4.3593714   0.89979644   439061 
 4348000   0.59934808   -4.3593475   -4.3593475   -3.4603275 0.0077892971   -4.3593475   0.89902008   439061 
 4349000   0.59971924   -4.3599305   -4.3599305   -3.4603537 0.0042198936   -4.3599305   0.89957681   439061 
 4350000    0.5991388    -4.358421    -4.358421   -3.4597149 0.0060309141    -4.358421   0.89870616   439061 
 4351000   0.59930381   -4.3588676   -4.3588676    -3.459914 0.0029744063   -4.3588676   0.89895367   439061 
 4352000   0.60003155   -4.3602528   -4.3602528   -3.4602075 0.0069386234   -4.3602528   0.90004527   439061 
 4353000   0.59936776   -4.3592333   -4.3592333   -3.4601837 0.0091188837   -4.3592333    0.8990496   439061 
 4354000   0.59949197   -4.3596175   -4.3596175   -3.4603816 0.0026272172   -4.3596175   0.89923591   439061 
 4355000   0.59939056   -4.3597762   -4.3597762   -3.4606924 -0.00015199344   -4.3597762    0.8990838   439061 
 4356000   0.60028592   -4.3611976   -4.3611976   -3.4607707 -9.2614521e-06   -4.3611976   0.90042683   439061 
 4357000   0.59983992   -4.3607094   -4.3607094   -3.4609516 0.0063776207   -4.3607094   0.89975784   439061 
 4358000   0.59955816   -4.3600003   -4.3600003   -3.4606651 0.0048472543   -4.3600003   0.89933519   439061 
 4359000   0.59912032   -4.3601984   -4.3601984     -3.46152 0.0027319183   -4.3601984   0.89867844   439061 
 4360000   0.59937858   -4.3609733   -4.3609733   -3.4619075 0.0044088244   -4.3609733   0.89906582   439061 
 4361000   0.59919318   -4.3609043   -4.3609043   -3.4621166 0.0020565927   -4.3609043   0.89878772   439061 
 4362000   0.59931343   -4.3598356   -4.3598356   -3.4608675  0.007391885   -4.3598356    0.8989681   439061 
 4363000   0.60039993   -4.3615588   -4.3615588   -3.4609609 0.0077451608   -4.3615588   0.90059784   439061 
 4364000    0.5999806   -4.3603109   -4.3603109   -3.4603421  0.011689595   -4.3603109   0.89996886   439061 
 4365000   0.59987001   -4.3603821   -4.3603821   -3.4605791 0.0077246514   -4.3603821   0.89980296   439061 
 4366000   0.59855074   -4.3588717   -4.3588717   -3.4610476  0.008535141   -4.3588717   0.89782407   439061 
 4367000   0.59951713   -4.3601068   -4.3601068   -3.4608332 0.0024230738   -4.3601068   0.89927365   439061 
 4368000   0.59979625   -4.3615459   -4.3615459   -3.4618536 -0.0012217978   -4.3615459   0.89969233   439061 
 4369000   0.59935498   -4.3607365   -4.3607365   -3.4617061 0.0054299536   -4.3607365   0.89903042   439061 
 4370000   0.59931778   -4.3614572   -4.3614572   -3.4624826 0.0012025982   -4.3614572   0.89897462   439061 
 4371000    0.5988942   -4.3595822   -4.3595822   -3.4612429 0.0040121888   -4.3595822   0.89833926   439061 
 4372000   0.59956644   -4.3607394   -4.3607394   -3.4613918 0.0036029438   -4.3607394   0.89934762   439061 
 4373000   0.59995555   -4.3605103   -4.3605103    -3.460579 0.0048340296   -4.3605103   0.89993127   439061 
 4374000   0.60096957   -4.3609046   -4.3609046   -3.4594523  0.006070017   -4.3609046    0.9014523   439061 
 4375000   0.59992285   -4.3600534   -4.3600534   -3.4601712 0.0043676847   -4.3600534   0.89988223   439061 
 4376000   0.59926144   -4.3598204   -4.3598204   -3.4609303 0.0074582949   -4.3598204   0.89889011   439061 
 4377000   0.59967333   -4.3596973   -4.3596973   -3.4601893  0.007517539   -4.3596973   0.89950795   439061 
 4378000   0.59975006   -4.3610904   -4.3610904   -3.4614674 0.0039004427   -4.3610904   0.89962304   439061 
 4379000   0.59918853   -4.3596029   -4.3596029   -3.4608222 0.0060560772   -4.3596029   0.89878074   439061 
 4380000   0.59973617   -4.3598941   -4.3598941   -3.4602919 0.0055856916   -4.3598941   0.89960221   439061 
 4381000   0.60061533   -4.3613762   -4.3613762   -3.4604552 0.0028981215   -4.3613762   0.90092094   439061 
 4382000   0.60002537   -4.3600752   -4.3600752   -3.4600392 0.0062564814   -4.3600752     0.900036   439061 
 4383000   0.59983637   -4.3597164   -4.3597164   -3.4599639 0.0074488866   -4.3597164    0.8997525   439061 
 4384000   0.59957675   -4.3601523   -4.3601523   -3.4607892 0.0048394519   -4.3601523   0.89936308   439061 
 4385000   0.59860563   -4.3594927   -4.3594927   -3.4615863 0.0062734227   -4.3594927   0.89790641   439061 
 4386000   0.59904452   -4.3599367   -4.3599367   -3.4613719 0.0047031463   -4.3599367   0.89856474   439061 
 4387000   0.59921922   -4.3602252   -4.3602252   -3.4613985 0.0052357056   -4.3602252   0.89882678   439061 
 4388000   0.59988528   -4.3618473   -4.3618473   -3.4620214 0.00074811964   -4.3618473   0.89982588   439061 
 4389000   0.59949369   -4.3617387   -4.3617387   -3.4625002  0.004508554   -4.3617387   0.89923848   439061 
 4390000   0.59993135   -4.3627391   -4.3627391   -3.4628441 0.0044451726   -4.3627391   0.89989497   439061 
 4391000   0.59963507   -4.3626394   -4.3626394   -3.4631888 0.0037872627   -4.3626394   0.89945055   439061 
 4392000   0.59893697    -4.362725    -4.362725   -3.4643216 0.0082310919    -4.362725   0.89840341   439061 
 4393000   0.59966241   -4.3646851   -4.3646851   -3.4651935 0.0071144661   -4.3646851   0.89949156   439061 
 4394000   0.60083496   -4.3658362   -4.3658362   -3.4645858  0.009129377   -4.3658362   0.90125038   439061 
 4395000   0.59971427   -4.3645222   -4.3645222   -3.4649529 0.0088706726   -4.3645222   0.89956935   439061 
 4396000   0.60027113   -4.3652541   -4.3652541   -3.4648494 0.0049569243   -4.3652541   0.90040464   439061 
 4397000   0.59971024   -4.3635246   -4.3635246   -3.4639613 0.0097233348   -4.3635246   0.89956331   439061 
 4398000   0.59903597   -4.3623739   -4.3623739    -3.463822  0.013632905   -4.3623739   0.89855191   439061 
 4399000   0.60058965   -4.3634842   -4.3634842   -3.4626017 0.0088342233   -4.3634842   0.90088243   439061 
 4400000    0.5994268   -4.3617279   -4.3617279   -3.4625897  0.005238044   -4.3617279   0.89913816   439061 
 4401000   0.59863379   -4.3604738   -4.3604738   -3.4625252 0.00045895258   -4.3604738   0.89794864   439061 
 4402000   0.59848015   -4.3601671   -4.3601671   -3.4624489 0.00030737294   -4.3601671   0.89771818   439061 
 4403000   0.59870102   -4.3595542   -4.3595542   -3.4615047 0.0035570879   -4.3595542   0.89804949   439061 
 4404000   0.59942744   -4.3600816   -4.3600816   -3.4609425 -0.0012047217   -4.3600816   0.89913912   439061 
 4405000   0.59913284   -4.3591607   -4.3591607   -3.4604634 0.00068210936   -4.3591607   0.89869722   439061 
 4406000   0.59844517   -4.3582882   -4.3582882   -3.4606225 0.0026568688   -4.3582882   0.89766571   439061 
 4407000   0.59945236   -4.3602844   -4.3602844   -3.4611079 -0.00074420424   -4.3602844   0.89917649   439061 
 4408000   0.59904008   -4.3591811   -4.3591811    -3.460623 0.0088619944   -4.3591811   0.89855808   439061 
 4409000   0.60113674   -4.3610883   -4.3610883   -3.4593853 0.0056041387   -4.3610883   0.90170306   439061 
 4410000   0.60077201    -4.360216    -4.360216     -3.45906  0.010237237    -4.360216   0.90115596   439061 
 4411000   0.60082408   -4.3608844   -4.3608844   -3.4596503 0.0056530816   -4.3608844   0.90123407   439061 
 4412000   0.60009346   -4.3598194   -4.3598194   -3.4596812 0.0097138952   -4.3598194   0.90013814   439061 
 4413000   0.60014706   -4.3600287   -4.3600287   -3.4598101 0.0055505719   -4.3600287   0.90021854   439061 
 4414000   0.59984653   -4.3598756   -4.3598756   -3.4601078 0.0063798143   -4.3598756   0.89976775   439061 
 4415000   0.59884224   -4.3584809   -4.3584809   -3.4602196 0.0034668476   -4.3584809   0.89826131   439061 
 4416000    0.5999609   -4.3593923   -4.3593923    -3.459453 0.00093326511   -4.3593923   0.89993929   439061 
 4417000   0.59873274   -4.3583325   -4.3583325   -3.4602354 0.0026310345   -4.3583325   0.89809707   439061 
 4418000    0.5993755   -4.3591036   -4.3591036   -3.4600424 0.00029329179   -4.3591036   0.89906121   439061 
 4419000   0.59950124    -4.359321    -4.359321   -3.4600712 0.0024141778    -4.359321   0.89924981   439061 
 4420000   0.59926555   -4.3585454   -4.3585454   -3.4596491 0.0020274305   -4.3585454   0.89889628   439061 
 4421000   0.59920212   -4.3584469   -4.3584469   -3.4596457  0.005557536   -4.3584469   0.89880113   439061 
 4422000   0.59964366   -4.3602431   -4.3602431   -3.4607796 0.0038449206   -4.3602431   0.89946345   439061 
 4423000   0.60124834   -4.3629378   -4.3629378   -3.4610674 0.0046322563   -4.3629378   0.90187046   439061 
 4424000   0.60052492   -4.3620973   -4.3620973    -3.461312 0.0095895597   -4.3620973   0.90078533   439061 
 4425000   0.60069576   -4.3610308   -4.3610308   -3.4599892  0.010861506   -4.3610308   0.90104159   439061 
 4426000   0.60060763   -4.3621796   -4.3621796   -3.4612702 0.0062885198   -4.3621796   0.90090939   439061 
 4427000   0.60020766   -4.3613928   -4.3613928   -3.4610834  0.007983027   -4.3613928   0.90030944   439061 
 4428000   0.60096263   -4.3618102   -4.3618102   -3.4603683 0.0061522589   -4.3618102    0.9014419   439061 
 4429000   0.60109777   -4.3619577   -4.3619577   -3.4603131 0.0041663182   -4.3619577   0.90164461   439061 
 4430000   0.60027726    -4.360115    -4.360115   -3.4597011 0.0010310272    -4.360115   0.90041385   439061 
 4431000   0.59957612   -4.3591051   -4.3591051    -3.459743 -0.00064994482   -4.3591051   0.89936212   439061 
 4432000   0.59854748   -4.3572985   -4.3572985   -3.4594793  0.005117727   -4.3572985   0.89781918   439061 
 4433000   0.59952021   -4.3595568   -4.3595568   -3.4602785 0.00041062784   -4.3595568   0.89927827   439061 
 4434000   0.59913053   -4.3594463   -4.3594463   -3.4607526  0.003614728   -4.3594463   0.89869375   439061 
 4435000   0.59949312   -4.3598561   -4.3598561   -3.4606185 0.0014718399   -4.3598561   0.89923764   439061 
 4436000   0.60019745   -4.3606703   -4.3606703   -3.4603762 0.0010693645   -4.3606703   0.90029412   439061 
 4437000   0.60076122   -4.3618553   -4.3618553   -3.4607155 0.0051929358   -4.3618553   0.90113977   439061 
 4438000   0.60009927   -4.3608806   -4.3608806   -3.4607337 0.0087656552   -4.3608806   0.90014685   439061 
 4439000    0.6002076   -4.3605813   -4.3605813    -3.460272 0.0090114177   -4.3605813   0.90030935   439061 
 4440000   0.59958438   -4.3607154   -4.3607154   -3.4613409 0.0048682324   -4.3607154   0.89937453   439061 
 4441000   0.60001697   -4.3620929   -4.3620929   -3.4620695 0.0047139147   -4.3620929   0.90002341   439061 
 4442000   0.60061763   -4.3622043   -4.3622043   -3.4612799 0.0028343365   -4.3622043   0.90092439   439061 
 4443000   0.60021361   -4.3629105   -4.3629105   -3.4625921 0.0017043653   -4.3629105   0.90031836   439061 
 4444000   0.60053815   -4.3619895   -4.3619895   -3.4611843 0.0027995727   -4.3619895   0.90080518   439061 
 4445000   0.59899053   -4.3596534   -4.3596534   -3.4611696 0.0017192963   -4.3596534   0.89848374   439061 
 4446000   0.59942144   -4.3606576   -4.3606576   -3.4615275 0.0036375699   -4.3606576   0.89913012   439061 
 4447000   0.60034531   -4.3614603   -4.3614603   -3.4609444 0.0038114547   -4.3614603   0.90051592   439061 
 4448000   0.59870068   -4.3592708   -4.3592708   -3.4612218 0.0097159504   -4.3592708   0.89804898   439061 
 4449000    0.6001675   -4.3610289   -4.3610289   -3.4607797 0.0052400576   -4.3610289    0.9002492   439061 
 4450000   0.59957451   -4.3597584   -4.3597584   -3.4603987 0.0080719599   -4.3597584   0.89935971   439061 
 4451000   0.60022623   -4.3595776   -4.3595776   -3.4592403 0.0054154461   -4.3595776   0.90033729   439061 
 4452000   0.60009175    -4.360282    -4.360282   -3.4601464  0.003997722    -4.360282   0.90013558   439061 
 4453000     0.600078   -4.3608625   -4.3608625   -3.4607476 0.0023791557   -4.3608625   0.90011494   439061 
 4454000   0.59927201   -4.3589476   -4.3589476   -3.4600416 0.0042437966   -4.3589476   0.89890597   439061 
 4455000   0.59936067   -4.3589336   -4.3589336   -3.4598947 0.0027830034   -4.3589336   0.89903895   439061 
 4456000   0.59911946   -4.3586323   -4.3586323   -3.4599552 0.0008506128   -4.3586323   0.89867714   439061 
 4457000   0.59941263   -4.3589146   -4.3589146   -3.4597977 0.0046062145   -4.3589146    0.8991169   439061 
 4458000   0.59955669    -4.359365    -4.359365    -3.460032 0.00061082834    -4.359365   0.89933298   439061 
 4459000   0.59952691   -4.3600538   -4.3600538   -3.4607655 0.0022307987   -4.3600538   0.89928831   439061 
 4460000   0.60030524   -4.3609407   -4.3609407   -3.4604849  0.003064616   -4.3609407    0.9004558   439061 
 4461000   0.60027263    -4.361214    -4.361214   -3.4608071 0.0077057718    -4.361214    0.9004069   439061 
 4462000   0.60051484   -4.3609104   -4.3609104   -3.4601402 0.0070540773   -4.3609104    0.9007702   439061 
 4463000   0.59918859   -4.3601686   -4.3601686   -3.4613878 0.0065664551   -4.3601686   0.89878084   439061 
 4464000    0.5986665   -4.3599701   -4.3599701   -3.4619724 0.0081250916   -4.3599701   0.89799771   439061 
 4465000    0.6000925   -4.3620174   -4.3620174   -3.4618807  0.004150744   -4.3620174   0.90013669   439061 
 4466000   0.59908743   -4.3601562   -4.3601562   -3.4615271 0.0086398099   -4.3601562   0.89862909   439061 
 4467000   0.59977485   -4.3601289   -4.3601289   -3.4604687 0.0089217365   -4.3601289   0.89966023   439061 
 4468000    0.5994598    -4.359207    -4.359207   -3.4600194 0.0099262228    -4.359207   0.89918766   439061 
 4469000   0.60076486   -4.3619083   -4.3619083   -3.4607631 0.0066549352   -4.3619083   0.90114524   439061 
 4470000   0.60015002   -4.3600604   -4.3600604   -3.4598374 0.0059830732   -4.3600604   0.90022299   439061 
 4471000   0.59952027   -4.3589073   -4.3589073    -3.459629 0.00033005224   -4.3589073   0.89927835   439061 
 4472000   0.59801036   -4.3574527   -4.3574527   -3.4604392 0.0023865472   -4.3574527    0.8970135   439061 
 4473000   0.59935901   -4.3588021   -4.3588021   -3.4597656 0.0028993007   -4.3588021   0.89903646   439061 
 4474000   0.59988039   -4.3598038   -4.3598038   -3.4599853 -0.00067565209   -4.3598038   0.89981854   439061 
 4475000   0.60030279   -4.3600882   -4.3600882   -3.4596361 0.00024056059   -4.3600882   0.90045213   439061 
 4476000   0.59961017   -4.3591348   -4.3591348   -3.4597216  0.001357707   -4.3591348    0.8994132   439061 
 4477000    0.5996286   -4.3602786   -4.3602786   -3.4608377 0.0019896255   -4.3602786   0.89944085   439061 
 4478000   0.59974824   -4.3593769   -4.3593769   -3.4597566 0.0098988279   -4.3593769    0.8996203   439061 
 4479000   0.59837964   -4.3581547   -4.3581547   -3.4605873  0.010566052   -4.3581547   0.89756742   439061 
 4480000   0.59967902    -4.360271    -4.360271   -3.4607545 0.0071154552    -4.360271   0.89951649   439061 
 4481000   0.60008785   -4.3605193   -4.3605193   -3.4603896 0.0055494713   -4.3605193   0.90012972   439061 
 4482000   0.59899982   -4.3589508   -4.3589508   -3.4604531  0.012187712   -4.3589508   0.89849768   439061 
 4483000   0.60047144   -4.3610625   -4.3610625   -3.4603574 0.0067466771   -4.3610625   0.90070511   439061 
 4484000   0.59985443   -4.3599059   -4.3599059   -3.4601263 0.0054881411   -4.3599059   0.89977959   439061 
 4485000   0.59959114   -4.3584964   -4.3584964   -3.4591117 0.0079818773   -4.3584964   0.89938466   439061 
 4486000   0.59987568   -4.3590461   -4.3590461   -3.4592347 0.0070014165   -4.3590461   0.89981147   439061 
 4487000   0.60022728   -4.3588793   -4.3588793   -3.4585405 0.0082727555   -4.3588793   0.90033887   439061 
 4488000   0.59988697   -4.3590714   -4.3590714    -3.459243 0.0036248264   -4.3590714    0.8998284   439061 
 4489000   0.59942963   -4.3585746   -4.3585746   -3.4594322 0.0037964834   -4.3585746   0.89914239   439061 
 4490000   0.59801984   -4.3571346   -4.3571346   -3.4601069 0.0031688422   -4.3571346   0.89702772   439061 
 4491000   0.59877217   -4.3584053   -4.3584053   -3.4602491 -0.0010336827   -4.3584053    0.8981562   439061 
 4492000   0.59913336   -4.3574808   -4.3574808   -3.4587829 0.0046401171   -4.3574808   0.89869799   439061 
 4493000   0.59978437   -4.3574429   -4.3574429   -3.4577684  0.010691388   -4.3574429    0.8996745   439061 
 4494000   0.60066761   -4.3587939   -4.3587939   -3.4577945 0.0082012678   -4.3587939   0.90099937   439061 
 4495000   0.59992978   -4.3583882   -4.3583882   -3.4584956 0.0045667196   -4.3583882   0.89989262   439061 
 4496000   0.60036313   -4.3601358   -4.3601358   -3.4595932 -0.0015550479   -4.3601358   0.90054264   439061 
 4497000   0.59878043   -4.3577921   -4.3577921   -3.4596235 0.0052910101   -4.3577921    0.8981686   439061 
 4498000   0.60019534   -4.3595716   -4.3595716   -3.4592806 0.0071671715   -4.3595716   0.90029096   439061 
 4499000    0.5995733    -4.358575    -4.358575   -3.4592171 0.0048552907    -4.358575   0.89935791   439061 
 4500000   0.59964805   -4.3582192   -4.3582192   -3.4587492 0.0041226197   -4.3582192   0.89947002   439061 
 4501000   0.60042856   -4.3590193   -4.3590193   -3.4583785 0.0027723585   -4.3590193   0.90064079   439061 
 4502000    0.6007726   -4.3602243   -4.3602243   -3.4590674 0.0068190777   -4.3602243   0.90115684   439061 
 4503000   0.60075889   -4.3595216   -4.3595216   -3.4583853 0.0065467625   -4.3595216   0.90113629   439061 
 4504000   0.60166843   -4.3612603   -4.3612603   -3.4587597 0.0067663118   -4.3612603    0.9025006   439061 
 4505000   0.60023947   -4.3579555   -4.3579555   -3.4575984 0.0086250724   -4.3579555   0.90035715   439061 
 4506000   0.60032911     -4.35875     -4.35875   -3.4582584 0.0052936377     -4.35875   0.90049161   439061 
 4507000   0.60018981   -4.3591156   -4.3591156    -3.458833 0.0020615892   -4.3591156   0.90028267   439061 
 4508000   0.59969254   -4.3584273   -4.3584273   -3.4588905 0.0064221676   -4.3584273   0.89953676   439061 
 4509000   0.59989516   -4.3587132   -4.3587132   -3.4588725 0.0019574767   -4.3587132   0.89984069   439061 
 4510000   0.60019418   -4.3582316   -4.3582316   -3.4579424   0.00213893   -4.3582316   0.90028922   439061 
 4511000   0.60016724   -4.3586131   -4.3586131   -3.4583643 0.00078741897   -4.3586131    0.9002488   439061 
 4512000   0.59998209   -4.3590574   -4.3590574   -3.4590863 0.0021029347   -4.3590574   0.89997108   439061 
 4513000   0.60028221    -4.359172    -4.359172   -3.4587507 0.0053264121    -4.359172   0.90042127   439061 
 4514000     0.599908   -4.3583706   -4.3583706   -3.4585106 0.0050092376   -4.3583706   0.89985995   439061 
 4515000   0.60111512   -4.3595143   -4.3595143   -3.4578437 0.0079726671   -4.3595143   0.90167063   439061 
 4516000   0.59999266   -4.3576001   -4.3576001   -3.4576131 0.0085470681   -4.3576001   0.89998694   439061 
 4517000   0.60009818   -4.3582481   -4.3582481   -3.4581029 0.0074831331   -4.3582481   0.90014522   439061 
 4518000   0.59925087   -4.3584296   -4.3584296   -3.4595553 0.0062065598   -4.3584296   0.89887426   439061 
 4519000   0.60033345   -4.3600091   -4.3600091    -3.459511 0.00070378749   -4.3600091   0.90049813   439061 
 4520000   0.59930754    -4.358279    -4.358279   -3.4593198  0.005286737    -4.358279   0.89895927   439061 
 4521000   0.60049624   -4.3591779   -4.3591779   -3.4584356 0.0047987516   -4.3591779   0.90074232   439061 
 4522000   0.59965579    -4.358472    -4.358472   -3.4589904 0.0080661773    -4.358472   0.89948164   439061 
 4523000   0.59994107   -4.3590424   -4.3590424   -3.4591328 0.0022338729   -4.3590424   0.89990956   439061 
 4524000   0.59938383   -4.3582307   -4.3582307    -3.459157 0.0049177012   -4.3582307    0.8990737   439061 
 4525000   0.59936374   -4.3581872   -4.3581872   -3.4591437 0.0016973964   -4.3581872   0.89904356   439061 
 4526000   0.59937169   -4.3575599   -4.3575599   -3.4585044 0.0048992314   -4.3575599   0.89905548   439061 
 4527000   0.60038956   -4.3594565   -4.3594565   -3.4588742 0.0054795813   -4.3594565   0.90058229   439061 
 4528000   0.59905338   -4.3566927   -4.3566927   -3.4581146 0.0073257949   -4.3566927   0.89857802   439061 
 4529000   0.59962089   -4.3588689   -4.3588689   -3.4594396  0.002322984   -4.3588689   0.89942929   439061 
 4530000   0.59994382    -4.358827    -4.358827   -3.4589134 0.0053827692    -4.358827   0.89991368   439061 
 4531000   0.60036828   -4.3592234   -4.3592234    -3.458673  0.006029813   -4.3592234   0.90055036   439061 
 4532000   0.60058348   -4.3595603   -4.3595603   -3.4586872  0.006566465   -4.3595603   0.90087316   439061 
 4533000   0.60003305    -4.358675    -4.358675   -3.4586274 0.0069187284    -4.358675   0.90004753   439061 
 4534000   0.59983876   -4.3585748   -4.3585748   -3.4588187 0.0065857884   -4.3585748   0.89975609   439061 
 4535000   0.59918725   -4.3576151   -4.3576151   -3.4588363 0.0064401111   -4.3576151   0.89877883   439061 
 4536000    0.6006321   -4.3599343   -4.3599343   -3.4589882 0.0063906228   -4.3599343    0.9009461   439061 
 4537000   0.60052865   -4.3597305   -4.3597305   -3.4589396 0.0042329815   -4.3597305   0.90079093   439061 
 4538000   0.60107353   -4.3603351   -4.3603351   -3.4587269 0.0038433516   -4.3603351   0.90160824   439061 
 4539000   0.59960568   -4.3590812   -4.3590812   -3.4596747 0.0010155955   -4.3590812   0.89940648   439061 
 4540000   0.59965125   -4.3593292   -4.3593292   -3.4598544 0.0012049721   -4.3593292   0.89947482   439061 
 4541000   0.59921035   -4.3581592   -4.3581592   -3.4593457 0.0033799084   -4.3581592   0.89881348   439061 
 4542000   0.60141325   -4.3608437   -4.3608437   -3.4587258 -0.001211794   -4.3608437   0.90211782   439061 
 4543000    0.6002549   -4.3588418   -4.3588418   -3.4584615 0.0075239686   -4.3588418    0.9003803   439061 
 4544000   0.60022705   -4.3586597   -4.3586597   -3.4583212 0.0056279614   -4.3586597   0.90033852   439061 
 4545000   0.59998711   -4.3583817   -4.3583817    -3.458403 0.0052163965   -4.3583817   0.89997862   439061 
 4546000   0.59923554   -4.3581891   -4.3581891   -3.4593378 0.0055984256   -4.3581891   0.89885127   439061 
 4547000   0.60002859   -4.3594922   -4.3594922   -3.4594513 0.0010320401   -4.3594922   0.90004083   439061 
 4548000   0.59962891   -4.3597767   -4.3597767   -3.4603354 0.0023031194   -4.3597767   0.89944132   439061 
 4549000   0.60038842   -4.3603931   -4.3603931   -3.4598125 0.0013088523   -4.3603931   0.90058057   439061 
 4550000   0.60106154   -4.3616612   -4.3616612    -3.460071 0.00073492675   -4.3616612   0.90159026   439061 
 4551000   0.59824767   -4.3587206   -4.3587206   -3.4613511 0.0076718967   -4.3587206   0.89736947   439061 
 4552000   0.60068207   -4.3616502   -4.3616502   -3.4606291 0.0014504762   -4.3616502   0.90102105   439061 
 4553000   0.60070418   -4.3618688   -4.3618688   -3.4608146 0.0040400908   -4.3618688   0.90105422   439061 
 4554000   0.60013812   -4.3618401   -4.3618401    -3.461635 0.0054274951   -4.3618401   0.90020514   439061 
 4555000   0.59972686   -4.3621716   -4.3621716   -3.4625833 0.0065798898   -4.3621716   0.89958824   439061 
 4556000   0.60000477     -4.36226     -4.36226   -3.4622549 0.0063745491     -4.36226    0.9000051   439061 
 4557000   0.60098133   -4.3633071   -4.3633071   -3.4618372 0.0031553096   -4.3633071   0.90146994   439061 
 4558000   0.60025399   -4.3622561   -4.3622561   -3.4618771 0.0041834352   -4.3622561   0.90037894   439061 
 4559000   0.60047589   -4.3625726   -4.3625726   -3.4618608 0.0028587077   -4.3625726   0.90071178   439061 
 4560000   0.59937127    -4.361318    -4.361318   -3.4622632 0.0081114954    -4.361318   0.89905486   439061 
 4561000    0.6002812   -4.3619317   -4.3619317   -3.4615119 0.0051285988   -4.3619317   0.90041975   439061 
 4562000   0.59994011   -4.3612501   -4.3612501    -3.461342 0.0030045776   -4.3612501   0.89990811   439061 
 4563000   0.59965589    -4.360852    -4.360852   -3.4613702 0.0059248668    -4.360852   0.89948178   439061 
 4564000    0.5990122   -4.3592043   -4.3592043    -3.460688 0.0073825649   -4.3592043   0.89851625   439061 
 4565000   0.59932433   -4.3592238   -4.3592238   -3.4602394 0.0049482609   -4.3592238   0.89898444   439061 
 4566000   0.59946959   -4.3593993   -4.3593993    -3.460197 0.0057100523   -4.3593993   0.89920234   439061 
 4567000   0.59918508   -4.3585693   -4.3585693   -3.4597937 0.0041506067   -4.3585693   0.89877557   439061 
 4568000    0.5984329   -4.3581173   -4.3581173     -3.46047  0.002772324   -4.3581173    0.8976473   439061 
 4569000    0.5984286   -4.3584951   -4.3584951   -3.4608542 0.0024765639   -4.3584951   0.89764085   439061 
 4570000   0.59873146   -4.3592476   -4.3592476   -3.4611524 0.0029016125   -4.3592476   0.89809515   439061 
 4571000   0.59924477   -4.3604657   -4.3604657   -3.4616006 0.0062961872   -4.3604657    0.8988651   439061 
 4572000   0.59925508   -4.3604782   -4.3604782   -3.4615976 0.0060207579   -4.3604782   0.89888058   439061 
 4573000   0.59883548   -4.3603862   -4.3603862   -3.4621351 0.0056021923   -4.3603862   0.89825117   439061 
 4574000   0.59928094   -4.3612174   -4.3612174   -3.4622981 0.0079392817   -4.3612174   0.89891937   439061 
 4575000   0.59966226   -4.3626669   -4.3626669   -3.4631755 0.0050175476   -4.3626669   0.89949134   439061 
 4576000   0.59886369   -4.3624526   -4.3624526   -3.4641591 0.0062489107   -4.3624526   0.89829349   439061 
 4577000   0.59945223   -4.3634907   -4.3634907   -3.4643144  0.004717488   -4.3634907   0.89917629   439061 
 4578000   0.59938295    -4.363278    -4.363278   -3.4642056  0.005402281    -4.363278   0.89907238   439061 
 4579000   0.59851346   -4.3617609   -4.3617609   -3.4639927 0.0069793357   -4.3617609   0.89776814   439061 
 4580000   0.59869043   -4.3606329   -4.3606329   -3.4625992  0.012848728   -4.3606329    0.8980336   439061 
 4581000   0.59954419   -4.3626189   -4.3626189   -3.4633047 0.0065023561   -4.3626189   0.89931423   439061 
 4582000   0.60008064   -4.3625627   -4.3625627   -3.4624438 0.0031417039   -4.3625627   0.90011891   439061 
 4583000   0.59970939   -4.3603709   -4.3603709   -3.4608088 0.0048738487   -4.3603709   0.89956204   439061 
 4584000   0.59899574   -4.3599099   -4.3599099   -3.4614184 0.00063676346   -4.3599099   0.89849157   439061 
 4585000   0.59958649   -4.3603421   -4.3603421   -3.4609644  0.002460355   -4.3603421   0.89937769   439061 
 4586000   0.59833803   -4.3577727   -4.3577727   -3.4602677 0.0048490956   -4.3577727   0.89750501   439061 
 4587000   0.59938295   -4.3597967   -4.3597967   -3.4607244 -0.00089405517   -4.3597967   0.89907238   439061 
 4588000   0.59908283   -4.3589465   -4.3589465   -3.4603243 0.0017309976   -4.3589465    0.8986222   439061 
 4589000   0.59917864   -4.3587849   -4.3587849    -3.460019  0.001943495   -4.3587849   0.89876591   439061 
 4590000   0.59873215   -4.3596841   -4.3596841    -3.461588 0.0021263568   -4.3596841   0.89809618   439061 
 4591000   0.59999507   -4.3603483   -4.3603483   -3.4603577   0.00377104   -4.3603483   0.89999056   439061 
 4592000   0.59960503   -4.3602892   -4.3602892   -3.4608837 0.0046974789   -4.3602892    0.8994055   439061 
 4593000   0.59961748   -4.3593945   -4.3593945   -3.4599703 0.0074050133   -4.3593945   0.89942417   439061 
 4594000   0.60003033   -4.3607776   -4.3607776   -3.4607341 0.0051159153   -4.3607776   0.90004345   439061 
 4595000   0.60013901   -4.3606621   -4.3606621   -3.4604557 0.0052012637   -4.3606621   0.90020646   439061 
 4596000   0.60044749   -4.3610646   -4.3610646   -3.4603955 0.0097570178   -4.3610646   0.90066918   439061 
 4597000   0.60085577   -4.3613483   -4.3613483   -3.4600667 0.0085638651   -4.3613483    0.9012816   439061 
 4598000   0.60027671   -4.3603924   -4.3603924   -3.4599794 0.0069673328   -4.3603924   0.90041301   439061 
 4599000    0.5998001   -4.3599332   -4.3599332   -3.4602351 0.0056252126   -4.3599332   0.89969809   439061 
 4600000    0.6007829   -4.3619598   -4.3619598   -3.4607876 -0.004527793   -4.3619598    0.9011723   439061 
 4601000   0.59855818   -4.3592698   -4.3592698   -3.4614345 0.0014297898   -4.3592698   0.89783522   439061 
 4602000   0.59932564   -4.3608748   -4.3608748   -3.4618884 0.00059503843   -4.3608748   0.89898641   439061 
 4603000   0.59842236   -4.3590465   -4.3590465    -3.461415 0.0030054317   -4.3590465   0.89763149   439061 
 4604000   0.59869108    -4.359544    -4.359544   -3.4615094 0.0023714871    -4.359544   0.89803458   439061 
 4605000   0.59959987   -4.3615608   -4.3615608    -3.462163 0.0001813276   -4.3615608   0.89939776   439061 
 4606000    0.5995508    -4.361806    -4.361806   -3.4624818 0.0044683905    -4.361806   0.89932415   439061 
 4607000   0.59863156   -4.3601402   -4.3601402   -3.4621949 0.0079311582   -4.3601402    0.8979453   439061 
 4608000   0.60005188   -4.3618155   -4.3618155   -3.4617397 0.0055854884   -4.3618155   0.90007577   439061 
 4609000   0.59977057   -4.3620353   -4.3620353   -3.4623815 0.0083536586   -4.3620353    0.8996538   439061 
 4610000   0.60013263   -4.3631737   -4.3631737   -3.4629769 0.0057667603   -4.3631737   0.90019689   439061 
 4611000   0.59954785   -4.3622614   -4.3622614   -3.4629416 0.0068579342   -4.3622614   0.89931973   439061 
 4612000   0.59863756    -4.361398    -4.361398   -3.4634437 0.0052511445    -4.361398    0.8979543   439061 
 4613000   0.59865572   -4.3610912   -4.3610912   -3.4631097 0.0057376187   -4.3610912   0.89798153   439061 
 4614000   0.59989122   -4.3623881   -4.3623881   -3.4625534 0.0022672368   -4.3623881   0.89983479   439061 
 4615000   0.59902629   -4.3602561   -4.3602561   -3.4617187 0.0069366478   -4.3602561   0.89853739   439061 
 4616000   0.59884702   -4.3594881   -4.3594881   -3.4612196 0.0066792418   -4.3594881   0.89826848   439061 
 4617000   0.59920809   -4.3608065   -4.3608065   -3.4619964 0.0034281339   -4.3608065   0.89881009   439061 
 4618000    0.5984539   -4.3599281   -4.3599281   -3.4622493 0.0022599583   -4.3599281    0.8976788   439061 
 4619000    0.6002172   -4.3617452   -4.3617452   -3.4614215 0.0036333299   -4.3617452   0.90032376   439061 
 4620000   0.59943366   -4.3606059   -4.3606059   -3.4614575 0.0011821636   -4.3606059   0.89914844   439061 
 4621000   0.59864405   -4.3586455   -4.3586455   -3.4606815 0.0085478625   -4.3586455   0.89796403   439061 
 4622000   0.59948977   -4.3598593   -4.3598593   -3.4606267 0.0043158617   -4.3598593    0.8992326   439061 
 4623000   0.59886385   -4.3596038   -4.3596038   -3.4613101 0.0056440265   -4.3596038   0.89829373   439061 
 4624000   0.60023641   -4.3594609   -4.3594609   -3.4591083 0.0055625297   -4.3594609   0.90035257   439061 
 4625000   0.60016401   -4.3606978   -4.3606978   -3.4604539 0.0062092417   -4.3606978   0.90024397   439061 
 4626000   0.59895378   -4.3597244   -4.3597244   -3.4612958 0.0073823767   -4.3597244   0.89842863   439061 
 4627000   0.59916887   -4.3598767   -4.3598767   -3.4611254 0.0020164305   -4.3598767   0.89875127   439061 
 4628000   0.59873378    -4.359561    -4.359561   -3.4614624  0.002416827    -4.359561   0.89809863   439061 
 4629000   0.59972568   -4.3611271   -4.3611271   -3.4615406  0.003126908   -4.3611271   0.89958647   439061 
 4630000   0.59984107   -4.3605817   -4.3605817   -3.4608222 0.0074460716   -4.3605817   0.89975955   439061 
 4631000   0.60096924   -4.3618956   -4.3618956   -3.4604438 0.0070867374   -4.3618956   0.90145181   439061 
 4632000   0.59935649   -4.3594558   -4.3594558   -3.4604231 0.0091318105   -4.3594558   0.89903269   439061 
 4633000   0.59983448   -4.3604181   -4.3604181   -3.4606685 0.0026427742   -4.3604181   0.89974967   439061 
 4634000   0.59895466   -4.3593175   -4.3593175   -3.4608876 0.0036316205   -4.3593175   0.89842995   439061 
 4635000   0.59906817    -4.358744    -4.358744   -3.4601438 0.0056013088    -4.358744   0.89860021   439061 
 4636000   0.59998021   -4.3611965   -4.3611965   -3.4612282 0.0034240675   -4.3611965   0.89996827   439061 
 4637000   0.59929896   -4.3599687   -4.3599687   -3.4610223 0.0044587392   -4.3599687   0.89894639   439061 
 4638000   0.59875054    -4.358789    -4.358789   -3.4606652 0.0055695179    -4.358789   0.89812377   439061 
 4639000   0.59840404   -4.3585351   -4.3585351   -3.4609311 0.0061082299   -4.3585351   0.89760401   439061 
 4640000   0.59905558   -4.3602894   -4.3602894   -3.4617081 0.0024038333   -4.3602894   0.89858132   439061 
 4641000   0.59936246   -4.3613021   -4.3613021   -3.4622605 0.0031939372   -4.3613021   0.89904164   439061 
 4642000   0.59997357   -4.3614317   -4.3614317   -3.4614734 0.0041764615   -4.3614317    0.8999583   439061 
 4643000   0.59935943   -4.3607276   -4.3607276   -3.4616906 0.0043610094   -4.3607276   0.89903709   439061 
 4644000   0.59957808   -4.3606771   -4.3606771   -3.4613121 0.0022947263   -4.3606771   0.89936507   439061 
 4645000    0.5995086   -4.3619971   -4.3619971   -3.4627362  0.006182064   -4.3619971   0.89926086   439061 
 4646000   0.59863387   -4.3604659   -4.3604659   -3.4625171 0.0062073455   -4.3604659   0.89794876   439061 
 4647000   0.59941955    -4.361754    -4.361754   -3.4626267  0.003114047    -4.361754   0.89912728   439061 
 4648000   0.60001922   -4.3623149   -4.3623149   -3.4622881 0.0009298978   -4.3623149   0.90002678   439061 
 4649000   0.59890991    -4.361882    -4.361882   -3.4635191 0.0022282895    -4.361882   0.89836282   439061 
 4650000   0.59883458   -4.3614462   -4.3614462   -3.4631964 0.0056318818   -4.3614462   0.89824983   439061 
 4651000   0.59847505    -4.360015    -4.360015   -3.4623045  0.011676178    -4.360015   0.89771053   439061 
 4652000   0.59898636   -4.3613569   -4.3613569   -3.4628794 0.0073626154   -4.3613569   0.89847749   439061 
 4653000   0.59982747   -4.3621815   -4.3621815   -3.4624424 0.0050259674   -4.3621815   0.89973916   439061 
 4654000   0.60037739   -4.3625842   -4.3625842   -3.4620202 0.0031682434   -4.3625842   0.90056403   439061 
 4655000   0.59950469   -4.3625435   -4.3625435   -3.4632885 0.0024106503   -4.3625435   0.89925498   439061 
 4656000   0.59834334   -4.3603676   -4.3603676   -3.4628547 0.0070401339   -4.3603676   0.89751297   439061 
 4657000   0.59996837   -4.3617347   -4.3617347   -3.4617842 0.0067589583   -4.3617347   0.89995051   439061 
 4658000   0.60035027   -4.3622611   -4.3622611   -3.4617377 0.0016354951   -4.3622611   0.90052335   439061 
 4659000   0.59843861   -4.3596628   -4.3596628   -3.4620069 0.0066469512   -4.3596628   0.89765587   439061 
 4660000   0.59937009   -4.3615721   -4.3615721    -3.462519  0.000583455   -4.3615721   0.89905309   439061 
 4661000   0.59941003   -4.3608756   -4.3608756   -3.4617626 0.0043710955   -4.3608756     0.899113   439061 
 4662000   0.59888295   -4.3602313   -4.3602313   -3.4619089 0.0053584687   -4.3602313   0.89832238   439061 
 4663000   0.60004627   -4.3619752   -4.3619752   -3.4619078 0.0048289165   -4.3619752   0.90006736   439061 
 4664000   0.60003095   -4.3613979   -4.3613979   -3.4613536 0.0057630096   -4.3613979   0.90004437   439061 
 4665000   0.59938066   -4.3601837   -4.3601837   -3.4611148  0.011374985   -4.3601837   0.89906895   439061 
 4666000   0.60037119   -4.3619012   -4.3619012   -3.4613465 0.0013086629   -4.3619012   0.90055473   439061 
 4667000   0.59935436   -4.3599747   -4.3599747   -3.4609452 0.0073729957   -4.3599747   0.89902949   439061 
 4668000   0.59959443   -4.3605635   -4.3605635   -3.4611739 0.0039390661   -4.3605635    0.8993896   439061 
 4669000    0.5995453   -4.3610905   -4.3610905   -3.4617746 0.0017452022   -4.3610905    0.8993159   439061 
 4670000   0.59974888   -4.3604967   -4.3604967   -3.4608754 0.0013282177   -4.3604967   0.89962127   439061 
 4671000   0.60003037   -4.3614512   -4.3614512   -3.4614077 0.0012354395   -4.3614512   0.90004351   439061 
 4672000   0.59973009   -4.3606608   -4.3606608   -3.4610677 0.0037616206   -4.3606608   0.89959309   439061 
 4673000   0.59965237   -4.3612602   -4.3612602   -3.4617837 0.0043702741   -4.3612602   0.89947651   439061 
 4674000   0.59887604   -4.3607575   -4.3607575   -3.4624455 0.0039304228   -4.3607575   0.89831201   439061 
 4675000   0.59956503   -4.3612955   -4.3612955     -3.46195 0.0037021133   -4.3612955    0.8993455   439061 
 4676000   0.59907194    -4.359876    -4.359876   -3.4612701 0.0078804665    -4.359876   0.89860586   439061 
 4677000   0.59914711   -4.3603137   -4.3603137   -3.4615951  0.010754863   -4.3603137   0.89871862   439061 
 4678000   0.59998602   -4.3613808   -4.3613808   -3.4614038 0.0077039732   -4.3613808   0.89997698   439061 
 4679000   0.60001746   -4.3625723   -4.3625723   -3.4625482 0.0039708272   -4.3625723   0.90002413   439061 
 4680000   0.59841092   -4.3596287   -4.3596287   -3.4620144 0.0017158712   -4.3596287   0.89761434   439061 
 4681000   0.59916857    -4.360304    -4.360304   -3.4615532 0.0049905397    -4.360304   0.89875081   439061 
 4682000   0.59976701   -4.3609864   -4.3609864   -3.4613379 0.0052820112   -4.3609864   0.89964847   439061 
 4683000   0.59955317   -4.3606343   -4.3606343   -3.4613066 0.0047987385   -4.3606343    0.8993277   439061 
 4684000    0.6005928   -4.3614682   -4.3614682   -3.4605811 0.0041143236   -4.3614682   0.90088714   439061 
 4685000   0.59882896   -4.3591354   -4.3591354    -3.460894 0.0053880078   -4.3591354   0.89824139   439061 
 4686000   0.59906339   -4.3588866   -4.3588866   -3.4602936 0.0031341362   -4.3588866   0.89859304   439061 
 4687000   0.59959698   -4.3588434   -4.3588434     -3.45945  0.010032158   -4.3588434   0.89939342   439061 
 4688000   0.59974674   -4.3597612   -4.3597612   -3.4601431 0.0087224547   -4.3597612   0.89961806   439061 
 4689000    0.6003622   -4.3603013   -4.3603013   -3.4597601 0.0017372784   -4.3603013   0.90054125   439061 
 4690000   0.60015028   -4.3589793   -4.3589793   -3.4587559 0.0012437597   -4.3589793   0.90022337   439061 
 4691000   0.59864579   -4.3577993   -4.3577993   -3.4598326 0.0036799305   -4.3577993   0.89796665   439061 
 4692000   0.60013574   -4.3591257   -4.3591257   -3.4589241 -0.0011490916   -4.3591257   0.90020156   439061 
 4693000   0.60071532   -4.3595615   -4.3595615   -3.4584906  0.003269574   -4.3595615   0.90107093   439061 
 4694000   0.59927494   -4.3576036   -4.3576036   -3.4586932 0.0029368678   -4.3576036   0.89891036   439061 
 4695000   0.59914962     -4.35808     -4.35808   -3.4593576 0.00033626121     -4.35808   0.89872239   439061 
 4696000   0.59990206   -4.3593387   -4.3593387   -3.4594877  0.002311989   -4.3593387   0.89985104   439061 
 4697000   0.59893637   -4.3584101   -4.3584101   -3.4600076 0.0033440668   -4.3584101    0.8984025   439061 
 4698000   0.59935793   -4.3587041   -4.3587041   -3.4596693 0.0091785121   -4.3587041   0.89903485   439061 
 4699000   0.60024002   -4.3596239   -4.3596239   -3.4592659 0.0065375832   -4.3596239   0.90035799   439061 
 4700000   0.60018826   -4.3591957   -4.3591957   -3.4589154 0.0077089715   -4.3591957   0.90028034   439061 
 4701000   0.60085042   -4.3601342   -4.3601342   -3.4588606 0.0065287467   -4.3601342   0.90127358   439061 
 4702000   0.60095216   -4.3604445   -4.3604445   -3.4590183  0.010386674   -4.3604445   0.90142619   439061 
 4703000   0.60127487    -4.361766    -4.361766   -3.4598558 0.0073890207    -4.361766   0.90191026   439061 
 4704000   0.59982124   -4.3596771   -4.3596771   -3.4599472 0.0073267592   -4.3596771   0.89972981   439061 
 4705000   0.59868869   -4.3580052   -4.3580052   -3.4599742  0.005415622   -4.3580052   0.89803099   439061 
 4706000   0.59958278   -4.3578779   -4.3578779   -3.4585058 0.0058980878   -4.3578779   0.89937212   439061 
 4707000   0.59977243   -4.3582779   -4.3582779   -3.4586213  0.003692533   -4.3582779    0.8996566   439061 
 4708000   0.60058944   -4.3579383   -4.3579383   -3.4570562 0.0042576154   -4.3579383   0.90088211   439061 
 4709000   0.59952157   -4.3572466   -4.3572466   -3.4579663 0.0044067346   -4.3572466   0.89928031   439061 
 4710000   0.59942858     -4.35676     -4.35676   -3.4576192 0.0013761724     -4.35676   0.89914082   439061 
 4711000   0.59967717   -4.3565275   -4.3565275   -3.4570138 0.0024216442   -4.3565275   0.89951371   439061 
 4712000   0.60042076   -4.3578299   -4.3578299   -3.4572009 -0.00035511878   -4.3578299   0.90062909   439061 
 4713000   0.60016848   -4.3577087   -4.3577087    -3.457458 0.0038923263   -4.3577087   0.90025067   439061 
 4714000   0.59966217   -4.3565254   -4.3565254   -3.4570342 0.0039329102   -4.3565254    0.8994912   439061 
 4715000   0.60011936   -4.3577474   -4.3577474   -3.4575704 0.0035428102   -4.3577474   0.90017699   439061 
 4716000   0.60061742   -4.3579284   -4.3579284   -3.4570044 0.0028085607   -4.3579284   0.90092408   439061 
 4717000   0.60229474   -4.3598918   -4.3598918   -3.4564518 0.0057301404   -4.3598918   0.90344005   439061 
 4718000    0.5990824   -4.3564761   -4.3564761   -3.4578545 0.0097805603   -4.3564761   0.89862156   439061 
 4719000   0.60142601   -4.3591638   -4.3591638   -3.4570268 0.0047100776   -4.3591638   0.90213696   439061 
 4720000    0.6006041   -4.3586382   -4.3586382   -3.4577341 0.0013526342   -4.3586382   0.90090409   439061 
 4721000   0.59944586   -4.3570429   -4.3570429   -3.4578761  0.003515643   -4.3570429   0.89916675   439061 
 4722000   0.60019989   -4.3580277   -4.3580277   -3.4577299 0.0044458925   -4.3580277   0.90029778   439061 
 4723000   0.59965527   -4.3575481   -4.3575481   -3.4580672 0.0016004098   -4.3575481   0.89948086   439061 
 4724000   0.59925913   -4.3570303   -4.3570303   -3.4581437 0.0088284808   -4.3570303   0.89888665   439061 
 4725000   0.59993583   -4.3570766   -4.3570766   -3.4571749 0.0080300913   -4.3570766   0.89990169   439061 
 4726000   0.59951589   -4.3566112   -4.3566112   -3.4573394 0.0016298354   -4.3566112   0.89927179   439061 
 4727000   0.60137871   -4.3597481   -4.3597481   -3.4576821 0.0019434696   -4.3597481   0.90206601   439061 
 4728000   0.59971375   -4.3571497   -4.3571497   -3.4575811 0.0059991346   -4.3571497   0.89956857   439061 
 4729000   0.59959394   -4.3575385   -4.3575385   -3.4581496 0.00065146503   -4.3575385   0.89938886   439061 
 4730000   0.60005595   -4.3579114   -4.3579114   -3.4578295 0.00030685891   -4.3579114   0.90008188   439061 
 4731000   0.59953618   -4.3571188   -4.3571188   -3.4578166 0.0079411435   -4.3571188   0.89930223   439061 
 4732000   0.60003722   -4.3586545   -4.3586545   -3.4586007 0.0018365046   -4.3586545   0.90005379   439061 
 4733000   0.60044972   -4.3585518   -4.3585518   -3.4578793 0.0052027078   -4.3585518   0.90067253   439061 
 4734000    0.6003358   -4.3594585   -4.3594585   -3.4589568 0.0024306712   -4.3594585   0.90050165   439061 
 4735000   0.59959903    -4.358703    -4.358703   -3.4593066 0.0062764326    -4.358703   0.89939649   439061 
 4736000   0.59996702   -4.3590035   -4.3590035   -3.4590551  0.005988893   -4.3590035   0.89994848   439061 
 4737000   0.60058384   -4.3594999   -4.3594999   -3.4586262 0.0095948832   -4.3594999   0.90087371   439061 
 4738000    0.6001698   -4.3596755   -4.3596755   -3.4594229 0.0092843797   -4.3596755   0.90025265   439061 
 4739000   0.59996765   -4.3591288   -4.3591288   -3.4591794 0.0047774591   -4.3591288   0.89994943   439061 
 4740000   0.60081074   -4.3601241   -4.3601241     -3.45891 0.0059112214   -4.3601241   0.90121406   439061 
 4741000   0.59857688   -4.3579415   -4.3579415   -3.4600782 0.0039932612   -4.3579415   0.89786328   439061 
 4742000   0.59992697   -4.3600301   -4.3600301   -3.4601417 -0.0018219562   -4.3600301    0.8998884   439061 
 4743000   0.59962054   -4.3594285   -4.3594285   -3.4599997 0.0029761787   -4.3594285   0.89942876   439061 
 4744000    0.5988746   -4.3582194   -4.3582194   -3.4599096 0.0026072516   -4.3582194   0.89830986   439061 
 4745000   0.59971615   -4.3608024   -4.3608024   -3.4612303 0.00011121291   -4.3608024   0.89957218   439061 
 4746000   0.59880724   -4.3590791   -4.3590791   -3.4608703 0.0066173521   -4.3590791   0.89820881   439061 
 4747000   0.60012728   -4.3605295   -4.3605295   -3.4603406 0.0016819687   -4.3605295   0.90018888   439061 
 4748000    0.5999122   -4.3592525   -4.3592525   -3.4593862 0.0071486829   -4.3592525   0.89986626   439061 
 4749000   0.59883467   -4.3583388   -4.3583388   -3.4600889 0.0070552059   -4.3583388   0.89824996   439061 
 4750000   0.59985045   -4.3597938   -4.3597938   -3.4600202 0.0090777019   -4.3597938   0.89977363   439061 
 4751000   0.60099347   -4.3615499   -4.3615499   -3.4600618 0.0063887982   -4.3615499   0.90148815   439061 
 4752000   0.59985726   -4.3593689   -4.3593689   -3.4595851 0.0081651448   -4.3593689   0.89978385   439061 
 4753000   0.59920828   -4.3589463   -4.3589463   -3.4601359 0.0085642667   -4.3589463   0.89881038   439061 
 4754000   0.60092514   -4.3618637   -4.3618637    -3.460478 -0.00091190591   -4.3618637   0.90138566   439061 
 4755000   0.59995728   -4.3605065   -4.3605065   -3.4605726 0.0054108346   -4.3605065   0.89993387   439061 
 4756000   0.59931876   -4.3591227   -4.3591227   -3.4601466 0.0043012662   -4.3591227   0.89897609   439061 
 4757000   0.59968313   -4.3594857   -4.3594857    -3.459963   0.00330818   -4.3594857   0.89952264   439061 
 4758000   0.59906353   -4.3588949   -4.3588949   -3.4603016 0.0067396889   -4.3588949   0.89859325   439061 
 4759000   0.59954376   -4.3594229   -4.3594229   -3.4601093 0.0068247098   -4.3594229   0.89931359   439061 
 4760000     0.600051   -4.3600308   -4.3600308   -3.4599564 0.0064166916   -4.3600308   0.90007445   439061 
 4761000   0.60003713   -4.3593803   -4.3593803   -3.4593266 0.0028084264   -4.3593803   0.90005365   439061 
 4762000    0.5993195    -4.358734    -4.358734   -3.4597567 0.0016333478    -4.358734   0.89897721   439061 
 4763000   0.60050512   -4.3604815   -4.3604815   -3.4597259 0.0010332419   -4.3604815   0.90075562   439061 
 4764000   0.60055755   -4.3597624   -4.3597624   -3.4589281 0.0021120137   -4.3597624   0.90083428   439061 
 4765000   0.60057326   -4.3582472   -4.3582472   -3.4573894 0.0088489936   -4.3582472   0.90085783   439061 
 4766000   0.60049757   -4.3586518   -4.3586518   -3.4579075 0.0041768214   -4.3586518    0.9007443   439061 
 4767000   0.59958127   -4.3578089   -4.3578089    -3.458439 0.0078991112   -4.3578089   0.89936986   439061 
 4768000   0.59967139    -4.358013    -4.358013    -3.458508 0.0038447691    -4.358013   0.89950503   439061 
 4769000   0.59939845   -4.3576017   -4.3576017    -3.458506 0.0075209817   -4.3576017   0.89909563   439061 
 4770000    0.6001661   -4.3589889   -4.3589889   -3.4587418 0.0026335132   -4.3589889    0.9002471   439061 
 4771000    0.5996104   -4.3584214   -4.3584214   -3.4590078 0.0023598613   -4.3584214   0.89941356   439061 
 4772000   0.59932573   -4.3586267   -4.3586267   -3.4596402 0.0048179313   -4.3586267   0.89898655   439061 
 4773000   0.59948507   -4.3574934   -4.3574934   -3.4582679 0.0052775755   -4.3574934   0.89922555   439061 
 4774000   0.59989031   -4.3598808   -4.3598808   -3.4600474 0.0052547619   -4.3598808   0.89983341   439061 
 4775000   0.60081221   -4.3597781   -4.3597781   -3.4585618 0.0066908111   -4.3597781   0.90121627   439061 
 4776000   0.60145392    -4.360848    -4.360848   -3.4586692 0.0091211878    -4.360848   0.90217883   439061 
 4777000   0.60104063   -4.3606729   -4.3606729    -3.459114 0.0024937723   -4.3606729    0.9015589   439061 
 4778000    0.6000599   -4.3594263   -4.3594263   -3.4593385 0.0075139821   -4.3594263   0.90008779   439061 
 4779000   0.59958244   -4.3600846   -4.3600846    -3.460713 0.0053260824   -4.3600846   0.89937161   439061 
 4780000   0.59954711   -4.3607777   -4.3607777   -3.4614591 0.0062759006   -4.3607777   0.89931862   439061 
 4781000   0.59877652   -4.3597776   -4.3597776   -3.4616149 0.0018233821   -4.3597776   0.89816274   439061 
 4782000   0.59917533   -4.3596816   -4.3596816   -3.4609207 0.0033646613   -4.3596816   0.89876095   439061 
 4783000   0.59968538   -4.3605904   -4.3605904   -3.4610643 0.0043570435   -4.3605904   0.89952602   439061 
 4784000   0.59970569   -4.3605276   -4.3605276   -3.4609711 0.0038529385   -4.3605276   0.89955649   439061 
 4785000    0.5999499   -4.3610426   -4.3610426   -3.4611198  0.003987381   -4.3610426    0.8999228   439061 
 4786000   0.59869019    -4.359544    -4.359544   -3.4615108  0.009604604    -4.359544   0.89803323   439061 
 4787000   0.60029955   -4.3607004   -4.3607004   -3.4602531 0.0021392083   -4.3607004   0.90044727   439061 
 4788000   0.59935846   -4.3591731   -4.3591731   -3.4601374 0.0063685028   -4.3591731   0.89903564   439061 
 4789000     0.599686   -4.3594828   -4.3594828   -3.4599559 0.0069390733   -4.3594828   0.89952695   439061 
 4790000   0.59896313      -4.3584      -4.3584   -3.4599573 0.0039708895      -4.3584   0.89844265   439061 
 4791000   0.59854655   -4.3575219   -4.3575219   -3.4597041 0.0037683703   -4.3575219   0.89781778   439061 
 4792000   0.59975962   -4.3592444   -4.3592444    -3.459607 0.0018166037   -4.3592444   0.89963739   439061 
 4793000   0.60013685   -4.3599243   -4.3599243    -3.459721 0.0023608217   -4.3599243   0.90020323   439061 
 4794000   0.59989794   -4.3587352   -4.3587352   -3.4588904 0.0036114161   -4.3587352   0.89984486   439061 
 4795000   0.60033901   -4.3593851   -4.3593851   -3.4588787  0.003181716   -4.3593851   0.90050646   439061 
 4796000   0.60023402   -4.3600051   -4.3600051   -3.4596561 0.00011844007   -4.3600051   0.90034898   439061 
 4797000   0.59977232   -4.3580375   -4.3580375    -3.458381 0.0057046509   -4.3580375   0.89965644   439061 
 4798000   0.60061945   -4.3591587   -4.3591587   -3.4582315 0.0069912779   -4.3591587   0.90092713   439061 
 4799000   0.60080445   -4.3591551   -4.3591551   -3.4579505 0.0053581398   -4.3591551   0.90120462   439061 
 4800000   0.60039491   -4.3589413   -4.3589413    -3.458351 0.0034048063   -4.3589413   0.90059032   439061 
 4801000   0.60034559   -4.3597798   -4.3597798   -3.4592634  0.006111627   -4.3597798   0.90051633   439061 
 4802000   0.60008432   -4.3589677   -4.3589677   -3.4588432 0.0071436484   -4.3589677   0.90012443   439061 
 4803000   0.60008616   -4.3590368   -4.3590368   -3.4589096 0.0078412369   -4.3590368   0.90012719   439061 
 4804000   0.60017192   -4.3585614   -4.3585614   -3.4583055 0.0059654104   -4.3585614   0.90025583   439061 
 4805000   0.59958034   -4.3585898   -4.3585898   -3.4592213 0.0066408886   -4.3585898   0.89936846   439061 
 4806000    0.6006961   -4.3601553   -4.3601553   -3.4591132 0.0066954756   -4.3601553    0.9010421   439061 
 4807000   0.60131648   -4.3611295   -4.3611295   -3.4591569 -0.0017998308   -4.3611295   0.90197266   439061 
 4808000   0.59921936   -4.3592384   -4.3592384   -3.4604114 0.0046483594   -4.3592384     0.898827   439061 
 4809000    0.5988868   -4.3591154   -4.3591154   -3.4607873 0.0042828501   -4.3591154   0.89832816   439061 
 4810000    0.5998328   -4.3601459   -4.3601459   -3.4603988 0.0029597417   -4.3601459   0.89974715   439061 
 4811000   0.60003948   -4.3602161   -4.3602161    -3.460159 0.0086571814   -4.3602161   0.90005717   439061 
 4812000   0.59996901    -4.360313    -4.360313   -3.4603616  0.012265002    -4.360313   0.89995147   439061 
 4813000   0.60103082   -4.3620134   -4.3620134   -3.4604692 0.0066037344   -4.3620134   0.90154418   439061 
 4814000   0.59968827   -4.3605838   -4.3605838   -3.4610534 0.0090803606   -4.3605838   0.89953036   439061 
 4815000   0.59907299   -4.3595575   -4.3595575   -3.4609501 0.0077443247   -4.3595575   0.89860744   439061 
 4816000   0.60045433   -4.3615255   -4.3615255    -3.460846 0.0032076046   -4.3615255   0.90067945   439061 
 4817000   0.60037727   -4.3616792   -4.3616792   -3.4611153 0.0050250622   -4.3616792   0.90056385   439061 
 4818000   0.59962002   -4.3607354   -4.3607354   -3.4613074 0.0044988297   -4.3607354   0.89942798   439061 
 4819000    0.5976452   -4.3584535   -4.3584535   -3.4619878 0.0050405642   -4.3584535   0.89646575   439061 
 4820000   0.59844622    -4.359331    -4.359331   -3.4616637 0.0071016916    -4.359331   0.89766728   439061 
 4821000   0.59963093   -4.3606597   -4.3606597   -3.4612154 0.0058874058   -4.3606597   0.89944434   439061 
 4822000   0.59852625   -4.3585836   -4.3585836   -3.4607962  0.011216401   -4.3585836   0.89778733   439061 
 4823000   0.59951034   -4.3604133   -4.3604133   -3.4611498 0.0076786399   -4.3604133   0.89926347   439061 
 4824000   0.60077469   -4.3614138   -4.3614138   -3.4602538 0.0052761236   -4.3614138   0.90115998   439061 
 4825000   0.59956847   -4.3602382   -4.3602382   -3.4608876 0.0060516517   -4.3602382   0.89935065   439061 
 4826000   0.59917434   -4.3590381   -4.3590381   -3.4602786 0.0068277979   -4.3590381   0.89875947   439061 
 4827000   0.59916826   -4.3579257   -4.3579257   -3.4591754 0.0092470499   -4.3579257   0.89875035   439061 
 4828000    0.5995721   -4.3595138   -4.3595138   -3.4601577 0.0036027292   -4.3595138    0.8993561   439061 
 4829000   0.59908363   -4.3592995   -4.3592995   -3.4606761 0.0059695847   -4.3592995    0.8986234   439061 
 4830000     0.599573   -4.3591669   -4.3591669   -3.4598095 0.0051126109   -4.3591669   0.89935745   439061 
 4831000   0.60035776   -4.3601115   -4.3601115   -3.4595769 -0.0015295613   -4.3601115   0.90053459   439061 
 4832000   0.60002273   -4.3599426   -4.3599426   -3.4599105 0.0061996062   -4.3599426   0.90003204   439061 
 4833000   0.59908712    -4.358647    -4.358647   -3.4600184  0.006190653    -4.358647   0.89862864   439061 
 4834000   0.59921588   -4.3589294   -4.3589294   -3.4601076 0.0055210169   -4.3589294   0.89882177   439061 
 4835000   0.60039582   -4.3604529   -4.3604529   -3.4598612 0.0050301356   -4.3604529   0.90059167   439061 
 4836000   0.60029489   -4.3597614   -4.3597614   -3.4593211  0.004709916   -4.3597614   0.90044028   439061 
 4837000   0.59955478   -4.3588736   -4.3588736   -3.4595435 0.0053902908   -4.3588736   0.89933012   439061 
 4838000   0.60060469   -4.3597602   -4.3597602   -3.4588552 0.0070367965   -4.3597602   0.90090499   439061 
 4839000   0.60058067   -4.3592467   -4.3592467   -3.4583777 0.0084780587   -4.3592467   0.90086896   439061 
 4840000   0.60105111   -4.3600429   -4.3600429   -3.4584683 0.0054013417   -4.3600429   0.90157461   439061 
 4841000    0.5997616   -4.3583474   -4.3583474    -3.458707 0.0048554009   -4.3583474   0.89964035   439061 
 4842000   0.59933753   -4.3585537   -4.3585537   -3.4595495 0.0069951301   -4.3585537   0.89900424   439061 
 4843000   0.59957552   -4.3585034   -4.3585034   -3.4591422 0.0049882493   -4.3585034   0.89936123   439061 
 4844000   0.60029837   -4.3602178   -4.3602178   -3.4597723 -0.001366442   -4.3602178   0.90044551   439061 
 4845000   0.59952372   -4.3586574   -4.3586574   -3.4593739 0.0023133398   -4.3586574   0.89928353   439061 
 4846000   0.60024869   -4.3596558   -4.3596558   -3.4592848 0.0038743346   -4.3596558   0.90037098   439061 
 4847000   0.59955327   -4.3570026   -4.3570026   -3.4576747 0.0048144548   -4.3570026   0.89932786   439061 
 4848000   0.60084403   -4.3586986   -4.3586986   -3.4574346 0.0032868069   -4.3586986   0.90126399   439061 
 4849000   0.60008275   -4.3574043   -4.3574043   -3.4572822 0.0058377758   -4.3574043   0.90012207   439061 
 4850000   0.59962088   -4.3572872   -4.3572872    -3.457858 0.0062189784   -4.3572872   0.89942927   439061 
 4851000   0.59883626   -4.3572509   -4.3572509   -3.4589986  0.006596642   -4.3572509   0.89825235   439061 
 4852000   0.60060497   -4.3586563   -4.3586563   -3.4577509 0.0038607413   -4.3586563   0.90090541   439061 
 4853000   0.59998489   -4.3588928   -4.3588928   -3.4589175 0.0038649303   -4.3588928   0.89997528   439061 
 4854000   0.60104852   -4.3597534   -4.3597534   -3.4581827  0.003346618   -4.3597534   0.90157072   439061 
 4855000   0.60021152   -4.3585435   -4.3585435   -3.4582282 0.0071484082   -4.3585435   0.90031524   439061 
 4856000   0.60058855   -4.3596162   -4.3596162   -3.4587354 0.0065107566   -4.3596162   0.90088077   439061 
 4857000   0.59942142   -4.3577268   -4.3577268   -3.4585967 0.0088735766   -4.3577268   0.89913009   439061 
 4858000   0.59912356   -4.3582231   -4.3582231   -3.4595398 0.0048841152   -4.3582231   0.89868329   439061 
 4859000   0.60066528   -4.3602467   -4.3602467   -3.4592509 0.0029235028   -4.3602467   0.90099587   439061 
 4860000   0.60005389   -4.3588394   -4.3588394   -3.4587606 0.0068931567   -4.3588394   0.90007878   439061 
 4861000    0.6002689   -4.3591279   -4.3591279   -3.4587266 0.0040544899   -4.3591279    0.9004013   439061 
 4862000   0.60124116   -4.3605564   -4.3605564   -3.4586967 0.0047887715   -4.3605564   0.90185968   439061 
 4863000   0.60021465   -4.3598938   -4.3598938   -3.4595738 0.0038181482   -4.3598938   0.90031992   439061 
 4864000   0.59976061   -4.3588715   -4.3588715   -3.4592327 0.0051097261   -4.3588715   0.89963886   439061 
 4865000   0.59933659   -4.3579884   -4.3579884   -3.4589855 0.0066300096   -4.3579884   0.89900283   439061 
 4866000   0.59961288   -4.3583791   -4.3583791   -3.4589618 0.0081168001   -4.3583791   0.89941727   439061 
 4867000   0.60061019   -4.3587813   -4.3587813   -3.4578681  0.009459873   -4.3587813   0.90091323   439061 
 4868000   0.60091266    -4.358677    -4.358677     -3.45731 0.0074140401    -4.358677   0.90136694   439061 
 4869000   0.59909143   -4.3569895   -4.3569895   -3.4583544 0.0082279404   -4.3569895    0.8986351   439061 
 4870000   0.60001524   -4.3584378   -4.3584378    -3.458417 0.0003414453   -4.3584378   0.90002082   439061 
 4871000   0.59948644   -4.3581608   -4.3581608   -3.4589332 0.0021305678   -4.3581608   0.89922761   439061 
 4872000   0.60036207   -4.3593973   -4.3593973   -3.4588562 -0.0023675481   -4.3593973   0.90054105   439061 
 4873000   0.59985389   -4.3588734   -4.3588734   -3.4590946 0.0020823542   -4.3588734   0.89977879   439061 
 4874000   0.59806181   -4.3555411   -4.3555411   -3.4584504 0.0079642926   -4.3555411   0.89709067   439061 
 4875000   0.60004249   -4.3581343   -4.3581343   -3.4580726 0.0061211932   -4.3581343   0.90006169   439061 
 4876000   0.60020494   -4.3585964   -4.3585964    -3.458291 0.0074531259   -4.3585964   0.90030536   439061 
 4877000   0.60061324   -4.3596742   -4.3596742   -3.4587564 0.0085369733   -4.3596742   0.90091781   439061 
 4878000   0.60060399   -4.3592743   -4.3592743   -3.4583704 0.0086768814   -4.3592743   0.90090394   439061 
 4879000   0.60123195   -4.3600729   -4.3600729   -3.4582271 0.0069408498   -4.3600729   0.90184587   439061 
 4880000   0.60033033   -4.3585721   -4.3585721   -3.4580786  0.010261186   -4.3585721   0.90049344   439061 
 4881000   0.60032197   -4.3590996   -4.3590996   -3.4586187 0.0090690177   -4.3590996    0.9004809   439061 
 4882000   0.59926591   -4.3584534   -4.3584534   -3.4595566 0.0076379863   -4.3584534   0.89889682   439061 
 4883000   0.59857987   -4.3579102   -4.3579102   -3.4600424 0.0018004453   -4.3579102   0.89786777   439061 
 4884000   0.59878227   -4.3577099   -4.3577099   -3.4595385 -0.0001789544   -4.3577099   0.89817136   439061 
 4885000   0.59821459   -4.3570993   -4.3570993   -3.4597794 0.00062259688   -4.3570993   0.89731984   439061 
 4886000   0.59925498   -4.3586621   -4.3586621   -3.4597817 0.00034874864   -4.3586621   0.89888042   439061 
 4887000   0.59958184   -4.3593545   -4.3593545   -3.4599838 -0.0015970909   -4.3593545   0.89937072   439061 
 4888000   0.60001456   -4.3590301   -4.3590301   -3.4590103 0.0032315343   -4.3590301   0.90001979   439061 
 4889000   0.60077247   -4.3603155   -4.3603155   -3.4591588 0.0041033702   -4.3603155   0.90115665   439061 
 4890000   0.60010959   -4.3596131   -4.3596131   -3.4594508 0.0065604976   -4.3596131   0.90016233   439061 
 4891000   0.60063831   -4.3597001   -4.3597001   -3.4587446 0.0092826877   -4.3597001   0.90095541   439061 
 4892000    0.5996891    -4.359594    -4.359594   -3.4600624 0.0070841612    -4.359594    0.8995316   439061 
 4893000   0.59961863   -4.3595069   -4.3595069    -3.460081 0.0062012086   -4.3595069    0.8994259   439061 
 4894000   0.60089859   -4.3613813   -4.3613813   -3.4600355 0.0045210366   -4.3613813   0.90134584   439061 
 4895000   0.59972697   -4.3602529   -4.3602529   -3.4606645   0.00514142   -4.3602529    0.8995884   439061 
 4896000   0.59939144   -4.3601341   -4.3601341    -3.461049 0.0073380831   -4.3601341   0.89908512   439061 
 4897000   0.59966785   -4.3597324   -4.3597324   -3.4602326 0.0099130062   -4.3597324   0.89949972   439061 
 4898000   0.59841255   -4.3582431   -4.3582431   -3.4606263   0.00334449   -4.3582431   0.89761678   439061 
 4899000   0.59928748   -4.3594009   -4.3594009   -3.4604717 -0.0020548644   -4.3594009   0.89892918   439061 
 4900000   0.60008331   -4.3616192   -4.3616192   -3.4614962 -0.0002470124   -4.3616192   0.90012292   439061 
 4901000   0.59897693   -4.3612341   -4.3612341   -3.4627707 -0.00024544731   -4.3612341   0.89846334   439061 
 4902000   0.59904243   -4.3614353   -4.3614353   -3.4628737 0.0017769866   -4.3614353   0.89856159   439061 
 4903000   0.59961425   -4.3614755   -4.3614755   -3.4620562 0.0041146253   -4.3614755   0.89941932   439061 
 4904000    0.6001629    -4.362376    -4.362376   -3.4621337 0.0091202784    -4.362376    0.9002423   439061 
 4905000   0.59916095   -4.3616702   -4.3616702   -3.4629308 0.0070829523   -4.3616702   0.89873938   439061 
 4906000    0.5998302    -4.362445    -4.362445   -3.4627017  0.010957988    -4.362445   0.89974325   439061 
 4907000   0.59912056   -4.3621127   -4.3621127   -3.4634339  0.010497697   -4.3621127    0.8986788   439061 
 4908000   0.59929863    -4.362305    -4.362305   -3.4633591 0.0070819152    -4.362305   0.89894589   439061 
 4909000   0.59956843   -4.3639076   -4.3639076    -3.464557 0.0081001143   -4.3639076    0.8993506   439061 
 4910000   0.59874883   -4.3622448   -4.3622448   -3.4641236 0.0082102886   -4.3622448    0.8981212   439061 
 4911000   0.59948734   -4.3630277   -4.3630277   -3.4637988 0.0038872619   -4.3630277   0.89922896   439061 
 4912000   0.59954173   -4.3626449   -4.3626449   -3.4633343 0.0044430795   -4.3626449   0.89931055   439061 
 4913000   0.60019019   -4.3635749   -4.3635749   -3.4632917 -0.0011776316   -4.3635749   0.90028324   439061 
 4914000   0.59942862   -4.3615195   -4.3615195   -3.4623787 -0.00082279402   -4.3615195   0.89914089   439061 
 4915000   0.59867123   -4.3610063   -4.3610063   -3.4630015 0.0026882213   -4.3610063    0.8980048   439061 
 4916000   0.59952745   -4.3611532   -4.3611532   -3.4618641 0.0054449659   -4.3611532   0.89928913   439061 
 4917000   0.59874756   -4.3597929   -4.3597929   -3.4616736 0.0064087898   -4.3597929    0.8981193   439061 
 4918000   0.59959742   -4.3616793   -4.3616793   -3.4622852 0.0022738695   -4.3616793   0.89939409   439061 
 4919000   0.59969678   -4.3609677   -4.3609677   -3.4614246 0.0051723057   -4.3609677   0.89954313   439061 
 4920000   0.59999318   -4.3608585   -4.3608585   -3.4608708 0.0043982614   -4.3608585   0.89998771   439061 
 4921000   0.59891476   -4.3599083   -4.3599083   -3.4615382 0.0079735392   -4.3599083    0.8983701   439061 
 4922000   0.60039616    -4.362426    -4.362426   -3.4618338 0.0018177053    -4.362426   0.90059219   439061 
 4923000   0.59973703   -4.3615806   -4.3615806   -3.4619771 0.0044702085   -4.3615806    0.8996035   439061 
 4924000   0.59988553   -4.3619973   -4.3619973    -3.462171 0.00059290148   -4.3619973   0.89982625   439061 
 4925000   0.59952696    -4.361268    -4.361268   -3.4619797 0.0048816785    -4.361268    0.8992884   439061 
 4926000   0.59939537   -4.3617162   -4.3617162   -3.4626252 0.00019933395   -4.3617162   0.89909101   439061 
 4927000   0.60001178   -4.3618582   -4.3618582   -3.4618426 0.0023037949   -4.3618582   0.90001561   439061 
 4928000   0.59877866   -4.3606029   -4.3606029    -3.462437 0.0060439117   -4.3606029   0.89816595   439061 
 4929000   0.59965204   -4.3596977   -4.3596977   -3.4602217  0.010000189   -4.3596977   0.89947601   439061 
 4930000   0.60081132    -4.361009    -4.361009   -3.4597941 0.0060918577    -4.361009   0.90121493   439061 
 4931000   0.60097743   -4.3612852   -4.3612852   -3.4598211 0.0062885763   -4.3612852   0.90146409   439061 
 4932000   0.60094896   -4.3601484   -4.3601484    -3.458727 0.0055501382   -4.3601484   0.90142139   439061 
 4933000    0.5993835   -4.3578744   -4.3578744   -3.4588012 0.0069116558   -4.3578744    0.8990732   439061 
 4934000   0.59997795   -4.3594514   -4.3594514   -3.4594865 0.0010844647   -4.3594514   0.89996487   439061 
 4935000   0.59901967   -4.3583804   -4.3583804   -3.4598529   0.00244104   -4.3583804   0.89852746   439061 
 4936000    0.5978327   -4.3568159   -4.3568159   -3.4600689 0.0014332687   -4.3568159   0.89674701   439061 
 4937000   0.59851541   -4.3576873   -4.3576873   -3.4599162 0.0060498067   -4.3576873   0.89777107   439061 
 4938000   0.59919871   -4.3585809   -4.3585809   -3.4597849 0.0030579857   -4.3585809   0.89879602   439061 
 4939000   0.59974963   -4.3597333   -4.3597333   -3.4601109 0.0058536526   -4.3597333    0.8996224   439061 
 4940000   0.60062226   -4.3600653   -4.3600653    -3.459134 0.0043610407   -4.3600653   0.90093133   439061 
 4941000   0.60121643   -4.3608746   -4.3608746    -3.459052  0.007258615   -4.3608746   0.90182259   439061 
 4942000   0.60036817   -4.3598159   -4.3598159   -3.4592657  0.010312948   -4.3598159   0.90055021   439061 
 4943000   0.59988099   -4.3608481   -4.3608481   -3.4610286 0.0082849664   -4.3608481   0.89981944   439061 
 4944000   0.59968697   -4.3598221   -4.3598221   -3.4602937 0.0052035151   -4.3598221   0.89952841   439061 
 4945000   0.59996373    -4.360543    -4.360543   -3.4605995 0.0036282725    -4.360543   0.89994354   439061 
 4946000   0.59867686   -4.3593266   -4.3593266   -3.4613134 0.0047728968   -4.3593266   0.89801325   439061 
 4947000   0.59991773   -4.3598989   -4.3598989   -3.4600244 0.0064770876   -4.3598989   0.89987455   439061 
 4948000   0.59981301    -4.360906    -4.360906   -3.4611885 0.0037640944    -4.360906   0.89971747   439061 
 4949000   0.59978397   -4.3597132   -4.3597132   -3.4600393 0.0057184046   -4.3597132   0.89967391   439061 
 4950000   0.59957724   -4.3598931   -4.3598931   -3.4605293 0.00023876352   -4.3598931   0.89936381   439061 
 4951000   0.59896599   -4.3588913   -4.3588913   -3.4604444 0.0054488708   -4.3588913   0.89844694   439061 
 4952000   0.59916609   -4.3593909   -4.3593909   -3.4606438 0.0072199389   -4.3593909    0.8987471   439061 
 4953000   0.59929299   -4.3599274   -4.3599274     -3.46099 0.0072174259   -4.3599274   0.89893744   439061 
 4954000   0.60011174   -4.3611941   -4.3611941   -3.4610286 0.0030125599   -4.3611941   0.90016556   439061 
 4955000   0.59939513   -4.3602251   -4.3602251   -3.4611345 0.0062647304   -4.3602251   0.89909065   439061 
 4956000   0.59826509   -4.3583459   -4.3583459   -3.4609503 0.0087150965   -4.3583459   0.89739559   439061 
 4957000   0.59974083   -4.3611439   -4.3611439   -3.4615347 0.0041936083   -4.3611439   0.89960919   439061 
 4958000   0.60014803   -4.3621039   -4.3621039    -3.461884 0.0029042154   -4.3621039   0.90021999   439061 
 4959000   0.59896248   -4.3611089   -4.3611089   -3.4626672 0.0033851033   -4.3611089   0.89844168   439061 
 4960000   0.59956045   -4.3619823   -4.3619823   -3.4626436  0.004755388   -4.3619823   0.89933862   439061 
 4961000   0.59933609   -4.3620942   -4.3620942   -3.4630921 0.0020849704   -4.3620942   0.89900209   439061 
 4962000   0.59966287   -4.3623938   -4.3623938   -3.4629016 0.0034634719   -4.3623938   0.89949225   439061 
 4963000   0.59966018   -4.3609671   -4.3609671   -3.4614789 0.0093488095   -4.3609671   0.89948822   439061 
 4964000   0.60079506   -4.3627185   -4.3627185    -3.461528 0.0056490105   -4.3627185   0.90119054   439061 
 4965000   0.59987526   -4.3617638   -4.3617638   -3.4619529 0.0051049502   -4.3617638   0.89981084   439061 
 4966000   0.60047095   -4.3622038   -4.3622038   -3.4614994 0.0037290992   -4.3622038   0.90070437   439061 
 4967000   0.59922879   -4.3598836   -4.3598836   -3.4610425 0.0082905795   -4.3598836   0.89884114   439061 
 4968000   0.59916636    -4.360424    -4.360424   -3.4616765 0.0062894113    -4.360424    0.8987475   439061 
 4969000   0.60025744   -4.3610698   -4.3610698   -3.4606857 0.0022200065   -4.3610698   0.90038411   439061 
 4970000    0.5994304   -4.3600865   -4.3600865   -3.4609429 0.0017785199   -4.3600865   0.89914355   439061 
 4971000   0.59969585   -4.3602806   -4.3602806   -3.4607389 0.0017092613   -4.3602806   0.89954172   439061 
 4972000   0.59923935   -4.3602907   -4.3602907   -3.4614337 0.0031157071   -4.3602907   0.89885697   439061 
 4973000   0.59963797    -4.360893    -4.360893   -3.4614381 0.0021125123    -4.360893   0.89945491   439061 
 4974000   0.60014044   -4.3610285   -4.3610285   -3.4608199 0.0019674466   -4.3610285   0.90020861   439061 
 4975000   0.59945821   -4.3594549   -4.3594549   -3.4602696  0.011883345   -4.3594549   0.89918527   439061 
 4976000   0.60016864   -4.3604462   -4.3604462   -3.4601953 0.0085823965   -4.3604462   0.90025091   439061 
 4977000   0.60012507   -4.3610454   -4.3610454   -3.4608599 0.0061187909   -4.3610454   0.90018556   439061 
 4978000   0.60023827   -4.3614109   -4.3614109   -3.4610556 0.0065678731   -4.3614109   0.90035535   439061 
 4979000   0.59974749   -4.3598566   -4.3598566   -3.4602374  0.006011275   -4.3598566   0.89961918   439061 
 4980000   0.60007832   -4.3610226   -4.3610226   -3.4609072 0.0007790049   -4.3610226   0.90011543   439061 
 4981000   0.59980311   -4.3609983   -4.3609983   -3.4612957  0.001070321   -4.3609983   0.89970262   439061 
 4982000   0.59934428   -4.3607741   -4.3607741   -3.4617597 -0.00069940711   -4.3607741   0.89901437   439061 
 4983000   0.59879434   -4.3591691   -4.3591691   -3.4609796 0.0061212711   -4.3591691   0.89818946   439061 
 4984000   0.59953375   -4.3607266   -4.3607266    -3.461428 0.0015385647   -4.3607266   0.89929858   439061 
 4985000   0.59979094   -4.3613628   -4.3613628   -3.4616784 0.0062504076   -4.3613628   0.89968436   439061 
 4986000   0.60079537   -4.3624021   -4.3624021   -3.4612111 0.0044254819   -4.3624021     0.901191   439061 
 4987000   0.60002165   -4.3614455   -4.3614455    -3.461415 0.0094870343   -4.3614455   0.90003042   439061 
 4988000   0.59987412   -4.3606459   -4.3606459   -3.4608367 0.0080090129   -4.3606459   0.89980912   439061 
 4989000    0.6000364   -4.3616919   -4.3616919   -3.4616393 0.0064035961   -4.3616919   0.90005255   439061 
 4990000   0.59949326   -4.3608493   -4.3608493   -3.4616115 0.0078024811   -4.3608493   0.89923785   439061 
 4991000   0.59982226   -4.3620851   -4.3620851   -3.4623538 0.0067427164   -4.3620851   0.89973135   439061 
 4992000   0.60020528   -4.3620338   -4.3620338    -3.461728 0.0011530296   -4.3620338   0.90030587   439061 
 4993000   0.59904043   -4.3604853   -4.3604853   -3.4619267 0.0025641181   -4.3604853    0.8985586   439061 
 4994000   0.59842818   -4.3596766   -4.3596766   -3.4620364 0.0042206723   -4.3596766   0.89764022   439061 
 4995000   0.59938214   -4.3604783   -4.3604783   -3.4614071 0.0027442751   -4.3604783   0.89907117   439061 
 4996000   0.59955125   -4.3601583   -4.3601583   -3.4608335 0.00071422902   -4.3601583   0.89932483   439061 
 4997000   0.59895475     -4.35979     -4.35979   -3.4613599 0.0049212289     -4.35979   0.89843007   439061 
 4998000   0.59927108   -4.3605502   -4.3605502   -3.4616457 0.0018318399   -4.3605502   0.89890458   439061 
 4999000   0.59906953   -4.3598972   -4.3598972   -3.4612949 0.0050481816   -4.3598972   0.89860224   439061 
 5000000   0.59939367   -4.3603198   -4.3603198   -3.4612314 0.0025094409   -4.3603198   0.89908846   439061 
Loop time of 10339.5 on 192 procs for 5000000 steps with 439061 atoms

Performance: 208906.876 tau/day, 483.581 timesteps/s
92.3% CPU use with 192 MPI tasks x 1 OpenMP threads

MPI task timing breakdown:
Section |  min time  |  avg time  |  max time  |%varavg|  %CPU | %total
-----------------------------------------------------------------------
Pair    | 4155.2     | 5511.8     | 5963.5     | 636.1 |  95.3 | 53.31
Bond    | 3.1906     | 3.4002     | 3.6285     |   4.8 | 100.0 |  0.03
Neigh   | 1348.2     | 1732.7     | 1896.3     | 306.2 |  98.9 | 16.76
Comm    | 1543.8     | 2397.8     | 4186.1     |1328.6 |  85.4 | 23.19
Output  | 277.79     | 278.3      | 278.32     |   0.2 |  67.4 |  2.69
Modify  | 133.54     | 248.13     | 645.62     |1184.8 |  91.4 |  2.40
Other   |            | 167.3      |            |       |       |  1.62

Nlocal:        2286.78 ave        2397 max        2125 min
Histogram: 3 1 0 1 7 88 81 4 3 4
Nghost:        3926.66 ave        4269 max        3003 min
Histogram: 47 1 0 0 0 0 0 0 0 144
Neighs:        88232.0 ave       92736 max       70350 min
Histogram: 4 2 7 5 6 0 0 7 117 44

Total # of neighbors = 16940552
Ave neighs/atom = 38.583595
Ave special neighs/atom = 0.0000000
Neighbor list builds = 496639
Dangerous builds = 441609
write_data	data.lj
System init for write_data ...


## Evaporation
#region          regevap block EDGE EDGE EDGE EDGE 140 EDGE units box
#fix             4 solvent evaporate ${evap} 1 regevap 156415

#run 		20000000
Total wall time: 2:52:23
