LAMMPS (24 Dec 2020)
OMP_NUM_THREADS environment is not set. Defaulting to 1 thread. (src/comm.cpp:94)
  using 1 OpenMP thread(s) per MPI task
#Read the equilibrated lj fluid and add nanocubes

units           lj
atom_style      full
#atom_modify     map array first cubes
dimension       3
boundary        p p f
pair_style      lj/smooth/linear 2.0

variable        sigma           equal 1.0
variable        epsilon         equal 1.0
read_restart	restart.dat.5000000
Reading restart file ...
  restart file = 24 Dec 2020, LAMMPS = 24 Dec 2020
WARNING: Restart file used different # of processors: 288 vs. 336 (src/read_restart.cpp:697)
  restoring atom style full from restart
  orthogonal box = (0.0000000 0.0000000 0.0000000) to (80.000000 80.000000 160.00000)
  6 by 4 by 14 MPI processor grid
  restoring pair style lj/smooth/linear from restart
  426349 atoms
Finding 1-2 1-3 1-4 neighbors ...
  special bond factors lj:    0        0        0       
  special bond factors coul:  0        0        0       
     0 = max # of 1-2 neighbors
     0 = max # of 1-3 neighbors
     0 = max # of 1-4 neighbors
     1 = max # of special neighbors
  special bonds CPU = 2.930 seconds
  read_restart CPU = 3.442 seconds

group		solvent type 1
353197 atoms in group solvent
group 		hull  type 2
28544 atoms in group hull
group 		dummy type 3
44608 atoms in group dummy

neighbor      0.4 bin
neigh_modify  exclude molecule/intra cubes


pair_modify   shift yes

pair_coeff    1 1 1.0 1.0 #solvent
pair_coeff    2 2 1.0 1.0 1.12 #np
pair_coeff    3 3 0.0 0.0 0.0 #dummy
pair_coeff    2 3 0.0 0.0 0.0 #np dummy
pair_coeff    1 2 ${eps} ${sig} ${nscut} #np solvent
pair_coeff    1 2 2.0 ${sig} ${nscut} 
pair_coeff    1 2 2.0 1.0 ${nscut} 
pair_coeff    1 2 2.0 1.0 4.0 
pair_coeff    1 3 0.0 0.0 0.0 #dummy solvent


comm_modify   mode multi cutoff/multi 1 2.0 cutoff/multi 2 2.0 cutoff/multi 3 6.95

reset_timestep 	0

balance 	1.05 shift z 10 1.05
Balancing ...
Unused restart file global fix info:
  fix style: STORE, fix ID: msd_COMPUTE_STORE
Unused restart file peratom fix info:
  fix style: STORE, fix ID: bin1_COMPUTE_STORE
Neighbor list info ...
  update every 1 steps, delay 10 steps, check yes
  max neighbors/atom: 2000, page size: 100000
  master list distance cutoff = 4.4
  ghost atom cutoff = 6.95
  binsize = 2.2, bins = 37 37 73
  1 neighbor lists, perpetual/occasional/extra = 1 0 0
  (1) pair lj/smooth/linear, perpetual
      attributes: half, newton on
      pair build: half/bin/newton
      stencil: half/bin/3d/newton
      bin: standard
 rebalancing time: 0.047 seconds
  iteration count = 5
  initial/final maximal load/proc = 2726.0000 2430.0000
  initial/final imbalance factor  = 2.1483245 1.9150508
  x cuts: 0.0000000 0.16666667 0.33333333 0.50000000 0.66666667 0.83333333 1.0000000
  y cuts: 0.0000000 0.25000000 0.50000000 0.75000000 1.0000000
  z cuts: 0.0000000 0.046875000 0.091517857 0.12946429 0.17410714 0.21651786 0.24776786 0.29241071 0.33035714 0.38392857 0.41294643 0.46205357 0.51116071 0.60491071 1.0000000

####################### WALLS ###########################

variable       epsilonWall equal 2*${epsilon}
variable       epsilonWall equal 2*1
variable       repulsive   equal   0.7147*${sigma}
variable       repulsive   equal   0.7147*1
variable       full	   equal   3*${sigma}
variable       full	   equal   3*1
#region         lowWall block EDGE EDGE EDGE EDGE EDGE 2

fix            topWall all wall/lj93 zhi EDGE 	       ${epsilonWall} ${sigma} ${repulsive} units box
fix            topWall all wall/lj93 zhi EDGE 	       2 ${sigma} ${repulsive} units box
fix            topWall all wall/lj93 zhi EDGE 	       2 1 ${repulsive} units box
fix            topWall all wall/lj93 zhi EDGE 	       2 1 0.7147 units box
fix            lowSol solvent wall/lj93 zlo EDGE                ${epsilonWall} ${sigma} ${full} units box
fix            lowSol solvent wall/lj93 zlo EDGE                2 ${sigma} ${full} units box
fix            lowSol solvent wall/lj93 zlo EDGE                2 1 ${full} units box
fix            lowSol solvent wall/lj93 zlo EDGE                2 1 3 units box
fix 	       lowCub cubes wall/lj93 zlo EDGE                ${epsilonWall} ${sigma} ${repulsive} units box
fix 	       lowCub cubes wall/lj93 zlo EDGE                2 ${sigma} ${repulsive} units box
fix 	       lowCub cubes wall/lj93 zlo EDGE                2 1 ${repulsive} units box
fix 	       lowCub cubes wall/lj93 zlo EDGE                2 1 0.7147 units box


###################### COMPUTES ##########################

compute        bin1 solvent chunk/atom bin/1d z lower 1.0 units box


######################  FIXES ############################


fix             peclet solvent ave/chunk 100 1 10000 bin1 density/number norm                  none ave one file density.profile

fix              temp solvent ave/chunk 100 1 10000 bin1 temp norm                  none ave one file temp.profile

fix             1 cubes rigid/nve/small molecule
  create bodies CPU = 0.043 seconds
  64 rigid bodies with 73152 atoms
  6.9282032 = max distance from body owner to body atom

fix             2 solvent nve


## Thermostat
region          regthermo block EDGE EDGE EDGE EDGE 0 15
group           thermo dynamic solvent region regthermo every 1000
dynamic group thermo defined
fix             3 thermo langevin ${temp} ${temp} 10 156453
fix             3 thermo langevin 0.6 ${temp} 10 156453
fix             3 thermo langevin 0.6 0.6 10 156453

## Evaporation
region		regevap block EDGE EDGE EDGE EDGE 140 EDGE
fix		4 solvent evaporate ${evap} 1 regevap 156415
fix		4 solvent evaporate 85 1 regevap 156415


#### Load balancing

fix             bal all balance 1000 1.05 shift z 10 1.05

############### Diagnostics and computes ###################

compute          cluster all cluster/atom 1.5
compute          cc1 all chunk/atom c_cluster compress yes
compute          size all property/chunk cc1 count
compute          myChunk all temp/chunk cc1 temp
fix              tempe all ave/time 5000 1 5000 c_myChunk file tmp.out mode scalar
compute          comChunk all com/chunk cc1
fix              com all ave/time 10000 1 10000 c_size c_comChunk[*] file com.xyz mode vector


compute        	com cubes          rigid/local   1 mol x y z
compute        	quat cubes         rigid/local   1 mol quatw quati quatj quatk

compute 	cc2 cubes 	   chunk/atom 	 molecule
compute 	msd cubes 	   msd/chunk 	 cc2

fix 		msd all ave/time  1 1 10000 c_msd[*] file dump.msd ave one mode vector

dump            1 all custom 100000 dump.lammpstrj id mol type x y z c_cluster c_cc1
dump		hulltrj hull custom 100000 hull.lammpstrj id mol type x y z
dump		cubestrj cubes custom 100000 cubes.lammpstrj id mol type x y z

dump            com cubes local 100000 dump.*.xyz c_com[*]
dump	        xyz cubes xyz 100000 cubes.*.xyz
dump            quat cubes      local 100000 dump.*.quat c_quat[*]


dump            2 all image 10000 image.*.png type type zoom 1.5 size 1280 720
dump_modify     2 pad 8
dump		image cubes image 10000 image_cubes.*.png type type zoom 1.5 size 1280 720
dump_modify	image pad 8
dump            3 all movie 5000 movie.avi type type zoom 1.5 size 1280 720
dump		4 cubes movie 5000 movie_cubes.avi type type zoom 1.5 size 1280 720


thermo          10000
thermo_style    custom step temp epair evdwl etotal press pe ke atoms

restart         1000000 restart.dat
timestep        0.005
timer           full
New timer settings: style=full  mode=nosync  timeout=off

run 		30000000
Neighbor list info ...
  update every 1 steps, delay 10 steps, check yes
  max neighbors/atom: 2000, page size: 100000
  master list distance cutoff = 4.4
  ghost atom cutoff = 6.95
  binsize = 2.2, bins = 37 37 73
  2 neighbor lists, perpetual/occasional/extra = 1 1 0
  (1) pair lj/smooth/linear, perpetual
      attributes: half, newton on
      pair build: half/bin/newton
      stencil: half/bin/3d/newton
      bin: standard
  (2) compute cluster/atom, occasional
      attributes: full, newton on
      pair build: full/bin
      stencil: full/bin/3d
      bin: standard
Per MPI rank memory allocation (min/avg/max) = 24.98 | 31.21 | 35.98 Mbytes
Step Temp E_pair E_vdwl TotEng Press PotEng KinEng Atoms 
       0   0.60459926   -2.6062658   -2.6062658   -1.8547004  0.016221924   -2.6062658   0.75156536   426349 
   10000   0.60611163   -2.6092318   -2.6092318   -1.8555796  0.033161243   -2.6092318   0.75365218   426232 
   20000   0.60390689   -2.6089359   -2.6089359   -1.8578172  0.041335029   -2.6089359    0.7511187   426114 
   30000   0.60367512   -2.6088037   -2.6088037   -1.8577671  0.033872951   -2.6088037   0.75103666   425997 
   40000   0.60490969   -2.6113445   -2.6113445   -1.8585634  0.037814606   -2.6113445   0.75278111   425879 
   50000   0.60489936   -2.6106921   -2.6106921   -1.8577152  0.046487734   -2.6106921   0.75297689   425761 
   60000   0.60484024   -2.6116804   -2.6116804   -1.8585702   0.03925789   -2.6116804   0.75311025   425644 
   70000   0.60273373   -2.6119622   -2.6119622   -1.8612668  0.035966356   -2.6119622   0.75069547   425526 
   80000   0.60480504   -2.6123693   -2.6123693   -1.8588851   0.03858837   -2.6123693   0.75348419   425408 
   90000    0.6031471   -2.6115193   -2.6115193   -1.8598939  0.029755583   -2.6115193    0.7516254   425291 
  100000   0.60142733   -2.6121944   -2.6121944   -1.8625041  0.034704047   -2.6121944   0.74969028   425173 
  110000   0.60235098   -2.6125791   -2.6125791    -1.861529  0.038211834   -2.6125791   0.75105006   425055 
  120000   0.60259255   -2.6140712   -2.6140712   -1.8625131  0.036792365   -2.6140712   0.75155814   424938 
  130000   0.60136673   -2.6137691   -2.6137691   -1.8635314  0.032700234   -2.6137691   0.75023763   424820 
  140000    0.6038244    -2.617219    -2.617219    -1.863706   0.03972372    -2.617219     0.753513   424702 
  150000   0.60251697   -2.6155999   -2.6155999   -1.8635112  0.036942493   -2.6155999   0.75208865   424585 
  160000   0.60157211   -2.6160275   -2.6160275   -1.8649095  0.042315601   -2.6160275   0.75111798   424467 
  170000   0.60174382   -2.6162865   -2.6162865   -1.8647452  0.036135218   -2.6162865   0.75154131   424349 
  180000   0.60058221   -2.6175128   -2.6175128   -1.8672154  0.034527478   -2.6175128   0.75029739   424232 
  190000   0.60165692   -2.6198712   -2.6198712   -1.8680221  0.035345532   -2.6198712   0.75184914   424114 
  200000   0.60054502   -2.6189668   -2.6189668   -1.8683001  0.030301754   -2.6189668   0.75066676   423997 
  210000   0.59983868   -2.6182994   -2.6182994   -1.8683068  0.035949489   -2.6182994   0.74999258   423879 
  220000   0.59845794   -2.6173577   -2.6173577   -1.8688831  0.034778257   -2.6173577   0.74847457   423761 
  230000    0.6006356   -2.6224555   -2.6224555   -1.8710499  0.037947591   -2.6224555   0.75140557   423644 
  240000   0.60057043   -2.6223025   -2.6223025   -1.8707691  0.032549331   -2.6223025   0.75153337   423526 
  250000   0.59786665   -2.6200981   -2.6200981   -1.8717397  0.034455597   -2.6200981   0.74835845   423408 
  260000   0.60043298   -2.6230487   -2.6230487   -1.8712702  0.025950078   -2.6230487    0.7517785   423291 
  270000   0.59964156    -2.624775    -2.624775    -1.873778  0.029449568    -2.624775   0.75099695   423173 
  280000   0.60021206   -2.6241426   -2.6241426   -1.8722215  0.037625138   -2.6241426   0.75192111   423055 
  290000   0.59685907   -2.6215166   -2.6215166   -1.8735891  0.029579123   -2.6215166   0.74792748   422938 
  300000   0.59847779   -2.6240528   -2.6240528   -1.8738876  0.034590632   -2.6240528    0.7501652   422820 
  310000   0.59812374   -2.6234474   -2.6234474   -1.8735167  0.028607901   -2.6234474    0.7499307   422702 
  320000   0.59666825   -2.6226681   -2.6226681   -1.8743552  0.045894169   -2.6226681   0.74831293   422585 
  330000   0.59628403   -2.6239562   -2.6239562   -1.8759163  0.038978784   -2.6239562   0.74803994   422467 
  340000   0.59656788   -2.6257702   -2.6257702   -1.8771651    0.0311959   -2.6257702   0.74860512   422349 
  350000   0.59608311    -2.625425    -2.625425    -1.877221  0.040844176    -2.625425   0.74820407   422232 
  360000   0.59742232   -2.6274338   -2.6274338   -1.8773391   0.04171657   -2.6274338   0.75009468   422114 
  370000   0.59520276    -2.625263    -2.625263   -1.8777479  0.033151678    -2.625263    0.7475151   421997 
  380000   0.59638015   -2.6274042   -2.6274042   -1.8782009  0.049692364   -2.6274042   0.74920327   421879 
  390000   0.59512082   -2.6271163   -2.6271163   -1.8792859  0.031832587   -2.6271163   0.74783042   421761 
  400000   0.59500363   -2.6275633   -2.6275633   -1.8796726  0.034642644   -2.6275633   0.74789062   421644 
  410000   0.59561431   -2.6296616   -2.6296616   -1.8807938  0.027501617   -2.6296616   0.74886779   421526 
  420000   0.59469301   -2.6285725   -2.6285725   -1.8806537  0.030477909   -2.6285725   0.74791881   421408 
  430000   0.59540279   -2.6301704   -2.6301704    -1.881151  0.036116863   -2.6301704   0.74901942   421291 
  440000   0.59432462   -2.6298236   -2.6298236    -1.881951  0.028511037   -2.6298236   0.74787256   421173 
  450000   0.59372096   -2.6307509   -2.6307509   -1.8834286  0.042836834   -2.6307509   0.74732231   421055 
  460000   0.59489655   -2.6330715   -2.6330715   -1.8840613  0.036993341   -2.6330715   0.74901017   420938 
  470000   0.59355512   -2.6325667   -2.6325667   -1.8850359  0.039658546   -2.6325667   0.74753078   420820 
  480000   0.59331891   -2.6324465   -2.6324465   -1.8850036  0.034335585   -2.6324465   0.74744289   420702 
  490000   0.59221462   -2.6321201   -2.6321201   -1.8858608  0.026852746   -2.6321201   0.74625928   420585 
  500000   0.59339131   -2.6346184   -2.6346184   -1.8866665  0.043404176   -2.6346184   0.74795189   420467 
  510000   0.59256363   -2.6331832   -2.6331832   -1.8860649  0.039821494   -2.6331832   0.74711829   420349 
  520000   0.59361824   -2.6361148   -2.6361148   -1.8874584  0.024011738   -2.6361148   0.74865635   420232 
  530000   0.59292594   -2.6363467   -2.6363467   -1.8883534  0.044162056   -2.6363467   0.74799327   420114 
  540000   0.59204594   -2.6366681   -2.6366681   -1.8895769  0.032107345   -2.6366681   0.74709119   419997 
  550000   0.59268987   -2.6356517   -2.6356517   -1.8875378  0.036731991   -2.6356517   0.74811394   419879 
  560000   0.59118657    -2.636182    -2.636182   -1.8897558  0.027583378    -2.636182    0.7464262   419761 
  570000   0.59100723   -2.6385418   -2.6385418    -1.892134   0.02574566   -2.6385418   0.74640781   419644 
  580000   0.59050549   -2.6389551   -2.6389551   -1.8929712  0.032263113   -2.6389551   0.74598391   419526 
  590000   0.59017868   -2.6387509   -2.6387509   -1.8929701  0.029831786   -2.6387509   0.74578081   419408 
  600000   0.59073468   -2.6398923   -2.6398923   -1.8932006  0.036915846   -2.6398923    0.7466917   419291 
  610000   0.59094811   -2.6397195   -2.6397195   -1.8925477   0.03760071   -2.6397195   0.74717176   419173 
  620000   0.59068942   -2.6401972   -2.6401972   -1.8931422  0.029923783   -2.6401972   0.74705498   419055 
  630000    0.5892529   -2.6399467   -2.6399467   -1.8945004  0.037348425   -2.6399467   0.74544631   418938 
  640000     0.589705   -2.6414404   -2.6414404    -1.895212  0.038473506   -2.6414404   0.74622844   418820 
  650000   0.58864812   -2.6419135   -2.6419135   -1.8968125   0.02596283   -2.6419135   0.74510096   418702 
  660000   0.58835755   -2.6434546   -2.6434546   -1.8985133  0.041385304   -2.6434546   0.74494132   418585 
  670000    0.5883199    -2.643435    -2.643435   -1.8983313  0.032419624    -2.643435    0.7451037   418467 
  680000    0.5888834    -2.645251    -2.645251   -1.8992232  0.021066635    -2.645251   0.74602774   418349 
  690000   0.58760096   -2.6449969   -2.6449969   -1.9003856  0.029029177   -2.6449969   0.74461132   418232 
  700000   0.58664548   -2.6445854   -2.6445854   -1.9009751  0.036035951   -2.6445854   0.74361033   418114 
  710000   0.58614787   -2.6443137   -2.6443137   -1.9011261  0.037450491   -2.6443137   0.74318755   417997 
  720000   0.58811349   -2.6469335   -2.6469335   -1.9010431  0.036496426   -2.6469335   0.74589035   417879 
  730000   0.58757408   -2.6460382   -2.6460382   -1.9006215  0.026579918   -2.6460382   0.74541673   417761 
  740000   0.58688918   -2.6453702   -2.6453702   -1.9006137  0.038188443   -2.6453702   0.74475641   417644 
  750000   0.58614202   -2.6443729   -2.6443729   -1.9003544  0.019079272   -2.6443729   0.74401849   417526 
  760000   0.58732066   -2.6475294   -2.6475294    -1.901804  0.028733478   -2.6475294   0.74572535   417408 
  770000   0.58609824   -2.6474881   -2.6474881   -1.9031062  0.041930685   -2.6474881   0.74438189   417291 
  780000   0.58526865   -2.6476813   -2.6476813   -1.9041428  0.023456678   -2.6476813    0.7435385   417173 
  790000   0.58645871   -2.6483925   -2.6483925   -1.9031313  0.033445167   -2.6483925    0.7452612   417055 
  800000    0.5853482   -2.6491092   -2.6491092   -1.9050505  0.032844252   -2.6491092   0.74405871   416938 
  810000   0.58514969    -2.648803    -2.648803   -1.9047861  0.031383642    -2.648803   0.74401694   416820 
  820000   0.58602814   -2.6505579   -2.6505579   -1.9052129  0.025847004   -2.6505579    0.7453449   416702 
  830000   0.58441385   -2.6504829   -2.6504829   -1.9069824  0.041736691   -2.6504829    0.7435005   416585 
  840000   0.58418435   -2.6501872   -2.6501872   -1.9067681  0.032710651   -2.6501872   0.74341911   416467 
  850000   0.58328846   -2.6492038   -2.6492038   -1.9067144  0.036708746   -2.6492038    0.7424894   416349 
  860000   0.58403788   -2.6489597   -2.6489597   -1.9053074  0.037609355   -2.6489597   0.74365234   416232 
  870000    0.5856915    -2.651748    -2.651748   -1.9057787   0.03820169    -2.651748   0.74596937   416114 
  880000   0.58241963   -2.6482515   -2.6482515   -1.9062407   0.03040384   -2.6482515   0.74201077   415997 
  890000   0.58301244   -2.6534658   -2.6534658   -1.9104891  0.044273919   -2.6534658   0.74297676   415879 
  900000   0.58126921   -2.6534828   -2.6534828   -1.9125174  0.034637603   -2.6534828   0.74096547   415761 
  910000   0.58101149   -2.6500511   -2.6500511   -1.9092057  0.030821732   -2.6500511   0.74084543   415644 
  920000   0.58155829   -2.6522257   -2.6522257   -1.9104724  0.038211506   -2.6522257   0.74175322   415526 
  930000   0.58273373   -2.6536959   -2.6536959   -1.9102323  0.026565229   -2.6536959   0.74346358   415408 
  940000   0.58191688   -2.6518477   -2.6518477   -1.9092171  0.031598189   -2.6518477   0.74263059   415291 
  950000   0.58288223   -2.6537204   -2.6537204   -1.9096464  0.030719339   -2.6537204   0.74407396   415173 
  960000   0.58173301   -2.6535514   -2.6535514   -1.9107333  0.043852346   -2.6535514   0.74281806   415055 
  970000   0.58107682   -2.6559295   -2.6559295   -1.9137401  0.035227358   -2.6559295   0.74218939   414938 
  980000    0.5806523   -2.6543294   -2.6543294   -1.9124713   0.02816759   -2.6543294   0.74185814   414820 
  990000   0.58096207   -2.6560192   -2.6560192   -1.9135541   0.02728945   -2.6560192   0.74246511   414702 
 1000000   0.58055491   -2.6581146   -2.6581146   -1.9159604  0.031268497   -2.6581146   0.74215414   414585 
 1010000   0.57920766   -2.6565308   -2.6565308   -1.9158881  0.036819865   -2.6565308   0.74064268   414467 
 1020000   0.57985175   -2.6565584   -2.6565584   -1.9148809  0.026689388   -2.6565584   0.74167745   414349 
 1030000   0.57888559   -2.6560059   -2.6560059   -1.9153551  0.026752789   -2.6560059   0.74065079   414232 
 1040000   0.57868481   -2.6569387   -2.6569387   -1.9163339  0.032840057   -2.6569387   0.74060488   414114 
 1050000   0.57864454   -2.6585375   -2.6585375   -1.9177749  0.036676831   -2.6585375   0.74076262   413997 
 1060000   0.57775987   -2.6584436   -2.6584436   -1.9186026  0.033443416   -2.6584436   0.73984098   413879 
 1070000   0.57780909   -2.6598372   -2.6598372   -1.9197222  0.034384411   -2.6598372   0.74011501   413761 
 1080000   0.57865055   -2.6605614   -2.6605614   -1.9191589  0.039200762   -2.6605614   0.74140249   413644 
 1090000    0.5769163     -2.65942     -2.65942   -1.9200286  0.027946957     -2.65942   0.73939138   413526 
 1100000   0.57790858   -2.6578933   -2.6578933   -1.9170188  0.024731147   -2.6578933   0.74087453   413408 
 1110000   0.57746337   -2.6577581   -2.6577581   -1.9172448  0.033439436   -2.6577581   0.74051335   413291 
 1120000   0.57753663    -2.660235    -2.660235   -1.9194162  0.032448778    -2.660235    0.7408188   413173 
 1130000   0.57637523   -2.6606658   -2.6606658   -1.9211256  0.019733018   -2.6606658   0.73954026   413055 
 1140000   0.57887456   -2.6632262   -2.6632262   -1.9202686  0.030094681   -2.6632262   0.74295757   412938 
 1150000   0.57729742   -2.6637776   -2.6637776   -1.9226324  0.033967954   -2.6637776   0.74114518   412820 
 1160000   0.57705705   -2.6634713   -2.6634713   -1.9224229  0.036017189   -2.6634713    0.7410484   412702 
 1170000   0.57614922   -2.6626141   -2.6626141   -1.9225217  0.022760577   -2.6626141   0.74009239   412585 
 1180000   0.57528377    -2.662603    -2.662603   -1.9234109  0.028394701    -2.662603   0.73919209   412467 
 1190000   0.57440059   -2.6617423   -2.6617423   -1.9234738  0.029063553   -2.6617423   0.73826848   412349 
 1200000   0.57643978   -2.6636139   -2.6636139   -1.9225142  0.026522662   -2.6636139    0.7410997   412232 
 1210000   0.57559537   -2.6642878   -2.6642878   -1.9240618  0.029345715   -2.6642878   0.74022598   412114 
 1220000   0.57632322   -2.6672875   -2.6672875    -1.925915  0.024088813   -2.6672875   0.74137249   411997 
 1230000   0.57562884   -2.6673531   -2.6673531   -1.9266618  0.032024137   -2.6673531   0.74069139   411879 
 1240000   0.57314981   -2.6652144   -2.6652144   -1.9275016  0.034079419   -2.6652144   0.73771283   411761 
 1250000   0.57264859    -2.665258    -2.665258   -1.9279808  0.036635269    -2.665258   0.73727721   411644 
 1260000   0.57377259   -2.6656426   -2.6656426   -1.9267065  0.034300173   -2.6656426   0.73893615   411526 
 1270000   0.57226176   -2.6636228   -2.6636228    -1.926421  0.039190047   -2.6636228    0.7372018   411408 
 1280000   0.57392632   -2.6664332   -2.6664332   -1.9268767  0.031049648   -2.6664332   0.73955646   411291 
 1290000   0.57358189   -2.6660386   -2.6660386   -1.9267139  0.031803617   -2.6660386   0.73932474   411173 
 1300000   0.57347801   -2.6660513   -2.6660513   -1.9266483  0.020341213   -2.6660513   0.73940303   411055 
 1310000    0.5725202   -2.6670869   -2.6670869   -1.9287087  0.023227601   -2.6670869   0.73837827   410938 
 1320000   0.57268627   -2.6689508   -2.6689508   -1.9301462  0.028385668   -2.6689508    0.7388046   410820 
 1330000   0.57363876   -2.6691662   -2.6691662   -1.9289202  0.027987255   -2.6691662     0.740246   410702 
 1340000   0.57149971   -2.6676789   -2.6676789    -1.929983  0.034101893   -2.6676789   0.73769584   410585 
 1350000   0.57044246   -2.6677957   -2.6677957   -1.9312529  0.019509482   -2.6677957   0.73654281   410467 
 1360000   0.57116417   -2.6698008   -2.6698008    -1.932114  0.038443331   -2.6698008   0.73768673   410349 
 1370000   0.57024227   -2.6673661   -2.6673661   -1.9306599  0.026256715   -2.6673661   0.73670611   410232 
 1380000   0.57213409   -2.6700988   -2.6700988   -1.9307359  0.031915209   -2.6700988   0.73936286   410114 
 1390000   0.57079031   -2.6694079   -2.6694079   -1.9315711  0.028481531   -2.6694079    0.7378368   409997 
 1400000   0.57003568   -2.6685918   -2.6685918   -1.9315184  0.024646231   -2.6685918   0.73707345   409879 
 1410000   0.57060501   -2.6703066   -2.6703066   -1.9322845  0.033476828   -2.6703066   0.73802208   409761 
 1420000   0.57083313   -2.6703913   -2.6703913   -1.9318633  0.034507422   -2.6703913   0.73852801   409644 
 1430000   0.56971224   -2.6699516   -2.6699516   -1.9326614  0.029312877   -2.6699516   0.73729022   409526 
 1440000   0.56864189   -2.6711724   -2.6711724   -1.9350552  0.026876019   -2.6711724   0.73611713   409408 
 1450000   0.56851989   -2.6710971   -2.6710971   -1.9349275  0.038313304   -2.6710971   0.73616958   409291 
 1460000   0.56823043   -2.6715179   -2.6715179   -1.9355109  0.029036043   -2.6715179   0.73600696   409173 
 1470000   0.56924346    -2.673398    -2.673398   -1.9358662  0.032625191    -2.673398   0.73753178   409055 
 1480000   0.56824014   -2.6731754   -2.6731754   -1.9367329  0.038797431   -2.6731754    0.7364425   408938 
 1490000    0.5690506   -2.6739521   -2.6739521   -1.9362464  0.027710259   -2.6739521   0.73770572   408820 
 1500000   0.56701161   -2.6739311   -2.6739311   -1.9386565   0.02598222   -2.6739311   0.73527463   408702 
 1510000   0.56851288   -2.6764808   -2.6764808   -1.9390483  0.035037356   -2.6764808   0.73743252   408585 
 1520000   0.56609999   -2.6730327   -2.6730327   -1.9385179  0.039943908   -2.6730327   0.73451483   408467 
 1530000   0.56742952   -2.6753293   -2.6753293   -1.9388766  0.028005171   -2.6753293   0.73645265   408349 
 1540000   0.56732018   -2.6753507   -2.6753507    -1.938829  0.027631305   -2.6753507   0.73652177   408232 
 1550000   0.56597543   -2.6735794   -2.6735794    -1.938591   0.03718146   -2.6735794    0.7349884   408114 
 1560000   0.56707286   -2.6757587   -2.6757587   -1.9391339  0.027789293   -2.6757587   0.73662473   407997 
 1570000    0.5666963   -2.6755607   -2.6755607   -1.9392121  0.033625965   -2.6755607   0.73634854   407879 
 1580000   0.56586872   -2.6758051   -2.6758051   -1.9403191  0.033139061   -2.6758051   0.73548598   407761 
 1590000   0.56709998   -2.6761985   -2.6761985   -1.9389006  0.029514589   -2.6761985   0.73729786   407644 
 1600000   0.56588275   -2.6753891   -2.6753891   -1.9394608  0.033572438   -2.6753891   0.73592835   407526 
 1610000   0.56526377   -2.6754173   -2.6754173   -1.9400811  0.034173696   -2.6754173   0.73533628   407408 
 1620000   0.56415307   -2.6746445   -2.6746445   -1.9405423  0.028115654   -2.6746445   0.73410222   407291 
 1630000   0.56449076   -2.6748108   -2.6748108   -1.9400563  0.026944585   -2.6748108   0.73475452   407173 
 1640000   0.56463977   -2.6756857   -2.6756857   -1.9405242  0.027826421   -2.6756857   0.73516152   407055 
 1650000   0.56417366   -2.6750806   -2.6750806   -1.9403148  0.040273661   -2.6750806   0.73476584   406938 
 1660000   0.56372337   -2.6752976   -2.6752976   -1.9409052  0.037759512   -2.6752976   0.73439235   406820 
 1670000   0.56485055   -2.6777076   -2.6777076   -1.9416333  0.024439034   -2.6777076   0.73607428   406702 
 1680000     0.563516   -2.6762643   -2.6762643   -1.9417178  0.027092157   -2.6762643    0.7345465   406585 
 1690000   0.56426135   -2.6777113   -2.6777113   -1.9419797  0.025951276   -2.6777113    0.7357316   406467 
 1700000   0.56390589   -2.6792032   -2.6792032   -1.9437215  0.015801882   -2.6792032   0.73548163   406349 
 1710000    0.5622627   -2.6774891   -2.6774891   -1.9439394  0.032864165   -2.6774891   0.73354969   406232 
 1720000   0.56207434   -2.6767559   -2.6767559   -1.9432388  0.026269687   -2.6767559   0.73351702   406114 
 1730000   0.56246726   -2.6771262   -2.6771262   -1.9428849    0.0339559   -2.6771262   0.73424132   405997 
 1740000   0.56176051   -2.6754037   -2.6754037   -1.9418717  0.025393843   -2.6754037   0.73353193   405879 
 1750000   0.56279122   -2.6789332   -2.6789332   -1.9438416  0.022365766   -2.6789332   0.73509152   405761 
 1760000   0.56123185   -2.6778047   -2.6778047   -1.9445385  0.026403555   -2.6778047   0.73326618   405644 
 1770000   0.56291475   -2.6809638   -2.6809638   -1.9452849  0.033696442   -2.6809638   0.73567894   405526 
 1780000   0.56076186    -2.679543    -2.679543   -1.9464643  0.031341636    -2.679543   0.73307862   405408 
 1790000   0.56029944   -2.6792219   -2.6792219   -1.9465364   0.02816899   -2.6792219   0.73268555   405291 
 1800000   0.56320294   -2.6828315   -2.6828315   -1.9461346  0.041216109   -2.6828315   0.73669685   405173 
 1810000   0.56108529   -2.6807093   -2.6807093   -1.9465686  0.015296125   -2.6807093   0.73414066   405055 
 1820000   0.56007595   -2.6791529   -2.6791529   -1.9461212  0.037752649   -2.6791529   0.73303176   404938 
 1830000   0.55942584   -2.6785113   -2.6785113    -1.946117  0.028540835   -2.6785113    0.7323943   404820 
 1840000   0.56080263   -2.6819387   -2.6819387   -1.9475279  0.027452464   -2.6819387   0.73441085   404702 
 1850000    0.5591584   -2.6806505   -2.6806505   -1.9481811  0.018583038   -2.6806505   0.73246939   404585 
 1860000    0.5597559   -2.6804136   -2.6804136   -1.9469476   0.03469714   -2.6804136     0.733466   404467 
 1870000   0.55874821   -2.6810627   -2.6810627   -1.9487035  0.033727832   -2.6810627   0.73235924   404349 
 1880000   0.55944528   -2.6816621   -2.6816621    -1.948177  0.024873752   -2.6816621   0.73348514   404232 
 1890000   0.55773463    -2.681205    -2.681205   -1.9497492    0.0256773    -2.681205   0.73145584   404114 
 1900000   0.56032589   -2.6862796   -2.6862796   -1.9512126  0.027065737   -2.6862796   0.73506703   403997 
 1910000   0.55918394   -2.6838675   -2.6838675   -1.9500842   0.02648887   -2.6838675   0.73378329   403879 
 1920000   0.55848668    -2.682224    -2.682224   -1.9491415  0.022752356    -2.682224   0.73308249   403761 
 1930000   0.55793577   -2.6842365   -2.6842365   -1.9516649  0.035896193   -2.6842365   0.73257164   403644 
 1940000   0.55756402   -2.6826306   -2.6826306    -1.950333  0.031314233   -2.6826306    0.7322976   403526 
 1950000   0.55803506   -2.6855944   -2.6855944   -1.9524638   0.02681294   -2.6855944   0.73313065   403408 
 1960000   0.55872313   -2.6851158   -2.6851158   -1.9508683  0.030039752   -2.6851158   0.73424757   403291 
 1970000   0.55792379   -2.6834784   -2.6834784   -1.9500667  0.024717342   -2.6834784   0.73341171   403173 
 1980000   0.55747031   -2.6826256   -2.6826256   -1.9495955  0.033226906   -2.6826256   0.73303013   403055 
 1990000   0.55576798   -2.6824217   -2.6824217   -1.9514178  0.032642629   -2.6824217    0.7310039   402938 
 2000000   0.55755598   -2.6850521   -2.6850521   -1.9514816  0.029962855   -2.6850521   0.73357049   402820 
 2010000   0.55652607    -2.684049    -2.684049    -1.951619  0.034345624    -2.684049      0.73243   402702 
 2020000   0.55767049   -2.6856351   -2.6856351   -1.9514856  0.022495416   -2.6856351   0.73414944   402585 
 2030000    0.5548062   -2.6827939   -2.6827939    -1.952201  0.030402663   -2.6827939   0.73059286   402467 
 2040000   0.55761287   -2.6870522   -2.6870522    -1.952548  0.025593853   -2.6870522   0.73450417   402349 
 2050000   0.55496718   -2.6862498   -2.6862498    -1.955018  0.032086014   -2.6862498   0.73123181   402232 
 2060000   0.55402724   -2.6841851   -2.6841851   -1.9539776  0.029576201   -2.6841851   0.73020755   402114 
 2070000   0.55552749   -2.6862403   -2.6862403   -1.9538423  0.028318826   -2.6862403   0.73239798   401997 
 2080000   0.55624948   -2.6886738   -2.6886738   -1.9551086  0.032895472   -2.6886738   0.73356517   401879 
 2090000   0.55391822   -2.6880843   -2.6880843    -1.957379   0.02064671   -2.6880843   0.73070532   401761 
 2100000   0.55474137   -2.6883688   -2.6883688   -1.9563644  0.029290733   -2.6883688   0.73200436   401644 
 2110000   0.55432098   -2.6882174   -2.6882174   -1.9565528  0.020691191   -2.6882174    0.7316646   401526 
 2120000   0.55433637   -2.6896466   -2.6896466   -1.9577466  0.029747601   -2.6896466   0.73189999   401408 
 2130000   0.55459392   -2.6899728   -2.6899728   -1.9575192  0.028372387   -2.6899728   0.73245354   401291 
 2140000   0.55322404   -2.6878223   -2.6878223    -1.956963   0.02208435   -2.6878223   0.73085925   401173 
 2150000   0.55315604   -2.6876587   -2.6876587   -1.9566743  0.029189868   -2.6876587   0.73098443   401055 
 2160000   0.55360641   -2.6890858   -2.6890858   -1.9572927  0.029826803   -2.6890858   0.73179306   400938 
 2170000   0.55335028   -2.6899213   -2.6899213   -1.9582515   0.03352798   -2.6899213   0.73166983   400820 
 2180000      0.55195   -2.6884978   -2.6884978   -1.9584646  0.017467849   -2.6884978   0.73003323   400702 
 2190000   0.55098588   -2.6897694   -2.6897694   -1.9607985  0.028029368   -2.6897694   0.72897089   400585 
 2200000   0.55218276   -2.6909889   -2.6909889   -1.9602193  0.030561419   -2.6909889   0.73076965   400467 
 2210000   0.55149745   -2.6884262   -2.6884262   -1.9583484  0.029483779   -2.6884262   0.73007783   400349 
 2220000   0.55065564   -2.6876422   -2.6876422   -1.9584656  0.029553166   -2.6876422   0.72917653   400232 
 2230000   0.55059863   -2.6885551   -2.6885551    -1.959239  0.040404212   -2.6885551   0.72931606   400114 
 2240000   0.55014626   -2.6884489   -2.6884489   -1.9595189  0.028459719   -2.6884489   0.72893001   399997 
 2250000   0.55035452   -2.6887036   -2.6887036   -1.9592825  0.033795618   -2.6887036   0.72942113   399879 
 2260000   0.55038224   -2.6907875   -2.6907875   -1.9611143  0.015188854   -2.6907875   0.72967319   399761 
 2270000    0.5514666   -2.6930293   -2.6930293   -1.9617045  0.031362071   -2.6930293   0.73132483   399644 
 2280000   0.55037713   -2.6922665   -2.6922665   -1.9621709  0.025213582   -2.6922665   0.73009559   399526 
 2290000   0.54859012   -2.6907609   -2.6907609   -1.9628208  0.028061077   -2.6907609   0.72794006   399408 
 2300000   0.54957061   -2.6914254   -2.6914254   -1.9619706  0.027267823   -2.6914254   0.72945478   399291 
 2310000   0.54960258   -2.6928762   -2.6928762   -1.9631634  0.031448957   -2.6928762   0.72971286   399173 
 2320000   0.54918032   -2.6922191   -2.6922191   -1.9628513  0.024993879   -2.6922191   0.72936784   399055 
 2330000   0.54998122   -2.6925403   -2.6925403   -1.9618946  0.027022348   -2.6925403   0.73064574   398938 
 2340000   0.54925006   -2.6921449   -2.6921449   -1.9622547  0.038352886   -2.6921449   0.72989028   398820 
 2350000    0.5476902   -2.6882059   -2.6882059   -1.9601731  0.034497124   -2.6882059   0.72803281   398702 
 2360000   0.54838144   -2.6896337   -2.6896337   -1.9604681  0.033166682   -2.6896337   0.72916564   398585 
 2370000   0.54855354   -2.6908884   -2.6908884   -1.9612779  0.034067596   -2.6908884   0.72961047   398467 
 2380000   0.54869385   -2.6903876   -2.6903876   -1.9603743  0.038152769   -2.6903876   0.73001328   398349 
 2390000   0.54709019   -2.6873199   -2.6873199   -1.9592264  0.030841231   -2.6873199   0.72809353   398232 
 2400000   0.54846308   -2.6915839   -2.6915839   -1.9614469  0.025012677   -2.6915839   0.73013698   398114 
 2410000   0.54688206   -2.6895789   -2.6895789   -1.9613326  0.028682096   -2.6895789   0.72824628   397997 
 2420000    0.5477098   -2.6903605   -2.6903605   -1.9607956  0.023845144   -2.6903605   0.72956483   397879 
 2430000   0.54687552   -2.6901431   -2.6901431   -1.9614734   0.02639128   -2.6901431   0.72866965   397761 
 2440000   0.54773292   -2.6903081   -2.6903081   -1.9602813  0.023122963   -2.6903081    0.7300268   397644 
 2450000   0.54714889    -2.690892    -2.690892   -1.9614271   0.03683668    -2.690892   0.72946487   397526 
 2460000   0.54564082   -2.6880157   -2.6880157   -1.9603454  0.023392735   -2.6880157   0.72767029   397408 
 2470000   0.54597437   -2.6888483   -2.6888483   -1.9605187  0.025206908   -2.6888483   0.72832954   397291 
 2480000   0.54789057   -2.6917768   -2.6917768   -1.9606739  0.025758297   -2.6917768    0.7311029   397173 
 2490000   0.54570727   -2.6895731   -2.6895731   -1.9611672  0.019914739   -2.6895731   0.72840592   397055 
 2500000   0.54526673    -2.688216    -2.688216   -1.9601835  0.026044064    -2.688216   0.72803242   396938 
 2510000   0.54497493   -2.6884327   -2.6884327   -1.9605736  0.028447929   -2.6884327   0.72785919   396820 
 2520000   0.54573879   -2.6900523   -2.6900523   -1.9609561  0.020885111   -2.6900523    0.7290962   396702 
 2530000   0.54556055   -2.6910262   -2.6910262   -1.9619531  0.033801362   -2.6910262   0.72907309   396585 
 2540000   0.54421761   -2.6923163   -2.6923163   -1.9648214  0.038653054   -2.6923163   0.72749489   396467 
 2550000   0.54533094   -2.6929031   -2.6929031    -1.963703  0.027452739   -2.6929031   0.72920018   396349 
 2560000   0.54540488   -2.6926674   -2.6926674    -1.963153  0.031171985   -2.6926674    0.7295144   396232 
 2570000     0.543228   -2.6926098   -2.6926098   -1.9657907  0.032633336   -2.6926098   0.72681914   396114 
 2580000   0.54365446   -2.6939391   -2.6939391   -1.9663344  0.036330937   -2.6939391   0.72760464   395997 
 2590000   0.54378777   -2.6924335   -2.6924335   -1.9644335  0.030397765   -2.6924335   0.72799998   395879 
 2600000   0.54357298   -2.6929347   -2.6929347   -1.9650053  0.033354103   -2.6929347    0.7279294   395761 
 2610000   0.54279458   -2.6931783   -2.6931783   -1.9660763   0.03307684   -2.6931783   0.72710197   395644 
 2620000   0.54348729   -2.6927526   -2.6927526   -1.9645055  0.029486226   -2.6927526   0.72824707   395526 
 2630000   0.54282092    -2.694962    -2.694962   -1.9673908  0.032282998    -2.694962   0.72757124   395408 
 2640000   0.54255511   -2.6937813   -2.6937813   -1.9663511  0.031557728   -2.6937813    0.7274302   395291 
 2650000   0.54274377   -2.6945647   -2.6945647   -1.9666643  0.029545105   -2.6945647   0.72790043   395173 
 2660000   0.54306408   -2.6955623   -2.6955623   -1.9670147  0.029111405   -2.6955623   0.72854756   395055 
 2670000   0.54189575   -2.6948804   -2.6948804   -1.9676848  0.040207095   -2.6948804   0.72719556   394938 
 2680000   0.54124435   -2.6929539   -2.6929539   -1.9664154  0.032101347   -2.6929539    0.7265385   394820 
 2690000   0.54174071   -2.6940236   -2.6940236   -1.9666014  0.027613682   -2.6940236   0.72742219   394702 
 2700000   0.54180409   -2.6927819   -2.6927819   -1.9650589  0.025591767   -2.6927819   0.72772301   394585 
 2710000   0.54058327   -2.6932769   -2.6932769   -1.9669764  0.019690546   -2.6932769   0.72630047   394467 
 2720000   0.54146448   -2.6950755   -2.6950755   -1.9673734  0.025667271   -2.6950755    0.7277021   394349 
 2730000     0.540754   -2.6932152   -2.6932152   -1.9662523  0.029318717   -2.6932152   0.72696293   394232 
 2740000   0.54036777   -2.6945371   -2.6945371   -1.9678759  0.032679437   -2.6945371    0.7266612   394114 
 2750000   0.54024118   -2.6960763   -2.6960763   -1.9693696  0.028360665   -2.6960763   0.72670671   393997 
 2760000   0.53963996   -2.6947908   -2.6947908   -1.9686754  0.027099066   -2.6947908   0.72611545   393879 
 2770000   0.53906149   -2.6933955   -2.6933955   -1.9678411  0.029401858   -2.6933955   0.72555444   393761 
 2780000   0.53981614   -2.6941659   -2.6941659   -1.9673797  0.030454715   -2.6941659   0.72678612   393644 
 2790000   0.53898576   -2.6935143   -2.6935143   -1.9676285  0.023375223   -2.6935143   0.72588573   393526 
 2800000   0.53888651   -2.6946746   -2.6946746   -1.9687049  0.024741089   -2.6946746   0.72596975   393408 
 2810000   0.53812541   -2.6935379   -2.6935379   -1.9683778  0.026312445   -2.6935379   0.72516008   393291 
 2820000   0.53830634    -2.694109    -2.694109   -1.9684874  0.026468822    -2.694109    0.7256216   393173 
 2830000   0.53875244   -2.6962222   -2.6962222   -1.9697812  0.033504062   -2.6962222   0.72644096   393055 
 2840000   0.53894478   -2.6940876   -2.6940876    -1.967171  0.028517722   -2.6940876   0.72691668   392938 
 2850000   0.53799629   -2.6931531   -2.6931531   -1.9672977  0.030187736   -2.6931531   0.72585535   392820 
 2860000   0.53657872   -2.6940196   -2.6940196   -1.9698593  0.022254169   -2.6940196   0.72416032   392702 
 2870000   0.53846358   -2.6958867   -2.6958867    -1.968966  0.024541414   -2.6958867   0.72692069   392585 
 2880000   0.53671192   -2.6948681   -2.6948681   -1.9700943  0.031018355   -2.6948681   0.72477381   392467 
 2890000   0.53831584   -2.6957212   -2.6957212   -1.9685629   0.02618728   -2.6957212   0.72715837   392349 
 2900000   0.53711087   -2.6938614   -2.6938614   -1.9681143   0.02384677   -2.6938614   0.72574711   392232 
 2910000   0.53918487    -2.695658    -2.695658   -1.9668893   0.03721332    -2.695658   0.72876876   392114 
 2920000   0.53621241    -2.692288    -2.692288   -1.9673205  0.019936032    -2.692288   0.72496746   391997 
 2930000   0.53718513   -2.6947793   -2.6947793    -1.968278  0.025997021   -2.6947793   0.72650128   391879 
 2940000   0.53645237   -2.6947455   -2.6947455   -1.9690167  0.026677856   -2.6947455   0.72572882   391761 
 2950000   0.53679636   -2.6965977   -2.6965977   -1.9701866   0.03332774   -2.6965977   0.72641112   391644 
 2960000    0.5370702   -2.6979619   -2.6979619   -1.9709611  0.029429959   -2.6979619   0.72700073   391526 
 2970000   0.53528285   -2.6937281   -2.6937281   -1.9689284  0.024244873   -2.6937281   0.72479973   391408 
 2980000   0.53556066   -2.6936315   -2.6936315   -1.9682387  0.029338456   -2.6936315   0.72539274   391291 
 2990000   0.53542043   -2.6932072   -2.6932072   -1.9677856  0.025016618   -2.6932072   0.72542158   391173 
 3000000   0.53558806   -2.6965736   -2.6965736    -1.970706  0.026374952   -2.6965736   0.72586765   391055 
 3010000   0.53584556   -2.6978328   -2.6978328   -1.9713988  0.031219691   -2.6978328   0.72643397   390938 
 3020000   0.53542748   -2.6950351   -2.6950351   -1.9689488  0.030004527   -2.6950351   0.72608635   390820 
 3030000   0.53501965   -2.6952839   -2.6952839   -1.9695314  0.023914823   -2.6952839   0.72575243   390702 
 3040000   0.53569336   -2.6966458   -2.6966458   -1.9697618  0.032481618   -2.6966458   0.72688399   390585 
 3050000   0.53374915   -2.6962005   -2.6962005   -1.9717357  0.026865474   -2.6962005   0.72446474   390467 
 3060000   0.53441132   -2.6950882   -2.6950882   -1.9695054   0.02907741   -2.6950882   0.72558279   390349 
 3070000   0.53349651   -2.6931633   -2.6931633   -1.9686053  0.015875875   -2.6931633   0.72455791   390232 
 3080000   0.53328268   -2.6941125   -2.6941125   -1.9696259  0.027457946   -2.6941125   0.72448658   390114 
 3090000   0.53511658   -2.6963515   -2.6963515   -1.9691554  0.025495886   -2.6963515    0.7271961   389997 
 3100000   0.53358287   -2.6958373   -2.6958373    -1.970506   0.02882371   -2.6958373   0.72533132   389879 
 3110000   0.53362946   -2.6962318   -2.6962318   -1.9706176  0.036413719   -2.6962318   0.72561427   389761 
 3120000   0.53179174   -2.6956211   -2.6956211   -1.9722886  0.031902126   -2.6956211   0.72333252   389644 
 3130000   0.53267982   -2.6973561   -2.6973561   -1.9725961  0.035264151   -2.6973561   0.72475995   389526 
 3140000   0.53280035   -2.6973213   -2.6973213   -1.9721777  0.031482513   -2.6973213   0.72514362   389408 
 3150000   0.53154716   -2.6957967   -2.6957967   -1.9721412  0.032630457   -2.6957967   0.72365545   389291 
 3160000   0.53196775   -2.6946908   -2.6946908   -1.9702432  0.021981791   -2.6946908   0.72444764   389173 
 3170000   0.53148225   -2.6945004   -2.6945004   -1.9704944  0.019880327   -2.6945004   0.72400599   389055 
 3180000   0.53184603   -2.6969016   -2.6969016   -1.9721821  0.026075387   -2.6969016   0.72471949   388938 
 3190000   0.53231328   -2.6972473   -2.6972473   -1.9716709  0.034147593   -2.6972473   0.72557632   388820 
 3200000   0.53160049   -2.6965062   -2.6965062   -1.9716815  0.023994609   -2.6965062   0.72482472   388702 
 3210000   0.53135109   -2.6961761   -2.6961761   -1.9714733  0.030395935   -2.6961761   0.72470281   388585 
 3220000   0.53041922   -2.6952702   -2.6952702   -1.9716186  0.026274693   -2.6952702   0.72365158   388467 
 3230000   0.53134314    -2.696437    -2.696437   -1.9713047  0.027700489    -2.696437   0.72513236   388349 
 3240000    0.5316184   -2.6951581   -2.6951581   -1.9694314  0.020965185   -2.6951581   0.72572665   388232 
 3250000    0.5281462   -2.6921145   -2.6921145   -1.9709086  0.016856207   -2.6921145   0.72120586   388114 
 3260000   0.53018495   -2.6962997   -2.6962997   -1.9720915   0.02776536   -2.6962997   0.72420818   387997 
 3270000   0.53102939   -2.6974937   -2.6974937   -1.9719114  0.024018751   -2.6974937   0.72558231   387879 
 3280000   0.52993704    -2.693999    -2.693999   -1.9696889  0.021452603    -2.693999   0.72431011   387761 
 3290000    0.5297986   -2.6936934   -2.6936934    -1.969354  0.030349639   -2.6936934   0.72433944   387644 
 3300000   0.52940545   -2.6954223   -2.6954223      -1.9714  0.032120771   -2.6954223   0.72402233   387526 
 3310000   0.52953353   -2.6963924   -2.6963924   -1.9719743  0.022544808   -2.6963924   0.72441807   387408 
 3320000   0.52824461   -2.6958389   -2.6958389   -1.9729658  0.031444442   -2.6958389    0.7228731   387291 
 3330000   0.52874558   -2.6962941   -2.6962941   -1.9725149  0.027763026   -2.6962941   0.72377918   387173 
 3340000    0.5278994   -2.6959253   -2.6959253   -1.9730842  0.022866822   -2.6959253   0.72284118   387055 
 3350000    0.5271196   -2.6958226   -2.6958226   -1.9738309  0.015656819   -2.6958226   0.72199166   386938 
 3360000   0.52749059   -2.6982494   -2.6982494   -1.9755292  0.022903298   -2.6982494    0.7227202   386820 
 3370000   0.52641907   -2.6968236   -2.6968236   -1.9753514  0.026399019   -2.6968236   0.72147219   386702 
 3380000   0.52692628   -2.6970448   -2.6970448   -1.9746589  0.026419334   -2.6970448   0.72238589   386585 
 3390000   0.52577138   -2.6973739   -2.6973739   -1.9763512  0.019210473   -2.6973739   0.72102267   386467 
 3400000    0.5260486   -2.6983721   -2.6983721   -1.9767489  0.023837599   -2.6983721   0.72162318   386349 
 3410000   0.52506231   -2.6963738   -2.6963738   -1.9758855  0.025981406   -2.6963738   0.72048839   386232 
 3420000   0.52577665   -2.6974145   -2.6974145   -1.9757254  0.035419241   -2.6974145    0.7216891   386114 
 3430000   0.52532646     -2.69651     -2.69651   -1.9752203   0.02291573     -2.69651   0.72128972   385997 
 3440000   0.52585168   -2.6961928   -2.6961928   -1.9739611  0.023948065   -2.6961928   0.72223166   385879 
 3450000   0.52583599   -2.6975295   -2.6975295   -1.9750985  0.020865427   -2.6975295   0.72243102   385761 
 3460000   0.52511306   -2.6984815   -2.6984815   -1.9768249  0.032438436   -2.6984815   0.72165669   385644 
 3470000    0.5252755   -2.7002355   -2.7002355   -1.9781347  0.023331704   -2.7002355   0.72210088   385526 
 3480000   0.52603732   -2.6992314   -2.6992314   -1.9758619   0.02885557   -2.6992314   0.72336956   385408 
 3490000   0.52604267     -2.69728     -2.69728   -1.9736834  0.024703357     -2.69728   0.72359658   385291 
 3500000   0.52553177   -2.6985282   -2.6985282   -1.9754129  0.036768524   -2.6985282   0.72311528   385173 
 3510000   0.52390558   -2.6977183   -2.6977183   -1.9766197  0.021205263   -2.6977183    0.7210986   385055 
 3520000   0.52443347   -2.6999583   -2.6999583   -1.9779137  0.025576857   -2.6999583   0.72204459   384938 
 3530000   0.52455449   -2.6997515   -2.6997515   -1.9773189  0.021558891   -2.6997515   0.72243265   384820 
 3540000   0.52309648   -2.6962524   -2.6962524   -1.9756068  0.036055522   -2.6962524   0.72064561   384702 
 3550000    0.5240764   -2.6994462   -2.6994462    -1.977231  0.023889318   -2.6994462   0.72221526   384585 
 3560000   0.52368537    -2.700573    -2.700573   -1.9786751  0.021498516    -2.700573   0.72189788   384467 
 3570000   0.52340331   -2.7006786   -2.7006786   -1.9789481  0.021616181   -2.7006786   0.72173057   384349 
 3580000   0.52389489   -2.7003287   -2.7003287   -1.9777003  0.012305706   -2.7003287    0.7226284   384232 
 3590000   0.52216953   -2.6978982   -2.6978982   -1.9774284  0.023865505   -2.6978982   0.72046981   384114 
 3600000   0.52325838   -2.6987566   -2.6987566   -1.9765645  0.022051564   -2.6987566   0.72219214   383997 
 3610000   0.52298844   -2.6982915   -2.6982915     -1.97625  0.022462825   -2.6982915   0.72204145   383879 
 3620000   0.52228829   -2.6967774   -2.6967774   -1.9754809  0.037927056   -2.6967774   0.72129654   383761 
 3630000   0.52330543   -2.6997056   -2.6997056   -1.9767839   0.02983327   -2.6997056   0.72292165   383644 
 3640000   0.52391758   -2.6994477   -2.6994477   -1.9754577  0.027775704   -2.6994477   0.72398998   383526 
 3650000   0.52174996   -2.6987748   -2.6987748   -1.9775583   0.02342551   -2.6987748    0.7212165   383408 
 3660000   0.52136077   -2.6987268   -2.6987268   -1.9778283  0.020913233   -2.6987268    0.7208985   383291 
 3670000   0.52158247   -2.6974484   -2.6974484   -1.9760212  0.024362958   -2.6974484   0.72142716   383173 
 3680000   0.52256295    -2.697642    -2.697642   -1.9746361  0.029096501    -2.697642   0.72300596   383055 
 3690000   0.52167817   -2.6974459   -2.6974459   -1.9754435   0.02184831   -2.6974459   0.72200233   382938 
 3700000   0.52074782   -2.6964648   -2.6964648   -1.9755279  0.020974208   -2.6964648   0.72093687   382820 
 3710000    0.5218664   -2.6979177   -2.6979177   -1.9752095  0.032112696   -2.6979177   0.72270823   382702 
 3720000   0.52040903   -2.6967109   -2.6967109   -1.9758005  0.014567323   -2.6967109   0.72091039   382585 
 3730000   0.52210599   -2.6976018   -2.6976018   -1.9741175  0.032450133   -2.6976018   0.72348428   382467 
 3740000   0.52106926   -2.6972062   -2.6972062   -1.9749357  0.025797828   -2.6972062   0.72227052   382349 
 3750000   0.52023631   -2.6970345   -2.6970345   -1.9756979  0.023602792   -2.6970345   0.72133668   382232 
 3760000    0.5213306   -2.6984059   -2.6984059   -1.9753287  0.031326686   -2.6984059    0.7230772   382114 
 3770000   0.51979826   -2.6981318   -2.6981318   -1.9769592  0.018860474   -2.6981318   0.72117268   381997 
 3780000   0.52158988   -2.6991612   -2.6991612   -1.9752792  0.028392189   -2.6991612   0.72388199   381879 
 3790000   0.51993902   -2.6969991   -2.6969991   -1.9751852   0.03149062   -2.6969991   0.72181391   381761 
 3800000   0.51951064   -2.6985753   -2.6985753   -1.9771349  0.034418689   -2.6985753   0.72144031   381644 
 3810000   0.51936975   -2.6987797   -2.6987797   -1.9773119  0.032008642   -2.6987797   0.72146773   381526 
 3820000   0.51783106   -2.6974737   -2.6974737   -1.9779209  0.021961126   -2.6974737   0.71955284   381408 
 3830000   0.51818987   -2.6993371   -2.6993371   -1.9790647  0.021571393   -2.6993371   0.72027238   381291 
 3840000   0.51939645   -2.6988431   -2.6988431   -1.9766701  0.024748971   -2.6988431     0.722173   381173 
 3850000   0.51884211   -2.6976643   -2.6976643   -1.9760386  0.031296799   -2.6976643   0.72162563   381055 
 3860000   0.51868882   -2.6987237   -2.6987237   -1.9770897  0.027855193   -2.6987237     0.721634   380938 
 3870000   0.51953688   -2.7012198   -2.7012198    -1.978182  0.031160687   -2.7012198   0.72303785   380820 
 3880000   0.51668709   -2.6975409   -2.6975409   -1.9782462  0.029589327   -2.6975409   0.71929468   380702 
 3890000   0.51790292   -2.6980368   -2.6980368   -1.9768279  0.021520155   -2.6980368   0.72120891   380585 
 3900000   0.51641169    -2.696148    -2.696148   -1.9767927  0.028639496    -2.696148   0.71935533   380467 
 3910000   0.51742183   -2.6971909   -2.6971909   -1.9762048  0.023928556   -2.6971909   0.72098606   380349 
 3920000   0.51797545   -2.6996215   -2.6996215    -1.977642  0.026912333   -2.6996215   0.72197957   380232 
 3930000   0.51594602   -2.6966807   -2.6966807   -1.9773066  0.031411106   -2.6966807    0.7193741   380114 
 3940000   0.51629214   -2.6973405   -2.6973405   -1.9772621  0.024817167   -2.6973405   0.72007834   379997 
 3950000   0.51616388    -2.698898    -2.698898    -1.978775  0.029228203    -2.698898   0.72012306   379879 
 3960000   0.51598178   -2.6975424   -2.6975424   -1.9774498  0.027931399   -2.6975424   0.72009268   379761 
 3970000   0.51529735   -2.6962703   -2.6962703   -1.9769112  0.025393675   -2.6962703   0.71935914   379644 
 3980000   0.51529873   -2.6973698   -2.6973698   -1.9777851  0.028561331   -2.6973698   0.71958472   379526 
 3990000   0.51467047   -2.6998862   -2.6998862   -1.9809553  0.028408051   -2.6998862   0.71893093   379408 
 4000000   0.51414607   -2.7004736   -2.7004736   -1.9820536  0.023312473   -2.7004736   0.71841994   379291 
 4010000   0.51368796   -2.6992634   -2.6992634   -1.9812602  0.020574415   -2.6992634    0.7180032   379173 
 4020000    0.5142934   -2.6999774   -2.6999774   -1.9809042  0.024585725   -2.6999774   0.71907322   379055 
 4030000   0.51527254   -2.6996716   -2.6996716   -1.9790069  0.031002364   -2.6996716   0.72066468   378938 
 4040000   0.51391941   -2.6977109   -2.6977109   -1.9787148  0.027995311   -2.6977109   0.71899607   378820 
 4050000   0.51486932   -2.7000971   -2.7000971   -1.9795476  0.020320181   -2.7000971   0.72054949   378702 
 4060000   0.51338745   -2.6985536   -2.6985536   -1.9798559  0.024586737   -2.6985536   0.71869769   378585 
 4070000   0.51411825   -2.7001409   -2.7001409   -1.9801957  0.018035709   -2.7001409   0.71994513   378467 
 4080000   0.51279544   -2.6995349   -2.6995349   -1.9812182  0.025835756   -2.6995349    0.7183167   378349 
 4090000   0.51385362   -2.7006055   -2.7006055   -1.9805838  0.031562425   -2.7006055   0.72002163   378232 
 4100000   0.51301609   -2.7006774   -2.7006774    -1.981605  0.021401358   -2.7006774   0.71907241   378114 
 4110000   0.51255747   -2.7000696   -2.7000696   -1.9814177  0.033297314   -2.7000696   0.71865195   377997 
 4120000   0.51355153   -2.7009265   -2.7009265   -1.9806559  0.025110997   -2.7009265   0.72027057   377879 
 4130000   0.51207315   -2.6993703   -2.6993703   -1.9809488  0.024691735   -2.6993703   0.71842144   377761 
 4140000   0.51226077   -2.7010416   -2.7010416   -1.9821343  0.022021946   -2.7010416   0.71890731   377644 
 4150000   0.51161292   -2.7013843   -2.7013843   -1.9831618  0.022019734   -2.7013843   0.71822254   377526 
 4160000     0.512274    -2.702263    -2.702263   -1.9828875  0.023730169    -2.702263   0.71937545   377408 
 4170000   0.51202536   -2.7004849   -2.7004849   -1.9812357  0.035612808   -2.7004849   0.71924926   377291 
 4180000   0.51177275   -2.7007277   -2.7007277   -1.9816084  0.023904918   -2.7007277   0.71911933   377173 
 4190000   0.51036223   -2.7011227   -2.7011227    -1.983761  0.028162252   -2.7011227   0.71736176   377055 
 4200000   0.51074853   -2.7003782   -2.7003782   -1.9822507  0.032751606   -2.7003782   0.71812757   376938 
 4210000   0.50995406   -2.7019812   -2.7019812   -1.9847461  0.030560894   -2.7019812   0.71723505   376820 
 4220000   0.51090362   -2.7026856   -2.7026856   -1.9838899  0.031611826   -2.7026856   0.71879567   376702 
 4230000   0.51093635   -2.7035746   -2.7035746   -1.9845095  0.030446802   -2.7035746   0.71906506   376585 
 4240000   0.50968758   -2.7024816   -2.7024816   -1.9849492  0.034755531   -2.7024816   0.71753243   376467 
 4250000   0.50931112   -2.7008303   -2.7008303    -1.983603  0.017409888   -2.7008303   0.71722727   376349 
 4260000   0.50984003   -2.7009703   -2.7009703   -1.9827749  0.023550505   -2.7009703   0.71819536   376232 
 4270000   0.51046502   -2.7010675   -2.7010675   -1.9817662  0.022761285   -2.7010675   0.71930136   376114 
 4280000   0.50732077   -2.6963985   -2.6963985   -1.9813053  0.022793906   -2.6963985   0.71509322   375997 
 4290000   0.50964965   -2.7020084   -2.7020084    -1.983407   0.02571989   -2.7020084   0.71860141   375879 
 4300000   0.50871516   -2.7007699   -2.7007699   -1.9832609  0.020903075   -2.7007699   0.71750904   375761 
 4310000   0.50888641   -2.6981768   -2.6981768   -1.9802027  0.033129032   -2.6981768   0.71797412   375644 
 4320000   0.50902178   -2.6993935   -2.6993935   -1.9810027  0.019138441   -2.6993935   0.71839078   375526 
 4330000   0.50962972   -2.6990759   -2.6990759   -1.9796011  0.023903332   -2.6990759   0.71947486   375408 
 4340000   0.50775779   -2.6971462   -2.6971462   -1.9800906   0.02276292   -2.6971462   0.71705562   375291 
 4350000   0.50788178   -2.6976371   -2.6976371   -1.9801808  0.025733806   -2.6976371   0.71745631   375173 
 4360000   0.50847663    -2.700087    -2.700087   -1.9815644  0.024130741    -2.700087    0.7185226   375055 
 4370000   0.50679856   -2.6994272   -2.6994272   -1.9830524  0.030062407   -2.6994272   0.71637482   374938 
 4380000   0.50739596   -2.6971158   -2.6971158   -1.9796708  0.036206658   -2.6971158   0.71744505   374820 
 4390000   0.50722083   -2.7001388   -2.7001388   -1.9827156  0.022930608   -2.7001388   0.71742328   374702 
 4400000   0.50709789   -2.6997008   -2.6997008   -1.9822274  0.027841732   -2.6997008   0.71747343   374585 
 4410000   0.50662025   -2.6999829   -2.6999829   -1.9829593  0.019794208   -2.6999829    0.7170235   374467 
 4420000   0.50644574   -2.6997498   -2.6997498   -1.9827473  0.028174337   -2.6997498   0.71700246   374349 
 4430000   0.50575982   -2.6997714   -2.6997714   -1.9835162  0.025730732   -2.6997714   0.71625522   374232 
 4440000   0.50615752    -2.699423    -2.699423   -1.9823785   0.02508934    -2.699423   0.71704453   374114 
 4450000    0.5050634   -2.7006945   -2.7006945   -1.9849761  0.019164439   -2.7006945   0.71571839   373997 
 4460000   0.50533704   -2.7012405   -2.7012405   -1.9849083   0.03494458   -2.7012405   0.71633217   373879 
 4470000   0.50477866   -2.6999729   -2.6999729   -1.9842063  0.028989595   -2.6999729   0.71576656   373761 
 4480000   0.50525741   -2.6991051   -2.6991051   -1.9824354  0.022513951   -2.6991051   0.71666975   373644 
 4490000    0.5053343   -2.6988081   -2.6988081   -1.9818028  0.016892073   -2.6988081   0.71700525   373526 
 4500000     0.506343   -2.6994992   -2.6994992   -1.9808357  0.019920531   -2.6994992    0.7186635   373408 
 4510000   0.50502273   -2.6995341   -2.6995341   -1.9825199  0.034523008   -2.6995341   0.71701428   373291 
 4520000   0.50451738   -2.7001889   -2.7001889   -1.9836656  0.032402386   -2.7001889    0.7165233   373173 
 4530000   0.50596142   -2.7014066   -2.7014066   -1.9826051  0.029902456   -2.7014066   0.71880144   373055 
 4540000   0.50458585   -2.6980772   -2.6980772   -1.9810051  0.017780223   -2.6980772   0.71707211   372938 
 4550000   0.50446974   -2.6976235   -2.6976235   -1.9804895  0.028374152   -2.6976235     0.717134   372820 
 4560000   0.50381556   -2.6961836   -2.6961836   -1.9797528  0.028707477   -2.6961836   0.71643081   372702 
 4570000   0.50377748   -2.6984603   -2.6984603   -1.9818587  0.029266428   -2.6984603   0.71660161   372585 
 4580000   0.50270415   -2.6960679   -2.6960679   -1.9807665  0.034760949   -2.6960679   0.71530138   372467 
 4590000   0.50418522   -2.6981111   -2.6981111    -1.980475   0.03051662   -2.6981111   0.71763616   372349 
 4600000   0.50259483   -2.6962666   -2.6962666   -1.9806692  0.020318729   -2.6962666   0.71559733   372232 
 4610000   0.50379109   -2.6967326   -2.6967326   -1.9792046  0.028915421   -2.6967326   0.71752803   372114 
 4620000   0.50251532   -2.6966352   -2.6966352   -1.9806991  0.018830965   -2.6966352   0.71593611   371997 
 4630000   0.50222448   -2.6969726   -2.6969726   -1.9812238  0.021120111   -2.6969726   0.71574878   371879 
 4640000   0.50303342   -2.7007957   -2.7007957   -1.9836665   0.02598143   -2.7007957    0.7171292   371761 
 4650000   0.50194932   -2.6982419   -2.6982419   -1.9824329  0.037200577   -2.6982419   0.71580898   371644 
 4660000   0.50140505   -2.7000466   -2.7000466   -1.9847867  0.039557488   -2.7000466   0.71525992   371526 
 4670000   0.50131797   -2.7002676   -2.7002676   -1.9849047  0.027842928   -2.7002676    0.7153629   371408 
 4680000   0.50036613   -2.6961987   -2.6961987   -1.9819691  0.026656415   -2.6961987   0.71422966   371291 
 4690000   0.50145717   -2.6988577   -2.6988577   -1.9828431    0.0235862   -2.6988577   0.71601457   371173 
 4700000   0.50247922   -2.7001507   -2.7001507   -1.9824486   0.02882093   -2.7001507    0.7177021   371055 
 4710000   0.50072828   -2.6988201   -2.6988201   -1.9833934   0.02605969   -2.6988201   0.71542678   370938 
 4720000   0.50141986   -2.7002548   -2.7002548    -1.983612  0.027572077   -2.7002548   0.71664287   370820 
 4730000   0.49958087   -2.6983359   -2.6983359   -1.9840941  0.028724568   -2.6983359   0.71424181   370702 
 4740000   0.50033704   -2.6980386   -2.6980386   -1.9824899  0.032051466   -2.6980386   0.71554873   370585 
 4750000   0.49999546   -2.6990721   -2.6990721   -1.9837841  0.026733444   -2.6990721   0.71528798   370467 
 4760000   0.49994534   -2.7001825   -2.7001825   -1.9847383  0.030780593   -2.7001825   0.71544416   370349 
 4770000   0.50066652   -2.7011962   -2.7011962   -1.9844936  0.030926627   -2.7011962   0.71670263   370232 
 4780000   0.49885234   -2.6987907   -2.6987907   -1.9844574  0.023978503   -2.6987907    0.7143333   370114 
 4790000    0.4983448   -2.6994665   -2.6994665   -1.9856343   0.03678899   -2.6994665   0.71383218   369997 
 4800000   0.49769337   -2.6983685   -2.6983685    -1.985242  0.016525203   -2.6983685    0.7131265   369879 
 4810000   0.49887933   -2.7007829   -2.7007829    -1.985729  0.032455217   -2.7007829   0.71505394   369761 
 4820000    0.4986855   -2.7017991   -2.7017991   -1.9867967  0.027570505   -2.7017991   0.71500236   369644 
 4830000   0.49801318   -2.7000969   -2.7000969   -1.9858305  0.022767558   -2.7000969   0.71426641   369526 
 4840000   0.49897025   -2.6996732   -2.6996732   -1.9838055  0.029615406   -2.6996732   0.71586768   369408 
 4850000    0.4977089   -2.6978844   -2.6978844   -1.9836001  0.018237278   -2.6978844   0.71428427   369291 
 4860000    0.4986009    -2.700331    -2.700331   -1.9845378  0.021435666    -2.700331   0.71579313   369173 
 4870000   0.49859048   -2.7011535   -2.7011535   -1.9851464  0.030173368   -2.7011535   0.71600703   369055 
 4880000   0.49716002   -2.6998123   -2.6998123   -1.9856331  0.044435398   -2.6998123   0.71417921   368938 
 4890000   0.49665388   -2.6984609   -2.6984609   -1.9847805  0.026348906   -2.6984609   0.71368039   368820 
 4900000   0.49635883   -2.6992299   -2.6992299   -1.9857452  0.026044571   -2.6992299   0.71348468   368702 
 4910000   0.49699239   -2.7008734   -2.7008734   -1.9862513  0.029683916   -2.7008734   0.71462216   368585 
 4920000   0.49795189   -2.7008817   -2.7008817   -1.9846506  0.021226554   -2.7008817   0.71623112   368467 
 4930000   0.49627023   -2.6991447   -2.6991447   -1.9851037  0.023791633   -2.6991447   0.71404097   368349 
 4940000   0.49559073    -2.698791    -2.698791   -1.9855011   0.01925961    -2.698791   0.71328985   368232 
 4950000   0.49516525   -2.6993586   -2.6993586   -1.9864527  0.032955767   -2.6993586   0.71290592   368114 
 4960000   0.49615622   -2.6988912   -2.6988912   -1.9843315  0.032830681   -2.6988912   0.71455976   367997 
 4970000   0.49580314   -2.6993825   -2.6993825   -1.9851022  0.022574583   -2.6993825    0.7142803   367879 
 4980000   0.49643647    -2.700444    -2.700444   -1.9850218  0.018087322    -2.700444   0.71542218   367761 
 4990000   0.49532735   -2.6993644   -2.6993644   -1.9853134  0.023623578   -2.6993644   0.71405098   367644 
 5000000   0.49623507   -2.7025432   -2.7025432    -1.986954  0.029728083   -2.7025432   0.71558922   367526 
 5010000   0.49532395   -2.7014668   -2.7014668    -1.986962  0.019703204   -2.7014668   0.71450474   367408 
 5020000   0.49568607   -2.7009876   -2.7009876   -1.9857328  0.029585601   -2.7009876   0.71525487   367291 
 5030000   0.49391043    -2.698017    -2.698017   -1.9850953  0.040880385    -2.698017   0.71292174   367173 
 5040000   0.49593897   -2.7026723   -2.7026723   -1.9865924  0.030941003   -2.7026723   0.71607991   367055 
 5050000   0.49335433   -2.6987604   -2.6987604   -1.9861853  0.026932597   -2.6987604   0.71257511   366938 
 5060000    0.4945091   -2.6991083   -2.6991083   -1.9846356  0.017524291   -2.6991083   0.71447276   366820 
 5070000   0.49485964    -2.699727    -2.699727   -1.9845177  0.024865391    -2.699727    0.7152093   366702 
 5080000   0.49395233   -2.7004409   -2.7004409    -1.986315  0.032325539   -2.7004409   0.71412584   366585 
 5090000   0.49470899   -2.7023419   -2.7023419   -1.9868919  0.030647734   -2.7023419   0.71545006   366467 
 5100000   0.49377124   -2.6984014   -2.6984014   -1.9840775  0.031756672   -2.6984014   0.71432389   366349 
 5110000   0.49303221   -2.6978555   -2.6978555   -1.9843729  0.017762944   -2.6978555   0.71348262   366232 
 5120000   0.49293633   -2.6993734   -2.6993734   -1.9857996  0.032310549   -2.6993734   0.71357379   366114 
 5130000   0.49335556   -2.6990247   -2.6990247   -1.9846157   0.02648748   -2.6990247   0.71440896   365997 
 5140000   0.49273163   -2.6985059   -2.6985059   -1.9847703  0.028031968   -2.6985059   0.71373559   365879 
 5150000   0.49343114   -2.7001121   -2.7001121   -1.9851326  0.025740202   -2.7001121   0.71497945   365761 
 5160000   0.49247648   -2.6998886   -2.6998886   -1.9860641  0.029840459   -2.6998886   0.71382449   365644 
 5170000   0.49209149    -2.700357    -2.700357   -1.9868603  0.023094767    -2.700357   0.71349672   365526 
 5180000   0.49199204    -2.701038    -2.701038   -1.9874551  0.027346048    -2.701038   0.71358288   365408 
 5190000   0.49092537   -2.7007297   -2.7007297   -1.9884659  0.034443617   -2.7007297   0.71226385   365291 
 5200000   0.49051876   -2.7002253   -2.7002253   -1.9883214  0.026281734   -2.7002253   0.71190388   365173 
 5210000   0.49158753   -2.7007428   -2.7007428   -1.9870572  0.021754309   -2.7007428   0.71368564   365055 
 5220000   0.49071739   -2.6983544   -2.6983544   -1.9857037  0.033162685   -2.6983544   0.71265077   364938 
 5230000   0.49115545   -2.6978707   -2.6978707   -1.9843531  0.036769213   -2.6978707   0.71351766   364820 
 5240000   0.49060883   -2.6980671   -2.6980671   -1.9851129  0.019410478   -2.6980671   0.71295416   364702 
 5250000   0.49183165    -2.699994    -2.699994   -1.9850334  0.032999387    -2.699994   0.71496054   364585 
 5260000   0.49054586   -2.6970599   -2.6970599   -1.9837376  0.037207357   -2.6970599    0.7133223   364467 
 5270000   0.49015435   -2.6985431   -2.6985431   -1.9855592  0.020922127   -2.6985431   0.71298382   364349 
 5280000   0.49079643   -2.6990917   -2.6990917   -1.9849446  0.026057317   -2.6990917   0.71414713   364232 
 5290000     0.489097   -2.6985139   -2.6985139    -1.986609  0.029790432   -2.6985139   0.71190495   364114 
 5300000   0.49057203   -2.6986277   -2.6986277   -1.9843463  0.032026366   -2.6986277   0.71428145   363997 
 5310000    0.4901095   -2.6999279   -2.6999279   -1.9860885  0.033205352   -2.6999279   0.71383941   363879 
 5320000   0.48909371   -2.6983004   -2.6983004   -1.9857094  0.029473465   -2.6983004   0.71259101   363761 
 5330000   0.49008902   -2.6990349   -2.6990349    -1.984764  0.034642602   -2.6990349   0.71427087   363644 
 5340000   0.48848183   -2.6983419   -2.6983419   -1.9861823  0.024025517   -2.6983419    0.7121596   363526 
 5350000   0.48819616   -2.6973474   -2.6973474   -1.9853732  0.022824552   -2.6973474   0.71197423   363408 
 5360000   0.48738313    -2.697307    -2.697307   -1.9862896  0.014107614    -2.697307   0.71101743   363291 
 5370000   0.48726856    -2.697874    -2.697874   -1.9867927  0.020795034    -2.697874   0.71108126   363173 
 5380000   0.48686924   -2.6989781   -2.6989781   -1.9882486  0.030353517   -2.6989781   0.71072946   363055 
 5390000   0.48800323   -2.7002812   -2.7002812   -1.9876667  0.031907633   -2.7002812    0.7126145   362938 
 5400000   0.48809498   -2.7013875   -2.7013875   -1.9884072  0.019504479   -2.7013875   0.71298029   362820 
 5410000    0.4870141   -2.7014097   -2.7014097   -1.9897769  0.023910694   -2.7014097   0.71163284   362702 
 5420000   0.48661487   -2.6997234   -2.6997234   -1.9884445  0.026682579   -2.6997234   0.71127892   362585 
 5430000   0.48664316   -2.7000013   -2.7000013   -1.9884495  0.024648418   -2.7000013   0.71155185   362467 
 5440000   0.48673926   -2.7009958   -2.7009958   -1.9890717  0.017762153   -2.7009958   0.71192412   362349 
 5450000   0.48683598   -2.7025083   -2.7025083   -1.9902128   0.03886862   -2.7025083   0.71229558   362232 
 5460000   0.48717519     -2.70066     -2.70066   -1.9876359  0.033281953     -2.70066   0.71302415   362114 
 5470000   0.48596888   -2.7005755   -2.7005755    -1.989087  0.021743632   -2.7005755    0.7114885   361997 
 5480000   0.48544176   -2.7012295   -2.7012295    -1.990281  0.023451031   -2.7012295   0.71094851   361879 
 5490000   0.48479052   -2.6982335   -2.6982335   -1.9880072  0.023225329   -2.6982335   0.71022633   361761 
 5500000   0.48544217   -2.6995939   -2.6995939   -1.9881829  0.028433659   -2.6995939   0.71141109   361644 
 5510000   0.48444292   -2.6982628   -2.6982628   -1.9880844  0.023352859   -2.6982628   0.71017842   361526 
 5520000   0.48550292   -2.6987211   -2.6987211   -1.9867564  0.021969612   -2.6987211   0.71196474   361408 
 5530000   0.48485871   -2.6969247   -2.6969247   -1.9856744  0.025819154   -2.6969247   0.71125029   361291 
 5540000    0.4855881   -2.6970027   -2.6970027   -1.9844497  0.030703689   -2.6970027   0.71255297   361173 
 5550000   0.48483097   -2.6976109   -2.6976109   -1.9859364  0.028086987   -2.6976109   0.71167447   361055 
 5560000   0.48513246   -2.6992262   -2.6992262   -1.9868783  0.028417743   -2.6992262   0.71234786   360938 
 5570000   0.48312114   -2.6970113   -2.6970113   -1.9873848  0.033629955   -2.6970113   0.70962652   360820 
 5580000   0.48314625   -2.6990479   -2.6990479   -1.9891523   0.03532042   -2.6990479   0.70989555   360702 
 5590000   0.48426236   -2.6982837   -2.6982837   -1.9865173  0.027794095   -2.6982837   0.71176636   360585 
 5600000   0.48446995   -2.7001582   -2.7001582   -1.9878536  0.031090104   -2.7001582   0.71230456   360467 
 5610000   0.48413029   -2.7002738   -2.7002738   -1.9882355  0.037051028   -2.7002738   0.71203827   360349 
 5620000   0.48366674    -2.698253    -2.698253   -1.9866655   0.03872317    -2.698253   0.71158753   360232 
 5630000   0.48159857   -2.6941816   -2.6941816   -1.9854046  0.033198263   -2.6941816   0.70877695   360114 
 5640000   0.48365832   -2.6990256   -2.6990256   -1.9869859  0.024603565   -2.6990256   0.71203965   359997 
 5650000   0.48194479   -2.6992092   -2.6992092   -1.9894595  0.019208519   -2.6992092   0.70974965   359879 
 5660000   0.48239981   -2.6989568   -2.6989568   -1.9883041  0.032027959   -2.6989568   0.71065275   359761 
 5670000   0.48288066   -2.6979701   -2.6979701   -1.9863775  0.020836826   -2.6979701   0.71159255   359644 
 5680000    0.4827863   -2.6974668   -2.6974668   -1.9857798  0.027937214   -2.6974668     0.711687   359526 
 5690000   0.48352228    -2.699224    -2.699224   -1.9862181  0.030394305    -2.699224   0.71300594   359408 
 5700000   0.48147795   -2.6964865   -2.6964865    -1.986264  0.035814372   -2.6964865   0.71022255   359291 
 5710000   0.48237651   -2.6978978   -2.6978978    -1.986116  0.023551242   -2.6978978   0.71178177   359173 
 5720000   0.48248763   -2.6986726   -2.6986726   -1.9864928  0.022610408   -2.6986726   0.71217972   359055 
 5730000   0.48108892    -2.698731    -2.698731   -1.9883844  0.022364678    -2.698731   0.71034662   358938 
 5740000   0.48016261   -2.6994978   -2.6994978   -1.9902857  0.025359059   -2.6994978   0.70921203   358820 
 5750000   0.47979026   -2.6976544   -2.6976544   -1.9887592  0.036708773   -2.6976544   0.70889519   358702 
 5760000   0.48008934   -2.6985531   -2.6985531   -1.9889846  0.021903817   -2.6985531   0.70956852   358585 
 5770000   0.48018039   -2.6998497   -2.6998497    -1.989913  0.028309895   -2.6998497   0.70993672   358467 
 5780000   0.48001802   -2.7003516   -2.7003516   -1.9904212  0.032041136   -2.7003516   0.70993035   358349 
 5790000   0.47922557   -2.6975618   -2.6975618    -1.988572  0.029133611   -2.6975618   0.70898982   358232 
 5800000   0.47985798   -2.6982528   -2.6982528   -1.9880935  0.024156736   -2.6982528   0.71015936   358114 
 5810000    0.4786496   -2.6976447   -2.6976447   -1.9890422  0.029870548   -2.6976447   0.70860254   357997 
 5820000   0.47943653   -2.6978882   -2.6978882   -1.9878866  0.024110947   -2.6978882   0.71000156   357879 
 5830000   0.47883381   -2.6975532   -2.6975532   -1.9882103  0.025255523   -2.6975532   0.70934287   357761 
 5840000   0.47944625   -2.6951129   -2.6951129   -1.9846304  0.034431938   -2.6951129   0.71048249   357644 
 5850000   0.47903406   -2.6953131   -2.6953131   -1.9852071  0.020553622   -2.6953131   0.71010596   357526 
 5860000   0.47816562   -2.6937089   -2.6937089   -1.9846563  0.026573562   -2.6937089   0.70905264   357408 
 5870000   0.47690087     -2.69386     -2.69386   -1.9864513  0.025464757     -2.69386   0.70740876   357291 
 5880000   0.47870779   -2.6969668   -2.6969668   -1.9866432  0.024411987   -2.6969668   0.71032364   357173 
 5890000   0.47671064   -2.6943591   -2.6943591   -1.9867651  0.022786635   -2.6943591   0.70759398   357055 
 5900000   0.47708259    -2.696723    -2.696723   -1.9883448  0.023772729    -2.696723   0.70837819   356938 
 5910000   0.47757825   -2.6961461   -2.6961461   -1.9867975  0.029135806   -2.6961461   0.70934865   356820 
 5920000   0.47699908   -2.6951659   -2.6951659   -1.9864431  0.020152044   -2.6951659   0.70872279   356702 
 5930000   0.47803633   -2.6969879   -2.6969879   -1.9864909  0.027437216   -2.6969879   0.71049697   356585 
 5940000   0.47711902   -2.6977406   -2.6977406   -1.9883723   0.01779355   -2.6977406   0.70936834   356467 
 5950000   0.47867876   -2.6976398   -2.6976398   -1.9857169  0.022173379   -2.6976398   0.71192297   356349 
 5960000   0.47706342   -2.6927293   -2.6927293   -1.9829757   0.02965272   -2.6927293   0.70975356   356232 
 5970000   0.47735213   -2.6958156   -2.6958156   -1.9853972   0.02475067   -2.6958156   0.71041843   356114 
 5980000   0.47584819   -2.6964017   -2.6964017   -1.9879887  0.024643323   -2.6964017   0.70841293   355997 
 5990000   0.47663961   -2.6964307   -2.6964307   -1.9866043  0.027272697   -2.6964307   0.70982644   355879 
 6000000   0.47632441   -2.6966989   -2.6966989   -1.9871066  0.029392696   -2.6966989   0.70959231   355761 
 6010000   0.47528621   -2.6926349   -2.6926349   -1.9843563  0.023975209   -2.6926349    0.7082786   355644 
 6020000   0.47570025   -2.6941717   -2.6941717   -1.9850408  0.026451721   -2.6941717    0.7091309   355526 
 6030000   0.47577594   -2.6954445   -2.6954445   -1.9859653  0.023954723   -2.6954445   0.70947921   355408 
 6040000   0.47509205    -2.694311    -2.694311   -1.9856183  0.023404608    -2.694311    0.7086927   355291 
 6050000   0.47509318   -2.6952861   -2.6952861   -1.9863563  0.034333134   -2.6952861   0.70892982   355173 
 6060000   0.47516697   -2.6941183   -2.6941183   -1.9848428  0.028127175   -2.6941183   0.70927558   355055 
 6070000   0.47462166   -2.6935901   -2.6935901    -1.984895  0.031984934   -2.6935901   0.70869513   354938 
 6080000   0.47417858    -2.694135    -2.694135    -1.985866  0.024234856    -2.694135   0.70826901   354820 
 6090000   0.47463225   -2.6937369   -2.6937369   -1.9845545  0.025531645   -2.6937369   0.70918249   354702 
 6100000    0.4743122    -2.694153    -2.694153   -1.9852148  0.029388148    -2.694153   0.70893813   354585 
 6110000    0.4741608   -2.6944984   -2.6944984   -1.9855507  0.024858905   -2.6944984   0.70894776   354467 
 6120000   0.47493736   -2.6959562   -2.6959562   -1.9856109  0.025423326   -2.6959562   0.71034532   354349 
 6130000   0.47270301   -2.6929523   -2.6929523   -1.9857153  0.026748914   -2.6929523     0.707237   354232 
 6140000   0.47392774   -2.6940283   -2.6940283   -1.9847226  0.027654487   -2.6940283   0.70930567   354114 
 6150000   0.47322673   -2.6925127   -2.6925127   -1.9840221  0.028646991   -2.6925127   0.70849058   353997 
 6160000   0.47291793   -2.6916695   -2.6916695   -1.9834051   0.02778968   -2.6916695   0.70826436   353879 
 6170000   0.47168638   -2.6905631   -2.6905631   -1.9839075   0.02513792   -2.6905631   0.70665556   353761 
 6180000   0.47308731   -2.6919282   -2.6919282   -1.9829393  0.030750024   -2.6919282   0.70898884   353644 
 6190000   0.47299211    -2.693615    -2.693615   -1.9845322  0.027211451    -2.693615   0.70908277   353526 
 6200000   0.47267198   -2.6926189   -2.6926189   -1.9837794   0.03219644   -2.6926189   0.70883945   353408 
 6210000   0.47253896   -2.6957091   -2.6957091   -1.9868345   0.01940866   -2.6957091   0.70887464   353291 
 6220000    0.4721525   -2.6945725   -2.6945725   -1.9860409  0.035188334   -2.6945725   0.70853156   353173 
 6230000   0.47161483   -2.6938093   -2.6938093   -1.9858481  0.029930168   -2.6938093   0.70796124   353055 
 6240000   0.47123122    -2.692912    -2.692912   -1.9852921  0.034062151    -2.692912   0.70761989   352938 
 6250000   0.46999307   -2.6931277   -2.6931277    -1.987131  0.025463632   -2.6931277   0.70599668   352820 
 6260000   0.47095038   -2.6941868   -2.6941868   -1.9865154  0.028339944   -2.6941868   0.70767137   352702 
 6270000   0.46925646   -2.6920869   -2.6920869   -1.9867269  0.032845117   -2.6920869   0.70535999   352585 
 6280000   0.47118453   -2.6928522   -2.6928522   -1.9843569  0.029825046   -2.6928522   0.70849528   352467 
 6290000   0.47088874   -2.6948498   -2.6948498   -1.9865621  0.022158408   -2.6948498   0.70828763   352349 
 6300000   0.47049327   -2.6947898   -2.6947898   -1.9868619  0.017535933   -2.6947898   0.70792787   352232 
 6310000   0.47099507   -2.6943484   -2.6943484    -1.985428   0.02458343   -2.6943484   0.70892039   352114 
 6320000   0.46994837   -2.6962308   -2.6962308   -1.9886507  0.021750514   -2.6962308   0.70758006   351997 
 6330000   0.46972811    -2.694775    -2.694775   -1.9872894  0.024929238    -2.694775    0.7074856   351879 
 6340000   0.47089351   -2.6958649   -2.6958649   -1.9863862  0.031417557   -2.6958649   0.70947879   351761 
 6350000   0.46959503   -2.6943401   -2.6943401   -1.9865822   0.03021564   -2.6943401   0.70775782   351644 
 6360000   0.46876461   -2.6930439   -2.6930439   -1.9863005  0.022501219   -2.6930439   0.70674341   351526 
 6370000   0.46889994   -2.6950187   -2.6950187   -1.9878339  0.032020662   -2.6950187   0.70718483   351408 
 6380000    0.4683548   -2.6953768   -2.6953768   -1.9887789   0.02770819   -2.6953768   0.70659791   351291 
 6390000   0.46718996    -2.695417    -2.695417   -1.9903396  0.032658559    -2.695417   0.70507737   351173 
 6400000   0.46757255   -2.6938367   -2.6938367   -1.9879448  0.018710612   -2.6938367   0.70589197   351055 
 6410000    0.4668946   -2.6939189   -2.6939189   -1.9888155  0.034603031   -2.6939189   0.70510347   350938 
 6420000   0.46793383   -2.6936859   -2.6936859   -1.9867753  0.038178085   -2.6936859   0.70691061   350820 
 6430000   0.46617784   -2.6934115   -2.6934115   -1.9889167  0.026526481   -2.6934115   0.70449478   350702 
 6440000      0.46701    -2.693882    -2.693882   -1.9878941  0.027678212    -2.693882   0.70598789   350585 
 6450000   0.46731359   -2.6929688   -2.6929688   -1.9862842  0.029681367   -2.6929688   0.70668468   350467 
 6460000   0.46719088   -2.6914695   -2.6914695   -1.9847324  0.027387834   -2.6914695   0.70673706   350349 
 6470000   0.46649422   -2.6911279   -2.6911279   -1.9852089  0.029433204   -2.6911279   0.70591895   350232 
 6480000   0.46702481   -2.6930625   -2.6930625   -1.9861024  0.027187652   -2.6930625   0.70696004   350114 
 6490000   0.46668347   -2.6936132   -2.6936132   -1.9869337  0.031014615   -2.6936132    0.7066795   349997 
 6500000   0.46568574   -2.6929012   -2.6929012   -1.9874947  0.027286305   -2.6929012   0.70540651   349879 
 6510000   0.46577911   -2.6930198   -2.6930198   -1.9872338  0.032011658   -2.6930198   0.70578597   349761 
 6520000   0.46639434   -2.6936668   -2.6936668   -1.9867121  0.035514515   -2.6936668   0.70695471   349644 
 6530000   0.46533654   -2.6934067   -2.6934067   -1.9878172  0.029577703   -2.6934067   0.70558942   349526 
 6540000   0.46519995    -2.692598    -2.692598   -1.9869775  0.038170288    -2.692598   0.70562054   349408 
 6550000    0.4644842   -2.6904298   -2.6904298   -1.9856589  0.017953023   -2.6904298   0.70477088   349291 
 6560000   0.46492049   -2.6925257   -2.6925257   -1.9868545  0.020218415   -2.6925257   0.70567126   349173 
 6570000   0.46619433   -2.6937353   -2.6937353   -1.9858914  0.014349272   -2.6937353   0.70784394   349055 
 6580000   0.46516672    -2.692295    -2.692295   -1.9857745  0.024149595    -2.692295    0.7065205   348938 
 6590000   0.46584126    -2.693794    -2.693794   -1.9860096  0.032720764    -2.693794   0.70778437   348820 
 6600000   0.46392474   -2.6912693   -2.6912693   -1.9861583  0.020607401   -2.6912693   0.70511101   348702 
 6610000   0.46407285   -2.6906202   -2.6906202   -1.9850474  0.028942704   -2.6906202   0.70557286   348585 
 6620000   0.46459531   -2.6908497   -2.6908497   -1.9842433  0.029719129   -2.6908497   0.70660639   348467 
 6630000   0.46342542   -2.6906168   -2.6906168   -1.9855509  0.029377052   -2.6906168   0.70506586   348349 
 6640000   0.46336976   -2.6897463   -2.6897463   -1.9845282  0.029041376   -2.6897463   0.70521803   348232 
 6650000   0.46343091   -2.6881367   -2.6881367   -1.9825865  0.026084616   -2.6881367   0.70555018   348114 
 6660000   0.46429236   -2.6896922   -2.6896922   -1.9825929  0.029140618   -2.6896922   0.70709935   347997 
 6670000   0.46364037    -2.690098    -2.690098   -1.9837521  0.026073316    -2.690098    0.7063459   347879 
 6680000   0.46385779   -2.6914694   -2.6914694   -1.9845525  0.035993781   -2.6914694   0.70691692   347761 
 6690000   0.46289692   -2.6906666   -2.6906666   -1.9849766   0.02478164   -2.6906666   0.70568999   347644 
 6700000   0.46238436   -2.6900067   -2.6900067   -1.9848587  0.027300425   -2.6900067   0.70514793   347526 
 6710000    0.4637176   -2.6945043   -2.6945043    -1.987083  0.030473487   -2.6945043   0.70742134   347408 
 6720000   0.46287336   -2.6935387   -2.6935387   -1.9871674  0.030224688   -2.6935387   0.70637132   347291 
 6730000   0.46172694   -2.6896796   -2.6896796   -1.9848183  0.034229531   -2.6896796   0.70486131   347173 
 6740000   0.46064516   -2.6908446   -2.6908446   -1.9873956  0.026043909   -2.6908446   0.70344899   347055 
 6750000   0.46245143   -2.6936455   -2.6936455      -1.9872  0.033462784   -2.6936455   0.70644548   346938 
 6760000   0.46206748   -2.6913921   -2.6913921    -1.985293  0.022588522   -2.6913921   0.70609912   346820 
 6770000   0.46110616   -2.6894649   -2.6894649    -1.984595  0.026678645   -2.6894649   0.70486991   346702 
 6780000   0.46149403   -2.6896857   -2.6896857   -1.9839847  0.019946272   -2.6896857   0.70570098   346585 
 6790000   0.46146383   -2.6924549   -2.6924549   -1.9865598   0.02994545   -2.6924549   0.70589514   346467 
 6800000   0.45963573   -2.6889514   -2.6889514   -1.9856131  0.029643657   -2.6889514   0.70333825   346349 
 6810000   0.46011884   -2.6900295   -2.6900295   -1.9857141  0.030446843   -2.6900295   0.70431545   346232 
 6820000   0.46041462   -2.6915855   -2.6915855    -1.986577  0.028735035   -2.6915855   0.70500847   346114 
 6830000   0.46057992   -2.6911373   -2.6911373   -1.9856372   0.02952242   -2.6911373   0.70550007   345997 
 6840000   0.45990481   -2.6890916   -2.6890916   -1.9843853  0.021502287   -2.6890916    0.7047063   345879 
 6850000    0.4597032   -2.6876979   -2.6876979   -1.9830601  0.019908323   -2.6876979   0.70463777   345761 
 6860000   0.45979285   -2.6887235   -2.6887235   -1.9837098  0.033223786   -2.6887235   0.70501375   345644 
 6870000   0.45949363     -2.68757     -2.68757   -1.9827745  0.035631773     -2.68757   0.70479556   345526 
 6880000   0.45890125   -2.6860223   -2.6860223   -1.9818949  0.021425631   -2.6860223    0.7041274   345408 
 6890000   0.45798581   -2.6863225   -2.6863225   -1.9833616  0.027981468   -2.6863225   0.70296089   345291 
 6900000   0.46004578   -2.6898687   -2.6898687   -1.9835046   0.02230124   -2.6898687   0.70636412   345173 
 6910000   0.45866508   -2.6885461   -2.6885461   -1.9840611  0.022132289   -2.6885461     0.704485   345055 
 6920000   0.45880507   -2.6888341   -2.6888341    -1.983895  0.031065953   -2.6888341   0.70493904   344938 
 6930000   0.45873019     -2.68917     -2.68917   -1.9841048  0.031068146     -2.68917   0.70506518   344820 
 6940000     0.457812   -2.6903765   -2.6903765   -1.9864817  0.032101181   -2.6903765   0.70389482   344702 
 6950000   0.45887219   -2.6910581   -2.6910581   -1.9852937  0.023219707   -2.6910581   0.70576443   344585 
 6960000   0.45686734   -2.6885949   -2.6885949   -1.9856733  0.027715141   -2.6885949    0.7029216   344467 
 6970000   0.45920369   -2.6930458   -2.6930458   -1.9862875  0.023477553   -2.6930458   0.70675834   344349 
 6980000   0.45867495   -2.6920628   -2.6920628   -1.9858783  0.035083683   -2.6920628    0.7061845   344232 
 6990000   0.45764481   -2.6917155   -2.6917155   -1.9868754  0.024614477   -2.6917155    0.7048401   344114 
 7000000   0.45694705   -2.6899024   -2.6899024   -1.9858976  0.024112222   -2.6899024    0.7040048   343997 
 7010000   0.45721325   -2.6906753   -2.6906753   -1.9860187   0.03937206   -2.6906753   0.70465664   343879 
 7020000   0.45569366   -2.6891961   -2.6891961   -1.9866404  0.021352553   -2.6891961   0.70255573   343761 
 7030000   0.45630347   -2.6907409   -2.6907409   -1.9870055  0.028107087   -2.6907409   0.70373541   343644 
 7040000   0.45784424   -2.6942852   -2.6942852    -1.987931  0.027302775   -2.6942852   0.70635421   343526 
 7050000   0.45604006   -2.6917747   -2.6917747   -1.9879622  0.027867384   -2.6917747   0.70381251   343408 
 7060000   0.45545211   -2.6906813   -2.6906813   -1.9875366  0.025726636   -2.6906813   0.70314469   343291 
 7070000   0.45400525   -2.6895512   -2.6895512   -1.9883993  0.021276384   -2.6895512   0.70115198   343173 
 7080000   0.45613365   -2.6926672   -2.6926672   -1.9879859  0.022092013   -2.6926672   0.70468131   343055 
 7090000   0.45496046   -2.6888517   -2.6888517   -1.9857431  0.029934656   -2.6888517   0.70310864   342938 
 7100000   0.45465465   -2.6870483   -2.6870483   -1.9841704  0.023217535   -2.6870483   0.70287789   342820 
 7110000   0.45433659   -2.6884421   -2.6884421   -1.9858141   0.02856677   -2.6884421   0.70262803   342702 
 7120000   0.45584421   -2.6914508   -2.6914508   -1.9862504  0.027775909   -2.6914508   0.70520032   342585 
 7130000   0.45369032   -2.6871838   -2.6871838   -1.9850738   0.02216139   -2.6871838   0.70211003   342467 
 7140000   0.45475781   -2.6873587   -2.6873587   -1.9833541  0.023570272   -2.6873587   0.70400461   342349 
 7150000   0.45541408   -2.6869964   -2.6869964   -1.9817348  0.031097527   -2.6869964    0.7052616   342232 
 7160000   0.45533169   -2.6871045   -2.6871045   -1.9817272  0.026820429   -2.6871045   0.70537722   342114 
 7170000   0.45451725   -2.6896294   -2.6896294    -1.985273  0.024527595   -2.6896294    0.7043564   341997 
 7180000   0.45278534   -2.6886131   -2.6886131   -1.9866984  0.025368919   -2.6886131   0.70191468   341879 
 7190000   0.45273639   -2.6898001   -2.6898001    -1.987719  0.030643476   -2.6898001   0.70208113   341761 
 7200000   0.45390476   -2.6892774   -2.6892774   -1.9851434  0.021121405   -2.6892774   0.70413403   341644 
 7210000   0.45459111   -2.6917727   -2.6917727   -1.9863303  0.034984451   -2.6917727   0.70544241   341526 
 7220000   0.45350084   -2.6882081   -2.6882081   -1.9842144  0.027089934   -2.6882081   0.70399374   341408 
 7230000    0.4520145   -2.6865768   -2.6865768   -1.9846498  0.028449765   -2.6865768   0.70192696   341291 
 7240000   0.45345913   -2.6873662   -2.6873662   -1.9829523  0.028551931   -2.6873662   0.70441386   341173 
 7250000   0.45207643   -2.6870194   -2.6870194   -1.9845105  0.032765619   -2.6870194   0.70250891   341055 
 7260000   0.45297314   -2.6888327   -2.6888327   -1.9846888  0.016412201   -2.6888327   0.70414393   340938 
 7270000   0.45201733    -2.687689    -2.687689   -1.9847876  0.022043867    -2.687689    0.7029014   340820 
 7280000   0.45176301    -2.686484    -2.686484   -1.9837348  0.022113676    -2.686484   0.70274923   340702 
 7290000   0.45125051   -2.6884083   -2.6884083   -1.9862151  0.028200594   -2.6884083   0.70219315   340585 
 7300000   0.45174197   -2.6886978   -2.6886978   -1.9854962  0.026280408   -2.6886978   0.70320155   340467 
 7310000   0.45003876   -2.6861568   -2.6861568   -1.9853637  0.024755932   -2.6861568   0.70079313   340349 
 7320000    0.4513066   -2.6879357   -2.6879357   -1.9849267  0.022302689   -2.6879357   0.70300906   340232 
 7330000   0.45021755   -2.6891272   -2.6891272   -1.9875713  0.022085035   -2.6891272   0.70155595   340114 
 7340000   0.45096716   -2.6899383   -2.6899383   -1.9869725  0.041577969   -2.6899383   0.70296585   339997 
 7350000   0.45158899   -2.6906056   -2.6906056    -1.986426    0.0226024   -2.6906056   0.70417956   339879 
 7360000    0.4500334   -2.6873116   -2.6873116    -1.985314  0.023837355   -2.6873116   0.70199759   339761 
 7370000   0.45042217   -2.6889382   -2.6889382   -1.9860921  0.031775285   -2.6889382   0.70284605   339644 
 7380000   0.44942271   -2.6888221   -2.6888221   -1.9872919   0.03448068   -2.6888221   0.70153021   339526 
 7390000   0.44855641   -2.6869627   -2.6869627   -1.9865414  0.024647017   -2.6869627   0.70042137   339408 
 7400000   0.44875058   -2.6886064   -2.6886064   -1.9876402  0.020933077   -2.6886064   0.70096621   339291 
 7410000   0.44791209   -2.6881083   -2.6881083   -1.9882084  0.032664902   -2.6881083   0.69989986   339173 
 7420000   0.44985496   -2.6899577   -2.6899577   -1.9867773  0.019323617   -2.6899577   0.70318041   339055 
 7430000   0.44832534   -2.6895376   -2.6895376   -1.9885063  0.022497995   -2.6895376   0.70103132   338938 
 7440000   0.44713719   -2.6899253   -2.6899253   -1.9905084  0.034945851   -2.6899253   0.69941695   338820 
 7450000   0.44849607   -2.6902618   -2.6902618   -1.9884749  0.025081413   -2.6902618   0.70178694   338702 
 7460000    0.4479985   -2.6903467   -2.6903467   -1.9890961  0.024325088   -2.6903467    0.7012506   338585 
 7470000   0.44690429   -2.6880826   -2.6880826   -1.9883009  0.024306235   -2.6880826   0.69978172   338467 
 7480000   0.44749083   -2.6886529   -2.6886529   -1.9877084  0.019481964   -2.6886529   0.70094452   338349 
 7490000   0.44752495    -2.687833    -2.687833   -1.9865926  0.024771108    -2.687833   0.70124044   338232 
 7500000   0.44694235   -2.6871688   -2.6871688   -1.9865968  0.014611194   -2.6871688   0.70057196   338114 
 7510000   0.44807348   -2.6885385   -2.6885385   -1.9859504  0.024866912   -2.6885385    0.7025881   337997 
 7520000   0.44680045   -2.6876907   -2.6876907   -1.9868541  0.028224773   -2.6876907   0.70083664   337879 
 7530000   0.44700973    -2.688324    -2.688324   -1.9869141  0.019656994    -2.688324   0.70140987   337761 
 7540000   0.44673295   -2.6882849   -2.6882849   -1.9870664  0.028677529   -2.6882849   0.70121847   337644 
 7550000   0.44686825   -2.6879697   -2.6879697   -1.9862936  0.029212539   -2.6879697   0.70167607   337526 
 7560000   0.44586144   -2.6881612   -2.6881612   -1.9878212  0.019499547   -2.6881612   0.70034001   337408 
 7570000   0.44532435    -2.687537    -2.687537    -1.987798  0.026188446    -2.687537   0.69973901   337291 
 7580000   0.44532422   -2.6854667   -2.6854667    -1.985483  0.033490077   -2.6854667    0.6999837   337173 
 7590000   0.44492172   -2.6857676   -2.6857676   -1.9861718   0.02730788   -2.6857676   0.69959586   337055 
 7600000   0.44450372   -2.6882992   -2.6882992   -1.9891179  0.023586364   -2.6882992   0.69918129   336938 
 7610000   0.44428914   -2.6883957   -2.6883957   -1.9893071  0.028499579   -2.6883957   0.69908861   336820 
 7620000   0.44510994    -2.687436    -2.687436   -1.9868104  0.028868183    -2.687436    0.7006256   336702 
 7630000   0.44429103   -2.6873607   -2.6873607    -1.987781  0.031465185   -2.6873607   0.69957968   336585 
 7640000   0.44365228    -2.685775    -2.685775   -1.9869561  0.030339074    -2.685775   0.69881889   336467 
 7650000   0.44473136   -2.6874497   -2.6874497   -1.9866854  0.022455949   -2.6874497   0.70076437   336349 
 7660000   0.44437221   -2.6882781   -2.6882781    -1.987836  0.025317107   -2.6882781   0.70044211   336232 
 7670000    0.4429913    -2.688768    -2.688768   -1.9902574  0.032751641    -2.688768   0.69851058   336114 
 7680000   0.44304249   -2.6880418   -2.6880418   -1.9892073  0.029041368   -2.6880418   0.69883456   335997 
 7690000   0.44309613   -2.6895161   -2.6895161   -1.9903514  0.031621697   -2.6895161   0.69916471   335879 
 7700000   0.44372291   -2.6926787   -2.6926787   -1.9922789  0.031656473   -2.6926787   0.70039978   335761 
 7710000   0.44408069   -2.6907795   -2.6907795   -1.9895706  0.036537843   -2.6907795   0.70120887   335644 
 7720000   0.44277611   -2.6857633   -2.6857633   -1.9863685  0.029036086   -2.6857633   0.69939479   335526 
 7730000   0.44346479   -2.6880216   -2.6880216   -1.9872926  0.020313166   -2.6880216   0.70072905   335408 
 7740000   0.44250285   -2.6872115   -2.6872115   -1.9877585  0.025263475   -2.6872115   0.69945305   335291 
 7750000   0.44150246   -2.6878939   -2.6878939   -1.9897765  0.016568752   -2.6878939   0.69811745   335173 
 7760000    0.4412041   -2.6866036   -2.6866036   -1.9887122  0.017567215   -2.6866036   0.69789138   335055 
 7770000   0.44130322   -2.6842426   -2.6842426   -1.9859506  0.031530927   -2.6842426   0.69829201   334938 
 7780000   0.44239649   -2.6877712   -2.6877712   -1.9875025  0.030962095   -2.6877712   0.70026864   334820 
 7790000   0.44186066   -2.6889722   -2.6889722   -1.9893051  0.026785011   -2.6889722   0.69966706   334702 
 7800000   0.44150315    -2.689532    -2.689532   -1.9901866    0.0178175    -2.689532   0.69934542   334585 
 7810000   0.44119942    -2.687079    -2.687079   -1.9879682  0.020763444    -2.687079   0.69911087   334467 
 7820000   0.44179372   -2.6898896   -2.6898896     -1.98959  0.023722564   -2.6898896   0.70029965   334349 
 7830000    0.4405198   -2.6876619   -2.6876619   -1.9891372  0.017122046   -2.6876619   0.69852475   334232 
 7840000    0.4398835   -2.6876812   -2.6876812    -1.989919  0.033082517   -2.6876812   0.69776213   334114 
 7850000   0.44014731   -2.6875128   -2.6875128   -1.9890876  0.024920355   -2.6875128   0.69842518   333997 
 7860000   0.44065154   -2.6870737   -2.6870737   -1.9876013  0.027440581   -2.6870737   0.69947241   333879 
 7870000   0.44069358   -2.6873298   -2.6873298   -1.9875434  0.023562571   -2.6873298   0.69978646   333761 
 7880000   0.43960795   -2.6867052   -2.6867052   -1.9883978  0.035040199   -2.6867052   0.69830735   333644 
 7890000   0.44043676   -2.6871756   -2.6871756   -1.9873042  0.029784063   -2.6871756   0.69987143   333526 
 7900000   0.43922989    -2.687287    -2.687287   -1.9890863  0.016277006    -2.687287   0.69820068   333408 
 7910000   0.43899829   -2.6871537   -2.6871537   -1.9890762  0.021169284   -2.6871537    0.6980775   333291 
 7920000   0.43878453   -2.6876263   -2.6876263   -1.9896416  0.027024721   -2.6876263   0.69798471   333173 
 7930000   0.43910765   -2.6887917   -2.6887917   -1.9900455  0.025823628   -2.6887917   0.69874618   333055 
 7940000   0.43892622   -2.6884255   -2.6884255   -1.9897226  0.018927365   -2.6884255   0.69870292   332938 
 7950000   0.43833104   -2.6885601   -2.6885601   -1.9905572  0.030493125   -2.6885601   0.69800287   332820 
 7960000   0.43791315   -2.6861458   -2.6861458    -1.988561  0.031754958   -2.6861458   0.69758474   332702 
 7970000   0.43796047   -2.6875875   -2.6875875    -1.989682  0.022397236   -2.6875875   0.69790555   332585 
 7980000   0.43841795   -2.6873377   -2.6873377   -1.9884552  0.030235173   -2.6873377   0.69888252   332467 
 7990000   0.43785683   -2.6875271   -2.6875271   -1.9892912  0.027837222   -2.6875271   0.69823587   332349 
 8000000   0.43728043   -2.6872244   -2.6872244   -1.9896621  0.027593235   -2.6872244   0.69756227   332232 
 8010000   0.43682738   -2.6862167   -2.6862167   -1.9891296  0.024354891   -2.6862167   0.69708713   332114 
 8020000   0.43851857   -2.6899577   -2.6899577   -1.9899252  0.026189206   -2.6899577   0.70003253   331997 
 8030000   0.43721519   -2.6881857   -2.6881857   -1.9899857  0.020665352   -2.6881857   0.69820003   331879 
 8040000   0.43663254   -2.6877129   -2.6877129   -1.9901953  0.020436705   -2.6877129   0.69751759   331761 
 8050000    0.4363885   -2.6876876   -2.6876876   -1.9903139  0.034708553   -2.6876876   0.69737368   331644 
 8060000    0.4360779   -2.6873997   -2.6873997   -1.9902743  0.021459802   -2.6873997   0.69712536   331526 
 8070000   0.43489449   -2.6857918   -2.6857918   -1.9903107  0.025547346   -2.6857918   0.69548106   331408 
 8080000   0.43561167    -2.685728    -2.685728    -1.988854  0.023023616    -2.685728     0.696874   331291 
 8090000   0.43601058   -2.6861694   -2.6861694   -1.9884087   0.03099384   -2.6861694    0.6977607   331173 
 8100000   0.43563353   -2.6854355   -2.6854355   -1.9880297  0.022083503   -2.6854355   0.69740579   331055 
 8110000   0.43561524   -2.6857497   -2.6857497   -1.9881266  0.034008469   -2.6857497   0.69762306   330938 
 8120000    0.4347358   -2.6859386   -2.6859386   -1.9894756  0.026979874   -2.6859386   0.69646299   330820 
 8130000   0.43498269   -2.6860562   -2.6860562    -1.988949   0.02918197   -2.6860562   0.69710717   330702 
 8140000   0.43439674   -2.6844611   -2.6844611   -1.9880466  0.022524142   -2.6844611   0.69641451   330585 
 8150000   0.43592776   -2.6857918   -2.6857918   -1.9866732  0.034856508   -2.6857918   0.69911854   330467 
 8160000   0.43456061   -2.6855796   -2.6855796   -1.9884046  0.024019338   -2.6855796   0.69717493   330349 
 8170000   0.43406858   -2.6841539   -2.6841539   -1.9875216  0.035446627   -2.6841539   0.69663227   330232 
 8180000   0.43322259   -2.6830825   -2.6830825   -1.9875594   0.03211706   -2.6830825   0.69552308   330114 
 8190000   0.43380431   -2.6845381   -2.6845381   -1.9878342  0.031569421   -2.6845381   0.69670394   329997 
 8200000   0.43470371   -2.6853469   -2.6853469   -1.9869488  0.032544537   -2.6853469   0.69839814   329879 
 8210000   0.43351114   -2.6864973   -2.6864973    -1.989766  0.024333272   -2.6864973   0.69673138   329761 
 8220000   0.43246325   -2.6845982   -2.6845982   -1.9893043  0.027285776   -2.6845982   0.69529392   329644 
 8230000   0.43420652   -2.6855971   -2.6855971   -1.9872504   0.02675747   -2.6855971   0.69834665   329526 
 8240000   0.43375505   -2.6845924   -2.6845924    -1.986722  0.033336212   -2.6845924   0.69787043   329408 
 8250000   0.43175767   -2.6838313   -2.6838313   -1.9889276  0.026766005   -2.6838313   0.69490366   329291 
 8260000   0.43324799   -2.6850656   -2.6850656   -1.9875133  0.031791088   -2.6850656   0.69755226   329173 
 8270000   0.43191244   -2.6835348   -2.6835348   -1.9878835  0.027312337   -2.6835348   0.69565132   329055 
 8280000   0.43194273   -2.6846582   -2.6846582   -1.9887107  0.030964359   -2.6846582   0.69594757   328938 
 8290000   0.43160454   -2.6851761   -2.6851761   -1.9895239  0.023528207   -2.6851761   0.69565223   328820 
 8300000   0.43116331   -2.6847154   -2.6847154   -1.9895249  0.025173269   -2.6847154   0.69519053   328702 
 8310000   0.43109342   -2.6843696   -2.6843696   -1.9890443  0.024557079   -2.6843696   0.69532534   328585 
 8320000   0.43184079   -2.6829994   -2.6829994   -1.9862184  0.027619724   -2.6829994   0.69678103   328467 
 8330000   0.43078955   -2.6829098   -2.6829098   -1.9875751   0.01960259   -2.6829098   0.69533462   328349 
 8340000   0.43088346   -2.6829093   -2.6829093   -1.9871752  0.028694857   -2.6829093   0.69573412   328232 
 8350000   0.43150523   -2.6850586   -2.6850586     -1.98807  0.023568813   -2.6850586   0.69698864   328114 
 8360000   0.42961111   -2.6841298   -2.6841298   -1.9899531  0.030166109   -2.6841298   0.69417669   327997 
 8370000   0.43017991   -2.6858574   -2.6858574   -1.9905115  0.033931104   -2.6858574   0.69534593   327879 
 8380000   0.42954182   -2.6841418   -2.6841418   -1.9895773  0.025476463   -2.6841418   0.69456449   327761 
 8390000   0.42955247   -2.6839113   -2.6839113   -1.9890815  0.021258389   -2.6839113   0.69482973   327644 
 8400000   0.43009122   -2.6836131   -2.6836131   -1.9876612   0.03272926   -2.6836131   0.69595185   327526 
 8410000    0.4302228   -2.6841217   -2.6841217    -1.987706  0.026942569   -2.6841217   0.69641567   327408 
 8420000   0.42925357   -2.6839983   -2.6839983   -1.9889032  0.040050034   -2.6839983   0.69509513   327291 
 8430000   0.42952138   -2.6835285   -2.6835285   -1.9877489  0.027841566   -2.6835285   0.69577967   327173 
 8440000   0.42917104   -2.6839399   -2.6839399   -1.9884769  0.029391551   -2.6839399   0.69546298   327055 
 8450000   0.42890783   -2.6834538   -2.6834538   -1.9881686  0.021015554   -2.6834538   0.69528518   326938 
 8460000   0.42916844   -2.6852262   -2.6852262   -1.9892674  0.020485018   -2.6852262   0.69595883   326820 
 8470000   0.42842655   -2.6846937   -2.6846937    -1.989687  0.028293254   -2.6846937   0.69500669   326702 
 8480000    0.4278548   -2.6855022   -2.6855022   -1.9911744  0.025308481   -2.6855022   0.69432783   326585 
 8490000   0.42794583   -2.6854889   -2.6854889   -1.9907623  0.024076627   -2.6854889   0.69472657   326467 
 8500000    0.4288357    -2.685311    -2.685311   -1.9888881  0.032808922    -2.685311   0.69642291   326349 
 8510000   0.42792008   -2.6822529   -2.6822529   -1.9870677  0.034838934   -2.6822529   0.69518518   326232 
 8520000   0.42732779    -2.682272    -2.682272   -1.9877978  0.024337835    -2.682272   0.69447415   326114 
 8530000   0.42734911   -2.6817067   -2.6817067   -1.9869486  0.024445768   -2.6817067   0.69475807   325997 
 8540000   0.42850279   -2.6823428   -2.6823428   -1.9854569  0.035711294   -2.6823428    0.6968859   325879 
 8550000   0.42648677   -2.6820914   -2.6820914    -1.988233  0.022828948   -2.6820914   0.69385843   325761 
 8560000   0.42664031   -2.6835236   -2.6835236   -1.9891659  0.030396581   -2.6835236   0.69435762   325644 
 8570000   0.42689027   -2.6823743   -2.6823743    -1.987358   0.02826884   -2.6823743   0.69501627   325526 
 8580000   0.42640651   -2.6842226   -2.6842226   -1.9897422  0.032296253   -2.6842226    0.6944804   325408 
 8590000   0.42574668   -2.6831275   -2.6831275   -1.9894724  0.030514991   -2.6831275   0.69365516   325291 
 8600000   0.42528704   -2.6830096   -2.6830096   -1.9898519  0.024019764   -2.6830096   0.69315772   325173 
 8610000   0.42655451   -2.6806316   -2.6806316   -1.9851557  0.021959318   -2.6806316    0.6954759   325055 
 8620000   0.42557506   -2.6807354   -2.6807354   -1.9866066  0.024640455   -2.6807354   0.69412879   324938 
 8630000   0.42532425   -2.6826461   -2.6826461   -1.9886744  0.022303362   -2.6826461   0.69397174   324820 
 8640000   0.42567866   -2.6816526   -2.6816526   -1.9868502  0.031775938   -2.6816526   0.69480241   324702 
 8650000   0.42460979   -2.6804622   -2.6804622   -1.9871546  0.026389452   -2.6804622   0.69330759   324585 
 8660000   0.42478245   -2.6816042   -2.6816042   -1.9877624  0.038251071   -2.6816042   0.69384175   324467 
 8670000   0.42518937   -2.6822148   -2.6822148   -1.9874558  0.030744432   -2.6822148   0.69475908   324349 
 8680000   0.42338391   -2.6809359   -2.6809359   -1.9888773  0.018262409   -2.6809359    0.6920586   324232 
 8690000   0.42616266   -2.6823199   -2.6823199   -1.9854656  0.029003234   -2.6823199   0.69685432   324114 
 8700000   0.42492728   -2.6819842   -2.6819842    -1.986899  0.015308269   -2.6819842   0.69508517   323997 
 8710000    0.4241745   -2.6824289   -2.6824289   -1.9883223  0.029257699   -2.6824289   0.69410658   323879 
 8720000   0.42322819   -2.6804276   -2.6804276   -1.9876171  0.027944791   -2.6804276   0.69281049   323761 
 8730000   0.42337959   -2.6808517   -2.6808517   -1.9875428  0.023271431   -2.6808517   0.69330887   323644 
 8740000   0.42278147   -2.6806334   -2.6806334   -1.9880515  0.033825768   -2.6806334   0.69258193   323526 
 8750000   0.42324144   -2.6820417   -2.6820417   -1.9884533  0.030941118   -2.6820417    0.6935884   323408 
 8760000   0.42359616   -2.6810132   -2.6810132   -1.9865923  0.022486855   -2.6810132   0.69442093   323291 
 8770000   0.42267842   -2.6813152   -2.6813152   -1.9881457  0.021158628   -2.6813152   0.69316944   323173 
 8780000   0.42321066   -2.6833749   -2.6833749   -1.9890792  0.024663538   -2.6833749   0.69429578   323055 
 8790000   0.42260813   -2.6808694   -2.6808694   -1.9873109  0.030007738   -2.6808694   0.69355849   322938 
 8800000   0.42106638   -2.6795325   -2.6795325   -1.9882517  0.027276729   -2.6795325   0.69128086   322820 
 8810000   0.42140612   -2.6804861   -2.6804861   -1.9883945  0.018197865   -2.6804861    0.6920916   322702 
 8820000   0.42182268   -2.6818991   -2.6818991   -1.9888721  0.026775891   -2.6818991     0.693027   322585 
 8830000   0.42154646   -2.6829391   -2.6829391   -1.9901124  0.031108435   -2.6829391   0.69282662   322467 
 8840000    0.4212144   -2.6808468   -2.6808468   -1.9883125  0.025157776   -2.6808468   0.69253428   322349 
 8850000   0.42119243   -2.6786693   -2.6786693   -1.9859197  0.018918907   -2.6786693   0.69274961   322232 
 8860000    0.4215657    -2.681395    -2.681395   -1.9877774  0.020286048    -2.681395   0.69361754   322114 
 8870000   0.42109435   -2.6822062   -2.6822062   -1.9891125  0.024613616   -2.6822062   0.69309376   321997 
 8880000   0.42263543   -2.6850433   -2.6850433    -1.989158  0.033574929   -2.6850433   0.69588529   321879 
 8890000   0.42055519   -2.6797249   -2.6797249   -1.9870108  0.025230375   -2.6797249   0.69271405   321761 
 8900000   0.42026521   -2.6796265   -2.6796265   -1.9871383  0.023441855   -2.6796265   0.69248821   321644 
 8910000   0.42054339   -2.6802899   -2.6802899    -1.987089  0.032460708   -2.6802899   0.69320089   321526 
 8920000    0.4202204   -2.6796244   -2.6796244   -1.9867016  0.028695653   -2.6796244   0.69292279   321408 
 8930000   0.41982458   -2.6768219   -2.6768219   -1.9842997  0.035828747   -2.6768219    0.6925222   321291 
 8940000   0.42021814   -2.6783293   -2.6783293   -1.9849033  0.027422591   -2.6783293   0.69342607   321173 
 8950000   0.41973716   -2.6778579   -2.6778579    -1.984971  0.029378494   -2.6778579   0.69288694   321055 
 8960000   0.41931257   -2.6783152   -2.6783152   -1.9858768  0.029711338   -2.6783152   0.69243839   320938 
 8970000   0.41806304   -2.6761568   -2.6761568    -1.985528  0.028978289   -2.6761568   0.69062888   320820 
 8980000   0.41900758   -2.6795547   -2.6795547   -1.9871108  0.022423251   -2.6795547   0.69244392   320702 
 8990000   0.41864576   -2.6790885   -2.6790885   -1.9869901  0.023116318   -2.6790885   0.69209847   320585 
 9000000   0.41900791   -2.6778164   -2.6778164   -1.9848641  0.030645127   -2.6778164   0.69295224   320467 
 9010000   0.41904946   -2.6799731   -2.6799731   -1.9866968  0.030245145   -2.6799731   0.69327623   320349 
 9020000   0.41817535   -2.6766833   -2.6766833   -1.9846005  0.025022342   -2.6766833   0.69208286   320232 
 9030000   0.41781223   -2.6771797   -2.6771797   -1.9854429  0.034168184   -2.6771797    0.6917368   320114 
 9040000   0.41788084   -2.6791773   -2.6791773    -1.987074  0.022731752   -2.6791773   0.69210335   319997 
 9050000   0.41760755   -2.6793816   -2.6793816   -1.9874757  0.026517152   -2.6793816   0.69190586   319879 
 9060000   0.41697955   -2.6783457   -2.6783457   -1.9872254    0.0252098   -2.6783457   0.69112032   319761 
 9070000   0.41633509   -2.6780715   -2.6780715   -1.9877668  0.034768258   -2.6780715   0.69030474   319644 
 9080000   0.41704382   -2.6807738   -2.6807738   -1.9890386  0.031907564   -2.6807738   0.69173522   319526 
 9090000   0.41645455   -2.6777189   -2.6777189   -1.9867059  0.021342824   -2.6777189   0.69101301   319408 
 9100000   0.41681393   -2.6794504   -2.6794504   -1.9875877  0.024330228   -2.6794504   0.69186275   319291 
 9110000   0.41610477   -2.6791673   -2.6791673   -1.9882263  0.026461508   -2.6791673   0.69094098   319173 
 9120000   0.41545401   -2.6758667   -2.6758667   -1.9857512  0.032262602   -2.6758667   0.69011553   319055 
 9130000   0.41531681   -2.6761387   -2.6761387    -1.985998  0.018555532   -2.6761387   0.69014069   318938 
 9140000   0.41603428   -2.6779853   -2.6779853   -1.9863965  0.020358587   -2.6779853    0.6915888   318820 
 9150000   0.41540416   -2.6778186   -2.6778186   -1.9870215  0.021182375   -2.6778186     0.690797   318702 
 9160000   0.41529451   -2.6764048   -2.6764048   -1.9855365  0.017172679   -2.6764048   0.69086829   318585 
 9170000   0.41488812   -2.6736485   -2.6736485   -1.9832005  0.031231997   -2.6736485   0.69044797   318467 
 9180000   0.41421587   -2.6737481   -2.6737481   -1.9841633  0.036171723   -2.6737481   0.68958474   318349 
 9190000   0.41561349   -2.6779807   -2.6779807   -1.9858149  0.022214581   -2.6779807   0.69216588   318232 
 9200000   0.41472064    -2.677406    -2.677406   -1.9864708  0.022231282    -2.677406   0.69093512   318114 
 9210000   0.41370565    -2.678492    -2.678492   -1.9889943  0.027144547    -2.678492    0.6894977   317997 
 9220000   0.41357801   -2.6774174   -2.6774174   -1.9878765  0.023195741   -2.6774174   0.68954084   317879 
 9230000   0.41483007   -2.6789514   -2.6789514   -1.9870662  0.029115594   -2.6789514   0.69188519   317761 
 9240000   0.41410265   -2.6763311   -2.6763311   -1.9854048  0.023627259   -2.6763311   0.69092634   317644 
 9250000   0.41393112    -2.678259    -2.678259   -1.9873622  0.031648523    -2.678259    0.6908968   317526 
 9260000   0.41334657   -2.6781883   -2.6781883   -1.9880107  0.022852493   -2.6781883   0.69017761   317408 
 9270000   0.41320136   -2.6774172   -2.6774172   -1.9872277   0.02218343   -2.6774172   0.69018955   317291 
 9280000   0.41362804   -2.6774541   -2.6774541   -1.9862948  0.024982864   -2.6774541   0.69115931   317173 
 9290000   0.41296887   -2.6757732   -2.6757732   -1.9854585  0.032080406   -2.6757732   0.69031468   317055 
 9300000   0.41220325   -2.6761286   -2.6761286   -1.9868394  0.024451108   -2.6761286   0.68928924   316938 
 9310000    0.4124929   -2.6750175   -2.6750175    -1.984987  0.038365366   -2.6750175   0.69003049   316820 
 9320000   0.41205135   -2.6754209   -2.6754209   -1.9858722  0.030269153   -2.6754209   0.68954868   316702 
 9330000   0.41210542   -2.6744968   -2.6744968   -1.9846027  0.030495245   -2.6744968   0.68989404   316585 
 9340000   0.41311775   -2.6771847   -2.6771847   -1.9853381  0.028327972   -2.6771847   0.69184662   316467 
 9350000   0.41192721   -2.6770255   -2.6770255   -1.9869154  0.030286343   -2.6770255   0.69011014   316349 
 9360000   0.41246522    -2.678542    -2.678542   -1.9872748  0.028266773    -2.678542   0.69126715   316232 
 9370000   0.41235008   -2.6759017   -2.6759017   -1.9845696  0.023674663   -2.6759017   0.69133214   316114 
 9380000   0.41163547   -2.6736932   -2.6736932   -1.9833036  0.021685552   -2.6736932   0.69038958   315997 
 9390000   0.41092711   -2.6748246   -2.6748246   -1.9853656  0.014107261   -2.6748246   0.68945899   315879 
 9400000   0.41105994   -2.6752091   -2.6752091   -1.9852695  0.028663337   -2.6752091   0.68993958   315761 
 9410000   0.40958127   -2.6756696   -2.6756696    -1.987957  0.023073528   -2.6756696   0.68771255   315644 
 9420000   0.41026565   -2.6791669   -2.6791669   -1.9900476  0.037024871   -2.6791669   0.68911928   315526 
 9430000   0.41038532   -2.6771399   -2.6771399   -1.9875617  0.028433819   -2.6771399   0.68957817   315408 
 9440000   0.41049308   -2.6780837   -2.6780837   -1.9880684  0.027193603   -2.6780837   0.69001521   315291 
 9450000    0.4102572   -2.6764519   -2.6764519    -1.986575  0.024357625   -2.6764519    0.6898769   315173 
 9460000     0.409363   -2.6747955   -2.6747955   -1.9861644  0.033466309   -2.6747955   0.68863106   315055 
 9470000   0.40963072   -2.6756679   -2.6756679   -1.9863305  0.028607885   -2.6756679   0.68933742   314938 
 9480000   0.40996189   -2.6782921   -2.6782921   -1.9881388  0.021503199   -2.6782921   0.69015331   314820 
 9490000   0.40858671   -2.6751619   -2.6751619   -1.9870657  0.022964129   -2.6751619   0.68809615   314702 
 9500000   0.40887828   -2.6784802   -2.6784802   -1.9896369  0.030227456   -2.6784802   0.68884328   314585 
 9510000   0.40963795   -2.6782243   -2.6782243   -1.9878422  0.030115639   -2.6782243   0.69038208   314467 
 9520000   0.40900634   -2.6743061   -2.6743061   -1.9847298  0.027980783   -2.6743061   0.68957634   314349 
 9530000   0.40864272   -2.6759375   -2.6759375   -1.9867177  0.019171761   -2.6759375   0.68921982   314232 
 9540000    0.4085905   -2.6756787   -2.6756787   -1.9862881  0.030249421   -2.6756787   0.68939062   314114 
 9550000   0.40826655   -2.6764909   -2.6764909   -1.9873902  0.021394012   -2.6764909   0.68910072   313997 
 9560000   0.40833726   -2.6761086   -2.6761086   -1.9866295  0.029582026   -2.6761086   0.68947916   313879 
 9570000   0.40836239   -2.6768708   -2.6768708   -1.9870899   0.03134563   -2.6768708   0.68978091   313761 
 9580000   0.40703882   -2.6765928   -2.6765928   -1.9887911  0.029810643   -2.6765928    0.6878017   313644 
 9590000   0.40640518   -2.6768492   -2.6768492   -1.9898598  0.022607293   -2.6768492   0.68698945   313526 
 9600000   0.40630038   -2.6768083   -2.6768083   -1.9897374  0.041940435   -2.6768083   0.68707089   313408 
 9610000   0.40610402   -2.6773715   -2.6773715   -1.9903762  0.018650006   -2.6773715   0.68699531   313291 
 9620000   0.40671601   -2.6764176   -2.6764176   -1.9881278  0.024941885   -2.6764176   0.68828984   313173 
 9630000   0.40605506    -2.675963    -2.675963   -1.9885327  0.028570947    -2.675963   0.68743031   313055 
 9640000    0.4068566   -2.6791231   -2.6791231   -1.9900783  0.028173276   -2.6791231   0.68904481   312938 
 9650000   0.40510343   -2.6767739   -2.6767739   -1.9904394  0.029853127   -2.6767739   0.68633446   312820 
 9660000   0.40696319   -2.6793031   -2.6793031   -1.9895576  0.034972619   -2.6793031   0.68974548   312702 
 9670000   0.40454373   -2.6761927   -2.6761927   -1.9902912  0.035498923   -2.6761927   0.68590148   312585 
 9680000   0.40463667   -2.6753239   -2.6753239   -1.9890058  0.037131399   -2.6753239   0.68631814   312467 
 9690000   0.40556049   -2.6761271   -2.6761271   -1.9879822  0.030738889   -2.6761271   0.68814493   312349 
 9700000   0.40495794   -2.6740622   -2.6740622   -1.9866822  0.032853344   -2.6740622   0.68738002   312232 
 9710000   0.40597807   -2.6756128   -2.6756128   -1.9862407  0.032955519   -2.6756128   0.68937213   312114 
 9720000   0.40463797   -2.6750466   -2.6750466   -1.9876924   0.02753203   -2.6750466   0.68735423   311997 
 9730000   0.40418518   -2.6764238   -2.6764238   -1.9895789  0.031653897   -2.6764238   0.68684486   311879 
 9740000   0.40487048    -2.674391    -2.674391   -1.9861212  0.024617913    -2.674391   0.68826982   311761 
 9750000   0.40425165   -2.6761759   -2.6761759   -1.9887001  0.035240891   -2.6761759   0.68747582   311644 
 9760000    0.4044668   -2.6754669   -2.6754669   -1.9873646  0.023499431   -2.6754669   0.68810224   311526 
 9770000   0.40311336   -2.6750745   -2.6750745   -1.9890149   0.03382584   -2.6750745   0.68605957   311408 
 9780000   0.40351864   -2.6765119   -2.6765119   -1.9895044  0.020885251   -2.6765119   0.68700743   311291 
 9790000   0.40281882   -2.6760389   -2.6760389   -1.9899629  0.017440202   -2.6760389   0.68607603   311173 
 9800000    0.4036623    -2.676497    -2.676497   -1.9887236  0.016279105    -2.676497   0.68777344   311055 
 9810000   0.40427186   -2.6791928   -2.6791928   -1.9901216  0.030246244   -2.6791928   0.68907121   310938 
 9820000   0.40351532   -2.6764687   -2.6764687   -1.9884258  0.030190187   -2.6764687   0.68804282   310820 
 9830000   0.40255616   -2.6743068   -2.6743068   -1.9876388  0.022493049   -2.6743068   0.68666802   310702 
 9840000   0.40300095   -2.6768401   -2.6768401   -1.9891544  0.028504731   -2.6768401    0.6876857   310585 
 9850000    0.4033346    -2.676813    -2.676813   -1.9882963  0.030426878    -2.676813   0.68851663   310467 
 9860000   0.40207754   -2.6769568   -2.6769568    -1.990325  0.034281191   -2.6769568   0.68663171   310349 
 9870000    0.4025114   -2.6762712   -2.6762712   -1.9886394  0.025258923   -2.6762712   0.68763186   310232 
 9880000    0.4007255   -2.6754082   -2.6754082   -1.9905668  0.024700848   -2.6754082   0.68484139   310114 
 9890000   0.40072382   -2.6766371   -2.6766371   -1.9915401  0.032620824   -2.6766371   0.68509699   309997 
 9900000     0.401984   -2.6775811   -2.6775811   -1.9900679    0.0375457   -2.6775811   0.68751317   309879 
 9910000   0.40201422    -2.678384    -2.678384   -1.9905572  0.018713437    -2.678384   0.68782677   309761 
 9920000   0.40091985   -2.6771371   -2.6771371   -1.9909235  0.026513698   -2.6771371   0.68621355   309644 
 9930000   0.40154471   -2.6783768   -2.6783768   -1.9908317   0.02668305   -2.6783768   0.68754506   309526 
 9940000   0.40137041   -2.6785793   -2.6785793   -1.9910706  0.027385307   -2.6785793   0.68750873   309408 
 9950000   0.40072362   -2.6787754   -2.6787754   -1.9921149  0.020884681   -2.6787754   0.68666049   309291 
 9960000    0.4018121   -2.6805713   -2.6805713   -1.9917828  0.026352623   -2.6805713   0.68878844   309173 
 9970000   0.39932229   -2.6781335   -2.6781335   -1.9933518  0.030970769   -2.6781335   0.68478174   309055 
 9980000   0.39979151   -2.6768554   -2.6768554   -1.9910093  0.027935143   -2.6768554   0.68584603   308938 
 9990000   0.40011726   -2.6778202   -2.6778202   -1.9911531   0.03024488   -2.6778202   0.68666714   308820 
10000000   0.39990529   -2.6785421   -2.6785421   -1.9919765  0.033230543   -2.6785421   0.68656569   308702 
10010000   0.39863683   -2.6738333   -2.6738333   -1.9891858  0.018290361   -2.6738333   0.68464747   308585 
10020000   0.39791858   -2.6746666   -2.6746666   -1.9909913  0.021831298   -2.6746666   0.68367533   308467 
10030000   0.39863995   -2.6777524   -2.6777524   -1.9925755  0.020983204   -2.6777524   0.68517683   308349 
10040000   0.39791076   -2.6788298   -2.6788298   -1.9946466  0.030137058   -2.6788298   0.68418313   308232 
10050000   0.39739473   -2.6753595   -2.6753595    -1.991802  0.027192171   -2.6753595   0.68355752   308114 
10060000   0.39789667   -2.6754499   -2.6754499    -1.990769   0.02806595   -2.6754499    0.6846809   307997 
10070000    0.3975957   -2.6738579   -2.6738579   -1.9894327  0.022414904   -2.6738579   0.68442523   307879 
10080000   0.39860344   -2.6744625   -2.6744625   -1.9880395  0.029459647   -2.6744625   0.68642304   307761 
10090000   0.39818382      -2.6754      -2.6754   -1.9894388  0.025948497      -2.6754   0.68596121   307644 
10100000   0.39764543   -2.6746902   -2.6746902   -1.9893936  0.035011913   -2.6746902   0.68529656   307526 
10110000   0.39811552   -2.6750837   -2.6750837   -1.9887136  0.028097229   -2.6750837   0.68637007   307408 
10120000   0.39739594   -2.6755593   -2.6755593   -1.9901689  0.023726426   -2.6755593   0.68539035   307291 
10130000   0.39745538   -2.6769602   -2.6769602   -1.9912041  0.029437536   -2.6769602   0.68575619   307173 
10140000   0.39592239   -2.6733268   -2.6733268    -1.989953  0.026818314   -2.6733268   0.68337374   307055 
10150000   0.39644653   -2.6752084   -2.6752084   -1.9906691  0.024059509   -2.6752084   0.68453926   306938 
10160000   0.39577227   -2.6784708   -2.6784708    -1.994833   0.03165486   -2.6784708   0.68363784   306820 
10170000   0.39594093   -2.6772169   -2.6772169   -1.9930246  0.033331641   -2.6772169    0.6841923   306702 
10180000   0.39531211    -2.677085    -2.677085   -1.9937186  0.030002321    -2.677085   0.68336639   306585 
10190000   0.39539958   -2.6782622   -2.6782622   -1.9944814  0.022860955   -2.6782622   0.68378077   306467 
10200000   0.39474846   -2.6760417   -2.6760417    -1.993124  0.020841074   -2.6760417   0.68291771   306349 
10210000   0.39418517   -2.6735085   -2.6735085   -1.9913047  0.028549456   -2.6735085   0.68220376   306232 
10220000   0.39430202   -2.6758111   -2.6758111   -1.9931421  0.028827907   -2.6758111   0.68266904   306114 
10230000   0.39492108   -2.6771849   -2.6771849   -1.9931826  0.031545073   -2.6771849   0.68400228   305997 
10240000   0.39384062   -2.6748868   -2.6748868   -1.9924928  0.026098377   -2.6748868   0.68239406   305879 
10250000   0.39440572   -2.6782065   -2.6782065   -1.9945696  0.029080635   -2.6782065   0.68363692   305761 
10260000   0.39376928    -2.673963    -2.673963    -1.991168  0.025263947    -2.673963   0.68279503   305644 
10270000   0.39462992   -2.6769733   -2.6769733   -1.9924217  0.034287588   -2.6769733   0.68455167   305526 
10280000   0.39394925   -2.6747537   -2.6747537   -1.9911187  0.022485578   -2.6747537   0.68363497   305408 
10290000    0.3921883   -2.6713937   -2.6713937   -1.9905537  0.028847144   -2.6713937   0.68083995   305291 
10300000   0.39285762   -2.6740848   -2.6740848   -1.9918193  0.015239743   -2.6740848   0.68226559   305173 
10310000   0.39246193   -2.6748795   -2.6748795   -1.9930374  0.030989849   -2.6748795   0.68184205   305055 
10320000    0.3920811   -2.6741856   -2.6741856   -1.9927438  0.027206422   -2.6741856   0.68144178   304938 
10330000   0.39231936    -2.673212    -2.673212   -1.9910921   0.02953308    -2.673212   0.68211984   304820 
10340000   0.39394096   -2.6743967   -2.6743967   -1.9891921  0.025551998   -2.6743967   0.68520455   304702 
10350000   0.39221489   -2.6774479   -2.6774479   -1.9949835  0.019581937   -2.6774479   0.68246434   304585 
10360000   0.39164143   -2.6756168   -2.6756168   -1.9938862  0.024007725   -2.6756168   0.68173062   304467 
10370000   0.39097702   -2.6761211   -2.6761211   -1.9952831  0.032335574   -2.6761211   0.68083794   304349 
10380000   0.39200789   -2.6774759   -2.6774759   -1.9945803  0.028242967   -2.6774759    0.6828956   304232 
10390000   0.39138438   -2.6753224   -2.6753224   -1.9932484   0.03169192   -2.6753224   0.68207397   304114 
10400000   0.39097068   -2.6746026   -2.6746026   -1.9929874  0.021749279   -2.6746026   0.68161524   303997 
10410000    0.3913063   -2.6749746   -2.6749746   -1.9925093   0.02470849   -2.6749746   0.68246526   303879 
10420000   0.39137896   -2.6741186   -2.6741186   -1.9912615  0.032530538   -2.6741186   0.68285714   303761 
10430000   0.39200759    -2.678098    -2.678098   -1.9938805  0.032189428    -2.678098   0.68421749   303644 
10440000   0.39011079   -2.6758679   -2.6758679   -1.9946964  0.027850661   -2.6758679   0.68117148   303526 
10450000    0.3904774   -2.6753331   -2.6753331   -1.9932563  0.030856351   -2.6753331   0.68207679   303408 
10460000   0.39019781   -2.6756096   -2.6756096   -1.9937583  0.022434077   -2.6756096   0.68185135   303291 
10470000   0.39052726   -2.6737546   -2.6737546   -1.9910619  0.021767723   -2.6737546   0.68269266   303173 
10480000   0.38908758   -2.6745495   -2.6745495   -1.9941088  0.022115332   -2.6745495   0.68044075   303055 
10490000   0.38891154   -2.6758155   -2.6758155     -1.99542  0.029753619   -2.6758155   0.68039556   302938 
10500000   0.38911919    -2.675766    -2.675766   -1.9947419  0.032848546    -2.675766   0.68102412   302820 
10510000   0.38945583   -2.6742346   -2.6742346   -1.9923556  0.022748264   -2.6742346     0.681879   302702 
10520000   0.38919351   -2.6738838   -2.6738838   -1.9922005  0.030084034   -2.6738838   0.68168321   302585 
10530000   0.38806805   -2.6731059   -2.6731059   -1.9931288  0.022280967   -2.6731059    0.6799771   302467 
10540000   0.38823236   -2.6715921   -2.6715921   -1.9910617  0.029682758   -2.6715921   0.68053049   302349 
10550000   0.38792226   -2.6740217   -2.6740217   -1.9937715  0.032084353   -2.6740217   0.68025016   302232 
10560000   0.38863085    -2.675038    -2.675038   -1.9932791  0.030074272    -2.675038   0.68175891   302114 
10570000   0.38711784    -2.673443    -2.673443   -1.9940752  0.030510082    -2.673443   0.67936779   301997 
10580000   0.38808282   -2.6773781   -2.6773781   -1.9960506  0.030254407   -2.6773781   0.68132749   301879 
10590000   0.38883635   -2.6773128   -2.6773128   -1.9943954  0.026769954   -2.6773128   0.68291735   301761 
10600000   0.38736344   -2.6740364   -2.6740364   -1.9934421  0.030212217   -2.6740364   0.68059434   301644 
10610000    0.3875964   -2.6728987   -2.6728987   -1.9916285  0.024570306   -2.6728987   0.68127016   301526 
10620000   0.38707787   -2.6753015   -2.6753015   -1.9946764  0.018705317   -2.6753015    0.6806251   301408 
10630000   0.38634331   -2.6741104   -2.6741104   -1.9945131  0.037485107   -2.6741104   0.67959729   301291 
10640000   0.38628203   -2.6745174   -2.6745174   -1.9947617  0.028574853   -2.6745174   0.67975572   301173 
10650000   0.38609603   -2.6760194   -2.6760194   -1.9963247  0.032145137   -2.6760194    0.6796947   301055 
10660000   0.38608156   -2.6738292   -2.6738292   -1.9938957  0.027734264   -2.6738292   0.67993349   300938 
10670000   0.38523844   -2.6727334   -2.6727334   -1.9940186  0.019185921   -2.6727334   0.67871477   300820 
10680000   0.38536568   -2.6735597   -2.6735597   -1.9943544  0.017824671   -2.6735597   0.67920538   300702 
10690000   0.38550963   -2.6751905   -2.6751905    -1.995467  0.029781604   -2.6751905   0.67972357   300585 
10700000   0.38433421   -2.6755477   -2.6755477   -1.9976305  0.022308222   -2.6755477   0.67791722   300467 
10710000   0.38573672    -2.677203    -2.677203   -1.9965446  0.032275459    -2.677203   0.68065836   300349 
10720000    0.3851573   -2.6751768   -2.6751768    -1.995276  0.026115924   -2.6751768   0.67990081   300232 
10730000   0.38421802   -2.6759096   -2.6759096   -1.9974002  0.025431276   -2.6759096    0.6785094   300114 
10740000    0.3845548   -2.6731018   -2.6731018   -1.9937328  0.040323618   -2.6731018   0.67936899   299997 
10750000   0.38480279   -2.6730733   -2.6730733   -1.9929987  0.016031619   -2.6730733    0.6800746   299879 
10760000   0.38394661   -2.6720454   -2.6720454   -1.9932169  0.022862685   -2.6720454   0.67882857   299761 
10770000    0.3840714   -2.6724532   -2.6724532   -1.9931388  0.028062288   -2.6724532   0.67931434   299644 
10780000   0.38479185   -2.6719408   -2.6719408   -1.9910841  0.023175914   -2.6719408   0.68085673   299526 
10790000   0.38364487   -2.6683459   -2.6683459   -1.9892511  0.029948373   -2.6683459   0.67909479   299408 
10800000   0.38283736   -2.6672187   -2.6672187   -1.9892883  0.033829196   -2.6672187   0.67793032   299291 
10810000   0.38375917   -2.6693812   -2.6693812   -1.9895505  0.029109704   -2.6693812   0.67983069   299173 
10820000    0.3833362   -2.6696457   -2.6696457   -1.9902964  0.022105796   -2.6696457   0.67934934   299055 
10830000   0.38235655    -2.670063    -2.670063   -1.9921846  0.026807167    -2.670063   0.67787842   298938 
10840000   0.38323275   -2.6686182   -2.6686182   -1.9889181  0.026231042   -2.6686182   0.67970014   298820 
10850000   0.38357402   -2.6682036   -2.6682036   -1.9876295  0.023326913   -2.6682036   0.68057415   298702 
10860000   0.38206723    -2.668056    -2.668056   -1.9898897  0.034339418    -2.668056   0.67816629   298585 
10870000   0.38193245   -2.6689893   -2.6689893   -1.9907942  0.024679761   -2.6689893   0.67819509   298467 
10880000   0.38190178   -2.6695414   -2.6695414   -1.9911326  0.023348901   -2.6695414   0.67840883   298349 
10890000   0.38187637   -2.6692008   -2.6692008    -1.990571  0.024702206   -2.6692008   0.67862982   298232 
10900000   0.38146734   -2.6690385   -2.6690385   -1.9908673  0.025510025   -2.6690385   0.67817127   298114 
10910000   0.38133402   -2.6680633   -2.6680633   -1.9898629  0.026827677   -2.6680633   0.67820042   297997 
10920000   0.38192722   -2.6675497   -2.6675497   -1.9880252  0.028905777   -2.6675497   0.67952451   297879 
10930000   0.38128899   -2.6659641   -2.6659641   -1.9873063  0.025419446   -2.6659641    0.6786578   297761 
10940000   0.38080325   -2.6669552   -2.6669552   -1.9888955  0.026547966   -2.6669552   0.67805966   297644 
10950000   0.38179652   -2.6706936   -2.6706936   -1.9905957  0.030587618   -2.6706936   0.68009791   297526 
10960000   0.38046147   -2.6664711   -2.6664711   -1.9884824  0.030086699   -2.6664711   0.67798866   297408 
10970000   0.38018028    -2.667614    -2.667614   -1.9898598  0.026552648    -2.667614    0.6777542   297291 
10980000   0.37925236   -2.6660064   -2.6660064   -1.9896379  0.029230253   -2.6660064   0.67636845   297173 
10990000   0.37995252   -2.6669869   -2.6669869   -1.9891006  0.027142694   -2.6669869    0.6778863   297055 
11000000   0.37947431   -2.6679434   -2.6679434   -1.9906435  0.024470803   -2.6679434   0.67729988   296938 
11010000   0.37960596   -2.6708513   -2.6708513   -1.9930471  0.026324824   -2.6708513   0.67780421   296820 
11020000   0.37767972   -2.6692394   -2.6692394   -1.9946064  0.024075235   -2.6692394     0.674633   296702 
11030000   0.37806504   -2.6697897   -2.6697897    -1.994202  0.019961867   -2.6697897    0.6755877   296585 
11040000   0.37807177   -2.6663359   -2.6663359   -1.9904672  0.020158304   -2.6663359   0.67586863   296467 
11050000   0.37883616    -2.669506    -2.669506   -1.9920013 0.0077085002    -2.669506   0.67750478   296349 
11060000   0.37827438   -2.6686548   -2.6686548   -1.9918875  0.028352963   -2.6686548   0.67676728   296232 
11070000   0.37716032   -2.6682168   -2.6682168   -1.9931738  0.021222242   -2.6682168   0.67504302   296114 
11080000   0.37806534   -2.6718522   -2.6718522   -1.9949219  0.028016328   -2.6718522    0.6769303   295997 
11090000   0.37778487   -2.6698102   -2.6698102   -1.9931123  0.023862474   -2.6698102   0.67669789   295879 
11100000   0.37735943   -2.6687084   -2.6687084   -1.9925029  0.025010821   -2.6687084   0.67620551   295761 
11110000   0.37760794   -2.6677177   -2.6677177   -1.9907991  0.031511617   -2.6677177    0.6769186   295644 
11120000   0.37740038   -2.6676497   -2.6676497    -1.990833  0.026083089   -2.6676497   0.67681665   295526 
11130000    0.3759526   -2.6661028   -2.6661028   -1.9916132  0.028410671   -2.6661028   0.67448956   295408 
11140000   0.37740879   -2.6684596   -2.6684596   -1.9910893  0.022018032   -2.6684596   0.67737038   295291 
11150000   0.37648897    -2.668043    -2.668043   -1.9920534  0.031372909    -2.668043   0.67598961   295173 
11160000   0.37620958   -2.6696717   -2.6696717   -1.9939136   0.03120165   -2.6696717   0.67575812   295055 
11170000   0.37644277   -2.6686166   -2.6686166   -1.9921714   0.02457417   -2.6686166   0.67644522   294938 
11180000   0.37538224   -2.6656947   -2.6656947   -1.9908852   0.02428057   -2.6656947   0.67480949   294820 
11190000   0.37569842   -2.6681552   -2.6681552   -1.9925069  0.029229059   -2.6681552   0.67564829   294702 
11200000   0.37569784    -2.665806    -2.665806   -1.9898904  0.031744263    -2.665806   0.67591559   294585 
11210000   0.37530238   -2.6668143   -2.6668143   -1.9913396  0.029835407   -2.6668143    0.6754747   294467 
11220000   0.37491455   -2.6686292   -2.6686292    -1.993582  0.027505427   -2.6686292   0.67504718   294349 
11230000    0.3751938   -2.6690748   -2.6690748   -1.9932562  0.022220892   -2.6690748   0.67581861   294232 
11240000   0.37501953   -2.6713074   -2.6713074   -1.9955316  0.025625968   -2.6713074   0.67577571   294114 
11250000   0.37380107   -2.6685351   -2.6685351   -1.9946869  0.012905948   -2.6685351   0.67384815   293997 
11260000   0.37361012   -2.6659566   -2.6659566   -1.9921822  0.023923029   -2.6659566   0.67377436   293879 
11270000   0.37389441   -2.6668521   -2.6668521   -1.9922942    0.0263784   -2.6668521   0.67455789   293761 
11280000     0.373396   -2.6686984   -2.6686984   -1.9947713  0.032094523   -2.6686984   0.67392712   293644 
11290000   0.37341509   -2.6675404   -2.6675404   -1.9933079  0.026136671   -2.6675404    0.6742325   293526 
11300000   0.37308211   -2.6663692   -2.6663692    -1.992467  0.021065482   -2.6663692    0.6739022   293408 
11310000   0.37383354    -2.667219    -2.667219   -1.9916901  0.031513565    -2.667219   0.67552889   293291 
11320000   0.37319792   -2.6661358   -2.6661358    -1.991484  0.024572567   -2.6661358   0.67465174   293173 
11330000   0.37404936    -2.667952    -2.667952   -1.9914888  0.030215588    -2.667952   0.67646321   293055 
11340000   0.37270569   -2.6674304   -2.6674304    -1.993128  0.022452704   -2.6674304   0.67430241   292938 
11350000   0.37244885   -2.6656435   -2.6656435   -1.9915342  0.028167511   -2.6656435   0.67410926   292820 
11360000   0.37245245   -2.6659215   -2.6659215   -1.9915339    0.0232453   -2.6659215   0.67438755   292702 
11370000   0.37240169   -2.6656267   -2.6656267   -1.9910614  0.021075239   -2.6656267   0.67456527   292585 
11380000   0.37193808   -2.6660292   -2.6660292   -1.9920318  0.033009179   -2.6660292   0.67399733   292467 
11390000   0.37261693   -2.6661282   -2.6661282   -1.9906282   0.01957078   -2.6661282   0.67550002   292349 
11400000   0.37197174   -2.6655925   -2.6655925   -1.9909922  0.026684825   -2.6655925   0.67460037   292232 
11410000   0.37117632   -2.6671664   -2.6671664   -1.9937367  0.028345645   -2.6671664   0.67342973   292114 
11420000   0.37185969   -2.6702412   -2.6702412   -1.9953013  0.023831033   -2.6702412   0.67493992   291997 
11430000    0.3716377   -2.6672263   -2.6672263   -1.9924166  0.022517457   -2.6672263   0.67480968   291879 
11440000   0.37094431   -2.6648559   -2.6648559   -1.9910328  0.031608932   -2.6648559   0.67382306   291761 
11450000    0.3697955   -2.6651744   -2.6651744   -1.9931687  0.032084635   -2.6651744   0.67200573   291644 
11460000   0.37106888   -2.6688301   -2.6688301   -1.9942374  0.023755098   -2.6688301   0.67459271   291526 
11470000   0.36995602   -2.6661939   -2.6661939    -1.993352  0.025077971   -2.6661939    0.6728419   291408 
11480000   0.37114485   -2.6691606   -2.6691606   -1.9938855  0.029445124   -2.6691606   0.67527516   291291 
11490000   0.37039256   -2.6679643   -2.6679643   -1.9937848  0.025518374   -2.6679643   0.67417951   291173 
11500000   0.37058087   -2.6684601   -2.6684601   -1.9936643  0.025495986   -2.6684601   0.67479573   291055 
11510000   0.37034511   -2.6674122   -2.6674122   -1.9927745  0.013240876   -2.6674122   0.67463764   290938 
11520000   0.37030016    -2.668013    -2.668013   -1.9931836  0.024813074    -2.668013   0.67482945   290820 
11530000   0.36983164   -2.6671233   -2.6671233    -1.992874  0.034389631   -2.6671233   0.67424921   290702 
11540000   0.36913548   -2.6669679   -2.6669679   -1.9937169  0.024238776   -2.6669679   0.67325098   290585 
11550000   0.36799567   -2.6662079   -2.6662079   -1.9947631  0.039428384   -2.6662079   0.67144479   290467 
11560000    0.3695073   -2.6641801   -2.6641801   -1.9897032  0.032676818   -2.6641801   0.67447691   290349 
11570000    0.3691399   -2.6677343   -2.6677343   -1.9936564  0.028311466   -2.6677343   0.67407791   290232 
11580000   0.36840319   -2.6659659   -2.6659659   -1.9929597  0.020359962   -2.6659659   0.67300624   290114 
11590000   0.36859479    -2.666466    -2.666466    -1.992838  0.032902791    -2.666466   0.67362794   289997 
11600000   0.36829937   -2.6668058   -2.6668058   -1.9934438  0.031985706   -2.6668058   0.67336202   289879 
11610000   0.36763988   -2.6654611   -2.6654611   -1.9930311  0.028148124   -2.6654611   0.67243001   289761 
11620000   0.36664618   -2.6634584   -2.6634584    -1.992575  0.029465436   -2.6634584   0.67088338   289644 
11630000   0.36753004   -2.6675639   -2.6675639   -1.9947892  0.022896832   -2.6675639   0.67277474   289526 
11640000   0.36726477   -2.6683843   -2.6683843    -1.995821  0.024065943   -2.6683843   0.67256325   289408 
11650000   0.36634263   -2.6644837   -2.6644837   -1.9933378  0.023642414   -2.6644837   0.67114589   289291 
11660000   0.36711691   -2.6652266   -2.6652266   -1.9923878  0.031925702   -2.6652266   0.67283882   289173 
11670000   0.36735859   -2.6639769   -2.6639769   -1.9904203  0.033352881   -2.6639769   0.67355662   289055 
11680000   0.36576293    -2.662923    -2.662923   -1.9920205  0.033953159    -2.662923   0.67090251   288938 
11690000    0.3656022    -2.664587    -2.664587   -1.9937053  0.026200746    -2.664587   0.67088169   288820 
11700000   0.36589517   -2.6655786   -2.6655786   -1.9938849  0.031223841   -2.6655786   0.67169371   288702 
11710000     0.365446   -2.6654479   -2.6654479   -1.9943068  0.030421236   -2.6654479   0.67114114   288585 
11720000   0.36614324   -2.6660583   -2.6660583   -1.9933616  0.025074973   -2.6660583   0.67269668   288467 
11730000   0.36488109   -2.6656103   -2.6656103   -1.9949582  0.026352556   -2.6656103   0.67065213   288349 
11740000   0.36438352   -2.6661431   -2.6661431   -1.9961336   0.02140747   -2.6661431   0.67000945   288232 
11750000   0.36425321   -2.6650469   -2.6650469   -1.9950027  0.020096176   -2.6650469   0.67004416   288114 
11760000   0.36342236   -2.6644092   -2.6644092   -1.9956218  0.026104842   -2.6644092    0.6687874   287997 
11770000   0.36402252   -2.6656118   -2.6656118   -1.9954454  0.020951605   -2.6656118   0.67016643   287879 
11780000   0.36380602   -2.6644396   -2.6644396   -1.9943971  0.026011162   -2.6644396   0.67004249   287761 
11790000   0.36389213   -2.6646027   -2.6646027    -1.994129  0.026128424   -2.6646027   0.67047369   287644 
11800000   0.36340912   -2.6633477   -2.6633477   -1.9934892  0.021089798   -2.6633477   0.66985853   287526 
11810000   0.36335928   -2.6646442   -2.6646442   -1.9946025  0.025750223   -2.6646442   0.67004165   287408 
11820000   0.36400152   -2.6657263   -2.6657263    -1.994227  0.028318158   -2.6657263   0.67149932   287291 
11830000   0.36395662   -2.6657923   -2.6657923   -1.9940999  0.025616996   -2.6657923   0.67169236   287173 
11840000   0.36299062       -2.666       -2.666    -1.995815  0.028167519       -2.666   0.67018496   287055 
11850000   0.36254197   -2.6654247   -2.6654247   -1.9957951  0.024899917   -2.6654247   0.66962956   286938 
11860000   0.36188297   -2.6642742   -2.6642742   -1.9955868  0.026065818   -2.6642742   0.66868735   286820 
11870000   0.36289585   -2.6658018   -2.6658018   -1.9949668  0.035687311   -2.6658018   0.67083495   286702 
11880000   0.36271401   -2.6662987   -2.6662987   -1.9955261  0.020294725   -2.6662987   0.67077254   286585 
11890000   0.36205126   -2.6663737   -2.6663737    -1.996551  0.029288326   -2.6663737   0.66982269   286467 
11900000    0.3620225    -2.666573    -2.666573   -1.9965275  0.033679803    -2.666573   0.67004549   286349 
11910000   0.36142818   -2.6640402   -2.6640402   -1.9948212  0.029058344   -2.6640402   0.66921893   286232 
11920000    0.3616786    -2.664477    -2.664477   -1.9945182  0.017936159    -2.664477    0.6699588   286114 
11930000   0.36067167   -2.6624095   -2.6624095   -1.9940426  0.026536396   -2.6624095   0.66836693   285997 
11940000   0.36139687   -2.6628359   -2.6628359   -1.9928487  0.028089615   -2.6628359   0.66998724   285879 
11950000   0.35993996   -2.6645844   -2.6645844   -1.9970225  0.019210828   -2.6645844   0.66756185   285761 
11960000   0.36029765   -2.6633695   -2.6633695   -1.9948706  0.031466928   -2.6633695   0.66849894   285644 
11970000   0.36001529   -2.6629852   -2.6629852   -1.9947341  0.026102692   -2.6629852   0.66825111   285526 
11980000   0.36095513   -2.6646403   -2.6646403   -1.9943677  0.024714924   -2.6646403   0.67027262   285408 
11990000   0.36122757   -2.6645134   -2.6645134   -1.9934598    0.0264658   -2.6645134    0.6710536   285291 
12000000   0.36013319   -2.6615481   -2.6615481   -1.9922507  0.031155633   -2.6615481    0.6692974   285173 
12010000   0.35909908   -2.6619707   -2.6619707   -1.9943189  0.027506184   -2.6619707   0.66765181   285055 
12020000   0.35937959   -2.6632763   -2.6632763   -1.9948286  0.030274442   -2.6632763   0.66844771   284938 
12030000   0.35947627   -2.6637841   -2.6637841   -1.9948795  0.025141592   -2.6637841   0.66890454   284820 
12040000   0.35994892   -2.6648329   -2.6648329   -1.9947712  0.024593515   -2.6648329   0.67006164   284702 
12050000   0.35887143   -2.6620167   -2.6620167   -1.9936862  0.035729307   -2.6620167   0.66833049   284585 
12060000   0.35968931   -2.6648303   -2.6648303   -1.9946988  0.028115926   -2.6648303    0.6701315   284467 
12070000     0.359741   -2.6611516   -2.6611516   -1.9906457  0.024836173   -2.6611516   0.67050594   284349 
12080000   0.35895278   -2.6622485   -2.6622485   -1.9929363  0.025477644   -2.6622485   0.66931221   284232 
12090000   0.35836723   -2.6619481   -2.6619481   -1.9934501  0.020866969   -2.6619481   0.66849792   284114 
12100000   0.35865706   -2.6613528   -2.6613528   -1.9920386   0.02423348   -2.6613528   0.66931418   283997 
12110000   0.35751446   -2.6612997   -2.6612997   -1.9938405  0.031795359   -2.6612997   0.66745923   283879 
12120000   0.35853138    -2.665171    -2.665171   -1.9955349  0.017418857    -2.665171   0.66963611   283761 
12130000    0.3572158   -2.6635905   -2.6635905   -1.9961363  0.035559146   -2.6635905   0.66745417   283644 
12140000   0.35764842   -2.6626931   -2.6626931   -1.9941525  0.027389661   -2.6626931   0.66854065   283526 
12150000   0.35677286   -2.6623597   -2.6623597   -1.9951781  0.034392232   -2.6623597   0.66718166   283408 
12160000   0.35732807   -2.6614465   -2.6614465   -1.9929506  0.024151849   -2.6614465    0.6684959   283291 
12170000   0.35566657   -2.6624419   -2.6624419   -1.9967771  0.035318868   -2.6624419   0.66566482   283173 
12180000    0.3562048   -2.6617508   -2.6617508   -1.9948007  0.033208627   -2.6617508   0.66695008   283055 
12190000   0.35598778   -2.6613238   -2.6613238   -1.9945044  0.024942797   -2.6613238   0.66681937   282938 
12200000   0.35567679   -2.6592909   -2.6592909   -1.9927761  0.031641615   -2.6592909   0.66651482   282820 
12210000    0.3563308   -2.6611177   -2.6611177   -1.9930986  0.024673446   -2.6611177   0.66801909   282702 
12220000   0.35600168   -2.6592143   -2.6592143   -1.9915358  0.037134287   -2.6592143   0.66767843   282585 
12230000   0.35524454   -2.6604295   -2.6604295   -1.9938928  0.024292675   -2.6604295   0.66653674   282467 
12240000   0.35602794   -2.6614624   -2.6614624   -1.9931766  0.020616717   -2.6614624   0.66828579   282349 
12250000   0.35578992   -2.6614703   -2.6614703   -1.9933544  0.033319165   -2.6614703   0.66811586   282232 
12260000    0.3557684   -2.6601667   -2.6601667   -1.9918118  0.016720455   -2.6601667   0.66835488   282114 
12270000   0.35581204   -2.6634924   -2.6634924   -1.9947783  0.035564219   -2.6634924    0.6687142   281997 
12280000    0.3546809   -2.6616712   -2.6616712   -1.9948038  0.026937986   -2.6616712   0.66686738   281879 
12290000   0.35506306   -2.6628524   -2.6628524   -1.9949869  0.032439584   -2.6628524   0.66786549   281761 
12300000   0.35323648   -2.6618289   -2.6618289   -1.9971232  0.021872702   -2.6618289   0.66470576   281644 
12310000   0.35425072   -2.6633978   -2.6633978    -1.996504  0.031700515   -2.6633978   0.66689373   281526 
12320000   0.35459283   -2.6648447   -2.6648447    -1.997027  0.029150601   -2.6648447   0.66781767   281408 
12330000     0.353438   -2.6655242   -2.6655242   -1.9996046  0.026527609   -2.6655242   0.66591961   281291 
12340000   0.35275987    -2.663173    -2.663173   -1.9982521   0.02212774    -2.663173   0.66492085   281173 
12350000   0.35310462   -2.6608425   -2.6608425   -1.9949924  0.025571406   -2.6608425   0.66585013   281055 
12360000   0.35324698   -2.6629002   -2.6629002   -1.9965043   0.02754398   -2.6629002   0.66639598   280938 
12370000   0.35255207   -2.6618292   -2.6618292   -1.9964647  0.020966514   -2.6618292    0.6653645   280820 
12380000   0.35244069   -2.6626554   -2.6626554   -1.9972215  0.026926506   -2.6626554   0.66543392   280702 
12390000   0.35224363   -2.6612975   -2.6612975   -1.9959583  0.027046818   -2.6612975   0.66533917   280585 
12400000   0.35180554   -2.6635293   -2.6635293    -1.998738  0.023361167   -2.6635293   0.66479127   280467 
12410000    0.3525894   -2.6628261   -2.6628261   -1.9962732  0.025042698   -2.6628261   0.66655293   280349 
12420000   0.35118252   -2.6593617   -2.6593617   -1.9951912  0.030603532   -2.6593617   0.66417046   280232 
12430000   0.35274865   -2.6606899   -2.6606899   -1.9932765  0.033443305   -2.6606899   0.66741343   280114 
12440000   0.35186147   -2.6609949   -2.6609949   -1.9949818  0.023795672   -2.6609949   0.66601303   279997 
12450000   0.35218986   -2.6635412   -2.6635412   -1.9966255  0.021727837   -2.6635412   0.66691568   279879 
12460000   0.35217346   -2.6629484   -2.6629484   -1.9957825  0.025138949   -2.6629484   0.66716592   279761 
12470000   0.35056325   -2.6617134   -2.6617134   -1.9973201  0.022868902   -2.6617134   0.66439334   279644 
12480000   0.35166565   -2.6640933   -2.6640933   -1.9973293   0.03288177   -2.6640933     0.666764   279526 
12490000   0.35041766   -2.6615103   -2.6615103    -1.996832  0.025078033   -2.6615103   0.66467837   279408 
12500000   0.35063828   -2.6633112   -2.6633112   -1.9979358  0.030762261   -2.6633112   0.66537548   279291 
12510000   0.34994722   -2.6606273   -2.6606273   -1.9962825  0.028382534   -2.6606273   0.66434479   279173 
12520000   0.34995384   -2.6637639   -2.6637639   -1.9991256  0.034038278   -2.6637639   0.66463828   279055 
12530000   0.34995119   -2.6648974   -2.6648974   -1.9999854  0.034234738   -2.6648974   0.66491203   278938 
12540000    0.3488466   -2.6628413   -2.6628413   -1.9997475   0.03181419   -2.6628413    0.6630938   278820 
12550000   0.34950582   -2.6626776   -2.6626776   -1.9980494  0.019501938   -2.6626776   0.66462813   278702 
12560000   0.34944585   -2.6616943   -2.6616943   -1.9969011  0.029426205   -2.6616943   0.66479317   278585 
12570000   0.34847496   -2.6610569   -2.6610569   -1.9978298  0.038749562   -2.6610569   0.66322706   278467 
12580000   0.34864432   -2.6601605   -2.6601605   -1.9963298   0.01575662   -2.6601605   0.66383069   278349 
12590000   0.34839382   -2.6619753   -2.6619753   -1.9983427  0.020720244   -2.6619753   0.66363267   278232 
12600000   0.34873815   -2.6587054   -2.6587054    -1.994135  0.022491489   -2.6587054   0.66457042   278114 
12610000   0.34844899   -2.6627041   -2.6627041   -1.9984052   0.03428675   -2.6627041   0.66429885   277997 
12620000   0.34846347   -2.6614014   -2.6614014   -1.9967929  0.031157995   -2.6614014   0.66460856   277879 
12630000   0.34834045    -2.660092    -2.660092   -1.9954358  0.031457593    -2.660092   0.66465617   277761 
12640000   0.34752647   -2.6623176   -2.6623176   -1.9989351  0.022265248   -2.6623176   0.66338247   277644 
12650000   0.34725907   -2.6644474   -2.6644474   -2.0012935  0.030863811   -2.6644474   0.66315389   277526 
12660000   0.34593921   -2.6615749   -2.6615749   -2.0006605  0.030430809   -2.6615749   0.66091439   277408 
12670000   0.34739169   -2.6623133   -2.6623133    -1.998344  0.024571601   -2.6623133   0.66396937   277291 
12680000   0.34750835   -2.6610434   -2.6610434   -1.9965682  0.032303464   -2.6610434   0.66447511   277173 
12690000   0.34670111   -2.6579595   -2.6579595   -1.9947456  0.031031794   -2.6579595   0.66321393   277055 
12700000   0.34717957   -2.6564136   -2.6564136   -1.9920038  0.031147002   -2.6564136   0.66440976   276938 
12710000   0.34657502   -2.6567989   -2.6567989   -1.9932633  0.030770694   -2.6567989   0.66353554   276820 
12720000   0.34626914   -2.6556167   -2.6556167    -1.992384  0.026262355   -2.6556167   0.66323264   276702 
12730000   0.34595348   -2.6575626   -2.6575626   -1.9946543  0.028370748   -2.6575626   0.66290834   276585 
12740000   0.34527961   -2.6584879   -2.6584879   -1.9965884  0.024589849   -2.6584879   0.66189946   276467 
12750000    0.3442997   -2.6571305   -2.6571305   -1.9968277  0.034658753   -2.6571305   0.66030282   276349 
12760000   0.34492237   -2.6578805   -2.6578805   -1.9961034  0.033042281   -2.6578805   0.66177715   276232 
12770000   0.34506379   -2.6566415   -2.6566415   -1.9943101  0.032065067   -2.6566415   0.66233142   276114 
12780000   0.34490125   -2.6571967   -2.6571967   -1.9948966   0.02324408   -2.6571967   0.66230007   275997 
12790000   0.34436418   -2.6566188   -2.6566188   -1.9950672  0.028540189   -2.6566188    0.6615516   275879 
12800000   0.34481754   -2.6570136   -2.6570136   -1.9943076  0.024019678   -2.6570136     0.662706   275761 
12810000   0.34518051   -2.6568386   -2.6568386   -1.9931534  0.028816995   -2.6568386   0.66368517   275644 
12820000   0.34310107   -2.6576138   -2.6576138   -1.9976443  0.023717612   -2.6576138   0.65996952   275526 
12830000   0.34317208   -2.6537927   -2.6537927   -1.9934038  0.023840752   -2.6537927   0.66038893   275408 
12840000   0.34411086    -2.657354    -2.657354   -1.9948771  0.027081953    -2.657354   0.66247693   275291 
12850000   0.34468036   -2.6592972   -2.6592972   -1.9954393  0.036750726   -2.6592972   0.66385789   275173 
12860000   0.34311523   -2.6564325   -2.6564325   -1.9953056  0.028892681   -2.6564325   0.66112693   275055 
12870000      0.34293   -2.6580113   -2.6580113   -1.9969601   0.03322102   -2.6580113   0.66105121   274938 
12880000   0.34318456   -2.6579249   -2.6579249   -1.9960989  0.040233587   -2.6579249   0.66182597   274820 
12890000   0.34199263   -2.6565746   -2.6565746    -1.996764  0.025062216   -2.6565746   0.65981065   274702 
12900000   0.34187635   -2.6558061   -2.6558061   -1.9959387  0.025618467   -2.6558061   0.65986736   274585 
12910000   0.34255121   -2.6575098   -2.6575098   -1.9960556  0.026162601   -2.6575098   0.66145418   274467 
12920000   0.34235674   -2.6575252   -2.6575252   -1.9961622  0.029427953   -2.6575252   0.66136301   274349 
12930000   0.34270838   -2.6599349   -2.6599349   -1.9976101  0.029543329   -2.6599349   0.66232476   274232 
12940000   0.34196397   -2.6569994   -2.6569994   -1.9958288   0.03081672   -2.6569994   0.66117059   274114 
12950000   0.34137882   -2.6568443   -2.6568443   -1.9965232  0.030188069   -2.6568443   0.66032108   273997 
12960000   0.34136501   -2.6553515   -2.6553515   -1.9947726  0.027596396   -2.6553515   0.66057885   273879 
12970000    0.3417344   -2.6554826   -2.6554826   -1.9939039   0.02830365   -2.6554826   0.66157871   273761 
12980000    0.3419178   -2.6554876   -2.6554876   -1.9932708  0.026440205   -2.6554876   0.66221678   273644 
12990000   0.34106844     -2.65549     -2.65549   -1.9946333  0.025078977     -2.65549   0.66085673   273526 
13000000   0.34140695   -2.6558462   -2.6558462    -1.994048  0.027430306   -2.6558462   0.66179813   273408 
13010000   0.34092998   -2.6550327   -2.6550327   -1.9938762  0.026154742   -2.6550327   0.66115649   273291 
13020000   0.33912443   -2.6519887   -2.6519887   -1.9940495  0.023677531   -2.6519887   0.65793912   273173 
13030000   0.33958615   -2.6541311   -2.6541311   -1.9950115  0.018801796   -2.6541311   0.65911961   273055 
13040000   0.34050064   -2.6576209   -2.6576209    -1.996443  0.025391698   -2.6576209    0.6611779   272938 
13050000   0.33933366   -2.6561713   -2.6561713   -1.9969744  0.032505669   -2.6561713   0.65919687   272820 
13060000   0.33938447   -2.6553776   -2.6553776   -1.9957967  0.033386976   -2.6553776   0.65958085   272702 
13070000   0.33973906    -2.657178    -2.657178   -1.9966246  0.019955041    -2.657178   0.66055339   272585 
13080000   0.33845502   -2.6564303   -2.6564303   -1.9980885  0.025613227   -2.6564303   0.65834182   272467 
13090000   0.33875113   -2.6565702   -2.6565702   -1.9973669  0.029708563   -2.6565702   0.65920329   272349 
13100000   0.33763729   -2.6580992   -2.6580992    -2.000781  0.023328789   -2.6580992   0.65731815   272232 
13110000   0.33780197   -2.6541316   -2.6541316   -1.9962076  0.023711419   -2.6541316   0.65792393   272114 
13120000   0.33818464   -2.6555487   -2.6555487   -1.9965961  0.037459337   -2.6555487   0.65895258   271997 
13130000   0.33799601   -2.6556227   -2.6556227   -1.9967518  0.029733036   -2.6556227   0.65887087   271879 
13140000   0.33868656   -2.6568112   -2.6568112   -1.9963075  0.026143727   -2.6568112   0.66050366   271761 
13150000   0.33637246   -2.6532143   -2.6532143    -1.996941  0.020715534   -2.6532143   0.65627327   271644 
13160000   0.33675012   -2.6549116   -2.6549116    -1.997616  0.033270941   -2.6549116   0.65729561   271526 
13170000   0.33692026   -2.6519801   -2.6519801   -1.9940665  0.034854051   -2.6519801   0.65791362   271408 
13180000   0.33662553   -2.6536569   -2.6536569   -1.9960353  0.027026222   -2.6536569   0.65762158   271291 
13190000   0.33572918   -2.6545644   -2.6545644   -1.9984085  0.022691222   -2.6545644    0.6561559   271173 
13200000   0.33582598    -2.653876    -2.653876   -1.9972452   0.03022069    -2.653876   0.65663082   271055 
13210000    0.3362165   -2.6526151   -2.6526151   -1.9949368  0.027189516   -2.6526151   0.65767828   270938 
13220000   0.33644345   -2.6559662   -2.6559662   -1.9975572  0.027639011   -2.6559662   0.65840898   270820 
13230000   0.33645454     -2.65757     -2.65757   -1.9988523  0.024089236     -2.65757    0.6587177   270702 
13240000   0.33567326    -2.659018    -2.659018   -2.0015457    0.0243533    -2.659018   0.65747224   270585 
13250000   0.33625813   -2.6577594   -2.6577594   -1.9988543  0.022749173   -2.6577594   0.65890515   270467 
13260000   0.33602319   -2.6586009   -2.6586009   -1.9998688   0.03185704   -2.6586009   0.65873217   270349 
13270000    0.3348722   -2.6553611   -2.6553611   -1.9986011  0.022915528   -2.6553611   0.65676004   270232 
13280000   0.33479444   -2.6548197   -2.6548197   -1.9979253  0.029817914   -2.6548197   0.65689438   270114 
13290000   0.33561047   -2.6558848   -2.6558848    -1.997104  0.025063474   -2.6558848   0.65878084   269997 
13300000   0.33366536   -2.6536387   -2.6536387   -1.9983896   0.02465744   -2.6536387   0.65524909   269879 
13310000   0.33401293   -2.6570133   -2.6570133   -2.0007947  0.018239772   -2.6570133   0.65621857   269761 
13320000   0.33354242   -2.6570322   -2.6570322   -2.0014536  0.018701223   -2.6570322   0.65557851   269644 
13330000   0.33424285   -2.6564027   -2.6564027   -1.9991599  0.022592847   -2.6564027   0.65724282   269526 
13340000   0.33348632   -2.6535909   -2.6535909   -1.9975485  0.025066214   -2.6535909   0.65604244   269408 
13350000    0.3340578   -2.6546732   -2.6546732    -1.997221  0.019879922   -2.6546732   0.65745219   269291 
13360000   0.33382882   -2.6544382   -2.6544382   -1.9971486  0.023339219   -2.6544382   0.65728956   269173 
13370000   0.33264906   -2.6545963   -2.6545963   -1.9993424  0.025514976   -2.6545963   0.65525392   269055 
13380000   0.33351262   -2.6533292   -2.6533292   -1.9960885  0.037431217   -2.6533292   0.65724077   268938 
13390000    0.3335064   -2.6545729   -2.6545729   -1.9970559  0.018673593   -2.6545729   0.65751701   268820 
13400000   0.33234619   -2.6542602   -2.6542602   -1.9987428  0.029048687   -2.6542602   0.65551736   268702 
13410000   0.33223408   -2.6550222   -2.6550222   -1.9994405  0.018144228   -2.6550222   0.65558169   268585 
13420000   0.33226508   -2.6548117   -2.6548117   -1.9988806  0.020340978   -2.6548117   0.65593104   268467 
13430000   0.33188934   -2.6534527   -2.6534527   -1.9979753  0.024291281   -2.6534527   0.65547739   268349 
13440000    0.3330809   -2.6542496   -2.6542496   -1.9961319  0.023119277   -2.6542496   0.65811765   268232 
13450000   0.33215664   -2.6537371   -2.6537371   -1.9971568  0.028171352   -2.6537371    0.6565803   268114 
13460000   0.33219111   -2.6560982   -2.6560982   -1.9991631  0.026752671   -2.6560982   0.65693511   267997 
13470000    0.3312364   -2.6535218   -2.6535218   -1.9981862  0.025630132   -2.6535218   0.65533563   267879 
13480000   0.33248036   -2.6544788   -2.6544788   -1.9963922  0.019335332   -2.6544788   0.65808664   267761 
13490000   0.33124556   -2.6538039   -2.6538039   -1.9978747  0.026601813   -2.6538039   0.65592918   267644 
13500000   0.33048002   -2.6534684   -2.6534684   -1.9987664   0.02363973   -2.6534684   0.65470192   267526 
13510000   0.33104635   -2.6569462   -2.6569462    -2.000833  0.025565143   -2.6569462   0.65611324   267408 
13520000   0.33093362   -2.6584345   -2.6584345   -2.0022575  0.027052796   -2.6584345   0.65617693   267291 
13530000   0.33027466    -2.657684    -2.657684   -2.0025244  0.028755487    -2.657684   0.65515957   267173 
13540000    0.3292707   -2.6579193   -2.6579193   -2.0044627  0.025923099   -2.6579193   0.65345664   267055 
13550000   0.33016493   -2.6587463   -2.6587463   -2.0032278  0.025625331   -2.6587463   0.65551848   266938 
13560000   0.32971548   -2.6601374   -2.6601374   -2.0052218  0.027929095   -2.6601374   0.65491563   266820 
13570000   0.32877569   -2.6559489   -2.6559489   -2.0026111  0.026563578   -2.6559489   0.65333785   266702 
13580000   0.32889569   -2.6588349   -2.6588349   -2.0049717  0.032602934   -2.6588349   0.65386317   266585 
13590000   0.32846579   -2.6584791   -2.6584791   -2.0051815    0.0273038   -2.6584791   0.65329767   266467 
13600000   0.32940006   -2.6579242   -2.6579242   -2.0024781  0.022762979   -2.6579242   0.65544613   266349 
13610000    0.3290031    -2.657001    -2.657001    -2.002057  0.022220729    -2.657001   0.65494395   266232 
13620000   0.32848114   -2.6581591   -2.6581591   -2.0039643  0.026411557   -2.6581591   0.65419484   266114 
13630000   0.32838427   -2.6579566   -2.6579566    -2.003667  0.026601911   -2.6579566   0.65428959   265997 
13640000   0.32755472   -2.6561195   -2.6561195   -2.0031931  0.023828771   -2.6561195   0.65292638   265879 
13650000   0.32781004   -2.6567324   -2.6567324    -2.003007  0.024206376   -2.6567324   0.65372545   265761 
13660000   0.32642165   -2.6540942   -2.6540942   -2.0028508  0.022667579   -2.6540942   0.65124342   265644 
13670000   0.32825953   -2.6576964   -2.6576964   -2.0024952  0.017505584   -2.6576964    0.6552012   265526 
13680000   0.32664696   -2.6594294   -2.6594294    -2.007157  0.020541883   -2.6594294   0.65227242   265408 
13690000   0.32595437    -2.658961    -2.658961   -2.0077846  0.028860793    -2.658961   0.65117645   265291 
13700000   0.32682148   -2.6608009   -2.6608009   -2.0076016  0.033532811   -2.6608009   0.65319927   265173 
13710000   0.32592016   -2.6613081   -2.6613081   -2.0096202  0.031089293   -2.6613081   0.65168785   265055 
13720000   0.32576406   -2.6609673   -2.6609673   -2.0093039   0.02233563   -2.6609673   0.65166338   264938 
13730000   0.32623833   -2.6571804   -2.6571804   -2.0042775  0.022981264   -2.6571804    0.6529029   264820 
13740000   0.32608952    -2.655566    -2.655566     -2.00267  0.028999877    -2.655566   0.65289601   264702 
13750000   0.32612275   -2.6574403   -2.6574403    -2.004189  0.025343752   -2.6574403   0.65325129   264585 
13760000   0.32542746   -2.6570855   -2.6570855   -2.0049361  0.027117779   -2.6570855   0.65214941   264467 
13770000   0.32497107   -2.6593681   -2.6593681   -2.0078425  0.021449406   -2.6593681   0.65152552   264349 
13780000   0.32559833   -2.6601813   -2.6601813   -2.0071092  0.016623342   -2.6601813   0.65307213   264232 
13790000   0.32644955   -2.6588652   -2.6588652   -2.0037932  0.031950215   -2.6588652   0.65507202   264114 
13800000   0.32452011    -2.656612    -2.656612   -2.0051231  0.023179293    -2.656612    0.6514889   263997 
13810000   0.32531822   -2.6584685   -2.6584685   -2.0050853  0.038121498   -2.6584685   0.65338318   263879 
13820000   0.32439409   -2.6589002   -2.6589002   -2.0070816  0.017304453   -2.6589002   0.65181861   263761 
13830000   0.32304419   -2.6577334   -2.6577334   -2.0083392  0.022559954   -2.6577334   0.64939426   263644 
13840000   0.32465402   -2.6571567   -2.6571567   -2.0042341   0.02986411   -2.6571567   0.65292261   263526 
13850000   0.32421347    -2.659477    -2.659477   -2.0071482  0.026676147    -2.659477   0.65232871   263408 
13860000   0.32402632   -2.6597297   -2.6597297   -2.0074878  0.033363369   -2.6597297   0.65224187   263291 
13870000   0.32432894   -2.6602673   -2.6602673   -2.0071236  0.022698631   -2.6602673   0.65314375   263173 
13880000   0.32363411   -2.6575121   -2.6575121   -2.0054753  0.029548116   -2.6575121   0.65203682   263055 
13890000   0.32365146   -2.6566292   -2.6566292   -2.0042673  0.023684033   -2.6566292   0.65236194   262938 
13900000    0.3230943   -2.6569099   -2.6569099   -2.0053786  0.027872413   -2.6569099    0.6515313   262820 
13910000     0.323143   -2.6579551   -2.6579551   -2.0060329  0.022968837   -2.6579551   0.65192219   262702 
13920000   0.32338188   -2.6572704   -2.6572704   -2.0045756  0.021332785   -2.6572704   0.65269482   262585 
13930000   0.32277319   -2.6565097   -2.6565097   -2.0047506  0.030011468   -2.6565097   0.65175916   262467 
13940000   0.32303763   -2.6582117   -2.6582117   -2.0056252     0.024074   -2.6582117   0.65258653   262349 
13950000   0.32184778   -2.6603518   -2.6603518   -2.0098788  0.023232782   -2.6603518   0.65047293   262232 
13960000   0.32266509   -2.6592479   -2.6592479   -2.0068295  0.026541777   -2.6592479   0.65241834   262114 
13970000   0.32210691   -2.6581023   -2.6581023   -2.0065218  0.029208504   -2.6581023   0.65158057   261997 
13980000   0.32261596   -2.6608393   -2.6608393    -2.007935  0.027923206   -2.6608393   0.65290436   261879 
13990000   0.32175215   -2.6580978   -2.6580978   -2.0066481  0.028893578   -2.6580978   0.65144973   261761 
14000000    0.3203522   -2.6582294   -2.6582294   -2.0093241  0.028634491   -2.6582294   0.64890532   261644 
14010000   0.32089783   -2.6587411   -2.6587411   -2.0084373  0.026862007   -2.6587411   0.65030381   261526 
14020000   0.32157914   -2.6592308   -2.6592308   -2.0072521  0.031357713   -2.6592308   0.65197869   261408 
14030000   0.32067152   -2.6595333   -2.6595333   -2.0091036  0.033644047   -2.6595333   0.65042965   261291 
14040000   0.32107427   -2.6623792   -2.6623792   -2.0108384  0.030546723   -2.6623792   0.65154082   261173 
14050000   0.32072561    -2.657438    -2.657438   -2.0063105  0.025443431    -2.657438   0.65112747   261055 
14060000   0.32036304   -2.6610231   -2.6610231   -2.0103401  0.025779451   -2.6610231   0.65068302   260938 
14070000   0.32000347   -2.6581554   -2.6581554   -2.0079087  0.015681473   -2.6581554   0.65024675   260820 
14080000    0.3190067   -2.6572333   -2.6572333   -2.0087186  0.028837663   -2.6572333   0.64851472   260702 
14090000   0.31952595   -2.6587593   -2.6587593   -2.0088973  0.021688687   -2.6587593   0.64986196   260585 
14100000   0.31933358   -2.6571583   -2.6571583   -2.0073934   0.02496092   -2.6571583   0.64976495   260467 
14110000   0.31935494   -2.6560945   -2.6560945   -2.0059916  0.035426881   -2.6560945   0.65010294   260349 
14120000   0.31905394   -2.6583607   -2.6583607   -2.0085785  0.026534689   -2.6583607    0.6497822   260232 
14130000   0.31874574   -2.6574414   -2.6574414   -2.0079924  0.025225643   -2.6574414     0.649449   260114 
14140000   0.31948722   -2.6582693   -2.6582693   -2.0070166  0.028201225   -2.6582693   0.65125273   259997 
14150000   0.31832533   -2.6576754   -2.6576754   -2.0084965  0.020194549   -2.6576754   0.64917892   259879 
14160000   0.31858109   -2.6554145   -2.6554145   -2.0054188  0.020926864   -2.6554145   0.64999564   259761 
14170000   0.31799936   -2.6569806   -2.6569806   -2.0078795  0.014817921   -2.6569806   0.64910112   259644 
14180000   0.31864158   -2.6553871   -2.6553871   -2.0046794  0.022902529   -2.6553871   0.65070775   259526 
14190000   0.31741949   -2.6570605   -2.6570605   -2.0085535  0.026092534   -2.6570605   0.64850693   259408 
14200000   0.31760785   -2.6581172   -2.6581172   -2.0089326  0.018494437   -2.6581172   0.64918456   259291 
14210000   0.31716881   -2.6547342   -2.6547342   -2.0061519  0.029371474   -2.6547342   0.64858234   259173 
14220000   0.31666738   -2.6586126   -2.6586126   -2.0107607  0.021169829   -2.6586126   0.64785191   259055 
14230000   0.31619206   -2.6603949   -2.6603949   -2.0132231  0.022264012   -2.6603949   0.64717177   258938 
14240000   0.31663313   -2.6584179   -2.6584179   -2.0100479   0.02172965   -2.6584179   0.64837001   258820 
14250000   0.31694045   -2.6604778   -2.6604778   -2.0111825  0.031603362   -2.6604778   0.64929534   258702 
14260000   0.31619365   -2.6585447   -2.6585447   -2.0104862  0.031002126   -2.6585447    0.6480585   258585 
14270000   0.31508951   -2.6575594   -2.6575594   -2.0114691  0.024569225   -2.6575594   0.64609032   258467 
14280000   0.31551724   -2.6605459   -2.6605459    -2.013283  0.030495875   -2.6605459   0.64726289   258349 
14290000   0.31609112   -2.6572023   -2.6572023   -2.0084684  0.025561782   -2.6572023   0.64873396   258232 
14300000   0.31505015   -2.6580026   -2.6580026   -2.0111095  0.024941788   -2.6580026   0.64689311   258114 
14310000   0.31557817   -2.6592971   -2.6592971    -2.011026   0.02379181   -2.6592971   0.64827115   257997 
14320000   0.31605351   -2.6597473   -2.6597473   -2.0102026  0.026357291   -2.6597473   0.64954469   257879 
14330000   0.31502158   -2.6593264   -2.6593264   -2.0116061  0.025111822   -2.6593264   0.64772027   257761 
14340000   0.31547844   -2.6580216   -2.6580216   -2.0090674  0.032277757   -2.6580216    0.6489542   257644 
14350000   0.31502545   -2.6581569   -2.6581569   -2.0098376  0.022724832   -2.6581569   0.64831932   257526 
14360000   0.31511891    -2.659876    -2.659876    -2.011067  0.018830198    -2.659876   0.64880893   257408 
14370000   0.31479047   -2.6606932   -2.6606932   -2.0122658  0.010879034   -2.6606932   0.64842743   257291 
14380000    0.3149759   -2.6593595   -2.6593595   -2.0102524  0.029463979   -2.6593595   0.64910709   257173 
14390000   0.31358121   -2.6577464   -2.6577464   -2.0112169  0.019124269   -2.6577464   0.64652953   257055 
14400000   0.31373881   -2.6581422   -2.6581422   -2.0109931  0.027923478   -2.6581422   0.64714903   256938 
14410000   0.31303341   -2.6588893   -2.6588893   -2.0128987   0.01922294   -2.6588893   0.64599067   256820 
14420000   0.31368744   -2.6587861   -2.6587861   -2.0111481  0.030063882   -2.6587861   0.64763793   256702 
14430000   0.31208111    -2.655098    -2.655098   -2.0104827  0.027162706    -2.655098   0.64461531   256585 
14440000    0.3125071   -2.6562179   -2.6562179   -2.0104257  0.020594257   -2.6562179   0.64579219   256467 
14450000   0.31238651   -2.6562462   -2.6562462   -2.0104061  0.034906275   -2.6562462   0.64584016   256349 
14460000   0.31226506   -2.6572366   -2.6572366   -2.0113527  0.021099571   -2.6572366   0.64588384   256232 
14470000    0.3117827   -2.6567109   -2.6567109   -2.0115276   0.02948677   -2.6567109   0.64518327   256114 
14480000    0.3115513   -2.6570544   -2.6570544   -2.0120553  0.027648457   -2.6570544   0.64499907   255997 
14490000   0.31237823   -2.6571444   -2.6571444   -2.0101351  0.027822076   -2.6571444   0.64700929   255879 
14500000   0.31134708   -2.6544718   -2.6544718   -2.0093008  0.021924984   -2.6544718   0.64517105   255761 
14510000   0.31220208   -2.6566138   -2.6566138   -2.0093749  0.030005049   -2.6566138   0.64723886   255644 
14520000   0.31167333   -2.6551447   -2.6551447   -2.0087036  0.026667308   -2.6551447   0.64644107   255526 
14530000   0.31156363   -2.6550396   -2.6550396   -2.0085275  0.024107475   -2.6550396   0.64651211   255408 
14540000   0.31117185   -2.6559253   -2.6559253   -2.0099303  0.028682296   -2.6559253   0.64599506   255291 
14550000   0.31163734    -2.656617    -2.656617   -2.0093564  0.033096071    -2.656617   0.64726059   255173 
14560000   0.31195458     -2.65611     -2.65611   -2.0078907  0.020885966     -2.65611   0.64821925   255055 
14570000   0.31030738   -2.6563901   -2.6563901   -2.0112977  0.034369858   -2.6563901    0.6450924   254938 
14580000   0.31035708   -2.6571142   -2.6571142   -2.0116197  0.037375766   -2.6571142   0.64549449   254820 
14590000    0.3109988   -2.6565232   -2.6565232   -2.0093943  0.033764453   -2.6565232   0.64712884   254702 
14600000   0.30942938   -2.6544593   -2.6544593   -2.0103002  0.019151344   -2.6544593   0.64415908   254585 
14610000   0.30999399   -2.6534031   -2.6534031   -2.0077694  0.022515937   -2.6534031   0.64563371   254467 
14620000   0.30917101   -2.6539649   -2.6539649   -2.0097465  0.028414668   -2.6539649   0.64421841   254349 
14630000   0.30925048   -2.6547649   -2.6547649   -2.0100843  0.025053537   -2.6547649   0.64468056   254232 
14640000   0.30934262   -2.6521084   -2.6521084   -2.0069363  0.019368839   -2.6521084   0.64517209   254114 
14650000   0.30865462   -2.6517179   -2.6517179   -2.0076842  0.030753195   -2.6517179    0.6440337   253997 
14660000   0.30823079   -2.6520088   -2.6520088   -2.0085605  0.026422882   -2.6520088   0.64344828   253879 
14670000   0.30826711   -2.6535691   -2.6535691   -2.0097458  0.024373194   -2.6535691   0.64382334   253761 
14680000   0.30813867   -2.6527122   -2.6527122   -2.0088602  0.021602156   -2.6527122   0.64385195   253644 
14690000   0.30743433   -2.6524916   -2.6524916   -2.0098124  0.024485517   -2.6524916   0.64267922   253526 
14700000   0.30764709   -2.6511334   -2.6511334     -2.00771  0.023971843   -2.6511334   0.64342345   253408 
14710000   0.30677242   -2.6531034   -2.6531034   -2.0112129  0.024238651   -2.6531034   0.64189051   253291 
14720000   0.30710591   -2.6543446   -2.6543446   -2.0114567   0.02310249   -2.6543446    0.6428878   253173 
14730000   0.30770809   -2.6555282   -2.6555282   -2.0110795  0.017652131   -2.6555282   0.64444876   253055 
14740000   0.30602155    -2.653322    -2.653322    -2.012109  0.023025654    -2.653322   0.64121302   252938 
14750000   0.30774902   -2.6541573   -2.6541573   -2.0090237  0.031028668   -2.6541573   0.64513358   252820 
14760000   0.30633546   -2.6529649   -2.6529649   -2.0104947  0.011452714   -2.6529649   0.64247021   252702 
14770000   0.30631246   -2.6540456   -2.6540456    -2.011326  0.021492559   -2.6540456   0.64271954   252585 
14780000   0.30596061   -2.6515605   -2.6515605   -2.0092791  0.034513401   -2.6515605   0.64228133   252467 
14790000   0.30562908   -2.6556632   -2.6556632   -2.0137778  0.025197587   -2.6556632   0.64188539   252349 
14800000   0.30653742   -2.6574169   -2.6574169   -2.0133252  0.030037536   -2.6574169   0.64409171   252232 
14810000   0.30560497   -2.6554844   -2.6554844   -2.0130514  0.027147231   -2.6554844     0.642433   252114 
14820000   0.30524835   -2.6540721   -2.6540721   -2.0120908  0.029425079   -2.6540721   0.64198126   251997 
14830000   0.30465043   -2.6533923   -2.6533923   -2.0123684  0.026183341   -2.6533923   0.64102391   251879 
14840000   0.30439877   -2.6531521   -2.6531521   -2.0123575  0.021722565   -2.6531521   0.64079459   251761 
14850000   0.30396802   -2.6514697   -2.6514697   -2.0112844  0.027060486   -2.6514697   0.64018533   251644 
14860000   0.30477475   -2.6536077   -2.6536077   -2.0114222   0.02515481   -2.6536077    0.6421855   251526 
14870000    0.3039066   -2.6519595   -2.6519595   -2.0113027  0.022696944   -2.6519595   0.64065679   251408 
14880000   0.30465502   -2.6556837   -2.6556837   -2.0131502  0.031770448   -2.6556837   0.64253353   251291 
14890000   0.30400333   -2.6510643   -2.6510643    -2.009604  0.029574969   -2.6510643    0.6414603   251173 
14900000   0.30345554   -2.6502404   -2.6502404    -2.009635  0.028707856   -2.6502404    0.6406054   251055 
14910000   0.30326777   -2.6529255   -2.6529255    -2.012418  0.027975693   -2.6529255   0.64050751   250938 
14920000   0.30426226   -2.6552322   -2.6552322    -2.012322  0.018871814   -2.6552322   0.64291021   250820 
14930000   0.30405471   -2.6545652   -2.6545652   -2.0117912  0.026981503   -2.6545652   0.64277406   250702 
14940000   0.30182532   -2.6514848   -2.6514848   -2.0131257  0.027150269   -2.6514848   0.63835902   250585 
14950000   0.30260288   -2.6550566   -2.6550566   -2.0147516  0.027348728   -2.6550566   0.64030506   250467 
14960000   0.30303188   -2.6560212   -2.6560212   -2.0145061  0.029250415   -2.6560212   0.64151506   250349 
14970000   0.30238357   -2.6522581   -2.6522581   -2.0118162  0.038132156   -2.6522581    0.6404419   250232 
14980000   0.30219767   -2.6534384   -2.6534384   -2.0130883  0.027215835   -2.6534384   0.64035013   250114 
14990000   0.30166611   -2.6554084   -2.6554084   -2.0158855  0.029166536   -2.6554084   0.63952293   249997 
15000000   0.30217207   -2.6581432   -2.6581432   -2.0172452  0.029287733   -2.6581432   0.64089806   249879 
15010000   0.30105246   -2.6552824   -2.6552824   -2.0164573  0.031368347   -2.6552824   0.63882507   249761 
15020000   0.30148584   -2.6573353   -2.6573353   -2.0172908   0.02232342   -2.6573353   0.64004453   249644 
15030000   0.30135581   -2.6574774   -2.6574774   -2.0174064  0.032760301   -2.6574774   0.64007102   249526 
15040000   0.30122209   -2.6565254   -2.6565254   -2.0164357  0.026997568   -2.6565254   0.64008969   249408 
15050000   0.30052448    -2.655068    -2.655068    -2.016161  0.022760308    -2.655068     0.638907   249291 
15060000   0.29959191   -2.6545944   -2.6545944   -2.0173683  0.026167737   -2.6545944   0.63722602   249173 
15070000   0.30071534   -2.6569712   -2.6569712   -2.0170526  0.021439931   -2.6569712   0.63991857   249055 
15080000   0.29962804   -2.6575404   -2.6575404   -2.0196359  0.027620321   -2.6575404   0.63790449   248938 
15090000    0.2994249   -2.6537787   -2.6537787   -2.0160044  0.026390963   -2.6537787   0.63777433   248820 
15100000   0.29903741   -2.6566758   -2.6566758   -2.0194246  0.029893567   -2.6566758   0.63725118   248702 
15110000   0.29872871   -2.6559226   -2.6559226   -2.0190296  0.028974027   -2.6559226   0.63689295   248585 
15120000   0.29999426   -2.6560197   -2.6560197   -2.0161248  0.029088358   -2.6560197   0.63989486   248467 
15130000   0.29977944   -2.6553547   -2.6553547   -2.0156142  0.030478073   -2.6553547   0.63974047   248349 
15140000   0.29857792   -2.6540005   -2.6540005   -2.0165238  0.025222776   -2.6540005    0.6374767   248232 
15150000   0.29877796   -2.6525168   -2.6525168   -2.0143096  0.016121764   -2.6525168   0.63820719   248114 
15160000   0.29791799   -2.6544944   -2.6544944    -2.017824  0.030440781   -2.6544944   0.63667045   247997 
15170000   0.29755855   -2.6542494   -2.6542494   -2.0180443  0.019887106   -2.6542494   0.63620504   247879 
15180000   0.29940254   -2.6561901   -2.6561901   -2.0157376  0.033517546   -2.6561901    0.6404525   247761 
15190000   0.29809282   -2.6552434   -2.6552434   -2.0172912  0.030389153   -2.6552434   0.63795215   247644 
15200000   0.29761415   -2.6541767   -2.6541767   -2.0169453  0.023018042   -2.6541767   0.63723137   247526 
15210000   0.29812671   -2.6533911   -2.6533911   -2.0147578  0.026092158   -2.6533911   0.63863327   247408 
15220000    0.2972863   -2.6508769   -2.6508769   -2.0137426  0.027461136   -2.6508769   0.63713429   247291 
15230000   0.29763501   -2.6538399   -2.6538399   -2.0156537  0.019575643   -2.6538399   0.63818617   247173 
15240000    0.2968224   -2.6523854   -2.6523854   -2.0156377   0.02331031   -2.6523854   0.63674775   247055 
15250000   0.29704949   -2.6536206   -2.6536206   -2.0160837  0.033845725   -2.6536206   0.63753683   246938 
15260000   0.29681738   -2.6547648   -2.6547648   -2.0174215  0.023890139   -2.6547648   0.63734322   246820 
15270000   0.29572295   -2.6538274   -2.6538274   -2.0185305  0.025397753   -2.6538274   0.63529693   246702 
15280000   0.29657186   -2.6533492   -2.6533492   -2.0159263  0.015896975   -2.6533492   0.63742294   246585 
15290000   0.29698209   -2.6549986   -2.6549986   -2.0163883  0.026951996   -2.6549986   0.63861025   246467 
15300000   0.29572733    -2.650413    -2.650413   -2.0141963   0.03017545    -2.650413   0.63621668   246349 
15310000   0.29604159   -2.6544876   -2.6544876   -2.0172922  0.026551578   -2.6544876    0.6371954   246232 
15320000   0.29543353   -2.6515545   -2.6515545   -2.0153629  0.019677252   -2.6515545   0.63619151   246114 
15330000   0.29570028   -2.6504538   -2.6504538    -2.013385  0.021248266   -2.6504538   0.63706877   245997 
15340000   0.29472836   -2.6506933   -2.6506933   -2.0154137  0.021564422   -2.6506933   0.63527957   245879 
15350000   0.29535965   -2.6537955   -2.6537955   -2.0168495  0.017706039   -2.6537955   0.63694598   245761 
15360000   0.29605984   -2.6539124   -2.6539124   -2.0151523  0.035322673   -2.6539124   0.63876003   245644 
15370000     0.295373   -2.6535375   -2.6535375    -2.015953  0.028807986   -2.6535375   0.63758444   245526 
15380000   0.29390039   -2.6506202   -2.6506202   -2.0159095  0.023087588   -2.6506202   0.63471075   245408 
15390000   0.29428637   -2.6515624   -2.6515624   -2.0157149  0.031295271   -2.6515624   0.63584744   245291 
15400000   0.29409485   -2.6519082   -2.6519082   -2.0161687   0.03240377   -2.6519082   0.63573948   245173 
15410000   0.29295484   -2.6501175   -2.6501175   -2.0165375  0.022773849   -2.6501175   0.63358008   245055 
15420000    0.2940561   -2.6532825   -2.6532825   -2.0170169  0.020020955   -2.6532825   0.63626558   244938 
15430000   0.29264957   -2.6514384   -2.6514384    -2.017911  0.023269003   -2.6514384    0.6335274   244820 
15440000   0.29247514   -2.6551743   -2.6551743   -2.0217192  0.026812294   -2.6551743   0.63345509   244702 
15450000   0.29206527   -2.6544358   -2.6544358   -2.0215658  0.032112278   -2.6544358   0.63286997   244585 
15460000   0.29235421   -2.6556196   -2.6556196   -2.0218177  0.017461014   -2.6556196   0.63380186   244467 
15470000   0.29242731   -2.6546438   -2.6546438   -2.0203773  0.022672657   -2.6546438   0.63426649   244349 
15480000    0.2922072   -2.6518467   -2.6518467    -2.017754  0.016982232   -2.6518467   0.63409268   244232 
15490000   0.29144769   -2.6504544   -2.6504544   -2.0177041  0.025259544   -2.6504544   0.63275025   244114 
15500000    0.2914417   -2.6530224   -2.6530224   -2.0199817  0.019175271   -2.6530224   0.63304065   243997 
15510000   0.29164564   -2.6512882   -2.6512882   -2.0174981  0.029747174   -2.6512882   0.63379015   243879 
15520000   0.29180043   -2.6506724   -2.6506724   -2.0162389  0.028592476   -2.6506724    0.6344335   243761 
15530000   0.29031198   -2.6503507   -2.6503507   -2.0188503  0.022866968   -2.6503507   0.63150041   243644 
15540000   0.29100985   -2.6516096   -2.6516096   -2.0182845  0.025176143   -2.6516096   0.63332518   243526 
15550000   0.29064094   -2.6534178   -2.6534178   -2.0205888  0.029312622   -2.6534178   0.63282895   243408 
15560000   0.29084943   -2.6542422   -2.6542422   -2.0206548  0.032065553   -2.6542422   0.63358747   243291 
15570000   0.29048075   -2.6527672   -2.6527672   -2.0196758  0.027197062   -2.6527672   0.63309138   243173 
15580000   0.29076684   -2.6547503   -2.6547503   -2.0207277  0.019486285   -2.6547503   0.63402257   243055 
15590000   0.29041176   -2.6540767   -2.6540767   -2.0205235  0.024645983   -2.6540767   0.63355328   242938 
15600000   0.28929589   -2.6520791   -2.6520791   -2.0206535  0.024511628   -2.6520791   0.63142562   242820 
15610000   0.29043495   -2.6558813   -2.6558813   -2.0216613  0.024579546   -2.6558813   0.63421998   242702 
15620000   0.28891988   -2.6521766   -2.6521766   -2.0209608  0.021180615   -2.6521766   0.63121582   242585 
15630000   0.28913528   -2.6524398   -2.6524398   -2.0204459  0.020798517   -2.6524398   0.63199384   242467 
15640000   0.28848316   -2.6544744   -2.6544744    -2.023599   0.03296767   -2.6544744   0.63087546   242349 
15650000   0.28966396   -2.6528983   -2.6528983   -2.0191346  0.029385577   -2.6528983   0.63376368   242232 
15660000   0.28885855   -2.6519026   -2.6519026   -2.0195931  0.029523363   -2.6519026   0.63230953   242114 
15670000   0.28863471   -2.6515676   -2.6515676   -2.0194425  0.023322166   -2.6515676   0.63212501   241997 
15680000   0.28915026   -2.6515299   -2.6515299   -2.0179669  0.025939679   -2.6515299   0.63356303   241879 
15690000    0.2881361   -2.6510846   -2.6510846   -2.0194356  0.023009209   -2.6510846   0.63164903   241761 
15700000   0.28754112    -2.647162    -2.647162   -2.0165121  0.017107547    -2.647162   0.63064991   241644 
15710000   0.28762586      -2.6484      -2.6484    -2.017256  0.030657271      -2.6484   0.63114397   241526 
15720000   0.28758396   -2.6474613   -2.6474613   -2.0161008  0.023895168   -2.6474613    0.6313605   241408 
15730000   0.28699458   -2.6477405   -2.6477405   -2.0173684  0.030393102   -2.6477405   0.63037208   241291 
15740000   0.28799073   -2.6492924   -2.6492924   -2.0164228  0.027387157   -2.6492924   0.63286957   241173 
15750000    0.2870603   -2.6471873   -2.6471873   -2.0160536  0.022293942   -2.6471873   0.63113373   241055 
15760000    0.2862506   -2.6480332   -2.6480332   -2.0183741  0.019227476   -2.6480332   0.62965912   240938 
15770000   0.28674125   -2.6496245   -2.6496245   -2.0185771   0.01850064   -2.6496245   0.63104746   240820 
15780000   0.28626525   -2.6487336   -2.6487336   -2.0184249  0.022390216   -2.6487336   0.63030875   240702 
15790000   0.28587862   -2.6503275   -2.6503275    -2.020564  0.030077591   -2.6503275   0.62976356   240585 
15800000   0.28590911   -2.6491422   -2.6491422   -2.0190024    0.0281473   -2.6491422    0.6301398   240467 
15810000   0.28545683   -2.6491397   -2.6491397   -2.0196879  0.022664836   -2.6491397   0.62945185   240349 
15820000   0.28543809   -2.6468052   -2.6468052   -2.0170882  0.029660837   -2.6468052   0.62971707   240232 
15830000   0.28572068   -2.6492455   -2.6492455   -2.0185952  0.020142431   -2.6492455   0.63065029   240114 
15840000   0.28428393   -2.6474215   -2.6474215   -2.0196366  0.021484352   -2.6474215   0.62778493   239997 
15850000   0.28455277   -2.6475776   -2.6475776   -2.0188898  0.027757387   -2.6475776   0.62868774   239879 
15860000   0.28443976   -2.6492028   -2.6492028   -2.0204555  0.013914179   -2.6492028   0.62874734   239761 
15870000   0.28441812   -2.6457721   -2.6457721   -2.0167657  0.022213443   -2.6457721   0.62900645   239644 
15880000   0.28413166   -2.6462346   -2.6462346   -2.0175522  0.024277919   -2.6462346   0.62868249   239526 
15890000   0.28363261   -2.6491214   -2.6491214   -2.0212338  0.010974173   -2.6491214   0.62788758   239408 
15900000   0.28453651    -2.650985    -2.650985   -2.0207884  0.024594912    -2.650985   0.63019657   239291 
15910000   0.28378724   -2.6497274   -2.6497274   -2.0208802  0.025343972   -2.6497274   0.62884718   239173 
15920000   0.28339157   -2.6478143   -2.6478143   -2.0195339  0.024507496   -2.6478143   0.62828037   239055 
15930000   0.28275409   -2.6485968   -2.6485968   -2.0214227   0.01985025   -2.6485968   0.62717404   238938 
15940000   0.28322332   -2.6497701   -2.6497701   -2.0212449    0.0146555   -2.6497701   0.62852522   238820 
15950000   0.28261172   -2.6456661   -2.6456661   -2.0181881  0.027748847   -2.6456661   0.62747802   238702 
15960000   0.28354423   -2.6503441   -2.6503441   -2.0204869  0.024246674   -2.6503441   0.62985717   238585 
15970000   0.28266212   -2.6459485   -2.6459485   -2.0177401  0.026409983   -2.6459485   0.62820837   238467 
15980000   0.28259049   -2.6445469   -2.6445469   -2.0161868  0.036107827   -2.6445469    0.6283601   238349 
15990000   0.28287947   -2.6479418   -2.6479418   -2.0186302  0.026231613   -2.6479418   0.62931158   238232 
16000000   0.28259068   -2.6502713   -2.6502713   -2.0212906  0.030593242   -2.6502713   0.62898068   238114 
16010000   0.28167133   -2.6487894   -2.6487894   -2.0215467  0.028735968   -2.6487894   0.62724262   237997 
16020000   0.28137474   -2.6505376   -2.6505376   -2.0236447  0.013798431   -2.6505376   0.62689296   237879 
16030000   0.28172749   -2.6502083   -2.6502083   -2.0222179  0.031839214   -2.6502083    0.6279904   237761 
16040000   0.28094124   -2.6492615   -2.6492615   -2.0227154  0.021965227   -2.6492615   0.62654611   237644 
16050000   0.28108132   -2.6496837   -2.6496837   -2.0225138  0.021702006   -2.6496837   0.62716992   237526 
16060000   0.28073948   -2.6493297   -2.6493297   -2.0226112  0.027642662   -2.6493297   0.62671853   237408 
16070000   0.28030338   -2.6449812   -2.6449812   -2.0189277  0.032100635   -2.6449812   0.62605352   237291 
16080000    0.2806677    -2.646595    -2.646595   -2.0194159  0.030033346    -2.646595   0.62717912   237173 
16090000   0.28010426   -2.6443993   -2.6443993   -2.0181677  0.021958902   -2.6443993   0.62623162   237055 
16100000   0.28003756   -2.6459503   -2.6459503   -2.0195586  0.022918506   -2.6459503   0.62639167   236938 
16110000   0.28045831   -2.6486508   -2.6486508   -2.0210055  0.027756576   -2.6486508   0.62764537   236820 
16120000   0.28044155   -2.6476548   -2.6476548   -2.0197341  0.023513313   -2.6476548   0.62792073   236702 
16130000    0.2783453   -2.6479001   -2.6479001   -2.0243647   0.02893745   -2.6479001   0.62353535   236585 
16140000   0.27922401   -2.6472032   -2.6472032   -2.0213873  0.030360662   -2.6472032   0.62581593   236467 
16150000    0.2792611   -2.6489905   -2.6489905   -2.0227789  0.022831459   -2.6489905   0.62621155   236349 
16160000   0.27880422   -2.6483855   -2.6483855   -2.0228888  0.024309509   -2.6483855    0.6254967   236232 
16170000   0.27819508   -2.6491512   -2.6491512   -2.0247092  0.017497082   -2.6491512     0.624442   236114 
16180000   0.27844642    -2.649171    -2.649171    -2.023855  0.020628857    -2.649171   0.62531602   235997 
16190000   0.27789787   -2.6488805   -2.6488805   -2.0244842  0.029597601   -2.6488805   0.62439632   235879 
16200000   0.27765698   -2.6501955   -2.6501955   -2.0260281  0.030346855   -2.6501955   0.62416732   235761 
16210000   0.27809986    -2.651028    -2.651028   -2.0255547  0.021056108    -2.651028    0.6254733   235644 
16220000   0.27780028   -2.6504152   -2.6504152   -2.0253027  0.030568152   -2.6504152   0.62511256   235526 
16230000   0.27732083   -2.6518186   -2.6518186   -2.0274721  0.029339992   -2.6518186   0.62434648   235408 
16240000   0.27728321   -2.6537714   -2.6537714   -2.0291992  0.027599357   -2.6537714    0.6245722   235291 
16250000   0.27644207   -2.6522339   -2.6522339   -2.0292439  0.025981195   -2.6522339   0.62298999   235173 
16260000   0.27656132   -2.6528466   -2.6528466    -2.029275  0.020464554   -2.6528466   0.62357163   235055 
16270000   0.27611083   -2.6532673   -2.6532673   -2.0304014  0.018668401   -2.6532673   0.62286593   234938 
16280000     0.275572   -2.6505112   -2.6505112   -2.0285484  0.031647888   -2.6505112   0.62196279   234820 
16290000    0.2758331   -2.6505414   -2.6505414   -2.0276763  0.028378361   -2.6505414   0.62286508   234702 
16300000   0.27599199   -2.6528693   -2.6528693   -2.0293345  0.033572014   -2.6528693   0.62353472   234585 
16310000   0.27593372   -2.6538001   -2.6538001   -2.0300833  0.023197869   -2.6538001   0.62371682   234467 
16320000   0.27582697   -2.6525599   -2.6525599   -2.0287704  0.014258971   -2.6525599   0.62378944   234349 
16330000   0.27512778   -2.6531685   -2.6531685   -2.0306494  0.034997679   -2.6531685   0.62251901   234232 
16340000   0.27585775   -2.6560916   -2.6560916   -2.0316064  0.019316372   -2.6560916   0.62448527   234114 
16350000   0.27522073    -2.653855    -2.653855   -2.0305003  0.025548724    -2.653855   0.62335472   233997 
16360000   0.27479259   -2.6548749   -2.6548749   -2.0321759  0.032213893   -2.6548749   0.62269902   233879 
16370000    0.2741686   -2.6547291   -2.6547291   -2.0331304  0.021005838   -2.6547291   0.62159863   233761 
16380000   0.27412925   -2.6525351   -2.6525351   -2.0307144   0.01937544   -2.6525351   0.62182065   233644 
16390000    0.2738012   -2.6530107   -2.6530107   -2.0316204  0.024371566   -2.6530107   0.62139034   233526 
16400000   0.27361948   -2.6510514   -2.6510514   -2.0297595  0.024428524   -2.6510514   0.62129187   233408 
16410000   0.27423916   -2.6532897   -2.6532897   -2.0302785  0.020500605   -2.6532897   0.62301124   233291 
16420000   0.27319322   -2.6508532   -2.6508532    -2.029904  0.018833934   -2.6508532   0.62094917   233173 
16430000   0.27304775    -2.650044    -2.650044   -2.0291113  0.027594306    -2.650044   0.62093275   233055 
16440000   0.27211588   -2.6523621   -2.6523621   -2.0332377  0.030003168   -2.6523621   0.61912444   232938 
16450000   0.27258732   -2.6513002   -2.6513002   -2.0307888  0.026420134   -2.6513002   0.62051141   232820 
16460000   0.27348229   -2.6515366   -2.6515366   -2.0286723  0.017302892   -2.6515366   0.62286437   232702 
16470000   0.27311926   -2.6515325   -2.6515325   -2.0291821   0.02841877   -2.6515325   0.62235046   232585 
16480000   0.27274507   -2.6476697   -2.6476697   -2.0258564  0.022956151   -2.6476697   0.62181328   232467 
16490000   0.27203896      -2.6518      -2.6518   -2.0312816  0.023598661      -2.6518   0.62051844   232349 
16500000   0.27203305   -2.6517534   -2.6517534   -2.0309358  0.030976531   -2.6517534   0.62081759   232232 
16510000   0.27259523   -2.6536402   -2.6536402   -2.0312234   0.02700521   -2.6536402   0.62241682   232114 
16520000   0.27184109   -2.6538031   -2.6538031   -2.0327952  0.026066666   -2.6538031   0.62100792   231997 
16530000   0.27126886   -2.6528971   -2.6528971   -2.0328811  0.025464704   -2.6528971   0.62001603   231879 
16540000   0.27135434   -2.6532325   -2.6532325   -2.0327053  0.020192695   -2.6532325   0.62052718   231761 
16550000    0.2710127   -2.6521506   -2.6521506   -2.0320917  0.025925193   -2.6521506   0.62005896   231644 
16560000   0.27056985   -2.6509592   -2.6509592    -2.031598  0.018882221   -2.6509592   0.61936126   231526 
16570000   0.27040655   -2.6499001   -2.6499001   -2.0305971  0.029812284   -2.6499001   0.61930306   231408 
16580000   0.26977034   -2.6507659   -2.6507659   -2.0326073  0.016242867   -2.6507659   0.61815851   231291 
16590000   0.27027273   -2.6503803   -2.6503803   -2.0307545  0.015825189   -2.6503803   0.61962584   231173 
16600000    0.2702353   -2.6510456   -2.6510456   -2.0311892  0.019795276   -2.6510456   0.61985642   231055 
16610000   0.26950533   -2.6507972   -2.6507972   -2.0323019  0.020788926   -2.6507972   0.61849524   230938 
16620000   0.26937138   -2.6511429   -2.6511429   -2.0326391  0.025157928   -2.6511429   0.61850385   230820 
16630000   0.26934927   -2.6516787   -2.6516787   -2.0329093  0.032334059   -2.6516787   0.61876943   230702 
16640000   0.26951282   -2.6512608   -2.6512608   -2.0318015  0.028672315   -2.6512608   0.61945929   230585 
16650000   0.26914828     -2.64933     -2.64933   -2.0303918  0.025287067     -2.64933   0.61893816   230467 
16660000   0.26914793   -2.6513638   -2.6513638   -2.0321093  0.028251404   -2.6513638   0.61925442   230349 
16670000     0.268325   -2.6482862   -2.6482862   -2.0306115  0.030101487   -2.6482862   0.61767476   230232 
16680000   0.26939833   -2.6509387   -2.6509387   -2.0304752   0.02682687   -2.6509387   0.62046352   230114 
16690000   0.26863469   -2.6494754   -2.6494754   -2.0304559  0.027054473   -2.6494754   0.61901948   229997 
16700000    0.2679159   -2.6492151   -2.6492151    -2.031535  0.025144255   -2.6492151   0.61768006   229879 
16710000   0.26848393   -2.6465994   -2.6465994   -2.0272919  0.021053096   -2.6465994   0.61930757   229761 
16720000   0.26788772   -2.6472928   -2.6472928   -2.0290457  0.019247405   -2.6472928   0.61824711   229644 
16730000   0.26784283   -2.6483582   -2.6483582   -2.0298969  0.021685191   -2.6483582   0.61846131   229526 
16740000   0.26726377   -2.6483009   -2.6483009   -2.0308592  0.023161514   -2.6483009   0.61744167   229408 
16750000   0.26673589   -2.6485763   -2.6485763   -2.0320398  0.020733114   -2.6485763   0.61653657   229291 
16760000   0.26683641   -2.6497415   -2.6497415   -2.0326551   0.02186583   -2.6497415   0.61708648   229173 
16770000   0.26692073   -2.6493789   -2.6493789   -2.0317794  0.024652398   -2.6493789   0.61759949   229055 
16780000   0.26671238   -2.6505673   -2.6505673   -2.0331345   0.01842232   -2.6505673    0.6174328   228938 
16790000   0.26560509    -2.650383    -2.650383   -2.0351965  0.030024433    -2.650383   0.61518653   228820 
16800000   0.26642958   -2.6504397   -2.6504397   -2.0330251  0.020428298   -2.6504397   0.61741457   228702 
16810000   0.26627917    -2.646878    -2.646878   -2.0294961  0.021189444    -2.646878   0.61738186   228585 
16820000   0.26618437   -2.6482748   -2.6482748    -2.030794  0.021717606   -2.6482748   0.61748081   228467 
16830000   0.26524344   -2.6488696   -2.6488696   -2.0332536  0.026837277   -2.6488696   0.61561605   228349 
16840000   0.26555055   -2.6472522   -2.6472522   -2.0306075  0.026639159   -2.6472522   0.61664479   228232 
16850000   0.26473241   -2.6484506   -2.6484506   -2.0333876  0.023500367   -2.6484506   0.61506295   228114 
16860000   0.26441526   -2.6458902   -2.6458902   -2.0312489  0.029704091   -2.6458902   0.61464135   227997 
16870000   0.26401567   -2.6462692   -2.6462692   -2.0322389  0.016532031   -2.6462692    0.6140303   227879 
16880000   0.26434196   -2.6464754   -2.6464754   -2.0313677  0.022197267   -2.6464754   0.61510767   227761 
16890000    0.2644744   -2.6471282   -2.6471282   -2.0313961  0.018064266   -2.6471282   0.61573214   227644 
16900000   0.26400683   -2.6500579   -2.6500579   -2.0350955  0.022039832   -2.6500579   0.61496235   227526 
16910000   0.26317113   -2.6492414   -2.6492414   -2.0359076  0.017552375   -2.6492414    0.6133338   227408 
16920000   0.26280705   -2.6483116   -2.6483116    -2.035511  0.023189075   -2.6483116   0.61280059   227291 
16930000   0.26330116   -2.6502316   -2.6502316     -2.03596  0.025911184   -2.6502316   0.61427164   227173 
16940000   0.26316354   -2.6524113   -2.6524113   -2.0381417  0.023293871   -2.6524113   0.61426963   227055 
16950000   0.26372662    -2.650379    -2.650379   -2.0344776  0.030301479    -2.650379   0.61590132   226938 
16960000   0.26289811   -2.6520096   -2.6520096   -2.0377238  0.029425743   -2.6520096   0.61428585   226820 
16970000   0.26309343   -2.6488223   -2.6488223   -2.0337601  0.027848895   -2.6488223   0.61506223   226702 
16980000   0.26271488   -2.6497044   -2.6497044     -2.03521  0.021909911   -2.6497044   0.61449438   226585 
16990000   0.26266308   -2.6498184   -2.6498184   -2.0351251  0.033115137   -2.6498184   0.61469333   226467 
17000000   0.26240024   -2.6480967   -2.6480967   -2.0336984    0.0275523   -2.6480967   0.61439835   226349 
17010000   0.26193637   -2.6487496   -2.6487496   -2.0351202  0.033357391   -2.6487496    0.6136294   226232 
17020000   0.26173602   -2.6493307   -2.6493307   -2.0358507  0.021396922   -2.6493307   0.61348005   226114 
17030000   0.26242358   -2.6501434   -2.6501434   -2.0347333  0.037100628   -2.6501434   0.61541003   225997 
17040000    0.2617217   -2.6493241   -2.6493241   -2.0352394  0.025170268   -2.6493241    0.6140847   225879 
17050000   0.26178785   -2.6520614   -2.6520614   -2.0375005  0.025080633   -2.6520614   0.61456095   225761 
17060000   0.26070713   -2.6520226   -2.6520226   -2.0396814  0.020307139   -2.6520226   0.61234124   225644 
17070000   0.26129437   -2.6548024   -2.6548024   -2.0407608  0.013401421   -2.6548024   0.61404165   225526 
17080000   0.26089554   -2.6569504   -2.6569504    -2.043525  0.022167634   -2.6569504   0.61342535   225408 
17090000   0.26062436   -2.6546611   -2.6546611   -2.0415552  0.026910536   -2.6546611   0.61310598   225291 
17100000   0.26088288   -2.6578796   -2.6578796   -2.0438438  0.029235756   -2.6578796   0.61403577   225173 
17110000   0.26018029   -2.6563536   -2.6563536   -2.0436505  0.020922122   -2.6563536   0.61270316   225055 
17120000    0.2601086   -2.6560301   -2.6560301   -2.0431771   0.02572789   -2.6560301   0.61285294   224938 
17130000   0.25929793   -2.6577302   -2.6577302   -2.0464666  0.023013211   -2.6577302   0.61126357   224820 
17140000   0.25902332   -2.6588507   -2.6588507   -2.0479138  0.012664868   -2.6588507   0.61093685   224702 
17150000   0.25897876   -2.6612842   -2.6612842   -2.0501343  0.020255887   -2.6612842   0.61114998   224585 
17160000   0.25828542   -2.6577231   -2.6577231   -2.0478889  0.017926757   -2.6577231   0.60983422   224467 
17170000   0.25902432   -2.6569062   -2.6569062   -2.0450057  0.027820281   -2.6569062    0.6119005   224349 
17180000   0.25885894    -2.656454    -2.656454   -2.0446251  0.023044564    -2.656454   0.61182888   224232 
17190000   0.25801369    -2.656316    -2.656316   -2.0461638  0.026597014    -2.656316   0.61015217   224114 
17200000    0.2578379   -2.6547764   -2.6547764   -2.0447214  0.022146773   -2.6547764   0.61005495   223997 
17210000   0.25839088   -2.6595292   -2.6595292   -2.0478437 0.0098722907   -2.6595292   0.61168556   223879 
17220000   0.25782403   -2.6564534   -2.6564534   -2.0457879  0.020008801   -2.6564534    0.6106655   223761 
17230000   0.25767211   -2.6592753   -2.6592753   -2.0486503  0.030280372   -2.6592753   0.61062497   223644 
17240000   0.25692598   -2.6572991   -2.6572991   -2.0481209  0.026529774   -2.6572991   0.60917823   223526 
17250000   0.25692789   -2.6560525   -2.6560525    -2.046548  0.011716959   -2.6560525   0.60950451   223408 
17260000   0.25726017   -2.6552171   -2.6552171   -2.0446046  0.022020217   -2.6552171   0.61061255   223291 
17270000   0.25657542   -2.6563625   -2.6563625   -2.0470532  0.025080648   -2.6563625   0.60930929   223173 
17280000   0.25757582   -2.6581692   -2.6581692   -2.0461606  0.031229753   -2.6581692   0.61200859   223055 
17290000   0.25643712   -2.6569349   -2.6569349   -2.0473121  0.018230196   -2.6569349   0.60962278   222938 
17300000   0.25679592   -2.6564035   -2.6564035   -2.0456045  0.024064315   -2.6564035   0.61079905   222820 
17310000   0.25638672   -2.6537857   -2.6537857   -2.0436368  0.023115567   -2.6537857   0.61014886   222702 
17320000   0.25613882   -2.6577002   -2.6577002   -2.0478209  0.019920175   -2.6577002   0.60987932   222585 
17330000   0.25574202   -2.6575474   -2.6575474   -2.0482898  0.017854671   -2.6575474   0.60925751   222467 
17340000   0.25573286   -2.6569765   -2.6569765   -2.0474175  0.026119968   -2.6569765   0.60955902   222349 
17350000   0.25551534   -2.6593511   -2.6593511   -2.0499899  0.026434491   -2.6593511   0.60936117   222232 
17360000   0.25491814   -2.6594936   -2.6594936   -2.0512336  0.019740298   -2.6594936   0.60825994   222114 
17370000   0.25548748    -2.659496    -2.659496   -2.0495563  0.023298107    -2.659496   0.60993971   221997 
17380000   0.25420349   -2.6561973   -2.6561973   -2.0490002  0.021457562   -2.6561973   0.60719713   221879 
17390000   0.25474075   -2.6576318   -2.6576318   -2.0488276  0.018468602   -2.6576318   0.60880422   221761 
17400000   0.25531315    -2.660095    -2.660095   -2.0496007  0.024679066    -2.660095   0.61049429   221644 
17410000   0.25456411   -2.6586876   -2.6586876   -2.0496602  0.023144364   -2.6586876   0.60902745   221526 
17420000    0.2542674   -2.6603745   -2.6603745   -2.0517327  0.030462007   -2.6603745   0.60864178   221408 
17430000   0.25359544   -2.6588634   -2.6588634   -2.0515091  0.029697941   -2.6588634   0.60735426   221291 
17440000   0.25389031    -2.660406    -2.660406   -2.0520211  0.027360505    -2.660406   0.60838489   221173 
17450000   0.25345234    -2.661471    -2.661471   -2.0538114  0.023866685    -2.661471    0.6076596   221055 
17460000   0.25318093   -2.6608237   -2.6608237   -2.0534934  0.023472931   -2.6608237   0.60733033   220938 
17470000   0.25292103   -2.6610679   -2.6610679   -2.0540368  0.032682473   -2.6610679   0.60703109   220820 
17480000   0.25261156   -2.6631301   -2.6631301   -2.0565176  0.019159981   -2.6631301   0.60661249   220702 
17490000   0.25237057   -2.6619574   -2.6619574   -2.0556021  0.013682507   -2.6619574   0.60635523   220585 
17500000   0.25274385    -2.662144    -2.662144   -2.0545669  0.015987206    -2.662144    0.6075771   220467 
17510000   0.25124282   -2.6608637   -2.6608637   -2.0565715  0.023934527   -2.6608637   0.60429218   220349 
17520000   0.25210921   -2.6645845   -2.6645845   -2.0578864  0.017304822   -2.6645845   0.60669816   220232 
17530000   0.25189504   -2.6614578   -2.6614578     -2.05495  0.023819863   -2.6614578   0.60650775   220114 
17540000   0.25103097   -2.6623622   -2.6623622   -2.0576136  0.019266965   -2.6623622   0.60474869   219997 
17550000   0.25138088   -2.6621694   -2.6621694   -2.0562528  0.022187977   -2.6621694   0.60591666   219879 
17560000   0.25127326   -2.6639875   -2.6639875   -2.0580051  0.022223513   -2.6639875   0.60598246   219761 
17570000   0.25186949   -2.6637228   -2.6637228   -2.0559789  0.024448171   -2.6637228    0.6077439   219644 
17580000   0.25029393   -2.6591765   -2.6591765   -2.0549097   0.01670891   -2.6591765   0.60426683   219526 
17590000   0.25149918   -2.6620172   -2.6620172   -2.0545141  0.023801951   -2.6620172   0.60750311   219408 
17600000   0.25003445   -2.6637105   -2.6637105   -2.0594232  0.024154108   -2.6637105   0.60428727   219291 
17610000   0.24988349   -2.6621497   -2.6621497   -2.0579021  0.021018113   -2.6621497   0.60424757   219173 
17620000   0.24916072   -2.6631251   -2.6631251   -2.0603007  0.016530766   -2.6631251   0.60282437   219055 
17630000   0.24946535   -2.6593618   -2.6593618   -2.0554778  0.028285568   -2.6593618   0.60388394   218938 
17640000    0.2493416   -2.6603949   -2.6603949    -2.056485  0.032515426   -2.6603949   0.60390987   218820 
17650000   0.24950175       -2.659       -2.659   -2.0543762  0.021902522       -2.659    0.6046238   218702 
17660000   0.24892383   -2.6590725   -2.6590725   -2.0555263  0.022466569   -2.6590725   0.60354619   218585 
17670000   0.24891983   -2.6601078   -2.6601078   -2.0562453  0.030190283   -2.6601078   0.60386247   218467 
17680000   0.24785138   -2.6584452   -2.6584452   -2.0568498   0.02609614   -2.6584452   0.60159544   218349 
17690000   0.24849594   -2.6598612   -2.6598612   -2.0563779  0.015648791   -2.6598612   0.60348332   218232 
17700000   0.24797549   -2.6580768   -2.6580768   -2.0555316  0.020237394   -2.6580768   0.60254518   218114 
17710000   0.24737051   -2.6587164   -2.6587164   -2.0573186  0.028112991   -2.6587164   0.60139776   217997 
17720000   0.24720903   -2.6582454   -2.6582454   -2.0569148  0.027660697   -2.6582454   0.60133067   217879 
17730000   0.24758455   -2.6579331   -2.6579331   -2.0553626  0.018684967   -2.6579331   0.60257046   217761 
17740000   0.24768253   -2.6580204   -2.6580204   -2.0548874  0.021923392   -2.6580204   0.60313297   217644 
17750000   0.24769885   -2.6590507   -2.6590507   -2.0555507  0.021494136   -2.6590507   0.60349992   217526 
17760000   0.24686255   -2.6594476   -2.6594476   -2.0576588  0.023489656   -2.6594476   0.60178877   217408 
17770000   0.24694693   -2.6588915   -2.6588915   -2.0565728  0.025424815   -2.6588915   0.60231863   217291 
17780000   0.24728358   -2.6597118   -2.6597118   -2.0562443  0.018965648   -2.6597118   0.60346744   217173 
17790000   0.24696119   -2.6617243   -2.6617243    -2.058716  0.019824701   -2.6617243   0.60300832   217055 
17800000   0.24585622   -2.6601688   -2.6601688   -2.0595348   0.03359638   -2.6601688   0.60063407   216938 
17810000   0.24591819   -2.6597997   -2.6597997   -2.0586873  0.021465045   -2.6597997   0.60111243   216820 
17820000   0.24660378   -2.6607744   -2.6607744   -2.0576579  0.026760274   -2.6607744    0.6031165   216702 
17830000   0.24511951   -2.6573577   -2.6573577   -2.0575475  0.019013632   -2.6573577   0.59981028   216585 
17840000   0.24536976   -2.6597651   -2.6597651   -2.0590152  0.028945702   -2.6597651   0.60074993   216467 
17850000   0.24571775   -2.6608798   -2.6608798   -2.0589497  0.032343267   -2.6608798   0.60193006   216349 
17860000   0.24561776   -2.6608496   -2.6608496   -2.0588389  0.032861714   -2.6608496   0.60201069   216232 
17870000    0.2456482   -2.6604301   -2.6604301   -2.0580161  0.023662921   -2.6604301   0.60241405   216114 
17880000   0.24508541   -2.6615238   -2.6615238   -2.0601644   0.02683579   -2.6615238   0.60135943   215997 
17890000   0.24492414   -2.6602118   -2.6602118   -2.0589196   0.02020168   -2.6602118   0.60129222   215879 
17900000   0.24453186    -2.660171    -2.660171   -2.0595135  0.033987816    -2.660171    0.6006575   215761 
17910000   0.24422821   -2.6581074   -2.6581074   -2.0578702  0.015282515   -2.6581074   0.60023713   215644 
17920000    0.2449512   -2.6588562   -2.6588562   -2.0565126  0.025938234   -2.6588562   0.60234361   215526 
17930000   0.24314527   -2.6593558   -2.6593558   -2.0611255  0.025943719   -2.6593558   0.59823028   215408 
17940000   0.24335937   -2.6600787   -2.6600787   -2.0609963  0.020242068   -2.6600787   0.59908244   215291 
17950000   0.24426833   -2.6606096   -2.6606096   -2.0589597  0.017627349   -2.6606096   0.60164981   215173 
17960000   0.24363424   -2.6599553   -2.6599553    -2.059538  0.021244747   -2.6599553   0.60041727   215055 
17970000   0.24256596   -2.6609769   -2.6609769   -2.0628669  0.038483373   -2.6609769   0.59810999   214938 
17980000   0.24227405   -2.6589042   -2.6589042   -2.0611859  0.024329654   -2.6589042   0.59771834   214820 
17990000   0.24265659    -2.659504    -2.659504   -2.0605128  0.025201682    -2.659504   0.59899113   214702 
18000000   0.24203778   -2.6578923   -2.6578923   -2.0601029  0.032057746   -2.6578923   0.59778939   214585 
18010000   0.24229051   -2.6621707   -2.6621707   -2.0634278  0.025647008   -2.6621707   0.59874283   214467 
18020000   0.24187423   -2.6595759   -2.6595759   -2.0615328  0.019296294   -2.6595759   0.59804316   214349 
18030000   0.24178309   -2.6603858   -2.6603858   -2.0622415  0.030924504   -2.6603858   0.59814432   214232 
18040000   0.24158281   -2.6602672   -2.6602672   -2.0622889  0.027801825   -2.6602672   0.59797822   214114 
18050000   0.24169766   -2.6606073   -2.6606073   -2.0620177  0.017704501   -2.6606073   0.59858959   213997 
18060000   0.24133145   -2.6590493   -2.6590493    -2.061037  0.019562896   -2.6590493   0.59801237   213879 
18070000   0.24117222   -2.6577076   -2.6577076   -2.0597599  0.022643879   -2.6577076   0.59794771   213761 
18080000   0.24086371   -2.6597232   -2.6597232   -2.0622133  0.023653704   -2.6597232   0.59750985   213644 
18090000   0.24094351   -2.6607704   -2.6607704   -2.0627323  0.015394859   -2.6607704   0.59803811   213526 
18100000   0.24127346   -2.6614395   -2.6614395   -2.0622514  0.026537181   -2.6614395   0.59918819   213408 
18110000   0.24030019   -2.6613719   -2.6613719   -2.0642734  0.018296463   -2.6613719    0.5970985   213291 
18120000   0.23913659    -2.659627    -2.659627   -2.0650909  0.028251775    -2.659627    0.5945361   213173 
18130000   0.24025966   -2.6578588   -2.6578588   -2.0601998  0.020799696   -2.6578588   0.59765909   213055 
18140000   0.23950256   -2.6597549   -2.6597549   -2.0636517  0.023676055   -2.6597549   0.59610311   212938 
18150000   0.23852252   -2.6575541   -2.6575541    -2.063561  0.015169105   -2.6575541   0.59399303   212820 
18160000   0.23997899   -2.6581674   -2.6581674   -2.0602158  0.030546919   -2.6581674   0.59795161   212702 
18170000   0.23932458    -2.658275    -2.658275   -2.0616257  0.028929928    -2.658275   0.59664923   212585 
18180000    0.2387185    -2.654868    -2.654868   -2.0593992  0.019353648    -2.654868   0.59546877   212467 
18190000   0.24000135   -2.6599289   -2.6599289   -2.0609275  0.031220737   -2.6599289   0.59900144   212349 
18200000   0.23855867   -2.6566022   -2.6566022   -2.0608732  0.020905941   -2.6566022   0.59572899   212232 
18210000    0.2394227   -2.6577204   -2.6577204   -2.0595012  0.022144282   -2.6577204   0.59821925   212114 
18220000   0.23874348   -2.6558116   -2.6558116   -2.0589602  0.021309972   -2.6558116   0.59685137   211997 
18230000   0.23745458   -2.6590069   -2.6590069   -2.0650472  0.023716709   -2.6590069   0.59395977   211879 
18240000   0.23805139   -2.6567079   -2.6567079   -2.0609235  0.029919206   -2.6567079   0.59578443   211761 
18250000   0.23790814   -2.6529573   -2.6529573   -2.0572023  0.018415658   -2.6529573   0.59575505   211644 
18260000   0.23690274   -2.6536533   -2.6536533    -2.060085  0.019613942   -2.6536533   0.59356833   211526 
18270000   0.23779883   -2.6566439   -2.6566439   -2.0604978  0.017115683   -2.6566439   0.59614609   211408 
18280000   0.23622134   -2.6542772   -2.6542772   -2.0617579  0.016333946   -2.6542772   0.59251934   211291 
18290000   0.23638791   -2.6576643   -2.6576643   -2.0643959  0.017733828   -2.6576643   0.59326848   211173 
18300000   0.23706308   -2.6604784   -2.6604784   -2.0651828  0.026149315   -2.6604784   0.59529559   211055 
18310000   0.23605471   -2.6583999   -2.6583999   -2.0653077  0.026560787   -2.6583999   0.59309223   210938 
18320000    0.2358527   -2.6589778   -2.6589778   -2.0660615  0.021232991   -2.6589778   0.59291637   210820 
18330000   0.23571362   -2.6563291   -2.6563291   -2.0634306  0.015594207   -2.6563291   0.59289859   210702 
18340000   0.23566053   -2.6607426   -2.6607426   -2.0676482  0.029844526   -2.6607426    0.5930944   210585 
18350000   0.23553853   -2.6591587   -2.6591587    -2.066039  0.028784819   -2.6591587   0.59311969   210467 
18360000   0.23550711   -2.6596091   -2.6596091   -2.0662359  0.016147703   -2.6596091   0.59337325   210349 
18370000    0.2348862   -2.6607219   -2.6607219   -2.0685837  0.015523586   -2.6607219   0.59213821   210232 
18380000   0.23520455   -2.6608872   -2.6608872   -2.0676134  0.018475925   -2.6608872   0.59327374   210114 
18390000   0.23433096     -2.65975     -2.65975   -2.0683504  0.023991194     -2.65975   0.59139954   209997 
18400000    0.2336866   -2.6578323   -2.6578323   -2.0677274  0.017224218   -2.6578323   0.59010491   209879 
18410000   0.23404512   -2.6592485   -2.6592485   -2.0679058  0.025517911   -2.6592485    0.5913427   209761 
18420000   0.23358105   -2.6617611   -2.6617611   -2.0712615  0.016984719   -2.6617611   0.59049953   209644 
18430000    0.2327672   -2.6613496   -2.6613496   -2.0725761   0.03446493   -2.6613496   0.58877351   209526 
18440000   0.23320306   -2.6605076   -2.6605076   -2.0702993  0.025475805   -2.6605076   0.59020838   209408 
18450000    0.2328048   -2.6597273   -2.6597273   -2.0701975   0.02442752   -2.6597273   0.58952983   209291 
18460000   0.23244669   -2.6603178   -2.6603178   -2.0713627  0.020059849   -2.6603178   0.58895504   209173 
18470000   0.23258049   -2.6589189   -2.6589189   -2.0692923  0.010589686   -2.6589189   0.58962667   209055 
18480000   0.23256575   -2.6647824   -2.6647824    -2.074863  0.029877035   -2.6647824   0.58991945   208938 
18490000   0.23241162   -2.6643854   -2.6643854   -2.0745237  0.027470853   -2.6643854   0.58986164   208820 
18500000    0.2318524   -2.6641153   -2.6641153   -2.0753403  0.026979784   -2.6641153   0.58877503   208702 
18510000   0.23138054   -2.6661021   -2.6661021   -2.0781958  0.023882319   -2.6661021   0.58790635   208585 
18520000   0.23103929   -2.6656612   -2.6656612   -2.0782896  0.027904063   -2.6656612   0.58737157   208467 
18530000   0.23084432   -2.6659421   -2.6659421   -2.0787338  0.020751398   -2.6659421   0.58720827   208349 
18540000   0.23119513   -2.6678574   -2.6678574   -2.0794263  0.023300653   -2.6678574   0.58843108   208232 
18550000   0.23053667   -2.6652643   -2.6652643   -2.0781764  0.026553917   -2.6652643   0.58708789   208114 
18560000   0.23140719   -2.6668945   -2.6668945   -2.0772583  0.026620269   -2.6668945   0.58963624   207997 
18570000   0.22969319   -2.6627677   -2.6627677   -2.0771666  0.017659151   -2.6627677   0.58560111   207879 
18580000    0.2298202   -2.6649585   -2.6649585   -2.0787008  0.024667905   -2.6649585   0.58625771   207761 
18590000   0.23014165    -2.662914    -2.662914   -2.0755055  0.022780848    -2.662914    0.5874085   207644 
18600000   0.22966069   -2.6626668   -2.6626668   -2.0761526  0.011531544   -2.6626668   0.58651423   207526 
18610000   0.22985188   -2.6616174   -2.6616174    -2.074281  0.027676245   -2.6616174   0.58733644   207408 
18620000   0.22923954   -2.6646902   -2.6646902   -2.0785879  0.021643476   -2.6646902   0.58610237   207291 
18630000   0.22966436   -2.6626028   -2.6626028   -2.0750798   0.02078909   -2.6626028   0.58752297   207173 
18640000   0.22953381   -2.6597982   -2.6597982   -2.0722746  0.023273509   -2.6597982   0.58752364   207055 
18650000   0.22935228   -2.6610815   -2.6610815   -2.0736906  0.031494299   -2.6610815   0.58739089   206938 
18660000   0.22962665   -2.6588308   -2.6588308   -2.0704017  0.027636603   -2.6588308   0.58842911   206820 
18670000   0.22943716   -2.6586643   -2.6586643   -2.0703851  0.022784279   -2.6586643   0.58827918   206702 
18680000    0.2288382   -2.6611004   -2.6611004   -2.0740246  0.017971686   -2.6611004   0.58707575   206585 
18690000   0.22868571   -2.6648791   -2.6648791   -2.0778593   0.01295753   -2.6648791   0.58701983   206467 
18700000   0.22866698   -2.6623761   -2.6623761   -2.0750686  0.022064154   -2.6623761   0.58730741   206349 
18710000   0.22752107    -2.659383    -2.659383   -2.0746872  0.019210846    -2.659383   0.58469579   206232 
18720000   0.22739901   -2.6583618   -2.6583618   -2.0736451   0.02186785   -2.6583618   0.58471668   206114 
18730000   0.22737515   -2.6617679   -2.6617679   -2.0767805   0.02184875   -2.6617679   0.58498739   205997 
18740000   0.22776399   -2.6614507   -2.6614507    -2.075127   0.02118152   -2.6614507   0.58632364   205879 
18750000   0.22774466   -2.6590497   -2.6590497   -2.0724396  0.011825614   -2.6590497   0.58661011   205761 
18760000    0.2285689   -2.6617666   -2.6617666   -2.0726986  0.014317206   -2.6617666   0.58906809   205644 
18770000   0.22722186   -2.6626481   -2.6626481   -2.0767154  0.020588801   -2.6626481   0.58593269   205526 
18780000   0.22703954   -2.6630385   -2.6630385   -2.0772397   0.01959703   -2.6630385   0.58579888   205408 
18790000   0.22650414   -2.6630605   -2.6630605     -2.07831   0.01718696   -2.6630605   0.58475053   205291 
18800000   0.22604117   -2.6611091   -2.6611091   -2.0772182  0.021754653   -2.6611091   0.58389093   205173 
18810000   0.22654529   -2.6643853   -2.6643853   -2.0788554  0.022768673   -2.6643853    0.5855299   205055 
18820000   0.22677785    -2.664847    -2.664847   -2.0783815  0.019641833    -2.664847   0.58646558   204938 
18830000   0.22518658   -2.6605758   -2.6605758   -2.0778898  0.027722354   -2.6605758   0.58268595   204820 
18840000   0.22518773   -2.6613797   -2.6613797   -2.0783549  0.021983503   -2.6613797   0.58302481   204702 
18850000   0.22516528   -2.6609946   -2.6609946   -2.0776945  0.014593942   -2.6609946   0.58330008   204585 
18860000   0.22510387   -2.6626994   -2.6626994   -2.0792218  0.025027352   -2.6626994   0.58347753   204467 
18870000   0.22431442   -2.6629172   -2.6629172   -2.0811502  0.022824962   -2.6629172     0.581767   204349 
18880000   0.22500559    -2.663848    -2.663848   -2.0799541  0.023091496    -2.663848   0.58389387   204232 
18890000   0.22442504   -2.6648309   -2.6648309   -2.0821069  0.016069739   -2.6648309   0.58272401   204114 
18900000   0.22380166     -2.66348     -2.66348   -2.0820413  0.016301033     -2.66348   0.58143867   203997 
18910000   0.22367164   -2.6632113   -2.6632113   -2.0817741  0.027012394   -2.6632113   0.58143721   203879 
18920000   0.22363658   -2.6620836   -2.6620836   -2.0804009   0.02040804   -2.6620836   0.58168275   203761 
18930000   0.22369205   -2.6666053   -2.6666053    -2.084444  0.026238555   -2.6666053   0.58216129   203644 
18940000   0.22228227   -2.6650595   -2.6650595   -2.0862318  0.013912281   -2.6650595   0.57882772   203526 
18950000   0.22287683   -2.6658326   -2.6658326     -2.08512  0.012360572   -2.6658326   0.58071267   203408 
18960000   0.22256907   -2.6651228   -2.6651228   -2.0848783  0.013935709   -2.6651228   0.58024453   203291 
18970000   0.22186501   -2.6633476   -2.6633476   -2.0846027  0.023114212   -2.6633476   0.57874495   203173 
18980000   0.22230461   -2.6638049   -2.6638049   -2.0835763   0.01812262   -2.6638049   0.58022866   203055 
18990000   0.22164774   -2.6611533   -2.6611533   -2.0823056  0.017569958   -2.6611533   0.57884771   202938 
19000000   0.22225485   -2.6620012   -2.6620012   -2.0812303  0.026330798   -2.6620012   0.58077092   202820 
19010000    0.2215502   -2.6631938   -2.6631938   -2.0839272  0.025463861   -2.6631938   0.57926664   202702 
19020000   0.22136849   -2.6623332   -2.6623332   -2.0832074  0.013772954   -2.6623332    0.5791258   202585 
19030000   0.22160819   -2.6641868   -2.6641868    -2.084096  0.013553423   -2.6641868   0.58009078   202467 
19040000    0.2214371   -2.6630183   -2.6630183   -2.0830373   0.01491992   -2.6630183   0.57998095   202349 
19050000   0.22132635   -2.6649517   -2.6649517   -2.0849255  0.016092848   -2.6649517   0.58002624   202232 
19060000   0.22072866   -2.6634881   -2.6634881   -2.0846905  0.012002194   -2.6634881   0.57879762   202114 
19070000    0.2200043   -2.6621317   -2.6621317   -2.0848994  0.018219839   -2.6621317   0.57723233   201997 
19080000   0.21971581   -2.6641305   -2.6641305   -2.0873181  0.018735744   -2.6641305   0.57681237   201879 
19090000   0.22053441   -2.6627509   -2.6627509   -2.0834509  0.014752694   -2.6627509   0.57930003   201761 
19100000   0.22066306   -2.6627276   -2.6627276   -2.0827533  0.028282664   -2.6627276   0.57997429   201644 
19110000   0.22010097   -2.6636174   -2.6636174   -2.0847818  0.021842499   -2.6636174   0.57883564   201526 
19120000   0.21943319   -2.6640288   -2.6640288   -2.0866112  0.022969351   -2.6640288   0.57741757   201408 
19130000    0.2194599   -2.6665266   -2.6665266    -2.088703  0.016047048   -2.6665266   0.57782351   201291 
19140000   0.21865794   -2.6662914   -2.6662914   -2.0902417  0.015011401   -2.6662914   0.57604971   201173 
19150000   0.21828393   -2.6666362   -2.6666362   -2.0912344  0.016928602   -2.6666362   0.57540188   201055 
19160000   0.21837681   -2.6674227   -2.6674227   -2.0914408  0.026527994   -2.6674227   0.57598192   200938 
19170000   0.21855231   -2.6650357   -2.6650357   -2.0882522  0.020838499   -2.6650357   0.57678351   200820 
19180000    0.2180463   -2.6664884   -2.6664884    -2.090702  0.022437673   -2.6664884   0.57578641   200702 
19190000   0.21838177   -2.6655757   -2.6655757    -2.088567  0.022826998   -2.6655757   0.57700864   200585 
19200000   0.21804574   -2.6642143   -2.6642143   -2.0877544  0.013039435   -2.6642143   0.57645992   200467 
19210000   0.21829973    -2.665021    -2.665021   -2.0875497  0.027042162    -2.665021   0.57747133   200349 
19220000   0.21712813   -2.6654394   -2.6654394   -2.0907317  0.022788429   -2.6654394    0.5747077   200232 
19230000   0.21713358    -2.666975    -2.666975    -2.091914  0.026940463    -2.666975   0.57506099   200114 
19240000   0.21715609   -2.6692904   -2.6692904   -2.0938333  0.014466586   -2.6692904   0.57545706   199997 
19250000   0.21628246   -2.6676045   -2.6676045   -2.0941242  0.026190198   -2.6676045   0.57348034   199879 
19260000   0.21704805   -2.6719231   -2.6719231   -2.0960728   0.02705893   -2.6719231   0.57585028   199761 
19270000   0.21627401   -2.6700292   -2.6700292   -2.0958963  0.020690713   -2.6700292   0.57413295   199644 
19280000   0.21616759   -2.6679753   -2.6679753   -2.0937855  0.014568549   -2.6679753   0.57418982   199526 
19290000   0.21593705   -2.6679871   -2.6679871   -2.0940702  0.021870687   -2.6679871   0.57391687   199408 
19300000   0.21586216   -2.6662161   -2.6662161   -2.0921614  0.017620875   -2.6662161   0.57405465   199291 
19310000   0.21631407   -2.6714328   -2.6714328   -2.0958356  0.024403484   -2.6714328   0.57559723   199173 
19320000   0.21579458   -2.6705895   -2.6705895   -2.0960342   0.01548045   -2.6705895   0.57455529   199055 
19330000   0.21530543   -2.6687893   -2.6687893   -2.0951993  0.018518073   -2.6687893   0.57359009   198938 
19340000   0.21566239   -2.6690569   -2.6690569   -2.0941748  0.017152016   -2.6690569   0.57488204   198820 
19350000    0.2146749    -2.668141    -2.668141   -2.0955514  0.018136286    -2.668141   0.57258956   198702 
19360000   0.21454956   -2.6666117   -2.6666117   -2.0940194  0.013554454   -2.6666117    0.5725924   198585 
19370000   0.21476315    -2.670654    -2.670654   -2.0971508  0.019513769    -2.670654   0.57350321   198467 
19380000   0.21438591   -2.6706077   -2.6706077   -2.0977712  0.016715974   -2.6706077   0.57283642   198349 
19390000   0.21388448   -2.6685841   -2.6685841   -2.0967502 0.0047996731   -2.6685841    0.5718339   198232 
19400000   0.21441792   -2.6739564   -2.6739564   -2.1003549   0.02035414   -2.6739564   0.57360154   198114 
19410000   0.21335164   -2.6673709   -2.6673709   -2.0962846  0.024511291   -2.6673709   0.57108634   197997 
19420000   0.21363074   -2.6693717   -2.6693717   -2.0971973  0.013527582   -2.6693717   0.57217441   197879 
19430000   0.21332996   -2.6655634   -2.6655634   -2.0938537  0.016836461   -2.6655634   0.57170975   197761 
19440000    0.2134633   -2.6668351   -2.6668351   -2.0944294  0.021204235   -2.6668351   0.57240574   197644 
19450000   0.21375974   -2.6676841   -2.6676841    -2.094141  0.019994283   -2.6676841   0.57354307   197526 
19460000   0.21319126   -2.6675536   -2.6675536   -2.0951939  0.027119101   -2.6675536   0.57235969   197408 
19470000   0.21312917    -2.667428    -2.667428   -2.0948956  0.023424222    -2.667428   0.57253232   197291 
19480000   0.21221093   -2.6654171   -2.6654171   -2.0950103  0.020220117   -2.6654171   0.57040681   197173 
19490000   0.21189421   -2.6644908   -2.6644908   -2.0945942  0.027677374   -2.6644908   0.56989654   197055 
19500000   0.21200594   -2.6664889   -2.6664889   -2.0959531  0.020744886   -2.6664889   0.57053579   196938 
19510000   0.21241543   -2.6666104   -2.6666104   -2.0946299  0.018768347   -2.6666104   0.57198051   196820 
19520000   0.21239743   -2.6642451   -2.6642451     -2.09197  0.024624149   -2.6642451   0.57227513   196702 
19530000   0.21174182   -2.6662718   -2.6662718   -2.0954236  0.015243911   -2.6662718   0.57084825   196585 
19540000   0.21153781   -2.6658102   -2.6658102   -2.0951695  0.026637235   -2.6658102   0.57064076   196467 
19550000   0.21092383   -2.6648249   -2.6648249   -2.0954984  0.016907368   -2.6648249   0.56932643   196349 
19560000   0.21137276   -2.6637894   -2.6637894    -2.092911  0.013577184   -2.6637894   0.57087837   196232 
19570000   0.21165242    -2.665471    -2.665471   -2.0934934  0.015929129    -2.665471   0.57197763   196114 
19580000   0.21016074   -2.6611793   -2.6611793   -2.0928938  0.021176698   -2.6611793   0.56828548   195997 
19590000   0.21053208   -2.6636897   -2.6636897   -2.0940571  0.018109721   -2.6636897   0.56963256   195879 
19600000   0.21035379   -2.6643456   -2.6643456   -2.0948523  0.020478388   -2.6643456   0.56949322   195761 
19610000   0.21008078   -2.6651854   -2.6651854   -2.0960912   0.02209549   -2.6651854   0.56909424   195644 
19620000   0.20965184   -2.6667322   -2.6667322   -2.0984572   0.01621788   -2.6667322   0.56827502   195526 
19630000    0.2097916   -2.6651353   -2.6651353   -2.0961381  0.014545002   -2.6651353   0.56899724   195408 
19640000    0.2097529   -2.6642511   -2.6642511    -2.095018  0.027955277   -2.6642511   0.56923309   195291 
19650000   0.20937969   -2.6641823   -2.6641823   -2.0956185  0.021029719   -2.6641823    0.5685638   195173 
19660000   0.20902894    -2.664762    -2.664762   -2.0968073  0.017837988    -2.664762   0.56795474   195055 
19670000   0.20895084   -2.6661951   -2.6661951   -2.0981118  0.011608952   -2.6661951   0.56808328   194938 
19680000   0.20871612   -2.6644311   -2.6644311   -2.0966422   0.01779304   -2.6644311   0.56778884   194820 
19690000   0.20854404   -2.6644743   -2.6644743   -2.0968098  0.030840429   -2.6644743   0.56766454   194702 
19700000   0.20801026   -2.6643972   -2.6643972   -2.0978452  0.020229259   -2.6643972   0.56655202   194585 
19710000    0.2083416   -2.6646632   -2.6646632   -2.0968644  0.020878648   -2.6646632   0.56779882   194467 
19720000    0.2085799   -2.6677275   -2.6677275   -2.0989341  0.021507888   -2.6677275   0.56879339   194349 
19730000   0.20827542   -2.6652223   -2.6652223   -2.0969171  0.025636202   -2.6652223    0.5683052   194232 
19740000   0.20759542   -2.6663948   -2.6663948   -2.0996007  0.024563844   -2.6663948   0.56679408   194114 
19750000   0.20651047   -2.6665272   -2.6665272   -2.1023553   0.02297669   -2.6665272    0.5641719   193997 
19760000   0.20663629   -2.6667499   -2.6667499   -2.1018907  0.010408327   -2.6667499   0.56485922   193879 
19770000   0.20612299   -2.6665911   -2.6665911   -2.1027919  0.012017125   -2.6665911   0.56379922   193761 
19780000   0.20652732   -2.6659371   -2.6659371   -2.1006906  0.018345035   -2.6659371   0.56524647   193644 
19790000   0.20642907   -2.6651873   -2.6651873   -2.0998652  0.016645374   -2.6651873   0.56532205   193526 
19800000   0.20581054   -2.6662636   -2.6662636   -2.1022915  0.019554921   -2.6662636   0.56397203   193408 
19810000   0.20604631    -2.667399    -2.667399   -2.1024391  0.014425103    -2.667399   0.56495987   193291 
19820000   0.20605363   -2.6706636   -2.6706636   -2.1053385  0.018517224   -2.6706636   0.56532506   193173 
19830000   0.20609056   -2.6731921   -2.6731921   -2.1074201  0.015593486   -2.6731921   0.56577198   193055 
19840000   0.20494246   -2.6720302   -2.6720302   -2.1090689  0.014449143   -2.6720302   0.56296133   192938 
19850000   0.20475094   -2.6686722   -2.6686722   -2.1058928  0.023487409   -2.6686722   0.56277943   192820 
19860000   0.20439338   -2.6704749   -2.6704749   -2.1083343  0.015627611   -2.6704749   0.56214065   192702 
19870000   0.20495251   -2.6709417   -2.6709417   -2.1069208  0.021477908   -2.6709417   0.56402088   192585 
19880000   0.20489694    -2.670818    -2.670818   -2.1066044  0.017089919    -2.670818   0.56421366   192467 
19890000   0.20373266   -2.6728314   -2.6728314   -2.1114796  0.009644575   -2.6728314   0.56135181   192349 
19900000   0.20355453    -2.673018    -2.673018   -2.1118157  0.024899252    -2.673018   0.56120237   192232 
19910000   0.20372237   -2.6717082   -2.6717082   -2.1096981  0.023484989   -2.6717082   0.56201009   192114 
19920000   0.20365203   -2.6711238   -2.6711238   -2.1089654  0.017820546   -2.6711238   0.56215838   191997 
19930000   0.20357905   -2.6716874   -2.6716874   -2.1093849  0.019438776   -2.6716874   0.56230254   191879 
19940000   0.20384477     -2.67367     -2.67367   -2.1102871  0.016992288     -2.67367   0.56338292   191761 
19950000   0.20348485   -2.6738892   -2.6738892   -2.1111577    0.0160268   -2.6738892   0.56273152   191644 
19960000   0.20312409    -2.674386    -2.674386    -2.112306  0.014791574    -2.674386   0.56207995   191526 
19970000   0.20301438   -2.6762541   -2.6762541   -2.1141314  0.011464469   -2.6762541    0.5621227   191408 
19980000   0.20227322   -2.6731231   -2.6731231   -2.1127101  0.019797179   -2.6731231   0.56041307   191291 
19990000   0.20317552   -2.6745345   -2.6745345   -2.1112741  0.023646197   -2.6745345    0.5632604   191173 
20000000   0.20247397   -2.6752151   -2.6752151   -2.1135529  0.011351372   -2.6752151   0.56166218   191055 
20010000   0.20269653   -2.6765893   -2.6765893   -2.1139652  0.022614463   -2.6765893   0.56262411   190938 
20020000   0.20097493   -2.6737738   -2.6737738   -2.1155834  0.015426762   -2.6737738   0.55819043   190820 
20030000   0.20158466   -2.6794135   -2.6794135   -2.1191831  0.027799894   -2.6794135   0.56023034   190702 
20040000   0.20046849    -2.675742    -2.675742   -2.1182716  0.022760696    -2.675742   0.55747039   190585 
20050000   0.20150185   -2.6781411   -2.6781411     -2.11745  0.019556745   -2.6781411   0.56069115   190467 
20060000   0.20085745   -2.6747329   -2.6747329   -2.1154884  0.017735894   -2.6747329   0.55924452   190349 
20070000   0.20059484   -2.6774066   -2.6774066   -2.1185497  0.014500623   -2.6774066   0.55885685   190232 
20080000   0.19950338   -2.6749957   -2.6749957   -2.1188347 0.0078150131   -2.6749957   0.55616103   190114 
20090000   0.19989324   -2.6799627   -2.6799627   -2.1223717  0.011334892   -2.6799627   0.55759101   189997 
20100000   0.19971607   -2.6819104   -2.6819104   -2.1244674  0.019178708   -2.6819104   0.55744301   189879 
20110000   0.19974092   -2.6804059   -2.6804059   -2.1225468  0.017955325   -2.6804059   0.55785905   189761 
20120000   0.19947174    -2.680799    -2.680799   -2.1233481  0.021812243    -2.680799   0.55745097   189644 
20130000   0.19892979   -2.6819539   -2.6819539   -2.1256714  0.018112169   -2.6819539   0.55628253   189526 
20140000   0.19902886   -2.6806635   -2.6806635   -2.1237572  0.007560757   -2.6806635    0.5569063   189408 
20150000    0.1983108   -2.6820811   -2.6820811    -2.126841    0.0147218   -2.6820811   0.55524006   189291 
20160000   0.19755577   -2.6784468   -2.6784468   -2.1249756   0.01618075   -2.6784468   0.55347111   189173 
20170000   0.19850333   -2.6834162   -2.6834162   -2.1269433  0.022769462   -2.6834162   0.55647291   189055 
20180000   0.19932909   -2.6859744   -2.6859744   -2.1268406 0.0090707589   -2.6859744   0.55913383   188938 
20190000   0.19887001   -2.6840772   -2.6840772   -2.1258825  0.026415185   -2.6840772   0.55819469   188820 
20200000   0.19801342   -2.6832149   -2.6832149    -2.127077  0.021764038   -2.6832149   0.55613792   188702 
20210000   0.19818551    -2.684195    -2.684195   -2.1272284  0.016961815    -2.684195    0.5569666   188585 
20220000   0.19747614   -2.6816738   -2.6816738   -2.1263533  0.015938352   -2.6816738   0.55532049   188467 
20230000   0.19680213   -2.6823242   -2.6823242   -2.1285523  0.022121906   -2.6823242   0.55377186   188349 
20240000   0.19720026   -2.6824067   -2.6824067   -2.1271697  0.016892446   -2.6824067   0.55523704   188232 
20250000   0.19719008    -2.681113    -2.681113   -2.1255564  0.019050005    -2.681113   0.55555663   188114 
20260000   0.19630648   -2.6809642   -2.6809642   -2.1275528  0.011318579   -2.6809642   0.55341141   187997 
20270000   0.19683525   -2.6843018   -2.6843018   -2.1290512  0.025644029   -2.6843018   0.55525059   187879 
20280000   0.19592096   -2.6851591   -2.6851591   -2.1321402  0.016111482   -2.6851591   0.55301882   187761 
20290000   0.19658064   -2.6850353   -2.6850353   -2.1298085  0.021154973   -2.6850353   0.55522685   187644 
20300000    0.1964635   -2.6863405   -2.6863405   -2.1310953  0.021196842   -2.6863405   0.55524517   187526 
20310000   0.19618315   -2.6827965   -2.6827965   -2.1279946  0.020917435   -2.6827965   0.55480193   187408 
20320000   0.19591686   -2.6865961   -2.6865961   -2.1322011  0.018829874   -2.6865961   0.55439501   187291 
20330000   0.19592706   -2.6857433   -2.6857433   -2.1309699 0.0068331096   -2.6857433    0.5547734   187173 
20340000   0.19529644   -2.6893825   -2.6893825   -2.1360459  0.017883756   -2.6893825   0.55333661   187055 
20350000   0.19471144   -2.6861276   -2.6861276   -2.1341032  0.012304127   -2.6861276    0.5520244   186938 
20360000   0.19459951   -2.6877334   -2.6877334   -2.1356779  0.023798099   -2.6877334   0.55205555   186820 
20370000   0.19412827   -2.6872726   -2.6872726   -2.1362059  0.020053001   -2.6872726   0.55106676   186702 
20380000   0.19434103   -2.6908554   -2.6908554   -2.1388388  0.013981884   -2.6908554   0.55201664   186585 
20390000   0.19402686   -2.6918029   -2.6918029   -2.1403298  0.021515034   -2.6918029   0.55147301   186467 
20400000   0.19402542   -2.6921467   -2.6921467   -2.1403286  0.022378497   -2.6921467   0.55181812   186349 
20410000   0.19366676   -2.6907217   -2.6907217   -2.1395776  0.018039588   -2.6907217   0.55114411   186232 
20420000   0.19397654   -2.6915286   -2.6915286   -2.1391529  0.015539461   -2.6915286   0.55237568   186114 
20430000   0.19277288    -2.691179    -2.691179   -2.1418855  0.021179228    -2.691179   0.54929342   185997 
20440000   0.19293224      -2.6904      -2.6904   -2.1403035  0.016282398      -2.6904    0.5500965   185879 
20450000   0.19285018   -2.6924511   -2.6924511   -2.1422393 0.0095098918   -2.6924511   0.55021181   185761 
20460000   0.19233535   -2.6916162   -2.6916162   -2.1425274  0.021116331   -2.6916162    0.5490888   185644 
20470000   0.19291474   -2.6932211   -2.6932211   -2.1421279   0.02156353   -2.6932211   0.55109316   185526 
20480000   0.19280835   -2.6909705   -2.6909705   -2.1398307  0.025391805   -2.6909705   0.55113978   185408 
20490000   0.19227667   -2.6909368   -2.6909368   -2.1409698 0.0066018855   -2.6909368   0.54996706   185291 
20500000   0.19170805   -2.6897621   -2.6897621   -2.1410721  0.018430516   -2.6897621   0.54869006   185173 
20510000   0.19137333   -2.6950908   -2.6950908   -2.1470095  0.014060275   -2.6950908   0.54808131   185055 
20520000   0.19045792   -2.6926048   -2.6926048      -2.1468  0.020785693   -2.6926048   0.54580472   184938 
20530000   0.19052931   -2.6942136   -2.6942136   -2.1478557  0.018226873   -2.6942136   0.54635789   184820 
20540000   0.19048081   -2.6958433   -2.6958433   -2.1492755  0.022173086   -2.6958433   0.54656777   184702 
20550000   0.19069558   -2.6943329   -2.6943329    -2.146802  0.016834389   -2.6943329   0.54753087   184585 
20560000   0.19091233   -2.6956907   -2.6956907   -2.1471868 0.0036905096   -2.6956907   0.54850388   184467 
20570000   0.19061986   -2.6914088   -2.6914088   -2.1433947  0.011163222   -2.6914088   0.54801412   184349 
20580000      0.19033    -2.692387    -2.692387   -2.1448587  0.011126701    -2.692387   0.54752831   184232 
20590000   0.19079967   -2.6956693   -2.6956693   -2.1464381  0.027256611   -2.6956693    0.5492312   184114 
20600000    0.1895529   -2.6936012   -2.6936012   -2.1476119  0.012626061   -2.6936012   0.54598923   183997 
20610000   0.18982405   -2.6963745   -2.6963745   -2.1492533  0.022636632   -2.6963745   0.54712114   183879 
20620000   0.18892024   -2.6971177   -2.6971177   -2.1522519  0.021434715   -2.6971177   0.54486579   183761 
20630000   0.18824596   -2.6942212   -2.6942212   -2.1509542  0.007663832   -2.6942212     0.543267   183644 
20640000   0.18932606   -2.6975946   -2.6975946   -2.1508592  0.015676679   -2.6975946    0.5467354   183526 
20650000   0.18785825   -2.6960886   -2.6960886   -2.1532429  0.016192682   -2.6960886   0.54284569   183408 
20660000   0.18904647   -2.6986885   -2.6986885   -2.1520606  0.013160009   -2.6986885   0.54662793   183291 
20670000   0.18811668   -2.6974249   -2.6974249    -2.153135  0.022781314   -2.6974249   0.54428987   183173 
20680000   0.18836764   -2.6992581   -2.6992581   -2.1538908 0.0043506672   -2.6992581    0.5453673   183055 
20690000   0.18800447   -2.6973401   -2.6973401   -2.1526762  0.011635733   -2.6973401   0.54466397   182938 
20700000    0.1869616   -2.6952102   -2.6952102   -2.1532179  0.009953717   -2.6952102    0.5419923   182820 
20710000   0.18777733   -2.6986629   -2.6986629   -2.1539543  0.003321389   -2.6986629   0.54470862   182702 
20720000   0.18708972   -2.6978046   -2.6978046   -2.1547428   0.02435861   -2.6978046   0.54306177   182585 
20730000   0.18809025   -2.7007022   -2.7007022   -2.1543831  0.019620494   -2.7007022   0.54631905   182467 
20740000   0.18738317   -2.6999992   -2.6999992   -2.1553817  0.026864792   -2.6999992   0.54461749   182349 
20750000   0.18726135   -2.7029502   -2.7029502   -2.1583374  0.022327879   -2.7029502   0.54461287   182232 
20760000    0.1867624   -2.6982113   -2.6982113   -2.1546976  0.018517789   -2.6982113   0.54351372   182114 
20770000   0.18689174   -2.7019702   -2.7019702   -2.1577305 0.0042007616   -2.7019702   0.54423977   181997 
20780000   0.18667462   -2.7017701   -2.7017701   -2.1578099  0.015159596   -2.7017701    0.5439602   181879 
20790000   0.18606867   -2.6959577   -2.6959577   -2.1534112  0.011830651   -2.6959577   0.54254649   181761 
20800000   0.18529182    -2.699063    -2.699063   -2.1584337  0.016675933    -2.699063    0.5406293   181644 
20810000   0.18640195   -2.7008849   -2.7008849    -2.156663  0.010559192   -2.7008849    0.5442219   181526 
20820000   0.18485342   -2.6986728   -2.6986728   -2.1586209  0.013217248   -2.6986728   0.54005183   181408 
20830000   0.18550998    -2.703173    -2.703173   -2.1608532  0.026532896    -2.703173   0.54231978   181291 
20840000   0.18463798   -2.7020751   -2.7020751    -2.161953 0.0079176894   -2.7020751   0.54012213   181173 
20850000   0.18418195   -2.7017972   -2.7017972   -2.1626579  0.021341413   -2.7017972   0.53913923   181055 
20860000   0.18403768   -2.7038259   -2.7038259   -2.1647606  0.021280448   -2.7038259   0.53906528   180938 
20870000   0.18434083   -2.7050568   -2.7050568   -2.1647512  0.020846696   -2.7050568    0.5403056   180820 
20880000   0.18355448    -2.701828    -2.701828   -2.1634758   0.01609889    -2.701828   0.53835213   180702 
20890000   0.18444329   -2.7080462   -2.7080462   -2.1667368  0.012144295   -2.7080462   0.54130943   180585 
20900000   0.18351563   -2.7063913   -2.7063913   -2.1674522  0.020430743   -2.7063913   0.53893906   180467 
20910000   0.18442199   -2.7112121   -2.7112121   -2.1692569 0.0087655793   -2.7112121   0.54195517   180349 
20920000   0.18297563   -2.7077874   -2.7077874   -2.1697336  0.015227796   -2.7077874   0.53805385   180232 
20930000   0.18314626   -2.7089186   -2.7089186   -2.1700102  0.011902246   -2.7089186   0.53890843   180114 
20940000   0.18280853   -2.7111996   -2.7111996   -2.1729353  0.022755971   -2.7111996    0.5382643   179997 
20950000   0.18212812    -2.709795    -2.709795   -2.1731823  0.018840648    -2.709795   0.53661269   179879 
20960000   0.18249313   -2.7086681   -2.7086681    -2.170627  0.014858486   -2.7086681    0.5380411   179761 
20970000   0.18204956   -2.7070705   -2.7070705   -2.1699876  0.023990119   -2.7070705    0.5370829   179644 
20980000   0.18191203   -2.7099098   -2.7099098   -2.1728799  0.026474982   -2.7099098    0.5370299   179526 
20990000   0.18149499   -2.7104093   -2.7104093   -2.1742582   0.01441606   -2.7104093   0.53615115   179408 
21000000   0.18101619    -2.709916    -2.709916   -2.1748303  0.014882379    -2.709916   0.53508567   179291 
21010000    0.1808413   -2.7100036   -2.7100036   -2.1750829  0.019368276   -2.7100036   0.53492075   179173 
21020000   0.18080258   -2.7098379   -2.7098379   -2.1746792  0.011880642   -2.7098379   0.53515869   179055 
21030000   0.17970627    -2.712214    -2.712214   -2.1799525  0.010211192    -2.712214   0.53226148   178938 
21040000   0.18032452   -2.7113366   -2.7113366   -2.1768915  0.017891242   -2.7113366    0.5344451   178820 
21050000   0.18030031   -2.7156551   -2.7156551    -2.180929  0.010185155   -2.7156551   0.53472619   178702 
21060000   0.18011617   -2.7159793   -2.7159793   -2.1814492  0.014143307   -2.7159793   0.53453006   178585 
21070000   0.17975702   -2.7172872   -2.7172872   -2.1834703 0.0094576192   -2.7172872   0.53381692   178467 
21080000   0.18002235   -2.7146667   -2.7146667   -2.1797082  0.018951175   -2.7146667   0.53495856   178349 
21090000   0.17968484   -2.7150427   -2.7150427   -2.1807365  0.012703729   -2.7150427   0.53430612   178232 
21100000   0.17867688   -2.7130149   -2.7130149   -2.1813541  0.013253046   -2.7130149   0.53166089   178114 
21110000   0.17887599   -2.7166762   -2.7166762    -2.184073  0.012454562   -2.7166762   0.53260319   177997 
21120000   0.17945928   -2.7181372   -2.7181372   -2.1834428  0.013494988   -2.7181372   0.53469441   177879 
21130000   0.17885124   -2.7137625   -2.7137625    -2.180526  0.022334221   -2.7137625   0.53323649   177761 
21140000   0.17891077   -2.7176631   -2.7176631   -2.1838978  0.018257342   -2.7176631    0.5337653   177644 
21150000   0.17856925   -2.7139584   -2.7139584   -2.1808579  0.012388004   -2.7139584   0.53310051   177526 
21160000   0.17900712   -2.7155867   -2.7155867   -2.1808235  0.020869119   -2.7155867   0.53476319   177408 
21170000   0.17864209   -2.7186665   -2.7186665   -2.1846416  0.015942847   -2.7186665   0.53402489   177291 
21180000   0.17793655    -2.718021    -2.718021   -2.1857509 0.0091177571    -2.718021   0.53227005   177173 
21190000   0.17789225   -2.7192261   -2.7192261   -2.1867339   0.01892587   -2.7192261   0.53249217   177055 
21200000   0.17658707   -2.7175457   -2.7175457   -2.1886109  0.013051067   -2.7175457   0.52893485   176938 
21210000    0.1771158   -2.7222696   -2.7222696    -2.191397  0.014202273   -2.7222696    0.5308726   176820 
21220000   0.17710101   -2.7214311   -2.7214311   -2.1902483 0.0088737756   -2.7214311   0.53118274   176702 
21230000   0.17678029   -2.7226685   -2.7226685   -2.1920964 0.0078216249   -2.7226685   0.53057214   176585 
21240000   0.17670225   -2.7215964   -2.7215964   -2.1909038  0.013121693   -2.7215964   0.53069254   176467 
21250000   0.17596383   -2.7195972   -2.7195972   -2.1907688  0.015666009   -2.7195972   0.52882843   176349 
21260000   0.17580547   -2.7203276   -2.7203276   -2.1916243 0.0069201447   -2.7203276    0.5287033   176232 
21270000    0.1761587   -2.7250149   -2.7250149   -2.1948944  0.015633612   -2.7250149   0.53012051   176114 
21280000   0.17548575   -2.7238963   -2.7238963   -2.1954498  0.014842786   -2.7238963   0.52844646   175997 
21290000   0.17518554   -2.7186082   -2.7186082   -2.1907118  0.011664531   -2.7186082   0.52789636   175879 
21300000   0.17576525   -2.7215583   -2.7215583   -2.1915594  0.017127624   -2.7215583   0.52999883   175761 
21310000   0.17509523   -2.7240862   -2.7240862    -2.195756  0.020285716   -2.7240862   0.52833016   175644 
21320000   0.17468473   -2.7255258   -2.7255258   -2.1980799  0.012421638   -2.7255258   0.52744585   175526 
21330000   0.17449285   -2.7223254   -2.7223254   -2.1951044  0.012291061   -2.7223254   0.52722093   175408 
21340000   0.17514996   -2.7277519   -2.7277519   -2.1981923  0.015668019   -2.7277519   0.52955958   175291 
21350000   0.17459749   -2.7252362   -2.7252362   -2.1969914  0.011687638   -2.7252362    0.5282448   175173 
21360000   0.17490081   -2.7233991   -2.7233991   -2.1938799  0.020449984   -2.7233991   0.52951918   175055 
21370000   0.17435495    -2.726003    -2.726003   -2.1977834 0.0098483799    -2.726003   0.52821963   174938 
21380000   0.17414319   -2.7270866   -2.7270866   -2.1991524   0.02215115   -2.7270866   0.52793418   174820 
21390000    0.1743698   -2.7239943   -2.7239943    -2.195016  0.025137565   -2.7239943   0.52897823   174702 
21400000   0.17335616   -2.7247034   -2.7247034   -2.1984478 0.0070479369   -2.7247034   0.52625561   174585 
21410000   0.17402112    -2.728263    -2.728263   -2.1996315  0.011842489    -2.728263   0.52863153   174467 
21420000   0.17389037   -2.7252791   -2.7252791   -2.1966873  0.012000364   -2.7252791   0.52859186   174349 
21430000   0.17291653   -2.7231954   -2.7231954   -2.1972109  0.011585939   -2.7231954   0.52598454   174232 
21440000   0.17267093   -2.7265939   -2.7265939   -2.2010005  0.028529966   -2.7265939   0.52559342   174114 
21450000   0.17253043   -2.7249456   -2.7249456   -2.1994267  0.017657568   -2.7249456   0.52551892   173997 
21460000    0.1725008   -2.7272634   -2.7272634   -2.2014782  0.010311406   -2.7272634   0.52578522   173879 
21470000    0.1719852   -2.7272598   -2.7272598   -2.2026901  0.007737886   -2.7272598   0.52456967   173761 
21480000   0.17180481   -2.7249441   -2.7249441   -2.2005716  0.012221934   -2.7249441   0.52437253   173644 
21490000   0.17192595   -2.7266526   -2.7266526   -2.2015535  0.013195701   -2.7266526    0.5250991   173526 
21500000   0.17194725    -2.726483    -2.726483   -2.2009614  0.016337234    -2.726483   0.52552152   173408 
21510000   0.17139627   -2.7245061   -2.7245061   -2.2003148  0.020055351   -2.7245061   0.52419124   173291 
21520000    0.1714821   -2.7266291   -2.7266291    -2.201818  0.018346839   -2.7266291    0.5248111   173173 
21530000   0.17160504   -2.7284909   -2.7284909   -2.2029455 0.0057989498   -2.7284909   0.52554546   173055 
21540000    0.1714148   -2.7289163   -2.7289163   -2.2035983 0.0098296273   -2.7289163   0.52531801   172938 
21550000   0.17063911   -2.7258698   -2.7258698    -2.202572    0.0200194   -2.7258698   0.52329788   172820 
21560000   0.17080786   -2.7298619   -2.7298619   -2.2056886  0.011467311   -2.7298619   0.52417328   172702 
21570000   0.17035623   -2.7312483   -2.7312483   -2.2081066 0.0093271853   -2.7312483   0.52314173   172585 
21580000   0.17008691   -2.7325669   -2.7325669   -2.2098948 0.0083486276   -2.7325669   0.52267205   172467 
21590000   0.17059979   -2.7319544   -2.7319544   -2.2073474  0.012090121   -2.7319544   0.52460704   172349 
21600000   0.16927302   -2.7289729   -2.7289729   -2.2080922 0.0091344336   -2.7289729   0.52088072   172232 
21610000   0.16999739   -2.7351445   -2.7351445   -2.2116762  0.012370825   -2.7351445   0.52346836   172114 
21620000   0.16940165   -2.7313934   -2.7313934   -2.2094047 0.0098699363   -2.7313934   0.52198878   171997 
21630000   0.16961727   -2.7322548   -2.7322548   -2.2092428  0.013389425   -2.7322548   0.52301199   171879 
21640000   0.16916592   -2.7323604   -2.7323604   -2.2103818 0.0053190177   -2.7323604   0.52197862   171761 
21650000   0.16809807   -2.7321734   -2.7321734   -2.2131362 0.0081465681   -2.7321734   0.51903722   171644 
21660000   0.16828868   -2.7321834   -2.7321834   -2.2122001  0.016743943   -2.7321834   0.51998325   171526 
21670000   0.16851254   -2.7374238   -2.7374238   -2.2163904  0.011928611   -2.7374238   0.52103337   171408 
21680000   0.16881096   -2.7358164   -2.7358164   -2.2135038  0.017993025   -2.7358164   0.52231259   171291 
21690000    0.1679514   -2.7354383   -2.7354383    -2.215427  0.016944772   -2.7354383   0.52001128   171173 
21700000    0.1676506   -2.7360141   -2.7360141   -2.2165761  0.014234754   -2.7360141   0.51943803   171055 
21710000   0.16703589   -2.7337073   -2.7337073   -2.2158196  0.016090636   -2.7337073   0.51788768   170938 
21720000   0.16775112   -2.7383568   -2.7383568   -2.2178923  0.010425749   -2.7383568    0.5204645   170820 
21730000   0.16695729   -2.7380281   -2.7380281   -2.2196684  0.013205149   -2.7380281   0.51835964   170702 
21740000   0.16710556   -2.7378482   -2.7378482   -2.2186723  0.019934926   -2.7378482   0.51917583   170585 
21750000   0.16663393   -2.7387589   -2.7387589     -2.22069  0.017597897   -2.7387589    0.5180689   170467 
21760000   0.16604183   -2.7383968   -2.7383968   -2.2218112  0.014444847   -2.7383968   0.51658563   170349 
21770000   0.16589295   -2.7370021   -2.7370021    -2.220525  0.019759484   -2.7370021   0.51647716   170232 
21780000   0.16603863   -2.7410242   -2.7410242   -2.2237349  0.019059016   -2.7410242   0.51728929   170114 
21790000     0.165798   -2.7404488   -2.7404488   -2.2235536   0.01053613   -2.7404488   0.51689513   169997 
21800000   0.16564802   -2.7417783   -2.7417783    -2.224992  0.012833018   -2.7417783   0.51678624   169879 
21810000   0.16477283    -2.738858    -2.738858   -2.2244448  0.010122257    -2.738858   0.51441315   169761 
21820000    0.1647921   -2.7402147   -2.7402147   -2.2253865  0.011510724   -2.7402147   0.51482814   169644 
21830000   0.16519836   -2.7418549   -2.7418549   -2.2253983 0.0041430104   -2.7418549   0.51645658   169526 
21840000   0.16468849   -2.7398226   -2.7398226   -2.2246014 0.0070927793   -2.7398226   0.51522121   169408 
21850000    0.1643699   -2.7382196   -2.7382196   -2.2236397  0.023318197   -2.7382196   0.51457991   169291 
21860000   0.16495494   -2.7452854   -2.7452854   -2.2285138 0.0066362305   -2.7452854   0.51677165   169173 
21870000   0.16407737   -2.7449023   -2.7449023   -2.2305211 0.0052339658   -2.7449023   0.51438116   169055 
21880000   0.16400618   -2.7406698   -2.7406698   -2.2261557  0.011572813   -2.7406698   0.51451407   168938 
21890000   0.16428664   -2.7429145   -2.7429145   -2.2271603  0.006398984   -2.7429145   0.51575418   168820 
21900000   0.16372836   -2.7426588   -2.7426588   -2.2282977 0.0035702989   -2.7426588   0.51436107   168702 
21910000   0.16307984   -2.7435411   -2.7435411   -2.2308618 0.0072655217   -2.7435411   0.51267925   168585 
21920000   0.16348203   -2.7445913   -2.7445913   -2.2302877 0.0072848949   -2.7445913   0.51430362   168467 
21930000   0.16344639   -2.7467048   -2.7467048   -2.2321529   0.01950068   -2.7467048   0.51455192   168349 
21940000   0.16312907   -2.7421203   -2.7421203   -2.2282103 0.0089709316   -2.7421203   0.51391009   168232 
21950000   0.16274394   -2.7451701   -2.7451701   -2.2321134  0.013195055   -2.7451701   0.51305668   168114 
21960000   0.16278276   -2.7471946   -2.7471946   -2.2336581 0.0077686038   -2.7471946   0.51353644   167997 
21970000   0.16215786   -2.7482761   -2.7482761   -2.2363514 0.0077970056   -2.7482761   0.51192464   167879 
21980000   0.16273035   -2.7495944   -2.7495944   -2.2355011  0.023566927   -2.7495944   0.51409331   167761 
21990000   0.16166595   -2.7460171   -2.7460171     -2.23493  0.016792089   -2.7460171   0.51108711   167644 
22000000   0.16120154   -2.7446387   -2.7446387   -2.2346608  0.016564281   -2.7446387   0.50997789   167526 
22010000   0.16173646   -2.7496995   -2.7496995   -2.2376687  0.012136886   -2.7496995   0.51203085   167408 
22020000      0.16119   -2.7476455   -2.7476455   -2.2369878  0.023469925   -2.7476455   0.51065774   167291 
22030000   0.16168537   -2.7479648   -2.7479648   -2.2353761  0.021717166   -2.7479648   0.51258866   167173 
22040000   0.16118543   -2.7476069   -2.7476069   -2.2362423  0.019922992   -2.7476069   0.51136466   167055 
22050000   0.16108248    -2.749068    -2.749068   -2.2376718 0.0085181624    -2.749068   0.51139619   166938 
22060000    0.1594907   -2.7470798   -2.7470798    -2.240379  0.012982413   -2.7470798   0.50670085   166820 
22070000   0.16042938   -2.7496775   -2.7496775   -2.2396337   0.01900739   -2.7496775   0.51004382   166702 
22080000   0.16035088    -2.751168    -2.751168   -2.2410157  0.016644228    -2.751168    0.5101523   166585 
22090000   0.15960272   -2.7500082   -2.7500082   -2.2418762  0.014925029   -2.7500082   0.50813198   166467 
22100000   0.16028965   -2.7527601   -2.7527601   -2.2420791 0.0096311907   -2.7527601   0.51068099   166349 
22110000   0.15937114   -2.7514773   -2.7514773   -2.2433653 -0.00087403486   -2.7514773     0.508112   166232 
22120000   0.15901843   -2.7518774   -2.7518774   -2.2445298  0.009176363   -2.7518774   0.50734762   166114 
22130000   0.15877717   -2.7551496   -2.7551496   -2.2482147 0.0081479047   -2.7551496   0.50693492   165997 
22140000   0.15874677   -2.7560619   -2.7560619   -2.2488635 0.0068334383   -2.7560619   0.50719842   165879 
22150000   0.15827725   -2.7523547   -2.7523547   -2.2462964 0.0084612128   -2.7523547   0.50605828   165761 
22160000   0.15863424   -2.7509355   -2.7509355   -2.2433775 0.0014037296   -2.7509355   0.50755793   165644 
22170000   0.15823419   -2.7534654   -2.7534654   -2.2468265  0.017364641   -2.7534654   0.50663888   165526 
22180000   0.15814998    -2.754339    -2.754339   -2.2476086 0.0074643841    -2.754339   0.50673048   165408 
22190000   0.15736188   -2.7551384   -2.7551384   -2.2505762 0.0078909075   -2.7551384   0.50456223   165291 
22200000   0.15786968   -2.7541312   -2.7541312   -2.2475791 0.0055163329   -2.7541312   0.50655203   165173 
22210000   0.15766502   -2.7544859   -2.7544859   -2.2482289  0.012790255   -2.7544859   0.50625701   165055 
22220000   0.15715525   -2.7548711   -2.7548711   -2.2498929 0.0034564945   -2.7548711   0.50497812   164938 
22230000   0.15677094   -2.7567848   -2.7567848   -2.2526809  0.018662395   -2.7567848    0.5041039   164820 
22240000   0.15620368   -2.7551988   -2.7551988   -2.2525591  0.012212936   -2.7551988   0.50263969   164702 
22250000   0.15635337    -2.759092    -2.759092    -2.255613  0.016194819    -2.759092   0.50347904   164585 
22260000   0.15617563    -2.757922    -2.757922   -2.2546545  0.017855553    -2.757922   0.50326751   164467 
22270000    0.1561694   -2.7598977   -2.7598977   -2.2562889  0.012343082   -2.7598977   0.50360876   164349 
22280000   0.15528373   -2.7594278   -2.7594278   -2.2583183 0.0060021635   -2.7594278   0.50110944   164232 
22290000   0.15574952    -2.761816    -2.761816   -2.2588421 0.0077928588    -2.761816   0.50297395   164114 
22300000   0.15595541   -2.7612005   -2.7612005   -2.2572024  0.012314305   -2.7612005   0.50399816   163997 
22310000   0.15547396     -2.76123     -2.76123    -2.258426  0.013169073     -2.76123   0.50280403   163879 
22320000   0.15536472   -2.7647047   -2.7647047   -2.2618919  0.015218497   -2.7647047   0.50281281   163761 
22330000    0.1549034   -2.7642676   -2.7642676   -2.2625894  0.013571497   -2.7642676   0.50167824   163644 
22340000   0.15439233   -2.7621182   -2.7621182   -2.2617343 0.0049103406   -2.7621182   0.50038388   163526 
22350000   0.15553055   -2.7609003   -2.7609003   -2.2564635  0.014650004   -2.7609003   0.50443683   163408 
22360000   0.15467817   -2.7593034   -2.7593034   -2.2572716  0.012956475   -2.7593034   0.50203175   163291 
22370000    0.1542921   -2.7594551   -2.7594551   -2.2583143  0.012360406   -2.7594551   0.50114083   163173 
22380000   0.15415377   -2.7631512   -2.7631512   -2.2620973 0.0078731744   -2.7631512   0.50105389   163055 
22390000   0.15412654   -2.7599878   -2.7599878   -2.2586627 0.0081783771   -2.7599878    0.5013251   162938 
22400000   0.15324981    -2.763439    -2.763439   -2.2646044 0.0071045878    -2.763439   0.49883462   162820 
22410000   0.15355741   -2.7665968   -2.7665968   -2.2663984  0.001151038   -2.7665968   0.50019838   162702 
22420000    0.1533633    -2.765424    -2.765424   -2.2654985  0.017834924    -2.765424   0.49992559   162585 
22430000   0.15358849   -2.7677868   -2.7677868   -2.2667635  0.013714099   -2.7677868   0.50102329   162467 
22440000    0.1527147   -2.7651902   -2.7651902   -2.2666552 0.0010629706   -2.7651902   0.49853497   162349 
22450000   0.15221689   -2.7653145   -2.7653145   -2.2680463  0.015022001   -2.7653145   0.49726825   162232 
22460000   0.15210802   -2.7650901   -2.7650901   -2.2678158   0.02096382   -2.7650901   0.49727427   162114 
22470000   0.15240454    -2.770129    -2.770129   -2.2715255 0.0094501579    -2.770129   0.49860349   161997 
22480000   0.15164202   -2.7721634   -2.7721634   -2.2756929 0.0060934006   -2.7721634    0.4964705   161879 
22490000   0.15192964   -2.7707244   -2.7707244   -2.2729494  0.019156436   -2.7707244   0.49777499   161761 
22500000    0.1517085   -2.7748983   -2.7748983   -2.2774881 0.0034698517   -2.7748983   0.49741025   161644 
22510000   0.15073334   -2.7730997   -2.7730997   -2.2785257 0.0044689829   -2.7730997   0.49457401   161526 
22520000   0.15133746   -2.7759373   -2.7759373    -2.279018 0.0098779877   -2.7759373   0.49691922   161408 
22530000   0.15057021   -2.7751811   -2.7751811   -2.2804225 0.0041421619   -2.7751811   0.49475858   161291 
22540000   0.15067592   -2.7761228   -2.7761228   -2.2806544  0.009132103   -2.7761228    0.4954684   161173 
22550000   0.15015593   -2.7757485   -2.7757485   -2.2816282  0.012464666   -2.7757485   0.49412027   161055 
22560000   0.15048296   -2.7787981   -2.7787981   -2.2832416 0.0042381937   -2.7787981   0.49555643   160938 
22570000   0.15013013   -2.7810544   -2.7810544   -2.2862971  0.012993773   -2.7810544   0.49475728   160820 
22580000   0.14995579   -2.7811715   -2.7811715   -2.2866259   0.01771584   -2.7811715   0.49454562   160702 
22590000   0.14957005   -2.7801979   -2.7801979    -2.286565  0.013450925   -2.7801979   0.49363285   160585 
22600000   0.14919241   -2.7801644   -2.7801644   -2.2874158  0.011633107   -2.7801644   0.49274858   160467 
22610000   0.14903723   -2.7833829   -2.7833829   -2.2907847 0.0058943255   -2.7833829    0.4925983   160349 
22620000   0.14902289   -2.7825014   -2.7825014   -2.2895908 -0.0026856871   -2.7825014   0.49291056   160232 
22630000   0.14876327   -2.7847436   -2.7847436   -2.2923292 0.0080159495   -2.7847436   0.49241446   160114 
22640000   0.14776932   -2.7837407   -2.7837407   -2.2942585 0.0064935902   -2.7837407   0.48948212   159997 
22650000   0.14812454   -2.7855635   -2.7855635   -2.2945426 0.0055381762   -2.7855635    0.4910209   159879 
22660000   0.14803211   -2.7850429   -2.7850429    -2.293966 -0.00040649375   -2.7850429   0.49107695   159761 
22670000    0.1474849   -2.7846961   -2.7846961   -2.2950759 0.0096599304   -2.7846961   0.48962022   159644 
22680000   0.14771073   -2.7875508   -2.7875508   -2.2968181  0.012561098   -2.7875508   0.49073267   159526 
22690000   0.14720554   -2.7884518   -2.7884518   -2.2990355 0.0042166558   -2.7884518   0.48941632   159408 
22700000   0.14706379   -2.7861255   -2.7861255   -2.2968214  0.007592384   -2.7861255   0.48930416   159291 
22710000   0.14680293   -2.7882733   -2.7882733   -2.2994749 0.0084718246   -2.7882733   0.48879834   159173 
22720000   0.14647838   -2.7868033   -2.7868033   -2.2987237  0.010521945   -2.7868033   0.48807954   159055 
22730000   0.14649021   -2.7845312   -2.7845312    -2.296053 0.0080186489   -2.7845312   0.48847828   158938 
22740000   0.14561346   -2.7840195   -2.7840195    -2.298104 0.0028592746   -2.7840195   0.48591546   158820 
22750000   0.14571875   -2.7877358   -2.7877358   -2.3011074 0.0030644286   -2.7877358   0.48662837   158702 
22760000   0.14554301   -2.7905004   -2.7905004   -2.3041003  0.017024162   -2.7905004   0.48640007   158585 
22770000   0.14505216   -2.7899863   -2.7899863   -2.3048657 0.0053861203   -2.7899863   0.48512067   158467 
22780000   0.14529382   -2.7929811   -2.7929811   -2.3066901  0.017119613   -2.7929811   0.48629097   158349 
22790000   0.14544007   -2.7958917   -2.7958917   -2.3087512 0.0094245775   -2.7958917   0.48714041   158232 
22800000   0.14510939   -2.7938546   -2.7938546    -2.307459  0.015664224   -2.7938546   0.48639555   158114 
22810000   0.14468449   -2.7925938   -2.7925938   -2.3072634  0.013069934   -2.7925938   0.48533045   157997 
22820000   0.14405211   -2.7902064   -2.7902064   -2.3066361  0.012758823   -2.7902064   0.48357033   157879 
22830000   0.14466792   -2.7926004   -2.7926004   -2.3065995  0.011852914   -2.7926004   0.48600081   157761 
22840000   0.14445177   -2.7915403   -2.7915403   -2.3059055  0.007677287   -2.7915403   0.48563481   157644 
22850000   0.14363328   -2.7935251   -2.7935251   -2.3102803  0.011619106   -2.7935251   0.48324484   157526 
22860000   0.14402443   -2.7903696   -2.7903696   -2.3054455 0.0055116042   -2.7903696   0.48492411   157408 
22870000   0.14359703   -2.7894373   -2.7894373   -2.3055926 -0.001420689   -2.7894373    0.4838447   157291 
22880000   0.14412752   -2.7975994   -2.7975994   -2.3116026  0.015156199   -2.7975994   0.48599675   157173 
22890000   0.14351976   -2.7935696   -2.7935696   -2.3092586 0.0084939323   -2.7935696     0.484311   157055 
22900000   0.14367128   -2.7932246   -2.7932246   -2.3080409 0.0093330783   -2.7932246   0.48518375   156938 
22910000   0.14302213   -2.7956517   -2.7956517   -2.3122967 0.0026672083   -2.7956517   0.48335498   156820 
22920000   0.14327867   -2.7958869   -2.7958869   -2.3113003  0.016849002   -2.7958869    0.4845866   156702 
22930000    0.1427545   -2.7952205   -2.7952205    -2.312046 0.0039882021   -2.7952205   0.48317454   156585 
22940000   0.14272155   -2.7943609   -2.7943609   -2.3109336 0.0078752699   -2.7943609   0.48342732   156467 
22950000   0.14146876     -2.79306     -2.79306   -2.3135144 0.0088852848     -2.79306   0.47954553   156349 
22960000   0.14194652   -2.7941776   -2.7941776   -2.3126523 0.0068257534   -2.7941776   0.48152536   156232 
22970000   0.14174503   -2.7970546   -2.7970546   -2.3158493 0.0034125601   -2.7970546   0.48120529   156114 
22980000   0.14182956   -2.7991468   -2.7991468   -2.3172934 0.0092025888   -2.7991468   0.48185337   155997 
22990000   0.14180898   -2.7969485   -2.7969485   -2.3148003  0.016205061   -2.7969485   0.48214815   155879 
23000000   0.14136402   -2.7993827   -2.7993827   -2.3183833 0.0075626771   -2.7993827   0.48099943   155761 
23010000   0.14136119    -2.800811    -2.800811   -2.3194596  0.004436279    -2.800811   0.48135136   155644 
23020000   0.14146074   -2.8012088   -2.8012088    -2.319153  0.013508141   -2.8012088   0.48205581   155526 
23030000   0.14063184   -2.8022015   -2.8022015   -2.3226064 0.0086364396   -2.8022015   0.47959504   155408 
23040000   0.14061716   -2.8043984   -2.8043984   -2.3244921 0.0046271577   -2.8043984   0.47990628   155291 
23050000   0.14008596   -2.8078764   -2.8078764   -2.3294194 0.0071442565   -2.8078764   0.47845693   155173 
23060000   0.14005333   -2.8068443   -2.8068443   -2.3281348 0.0048187183   -2.8068443    0.4787095   155055 
23070000   0.13946492   -2.8068749   -2.8068749   -2.3298166 0.0060467845   -2.8068749   0.47705827   154938 
23080000   0.13918086   -2.8058913   -2.8058913   -2.3294419 0.0066965572   -2.8058913   0.47644949   154820 
23090000   0.13936132   -2.8114812   -2.8114812   -2.3340501  0.011337388   -2.8114812   0.47743111   154702 
23100000   0.13903351   -2.8077485   -2.8077485   -2.3310799  0.010439183   -2.8077485   0.47666858   154585 
23110000   0.13881041   -2.8058678   -2.8058678   -2.3296005  0.011900414   -2.8058678   0.47626726   154467 
23120000   0.13828783   -2.8090501   -2.8090501   -2.3342131 -0.00012557267   -2.8090501   0.47483698   154349 
23130000   0.13784962   -2.8101068   -2.8101068   -2.3364154  0.019447559   -2.8101068   0.47369137   154232 
23140000   0.13831346   -2.8105707   -2.8105707   -2.3349215 0.0087319968   -2.8105707   0.47564917   154114 
23150000   0.13759326   -2.8103327   -2.8103327   -2.3368008  0.020467451   -2.8103327   0.47353195   153997 
23160000   0.13811049   -2.8110639   -2.8110639   -2.3353873 -0.00052635943   -2.8110639   0.47567652   153879 
23170000   0.13751328   -2.8109562   -2.8109562   -2.3369731   0.01279663   -2.8109562   0.47398308   153761 
23180000   0.13715175   -2.8114209   -2.8114209    -2.338324  0.016453109   -2.8114209   0.47309693   153644 
23190000   0.13733324   -2.8160655   -2.8160655   -2.3419784 0.0093740708   -2.8160655   0.47408708   153526 
23200000   0.13733508   -2.8137805   -2.8137805   -2.3393224 0.0051240915   -2.8137805   0.47445812   153408 
23210000   0.13682732   -2.8133595   -2.8133595   -2.3402947  0.011152279   -2.8133595   0.47306473   153291 
23220000   0.13687635   -2.8152059   -2.8152059   -2.3416071  0.010010112   -2.8152059   0.47359879   153173 
23230000   0.13641002   -2.8132443   -2.8132443   -2.3408952  0.010536454   -2.8132443   0.47234916   153055 
23240000   0.13643635   -2.8146689   -2.8146689   -2.3418672 0.0080709571   -2.8146689   0.47280175   152938 
23250000   0.13658279   -2.8188964   -2.8188964   -2.3452217 0.0020355455   -2.8188964   0.47367468   152820 
23260000   0.13567574   -2.8199362   -2.8199362   -2.3490435 0.0098531814   -2.8199362   0.47089261   152702 
23270000   0.13613224   -2.8192408   -2.8192408   -2.3464015 0.0086569535   -2.8192408    0.4728393   152585 
23280000   0.13539114   -2.8198822   -2.8198822   -2.3492531 0.0088911878   -2.8198822   0.47062911   152467 
23290000   0.13479354   -2.8200804   -2.8200804   -2.3511657  0.018447373   -2.8200804   0.46891472   152349 
23300000   0.13454974   -2.8196404   -2.8196404    -2.351214 -5.5899702e-05   -2.8196404   0.46842635   152232 
23310000   0.13456695   -2.8205471   -2.8205471   -2.3516974 0.0099390745   -2.8205471   0.46884969   152114 
23320000   0.13473123   -2.8189591   -2.8189591   -2.3491757   0.01272631   -2.8189591    0.4697834   151997 
23330000   0.13449933   -2.8223735   -2.8223735   -2.3530344 0.0019227589   -2.8223735   0.46933917   151879 
23340000   0.13440681   -2.8231973   -2.8231973   -2.3538163  0.011209244   -2.8231973   0.46938097   151761 
23350000   0.13356693   -2.8228229   -2.8228229   -2.3560151 0.0040397789   -2.8228229    0.4668078   151644 
23360000   0.13377168   -2.8263873   -2.8263873   -2.3584998 0.0022959086   -2.8263873   0.46788748   151526 
23370000   0.13332656   -2.8225265   -2.8225265   -2.3558325 0.0037825817   -2.8225265   0.46669404   151408 
23380000    0.1328101   -2.8209151   -2.8209151   -2.3556694 0.0013859803   -2.8209151   0.46524573   151291 
23390000   0.13324265    -2.820553    -2.820553   -2.3534277 0.0042754268    -2.820553   0.46712533   151173 
23400000   0.13228769   -2.8231584   -2.8231584   -2.3590187 0.0094340978   -2.8231584   0.46413969   151055 
23410000   0.13250163   -2.8252524   -2.8252524   -2.3600017 0.0011991217   -2.8252524    0.4652507   150938 
23420000   0.13277031   -2.8255586   -2.8255586   -2.3589997 0.0077544062   -2.8255586   0.46655885   150820 
23430000   0.13236345    -2.823668    -2.823668   -2.3581746 0.0057081156    -2.823668   0.46549334   150702 
23440000    0.1314114   -2.8225542   -2.8225542     -2.36005 0.0038236786   -2.8225542   0.46250426   150585 
23450000   0.13092152   -2.8196377   -2.8196377   -2.3584962    0.0101595   -2.8196377   0.46114148   150467 
23460000   0.13171066   -2.8262093   -2.8262093   -2.3619242 0.0079026461   -2.8262093   0.46428514   150349 
23470000   0.13076084   -2.8233127   -2.8233127   -2.3620168 0.0073645876   -2.8233127   0.46129595   150232 
23480000   0.13141968   -2.8282048   -2.8282048   -2.3642202 0.0056631062   -2.8282048   0.46398466   150114 
23490000   0.13100427   -2.8267823   -2.8267823   -2.3639035 0.0063082154   -2.8267823   0.46287879   149997 
23500000   0.13127855   -2.8242928   -2.8242928   -2.3600797 0.0070804433   -2.8242928    0.4642131   149879 
23510000   0.13148541   -2.8274342   -2.8274342   -2.3621233 0.0099114405   -2.8274342   0.46531089   149761 
23520000   0.13103731   -2.8270803   -2.8270803   -2.3629926 0.0095192298   -2.8270803   0.46408769   149644 
23530000   0.13083603   -2.8278259   -2.8278259   -2.3640854 0.0028223009   -2.8278259   0.46374051   149526 
23540000   0.12999072   -2.8299146   -2.8299146   -2.3688063  0.013817951   -2.8299146   0.46110826   149408 
23550000   0.12943183   -2.8315285   -2.8315285    -2.372043 0.0055317646   -2.8315285   0.45948556   149291 
23560000    0.1298722   -2.8322312   -2.8322312   -2.3708177  0.015768274   -2.8322312   0.46141359   149173 
23570000   0.12943567   -2.8279296   -2.8279296   -2.3677029 -0.0024774205   -2.8279296    0.4602267   149055 
23580000   0.12930892   -2.8306929   -2.8306929   -2.3705556 0.0071669893   -2.8306929   0.46013722   148938 
23590000   0.12911431   -2.8343778   -2.8343778   -2.3745688  0.008672857   -2.8343778   0.45980901   148820 
23600000   0.12857067   -2.8332169   -2.8332169   -2.3749806 0.0020447271   -2.8332169   0.45823632   148702 
23610000   0.12805021   -2.8327558   -2.8327558   -2.3760151  0.012478165   -2.8327558    0.4567407   148585 
23620000    0.1282029   -2.8340375   -2.8340375   -2.3763888 0.0062373195   -2.8340375   0.45764879   148467 
23630000    0.1283048   -2.8336351   -2.8336351   -2.3752583 -0.0026290754   -2.8336351   0.45837685   148349 
23640000   0.12807262   -2.8344254   -2.8344254   -2.3765169  0.010087365   -2.8344254   0.45790853   148232 
23650000   0.12824345   -2.8373867   -2.8373867   -2.3785021 0.0029490963   -2.8373867   0.45888459   148114 
23660000   0.12763399   -2.8378292   -2.8378292   -2.3807643 0.0013017639   -2.8378292   0.45706487   147997 
23670000   0.12733965   -2.8386323   -2.8386323   -2.3822577 0.0088077934   -2.8386323   0.45637468   147879 
23680000   0.12656193   -2.8376921   -2.8376921   -2.3837425 0.0090426314   -2.8376921   0.45394963   147761 
23690000   0.12665998   -2.8402708   -2.8402708   -2.3856095 0.0024878035   -2.8402708   0.45466131   147644 
23700000   0.12683938   -2.8421214   -2.8421214   -2.3864519 0.0060458082   -2.8421214   0.45566946   147526 
23710000   0.12656459   -2.8410972   -2.8410972    -2.386051 0.0077644385   -2.8410972   0.45504626   147408 
23720000    0.1265036   -2.8417848   -2.8417848   -2.3865965   0.01088767   -2.8417848   0.45518827   147291 
23730000   0.12627281    -2.840585    -2.840585   -2.3858629  0.012616058    -2.840585   0.45472213   147173 
23740000   0.12579491   -2.8421527   -2.8421527   -2.3887881 -0.0071617748   -2.8421527   0.45336467   147055 
23750000   0.12522055   -2.8433615   -2.8433615   -2.3917074 -0.0013682128   -2.8433615   0.45165401   146938 
23760000   0.12544643   -2.8425521   -2.8425521   -2.3897197 0.0092337945   -2.8425521    0.4528324   146820 
23770000   0.12524842   -2.8437986   -2.8437986   -2.3913173 0.0016626176   -2.8437986   0.45248129   146702 
23780000   0.12466964   -2.8440211   -2.8440211   -2.3932712 0.0076033111   -2.8440211   0.45074984   146585 
23790000   0.12456015    -2.843266    -2.843266   -2.3925492 0.0068779578    -2.843266    0.4507168   146467 
23800000   0.12460693   -2.8444614   -2.8444614   -2.3932118 0.0057259934   -2.8444614   0.45124961   146349 
23810000   0.12447902   -2.8452701   -2.8452701   -2.3941231 0.0024425976   -2.8452701   0.45114705   146232 
23820000   0.12391584   -2.8464919   -2.8464919   -2.3970233 0.00098989233   -2.8464919   0.44946862   146114 
23830000   0.12404914   -2.8489789   -2.8489789   -2.3986661 -0.0014731926   -2.8489789   0.45031272   145997 
23840000   0.12346352   -2.8499089   -2.8499089   -2.4013596 0.00089980946   -2.8499089   0.44854938   145879 
23850000   0.12381752   -2.8518817   -2.8518817   -2.4016821 0.0053181718   -2.8518817   0.45019965   145761 
23860000   0.12381608   -2.8513682   -2.8513682   -2.4008122 -0.0038739462   -2.8513682   0.45055608   145644 
23870000   0.12338585   -2.8543313   -2.8543313   -2.4049767 0.0063293891   -2.8543313   0.44935457   145526 
23880000   0.12341729   -2.8556035   -2.8556035   -2.4057697 0.0021786147   -2.8556035   0.44983383   145408 
23890000   0.12304387   -2.8533658   -2.8533658   -2.4045319 0.0066318381   -2.8533658   0.44883392   145291 
23900000   0.12284387   -2.8555315   -2.8555315   -2.4070629 0.0082886281   -2.8555315   0.44846861   145173 
23910000   0.12236314   -2.8506008   -2.8506008   -2.4035238 0.0050792817   -2.8506008     0.447077   145055 
23920000   0.12219227   -2.8536668   -2.8536668   -2.4068538 -0.0010647597   -2.8536668   0.44681308   144938 
23930000   0.12190694    -2.857031    -2.857031   -2.4108981 -0.0006445072    -2.857031   0.44613292   144820 
23940000   0.12204217   -2.8597332   -2.8597332   -2.4127412  0.006493788   -2.8597332   0.44699203   144702 
23950000    0.1213076   -2.8571203   -2.8571203   -2.4124592 -0.0043816987   -2.8571203   0.44466113   144585 
23960000   0.12119245   -2.8592332   -2.8592332   -2.4146313  0.004448719   -2.8592332    0.4446019   144467 
23970000   0.12040112   -2.8576933   -2.8576933   -2.4156334 0.0066551855   -2.8576933   0.44205994   144349 
23980000   0.12092377   -2.8584071   -2.8584071    -2.414068  0.004524797   -2.8584071   0.44433903   144232 
23990000   0.12045488   -2.8630186   -2.8630186   -2.4200401 -0.0022099022   -2.8630186   0.44297849   144114 
24000000    0.1208768   -2.8645161   -2.8645161   -2.4196248 0.0086463177   -2.8645161   0.44489128   143997 
24010000   0.12041609    -2.862461    -2.862461   -2.4189019 -0.0016332252    -2.862461   0.44355913   143879 
24020000   0.12013956   -2.8680552   -2.8680552   -2.4251515   0.01321384   -2.8680552   0.44290375   143761 
24030000   0.11954535   -2.8675107   -2.8675107   -2.4264386 0.0072733631   -2.8675107   0.44107213   143644 
24040000   0.11971774    -2.868018    -2.868018   -2.4259467 -0.0011537961    -2.868018   0.44207129   143526 
24050000   0.11942824   -2.8703903   -2.8703903   -2.4290251 0.0035994108   -2.8703903   0.44136516   143408 
24060000   0.11905627   -2.8713121   -2.8713121   -2.4309624 0.0033458678   -2.8713121   0.44034975   143291 
24070000    0.1188109   -2.8703619   -2.8703619   -2.4305575 0.0024337421   -2.8703619   0.43980438   143173 
24080000   0.11866366   -2.8716032   -2.8716032   -2.4319815  0.011237629   -2.8716032   0.43962168   143055 
24090000   0.11770721   -2.8736246   -2.8736246   -2.4371894 -0.0024193441   -2.8736246    0.4364352   142938 
24100000   0.11831412   -2.8753106   -2.8753106   -2.4362627 0.0019945419   -2.8753106   0.43904794   142820 
24110000   0.11802249   -2.8715523   -2.8715523   -2.4332244 -0.0024087901   -2.8715523   0.43832789   142702 
24120000   0.11767799   -2.8713484   -2.8713484   -2.4339413 -0.0031035484   -2.8713484   0.43740709   142585 
24130000   0.11786108   -2.8748381   -2.8748381   -2.4363876 0.0057756337   -2.8748381   0.43845045   142467 
24140000   0.11694496   -2.8711705   -2.8711705   -2.4357674 0.0043761223   -2.8711705   0.43540307   142349 
24150000   0.11740006   -2.8726765   -2.8726765   -2.4352195 -0.0049422079   -2.8726765   0.43745702   142232 
24160000    0.1169727   -2.8707923   -2.8707923   -2.4345658 0.0009151932   -2.8707923   0.43622649   142114 
24170000   0.11660621   -2.8723205   -2.8723205   -2.4371025 0.0056665197   -2.8723205   0.43521806   141997 
24180000   0.11718567   -2.8751305   -2.8751305   -2.4373859 0.0049573719   -2.8751305   0.43774458   141879 
24190000   0.11704645   -2.8794129   -2.8794129   -2.4418244  0.014412526   -2.8794129   0.43758848   141761 
24200000   0.11603347   -2.8792657   -2.8792657    -2.445106  0.007919735   -2.8792657    0.4341597   141644 
24210000   0.11557877   -2.8814124   -2.8814124   -2.4485935 0.0026791094   -2.8814124   0.43281893   141526 
24220000   0.11599027   -2.8810419   -2.8810419   -2.4463195  0.003456723   -2.8810419   0.43472238   141408 
24230000    0.1152868   -2.8827681   -2.8827681   -2.4503245 -0.0044481517   -2.8827681   0.43244363   141291 
24240000   0.11533661   -2.8794485   -2.8794485   -2.4464564   0.00204809   -2.8794485   0.43299206   141173 
24250000   0.11485018   -2.8810467   -2.8810467   -2.4495201 -0.0034204885   -2.8810467   0.43152663   141055 
24260000   0.11535626   -2.8808888   -2.8808888   -2.4471009 -0.0056268561   -2.8808888   0.43378792   140938 
24270000   0.11484602    -2.881169    -2.881169   -2.4489379 0.0013167575    -2.881169   0.43223109   140820 
24280000   0.11452451   -2.8824752   -2.8824752   -2.4510927 0.0086642112   -2.8824752   0.43138253   140702 
24290000   0.11408161   -2.8817363   -2.8817363   -2.4516644 -0.00090136082   -2.8817363   0.43007189   140585 
24300000   0.11368337   -2.8787701   -2.8787701   -2.4498395 -0.0023310296   -2.8787701   0.42893062   140467 
24310000   0.11382297   -2.8831576   -2.8831576   -2.4533392  0.007361098   -2.8831576    0.4298184   140349 
24320000   0.11369428   -2.8842621   -2.8842621   -2.4545715 0.00055022541   -2.8842621   0.42969063   140232 
24330000   0.11321445   -2.8849218   -2.8849218   -2.4566843 0.0014467887   -2.8849218   0.42823755   140114 
24340000   0.11289349   -2.8860975   -2.8860975   -2.4587171 0.0042984895   -2.8860975   0.42738036   139997 
24350000   0.11345903   -2.8870822   -2.8870822   -2.4571986 0.00094491443   -2.8870822   0.42988367   139879 
24360000   0.11317662   -2.8845522   -2.8845522   -2.4553765 -0.003209345   -2.8845522   0.42917568   139761 
24370000   0.11274157   -2.8853258   -2.8853258   -2.4574416 0.0005414777   -2.8853258   0.42788415   139644 
24380000   0.11331712   -2.8876921   -2.8876921   -2.4572599 -0.010038909   -2.8876921   0.43043222   139526 
24390000   0.11237167   -2.8866933   -2.8866933    -2.459491 -0.0055244288   -2.8866933   0.42720225   139408 
24400000   0.11193143   -2.8869017   -2.8869017   -2.4610157 0.0082146222   -2.8869017   0.42588604   139291 
24410000   0.11208074   -2.8898614   -2.8898614   -2.4630456 0.00046129548   -2.8898614   0.42681571   139173 
24420000   0.11194954    -2.888973    -2.888973   -2.4622951 -0.0029491973    -2.888973   0.42667786   139055 
24430000   0.11175272   -2.8889145   -2.8889145   -2.4626281 0.0052654898   -2.8889145   0.42628639   138938 
24440000   0.11132852   -2.8879755   -2.8879755   -2.4629463 -0.0033581719   -2.8879755   0.42502921   138820 
24450000   0.11075741   -2.8889887   -2.8889887   -2.4657801 0.0028841601   -2.8889887   0.42320858   138702 
24460000     0.110615   -2.8893132   -2.8893132    -2.466292 0.0016286176   -2.8893132   0.42302125   138585 
24470000   0.11052425   -2.8902739   -2.8902739   -2.4672395 -0.00029754138   -2.8902739    0.4230344   138467 
24480000   0.11026548   -2.8883882   -2.8883882   -2.4659843 0.00082069792   -2.8883882   0.42240392   138349 
24490000   0.11052391   -2.8901067   -2.8901067   -2.4663544 0.0073535467   -2.8901067   0.42375228   138232 
24500000   0.11027532   -2.8905703   -2.8905703   -2.4674099  0.007565358   -2.8905703   0.42316042   138114 
24510000   0.11006936   -2.8923689   -2.8923689   -2.4696407 -0.0064374211   -2.8923689   0.42272816   137997 
24520000   0.10921685   -2.8933939   -2.8933939   -2.4735808  -0.00164805   -2.8933939   0.41981305   137879 
24530000   0.11002675   -2.8978181   -2.8978181   -2.4745296   0.00450176   -2.8978181   0.42328845   137761 
24540000   0.10979441   -2.8980134   -2.8980134   -2.4752598 0.0057549696   -2.8980134   0.42275363   137644 
24550000   0.10893504   -2.8925771   -2.8925771   -2.4727725 -0.0007851524   -2.8925771   0.41980457   137526 
24560000   0.10901206   -2.9003098   -2.9003098   -2.4798476 0.0073081908   -2.9003098   0.42046216   137408 
24570000   0.10843382   -2.8993614   -2.8993614   -2.4807731 -0.0052950547   -2.8993614    0.4185883   137291 
24580000   0.10868114   -2.8986397   -2.8986397   -2.4787357 0.00071791559   -2.8986397   0.41990394   137173 
24590000    0.1084093   -2.9028376   -2.9028376   -2.4836234 0.0043868472   -2.9028376   0.41921427   137055 
24600000   0.10837631   -2.9008902   -2.9008902   -2.4814455 0.0083441075   -2.9008902   0.41944477   136938 
24610000   0.10812069   -2.9011313   -2.9011313   -2.4823149 -0.0046630612   -2.9011313   0.41881633   136820 
24620000   0.10788844   -2.9008882   -2.9008882   -2.4826107 -0.0021981317   -2.9008882   0.41827746   136702 
24630000   0.10783152   -2.9020106   -2.9020106   -2.4835957 0.00061009531   -2.9020106   0.41841488   136585 
24640000   0.10753717   -2.8968141   -2.8968141   -2.4791805 -0.0011286125   -2.8968141   0.41763354   136467 
24650000   0.10683877   -2.8985742   -2.8985742   -2.4832939 -0.0012511907   -2.8985742   0.41528031   136349 
24660000   0.10653909   -2.9014232   -2.9014232   -2.4869522 -1.2716303e-05   -2.9014232   0.41447108   136232 
24670000   0.10748464   -2.9038421   -2.9038421     -2.48533 0.0053488257   -2.9038421   0.41851208   136114 
24680000   0.10685216    -2.903163    -2.903163   -2.4867557 0.0049621407    -2.903163   0.41640733   135997 
24690000   0.10659835   -2.9059698   -2.9059698   -2.4901908 -0.0024601368   -2.9059698   0.41577897   135879 
24700000   0.10624047   -2.9019717   -2.9019717   -2.4872285 -0.0012048615   -2.9019717   0.41474326   135761 
24710000   0.10599602   -2.9064477   -2.9064477   -2.4923018 -0.0090273468   -2.9064477   0.41414589   135644 
24720000   0.10579544     -2.90226     -2.90226   -2.4885379 -0.0038606795     -2.90226   0.41372212   135526 
24730000   0.10514498   -2.9032911   -2.9032911   -2.4917544 -0.0046404604   -2.9032911   0.41153675   135408 
24740000   0.10486792   -2.9029447   -2.9029447   -2.4921374 -0.00059137857   -2.9029447   0.41080728   135291 
24750000   0.10492793   -2.9017506   -2.9017506   -2.4903494 -0.00054963805   -2.9017506   0.41140119   135173 
24760000   0.10482929   -2.9060751   -2.9060751   -2.4947015 -0.0010166579   -2.9060751   0.41137355   135055 
24770000   0.10453571   -2.9028673   -2.9028673   -2.4922901 -0.0090613279   -2.9028673   0.41057718   134938 
24780000   0.10414645   -2.9025956   -2.9025956   -2.4931893 0.0041510829   -2.9025956   0.40940632   134820 
24790000   0.10417932    -2.901541    -2.901541   -2.4916467 -0.0064571579    -2.901541    0.4098943   134702 
24800000     0.103999   -2.9028982   -2.9028982   -2.4933576 0.0024650904   -2.9028982   0.40954054   134585 
24810000   0.10350679   -2.9034509   -2.9034509    -2.495491   0.00156027   -2.9034509   0.40795993   134467 
24820000   0.10405955   -2.9080071   -2.9080071   -2.4975083 0.0087718256   -2.9080071   0.41049882   134349 
24830000   0.10409667   -2.9067663   -2.9067663   -2.4957631 0.0012164038   -2.9067663   0.41100318   134232 
24840000   0.10273191   -2.9067978   -2.9067978   -2.5008262 0.0015166855   -2.9067978   0.40597159   134114 
24850000   0.10288534    -2.907156    -2.907156   -2.5002231 -0.0026493256    -2.907156   0.40693291   133997 
24860000   0.10338077   -2.9111043   -2.9111043   -2.5018514 0.0060120859   -2.9111043   0.40925286   133879 
24870000   0.10335645   -2.9081418   -2.9081418   -2.4986243 -0.0014084926   -2.9081418    0.4095175   133761 
24880000   0.10274551    -2.908245    -2.908245   -2.5007917 -0.011493102    -2.908245   0.40745327   133644 
24890000   0.10249216   -2.9085485   -2.9085485   -2.5017408 -0.0011057768   -2.9085485   0.40680775   133526 
24900000   0.10213074   -2.9097877   -2.9097877   -2.5040559 0.0018052955   -2.9097877   0.40573175   133408 
24910000   0.10187853   -2.9114464   -2.9114464   -2.5063614  0.002672422   -2.9114464   0.40508507   133291 
24920000   0.10186437   -2.9123543   -2.9123543   -2.5069666 -0.0016793612   -2.9123543   0.40538766   133173 
24930000   0.10150395   -2.9127247   -2.9127247   -2.5084131 0.0026088818   -2.9127247   0.40431156   133055 
24940000   0.10169539   -2.9143705   -2.9143705   -2.5089399 0.0019656038   -2.9143705   0.40543059   132938 
24950000   0.10106156   -2.9129717   -2.9129717   -2.5097101 0.0024377143   -2.9129717   0.40326164   132820 
24960000   0.10110064   -2.9146155   -2.9146155   -2.5108392 0.00068028473   -2.9146155   0.40377631   132702 
24970000   0.10073095   -2.9167416   -2.9167416   -2.5140867 -0.0069337315   -2.9167416   0.40265486   132585 
24980000   0.10119642   -2.9164881   -2.9164881   -2.5116123 0.0017903395   -2.9164881   0.40487581   132467 
24990000   0.10088095   -2.9207408   -2.9207408   -2.5167673 0.0026585206   -2.9207408   0.40397352   132349 
25000000  0.099956896   -2.9180959   -2.9180959   -2.5174686 0.0015686035   -2.9180959   0.40062735   132232 
25010000   0.10013653   -2.9169986   -2.9169986   -2.5152928 0.00016353758   -2.9169986    0.4017058   132114 
25020000  0.099610809   -2.9177931   -2.9177931    -2.517842 -0.0010290186   -2.9177931   0.39995101   131997 
25030000  0.099329484   -2.9202049   -2.9202049   -2.5210266  0.001605441   -2.9202049   0.39917831   131879 
25040000  0.099283766   -2.9229292   -2.9229292   -2.5235773 0.0024200727   -2.9229292    0.3993519   131761 
25050000  0.099110496   -2.9222901   -2.9222901   -2.5232808 0.0012529472   -2.9222901   0.39900926   131644 
25060000  0.098801222   -2.9251245   -2.9251245   -2.5270035 -0.0063962802   -2.9251245   0.39812101   131526 
25070000  0.098892992   -2.9242182   -2.9242182   -2.5253696 -0.0039951012   -2.9242182   0.39884863   131408 
25080000  0.098592797   -2.9226866   -2.9226866   -2.5246943 0.0042350913   -2.9226866   0.39799226   131291 
25090000  0.098171958   -2.9251588   -2.9251588   -2.5285089 -0.0038389287   -2.9251588   0.39664995   131173 
25100000  0.098602391   -2.9247575   -2.9247575   -2.5260098 0.00069429809   -2.9247575   0.39874775   131055 
25110000  0.098020388   -2.9254034   -2.9254034   -2.5286551  0.011123726   -2.9254034   0.39674833   130938 
25120000  0.097980962   -2.9261192   -2.9261192   -2.5291727 0.0067401775   -2.9261192   0.39694648   130820 
25130000  0.097612422   -2.9304425   -2.9304425    -2.534632 -0.0025449164   -2.9304425   0.39581045   130702 
25140000  0.096884275   -2.9301583   -2.9301583   -2.5369484 0.0047734242   -2.9301583   0.39320986   130585 
25150000  0.097203425   -2.9293512   -2.9293512   -2.5344893 0.0093361501   -2.9293512   0.39486195   130467 
25160000  0.096912821   -2.9286724   -2.9286724   -2.5346346 0.0073208039   -2.9286724   0.39403784   130349 
25170000  0.096737564    -2.924954    -2.924954   -2.5312754 -0.001274025    -2.924954   0.39367862   130232 
25180000  0.096592793   -2.9269878   -2.9269878   -2.5335419 -0.0022128317   -2.9269878   0.39344596   130114 
25190000  0.096121502   -2.9286704   -2.9286704   -2.5367917 0.0041926677   -2.9286704   0.39187866   129997 
25200000  0.096225784   -2.9304624   -2.9304624   -2.5378022 -0.0021393451   -2.9304624   0.39266023   129879 
25210000  0.096076282   -2.9330683   -2.9330683   -2.5406617 -0.0031079731   -2.9330683   0.39240669   129761 
25220000  0.095869289   -2.9315435   -2.9315435   -2.5396288 -0.0073562231   -2.9315435   0.39191464   129644 
25230000  0.095512897   -2.9298106   -2.9298106   -2.5389972 0.0040362249   -2.9298106   0.39081342   129526 
25240000  0.095525987   -2.9332464   -2.9332464    -2.542023 0.0028997822   -2.9332464   0.39122338   129408 
25250000  0.095205059   -2.9340332   -2.9340332   -2.5437713 -0.00026886223   -2.9340332   0.39026188   129291 
25260000  0.094925161   -2.9339072   -2.9339072   -2.5444372 -0.00036798987   -2.9339072   0.38946998   129173 
25270000  0.094606281   -2.9323975   -2.9323975   -2.5438809  0.004453123   -2.9323975   0.38851656   129055 
25280000  0.094227553   -2.9298494   -2.9298494   -2.5425371 0.0021719746   -2.9298494   0.38731238   128938 
25290000  0.093871269   -2.9293735   -2.9293735   -2.5431721 -0.0094389036   -2.9293735   0.38620135   128820 
25300000  0.094326757   -2.9336208   -2.9336208   -2.5451897 -0.0076115274   -2.9336208   0.38843111   128702 
25310000  0.093842273   -2.9315776   -2.9315776   -2.5447899  -0.01096942   -2.9315776   0.38678766   128585 
25320000   0.09335149   -2.9301269   -2.9301269   -2.5450087 0.0022199502   -2.9301269   0.38511822   128467 
25330000  0.093741213   -2.9311747   -2.9311747   -2.5440932 0.0069941259   -2.9311747   0.38708156   128349 
25340000  0.093111911   -2.9346493   -2.9346493   -2.5498155 -0.0050494263   -2.9346493   0.38483381   128232 
25350000  0.092796636     -2.92951     -2.92951    -2.545626 -0.0037077542     -2.92951   0.38388403   128114 
25360000  0.093071883   -2.9338465   -2.9338465   -2.5484719 0.0027383779   -2.9338465   0.38537462   127997 
25370000  0.093069346   -2.9325008   -2.9325008   -2.5467811 0.0018060692   -2.9325008   0.38571971   127879 
25380000  0.092581543   -2.9371218   -2.9371218   -2.5530694 -0.0081210905   -2.9371218   0.38405242   127761 
25390000   0.09228559   -2.9347864   -2.9347864   -2.5516108 -0.0032185486   -2.9347864   0.38317563   127644 
25400000  0.092164559   -2.9376689   -2.9376689   -2.5546417 -0.0032495349   -2.9376689    0.3830272   127526 
25410000  0.091538251   -2.9394533   -2.9394533   -2.5586767 -0.0064302854   -2.9394533   0.38077665   127408 
25420000   0.09180408   -2.9365668   -2.9365668   -2.5543334 -0.00074850869   -2.9365668   0.38223344   127291 
25430000  0.091229348   -2.9350634   -2.9350634   -2.5548704 -0.0056184855   -2.9350634   0.38019294   127173 
25440000  0.091355969   -2.9357518   -2.9357518   -2.5546776 -0.003026987   -2.9357518   0.38107422   127055 
25450000  0.090975771   -2.9367659   -2.9367659   -2.5569278  0.003302997   -2.9367659   0.37983807   126938 
25460000  0.090746574   -2.9365748   -2.9365748   -2.5573411  0.004009547   -2.9365748   0.37923367   126820 
25470000  0.090386658   -2.9394449   -2.9394449   -2.5613635 -0.0070189707   -2.9394449   0.37808135   126702 
25480000  0.090504701   -2.9384315   -2.9384315   -2.5595065 0.00025891803   -2.9384315   0.37892503   126585 
25490000  0.090541875   -2.9415573   -2.9415573    -2.562123 -0.0075946159   -2.9415573   0.37943437   126467 
25500000  0.090026808   -2.9405918   -2.9405918   -2.5629636 0.0044223461   -2.9405918   0.37762822   126349 
25510000  0.089699138   -2.9402873   -2.9402873   -2.5636848 0.0026020031   -2.9402873   0.37660251   126232 
25520000  0.089469789   -2.9387625   -2.9387625   -2.5627715 0.0038692638   -2.9387625   0.37599105   126114 
25530000  0.090210953   -2.9413034   -2.9413034   -2.5618456  0.001709896   -2.9413034   0.37945778   125997 
25540000  0.089162155   -2.9429714   -2.9429714   -2.5675736 -0.0051749944   -2.9429714   0.37539775   125879 
25550000  0.089083774   -2.9414041   -2.9414041   -2.5659844 -0.0059774738   -2.9414041   0.37541967   125761 
25560000  0.088864799   -2.9473345   -2.9473345   -2.5724889 -0.0099180102   -2.9473345   0.37484559   125644 
25570000  0.088986808   -2.9470115   -2.9470115   -2.5712984 -0.0030933463   -2.9470115    0.3757131   125526 
25580000   0.08824067   -2.9442939   -2.9442939   -2.5713806 0.0025131597   -2.9442939   0.37291337   125408 
25590000  0.088693339   -2.9492199   -2.9492199   -2.5740435 0.0038595229   -2.9492199   0.37517641   125291 
25600000  0.087685831   -2.9436885   -2.9436885   -2.5724242 0.0060340021   -2.9436885   0.37126427   125173 
25610000  0.087649311   -2.9434088   -2.9434088   -2.5719489 0.00045747623   -2.9434088   0.37145982   125055 
25620000  0.087751738   -2.9463363   -2.9463363   -2.5740941 -0.003443233   -2.9463363   0.37224217   124938 
25630000  0.087496522   -2.9473511   -2.9473511   -2.5758407 0.0009457037   -2.9473511   0.37151043   124820 
25640000  0.086737614   -2.9470284   -2.9470284   -2.5783918 0.00046295776   -2.9470284    0.3686366   124702 
25650000  0.086560323   -2.9468999   -2.9468999   -2.5786713 -0.010579881   -2.9468999   0.36822859   124585 
25660000  0.086678484   -2.9500601   -2.9500601   -2.5809793 -0.0096940966   -2.9500601   0.36908083   124467 
25670000  0.086483709   -2.9491337   -2.9491337   -2.5805328 -0.0092737488   -2.9491337   0.36860091   124349 
25680000  0.086595957   -2.9528229   -2.9528229    -2.583396 -0.0085976146   -2.9528229   0.36942692   124232 
25690000  0.086006076   -2.9526882   -2.9526882    -2.585429 -0.0095629668   -2.9526882   0.36725926   124114 
25700000   0.08530161   -2.9503356   -2.9503356   -2.5857408 -0.001577197   -2.9503356   0.36459478   123997 
25710000  0.085346917   -2.9542922   -2.9542922   -2.5891563  -0.00380406   -2.9542922   0.36513591   123879 
25720000  0.085056979   -2.9510397   -2.9510397   -2.5867972 0.0040785926   -2.9510397   0.36424244   123761 
25730000  0.085022951   -2.9530155   -2.9530155   -2.5885742 -0.0027297088   -2.9530155   0.36444125   123644 
25740000  0.084983587   -2.9538834   -2.9538834   -2.5892629 -0.0023479254   -2.9538834    0.3646205   123526 
25750000  0.084361655   -2.9504124   -2.9504124   -2.5881142 -0.000299852   -2.9504124    0.3622982   123408 
25760000  0.083970384   -2.9523097   -2.9523097   -2.5913496 -0.0078352149   -2.9523097   0.36096007   123291 
25770000  0.084340157   -2.9596418   -2.9596418   -2.5967449 0.0021754241   -2.9596418   0.36289692   123173 
25780000  0.083777645   -2.9556881   -2.9556881   -2.5948659 0.0040106674   -2.9556881   0.36082223   123055 
25790000  0.083677362   -2.9569459   -2.9569459   -2.5962126 0.0017697542   -2.9569459    0.3607333   122938 
25800000  0.083705146   -2.9586502   -2.9586502   -2.5974505  -0.00268012   -2.9586502   0.36119977   122820 
25810000  0.083568313   -2.9588968   -2.9588968   -2.5979407 -0.0030914704   -2.9588968   0.36095611   122702 
25820000  0.083188223   -2.9574135   -2.9574135   -2.5977561 -0.0022572659   -2.9574135   0.35965733   122585 
25830000  0.082523701   -2.9549729   -2.9549729   -2.5978448 -0.0050334972   -2.9549729   0.35712809   122467 
25840000   0.08246415   -2.9567728   -2.9567728   -2.5995583 -0.0081174653   -2.9567728   0.35721457   122349 
25850000  0.082603079   -2.9595396   -2.9595396   -2.6013807 -0.0064522455   -2.9595396   0.35815887   122232 
25860000  0.082115376   -2.9587396   -2.9587396   -2.6023513 0.0086134768   -2.9587396   0.35638829   122114 
25870000  0.081767233   -2.9564782   -2.9564782   -2.6012605 -0.001921001   -2.9564782   0.35521766   121997 
25880000  0.081859208   -2.9578484   -2.9578484   -2.6018869 -0.0054611944   -2.9578484   0.35596152   121879 
25890000  0.081241839   -2.9592291   -2.9592291   -2.6056098 -0.0066381757   -2.9592291   0.35361928   121761 
25900000  0.081382476   -2.9586173   -2.9586173   -2.6040452 -0.004662699   -2.9586173   0.35457214   121644 
25910000  0.080872075   -2.9599771   -2.9599771   -2.6072866 0.00098927183   -2.9599771   0.35269051   121526 
25920000  0.080610618   -2.9624051   -2.9624051   -2.6105132 -0.0043234242   -2.9624051   0.35189196   121408 
25930000   0.08056609   -2.9585396   -2.9585396   -2.6065028 -0.0023475087   -2.9585396   0.35203684   121291 
25940000  0.080641482   -2.9610121   -2.9610121   -2.6083027 0.0037623509   -2.9610121    0.3527094   121173 
25950000  0.080923432   -2.9622377   -2.9622377   -2.6079501 -0.011593317   -2.9622377   0.35428761   121055 
25960000  0.080747401   -2.9638908   -2.9638908   -2.6100319 -0.0032470446   -2.9638908   0.35385894   120938 
25970000  0.080243226   -2.9607585   -2.9607585   -2.6087656 -0.00052798189   -2.9607585   0.35199294   120820 
25980000  0.079660582   -2.9639167   -2.9639167    -2.614138 -0.0086487088   -2.9639167   0.34977874   120702 
25990000  0.080118807   -2.9617714   -2.9617714   -2.6096393 -0.011766283   -2.9617714   0.35213208   120585 
26000000  0.079366572   -2.9640572   -2.9640572   -2.6148896 -0.0065798605   -2.9640572   0.34916759   120467 
26010000  0.079413686   -2.9655621   -2.9655621   -2.6158447 -0.0088532475   -2.9655621   0.34971742   120349 
26020000  0.078708437   -2.9604095   -2.9604095   -2.6134605 -0.0021307289   -2.9604095   0.34694898   120232 
26030000  0.079202096   -2.9644502   -2.9644502   -2.6149821 -0.007717655   -2.9644502   0.34946802   120114 
26040000  0.078298533   -2.9656747   -2.9656747   -2.6198566 -0.0022171735   -2.9656747   0.34581803   119997 
26050000  0.078231489   -2.9650163   -2.9650163   -2.6191543 -0.0070309919   -2.9650163   0.34586203   119879 
26060000  0.078105655   -2.9649687   -2.9649687   -2.6193228 -0.0067087156   -2.9649687   0.34564594   119761 
26070000  0.078028623   -2.9627279   -2.9627279   -2.6170852 0.0093650776   -2.9627279   0.34564272   119644 
26080000  0.077587541   -2.9641991   -2.9641991   -2.6201709 -0.0074451901   -2.9641991   0.34402816   119526 
26090000  0.077332854   -2.9643398   -2.9643398   -2.6211021 -0.0033275163   -2.9643398   0.34323772   119408 
26100000  0.077486309   -2.9661736   -2.9661736   -2.6219175 -0.010148589   -2.9661736   0.34425614   119291 
26110000  0.077375875   -2.9700053   -2.9700053   -2.6258995 -0.0026131928   -2.9700053   0.34410588   119173 
26120000  0.076855629   -2.9673001   -2.9673001   -2.6251691  -0.01187234   -2.9673001   0.34213101   119055 
26130000  0.076466149   -2.9679063   -2.9679063   -2.6271743 -0.0074653334   -2.9679063   0.34073205   118938 
26140000  0.076440491   -2.9688277   -2.9688277   -2.6278717 0.0067144264   -2.9688277   0.34095598   118820 
26150000  0.076487805   -2.9696086   -2.9696086   -2.6281024 -0.0042370106   -2.9696086   0.34150618   118702 
26160000  0.075863506   -2.9694736   -2.9694736   -2.6304206 -0.0026514304   -2.9694736   0.33905297   118585 
26170000  0.076218058   -2.9717236   -2.9717236   -2.6307468 0.00021765918   -2.9717236   0.34097684   118467 
26180000  0.076376581   -2.9709842   -2.9709842   -2.6289575 -0.0042565914   -2.9709842   0.34202671   118349 
26190000  0.075264269    -2.972092    -2.972092   -2.6347128 -1.5598364e-06    -2.972092   0.33737913   118232 
26200000  0.075406472   -2.9673185   -2.9673185   -2.6289643 -0.0012348479   -2.9673185   0.33835426   118114 
26210000  0.075831281   -2.9700672   -2.9700672   -2.6294694 -0.010212392   -2.9700672   0.34059779   117997 
26220000  0.075502454   -2.9715285   -2.9715285   -2.6320681 -0.0087360111   -2.9715285   0.33946033   117879 
26230000  0.074995392   -2.9738763   -2.9738763   -2.6363579 -0.00073823314   -2.9738763   0.33751843   117761 
26240000  0.073965619   -2.9673623   -2.9673623   -2.6341473 -0.0036802707   -2.9673623   0.33321497   117644 
26250000  0.074330768   -2.9690314   -2.9690314   -2.6338352 -0.0066744348   -2.9690314   0.33519618   117526 
26260000  0.074373055    -2.968557    -2.968557    -2.632833 0.0015037266    -2.968557   0.33572395   117408 
26270000   0.07365871   -2.9691693   -2.9691693   -2.6363382 -0.0084754204   -2.9691693   0.33283104   117291 
26280000  0.073642217   -2.9659642   -2.9659642   -2.6328726 -0.0015407798   -2.9659642   0.33309162   117173 
26290000  0.073363481    -2.965443    -2.965443   -2.6332776 -0.0093296723    -2.965443   0.33216537   117055 
26300000  0.073121311   -2.9640779   -2.9640779   -2.6326777 -0.0063966897   -2.9640779   0.33140015   116938 
26310000  0.072931805   -2.9645362   -2.9645362    -2.633661 -0.0072835737   -2.9645362   0.33087515   116820 
26320000  0.072599141   -2.9650456   -2.9650456   -2.6353467 -0.0011829447   -2.9650456   0.32969896   116702 
26330000  0.072331269   -2.9659232   -2.9659232   -2.6371111 -0.0023543619   -2.9659232   0.32881211   116585 
26340000  0.072382493   -2.9637236   -2.9637236   -2.6343452 0.00077539464   -2.9637236   0.32937835   116467 
26350000  0.072208385   -2.9664598   -2.9664598   -2.6375405 -0.0077235933   -2.9664598   0.32891931   116349 
26360000  0.072181523    -2.966652    -2.966652   -2.6375241 0.0036947549    -2.966652   0.32912792   116232 
26370000  0.071764813    -2.968507    -2.968507   -2.6409467 -0.0031102383    -2.968507   0.32756038   116114 
26380000  0.071665507   -2.9655765   -2.9655765   -2.6381395 -0.00053137013   -2.9655765   0.32743705   115997 
26390000  0.071630201   -2.9682955   -2.9682955   -2.6406865 -0.0068928916   -2.9682955     0.327609   115879 
26400000  0.071298965   -2.9656578   -2.9656578   -2.6392313 -0.002058053   -2.9656578   0.32642646   115761 
26410000  0.070985814    -2.966316    -2.966316   -2.6409944 -0.0017365841    -2.966316   0.32532157   115644 
26420000  0.070478677   -2.9647702   -2.9647702   -2.6414429  -0.00190107   -2.9647702   0.32332732   115526 
26430000   0.07061418   -2.9668268   -2.9668268   -2.6425466 0.0021430879   -2.9668268   0.32428018   115408 
26440000  0.070226981   -2.9696625   -2.9696625   -2.6468331 -0.00041795918   -2.9696625   0.32282933   115291 
26450000  0.070119514   -2.9678079   -2.9678079   -2.6451424 0.0016338207   -2.9678079   0.32266556   115173 
26460000  0.069867702   -2.9669442   -2.9669442   -2.6451076 -0.004685887   -2.9669442   0.32183655   115055 
26470000  0.070170595   -2.9680857   -2.9680857   -2.6445249  0.001997636   -2.9680857   0.32356081   114938 
26480000   0.07032621   -2.9712554   -2.9712554   -2.6466438 -0.0045453636   -2.9712554   0.32461163   114820 
26490000  0.069282028    -2.968296    -2.968296   -2.6481751 -0.00097668786    -2.968296   0.32012088   114702 
26500000  0.069608037   -2.9721369   -2.9721369   -2.6501812 -0.0019877093   -2.9721369   0.32195562   114585 
26510000  0.068718716    -2.966643    -2.966643    -2.648473 -0.0094572009    -2.966643   0.31816993   114467 
26520000  0.068863296   -2.9679098   -2.9679098   -2.6487415 -0.004921872   -2.9679098   0.31916836   114349 
26530000  0.068305176   -2.9686394   -2.9686394   -2.6517336 -0.0051266222   -2.9686394   0.31690583   114232 
26540000  0.068296545   -2.9710345   -2.9710345   -2.6538411 -0.010133317   -2.9710345   0.31719344   114114 
26550000  0.068082988   -2.9712803   -2.9712803   -2.6547542 -0.0020996212   -2.9712803   0.31652614   113997 
26560000   0.06778669   -2.9674842   -2.9674842   -2.6520091 -0.0015150832   -2.9674842   0.31547517   113879 
26570000  0.067580643   -2.9669659   -2.9669659   -2.6521234 -0.0046605685   -2.9669659   0.31484247   113761 
26580000  0.067185448   -2.9686156   -2.9686156    -2.655292 -0.0060697679   -2.9686156    0.3133236   113644 
26590000  0.067226552   -2.9713259   -2.9713259   -2.6574847 -0.0026881418   -2.9713259   0.31384116   113526 
26600000  0.067101001   -2.9694614   -2.9694614   -2.6558804 -0.0014158324   -2.9694614   0.31358098   113408 
26610000  0.067077754   -2.9711274   -2.9711274   -2.6573313 0.0021651272   -2.9711274   0.31379607   113291 
26620000  0.066765791   -2.9662039   -2.9662039   -2.6535415 -0.0074088281   -2.9662039   0.31266234   113173 
26630000   0.06698465   -2.9696549   -2.9696549   -2.6556403 -0.0087752981   -2.9696549   0.31401466   113055 
26640000  0.066327122   -2.9670358   -2.9670358   -2.6557814 -0.0034405499   -2.9670358   0.31125437   112938 
26650000  0.066300966    -2.969268    -2.969268   -2.6578109 -0.00073479396    -2.969268   0.31145704   112820 
26660000  0.065623507   -2.9678415   -2.9678415   -2.6592442 -0.0026267478   -2.9678415   0.30859736   112702 
26670000  0.065615027   -2.9678706   -2.9678706   -2.6589924 -0.0041040816   -2.9678706   0.30887814   112585 
26680000  0.065532318   -2.9668507   -2.9668507   -2.6580382 -0.00031673256   -2.9668507   0.30881246   112467 
26690000  0.065189755   -2.9679665   -2.9679665   -2.6604457 0.0053347025   -2.9679665   0.30752083   112349 
26700000  0.065030097   -2.9659846   -2.9659846   -2.6588971  -0.01173408   -2.9659846   0.30708747   112232 
26710000  0.064917745   -2.9661747   -2.9661747   -2.6592951 -0.0094103778   -2.9661747   0.30687957   112114 
26720000  0.064670782   -2.9639813   -2.9639813   -2.6579498 0.0049896763   -2.9639813   0.30603149   111997 
26730000  0.064180313   -2.9624633   -2.9624633   -2.6584325 0.0034650698   -2.9624633   0.30403085   111879 
26740000  0.064762213   -2.9659631   -2.9659631   -2.6588518 -0.0063772345   -2.9659631    0.3071113   111761 
26750000  0.063687475   -2.9623231   -2.9623231   -2.6599919 -0.010210496   -2.9623231   0.30233125   111644 
26760000  0.063608889   -2.9649447   -2.9649447   -2.6626671 -0.012342702   -2.9649447   0.30227768   111526 
26770000   0.06330712   -2.9627476   -2.9627476   -2.6615854 -0.0045027196   -2.9627476   0.30116228   111408 
26780000   0.06342916   -2.9643634   -2.9643634   -2.6623033 -0.0039186285   -2.9643634   0.30206006   111291 
26790000  0.062864724   -2.9608367   -2.9608367   -2.6611468 -0.0073032847   -2.9608367   0.29968989   111173 
26800000  0.062680853   -2.9606858   -2.9606858    -2.661555 -0.0051280078   -2.9606858   0.29913083   111055 
26810000  0.062393347   -2.9607863   -2.9607863   -2.6627135 -0.0096436169   -2.9607863    0.2980728   110938 
26820000  0.061770759   -2.9589921   -2.9589921   -2.6635793 -0.0039758102   -2.9589921   0.29541272   110820 
26830000  0.062761985   -2.9625997   -2.9625997   -2.6621266 -0.014444371   -2.9625997    0.3004731   110702 
26840000  0.061980562   -2.9595212   -2.9595212   -2.6624753 -0.017698093   -2.9595212   0.29704598   110585 
26850000   0.06157827   -2.9597346   -2.9597346   -2.6643014 -0.00081348966   -2.9597346   0.29543322   110467 
26860000  0.061828466   -2.9570218   -2.9570218    -2.660071 -0.0064465137   -2.9570218   0.29695078   110349 
26870000  0.061730921   -2.9580169   -2.9580169   -2.6612469 -0.0060783913   -2.9580169   0.29677005   110242 
26880000  0.060668046   -2.9567509   -2.9567509   -2.6647914 -0.007851745   -2.9567509   0.29195957   110129 
26890000  0.061199388   -2.9550476   -2.9550476   -2.6602767 -0.0031884895   -2.9550476   0.29477088   110034 
26900000  0.060552532   -2.9531297   -2.9531297   -2.6611959 -0.0094850735   -2.9531297   0.29193383   109929 
26910000  0.060706808   -2.9539045   -2.9539045    -2.660971 0.0013640885   -2.9539045   0.29293344   109833 
26920000  0.060309325   -2.9506933   -2.9506933   -2.6594445 -0.0022007495   -2.9506933   0.29124878   109745 
26930000  0.060555501   -2.9538113   -2.9538113   -2.6611523 -0.009041784   -2.9538113   0.29265897   109662 
26940000  0.060193132   -2.9469074   -2.9469074   -2.6557767 -0.0087654196   -2.9469074   0.29113068   109578 
26950000  0.059863489   -2.9448398   -2.9448398   -2.6550549  0.001666544   -2.9448398   0.28978491   109484 
26960000  0.060325132   -2.9455892   -2.9455892    -2.653324 -0.0049028981   -2.9455892   0.29226521   109392 
26970000  0.060324156   -2.9446189   -2.9446189   -2.6521445 0.00072657807   -2.9446189   0.29247437   109312 
26980000  0.059392091   -2.9458993   -2.9458993   -2.6577277 -0.0092878053   -2.9458993   0.28817154   109230 
26990000  0.059605745   -2.9460763   -2.9460763   -2.6566323 -0.0035559555   -2.9460763   0.28944402   109141 
27000000  0.059402153   -2.9413862   -2.9413862   -2.6527457 -0.0025501987   -2.9413862   0.28864051   109071 
27010000  0.059232535   -2.9414453   -2.9414453   -2.6533886 -0.0072653835   -2.9414453   0.28805665   108980 
27020000  0.059356853   -2.9393194   -2.9393194   -2.6504434 -0.0013279164   -2.9393194   0.28887594   108899 
27030000  0.058683667   -2.9377294   -2.9377294   -2.6519276 -0.0055668717   -2.9377294   0.28580179   108822 
27040000  0.059448946   -2.9410327   -2.9410327   -2.6513202  -0.00303088   -2.9410327   0.28971255   108753 
27050000  0.058481048   -2.9389895   -2.9389895   -2.6537552 -0.0036877829   -2.9389895   0.28523436   108662 
27060000  0.058319453   -2.9342575   -2.9342575   -2.6496384 -0.0084003379   -2.9342575   0.28461908   108596 
27070000  0.058801515   -2.9345684   -2.9345684   -2.6473825 -0.0026105121   -2.9345684   0.28718592   108515 
27080000  0.058954356   -2.9344781   -2.9344781   -2.6463147 -0.0043797075   -2.9344781   0.28816342   108428 
27090000  0.058370626    -2.928403    -2.928403   -2.6428953 0.0053676749    -2.928403   0.28550769   108353 
27100000  0.057855206   -2.9304298   -2.9304298   -2.6472079 -0.0042429345   -2.9304298   0.28322187   108263 
27110000  0.057635936   -2.9270184   -2.9270184   -2.6447109 -0.0059934828   -2.9270184   0.28230753   108202 
27120000  0.058118735   -2.9276656   -2.9276656    -2.642809 -0.0080665558   -2.9276656   0.28485662   108132 
27130000  0.058145103   -2.9262966   -2.9262966   -2.6411472 0.0027696274   -2.9262966   0.28514935   108070 
27140000  0.058140252   -2.9292119   -2.9292119   -2.6439147 -0.0020394553   -2.9292119   0.28529716   108005 
27150000  0.057170735   -2.9239847   -2.9239847   -2.6432371  -0.00561396   -2.9239847   0.28074764   107925 
27160000  0.057411771   -2.9247558   -2.9247558   -2.6426651 -0.011724017   -2.9247558   0.28209073   107864 
27170000   0.05742137   -2.9256708   -2.9256708   -2.6433602 -0.0033271824   -2.9256708   0.28231064   107798 
27180000  0.057055776   -2.9214131   -2.9214131   -2.6407671 -0.0034613134   -2.9214131   0.28064598   107747 
27190000  0.056931604   -2.9180542   -2.9180542   -2.6378369 -0.0051611892   -2.9180542   0.28021725   107677 
27200000  0.056961293   -2.9173769   -2.9173769    -2.636865 0.0024861043   -2.9173769   0.28051188   107620 
27210000  0.057262418   -2.9159327   -2.9159327   -2.6337702 0.00085210629   -2.9159327   0.28216259   107556 
27220000  0.056840361   -2.9160097   -2.9160097   -2.6357392 -0.0047440344   -2.9160097   0.28027051   107484 
27230000  0.057350429   -2.9133288   -2.9133288   -2.6303801 -0.0094011772   -2.9133288   0.28294878   107422 
27240000  0.056692504    -2.911292    -2.911292   -2.6313886 -0.0014004984    -2.911292   0.27990343   107345 
27250000  0.056346288   -2.9132219   -2.9132219   -2.6348697 -0.0069936509   -2.9132219   0.27835226   107284 
27260000  0.056443326   -2.9106506   -2.9106506   -2.6316864 0.0038674337   -2.9106506   0.27896424   107233 
27270000  0.056388311   -2.9067564   -2.9067564   -2.6279289 -0.010920265   -2.9067564   0.27882755   107181 
27280000  0.056178545   -2.9060535   -2.9060535   -2.6281361 -0.00048765368   -2.9060535   0.27791736   107132 
27290000  0.056270356   -2.9053705   -2.9053705   -2.6268352 -0.0039847032   -2.9053705   0.27853535   107069 
27300000   0.05604491   -2.9036198   -2.9036198    -2.626063 -0.0012838679   -2.9036198   0.27755679   107016 
27310000  0.056166387   -2.9072218   -2.9072218   -2.6289022 -0.013766591   -2.9072218   0.27831964   106954 
27320000  0.056272423   -2.9060819   -2.9060819   -2.6271273 -0.0037401963   -2.9060819   0.27895462   106912 
27330000  0.055676663   -2.9031921   -2.9031921   -2.6270333 -0.00099642814   -2.9031921   0.27615887   106851 
27340000  0.055335062   -2.9024742   -2.9024742   -2.6278735 0.0014894158   -2.9024742   0.27460072   106798 
27350000  0.055820226   -2.9032209   -2.9032209   -2.6260698  -0.01261824   -2.9032209   0.27715108   106743 
27360000  0.055036514   -2.8982577   -2.8982577   -2.6248518  -0.01194395   -2.8982577    0.2734059   106686 
27370000  0.055261641   -2.8985618   -2.8985618   -2.6239372 -0.0016476225   -2.8985618   0.27462466   106647 
27380000  0.055411673    -2.897333    -2.897333   -2.6218181 -0.0098837302    -2.897333   0.27551492   106591 
27390000  0.054980178    -2.895948    -2.895948     -2.62244 -0.0049236843    -2.895948   0.27350802   106537 
27400000  0.055143296   -2.8978416   -2.8978416   -2.6234088 -0.0082682305   -2.8978416   0.27443283   106493 
27410000  0.055364835    -2.895197    -2.895197   -2.6195271 -0.0025520191    -2.895197   0.27566997   106441 
27420000  0.055152856   -2.8945221   -2.8945221   -2.6197811   -0.0021252   -2.8945221   0.27474097   106392 
27430000  0.054949472   -2.8931406   -2.8931406   -2.6192789 -0.0077700968   -2.8931406   0.27386168   106340 
27440000  0.055302175   -2.8957468   -2.8957468   -2.6200365 -0.013173927   -2.8957468   0.27571026   106305 
27450000   0.05497525    -2.890866    -2.890866   -2.6166644 -0.0033205349    -2.890866   0.27420159   106258 
27460000  0.054827353   -2.8898757   -2.8898757   -2.6162547 -0.0044024414   -2.8898757     0.273621   106197 
27470000  0.054944291   -2.8911954   -2.8911954   -2.6168694 -0.0053327579   -2.8911954     0.274326   106150 
27480000  0.054862895   -2.8872781   -2.8872781    -2.613232 -0.0029176247   -2.8872781   0.27404611   106101 
27490000  0.054642086   -2.8853289   -2.8853289   -2.6122236 -1.6059086e-05   -2.8853289   0.27310531   106038 
27500000  0.054553741   -2.8842069   -2.8842069   -2.6114325 -0.002824438   -2.8842069   0.27277436   105995 
27510000  0.054272281   -2.8849681   -2.8849681   -2.6134602 -0.012176669   -2.8849681   0.27150792   105940 
27520000  0.054586155   -2.8851147   -2.8851147   -2.6119489 -0.0066940006   -2.8851147   0.27316581   105906 
27530000  0.054666998   -2.8862394   -2.8862394   -2.6125295 -0.0051206483   -2.8862394   0.27370993   105852 
27540000  0.054459132   -2.8805976   -2.8805976   -2.6077944 -0.0045784264   -2.8805976   0.27280319   105800 
27550000  0.054129599   -2.8792849   -2.8792849   -2.6080094 -0.014796915   -2.8792849   0.27127553   105752 
27560000  0.054060692   -2.8793103   -2.8793103   -2.6082648 -0.0077310738   -2.8793103   0.27104553   105707 
27570000  0.054398913   -2.8769848   -2.8769848   -2.6041299 -0.010219274   -2.8769848   0.27285485   105663 
27580000  0.054327633   -2.8785703   -2.8785703   -2.6059724  -0.00546185   -2.8785703   0.27259794   105624 
27590000  0.053871592     -2.87585     -2.87585   -2.6054072 -0.003115833     -2.87585   0.27044282   105572 
27600000  0.053636057   -2.8738081   -2.8738081   -2.6044201 -0.00039134281   -2.8738081   0.26938799   105522 
27610000  0.053899268   -2.8752865   -2.8752865   -2.6044456 -0.014493627   -2.8752865   0.27084087   105471 
27620000  0.053455118   -2.8730596   -2.8730596   -2.6043206 -0.0058559515   -2.8730596   0.26873899   105420 
27630000  0.053613141   -2.8726588   -2.8726588   -2.6030307 -0.014427156   -2.8726588   0.26962806   105383 
27640000   0.05365158   -2.8737838   -2.8737838   -2.6038498 -0.017844859   -2.8737838   0.26993408   105339 
27650000  0.053577549   -2.8734767   -2.8734767   -2.6038025 -0.0029218954   -2.8734767   0.26967426   105295 
27660000  0.053414423   -2.8680848   -2.8680848   -2.5991371 -0.0028262914   -2.8680848   0.26894769   105258 
27670000  0.053449466   -2.8677266   -2.8677266    -2.598495 -0.0068805539   -2.8677266   0.26923157   105216 
27680000   0.05354078   -2.8658461   -2.8658461   -2.5960391 -0.0030636899   -2.8658461   0.26980692   105171 
27690000  0.053760332   -2.8625269   -2.8625269   -2.5915131 -0.00047123943   -2.8625269    0.2710138   105132 
27700000   0.05346131    -2.863394    -2.863394   -2.5938081 0.0034275095    -2.863394   0.26958588   105101 
27710000  0.053228947   -2.8620767   -2.8620767   -2.5935629 -0.0051302159   -2.8620767    0.2685138   105062 
27720000  0.053476266   -2.8606256   -2.8606256   -2.5907409 0.00068596228   -2.8606256    0.2698847   105014 
27730000  0.053622433   -2.8585678   -2.8585678   -2.5878475 -0.004873724   -2.8585678   0.27072035   104976 
27740000   0.05360003   -2.8590123   -2.8590123   -2.5883225 -0.0055915349   -2.8590123   0.27068976   104944 
27750000  0.053192395    -2.854179    -2.854179   -2.5854403 -0.0032762074    -2.854179   0.26873868   104902 
27760000  0.052857635   -2.8556174   -2.8556174   -2.5884707 -0.0060378257   -2.8556174   0.26714672   104863 
27770000  0.053074939   -2.8524444   -2.8524444   -2.5840996 -0.0070600002   -2.8524444   0.26834479   104824 
27780000  0.053311767   -2.8537609   -2.8537609   -2.5841236 -0.014027042   -2.8537609   0.26963736   104787 
27790000  0.053053659   -2.8538449   -2.8538449   -2.5854233 -0.0040036364   -2.8538449   0.26842157   104752 
27800000  0.053034427   -2.8526636   -2.8526636   -2.5842547 0.0039355811   -2.8526636   0.26840883   104719 
27810000  0.052768864   -2.8534511   -2.8534511   -2.5862919 -0.012647511   -2.8534511    0.2671592   104682 
27820000  0.052559013   -2.8473146   -2.8473146    -2.581106 -0.0026000329   -2.8473146   0.26620865   104638 
27830000   0.05257936   -2.8455411   -2.8455411   -2.5791377 -0.0049129488   -2.8455411   0.26640336   104602 
27840000  0.052707832   -2.8479885   -2.8479885   -2.5808244 -0.0051213696   -2.8479885   0.26716412   104559 
27850000  0.052320396   -2.8475179   -2.8475179   -2.5822212 -0.0035682738   -2.8475179   0.26529671   104521 
27860000  0.052190079   -2.8467451   -2.8467451   -2.5820003 -0.0040002959   -2.8467451   0.26474484   104478 
27870000  0.052427424   -2.8475493   -2.8475493   -2.5815114 -0.0036795616   -2.8475493   0.26603794   104443 
27880000  0.052382604   -2.8432283   -2.8432283   -2.5773287 -0.0032104832   -2.8432283   0.26589961   104408 
27890000  0.052053569   -2.8447259   -2.8447259   -2.5804104 0.0032045381   -2.8447259   0.26431547   104374 
27900000  0.052075851   -2.8418023   -2.8418023   -2.5772824 -0.0057305547   -2.8418023   0.26451985   104338 
27910000  0.052199719   -2.8433378   -2.8433378   -2.5781354 -0.0011924705   -2.8433378   0.26520241   104317 
27920000  0.052206372   -2.8399139   -2.8399139   -2.5745938 -0.0031230446   -2.8399139   0.26532015   104284 
27930000  0.052287642   -2.8388955   -2.8388955   -2.5730807 0.0038071711   -2.8388955   0.26581474   104252 
27940000  0.052631062   -2.8421177   -2.8421177   -2.5744596 -0.0081324294   -2.8421177   0.26765815   104214 
27950000  0.051779064    -2.839681    -2.839681   -2.5762875 -0.0088801909    -2.839681    0.2633935   104187 
27960000  0.051677441   -2.8386282   -2.8386282   -2.5756608 -0.0056996262   -2.8386282   0.26296743   104151 
27970000  0.051508728   -2.8347587   -2.8347587   -2.5725843 -0.0075606355   -2.8347587   0.26217435   104125 
27980000  0.051575763   -2.8341431   -2.8341431   -2.5715418 -0.0061164801   -2.8341431    0.2626013   104091 
27990000    0.0520363   -2.8361408   -2.8361408   -2.5711055 -0.0038833993   -2.8361408   0.26503527   104056 
28000000  0.051986995   -2.8376752   -2.8376752   -2.5728351 -0.0066458333   -2.8376752   0.26484014   104034 
28010000  0.051428012   -2.8331489   -2.8331489   -2.5710934 -0.0059347906   -2.8331489   0.26205546   104009 
28020000  0.051440694   -2.8344065   -2.8344065   -2.5722007 -0.0040085114   -2.8344065    0.2622058   103975 
28030000  0.051215703   -2.8319938   -2.8319938    -2.570862 -0.0014343424   -2.8319938    0.2611318   103946 
28040000  0.051490201   -2.8331972   -2.8331972   -2.5705875 -0.0063875161   -2.8331972   0.26260969   103915 
28050000  0.051517848   -2.8308656   -2.8308656   -2.5680391 -0.0027694371   -2.8308656   0.26282657   103885 
28060000  0.051151857   -2.8282563   -2.8282563   -2.5672241 -0.0061822648   -2.8282563   0.26103227   103856 
28070000  0.050940717   -2.8247489   -2.8247489   -2.5647215 -0.010660701   -2.8247489   0.26002742   103827 
28080000  0.051580948   -2.8272136   -2.8272136   -2.5638547 -0.0069814902   -2.8272136    0.2633589   103802 
28090000  0.051374564   -2.8262224   -2.8262224   -2.5638288  0.011608562   -2.8262224   0.26239363   103767 
28100000  0.051642589    -2.824364    -2.824364   -2.5605531 -0.0041842757    -2.824364   0.26381086   103748 
28110000   0.05169041   -2.8274348   -2.8274348   -2.5633058 -0.0056357335   -2.8274348   0.26412898   103719 
28120000  0.051186403   -2.8231545   -2.8231545   -2.5615278 -0.007484167   -2.8231545   0.26162674   103690 
28130000  0.051446351    -2.825029    -2.825029    -2.561995 -0.0072489892    -2.825029   0.26303404   103659 
28140000  0.051189174   -2.8233166   -2.8233166   -2.5615343 0.0009130568   -2.8233166   0.26178229   103634 
28150000  0.050645817   -2.8212277   -2.8212277   -2.5621492 -0.010008481   -2.8212277   0.25907855   103604 
28160000  0.051298776   -2.8224197   -2.8224197   -2.5599148 -0.00095262232   -2.8224197   0.26250491   103570 
28170000  0.051352093   -2.8217804   -2.8217804   -2.5589443 -0.0010216787   -2.8217804   0.26283611   103547 
28180000  0.050710711   -2.8214991   -2.8214991   -2.5618605 -0.0016064374   -2.8214991   0.25963857   103513 
28190000  0.050831522   -2.8200754   -2.8200754   -2.5597856 -0.009815344   -2.8200754   0.26028981   103500 
28200000   0.05101599   -2.8208041   -2.8208041    -2.559499 -0.0068557493   -2.8208041   0.26130509   103472 
28210000  0.050696888   -2.8190395   -2.8190395   -2.5593086 -0.0088407663   -2.8190395   0.25973089   103448 
28220000  0.050477606   -2.8184587   -2.8184587   -2.5597937 -0.0081321108   -2.8184587   0.25866497   103425 
28230000  0.050436866   -2.8187857   -2.8187857   -2.5602545 -0.0087957867   -2.8187857    0.2585312   103395 
28240000  0.050648903   -2.8149526   -2.8149526   -2.5552693 -0.0017140791   -2.8149526   0.25968336   103369 
28250000  0.050772117    -2.813892    -2.813892   -2.5535064 -0.0097289906    -2.813892   0.26038563   103341 
28260000  0.050663014   -2.8120332   -2.8120332   -2.5521543 0.0052956358   -2.8120332    0.2598789   103320 
28270000   0.05059268   -2.8126391   -2.8126391   -2.5530582 -0.0054435724   -2.8126391   0.25958093   103295 
28280000  0.050271061   -2.8114446   -2.8114446   -2.5534264 -0.0027292759   -2.8114446   0.25801819   103260 
28290000  0.050722255   -2.8120499   -2.8120499   -2.5516479 -0.010207508   -2.8120499   0.26040205   103233 
28300000  0.050290532   -2.8066999   -2.8066999   -2.5484342 -0.0054915671   -2.8066999   0.25826569   103201 
28310000   0.05066682   -2.8087898   -2.8087898   -2.5485311 -0.010983315   -2.8087898   0.26025864   103177 
28320000  0.050324747     -2.80413     -2.80413   -2.5455608 0.0019103316     -2.80413   0.25856919   103150 
28330000  0.050275287   -2.8058868   -2.8058868   -2.5475016 -0.011649215   -2.8058868    0.2583852   103122 
28340000  0.050367061   -2.8041359   -2.8041359   -2.5452263 -0.0085325492   -2.8041359   0.25890959   103101 
28350000  0.050133585   -2.8059227   -2.8059227   -2.5481582 -0.010009839   -2.8059227   0.25776442   103079 
28360000  0.050357551   -2.8042936   -2.8042936   -2.5453174 -0.011776455   -2.8042936   0.25897625   103055 
28370000  0.049749854   -2.8000371   -2.8000371   -2.5441216 -0.0091545054   -2.8000371   0.25591558   103029 
28380000  0.050250486   -2.8014922   -2.8014922   -2.5429687 -0.0028757769   -2.8014922   0.25852347   103016 
28390000  0.050393324   -2.8016681   -2.8016681   -2.5423418 -0.0064281843   -2.8016681    0.2593263   102989 
28400000  0.049726029   -2.7988539   -2.7988539   -2.5429292 -0.0005794322   -2.7988539   0.25592467   102976 
28410000  0.050007089   -2.7974379   -2.7974379   -2.5400067 -0.00030400403   -2.7974379    0.2574312   102952 
28420000  0.050120528   -2.7959813   -2.7959813   -2.5378859 -0.0082167933   -2.7959813    0.2580954   102920 
28430000  0.049529917   -2.7960544   -2.7960544   -2.5409507  -0.00823334   -2.7960544   0.25510362   102900 
28440000  0.049826735     -2.79497     -2.79497   -2.5382727 0.0004104882     -2.79497   0.25669724   102874 
28450000  0.049665718   -2.7946394   -2.7946394   -2.5387144 -0.00091462796   -2.7946394   0.25592493   102851 
28460000  0.049536304   -2.7927281   -2.7927281   -2.5374179 -0.0042801507   -2.7927281    0.2553102   102830 
28470000  0.049733877   -2.7925227   -2.7925227   -2.5361469 -0.0066715593   -2.7925227   0.25637586   102811 
28480000  0.049316551   -2.7914682   -2.7914682    -2.537172 -0.003134932   -2.7914682   0.25429629   102782 
28490000  0.049618267   -2.7923779   -2.7923779   -2.5364611 -0.0034592965   -2.7923779    0.2559168   102756 
28500000  0.049433086   -2.7891572   -2.7891572   -2.5341508 -0.010715414   -2.7891572   0.25500636   102738 
28510000  0.049011438   -2.7865919   -2.7865919   -2.5337089 -0.00050438043   -2.7865919   0.25288293   102717 
28520000  0.049576603   -2.7874391   -2.7874391   -2.5315928 -0.0089068387   -2.7874391   0.25584632   102698 
28530000  0.049407605    -2.789929    -2.789929   -2.5349002 -0.0043628975    -2.789929   0.25502882   102676 
28540000  0.049289724   -2.7882753   -2.7882753   -2.5337856 -0.0051682681   -2.7882753   0.25448975   102648 
28550000  0.049052659   -2.7871533   -2.7871533   -2.5338333 -0.0033168711   -2.7871533   0.25332004   102626 
28560000  0.049474744   -2.7852087   -2.7852087   -2.5296666 0.0031110705   -2.7852087   0.25554212   102609 
28570000  0.049222257   -2.7821802   -2.7821802   -2.5278927 -0.0043632482   -2.7821802   0.25428757   102589 
28580000  0.049422624   -2.7764392   -2.7764392   -2.5210941 -0.0033399876   -2.7764392   0.25534509   102580 
28590000   0.04916546   -2.7768247   -2.7768247   -2.5227612 -0.0083581411   -2.7768247   0.25406349   102561 
28600000  0.049170255   -2.7775655   -2.7775655    -2.523393 -0.010023204   -2.7775655   0.25417253   102527 
28610000  0.049032779   -2.7772735   -2.7772735   -2.5237695 -0.0076988658   -2.7772735   0.25350391   102510 
28620000  0.049467182   -2.7799554   -2.7799554   -2.5241282 -0.0019928288   -2.7799554   0.25582718   102479 
28630000  0.049386058    -2.777704    -2.777704   -2.5222665 -0.013456591    -2.777704   0.25543755   102467 
28640000  0.049599185   -2.7748049   -2.7748049     -2.51822 0.00027542606   -2.7748049   0.25658497   102449 
28650000  0.049451663   -2.7756657   -2.7756657   -2.5197989 -0.0045425118   -2.7756657   0.25586677   102431 
28660000  0.049188813   -2.7731476   -2.7731476   -2.5186035 -0.0079554846   -2.7731476   0.25454404   102416 
28670000  0.049263729   -2.7739293   -2.7739293   -2.5189478 -0.010294864   -2.7739293   0.25498151   102396 
28680000  0.049383267     -2.77334     -2.77334   -2.5176948 -0.005523193     -2.77334   0.25564516   102378 
28690000  0.049475321   -2.7742206   -2.7742206   -2.5180638 -0.0081471144   -2.7742206   0.25615673   102364 
28700000  0.048937711   -2.7708821   -2.7708821   -2.5174519 -0.0078478333   -2.7708821   0.25343022   102341 
28710000  0.049057192   -2.7727013   -2.7727013   -2.5185902 -0.0056570599   -2.7727013   0.25411104   102316 
28720000  0.049118312    -2.771695    -2.771695   -2.5172127  0.001683698    -2.771695   0.25448235   102294 
28730000  0.048991373   -2.7717087   -2.7717087   -2.5178344 -0.0082890396   -2.7717087   0.25387432   102274 
28740000   0.04830286   -2.7708439   -2.7708439   -2.5204984 -0.0080101036   -2.7708439   0.25034559   102258 
28750000  0.048519245   -2.7694895   -2.7694895   -2.5179684 -0.0084668309   -2.7694895   0.25152119   102236 
28760000  0.048616701   -2.7681452   -2.7681452   -2.5160818 -0.016047937   -2.7681452   0.25206338   102221 
28770000   0.04915574   -2.7684123   -2.7684123   -2.5135143 -0.013842659   -2.7684123   0.25489804   102205 
28780000   0.04882462   -2.7652921   -2.7652921   -2.5120739 -0.005112744   -2.7652921   0.25321817   102190 
28790000  0.049099441    -2.765776    -2.765776   -2.5110902 -0.0080413245    -2.765776   0.25468584   102173 
28800000  0.048546431   -2.7648421   -2.7648421   -2.5130001 -0.002095261   -2.7648421   0.25184194   102163 
28810000  0.048844669   -2.7642812   -2.7642812   -2.5108598 -0.00095277091   -2.7642812   0.25342135   102150 
28820000  0.048649957   -2.7620059   -2.7620059   -2.5095355 -0.0045932966   -2.7620059   0.25247044   102126 
28830000  0.048851575   -2.7634311   -2.7634311   -2.5098697 -0.015083918   -2.7634311   0.25356143   102108 
28840000  0.048719408   -2.7597596   -2.7597596   -2.5068445 -0.0072794391   -2.7597596   0.25291506   102092 
28850000  0.048764608    -2.762951    -2.762951   -2.5097765 -0.0079587479    -2.762951    0.2531745   102082 
28860000  0.049110028    -2.759706    -2.759706   -2.5046932 0.0026104595    -2.759706   0.25501281   102064 
28870000  0.048729331   -2.7579319   -2.7579319   -2.5048414 -0.002898624   -2.7579319   0.25309052   102042 
28880000  0.048756029   -2.7595944   -2.7595944   -2.5063255 -0.0069543535   -2.7595944    0.2532689   102026 
28890000  0.048615064   -2.7572448   -2.7572448   -2.5046661 -0.0043934319   -2.7572448   0.25257873   102009 
28900000  0.048571832   -2.7560916   -2.7560916    -2.503693 -0.0091474923   -2.7560916   0.25239865   101991 
28910000  0.048267548      -2.7582      -2.7582   -2.5073259 -0.0083211401      -2.7582   0.25087404   101968 
28920000  0.048142907   -2.7596091   -2.7596091   -2.5093338 -0.0022724901   -2.7596091   0.25027531   101948 
28930000  0.048130943   -2.7583535   -2.7583535   -2.5080938 0.00063021428   -2.7583535   0.25025975   101929 
28940000   0.04868959   -2.7596029   -2.7596029   -2.5064161 -0.012839164   -2.7596029   0.25318682   101920 
28950000  0.048213579   -2.7600142   -2.7600142    -2.509251  -0.00221522   -2.7600142   0.25076322   101899 
28960000  0.048171023   -2.7589612   -2.7589612     -2.50838 -0.010777528   -2.7589612   0.25058123   101883 
28970000  0.048371665   -2.7570095   -2.7570095   -2.5053574  -0.00587226   -2.7570095   0.25165212   101872 
28980000  0.048020175   -2.7549821   -2.7549821   -2.5051292 -0.007682834   -2.7549821   0.24985294   101860 
28990000  0.048295628    -2.754474    -2.754474   -2.5031582 -0.0059170642    -2.754474   0.25131575   101848 
29000000  0.048132025   -2.7547043   -2.7547043   -2.5042054 -0.0078504255   -2.7547043   0.25049884   101834 
29010000  0.048433881   -2.7544564   -2.7544564    -2.502347 -0.0048648284   -2.7544564   0.25210944   101818 
29020000  0.048198388   -2.7534374   -2.7534374   -2.5025143 -0.0064260648   -2.7534374   0.25092307   101802 
29030000   0.04852192   -2.7545336   -2.7545336    -2.501894 -0.011636593   -2.7545336   0.25263966   101789 
29040000  0.048182393   -2.7516259   -2.7516259   -2.5007294 -0.0019137619   -2.7516259   0.25089649   101779 
29050000  0.048071792   -2.7513242   -2.7513242   -2.5009643 -0.0035926491   -2.7513242   0.25035992   101763 
29060000  0.047808957   -2.7524559   -2.7524559   -2.5034208 -0.0057330805   -2.7524559   0.24903511   101745 
29070000  0.048313598    -2.753027    -2.753027   -2.5013311 -0.007074593    -2.753027   0.25169593   101732 
29080000  0.047855103   -2.7509409   -2.7509409   -2.5015918 -0.0041058273   -2.7509409   0.24934901   101715 
29090000   0.04793265   -2.7490501   -2.7490501   -2.4992651 -0.0099746756   -2.7490501     0.249785   101702 
29100000  0.048144786   -2.7481975   -2.7481975   -2.4972725 -0.00064010308   -2.7481975   0.25092501   101688 
29110000  0.047744562   -2.7494124   -2.7494124   -2.5005269 -0.010400167   -2.7494124   0.24888559   101669 
29120000  0.048044525    -2.746567    -2.746567   -2.4960833 -0.00036899878    -2.746567   0.25048375   101655 
29130000  0.047788448   -2.7477164   -2.7477164   -2.4985285 -0.0095860186   -2.7477164    0.2491879   101639 
29140000  0.047835162   -2.7450732   -2.7450732   -2.4955975 0.0021574872   -2.7450732   0.24947566   101621 
29150000  0.048009055   -2.7445704   -2.7445704   -2.4941336 -0.0030194891   -2.7445704   0.25043678   101599 
29160000  0.047409277   -2.7419015   -2.7419015   -2.4945569 -0.0079485988   -2.7419015   0.24734459   101584 
29170000  0.047861635   -2.7439221   -2.7439221   -2.4941781 -0.014491903   -2.7439221   0.24974398   101568 
29180000  0.048257929   -2.7435155   -2.7435155   -2.4916466 -0.013613083   -2.7435155   0.25186889   101545 
29190000  0.047859293   -2.7423881   -2.7423881    -2.492558 0.0027048011   -2.7423881   0.24983015   101528 
29200000  0.048008114   -2.7381887   -2.7381887   -2.4875521 -0.011460115   -2.7381887   0.25063663   101516 
29210000  0.047844393   -2.7396596   -2.7396596   -2.4898285 -0.0062436643   -2.7396596   0.24983111   101496 
29220000   0.04778559   -2.7406301   -2.7406301    -2.491074 -0.0085898368   -2.7406301   0.24955602   101483 
29230000  0.047350863   -2.7379173   -2.7379173   -2.4906072 0.0030590784   -2.7379173   0.24731007   101473 
29240000   0.04805817    -2.739629    -2.739629   -2.4885976 0.0018272677    -2.739629   0.25103149   101462 
29250000  0.047893431   -2.7375431   -2.7375431   -2.4873376 -0.0005847205   -2.7375431    0.2502055   101448 
29260000  0.047638366   -2.7346057   -2.7346057   -2.4857033 -0.010455079   -2.7346057   0.24890243   101436 
29270000  0.048184229   -2.7385867   -2.7385867   -2.4867876 -0.0041237991   -2.7385867   0.25179916   101418 
29280000  0.047547366   -2.7350643   -2.7350643   -2.4865663 -0.0060834916   -2.7350643   0.24849802   101407 
29290000  0.047616759   -2.7362311   -2.7362311    -2.487336 -0.0053815152   -2.7362311   0.24889505   101393 
29300000  0.047969045   -2.7360719   -2.7360719   -2.4853009 -0.0025492996   -2.7360719   0.25077109   101379 
29310000  0.047171037   -2.7333382   -2.7333382   -2.4866976 -0.0097306139   -2.7333382   0.24664065   101362 
29320000  0.047685733   -2.7335977   -2.7335977    -2.484229 -0.0093909126   -2.7335977   0.24936871   101347 
29330000  0.047483988   -2.7354982   -2.7354982   -2.4871404 0.0036339155   -2.7354982   0.24835781   101329 
29340000  0.047535433   -2.7331282   -2.7331282   -2.4844694 -0.005234688   -2.7331282   0.24865879   101316 
29350000   0.04725457   -2.7313335   -2.7313335   -2.4841025 -0.0072672324   -2.7313335   0.24723108   101299 
29360000  0.047613697   -2.7286141   -2.7286141   -2.4794696 -0.012179094   -2.7286141   0.24914442   101285 
29370000  0.047504178   -2.7270138   -2.7270138   -2.4784105 -0.0023406372   -2.7270138   0.24860326   101272 
29380000  0.047448104   -2.7300346   -2.7300346   -2.4816979 -0.0050448022   -2.7300346   0.24833678   101261 
29390000  0.047483477   -2.7263556   -2.7263556   -2.4778018 0.0023185081   -2.7263556   0.24855383   101248 
29400000  0.047082874   -2.7279437   -2.7279437   -2.4814552 -0.015888079   -2.7279437   0.24648851   101235 
29410000  0.047502102   -2.7283017   -2.7283017   -2.4795816 -0.0043711298   -2.7283017   0.24872011   101220 
29420000  0.047351665    -2.728605    -2.728605   -2.4806505 -0.005889036    -2.728605   0.24795447   101211 
29430000   0.04781321   -2.7269434   -2.7269434   -2.4765473 -0.0026510302   -2.7269434   0.25039606   101201 
29440000  0.047312029   -2.7253996   -2.7253996   -2.4775719 -0.0074409835   -2.7253996   0.24782772   101178 
29450000  0.046995756   -2.7271163   -2.7271163    -2.480916 -0.0070991567   -2.7271163   0.24620023   101166 
29460000  0.046787625   -2.7242881   -2.7242881   -2.4791322 -0.0066506859   -2.7242881   0.24515592   101147 
29470000  0.046851992   -2.7224112   -2.7224112   -2.4768791 -0.0037239234   -2.7224112   0.24553203   101131 
29480000  0.046961128     -2.72424     -2.72424   -2.4780971 0.0006541791     -2.72424   0.24614291   101115 
29490000  0.046993483   -2.7247179   -2.7247179   -2.4783762 -0.011557215   -2.7247179   0.24634173   101103 
29500000  0.046854363   -2.7217141   -2.7217141   -2.4760627 -0.015996396   -2.7217141   0.24565133   101087 
29510000  0.046808446   -2.7262338   -2.7262338   -2.4808062 -0.0053181413   -2.7262338   0.24542759   101080 
29520000  0.047061584    -2.724799    -2.724799   -2.4780027 -0.003117429    -2.724799   0.24679636   101063 
29530000  0.046927886   -2.7205413   -2.7205413   -2.4744242 -0.010518109   -2.7205413   0.24611715   101054 
29540000  0.047155653   -2.7191283   -2.7191283    -2.471797 -0.010504038   -2.7191283   0.24733127   101046 
29550000  0.047013901   -2.7194149   -2.7194149    -2.472788 0.0061592129   -2.7194149   0.24662684   101030 
29560000  0.047052655   -2.7160422   -2.7160422   -2.4691804 -0.0051095629   -2.7160422    0.2468619   101017 
29570000  0.047145997   -2.7201528   -2.7201528   -2.4727766 -0.0079762282   -2.7201528   0.24737611   101007 
29580000  0.046257562    -2.720544    -2.720544   -2.4777959  -0.01119331    -2.720544   0.24274812   100993 
29590000  0.046486864   -2.7194895   -2.7194895   -2.4755091 -0.0027564813   -2.7194895   0.24398042   100981 
29600000  0.046849883    -2.716682    -2.716682   -2.4707671 -0.0032875316    -2.716682   0.24591491   100969 
29610000  0.046710051   -2.7176609   -2.7176609   -2.4724314 -0.0074818418   -2.7176609    0.2452295   100949 
29620000  0.046773196   -2.7145353   -2.7145353   -2.4689304 9.4730711e-05   -2.7145353   0.24560481   100931 
29630000  0.047040145   -2.7152846   -2.7152846   -2.4682487 -0.0013073027   -2.7152846   0.24703592   100919 
29640000  0.046887388   -2.7127513   -2.7127513   -2.4664907 -0.0073765268   -2.7127513   0.24626055   100908 
29650000  0.046687723   -2.7133183   -2.7133183   -2.4680797  0.002616156   -2.7133183    0.2452386   100897 
29660000    0.0468683   -2.7113616   -2.7113616   -2.4651501 -0.0052106597   -2.7113616   0.24621153   100887 
29670000   0.04639804   -2.7122871   -2.7122871    -2.468517 -0.010244774   -2.7122871   0.24377013   100875 
29680000  0.047080425   -2.7128089   -2.7128089   -2.4654045 -0.009237125   -2.7128089   0.24740435   100855 
29690000  0.046821145   -2.7118029   -2.7118029   -2.4657317 -0.0070235604   -2.7118029   0.24607114   100843 
29700000  0.046479295   -2.7071865   -2.7071865   -2.4628926 -0.0076443483   -2.7071865    0.2442939   100835 
29710000  0.046746125   -2.7084188   -2.7084188   -2.4626932 -0.0060466534   -2.7084188    0.2457256   100823 
29720000  0.046829253   -2.7092727   -2.7092727   -2.4630638 0.0078142918   -2.7092727   0.24620896   100804 
29730000  0.046660333    -2.706604    -2.706604   -2.4612442 -0.0079236119    -2.706604    0.2453598   100788 
29740000  0.046529946   -2.7033075   -2.7033075   -2.4585969 -0.0059337536   -2.7033075   0.24471058   100773 
29750000  0.046845583   -2.7059622   -2.7059622   -2.4595672 -0.012512978   -2.7059622   0.24639504   100763 
29760000  0.046635072   -2.7071126   -2.7071126   -2.4617834 0.0001335932   -2.7071126    0.2453292   100746 
29770000  0.046657441   -2.7070754   -2.7070754   -2.4615944 -0.0029776633   -2.7070754   0.24548098   100732 
29780000  0.046566458   -2.7067323   -2.7067323    -2.461713 -0.0040634197   -2.7067323   0.24501932   100725 
29790000   0.04674013   -2.7044267   -2.7044267   -2.4584667 -0.0092534161   -2.7044267   0.24595999   100714 
29800000  0.046487203    -2.705124    -2.705124   -2.4604634 -0.0091087777    -2.705124    0.2446606   100701 
29810000     0.046354   -2.7017481   -2.7017481   -2.4577522 0.0054140665   -2.7017481    0.2439959   100686 
29820000  0.046579433   -2.7036463   -2.7036463    -2.458437 -0.012270374   -2.7036463   0.24520931   100675 
29830000  0.046206062   -2.7013512   -2.7013512   -2.4580881 -0.010567655   -2.7013512   0.24326309   100667 
29840000  0.046052497   -2.7026205   -2.7026205   -2.4601321 -0.0039520883   -2.7026205   0.24248834   100653 
29850000  0.046628897   -2.7036944   -2.7036944   -2.4581467 0.00051394904   -2.7036944   0.24554776   100643 
29860000  0.046339696   -2.7018889   -2.7018889   -2.4578374  0.002350155   -2.7018889    0.2440515   100632 
29870000  0.046182866   -2.6992024   -2.6992024   -2.4559527 -0.0065442849   -2.6992024   0.24324971   100622 
29880000  0.046210418    -2.701615    -2.701615   -2.4581912 -0.0068463339    -2.701615   0.24342386   100610 
29890000  0.046097343   -2.7008329   -2.7008329   -2.4579612 -0.0019307476   -2.7008329   0.24287167   100592 
29900000  0.045827574   -2.6989532   -2.6989532   -2.4574717 -0.0069851137   -2.6989532   0.24148155   100579 
29910000  0.046306872   -2.6972873   -2.6972873   -2.4532462 -0.0050224166   -2.6972873   0.24404111   100565 
29920000  0.046202052   -2.7006973   -2.7006973   -2.4571747 -0.011805707   -2.7006973    0.2435226   100551 
29930000  0.046056039   -2.6955783   -2.6955783   -2.4527915 -0.0073518373   -2.6955783   0.24278679   100537 
29940000  0.046166986   -2.6950488   -2.6950488   -2.4516481 0.00040368488   -2.6950488   0.24340071   100525 
29950000  0.045973762   -2.6961331   -2.6961331   -2.4537005 -0.0047891642   -2.6961331   0.24243264   100504 
29960000  0.045743176   -2.6960568   -2.6960568   -2.4548089  -0.01151783   -2.6960568    0.2412479   100491 
29970000  0.045921136    -2.695851    -2.695851   -2.4536405 -0.0083659495    -2.695851   0.24221056   100481 
29980000  0.046222375   -2.6948808   -2.6948808   -2.4510401 0.0039283386   -2.6948808   0.24384069   100464 
29990000  0.045839031   -2.6934773   -2.6934773   -2.4515963 -0.0022572272   -2.6934773   0.24188101   100438 
30000000  0.046012203   -2.6941787   -2.6941787   -2.4513549 -0.0069440779   -2.6941787   0.24282381   100426 
Loop time of 78590 on 336 procs for 30000000 steps with 100426 atoms

Performance: 164906.497 tau/day, 381.728 timesteps/s
87.8% CPU use with 336 MPI tasks x 1 OpenMP threads

MPI task timing breakdown:
Section |  min time  |  avg time  |  max time  |%varavg|  %CPU | %total
-----------------------------------------------------------------------
Pair    | 511.09     | 7539.8     | 18799      |3988.0 |  92.6 |  9.59
Bond    | 18.793     | 20.011     | 21.952     |  11.6 | 100.0 |  0.03
Neigh   | 1618.7     | 11057      | 27081      |4387.4 |  98.2 | 14.07
Comm    | 18712      | 34132      | 60178      |4753.6 |  86.3 | 43.43
Output  | 2912.5     | 3388.8     | 3844.5     | 384.4 |  82.3 |  4.31
Modify  | 7057.5     | 21789      | 49397      |4578.9 |  85.8 | 27.73
Other   |            | 663.6      |            |       |       |  0.84

Nlocal:        298.887 ave        1588 max           0 min
Histogram: 104 76 95 47 9 3 0 1 0 1
Nghost:        4206.76 ave        7573 max           4 min
Histogram: 15 9 24 38 45 54 48 48 36 19
Neighs:        6645.53 ave       28579 max           0 min
Histogram: 86 67 79 47 35 11 6 3 1 1
FullNghs:      13291.1 ave       63532 max           0 min
Histogram: 92 74 86 49 19 11 2 2 0 1

Total # of neighbors = 4465794
Ave neighs/atom = 44.468504
Ave special neighs/atom = 0.0000000
Neighbor list builds = 3042849
Dangerous builds = 1496643
Total wall time: 21:49:56
