LAMMPS (3 Mar 2020)
  using 1 OpenMP thread(s) per MPI task
#Read the equilibrated lj fluid and add nanocubes



units           lj
atom_style      full
atom_modify     map array first cubes
dimension       3
boundary        p p f
pair_style      lj/cut/opt 4.4

variable        sigma           equal 1.0
variable        epsilon         equal 1.0
read_data	data.restart
Reading data file ...
  orthogonal box = (0 0 0) to (80 80 160)
  2 by 4 by 8 MPI processor grid
  reading atoms ...
  489200 atoms
  reading velocities ...
  489200 velocities
Finding 1-2 1-3 1-4 neighbors ...
  special bond factors lj:   0          0          0         
  special bond factors coul: 0          0          0         
  0 = max # of 1-2 neighbors
  0 = max # of 1-3 neighbors
  0 = max # of 1-4 neighbors
  1 = max # of special neighbors
  special bonds CPU = 7.38787 secs
  read_data CPU = 9.04718 secs

group		solvent type 1
489200 atoms in group solvent

read_data	data.cubes group cubes add append
Reading data file ...
  orthogonal box = (0 0 0) to (80 80 160)
  2 by 4 by 8 MPI processor grid
  reading atoms ...
  73152 atoms
  reading velocities ...
  73152 velocities
Finding 1-2 1-3 1-4 neighbors ...
  special bond factors lj:   0          0          0         
  special bond factors coul: 0          0          0         
  0 = max # of 1-2 neighbors
  0 = max # of 1-3 neighbors
  0 = max # of 1-4 neighbors
  1 = max # of special neighbors
  special bonds CPU = 0.0152643 secs
  read_data CPU = 0.196295 secs

neighbor      0.4 bin
neigh_modify  exclude molecule/intra cubes

pair_modify   shift yes
pair_coeff    1 1 1.0 1.0 4.4 #solvent
pair_coeff    2 2 0.6 1.0 2.2 #np
pair_coeff    3 3 0.0 0.0 0.0 #dummy
pair_coeff    2 3 0.0 0.0 0.0 #np dummy
pair_coeff    1 2 0.8 1.0 4.4 #np solvent
pair_coeff    1 3 0.0 0.0 0.0 #dummy solvent

delete_atoms  overlap 1.0 solvent cubes
System init for delete_atoms ...
Neighbor list info ...
  update every 1 steps, delay 10 steps, check yes
  max neighbors/atom: 2000, page size: 100000
  master list distance cutoff = 4.8
  ghost atom cutoff = 4.8
  binsize = 2.4, bins = 34 34 67
  2 neighbor lists, perpetual/occasional/extra = 1 1 0
  (1) command delete_atoms, occasional
      attributes: full, newton on
      pair build: full/bin
      stencil: full/bin/3d
      bin: standard
  (2) pair lj/cut/opt, perpetual
      attributes: half, newton on
      pair build: half/bin/newton
      stencil: half/bin/3d/newton
      bin: standard
WARNING: Delete_atoms cutoff > minimum neighbor cutoff (src/delete_atoms.cpp:338)
WARNING: Ignoring 'compress yes' for molecular system (src/delete_atoms.cpp:125)
Deleted 40261 atoms, new total = 522091

comm_modify     cutoff 6.95

reset_timestep 	0
balance 	1.05 shift z 10 1.05
Balancing ...
Neighbor list info ...
  update every 1 steps, delay 10 steps, check yes
  max neighbors/atom: 2000, page size: 100000
  master list distance cutoff = 4.8
  ghost atom cutoff = 6.95
  binsize = 2.4, bins = 34 34 67
  1 neighbor lists, perpetual/occasional/extra = 1 0 0
  (1) pair lj/cut/opt, perpetual
      attributes: half, newton on
      pair build: half/bin/newton
      stencil: half/bin/3d/newton
      bin: standard
  rebalancing time: 0.0160505 seconds
  iteration count = 5
  initial/final max load/proc = 12419 8813
  initial/final imbalance factor = 1.52237 1.08033
  x cuts: 0 0.5 1
  y cuts: 0 0.25 0.5 0.75 1
  z cuts: 0 0.0820312 0.167969 0.253906 0.335938 0.429688 0.507812 0.605469 1

####################### WALLS ###########################

variable       epsilonWall equal 2*${epsilon}
variable       epsilonWall equal 2*1

variable       cutoffTop   equal   0.7147*${sigma}
variable       cutoffTop   equal   0.7147*1

variable       cutoffLow   equal   3*${sigma}
variable       cutoffLow   equal   3*1

region         lowWall block EDGE EDGE EDGE EDGE EDGE 2

delete_atoms   region lowWall
WARNING: Ignoring 'compress yes' for molecular system (src/delete_atoms.cpp:125)
Deleted 6661 atoms, new total = 515430



fix            topWall all wall/lj93 zhi EDGE 	       ${epsilonWall} ${sigma} ${cutoffTop} units box
fix            topWall all wall/lj93 zhi EDGE 	       2 ${sigma} ${cutoffTop} units box
fix            topWall all wall/lj93 zhi EDGE 	       2 1 ${cutoffTop} units box
fix            topWall all wall/lj93 zhi EDGE 	       2 1 0.7147 units box

fix            lowWall all wall/lj93 zlo EDGE                ${epsilonWall} ${sigma} ${cutoffLow} units box
fix            lowWall all wall/lj93 zlo EDGE                2 ${sigma} ${cutoffLow} units box
fix            lowWall all wall/lj93 zlo EDGE                2 1 ${cutoffLow} units box
fix            lowWall all wall/lj93 zlo EDGE                2 1 3 units box


######################  FIXES ############################


fix             1 cubes rigid/nvt/small molecule temp 1.0 1.0 0.25
  create bodies CPU = 0.0153441 secs
64 rigid bodies with 73152 atoms
  6.94564 = max distance from body owner to body atom

fix             2 solvent nve


## Thermostat


region          regthermo block EDGE EDGE EDGE EDGE 0 20

group           thermo dynamic solvent region regthermo every 1000
dynamic group thermo defined

fix             3 thermo langevin 1.0 1.0 0.1 156453




#### Load balancing

fix             bal all balance 1000 1.05 shift z 10 1.05

############### Diagnostics and computes ###################
#compute        com cube          rigid/local   1 mol x y z
#compute        quat cube         rigid/local   1 mol quatw quati quatj quatk

thermo          1000
thermo_style    custom step temp epair evdwl etotal press pe ke vol

dump            1 all custom 100000 dump.lammpstrj id mol type x y z
dump            2 all image 10000 image.*.png type type

dump_modify     2 pad 8


dump		image cubes image 10000 image.*.png type type

dump_modify	2 pad 8

dump            3 all movie 5000 movie.avi type type
#dump           com cube local 1000 dump.*.xyz c_com[*]
#dump           quat cube      local 1000 dump.*.quat c_quat[*]


restart         500000 restart.dat
timestep        0.0025
timer           full
New timer settings: style=full  mode=nosync  timeout=off

run            1000000
Setting up Verlet run ...
  Unit style    : lj
  Current step  : 0
  Time step     : 0.0025
Per MPI rank memory allocation (min/avg/max) = 32.29 | 41.55 | 45.25 Mbytes
Step Temp E_pair E_vdwl TotEng Press PotEng KinEng Volume 
       0   0.98761916   -3.9573298   -3.9573298   -2.6857866 -0.012303543   -3.9573298    1.2715431      1024000 
    1000   0.98584534   -3.9494822   -3.9494822   -2.6802228 -0.010842144   -3.9494822    1.2692594      1024000 
    2000   0.98612592   -3.9466382   -3.9466382   -2.6770176 -0.015049554   -3.9466382    1.2696206      1024000 
    3000   0.98679146   -3.9431438   -3.9431438   -2.6726663 -0.010225366   -3.9431438    1.2704775      1024000 
    4000   0.98703628   -3.9431381   -3.9431381   -2.6723454 -0.0041545222   -3.9431381    1.2707927      1024000 
    5000    0.9888111   -3.9431552   -3.9431552   -2.6700775 0.0092506249   -3.9431552    1.2730777      1024000 
    6000   0.99065256   -3.9454847   -3.9454847   -2.6700361  0.010869602   -3.9454847    1.2754486      1024000 
    7000   0.99460907   -3.9485611   -3.9485611   -2.6680186 0.0053140128   -3.9485611    1.2805425      1024000 
    8000   0.99536473    -3.950151    -3.950151   -2.6686355 0.0056905349    -3.950151    1.2815154      1024000 
    9000    0.9966426   -3.9535249   -3.9535249   -2.6703642  0.014545121   -3.9535249    1.2831607      1024000 
   10000   0.99691191   -3.9510085   -3.9510085    -2.667501  0.022504199   -3.9510085    1.2835074      1024000 
   11000   0.99930021   -3.9545434   -3.9545434   -2.6679611  0.031387565   -3.9545434    1.2865823      1024000 
   12000   0.99889823   -3.9556959   -3.9556959   -2.6696311  0.038811022   -3.9556959    1.2860648      1024000 
   13000   0.99920224   -3.9585278   -3.9585278   -2.6720716  0.022279159   -3.9585278    1.2864562      1024000 
   14000    1.0002063   -3.9602787   -3.9602787   -2.6725298  0.031337254   -3.9602787    1.2877488      1024000 
   15000    1.0012382   -3.9632476   -3.9632476   -2.6741701  0.033742466   -3.9632476    1.2890775      1024000 
   16000    1.0001966   -3.9622766   -3.9622766   -2.6745402   0.03077921   -3.9622766    1.2877363      1024000 
   17000     1.002522   -3.9666518   -3.9666518   -2.6759215  0.038638454   -3.9666518    1.2907303      1024000 
   18000    1.0023206   -3.9662009   -3.9662009   -2.6757299  0.044362605   -3.9662009     1.290471      1024000 
   19000    1.0006321   -3.9659392   -3.9659392   -2.6776421   0.05097533   -3.9659392    1.2882971      1024000 
   20000    1.0045997   -3.9688148   -3.9688148   -2.6754095  0.055866202   -3.9688148    1.2934053      1024000 
   21000    1.0021788   -3.9673396   -3.9673396   -2.6770512  0.054404402   -3.9673396    1.2902885      1024000 
   22000    1.0032492   -3.9697447   -3.9697447   -2.6780781   0.05449003   -3.9697447    1.2916665      1024000 
   23000    1.0039202   -3.9710791   -3.9710791   -2.6785488  0.048508638   -3.9710791    1.2925304      1024000 
   24000     1.002784   -3.9695169   -3.9695169   -2.6784492  0.051284704   -3.9695169    1.2910677      1024000 
   25000    1.0023561   -3.9691534   -3.9691534   -2.6786366  0.062743801   -3.9691534    1.2905167      1024000 
   26000    1.0016707   -3.9702618   -3.9702618   -2.6806274  0.053416978   -3.9702618    1.2896343      1024000 
   27000    1.0009297    -3.968553    -3.968553   -2.6798727  0.048875545    -3.968553    1.2886803      1024000 
   28000   0.99777802   -3.9665787   -3.9665787   -2.6819562  0.045094278   -3.9665787    1.2846225      1024000 
   29000   0.99776292   -3.9664751   -3.9664751    -2.681872  0.031630126   -3.9664751    1.2846031      1024000 
   30000    0.9967006   -3.9654041   -3.9654041   -2.6821687  0.025750769   -3.9654041    1.2832353      1024000 
   31000   0.99671854   -3.9645236   -3.9645236   -2.6812652  0.031474998   -3.9645236    1.2832584      1024000 
   32000   0.99642888   -3.9641499   -3.9641499   -2.6812644  0.040550068   -3.9641499    1.2828855      1024000 
   33000   0.99457533   -3.9619757   -3.9619757   -2.6814766  0.032445467   -3.9619757    1.2804991      1024000 
   34000   0.99601293   -3.9635919   -3.9635919   -2.6812419  0.026644632   -3.9635919      1.28235      1024000 
   35000   0.99536414   -3.9616089   -3.9616089   -2.6800942  0.032135426   -3.9616089    1.2815147      1024000 
   36000   0.99574409   -3.9607209   -3.9607209   -2.6787171  0.023930238   -3.9607209    1.2820039      1024000 
   37000   0.99446709   -3.9597362   -3.9597362   -2.6793764  0.018244023   -3.9597362    1.2803597      1024000 
   38000   0.99258279   -3.9557765   -3.9557765   -2.6778427  0.022586405   -3.9557765    1.2779337      1024000 
   39000   0.99518718   -3.9582061   -3.9582061   -2.6769193  0.016833604   -3.9582061    1.2812868      1024000 
   40000   0.99358352    -3.956875    -3.956875   -2.6776529  0.014766898    -3.956875    1.2792222      1024000 
   41000   0.99272415   -3.9572331   -3.9572331   -2.6791173 0.0072509174   -3.9572331    1.2781157      1024000 
   42000   0.99309247   -3.9559106   -3.9559106   -2.6773207  0.012022872   -3.9559106    1.2785899      1024000 
   43000   0.99301627   -3.9559452   -3.9559452   -2.6774534  0.012479581   -3.9559452    1.2784918      1024000 
   44000   0.99334768   -3.9578207   -3.9578207   -2.6789022  0.021901807   -3.9578207    1.2789185      1024000 
   45000   0.99329936   -3.9558676   -3.9558676   -2.6770113  0.021069277   -3.9558676    1.2788563      1024000 
   46000   0.99191503   -3.9557546   -3.9557546   -2.6786806  0.022359992   -3.9557546     1.277074      1024000 
   47000   0.99246417    -3.955908    -3.955908    -2.678127  0.027882202    -3.955908     1.277781      1024000 
   48000   0.99531129   -3.9594898   -3.9594898   -2.6780432  0.019140028   -3.9594898    1.2814466      1024000 
   49000   0.99501275   -3.9595055   -3.9595055   -2.6784432  0.025549635   -3.9595055    1.2810623      1024000 
   50000   0.99489907   -3.9599473   -3.9599473   -2.6790314    0.0204521   -3.9599473    1.2809159      1024000 
   51000   0.99435926   -3.9608251   -3.9608251   -2.6806042   0.02323564   -3.9608251    1.2802209      1024000 
   52000   0.99533347   -3.9625362   -3.9625362    -2.681061  0.028626299   -3.9625362    1.2814752      1024000 
   53000   0.99644223    -3.962974    -3.962974   -2.6800713  0.027378067    -3.962974    1.2829027      1024000 
   54000   0.99583574   -3.9633163   -3.9633163   -2.6811944  0.030758243   -3.9633163    1.2821219      1024000 
   55000   0.99595482   -3.9639799   -3.9639799   -2.6817047  0.028900552   -3.9639799    1.2822752      1024000 
   56000   0.99541809   -3.9653643   -3.9653643   -2.6837802  0.026203611   -3.9653643    1.2815841      1024000 
   57000   0.99745266   -3.9656318   -3.9656318   -2.6814282  0.036812723   -3.9656318    1.2842036      1024000 
   58000   0.99820309   -3.9692694   -3.9692694   -2.6840997   0.04197397   -3.9692694    1.2851698      1024000 
   59000   0.99778004    -3.969624    -3.969624   -2.6849989  0.033372852    -3.969624    1.2846251      1024000 
   60000   0.99745539   -3.9689223   -3.9689223   -2.6847152  0.042141143   -3.9689223    1.2842071      1024000 
   61000   0.99793509   -3.9705688   -3.9705688    -2.685744  0.041245117   -3.9705688    1.2848247      1024000 
   62000   0.99640723   -3.9708315   -3.9708315   -2.6879738  0.044957769   -3.9708315    1.2828576      1024000 
   63000   0.99872869   -3.9731022   -3.9731022   -2.6872557  0.032550588   -3.9731022    1.2858465      1024000 
   64000   0.99730153   -3.9726199   -3.9726199   -2.6886108  0.048634564   -3.9726199     1.284009      1024000 
   65000   0.99741562   -3.9735074   -3.9735074   -2.6893514  0.038127767   -3.9735074    1.2841559      1024000 
   66000   0.99729704   -3.9740571   -3.9740571   -2.6900539   0.03860976   -3.9740571    1.2840032      1024000 
   67000   0.99691459    -3.973163    -3.973163   -2.6896522  0.034047153    -3.973163    1.2835109      1024000 
   68000   0.99566856   -3.9735092   -3.9735092   -2.6916026  0.032845477   -3.9735092    1.2819066      1024000 
   69000   0.99601489   -3.9732082   -3.9732082   -2.6908557  0.043758412   -3.9732082    1.2823525      1024000 
   70000   0.99801502   -3.9743518   -3.9743518   -2.6894241   0.02986894   -3.9743518    1.2849276      1024000 
   71000   0.99687144   -3.9731067   -3.9731067   -2.6896514  0.036267361   -3.9731067    1.2834553      1024000 
   72000   0.99585157   -3.9729792   -3.9729792    -2.690837  0.041411693   -3.9729792    1.2821422      1024000 
   73000   0.99808006   -3.9752293   -3.9752293    -2.690218  0.033009666   -3.9752293    1.2850114      1024000 
   74000   0.99516256   -3.9730339   -3.9730339   -2.6917788   0.03305238   -3.9730339    1.2812551      1024000 
   75000   0.99457741   -3.9727946   -3.9727946   -2.6922929   0.03240406   -3.9727946    1.2805018      1024000 
   76000   0.99371423   -3.9733658   -3.9733658   -2.6939754  0.029091783   -3.9733658    1.2793904      1024000 
   77000    0.9952195   -3.9734631   -3.9734631   -2.6921347   0.03560317   -3.9734631    1.2813285      1024000 
   78000   0.99480129   -3.9738951   -3.9738951   -2.6931051  0.033993657   -3.9738951      1.28079      1024000 
   79000   0.99437758   -3.9707301   -3.9707301   -2.6904856  0.039277454   -3.9707301    1.2802445      1024000 
   80000   0.99223567   -3.9722442   -3.9722442   -2.6947574  0.031009023   -3.9722442    1.2774868      1024000 
   81000   0.99465997   -3.9726017   -3.9726017   -2.6919936  0.015799622   -3.9726017    1.2806081      1024000 
   82000   0.99352149   -3.9720245   -3.9720245   -2.6928822  0.023148069   -3.9720245    1.2791423      1024000 
   83000    0.9927653   -3.9718942   -3.9718942   -2.6937255  0.032743269   -3.9718942    1.2781687      1024000 
   84000   0.99331622   -3.9724259   -3.9724259   -2.6935479  0.021351499   -3.9724259     1.278878      1024000 
   85000   0.99424652   -3.9728747   -3.9728747   -2.6927989  0.031678301   -3.9728747    1.2800758      1024000 
   86000   0.99202832   -3.9714086   -3.9714086   -2.6941887   0.02558314   -3.9714086    1.2772199      1024000 
   87000   0.99255736   -3.9717595   -3.9717595   -2.6938585  0.032848211   -3.9717595     1.277901      1024000 
   88000   0.99247282   -3.9737884   -3.9737884   -2.6959962  0.031999119   -3.9737884    1.2777921      1024000 
   89000   0.99275009   -3.9742942   -3.9742942   -2.6961451  0.024429359   -3.9742942    1.2781491      1024000 
   90000   0.99459133   -3.9747199   -3.9747199   -2.6942002  0.033321927   -3.9747199    1.2805197      1024000 
   91000   0.99361016   -3.9743127   -3.9743127   -2.6950562   0.03316819   -3.9743127    1.2792564      1024000 
   92000   0.99418747   -3.9742567   -3.9742567    -2.694257  0.029875639   -3.9742567    1.2799997      1024000 
   93000   0.99658019   -3.9768104   -3.9768104   -2.6937301  0.029212436   -3.9768104    1.2830803      1024000 
   94000   0.99468804   -3.9769063   -3.9769063    -2.696262  0.029335382   -3.9769063    1.2806442      1024000 
   95000   0.99394791   -3.9768579   -3.9768579   -2.6971666  0.041417357   -3.9768579    1.2796913      1024000 
   96000    0.9936164   -3.9775628   -3.9775628   -2.6982983   0.03220611   -3.9775628    1.2792645      1024000 
   97000   0.99444331   -3.9782709   -3.9782709   -2.6979418   0.03930003   -3.9782709    1.2803291      1024000 
   98000   0.99486697   -3.9793355   -3.9793355   -2.6984609  0.045713535   -3.9793355    1.2808746      1024000 
   99000   0.99393002    -3.980475    -3.980475   -2.7008068  0.040458393    -3.980475    1.2796683      1024000 
  100000   0.99463447   -3.9817304   -3.9817304   -2.7011552  0.032667212   -3.9817304    1.2805752      1024000 
  101000   0.99559282   -3.9829538   -3.9829538   -2.7011447  0.035004075   -3.9829538    1.2818091      1024000 
  102000   0.99474284    -3.980843    -3.980843   -2.7001282  0.049999178    -3.980843    1.2807148      1024000 
  103000   0.99661345   -3.9831848   -3.9831848   -2.7000617  0.037449358   -3.9831848    1.2831231      1024000 
  104000   0.99513171    -3.983291    -3.983291   -2.7020756  0.043119619    -3.983291    1.2812154      1024000 
  105000    0.9976023   -3.9848826   -3.9848826   -2.7004863  0.048696292   -3.9848826    1.2843963      1024000 
  106000   0.99522314   -3.9826682   -3.9826682   -2.7013351  0.058283649   -3.9826682    1.2813331      1024000 
  107000   0.99622257   -3.9850408   -3.9850408   -2.7024209  0.039239563   -3.9850408    1.2826199      1024000 
  108000   0.99371484   -3.9839949   -3.9839949   -2.7046037  0.040296443   -3.9839949    1.2793912      1024000 
  109000   0.99622347   -3.9862072   -3.9862072   -2.7035862   0.04049088   -3.9862072    1.2826211      1024000 
  110000   0.99477165   -3.9850006   -3.9850006   -2.7042487  0.043701058   -3.9850006    1.2807519      1024000 
  111000   0.99547928   -3.9869378   -3.9869378   -2.7052749  0.042124264   -3.9869378    1.2816629      1024000 
  112000   0.99472297   -3.9834561   -3.9834561   -2.7027669   0.04594822   -3.9834561    1.2806892      1024000 
  113000   0.99594604   -3.9851809   -3.9851809   -2.7029171  0.039250068   -3.9851809    1.2822639      1024000 
  114000   0.99389221    -3.983523    -3.983523   -2.7039034  0.039231102    -3.983523    1.2796196      1024000 
  115000   0.99402749   -3.9846819   -3.9846819   -2.7048881  0.027904369   -3.9846819    1.2797938      1024000 
  116000   0.99403958   -3.9833407   -3.9833407   -2.7035314  0.043340035   -3.9833407    1.2798093      1024000 
  117000   0.99333959   -3.9822168   -3.9822168   -2.7033087  0.047566974   -3.9822168    1.2789081      1024000 
  118000     0.992626    -3.982976    -3.982976   -2.7049866  0.043161409    -3.982976    1.2779894      1024000 
  119000   0.99275921   -3.9847349   -3.9847349    -2.706574  0.032729627   -3.9847349    1.2781609      1024000 
  120000   0.99155149   -3.9836381   -3.9836381   -2.7070322  0.041594646   -3.9836381    1.2766059      1024000 
  121000   0.99293256   -3.9832822   -3.9832822   -2.7048982   0.03930672   -3.9832822    1.2783841      1024000 
  122000   0.99199006   -3.9832194   -3.9832194   -2.7060488  0.041719364   -3.9832194    1.2771706      1024000 
  123000   0.99303092   -3.9833792   -3.9833792   -2.7048685  0.032221704   -3.9833792    1.2785107      1024000 
  124000   0.99176324   -3.9840891   -3.9840891   -2.7072105  0.033202581   -3.9840891    1.2768786      1024000 
  125000   0.99229014   -3.9842661   -3.9842661   -2.7067091  0.039090518   -3.9842661     1.277557      1024000 
  126000   0.99093998   -3.9832185   -3.9832185   -2.7073998  0.035988081   -3.9832185    1.2758186      1024000 
  127000    0.9925801   -3.9848098   -3.9848098   -2.7068795  0.040240075   -3.9848098    1.2779303      1024000 
  128000   0.99154504   -3.9837629   -3.9837629   -2.7071653  0.043379844   -3.9837629    1.2765976      1024000 
  129000   0.99344601    -3.985471    -3.985471   -2.7064259  0.038845125    -3.985471    1.2790451      1024000 
  130000   0.99300041   -3.9875246   -3.9875246   -2.7090532  0.036224955   -3.9875246    1.2784714      1024000 
  131000   0.99378781   -3.9873675   -3.9873675   -2.7078824  0.037933471   -3.9873675    1.2794852      1024000 
  132000   0.99338196   -3.9885681   -3.9885681   -2.7096055  0.044043867   -3.9885681    1.2789627      1024000 
  133000   0.99571655    -3.989253    -3.989253   -2.7072846  0.030353267    -3.989253    1.2819684      1024000 
  134000   0.99311207   -3.9887174   -3.9887174   -2.7101023  0.038163945   -3.9887174    1.2786152      1024000 
  135000   0.99287085   -3.9878228   -3.9878228   -2.7095182  0.046462015   -3.9878228    1.2783046      1024000 
  136000   0.99312964   -3.9891442   -3.9891442   -2.7105064    0.0478409   -3.9891442    1.2786378      1024000 
  137000     0.992718   -3.9904793   -3.9904793   -2.7123715  0.037696068   -3.9904793    1.2781078      1024000 
  138000   0.99268792   -3.9889948   -3.9889948   -2.7109257  0.039686154   -3.9889948    1.2780691      1024000 
  139000    0.9915421   -3.9902042   -3.9902042   -2.7136103  0.054875213   -3.9902042    1.2765939      1024000 
  140000   0.99220936   -3.9914569   -3.9914569   -2.7140039  0.051011054   -3.9914569    1.2774529      1024000 
  141000    0.9927551   -3.9917368   -3.9917368   -2.7135812  0.044208896   -3.9917368    1.2781556      1024000 
  142000   0.99287737   -3.9920239   -3.9920239   -2.7137109  0.046188769   -3.9920239     1.278313      1024000 
  143000   0.99498609    -3.994716    -3.994716   -2.7136881  0.050916415    -3.994716    1.2810279      1024000 
  144000   0.99388214   -3.9944381   -3.9944381   -2.7148315   0.05202146   -3.9944381    1.2796066      1024000 
  145000   0.99452467   -3.9947551   -3.9947551   -2.7143212  0.048579254   -3.9947551    1.2804339      1024000 
  146000   0.99590297   -3.9964759   -3.9964759   -2.7142674  0.051069283   -3.9964759    1.2822084      1024000 
  147000   0.99371065   -3.9941859   -3.9941859   -2.7148001  0.051172725   -3.9941859    1.2793858      1024000 
  148000   0.99496673   -3.9966434   -3.9966434   -2.7156404  0.049267251   -3.9966434     1.281003      1024000 
  149000   0.99343977   -3.9944329   -3.9944329   -2.7153959  0.057915695   -3.9944329    1.2790371      1024000 
  150000   0.99429209   -3.9966753   -3.9966753   -2.7165408  0.060177752   -3.9966753    1.2801344      1024000 
  151000   0.99357703   -3.9965866   -3.9965866   -2.7173728  0.050086875   -3.9965866    1.2792138      1024000 
  152000   0.99257185   -3.9948938   -3.9948938   -2.7169741   0.06166725   -3.9948938    1.2779196      1024000 
  153000   0.99359721   -3.9958068   -3.9958068   -2.7165671  0.054029965   -3.9958068    1.2792398      1024000 
  154000    0.9932023   -3.9961107   -3.9961107   -2.7173794  0.055534828   -3.9961107    1.2787313      1024000 
  155000   0.99462892   -3.9967858   -3.9967858   -2.7162177   0.04651995   -3.9967858    1.2805681      1024000 
  156000   0.99379382    -3.994752    -3.994752   -2.7152591  0.050757271    -3.994752    1.2794929      1024000 
  157000   0.99281478   -3.9957518   -3.9957518   -2.7175193  0.054770015   -3.9957518    1.2782324      1024000 
  158000   0.99347594   -3.9953746   -3.9953746   -2.7162909  0.050816647   -3.9953746    1.2790836      1024000 
  159000   0.99443882   -3.9969303   -3.9969303   -2.7166069  0.046277589   -3.9969303    1.2803233      1024000 
  160000   0.99304071   -3.9970374   -3.9970374   -2.7185141  0.045067928   -3.9970374    1.2785233      1024000 
  161000     0.993285   -3.9969993   -3.9969993   -2.7181615  0.042662814   -3.9969993    1.2788378      1024000 
  162000   0.99265496   -3.9959756   -3.9959756    -2.717949  0.046037297   -3.9959756    1.2780266      1024000 
  163000   0.99191493   -3.9949023   -3.9949023   -2.7178284  0.043319215   -3.9949023    1.2770739      1024000 
  164000   0.99097331   -3.9948227   -3.9948227   -2.7189611   0.03709715   -3.9948227    1.2758616      1024000 
  165000   0.99090809   -3.9952904   -3.9952904   -2.7195129  0.048416079   -3.9952904    1.2757776      1024000 
  166000   0.99204943   -3.9953826   -3.9953826   -2.7181356  0.036020105   -3.9953826     1.277247      1024000 
  167000   0.99037618    -3.994639    -3.994639   -2.7195462  0.049614582    -3.994639    1.2750928      1024000 
  168000   0.99082186   -3.9960789   -3.9960789   -2.7204123  0.055957226   -3.9960789    1.2756666      1024000 
  169000   0.99201942   -3.9968983   -3.9968983   -2.7196899  0.052122608   -3.9968983    1.2772084      1024000 
  170000   0.99129013   -3.9985464   -3.9985464    -2.722277  0.047681836   -3.9985464    1.2762695      1024000 
  171000   0.99082348   -3.9958495   -3.9958495   -2.7201809  0.056246811   -3.9958495    1.2756687      1024000 
  172000   0.99182095   -3.9983476   -3.9983476   -2.7213947  0.046172942   -3.9983476    1.2769529      1024000 
  173000   0.99322029   -3.9985517   -3.9985517   -2.7197972   0.05013067   -3.9985517    1.2787545      1024000 
  174000   0.99373979   -4.0011898   -4.0011898   -2.7217665  0.050418456   -4.0011898    1.2794234      1024000 
  175000   0.99237214   -3.9985094   -3.9985094   -2.7208468  0.055518065   -3.9985094    1.2776625      1024000 
  176000   0.99196282   -3.9995156   -3.9995156   -2.7223801  0.046058973   -3.9995156    1.2771355      1024000 
  177000   0.99235759   -3.9988788   -3.9988788    -2.721235  0.054736013   -3.9988788    1.2776438      1024000 
  178000   0.99185649   -3.9981066   -3.9981066    -2.721108  0.058914114   -3.9981066    1.2769986      1024000 
  179000   0.99240092   -3.9987661   -3.9987661   -2.7210665  0.051309477   -3.9987661    1.2776996      1024000 
  180000   0.99366094    -4.001143    -4.001143   -2.7218211  0.055492922    -4.001143    1.2793218      1024000 
  181000   0.99373578   -4.0015887   -4.0015887   -2.7221705  0.062723841   -4.0015887    1.2794182      1024000 
  182000   0.99403058   -4.0009077   -4.0009077     -2.72111  0.053517276   -4.0009077    1.2797977      1024000 
  183000   0.99147738   -3.9986407   -3.9986407   -2.7221302  0.058995728   -3.9986407    1.2765105      1024000 
  184000   0.99394315   -4.0011457   -4.0011457   -2.7214605  0.053219226   -4.0011457    1.2796852      1024000 
  185000   0.99293526   -4.0009681   -4.0009681   -2.7225805  0.050487366   -4.0009681    1.2783875      1024000 
  186000   0.99075251   -3.9987355   -3.9987355   -2.7231582  0.056047944   -3.9987355    1.2755773      1024000 
  187000    0.9931881   -4.0023202   -4.0023202   -2.7236071  0.050819247   -4.0023202    1.2787131      1024000 
  188000   0.99263357   -4.0012539   -4.0012539   -2.7232548   0.06328737   -4.0012539    1.2779991      1024000 
  189000   0.99324339   -4.0012939   -4.0012939   -2.7225097  0.056585697   -4.0012939    1.2787842      1024000 
  190000    0.9907089   -4.0006903   -4.0006903   -2.7251692  0.055618928   -4.0006903    1.2755211      1024000 
  191000   0.99171969    -4.001179    -4.001179   -2.7243564  0.055392741    -4.001179    1.2768225      1024000 
  192000   0.99038217   -3.9996197   -3.9996197   -2.7245193  0.054603333   -3.9996197    1.2751005      1024000 
  193000   0.98966583   -3.9990192   -3.9990192    -2.724841  0.060220079   -3.9990192    1.2741782      1024000 
  194000   0.99053211   -4.0000038   -4.0000038   -2.7247102  0.055930981   -4.0000038    1.2752935      1024000 
  195000    0.9902484   -4.0002914   -4.0002914   -2.7253631  0.057814046   -4.0002914    1.2749282      1024000 
  196000   0.99221283   -4.0028146   -4.0028146   -2.7253572   0.05248627   -4.0028146    1.2774574      1024000 
  197000   0.99081764   -4.0023816   -4.0023816   -2.7267204  0.047426435   -4.0023816    1.2756611      1024000 
  198000   0.99314789   -4.0035298   -4.0035298   -2.7248685  0.044508743   -4.0035298    1.2786613      1024000 
  199000   0.99228147   -4.0013179   -4.0013179   -2.7237721  0.062618527   -4.0013179    1.2775458      1024000 
  200000    0.9928043   -4.0018914   -4.0018914   -2.7236724  0.060753658   -4.0018914    1.2782189      1024000 
  201000   0.99170488   -4.0032034   -4.0032034   -2.7263999  0.052923708   -4.0032034    1.2768034      1024000 
  202000   0.99277145   -4.0018849   -4.0018849   -2.7237082  0.058689341   -4.0018849    1.2781766      1024000 
  203000   0.99217189   -4.0032444   -4.0032444   -2.7258397  0.053958494   -4.0032444    1.2774047      1024000 
  204000   0.99236631   -4.0023974   -4.0023974   -2.7247424   0.06574862   -4.0023974     1.277655      1024000 
  205000   0.99344692   -4.0047346   -4.0047346   -2.7256883  0.055672883   -4.0047346    1.2790463      1024000 
  206000   0.99301935   -4.0038294   -4.0038294   -2.7253336  0.053951277   -4.0038294    1.2784958      1024000 
  207000   0.99210014   -4.0032794   -4.0032794   -2.7259671  0.065074505   -4.0032794    1.2773123      1024000 
  208000   0.99196187   -4.0048123   -4.0048123    -2.727678  0.054740778   -4.0048123    1.2771343      1024000 
  209000   0.99193952   -4.0031638   -4.0031638   -2.7260583   0.05693585   -4.0031638    1.2771055      1024000 
  210000   0.99056743   -4.0024187   -4.0024187   -2.7270797  0.059809323   -4.0024187     1.275339      1024000 
  211000   0.99179758   -4.0025835   -4.0025835   -2.7256608  0.063407804   -4.0025835    1.2769228      1024000 
  212000    0.9923626   -4.0043161   -4.0043161   -2.7266659  0.056978629   -4.0043161    1.2776502      1024000 
  213000   0.99248098   -4.0033846   -4.0033846   -2.7255819  0.061038266   -4.0033846    1.2778027      1024000 
  214000   0.99191545   -4.0028846   -4.0028846     -2.72581  0.063842272   -4.0028846    1.2770745      1024000 
  215000   0.99303863   -4.0042456   -4.0042456    -2.725725  0.070393129   -4.0042456    1.2785206      1024000 
  216000   0.99055619   -4.0049721   -4.0049721   -2.7296476  0.059451037   -4.0049721    1.2753245      1024000 
  217000   0.99218153   -4.0035461   -4.0035461    -2.726129  0.057104084   -4.0035461    1.2774171      1024000 
  218000   0.99148497   -4.0033804   -4.0033804   -2.7268601  0.059699257   -4.0033804    1.2765203      1024000 
  219000   0.99140442   -4.0045935   -4.0045935   -2.7281769  0.051054438   -4.0045935    1.2764166      1024000 
  220000   0.99194384   -4.0042965   -4.0042965   -2.7271854  0.054157285   -4.0042965    1.2771111      1024000 
  221000   0.99249597   -4.0040995   -4.0040995   -2.7262775  0.051002391   -4.0040995     1.277822      1024000 
  222000   0.99314204   -4.0059528   -4.0059528    -2.727299  0.050890283   -4.0059528    1.2786538      1024000 
  223000   0.99142066   -4.0037521   -4.0037521   -2.7273146  0.057303488   -4.0037521    1.2764375      1024000 
  224000   0.99218756   -4.0047669   -4.0047669    -2.727342  0.064236105   -4.0047669    1.2774249      1024000 
  225000   0.99281715   -4.0041669   -4.0041669   -2.7259314  0.054444567   -4.0041669    1.2782355      1024000 
  226000   0.99210909   -4.0027852   -4.0027852   -2.7254614  0.060223145   -4.0027852    1.2773239      1024000 
  227000   0.99168698   -4.0039597   -4.0039597   -2.7271793  0.058173465   -4.0039597    1.2767804      1024000 
  228000   0.99304788   -4.0046768   -4.0046768   -2.7261443  0.058338104   -4.0046768    1.2785325      1024000 
  229000   0.99217024   -4.0026241   -4.0026241   -2.7252215  0.054254038   -4.0026241    1.2774026      1024000 
  230000   0.99263609   -4.0034457   -4.0034457   -2.7254434  0.061285923   -4.0034457    1.2780024      1024000 
  231000   0.99184351   -4.0042293   -4.0042293   -2.7272474  0.060571995   -4.0042293    1.2769819      1024000 
  232000   0.99206372   -4.0030995   -4.0030995   -2.7258341  0.052126052   -4.0030995    1.2772654      1024000 
  233000   0.99105082   -4.0027431   -4.0027431   -2.7267817  0.051680273   -4.0027431    1.2759613      1024000 
  234000   0.99064817   -4.0026415   -4.0026415   -2.7271986  0.056985439   -4.0026415    1.2754429      1024000 
  235000   0.99133662   -4.0042078   -4.0042078   -2.7278785  0.062777141   -4.0042078    1.2763293      1024000 
  236000   0.99192561   -4.0049277   -4.0049277     -2.72784  0.049722819   -4.0049277    1.2770876      1024000 
  237000   0.99066983   -4.0034052   -4.0034052   -2.7279344  0.054915974   -4.0034052    1.2754708      1024000 
  238000   0.99065459   -4.0031262   -4.0031262    -2.727675  0.053358511   -4.0031262    1.2754512      1024000 
  239000   0.99138187   -4.0050176   -4.0050176     -2.72863  0.051774688   -4.0050176    1.2763876      1024000 
  240000   0.99131885   -4.0047105   -4.0047105   -2.7284041  0.047066554   -4.0047105    1.2763064      1024000 
  241000   0.99214006   -4.0049893   -4.0049893   -2.7276256  0.057273043   -4.0049893    1.2773637      1024000 
  242000   0.99325444   -4.0050744   -4.0050744    -2.726276  0.057826641   -4.0050744    1.2787985      1024000 
  243000   0.99203811   -4.0034803   -4.0034803   -2.7262479  0.059540999   -4.0034803    1.2772325      1024000 
  244000   0.99179814   -4.0041494   -4.0041494   -2.7272259  0.065844721   -4.0041494    1.2769235      1024000 
  245000   0.99162718    -4.002997    -4.002997   -2.7262936  0.062574976    -4.002997    1.2767034      1024000 
  246000   0.99326219   -4.0041219   -4.0041219   -2.7253135  0.064683569   -4.0041219    1.2788085      1024000 
  247000   0.99138696   -4.0037955   -4.0037955   -2.7274014  0.066249461   -4.0037955    1.2763941      1024000 
  248000   0.99214215   -4.0042616   -4.0042616   -2.7268952  0.066774639   -4.0042616    1.2773664      1024000 
  249000   0.99253905   -4.0054573   -4.0054573   -2.7275799  0.057079105   -4.0054573    1.2778774      1024000 
  250000   0.99207959   -4.0067071   -4.0067071   -2.7294212  0.051887107   -4.0067071    1.2772859      1024000 
  251000   0.99233005   -4.0046817   -4.0046817   -2.7270734  0.063303833   -4.0046817    1.2776083      1024000 
  252000   0.99307693   -4.0039588   -4.0039588   -2.7253888  0.068221438   -4.0039588    1.2785699      1024000 
  253000   0.99192852   -4.0043271   -4.0043271   -2.7272357  0.057648684   -4.0043271    1.2770914      1024000 
  254000   0.99194881   -4.0049799   -4.0049799   -2.7278624  0.057985371   -4.0049799    1.2771175      1024000 
  255000   0.99183648    -4.004099    -4.004099   -2.7271261  0.055775644    -4.004099    1.2769729      1024000 
  256000   0.99138194   -4.0034962   -4.0034962   -2.7271086   0.06209347   -4.0034962    1.2763877      1024000 
  257000   0.99166618   -4.0048648   -4.0048648   -2.7281112  0.063684133   -4.0048648    1.2767536      1024000 
  258000   0.99153068   -4.0039471   -4.0039471   -2.7273679  0.065494228   -4.0039471    1.2765792      1024000 
  259000   0.99338917   -4.0064264   -4.0064264   -2.7274544   0.05763575   -4.0064264    1.2789719      1024000 
  260000   0.99069528   -4.0041157   -4.0041157   -2.7286121    0.0675066   -4.0041157    1.2755036      1024000 
  261000   0.99053725   -4.0041435   -4.0041435   -2.7288433  0.052441128   -4.0041435    1.2753001      1024000 
  262000    0.9918647   -4.0039175   -4.0039175   -2.7269083  0.060903482   -4.0039175    1.2770092      1024000 
  263000   0.99199111   -4.0051508   -4.0051508   -2.7279789  0.064197173   -4.0051508     1.277172      1024000 
  264000   0.99165197   -4.0049185   -4.0049185   -2.7281832    0.0566771   -4.0049185    1.2767353      1024000 
  265000   0.99284809   -4.0061239   -4.0061239   -2.7278486  0.062142421   -4.0061239    1.2782753      1024000 
  266000    0.9930124   -4.0054017   -4.0054017   -2.7269148  0.059116918   -4.0054017    1.2784868      1024000 
  267000   0.99172931   -4.0045193   -4.0045193   -2.7276844  0.069915674   -4.0045193    1.2768349      1024000 
  268000   0.99017076   -4.0038947   -4.0038947   -2.7290664  0.064778799   -4.0038947    1.2748283      1024000 
  269000   0.99085643   -4.0047949   -4.0047949   -2.7290838  0.057124703   -4.0047949    1.2757111      1024000 
  270000   0.99112658   -4.0065683   -4.0065683   -2.7305095   0.05242813   -4.0065683    1.2760589      1024000 
  271000   0.99278246   -4.0072038   -4.0072038    -2.729013  0.055578427   -4.0072038    1.2781908      1024000 
  272000   0.99295048   -4.0067963   -4.0067963   -2.7283892  0.057853051   -4.0067963    1.2784071      1024000 
  273000   0.99158262   -4.0048493   -4.0048493   -2.7282032  0.060601805   -4.0048493     1.276646      1024000 
  274000   0.99199456   -4.0071149   -4.0071149   -2.7299385  0.063075771   -4.0071149    1.2771764      1024000 
  275000   0.99165755   -4.0061741   -4.0061741   -2.7294316   0.06425885   -4.0061741    1.2767425      1024000 
  276000   0.99228195   -4.0070666   -4.0070666   -2.7295202   0.06038713   -4.0070666    1.2775464      1024000 
  277000   0.99241239    -4.007434    -4.007434   -2.7297197  0.059510554    -4.007434    1.2777143      1024000 
  278000   0.99123191   -4.0059617   -4.0059617   -2.7297672  0.060992755   -4.0059617    1.2761945      1024000 
  279000   0.99208026   -4.0083032   -4.0083032   -2.7310165   0.05667692   -4.0083032    1.2772867      1024000 
  280000   0.99110727   -4.0058778   -4.0058778   -2.7298438  0.068666342   -4.0058778     1.276034      1024000 
  281000   0.99226161   -4.0074494   -4.0074494   -2.7299291  0.059413585   -4.0074494    1.2775202      1024000 
  282000   0.99118258   -4.0061605   -4.0061605   -2.7300295  0.058617877   -4.0061605     1.276131      1024000 
  283000   0.99163536   -4.0079978   -4.0079978   -2.7312838  0.065629112   -4.0079978    1.2767139      1024000 
  284000   0.99197789   -4.0070874   -4.0070874   -2.7299325  0.065422073   -4.0070874    1.2771549      1024000 
  285000   0.99189373   -4.0081754   -4.0081754   -2.7311289  0.061723085   -4.0081754    1.2770466      1024000 
  286000   0.99229172   -4.0078829   -4.0078829   -2.7303239  0.069540921   -4.0078829     1.277559      1024000 
  287000   0.99186217   -4.0084359   -4.0084359   -2.7314299  0.066441973   -4.0084359     1.277006      1024000 
  288000   0.99192713   -4.0092006   -4.0092006    -2.732111  0.061691317   -4.0092006    1.2770896      1024000 
  289000   0.98995546    -4.006453    -4.006453   -2.7319019  0.061585001    -4.006453    1.2745511      1024000 
  290000    0.9915996   -4.0080217   -4.0080217   -2.7313538  0.059045996   -4.0080217    1.2766679      1024000 
  291000   0.99154163   -4.0077324   -4.0077324   -2.7311391  0.065346038   -4.0077324    1.2765933      1024000 
  292000   0.99132051   -4.0094486   -4.0094486   -2.7331401  0.062998182   -4.0094486    1.2763086      1024000 
  293000   0.99298904   -4.0107793   -4.0107793   -2.7323226  0.067660224   -4.0107793    1.2784568      1024000 
  294000   0.99306843   -4.0100632   -4.0100632   -2.7315042  0.062519702   -4.0100632     1.278559      1024000 
  295000   0.99153487   -4.0077715   -4.0077715   -2.7311869  0.068989699   -4.0077715    1.2765846      1024000 
  296000   0.99223469   -4.0095775   -4.0095775    -2.732092  0.071254112   -4.0095775    1.2774856      1024000 
  297000   0.99266952   -4.0096556   -4.0096556   -2.7316102  0.066459367   -4.0096556    1.2780454      1024000 
  298000   0.99216186   -4.0080495   -4.0080495   -2.7306577  0.074902624   -4.0080495    1.2773918      1024000 
  299000   0.99479147   -4.0108107   -4.0108107   -2.7300333  0.064598319   -4.0108107    1.2807774      1024000 
  300000   0.99212981   -4.0094406   -4.0094406   -2.7320901  0.066395745   -4.0094406    1.2773505      1024000 
  301000   0.99241848   -4.0100493   -4.0100493   -2.7323272  0.065062132   -4.0100493    1.2777222      1024000 
  302000   0.99280609   -4.0092084   -4.0092084   -2.7309872  0.077509011   -4.0092084    1.2782212      1024000 
  303000   0.99432344   -4.0093268   -4.0093268   -2.7291521  0.067962277   -4.0093268    1.2801748      1024000 
  304000    0.9914798   -4.0074743   -4.0074743   -2.7309606  0.066658802   -4.0074743    1.2765136      1024000 
  305000   0.99232247   -4.0085503   -4.0085503   -2.7309518  0.060315473   -4.0085503    1.2775986      1024000 
  306000   0.99219871   -4.0075879   -4.0075879   -2.7301486  0.065937546   -4.0075879    1.2774392      1024000 
  307000   0.99128646   -4.0067307   -4.0067307   -2.7304659  0.067719564   -4.0067307    1.2762647      1024000 
  308000   0.99180188   -4.0080686   -4.0080686   -2.7311403  0.058462215   -4.0080686    1.2769283      1024000 
  309000   0.99131205   -4.0082869   -4.0082869   -2.7319893  0.061300719   -4.0082869    1.2762977      1024000 
  310000   0.99123016   -4.0068987   -4.0068987   -2.7307064  0.073333049   -4.0068987    1.2761922      1024000 
  311000   0.99240244   -4.0083786   -4.0083786    -2.730677  0.066737706   -4.0083786    1.2777015      1024000 
  312000   0.99058332   -4.0075846   -4.0075846   -2.7322252  0.067977703   -4.0075846    1.2753594      1024000 
  313000   0.98791527   -4.0047689   -4.0047689   -2.7328446  0.066523778   -4.0047689    1.2719244      1024000 
  314000   0.98933404   -4.0047241   -4.0047241   -2.7309731  0.064347953   -4.0047241     1.273751      1024000 
  315000   0.98932602   -4.0060375   -4.0060375   -2.7322968  0.059036283   -4.0060375    1.2737407      1024000 
  316000   0.99029915   -4.0059638   -4.0059638   -2.7309702  0.062452135   -4.0059638    1.2749936      1024000 
  317000   0.99076362   -4.0060873   -4.0060873   -2.7304958  0.063597156   -4.0060873    1.2755916      1024000 
  318000   0.99176268   -4.0073159   -4.0073159    -2.730438  0.055514153   -4.0073159    1.2768778      1024000 
  319000   0.99229204   -4.0065972   -4.0065972   -2.7290378  0.055220237   -4.0065972    1.2775594      1024000 
  320000   0.98992148   -4.0053148   -4.0053148   -2.7308074  0.076433853   -4.0053148    1.2745073      1024000 
  321000   0.99166078   -4.0074981   -4.0074981   -2.7307514  0.060068897   -4.0074981    1.2767467      1024000 
  322000   0.99127018   -4.0075874   -4.0075874   -2.7313436  0.052195345   -4.0075874    1.2762438      1024000 
  323000    0.9922649   -4.0073946   -4.0073946   -2.7298702  0.067643222   -4.0073946    1.2775245      1024000 
  324000   0.99275234   -4.0078186   -4.0078186   -2.7296665  0.065640407   -4.0078186     1.278152      1024000 
  325000   0.98940764    -4.005599    -4.005599   -2.7317532  0.060783475    -4.005599    1.2738458      1024000 
  326000   0.99237943   -4.0089228   -4.0089228   -2.7312509  0.063094008   -4.0089228    1.2776719      1024000 
  327000   0.99247657   -4.0095077   -4.0095077   -2.7317107  0.055118725   -4.0095077     1.277797      1024000 
  328000   0.99079852   -4.0072656   -4.0072656   -2.7316291  0.063482611   -4.0072656    1.2756365      1024000 
  329000   0.99150552   -4.0080768   -4.0080768     -2.73153   0.05849187   -4.0080768    1.2765468      1024000 
  330000   0.99059448   -4.0061784   -4.0061784   -2.7308046  0.076260487   -4.0061784    1.2753738      1024000 
  331000   0.99181408   -4.0080797   -4.0080797   -2.7311357  0.065521581   -4.0080797     1.276944      1024000 
  332000   0.99173748   -4.0100872   -4.0100872   -2.7332418  0.067776545   -4.0100872    1.2768454      1024000 
  333000   0.99131932   -4.0077984   -4.0077984   -2.7314914  0.070803696   -4.0077984     1.276307      1024000 
  334000   0.99348845   -4.0091486   -4.0091486   -2.7300488   0.06279511   -4.0091486    1.2790998      1024000 
  335000    0.9933299   -4.0101079   -4.0101079   -2.7312123  0.063717981   -4.0101079    1.2788956      1024000 
  336000   0.99272717   -4.0091383   -4.0091383   -2.7310187  0.074979183   -4.0091383    1.2781196      1024000 
  337000   0.99233651   -4.0083327   -4.0083327    -2.730716  0.072197997   -4.0083327    1.2776167      1024000 
  338000   0.99217493   -4.0101293   -4.0101293   -2.7327207  0.063103459   -4.0101293    1.2774086      1024000 
  339000   0.99190465   -4.0080643   -4.0080643   -2.7310037  0.067840411   -4.0080643    1.2770606      1024000 
  340000   0.99130661   -4.0075441   -4.0075441   -2.7312535  0.067085396   -4.0075441    1.2762907      1024000 
  341000   0.99177768    -4.009142    -4.009142   -2.7322448  0.068582174    -4.009142    1.2768972      1024000 
  342000   0.99197028   -4.0080965   -4.0080965   -2.7309514  0.068128606   -4.0080965    1.2771451      1024000 
  343000   0.99241852    -4.007618    -4.007618   -2.7298958  0.077078209    -4.007618    1.2777222      1024000 
  344000   0.99136937   -4.0079551   -4.0079551   -2.7315837  0.060082388   -4.0079551    1.2763715      1024000 
  345000   0.99123366   -4.0067741   -4.0067741   -2.7305773  0.069452569   -4.0067741    1.2761968      1024000 
  346000   0.99311656   -4.0075489   -4.0075489   -2.7289279   0.06478857   -4.0075489     1.278621      1024000 
  347000   0.99156363   -4.0057419   -4.0057419   -2.7291203  0.077156322   -4.0057419    1.2766216      1024000 
  348000   0.99218764   -4.0060971   -4.0060971   -2.7286722  0.072910207   -4.0060971     1.277425      1024000 
  349000   0.99126014   -4.0061627   -4.0061627   -2.7299319  0.072791885   -4.0061627    1.2762308      1024000 
  350000   0.99191149   -4.0084574   -4.0084574    -2.731388  0.068465021   -4.0084574    1.2770694      1024000 
  351000   0.99063923   -4.0067291   -4.0067291   -2.7312977  0.069372713   -4.0067291    1.2754314      1024000 
  352000   0.99216246   -4.0081431   -4.0081431   -2.7307506  0.058170722   -4.0081431    1.2773926      1024000 
  353000   0.99203128   -4.0077543   -4.0077543   -2.7305306  0.065046663   -4.0077543    1.2772237      1024000 
  354000   0.99183427   -4.0072609   -4.0072609   -2.7302909   0.06479216   -4.0072609      1.27697      1024000 
  355000   0.98980135   -4.0048333   -4.0048333   -2.7304806  0.079493065   -4.0048333    1.2743527      1024000 
  356000   0.99081352   -4.0057786   -4.0057786   -2.7301228  0.065140693   -4.0057786    1.2756558      1024000 
  357000   0.99228118   -4.0078704   -4.0078704    -2.730325  0.065676294   -4.0078704    1.2775454      1024000 
  358000   0.99105564   -4.0066811   -4.0066811   -2.7307135   0.07621041   -4.0066811    1.2759676      1024000 
  359000   0.99168498   -4.0074271   -4.0074271   -2.7306493  0.069708724   -4.0074271    1.2767778      1024000 
  360000   0.99192782   -4.0079611   -4.0079611   -2.7308706   0.06223818   -4.0079611    1.2770905      1024000 
  361000   0.99008549   -4.0063728   -4.0063728   -2.7316543  0.063541908   -4.0063728    1.2747185      1024000 
  362000   0.99115875   -4.0080495   -4.0080495   -2.7319492  0.065223453   -4.0080495    1.2761003      1024000 
  363000   0.99165999   -4.0066108   -4.0066108   -2.7298652  0.071041337   -4.0066108    1.2767456      1024000 
  364000   0.98919435   -4.0064923   -4.0064923   -2.7329211  0.062655782   -4.0064923    1.2735712      1024000 
  365000   0.99055854   -4.0065383   -4.0065383   -2.7312107  0.059954574   -4.0065383    1.2753275      1024000 
  366000   0.99088705   -4.0076037   -4.0076037   -2.7318532  0.054674673   -4.0076037    1.2757505      1024000 
  367000   0.99069031   -4.0053331   -4.0053331   -2.7298359  0.070204993   -4.0053331    1.2754972      1024000 
  368000   0.99147121    -4.007811    -4.007811   -2.7313084  0.062380047    -4.007811    1.2765026      1024000 
  369000   0.99026756   -4.0070095   -4.0070095   -2.7320566  0.067049076   -4.0070095    1.2749529      1024000 
  370000   0.99070844   -4.0071702   -4.0071702   -2.7316497  0.075515646   -4.0071702    1.2755205      1024000 
  371000   0.99222256   -4.0086017   -4.0086017   -2.7311317  0.087099939   -4.0086017    1.2774699      1024000 
  372000    0.9910272   -4.0076837   -4.0076837   -2.7317528  0.071816715   -4.0076837    1.2759309      1024000 
  373000   0.99252996   -4.0087883   -4.0087883   -2.7309226  0.067649883   -4.0087883    1.2778657      1024000 
  374000   0.99206543     -4.00816     -4.00816   -2.7308923  0.072310322     -4.00816    1.2772676      1024000 
  375000   0.99192619   -4.0088547   -4.0088547   -2.7317663  0.072120447   -4.0088547    1.2770884      1024000 
  376000    0.9922317   -4.0075274   -4.0075274   -2.7300457  0.076500832   -4.0075274    1.2774817      1024000 
  377000   0.99176746   -4.0086383   -4.0086383   -2.7317543  0.073482577   -4.0086383     1.276884      1024000 
  378000   0.99175944   -4.0101473   -4.0101473   -2.7332736  0.066739837   -4.0101473    1.2768737      1024000 
  379000     0.991934   -4.0099508   -4.0099508   -2.7328524  0.069623635   -4.0099508    1.2770984      1024000 
  380000   0.99253419   -4.0085549   -4.0085549   -2.7306838  0.079447374   -4.0085549    1.2778712      1024000 
  381000    0.9921085   -4.0093619   -4.0093619   -2.7320388  0.066061105   -4.0093619    1.2773231      1024000 
  382000   0.99290579   -4.0082848   -4.0082848   -2.7299352  0.075786954   -4.0082848    1.2783496      1024000 
  383000   0.99315464   -4.0099794   -4.0099794   -2.7313095  0.064400781   -4.0099794      1.27867      1024000 
  384000   0.99253822   -4.0091595   -4.0091595   -2.7312831  0.075213633   -4.0091595    1.2778763      1024000 
  385000   0.99216573   -4.0098333   -4.0098333   -2.7324365  0.065639232   -4.0098333    1.2773968      1024000 
  386000   0.99326919   -4.0084556   -4.0084556   -2.7296382  0.069061041   -4.0084556    1.2788175      1024000 
  387000   0.99054212   -4.0074524   -4.0074524    -2.732146  0.079373792   -4.0074524    1.2753064      1024000 
  388000   0.99225572   -4.0087911   -4.0087911   -2.7312785  0.067968066   -4.0087911    1.2775126      1024000 
  389000   0.99211778   -4.0087472   -4.0087472   -2.7314122  0.060479879   -4.0087472     1.277335      1024000 
  390000   0.99256751   -4.0081274   -4.0081274   -2.7302133  0.065435673   -4.0081274    1.2779141      1024000 
  391000   0.99060087   -4.0071549   -4.0071549   -2.7317728  0.078023818   -4.0071549     1.275382      1024000 
  392000   0.99001901   -4.0071114   -4.0071114   -2.7324785  0.063900922   -4.0071114    1.2746329      1024000 
  393000   0.99011385   -4.0068582   -4.0068582   -2.7321032  0.067011121   -4.0068582     1.274755      1024000 
  394000   0.99185528   -4.0076402   -4.0076402   -2.7306432  0.065280051   -4.0076402    1.2769971      1024000 
  395000   0.99094215   -4.0064352   -4.0064352   -2.7306137  0.063809141   -4.0064352    1.2758214      1024000 
  396000   0.99103216    -4.005565    -4.005565   -2.7296277  0.081671927    -4.005565    1.2759373      1024000 
  397000   0.99127364   -4.0075965   -4.0075965   -2.7313483  0.067119304   -4.0075965    1.2762482      1024000 
  398000   0.99283509   -4.0083586   -4.0083586      -2.7301  0.071179989   -4.0083586    1.2782586      1024000 
  399000   0.99238492    -4.006681    -4.006681   -2.7290021  0.074968736    -4.006681     1.277679      1024000 
  400000   0.98877172   -4.0045877   -4.0045877   -2.7315607  0.069808586   -4.0045877     1.273027      1024000 
  401000   0.98870343   -4.0044061   -4.0044061    -2.731467  0.064624177   -4.0044061    1.2729391      1024000 
  402000   0.99129457   -4.0060669   -4.0060669   -2.7297917  0.060985179   -4.0060669    1.2762752      1024000 
  403000   0.98935466   -4.0053244   -4.0053244   -2.7315468  0.052183171   -4.0053244    1.2737776      1024000 
  404000   0.98955051   -4.0052497   -4.0052497     -2.73122  0.062445301   -4.0052497    1.2740297      1024000 
  405000   0.99204555   -4.0072714   -4.0072714   -2.7300294  0.064063449   -4.0072714     1.277242      1024000 
  406000   0.99225383   -4.0059596   -4.0059596   -2.7284494  0.069408273   -4.0059596    1.2775102      1024000 
  407000   0.99106366   -4.0070873   -4.0070873   -2.7311094  0.068047288   -4.0070873    1.2759779      1024000 
  408000   0.99223778   -4.0071279   -4.0071279   -2.7296384  0.062067558   -4.0071279    1.2774895      1024000 
  409000   0.99134881   -4.0065838   -4.0065838   -2.7302388  0.063372204   -4.0065838     1.276345      1024000 
  410000   0.99170232   -4.0069873   -4.0069873   -2.7301872  0.062678744   -4.0069873    1.2768001      1024000 
  411000   0.99102422   -4.0053746   -4.0053746   -2.7294475  0.071015276   -4.0053746    1.2759271      1024000 
  412000   0.99303871   -4.0084666   -4.0084666   -2.7299459  0.068708905   -4.0084666    1.2785207      1024000 
  413000    0.9907604   -4.0067228   -4.0067228   -2.7311354  0.063204794   -4.0067228    1.2755874      1024000 
  414000   0.99236897   -4.0084184   -4.0084184   -2.7307599  0.067003872   -4.0084184    1.2776584      1024000 
  415000   0.99299963   -4.0061436   -4.0061436   -2.7276732  0.074424421   -4.0061436    1.2784704      1024000 
  416000   0.99083726   -4.0062979   -4.0062979   -2.7306115  0.071927199   -4.0062979    1.2756864      1024000 
  417000    0.9917405   -4.0076958   -4.0076958   -2.7308465  0.068104907   -4.0076958    1.2768493      1024000 
  418000   0.99094469    -4.006932    -4.006932   -2.7311073  0.071867005    -4.006932    1.2758247      1024000 
  419000   0.99330276   -4.0079058   -4.0079058   -2.7290451  0.066348837   -4.0079058    1.2788607      1024000 
  420000    0.9937711   -4.0097037   -4.0097037   -2.7302401  0.059046355   -4.0097037    1.2794637      1024000 
  421000   0.99252375   -4.0083344   -4.0083344   -2.7304766   0.07649454   -4.0083344    1.2778577      1024000 
  422000   0.99283942    -4.009785    -4.009785   -2.7315208  0.067074377    -4.009785    1.2782641      1024000 
  423000   0.99290533   -4.0081666   -4.0081666   -2.7298176  0.071287148   -4.0081666     1.278349      1024000 
  424000   0.99188591   -4.0069438   -4.0069438   -2.7299072  0.059112644   -4.0069438    1.2770365      1024000 
  425000   0.99158296    -4.004867    -4.004867   -2.7282205  0.074912836    -4.004867    1.2766465      1024000 
  426000   0.99186635   -4.0081569   -4.0081569   -2.7311456  0.066295742   -4.0081569    1.2770113      1024000 
  427000   0.99206612   -4.0063677   -4.0063677   -2.7290991  0.072463615   -4.0063677    1.2772685      1024000 
  428000   0.98957676   -4.0048925   -4.0048925    -2.730829  0.073210391   -4.0048925    1.2740635      1024000 
  429000   0.99240849   -4.0078933   -4.0078933    -2.730184  0.067290794   -4.0078933    1.2777093      1024000 
  430000   0.99304316   -4.0072919   -4.0072919   -2.7287654  0.064833064   -4.0072919    1.2785265      1024000 
  431000   0.99173835   -4.0065784   -4.0065784   -2.7297319  0.065321738   -4.0065784    1.2768465      1024000 
  432000   0.98985317   -4.0049215   -4.0049215   -2.7305021  0.070184725   -4.0049215    1.2744194      1024000 
  433000   0.99009623   -4.0054969   -4.0054969   -2.7307646  0.056408753   -4.0054969    1.2747323      1024000 
  434000   0.99159901    -4.006254    -4.006254   -2.7295869  0.067244254    -4.006254    1.2766671      1024000 
  435000   0.99217131   -4.0067224   -4.0067224   -2.7293184  0.066733638   -4.0067224     1.277404      1024000 
  436000   0.99004614   -4.0048221   -4.0048221   -2.7301543  0.074915447   -4.0048221    1.2746678      1024000 
  437000   0.99199821   -4.0069762   -4.0069762   -2.7297951  0.064087199   -4.0069762    1.2771811      1024000 
  438000   0.99153501   -4.0049304   -4.0049304   -2.7283457  0.064325703   -4.0049304    1.2765847      1024000 
  439000   0.98998324   -4.0041449   -4.0041449    -2.729558  0.068883495   -4.0041449    1.2745869      1024000 
  440000   0.99168716   -4.0048536   -4.0048536    -2.728073  0.066503312   -4.0048536    1.2767806      1024000 
  441000     0.993085   -4.0062235   -4.0062235   -2.7276431  0.069169233   -4.0062235    1.2785803      1024000 
  442000   0.99192351    -4.007023    -4.007023   -2.7299381   0.07648384    -4.007023    1.2770849      1024000 
  443000   0.99309824   -4.0063084   -4.0063084    -2.727711  0.074262116   -4.0063084    1.2785974      1024000 
  444000   0.99285539   -4.0079862   -4.0079862   -2.7297015  0.069879674   -4.0079862    1.2782847      1024000 
  445000   0.99288848   -4.0061379   -4.0061379   -2.7278106   0.07561594   -4.0061379    1.2783273      1024000 
  446000   0.99249658   -4.0060743   -4.0060743   -2.7282516  0.073084067   -4.0060743    1.2778227      1024000 
  447000   0.99384181   -4.0072904   -4.0072904   -2.7277357  0.066713439   -4.0072904    1.2795547      1024000 
  448000   0.99073585   -4.0058969   -4.0058969   -2.7303411  0.067866762   -4.0058969    1.2755558      1024000 
  449000   0.99170509   -4.0048077   -4.0048077    -2.728004  0.062966572   -4.0048077    1.2768037      1024000 
  450000    0.9918474   -4.0064424   -4.0064424   -2.7294554    0.0690591   -4.0064424    1.2769869      1024000 
  451000   0.99326285   -4.0056674   -4.0056674   -2.7268581  0.074972453   -4.0056674    1.2788093      1024000 
  452000   0.99269341   -4.0054888   -4.0054888   -2.7274126  0.069029155   -4.0054888    1.2780762      1024000 
  453000   0.99207326   -4.0039319   -4.0039319   -2.7266542  0.067578574   -4.0039319    1.2772777      1024000 
  454000   0.99173024   -4.0042805   -4.0042805   -2.7274444  0.070131207   -4.0042805    1.2768361      1024000 
  455000    0.9914965   -4.0038748   -4.0038748   -2.7273396  0.072462974   -4.0038748    1.2765352      1024000 
  456000   0.99315194   -4.0065557   -4.0065557   -2.7278892  0.056223456   -4.0065557    1.2786665      1024000 
  457000   0.99255711   -4.0052728   -4.0052728   -2.7273722  0.064587176   -4.0052728    1.2779007      1024000 
  458000   0.99348829   -4.0052287   -4.0052287   -2.7261291  0.058642159   -4.0052287    1.2790996      1024000 
  459000   0.99259552    -4.004719    -4.004719   -2.7267689  0.071057364    -4.004719    1.2779501      1024000 
  460000   0.99168868   -4.0035652   -4.0035652   -2.7267826  0.063023909   -4.0035652    1.2767826      1024000 
  461000   0.99091597   -4.0030273   -4.0030273   -2.7272395  0.066149787   -4.0030273    1.2757877      1024000 
  462000   0.99284021   -4.0062054   -4.0062054   -2.7279402  0.063679756   -4.0062054    1.2782652      1024000 
  463000   0.99100425   -4.0026233   -4.0026233   -2.7267219  0.063032059   -4.0026233    1.2759014      1024000 
  464000   0.99031422   -4.0020508   -4.0020508   -2.7270379   0.06202753   -4.0020508     1.275013      1024000 
  465000   0.99064061   -4.0019189   -4.0019189   -2.7264857  0.064116763   -4.0019189    1.2754332      1024000 
  466000   0.99416034   -4.0051589   -4.0051589   -2.7251941  0.052103132   -4.0051589    1.2799648      1024000 
  467000   0.99085757    -4.000884    -4.000884   -2.7251715  0.067528512    -4.000884    1.2757125      1024000 
  468000   0.99220054   -4.0035193   -4.0035193   -2.7260778  0.061260995   -4.0035193    1.2774416      1024000 
  469000   0.99422914   -4.0041123   -4.0041123    -2.724059  0.067204687   -4.0041123    1.2800534      1024000 
  470000   0.99227568    -4.002388    -4.002388   -2.7248497  0.072457524    -4.002388    1.2775383      1024000 
  471000   0.99231139   -4.0020089   -4.0020089   -2.7244246   0.07298805   -4.0020089    1.2775843      1024000 
  472000   0.99144032   -4.0021348   -4.0021348    -2.725672  0.081253419   -4.0021348    1.2764628      1024000 
  473000   0.99164475   -4.0035312   -4.0035312   -2.7268051  0.071703121   -4.0035312     1.276726      1024000 
  474000   0.99194615   -4.0034275   -4.0034275   -2.7263134  0.070952748   -4.0034275    1.2771141      1024000 
  475000   0.99416185   -4.0047461   -4.0047461   -2.7247794  0.065208778   -4.0047461    1.2799667      1024000 
  476000   0.99148916   -4.0015087   -4.0015087    -2.724983  0.072198871   -4.0015087    1.2765257      1024000 
  477000   0.99183333   -4.0023707   -4.0023707   -2.7254019  0.070745918   -4.0023707    1.2769688      1024000 
  478000   0.99324702   -4.0035925   -4.0035925   -2.7248036  0.071029615   -4.0035925    1.2787889      1024000 
  479000   0.99232412   -4.0020975   -4.0020975   -2.7244968  0.059276726   -4.0020975    1.2776007      1024000 
  480000   0.99268376   -4.0028268   -4.0028268    -2.724763  0.065865239   -4.0028268    1.2780637      1024000 
  481000    0.9933006   -4.0020978   -4.0020978   -2.7232399  0.070093618   -4.0020978    1.2788579      1024000 
  482000   0.99499184   -4.0040096   -4.0040096   -2.7229743  0.067990677   -4.0040096    1.2810353      1024000 
  483000   0.99282905   -4.0021107   -4.0021107   -2.7238599  0.075975467   -4.0021107    1.2782508      1024000 
  484000   0.99329474   -4.0038526   -4.0038526   -2.7250022  0.063439437   -4.0038526    1.2788504      1024000 
  485000   0.99367396   -4.0035565   -4.0035565   -2.7242179  0.065195026   -4.0035565    1.2793386      1024000 
  486000   0.99266003   -4.0018818   -4.0018818   -2.7238486  0.067067317   -4.0018818    1.2780332      1024000 
  487000   0.99335099   -4.0025334   -4.0025334   -2.7236106  0.070324418   -4.0025334    1.2789228      1024000 
  488000   0.99174636   -4.0013587   -4.0013587   -2.7245018  0.071464249   -4.0013587    1.2768568      1024000 
  489000   0.99331005   -4.0022236   -4.0022236   -2.7233536  0.062053064   -4.0022236    1.2788701      1024000 
  490000   0.99156947   -4.0030671   -4.0030671    -2.726438  0.063154053   -4.0030671    1.2766291      1024000 
  491000   0.99271331    -4.002626    -4.002626   -2.7245242  0.062025304    -4.002626    1.2781018      1024000 
  492000   0.99259424   -4.0028169   -4.0028169   -2.7248685  0.068603627   -4.0028169    1.2779485      1024000 
  493000   0.99269375   -4.0029478   -4.0029478   -2.7248712  0.069914243   -4.0029478    1.2780766      1024000 
  494000   0.99263235   -4.0032929   -4.0032929   -2.7252954   0.06694137   -4.0032929    1.2779975      1024000 
  495000   0.99423157   -4.0035273   -4.0035273   -2.7234708  0.074579458   -4.0035273    1.2800565      1024000 
  496000   0.99252955    -4.001744    -4.001744   -2.7238788  0.071776632    -4.001744    1.2778652      1024000 
  497000   0.99304389   -4.0027927   -4.0027927   -2.7242653  0.063283681   -4.0027927    1.2785274      1024000 
  498000   0.99168636   -4.0009275   -4.0009275   -2.7241479  0.074146763   -4.0009275    1.2767796      1024000 
  499000   0.99051767   -4.0001541   -4.0001541   -2.7248792  0.064018924   -4.0001541    1.2752749      1024000 
  500000   0.99101868   -4.0015434   -4.0015434   -2.7256234   0.06935181   -4.0015434      1.27592      1024000 
  501000   0.99164526   -4.0015418   -4.0015418   -2.7248151  0.061356311   -4.0015418    1.2767267      1024000 
  502000   0.99150572   -4.0018088   -4.0018088   -2.7252618  0.066193973   -4.0018088     1.276547      1024000 
  503000   0.99174484   -4.0011619   -4.0011619    -2.724307  0.075385761   -4.0011619    1.2768549      1024000 
  504000   0.99311088   -4.0033597   -4.0033597    -2.724746  0.063594978   -4.0033597    1.2786136      1024000 
  505000   0.99207045   -4.0024384   -4.0024384   -2.7251643  0.067001721   -4.0024384    1.2772741      1024000 
  506000   0.99164098   -4.0014631   -4.0014631   -2.7247419  0.071790235   -4.0014631    1.2767212      1024000 
  507000    0.9924958   -4.0043117   -4.0043117     -2.72649  0.080827844   -4.0043117    1.2778217      1024000 
  508000   0.99168241   -4.0024474   -4.0024474   -2.7256729  0.070000809   -4.0024474    1.2767745      1024000 
  509000   0.99520379   -4.0051803   -4.0051803   -2.7238721  0.069853147   -4.0051803    1.2813082      1024000 
  510000   0.99322984   -4.0031013   -4.0031013   -2.7243346  0.075520343   -4.0031013    1.2787668      1024000 
  511000   0.99134625   -4.0036651   -4.0036651   -2.7273234  0.071677548   -4.0036651    1.2763417      1024000 
  512000   0.99211474    -4.003485    -4.003485   -2.7261538  0.073564432    -4.003485    1.2773311      1024000 
  513000   0.99213795   -4.0028366   -4.0028366   -2.7254756  0.068454214   -4.0028366     1.277361      1024000 
  514000    0.9924246   -4.0030179   -4.0030179   -2.7252879  0.068827304   -4.0030179    1.2777301      1024000 
  515000   0.99264105   -4.0035807   -4.0035807    -2.725572  0.069772595   -4.0035807    1.2780087      1024000 
  516000   0.99357482   -4.0036425   -4.0036425   -2.7244315  0.076064148   -4.0036425     1.279211      1024000 
  517000   0.99258143   -4.0034669   -4.0034669   -2.7255349   0.07238384   -4.0034669     1.277932      1024000 
  518000   0.99452871   -4.0052617   -4.0052617   -2.7248226  0.064654996   -4.0052617    1.2804391      1024000 
  519000   0.99290236   -4.0032729   -4.0032729   -2.7249278  0.079060435   -4.0032729    1.2783452      1024000 
  520000   0.99427889   -4.0051098   -4.0051098   -2.7249924  0.077535762   -4.0051098    1.2801174      1024000 
  521000   0.99544741   -4.0066541   -4.0066541   -2.7250322  0.072060153   -4.0066541    1.2816219      1024000 
  522000   0.99348442   -4.0033413   -4.0033413   -2.7242467  0.069408793   -4.0033413    1.2790946      1024000 
  523000   0.99365169   -4.0037895   -4.0037895   -2.7244796  0.068665718   -4.0037895    1.2793099      1024000 
  524000   0.99368823   -4.0041841   -4.0041841   -2.7248271  0.074425082   -4.0041841     1.279357      1024000 
  525000    0.9920032   -4.0033849   -4.0033849   -2.7261974  0.070227088   -4.0033849    1.2771875      1024000 
  526000   0.99135875   -4.0030437   -4.0030437   -2.7266859  0.066506698   -4.0030437    1.2763578      1024000 
  527000   0.99101336   -4.0020996   -4.0020996   -2.7261865  0.068245154   -4.0020996    1.2759131      1024000 
  528000     0.991028   -4.0032308   -4.0032308   -2.7272988  0.067055124   -4.0032308     1.275932      1024000 
  529000    0.9919211   -4.0023839   -4.0023839   -2.7253021  0.072138362   -4.0023839    1.2770818      1024000 
  530000   0.99206402   -4.0034647   -4.0034647   -2.7261989  0.068149815   -4.0034647    1.2772658      1024000 
  531000    0.9915893    -4.002999    -4.002999   -2.7263444  0.065369998    -4.002999    1.2766546      1024000 
  532000   0.99260899   -4.0024909   -4.0024909   -2.7245234  0.063658253   -4.0024909    1.2779675      1024000 
  533000   0.99260376   -4.0030384   -4.0030384   -2.7250777  0.069443957   -4.0030384    1.2779607      1024000 
  534000   0.99118228   -4.0022312   -4.0022312   -2.7261006   0.07383072   -4.0022312    1.2761306      1024000 
  535000   0.99160422   -4.0008056   -4.0008056   -2.7241317   0.07084232   -4.0008056    1.2766738      1024000 
  536000   0.99298278   -4.0021132   -4.0021132   -2.7236645  0.059363938   -4.0021132    1.2784487      1024000 
  537000   0.99092813   -4.0006827   -4.0006827   -2.7248793  0.068346999   -4.0006827    1.2758034      1024000 
  538000   0.99051889   -4.0000163   -4.0000163   -2.7247398  0.058254505   -4.0000163    1.2752765      1024000 
  539000   0.99074157   -3.9981707   -3.9981707   -2.7226075  0.072893252   -3.9981707    1.2755632      1024000 
  540000   0.98838058   -3.9981154   -3.9981154    -2.725592  0.063503256   -3.9981154    1.2725235      1024000 
  541000   0.99118744   -4.0001815   -4.0001815   -2.7240442    0.0661357   -4.0001815    1.2761372      1024000 
  542000   0.99205933   -4.0016831   -4.0016831   -2.7244233  0.073889615   -4.0016831    1.2772598      1024000 
  543000   0.99160996   -4.0006504   -4.0006504   -2.7239692  0.072039748   -4.0006504    1.2766812      1024000 
  544000   0.99211145   -4.0021924   -4.0021924   -2.7248655   0.06475603   -4.0021924    1.2773269      1024000 
  545000   0.99187896   -4.0011456   -4.0011456    -2.724118  0.067065844   -4.0011456    1.2770276      1024000 
  546000   0.99159312   -3.9998476   -3.9998476    -2.723188  0.076433273   -3.9998476    1.2766596      1024000 
  547000   0.99198919   -4.0011146   -4.0011146   -2.7239451  0.060849879   -4.0011146    1.2771695      1024000 
  548000   0.99132051   -4.0011572   -4.0011572   -2.7248486  0.067526985   -4.0011572    1.2763086      1024000 
  549000   0.99066139   -4.0014987   -4.0014987   -2.7260388  0.063741964   -4.0014987      1.27546      1024000 
  550000   0.99078555    -3.999275    -3.999275   -2.7236552  0.081676443    -3.999275    1.2756198      1024000 
  551000   0.99165132   -4.0008861   -4.0008861   -2.7241516  0.076052183   -4.0008861    1.2767345      1024000 
  552000   0.99165375   -4.0015458   -4.0015458   -2.7248082  0.066670312   -4.0015458    1.2767376      1024000 
  553000   0.99227096   -4.0010688   -4.0010688   -2.7235365  0.070455996   -4.0010688    1.2775323      1024000 
  554000   0.99262405   -4.0010004   -4.0010004   -2.7230135  0.068350378   -4.0010004    1.2779869      1024000 
  555000    0.9933999   -4.0030234   -4.0030234   -2.7240377  0.065732817   -4.0030234    1.2789857      1024000 
  556000   0.99294546   -4.0012622   -4.0012622   -2.7228616  0.066166503   -4.0012622    1.2784007      1024000 
  557000   0.99226538   -4.0020937   -4.0020937   -2.7245686  0.074924609   -4.0020937    1.2775251      1024000 
  558000   0.99314633   -4.0025162   -4.0025162   -2.7238569  0.066571548   -4.0025162    1.2786593      1024000 
  559000   0.99252743   -4.0008797   -4.0008797   -2.7230173  0.075536955   -4.0008797    1.2778625      1024000 
  560000   0.99217069   -4.0019293   -4.0019293   -2.7245261  0.066086975   -4.0019293    1.2774032      1024000 
  561000   0.99338527   -4.0009752   -4.0009752   -2.7220083  0.074392278   -4.0009752    1.2789669      1024000 
  562000    0.9948512   -4.0006546   -4.0006546   -2.7198004  0.072460997   -4.0006546    1.2808543      1024000 
  563000    0.9913459   -3.9986248   -3.9986248   -2.7222835  0.076438033   -3.9986248    1.2763413      1024000 
  564000   0.99352437   -3.9998428   -3.9998428   -2.7206968  0.071062519   -3.9998428     1.279146      1024000 
  565000   0.99452259   -3.9997842   -3.9997842    -2.719353  0.067848974   -3.9997842    1.2804312      1024000 
  566000   0.99455931   -4.0012041   -4.0012041   -2.7207257  0.070710174   -4.0012041    1.2804785      1024000 
  567000   0.99304397   -3.9989972   -3.9989972   -2.7204697  0.077175929   -3.9989972    1.2785275      1024000 
  568000   0.99244167   -3.9993243   -3.9993243   -2.7215722   0.06908887   -3.9993243     1.277752      1024000 
  569000   0.99312392   -3.9995103   -3.9995103   -2.7208799  0.074403603   -3.9995103    1.2786304      1024000 
  570000   0.99239747   -3.9991757   -3.9991757   -2.7214805  0.059246733   -3.9991757    1.2776951      1024000 
  571000   0.99189734   -3.9989147   -3.9989147   -2.7218635  0.052418459   -3.9989147    1.2770512      1024000 
  572000    0.9915872   -3.9974522   -3.9974522   -2.7208003  0.067928853   -3.9974522    1.2766519      1024000 
  573000   0.99108353   -3.9965291   -3.9965291   -2.7205256  0.063117851   -3.9965291    1.2760035      1024000 
  574000   0.99166086   -3.9981457   -3.9981457   -2.7213989  0.068678338   -3.9981457    1.2767468      1024000 
  575000   0.99173662   -3.9957333   -3.9957333    -2.718889  0.068787553   -3.9957333    1.2768443      1024000 
  576000   0.99115108   -3.9955662   -3.9955662   -2.7194758  0.068735736   -3.9955662    1.2760904      1024000 
  577000   0.99348878   -3.9985327   -3.9985327   -2.7194326  0.064600507   -3.9985327    1.2791002      1024000 
  578000   0.99155846   -3.9966407   -3.9966407   -2.7200258  0.065932034   -3.9966407    1.2766149      1024000 
  579000   0.99186039   -3.9970624   -3.9970624   -2.7200587  0.070762155   -3.9970624    1.2770037      1024000 
  580000   0.99152667   -3.9961169   -3.9961169   -2.7195429  0.068833459   -3.9961169     1.276574      1024000 
  581000   0.99182887   -3.9964716   -3.9964716   -2.7195086  0.067348218   -3.9964716    1.2769631      1024000 
  582000   0.99130963    -3.996246    -3.996246   -2.7199514  0.059152396    -3.996246    1.2762946      1024000 
  583000   0.99322181    -3.996598    -3.996598   -2.7178415  0.063966275    -3.996598    1.2787565      1024000 
  584000   0.99221995    -3.997082    -3.997082   -2.7196154  0.062413875    -3.997082    1.2774666      1024000 
  585000   0.99207766   -3.9964107   -3.9964107   -2.7191273  0.073109799   -3.9964107    1.2772834      1024000 
  586000   0.99339976    -3.997754    -3.997754   -2.7187684  0.067526265    -3.997754    1.2789856      1024000 
  587000   0.99229845   -3.9972691   -3.9972691   -2.7197015  0.070119858   -3.9972691    1.2775676      1024000 
  588000   0.99247883   -3.9957951   -3.9957951   -2.7179952  0.074423399   -3.9957951    1.2777999      1024000 
  589000   0.99288837   -3.9972091   -3.9972091   -2.7188819  0.074608984   -3.9972091    1.2783272      1024000 
  590000   0.99226936   -3.9974723   -3.9974723   -2.7199421  0.060500304   -3.9974723    1.2775302      1024000 
  591000    0.9946362   -3.9993438   -3.9993438   -2.7187663  0.063274171   -3.9993438    1.2805775      1024000 
  592000   0.99386936   -3.9979278   -3.9979278   -2.7183377  0.072484498   -3.9979278    1.2795902      1024000 
  593000   0.99293348   -3.9996588   -3.9996588   -2.7212735  0.065342006   -3.9996588    1.2783852      1024000 
  594000   0.99437567   -3.9991803   -3.9991803   -2.7189383  0.070904692   -3.9991803     1.280242      1024000 
  595000   0.99381626   -3.9983308   -3.9983308    -2.718809  0.068968532   -3.9983308    1.2795218      1024000 
  596000   0.99215691   -3.9990355   -3.9990355   -2.7216501  0.074187612   -3.9990355    1.2773854      1024000 
  597000   0.99189832   -3.9981059   -3.9981059   -2.7210534  0.076329981   -3.9981059    1.2770525      1024000 
  598000    0.9922039   -3.9990901   -3.9990901   -2.7216442  0.065310215   -3.9990901    1.2774459      1024000 
  599000   0.99139083   -3.9975052   -3.9975052   -2.7211061   0.06479974   -3.9975052    1.2763991      1024000 
  600000   0.99188769   -3.9986503   -3.9986503   -2.7216115  0.066825576   -3.9986503    1.2770388      1024000 
  601000   0.99380134   -3.9984672   -3.9984672   -2.7189647  0.072045002   -3.9984672    1.2795026      1024000 
  602000   0.99297065   -3.9996094   -3.9996094   -2.7211763  0.060648003   -3.9996094    1.2784331      1024000 
  603000   0.99319156   -3.9985665   -3.9985665    -2.719849  0.073752392   -3.9985665    1.2787175      1024000 
  604000   0.99212315   -3.9979719   -3.9979719   -2.7206299  0.078616784   -3.9979719     1.277342      1024000 
  605000   0.99365036   -3.9992147   -3.9992147   -2.7199065  0.070565316   -3.9992147    1.2793082      1024000 
  606000   0.99422162   -4.0008787   -4.0008787    -2.720835  0.068367262   -4.0008787    1.2800437      1024000 
  607000   0.99352425   -4.0006398   -4.0006398    -2.721494  0.067014297   -4.0006398    1.2791458      1024000 
  608000   0.99337236   -4.0006824   -4.0006824   -2.7217321  0.075284889   -4.0006824    1.2789503      1024000 
  609000   0.99414671   -4.0003311   -4.0003311   -2.7203839  0.069164937   -4.0003311    1.2799473      1024000 
  610000   0.99164952   -3.9992877   -3.9992877   -2.7225555  0.070952692   -3.9992877    1.2767322      1024000 
  611000   0.99282064   -3.9993667   -3.9993667   -2.7211267   0.07937348   -3.9993667      1.27824      1024000 
  612000   0.99237281   -3.9982263   -3.9982263    -2.720563  0.074198502   -3.9982263    1.2776634      1024000 
  613000   0.99273281   -3.9986625   -3.9986625   -2.7205356  0.073688588   -3.9986625    1.2781269      1024000 
  614000   0.99303451    -3.999578    -3.999578   -2.7210627  0.066171706    -3.999578    1.2785153      1024000 
  615000   0.99300159   -4.0004719   -4.0004719   -2.7219989  0.077776094   -4.0004719    1.2784729      1024000 
  616000   0.99196336   -3.9997618   -3.9997618   -2.7226256  0.072226361   -3.9997618    1.2771362      1024000 
  617000   0.99116041   -3.9992292   -3.9992292   -2.7231268  0.078426053   -3.9992292    1.2761024      1024000 
  618000   0.99265351   -4.0013921   -4.0013921   -2.7233674  0.069440216   -4.0013921    1.2780248      1024000 
  619000     0.992056   -3.9984936   -3.9984936   -2.7212381  0.073517843   -3.9984936    1.2772555      1024000 
  620000   0.99238925    -3.998604    -3.998604   -2.7209195  0.067574395    -3.998604    1.2776845      1024000 
  621000   0.99318868     -3.99909     -3.99909   -2.7203762  0.067190132     -3.99909    1.2787138      1024000 
  622000   0.99200568    -3.998741    -3.998741   -2.7215503  0.065072686    -3.998741    1.2771907      1024000 
  623000   0.99217033   -3.9987648   -3.9987648   -2.7213621  0.076442361   -3.9987648    1.2774027      1024000 
  624000     0.992002   -3.9987174   -3.9987174   -2.7215314  0.067580158   -3.9987174     1.277186      1024000 
  625000   0.99288047   -4.0008587   -4.0008587   -2.7225417  0.064053181   -4.0008587     1.278317      1024000 
  626000   0.99223532   -3.9995476   -3.9995476   -2.7220612  0.066436923   -3.9995476    1.2774864      1024000 
  627000   0.99252111   -3.9988644   -3.9988644     -2.72101  0.066140108   -3.9988644    1.2778543      1024000 
  628000   0.99283961   -3.9992679   -3.9992679   -2.7210035  0.071345858   -3.9992679    1.2782644      1024000 
  629000   0.99312935    -3.999533    -3.999533   -2.7208955  0.061798967    -3.999533    1.2786374      1024000 
  630000   0.99395962   -4.0004001   -4.0004001   -2.7206937  0.064166309   -4.0004001    1.2797064      1024000 
  631000   0.99148471   -3.9967514   -3.9967514   -2.7202314  0.070996408   -3.9967514      1.27652      1024000 
  632000   0.99100202    -3.996401    -3.996401   -2.7205025  0.069706132    -3.996401    1.2758985      1024000 
  633000   0.99233817   -3.9977176   -3.9977176   -2.7200988  0.071137024   -3.9977176    1.2776188      1024000 
  634000   0.99073544   -3.9978915   -3.9978915   -2.7223362  0.063810046   -3.9978915    1.2755553      1024000 
  635000   0.99081698   -3.9971623   -3.9971623    -2.721502  0.063698472   -3.9971623    1.2756603      1024000 
  636000   0.99231329   -3.9978163   -3.9978163   -2.7202295  0.065644898   -3.9978163    1.2775868      1024000 
  637000   0.99313865   -3.9977908   -3.9977908   -2.7191414  0.071345108   -3.9977908    1.2786494      1024000 
  638000   0.99363119   -3.9980684   -3.9980684   -2.7187849  0.063491022   -3.9980684    1.2792835      1024000 
  639000   0.99243969   -3.9987794   -3.9987794   -2.7210299  0.066831034   -3.9987794    1.2777495      1024000 
  640000   0.99228254   -3.9991976   -3.9991976   -2.7216504  0.059175327   -3.9991976    1.2775472      1024000 
  641000   0.99257313   -3.9985484   -3.9985484   -2.7206271  0.076702702   -3.9985484    1.2779213      1024000 
  642000   0.99289491   -3.9992157   -3.9992157   -2.7208801  0.068331573   -3.9992157    1.2783356      1024000 
  643000    0.9929026   -3.9976563   -3.9976563   -2.7193108  0.072515689   -3.9976563    1.2783455      1024000 
  644000   0.99407304   -3.9988609   -3.9988609   -2.7190085  0.064651637   -3.9988609    1.2798524      1024000 
  645000   0.99234499   -3.9974566   -3.9974566   -2.7198291  0.058660068   -3.9974566    1.2776276      1024000 
  646000   0.99225865   -3.9981344   -3.9981344   -2.7206179  0.064004549   -3.9981344    1.2775164      1024000 
  647000   0.99379221   -3.9993335   -3.9993335   -2.7198426  0.071669947   -3.9993335    1.2794908      1024000 
  648000    0.9940195   -3.9990404   -3.9990404   -2.7192569  0.065251005   -3.9990404    1.2797835      1024000 
  649000   0.99345241   -3.9971584   -3.9971584    -2.718105  0.063699891   -3.9971584    1.2790534      1024000 
  650000    0.9931268   -3.9982546   -3.9982546   -2.7196205   0.06866842   -3.9982546    1.2786341      1024000 
  651000   0.99119337   -3.9953193   -3.9953193   -2.7191744  0.068029535   -3.9953193    1.2761449      1024000 
  652000   0.99197837   -3.9968013   -3.9968013   -2.7196457  0.063964802   -3.9968013    1.2771556      1024000 
  653000   0.99119797   -3.9966949   -3.9966949   -2.7205441  0.065734985   -3.9966949    1.2761508      1024000 
  654000    0.9917623   -3.9965405   -3.9965405   -2.7196631   0.06640547   -3.9965405    1.2768774      1024000 
  655000    0.9908333   -3.9952148   -3.9952148   -2.7195335  0.076434505   -3.9952148    1.2756813      1024000 
  656000   0.99139587   -3.9969369   -3.9969369   -2.7205313   0.07193879   -3.9969369    1.2764056      1024000 
  657000   0.99004166    -3.995638    -3.995638    -2.720976  0.072792678    -3.995638    1.2746621      1024000 
  658000   0.99171562    -3.996723    -3.996723   -2.7199057   0.06375964    -3.996723    1.2768173      1024000 
  659000   0.99155151   -3.9987209   -3.9987209   -2.7221149  0.051765466   -3.9987209     1.276606      1024000 
  660000   0.99148179   -3.9967343   -3.9967343   -2.7202181  0.068699452   -3.9967343    1.2765162      1024000 
  661000   0.99163074   -3.9971512   -3.9971512   -2.7204432  0.066738891   -3.9971512     1.276708      1024000 
  662000    0.9929346   -3.9982643   -3.9982643   -2.7198776  0.071818858   -3.9982643    1.2783867      1024000 
  663000   0.99274824   -3.9977935   -3.9977935   -2.7196468  0.065738988   -3.9977935    1.2781467      1024000 
  664000   0.99372422   -3.9983845   -3.9983845   -2.7189812  0.069064747   -3.9983845    1.2794033      1024000 
  665000    0.9928158   -3.9983857   -3.9983857    -2.720152  0.066593721   -3.9983857    1.2782337      1024000 
  666000   0.99315423   -3.9984034   -3.9984034   -2.7197339  0.069885052   -3.9984034    1.2786694      1024000 
  667000   0.99318154   -3.9995029   -3.9995029   -2.7207983  0.071853162   -3.9995029    1.2787046      1024000 
  668000   0.99302751   -3.9972291   -3.9972291   -2.7187228   0.07309331   -3.9972291    1.2785063      1024000 
  669000   0.99426806   -3.9984494   -3.9984494   -2.7183459  0.070803075   -3.9984494    1.2801035      1024000 
  670000   0.99429669   -3.9993529   -3.9993529   -2.7192125  0.070338107   -3.9993529    1.2801404      1024000 
  671000   0.99475455   -4.0004831   -4.0004831   -2.7197532  0.069065322   -4.0004831    1.2807298      1024000 
  672000   0.99349901   -3.9983648   -3.9983648   -2.7192515  0.079544812   -3.9983648    1.2791133      1024000 
  673000   0.99312171   -3.9991594   -3.9991594   -2.7205318  0.078517932   -3.9991594    1.2786276      1024000 
  674000   0.99448622   -3.9997805   -3.9997805   -2.7193961  0.074953737   -3.9997805    1.2803844      1024000 
  675000   0.99506323   -4.0009014   -4.0009014   -2.7197741  0.063837607   -4.0009014    1.2811273      1024000 
  676000   0.99488145   -4.0004824   -4.0004824   -2.7195891  0.074119769   -4.0004824    1.2808932      1024000 
  677000   0.99436227   -4.0010496   -4.0010496   -2.7208248  0.075826612   -4.0010496    1.2802248      1024000 
  678000   0.99390792   -3.9986808   -3.9986808    -2.719041  0.078811958   -3.9986808    1.2796398      1024000 
  679000   0.99264527     -3.99791     -3.99791   -2.7198958  0.070688049     -3.99791    1.2780142      1024000 
  680000   0.99476166   -3.9986589   -3.9986589   -2.7179199  0.066900451   -3.9986589     1.280739      1024000 
  681000   0.99322334   -3.9982378   -3.9982378   -2.7194794  0.077477931   -3.9982378    1.2787584      1024000 
  682000   0.99399441   -3.9982531   -3.9982531    -2.718502  0.076571574   -3.9982531    1.2797512      1024000 
  683000   0.99320597   -3.9984018   -3.9984018   -2.7196658  0.065427508   -3.9984018    1.2787361      1024000 
  684000    0.9941425   -3.9974602   -3.9974602   -2.7175183  0.069301667   -3.9974602    1.2799418      1024000 
  685000   0.99274093   -3.9968911   -3.9968911   -2.7187538  0.069171874   -3.9968911    1.2781373      1024000 
  686000   0.99282343   -3.9973711   -3.9973711   -2.7191276  0.061246242   -3.9973711    1.2782436      1024000 
  687000   0.99136182    -3.994083    -3.994083   -2.7177212  0.073098674    -3.994083    1.2763618      1024000 
  688000   0.99235771   -3.9950474   -3.9950474   -2.7174034  0.066233845   -3.9950474    1.2776439      1024000 
  689000   0.99258228   -3.9956985   -3.9956985   -2.7177654  0.065510176   -3.9956985    1.2779331      1024000 
  690000   0.99291681    -3.995873    -3.995873   -2.7175092  0.073096253    -3.995873    1.2783638      1024000 
  691000   0.99495451   -3.9963307   -3.9963307   -2.7153434  0.060641483   -3.9963307    1.2809873      1024000 
  692000   0.99233413   -3.9970244   -3.9970244   -2.7194108  0.060602861   -3.9970244    1.2776136      1024000 
  693000   0.99244644   -3.9951192   -3.9951192    -2.717361  0.072660038   -3.9951192    1.2777582      1024000 
  694000   0.99256885   -3.9953969   -3.9953969   -2.7174811  0.079875302   -3.9953969    1.2779158      1024000 
  695000   0.99185485   -3.9933475   -3.9933475    -2.716351  0.074492834   -3.9933475    1.2769965      1024000 
  696000   0.99197478   -3.9929224   -3.9929224   -2.7157715  0.078588942   -3.9929224    1.2771509      1024000 
  697000   0.99136608   -3.9940894   -3.9940894   -2.7177222  0.067270931   -3.9940894    1.2763672      1024000 
  698000   0.99240945   -3.9949331   -3.9949331   -2.7172226  0.067889019   -3.9949331    1.2777106      1024000 
  699000   0.99196548    -3.997298    -3.997298    -2.720159  0.065725187    -3.997298     1.277139      1024000 
  700000   0.99311743   -3.9957328   -3.9957328   -2.7171107  0.076916577   -3.9957328    1.2786221      1024000 
  701000    0.9947892   -3.9979336   -3.9979336   -2.7171591  0.067476879   -3.9979336    1.2807745      1024000 
  702000   0.99462899   -3.9979842   -3.9979842    -2.717416  0.069237133   -3.9979842    1.2805682      1024000 
  703000   0.99534472   -3.9991485   -3.9991485   -2.7176589  0.070253975   -3.9991485    1.2814897      1024000 
  704000   0.99506637   -3.9990701   -3.9990701   -2.7179388   0.07742814   -3.9990701    1.2811313      1024000 
  705000   0.99636657   -3.9995317   -3.9995317   -2.7167264    0.0764601   -3.9995317    1.2828053      1024000 
  706000    0.9951886   -3.9984003   -3.9984003   -2.7171116  0.079202241   -3.9984003    1.2812887      1024000 
  707000   0.99415633   -3.9971319   -3.9971319   -2.7171723  0.092273062   -3.9971319    1.2799596      1024000 
  708000   0.99525656    -3.997627    -3.997627   -2.7162508  0.092696859    -3.997627    1.2813762      1024000 
  709000    0.9956335   -3.9997836   -3.9997836   -2.7179221  0.073036892   -3.9997836    1.2818615      1024000 
  710000   0.99455649    -3.997976    -3.997976   -2.7175011  0.083744212    -3.997976    1.2804748      1024000 
  711000   0.99566191   -3.9983461   -3.9983461   -2.7164481   0.07436039   -3.9983461     1.281898      1024000 
  712000   0.99290992   -3.9973469   -3.9973469    -2.718992  0.080443955   -3.9973469    1.2783549      1024000 
  713000   0.99408742   -3.9979251   -3.9979251   -2.7180542  0.069048851   -3.9979251    1.2798709      1024000 
  714000   0.99379927   -3.9973157   -3.9973157   -2.7178157   0.07417739   -3.9973157    1.2794999      1024000 
  715000   0.99371943   -3.9977631   -3.9977631   -2.7183659  0.068029511   -3.9977631    1.2793971      1024000 
  716000   0.99331197   -3.9964336   -3.9964336   -2.7175611  0.068215341   -3.9964336    1.2788725      1024000 
  717000   0.99258416    -3.993838    -3.993838   -2.7159025  0.071952232    -3.993838    1.2779355      1024000 
  718000   0.99153892   -3.9931683   -3.9931683   -2.7165785  0.071583202   -3.9931683    1.2765898      1024000 
  719000   0.99055193   -3.9936289   -3.9936289   -2.7183099  0.071284351   -3.9936289     1.275319      1024000 
  720000   0.99242768    -3.996003    -3.996003    -2.718269  0.066091715    -3.996003     1.277734      1024000 
  721000   0.99237556   -3.9929121   -3.9929121   -2.7152452  0.069769845   -3.9929121    1.2776669      1024000 
  722000   0.99225685   -3.9933856   -3.9933856   -2.7158715  0.069370328   -3.9933856    1.2775141      1024000 
  723000   0.99361394   -3.9940787   -3.9940787   -2.7148174  0.070437457   -3.9940787    1.2792613      1024000 
  724000   0.99346731   -3.9936131   -3.9936131   -2.7145405  0.066344702   -3.9936131    1.2790725      1024000 
  725000   0.99248505    -3.992733    -3.992733   -2.7149251  0.064860603    -3.992733    1.2778079      1024000 
  726000   0.99265437   -3.9933761   -3.9933761   -2.7153503  0.073716408   -3.9933761    1.2780259      1024000 
  727000   0.99407032   -3.9943778   -3.9943778   -2.7145289  0.064356621   -3.9943778    1.2798489      1024000 
  728000   0.99377283   -3.9931514   -3.9931514   -2.7136855  0.068844768   -3.9931514    1.2794659      1024000 
  729000   0.99326146   -3.9938761   -3.9938761   -2.7150686  0.059413372   -3.9938761    1.2788075      1024000 
  730000   0.99251928   -3.9924819   -3.9924819   -2.7146299  0.067223891   -3.9924819     1.277852      1024000 
  731000   0.99143042   -3.9914622   -3.9914622   -2.7150122  0.064543383   -3.9914622    1.2764501      1024000 
  732000   0.99295031   -3.9937115   -3.9937115   -2.7153046  0.063983701   -3.9937115    1.2784069      1024000 
  733000   0.99342994   -3.9942142   -3.9942142   -2.7151898  0.057909373   -3.9942142    1.2790244      1024000 
  734000   0.99316999   -3.9939809   -3.9939809   -2.7152912  0.071428825   -3.9939809    1.2786897      1024000 
  735000   0.99200732   -3.9941726   -3.9941726   -2.7169798  0.060347702   -3.9941726    1.2771928      1024000 
  736000   0.99327951   -3.9945348   -3.9945348   -2.7157041  0.079713072   -3.9945348    1.2788308      1024000 
  737000   0.99507361   -3.9951271   -3.9951271   -2.7139864  0.078104718   -3.9951271    1.2811406      1024000 
  738000   0.99251231   -3.9927682   -3.9927682   -2.7149252  0.081974222   -3.9927682     1.277843      1024000 
  739000   0.99518727   -3.9959506   -3.9959506   -2.7146637  0.066633884   -3.9959506     1.281287      1024000 
  740000   0.99401477    -3.994791    -3.994791   -2.7150136  0.069574259    -3.994791    1.2797774      1024000 
  741000    0.9944709   -3.9947112   -3.9947112   -2.7143466  0.071071325   -3.9947112    1.2803646      1024000 
  742000   0.99505059   -3.9967645   -3.9967645   -2.7156535  0.058789132   -3.9967645     1.281111      1024000 
  743000   0.99317884   -3.9956297   -3.9956297   -2.7169286   0.06255508   -3.9956297    1.2787011      1024000 
  744000   0.99374565   -3.9944298   -3.9944298   -2.7149989  0.069435767   -3.9944298    1.2794309      1024000 
  745000   0.99347413   -3.9942868   -3.9942868   -2.7152055  0.083020571   -3.9942868    1.2790813      1024000 
  746000    0.9933661   -3.9946923   -3.9946923     -2.71575  0.070619257   -3.9946923    1.2789422      1024000 
  747000    0.9950769   -3.9964257   -3.9964257   -2.7152809  0.058257777   -3.9964257    1.2811449      1024000 
  748000   0.99559603   -3.9952749   -3.9952749   -2.7134616  0.070449409   -3.9952749    1.2818132      1024000 
  749000   0.99401672   -3.9945657   -3.9945657   -2.7147858  0.068836207   -3.9945657    1.2797799      1024000 
  750000   0.99490379   -3.9946585   -3.9946585   -2.7137365  0.067339582   -3.9946585     1.280922      1024000 
  751000   0.99348237   -3.9944742   -3.9944742   -2.7153822  0.076515276   -3.9944742    1.2790919      1024000 
  752000   0.99261735   -3.9927596   -3.9927596   -2.7147814   0.07567377   -3.9927596    1.2779782      1024000 
  753000   0.99361985   -3.9935292   -3.9935292   -2.7142602  0.075909507   -3.9935292    1.2792689      1024000 
  754000   0.99358361   -3.9945049   -3.9945049   -2.7152827  0.061817725   -3.9945049    1.2792223      1024000 
  755000   0.99215178   -3.9931494   -3.9931494   -2.7157705  0.067426208   -3.9931494    1.2773788      1024000 
  756000   0.99329431   -3.9950293   -3.9950293   -2.7161795  0.060158486   -3.9950293    1.2788498      1024000 
  757000   0.99338631   -3.9941852   -3.9941852   -2.7152169  0.065925604   -3.9941852    1.2789683      1024000 
  758000   0.99312902   -3.9938688   -3.9938688   -2.7152318  0.063672437   -3.9938688     1.278637      1024000 
  759000   0.99351695   -3.9934582   -3.9934582   -2.7143218  0.064236812   -3.9934582    1.2791364      1024000 
  760000    0.9926034   -3.9938911   -3.9938911   -2.7159308  0.057772373   -3.9938911    1.2779603      1024000 
  761000    0.9916196   -3.9931743   -3.9931743   -2.7164807  0.069536788   -3.9931743    1.2766936      1024000 
  762000   0.99218222   -3.9930325   -3.9930325   -2.7156145  0.070618137   -3.9930325     1.277418      1024000 
  763000   0.99205738   -3.9926372   -3.9926372     -2.71538  0.070699305   -3.9926372    1.2772573      1024000 
  764000   0.99293497   -3.9939657   -3.9939657   -2.7155786  0.063646328   -3.9939657    1.2783872      1024000 
  765000   0.99326739   -3.9945968   -3.9945968   -2.7157817  0.066610606   -3.9945968    1.2788151      1024000 
  766000   0.99195059   -3.9933585   -3.9933585   -2.7162387  0.077742244   -3.9933585    1.2771198      1024000 
  767000   0.99292193   -3.9935041   -3.9935041   -2.7151338  0.065082492   -3.9935041    1.2783704      1024000 
  768000   0.99333687   -3.9953457   -3.9953457   -2.7164411   0.07158187   -3.9953457    1.2789046      1024000 
  769000   0.99421716   -3.9952356   -3.9952356   -2.7151977  0.076519694   -3.9952356     1.280038      1024000 
  770000   0.99302028   -3.9959153   -3.9959153   -2.7174183  0.067593912   -3.9959153     1.278497      1024000 
  771000   0.99253365   -3.9967061   -3.9967061   -2.7188357  0.073009404   -3.9967061    1.2778705      1024000 
  772000   0.99397586   -3.9962591   -3.9962591   -2.7165318  0.074145498   -3.9962591    1.2797273      1024000 
  773000   0.99445853   -3.9968783   -3.9968783   -2.7165296  0.067640929   -3.9968783    1.2803487      1024000 
  774000   0.99416945   -3.9973611   -3.9973611   -2.7173845  0.073409186   -3.9973611    1.2799765      1024000 
  775000   0.99492531   -3.9989136   -3.9989136   -2.7179639  0.075903006   -3.9989136    1.2809497      1024000 
  776000   0.99516375   -3.9976454   -3.9976454   -2.7163887  0.064501452   -3.9976454    1.2812567      1024000 
  777000   0.99317161   -3.9963177   -3.9963177   -2.7176258  0.072117958   -3.9963177    1.2786918      1024000 
  778000   0.99392384   -3.9984245   -3.9984245   -2.7187642  0.072516657   -3.9984245    1.2796603      1024000 
  779000   0.99546909   -3.9991283   -3.9991283   -2.7174785  0.074991999   -3.9991283    1.2816498      1024000 
  780000   0.99510912   -3.9977937   -3.9977937   -2.7166074  0.072528065   -3.9977937    1.2811863      1024000 
  781000   0.99494939   -3.9972188   -3.9972188   -2.7162381  0.072592934   -3.9972188    1.2809807      1024000 
  782000   0.99508764   -3.9992867   -3.9992867    -2.718128  0.080151965   -3.9992867    1.2811587      1024000 
  783000   0.99415547   -3.9986632   -3.9986632   -2.7187046  0.068455646   -3.9986632    1.2799585      1024000 
  784000    0.9936713   -3.9971565   -3.9971565   -2.7178214  0.078616287   -3.9971565    1.2793352      1024000 
  785000   0.99424766   -3.9964641   -3.9964641   -2.7163869  0.081845463   -3.9964641    1.2800772      1024000 
  786000     0.996458   -3.9977043   -3.9977043   -2.7147813   0.06410749   -3.9977043     1.282923      1024000 
  787000   0.99521502   -3.9976178   -3.9976178   -2.7162951  0.065733799   -3.9976178    1.2813227      1024000 
  788000   0.99205388   -3.9937454   -3.9937454   -2.7164926  0.072585398   -3.9937454    1.2772528      1024000 
  789000   0.99266918   -3.9945635   -3.9945635   -2.7165186  0.074618447   -3.9945635     1.278045      1024000 
  790000   0.99232572   -3.9951441   -3.9951441   -2.7175413  0.063439401   -3.9951441    1.2776028      1024000 
  791000    0.9918015    -3.993667    -3.993667   -2.7167392  0.072202264    -3.993667    1.2769278      1024000 
  792000   0.99292259   -3.9952834   -3.9952834   -2.7169122  0.066827544   -3.9952834    1.2783712      1024000 
  793000   0.99292173   -3.9938609   -3.9938609   -2.7154907  0.060135811   -3.9938609    1.2783701      1024000 
  794000   0.99172256   -3.9920784   -3.9920784   -2.7152522  0.078819834   -3.9920784    1.2768262      1024000 
  795000   0.99385131   -3.9929138   -3.9929138   -2.7133469  0.068116286   -3.9929138    1.2795669      1024000 
  796000   0.99329883   -3.9932716   -3.9932716    -2.714416  0.070786887   -3.9932716    1.2788556      1024000 
  797000   0.99085065   -3.9909299   -3.9909299   -2.7152263  0.066792916   -3.9909299    1.2757036      1024000 
  798000   0.99324495   -3.9927353   -3.9927353   -2.7139491  0.063027111   -3.9927353    1.2787862      1024000 
  799000   0.99385392   -3.9940536   -3.9940536   -2.7144833  0.068597165   -3.9940536    1.2795703      1024000 
  800000   0.99311851   -3.9928706   -3.9928706   -2.7142471  0.066838105   -3.9928706    1.2786235      1024000 
  801000   0.99197344   -3.9916262   -3.9916262    -2.714477  0.067610059   -3.9916262    1.2771492      1024000 
  802000   0.99403492   -3.9943798   -3.9943798   -2.7145765  0.051887273   -3.9943798    1.2798033      1024000 
  803000   0.99338631   -3.9941505   -3.9941505   -2.7151822  0.061544373   -3.9941505    1.2789682      1024000 
  804000   0.99375311   -3.9939425   -3.9939425    -2.714502  0.069151702   -3.9939425    1.2794405      1024000 
  805000   0.99242792   -3.9948707   -3.9948707   -2.7171364  0.069654354   -3.9948707    1.2777343      1024000 
  806000    0.9950066   -3.9945644   -3.9945644   -2.7135101  0.066724297   -3.9945644    1.2810544      1024000 
  807000   0.99577062    -3.995613    -3.995613    -2.713575  0.074324231    -3.995613     1.282038      1024000 
  808000   0.99518427   -3.9963348   -3.9963348   -2.7150517  0.058718411   -3.9963348    1.2812831      1024000 
  809000    0.9945026   -3.9943676   -3.9943676   -2.7139621  0.074079657   -3.9943676    1.2804055      1024000 
  810000   0.99432616   -3.9955891   -3.9955891   -2.7154108  0.068362561   -3.9955891    1.2801783      1024000 
  811000   0.99406868   -3.9964419   -3.9964419   -2.7165951  0.067600841   -3.9964419    1.2798468      1024000 
  812000   0.99263828   -3.9956486   -3.9956486   -2.7176434  0.072576311   -3.9956486    1.2780052      1024000 
  813000   0.99342252   -3.9956925   -3.9956925   -2.7166776  0.076969205   -3.9956925    1.2790149      1024000 
  814000   0.99584211   -3.9975206   -3.9975206   -2.7153906  0.071434505   -3.9975206      1.28213      1024000 
  815000   0.99404414   -3.9963676   -3.9963676   -2.7165524  0.075427717   -3.9963676    1.2798152      1024000 
  816000   0.99340489   -3.9944289   -3.9944289   -2.7154367  0.079154089   -3.9944289    1.2789922      1024000 
  817000   0.99396814   -3.9974104   -3.9974104    -2.717693  0.060355147   -3.9974104    1.2797174      1024000 
  818000   0.99308159    -3.996427    -3.996427   -2.7178511  0.073669213    -3.996427    1.2785759      1024000 
  819000   0.99329931   -3.9946125   -3.9946125   -2.7157563  0.072057045   -3.9946125    1.2788562      1024000 
  820000   0.99288131   -3.9945267   -3.9945267   -2.7162086   0.07174262   -3.9945267    1.2783181      1024000 
  821000   0.99458107   -3.9956935   -3.9956935    -2.715187  0.070618184   -3.9956935    1.2805065      1024000 
  822000   0.99501256    -3.997081    -3.997081   -2.7160189  0.072267834    -3.997081     1.281062      1024000 
  823000     0.993993   -3.9965516   -3.9965516   -2.7168022  0.061802487   -3.9965516    1.2797494      1024000 
  824000   0.99632981   -3.9977202   -3.9977202   -2.7149622  0.071552716   -3.9977202     1.282758      1024000 
  825000   0.99435136   -3.9946676   -3.9946676   -2.7144568  0.078916649   -3.9946676    1.2802107      1024000 
  826000   0.99461239   -3.9971095   -3.9971095   -2.7165627  0.069930676   -3.9971095    1.2805468      1024000 
  827000   0.99573087   -3.9958498   -3.9958498    -2.713863   0.07400519   -3.9958498    1.2819868      1024000 
  828000   0.99485252   -3.9949203   -3.9949203   -2.7140644  0.072866867   -3.9949203     1.280856      1024000 
  829000   0.99435426   -3.9948911   -3.9948911   -2.7146767  0.063939991   -3.9948911    1.2802145      1024000 
  830000   0.99438781   -3.9952033   -3.9952033   -2.7149456  0.077044278   -3.9952033    1.2802577      1024000 
  831000   0.99414579   -3.9960239   -3.9960239   -2.7160778  0.063838112   -3.9960239    1.2799461      1024000 
  832000   0.99366887   -3.9950107   -3.9950107   -2.7156787  0.064546738   -3.9950107     1.279332      1024000 
  833000   0.99387247   -3.9927679   -3.9927679   -2.7131737  0.077686015   -3.9927679    1.2795942      1024000 
  834000   0.99128067   -3.9933374   -3.9933374   -2.7170801  0.070812038   -3.9933374    1.2762573      1024000 
  835000   0.99459106   -3.9966651   -3.9966651   -2.7161457   0.05804786   -3.9966651    1.2805193      1024000 
  836000   0.99267368   -3.9932061   -3.9932061   -2.7151553  0.069334239   -3.9932061    1.2780507      1024000 
  837000   0.99243925   -3.9943717   -3.9943717   -2.7166228  0.067427933   -3.9943717    1.2777489      1024000 
  838000    0.9929592   -3.9933406   -3.9933406   -2.7149223  0.066177512   -3.9933406    1.2784183      1024000 
  839000   0.99380036   -3.9942672   -3.9942672   -2.7147659  0.060650785   -3.9942672    1.2795013      1024000 
  840000   0.99264786   -3.9939557   -3.9939557   -2.7159382  0.071936505   -3.9939557    1.2780175      1024000 
  841000   0.99172882   -3.9922614   -3.9922614   -2.7154272   0.07766258   -3.9922614    1.2768343      1024000 
  842000   0.99336508   -3.9936756   -3.9936756   -2.7147347  0.070697723   -3.9936756    1.2789409      1024000 
  843000   0.99172965   -3.9924019   -3.9924019   -2.7155666   0.07150071   -3.9924019    1.2768353      1024000 
  844000   0.99190549   -3.9916099   -3.9916099   -2.7145482  0.072762853   -3.9916099    1.2770617      1024000 
  845000   0.99360606   -3.9934706   -3.9934706   -2.7142194  0.068836509   -3.9934706    1.2792512      1024000 
  846000   0.99295943   -3.9928458   -3.9928458   -2.7144271  0.077700843   -3.9928458    1.2784187      1024000 
  847000   0.99448553   -3.9935856   -3.9935856   -2.7132021  0.073960247   -3.9935856    1.2803835      1024000 
  848000   0.99477826   -3.9947767   -3.9947767   -2.7140163  0.067366724   -3.9947767    1.2807604      1024000 
  849000   0.99582675   -3.9955624   -3.9955624   -2.7134521  0.068146521   -3.9955624    1.2821103      1024000 
  850000   0.99489297   -3.9938456   -3.9938456   -2.7129375  0.073749763   -3.9938456     1.280908      1024000 
  851000   0.99577843   -3.9946884   -3.9946884   -2.7126404  0.070693098   -3.9946884    1.2820481      1024000 
  852000   0.99661475   -3.9956959   -3.9956959   -2.7125711  0.064384407   -3.9956959    1.2831248      1024000 
  853000   0.99434883   -3.9936214   -3.9936214   -2.7134139  0.068928175   -3.9936214    1.2802075      1024000 
  854000   0.99346693   -3.9938854   -3.9938854   -2.7148133  0.073096698   -3.9938854     1.279072      1024000 
  855000   0.99402155   -3.9946599   -3.9946599   -2.7148738  0.067933842   -3.9946599    1.2797861      1024000 
  856000    0.9949522   -3.9946494   -3.9946494    -2.713665  0.087099667   -3.9946494    1.2809843      1024000 
  857000   0.99316595   -3.9936603   -3.9936603   -2.7149758  0.076413586   -3.9936603    1.2786845      1024000 
  858000   0.99404745   -3.9950953   -3.9950953   -2.7152758  0.076914098   -3.9950953    1.2798195      1024000 
  859000   0.99363802   -3.9938752   -3.9938752   -2.7145829  0.085868794   -3.9938752    1.2792923      1024000 
  860000    0.9938289   -3.9959497   -3.9959497   -2.7164116  0.066406315   -3.9959497    1.2795381      1024000 
  861000   0.99306982   -3.9946047   -3.9946047   -2.7160439  0.067043293   -3.9946047    1.2785608      1024000 
  862000   0.99472643   -3.9944246   -3.9944246    -2.713731  0.077023691   -3.9944246    1.2806936      1024000 
  863000   0.99483895   -3.9970035   -3.9970035    -2.716165  0.069236638   -3.9970035    1.2808385      1024000 
  864000   0.99383553   -3.9931504   -3.9931504   -2.7136038  0.072492734   -3.9931504    1.2795466      1024000 
  865000   0.99538684   -3.9947624   -3.9947624   -2.7132185  0.058891394   -3.9947624    1.2815439      1024000 
  866000   0.99402352   -3.9929113   -3.9929113   -2.7131227  0.084213924   -3.9929113    1.2797886      1024000 
  867000   0.99461063   -3.9959314   -3.9959314   -2.7153868  0.069060424   -3.9959314    1.2805445      1024000 
  868000   0.99392619   -3.9939562   -3.9939562   -2.7142929  0.068920747   -3.9939562    1.2796633      1024000 
  869000   0.99473992   -3.9944349   -3.9944349   -2.7137239  0.065632118   -3.9944349     1.280711      1024000 
  870000   0.99327299   -3.9930811   -3.9930811   -2.7142587  0.063072983   -3.9930811    1.2788224      1024000 
  871000   0.99564469   -3.9937866   -3.9937866   -2.7119107  0.065827016   -3.9937866    1.2818759      1024000 
  872000   0.99378627   -3.9915855   -3.9915855   -2.7121023   0.07302537   -3.9915855    1.2794832      1024000 
  873000   0.99356433   -3.9923929   -3.9923929   -2.7131955  0.071280213   -3.9923929    1.2791974      1024000 
  874000   0.99445511   -3.9931413   -3.9931413    -2.712797  0.065305738   -3.9931413    1.2803443      1024000 
  875000   0.99394785   -3.9917886   -3.9917886   -2.7120974  0.084006057   -3.9917886    1.2796912      1024000 
  876000   0.99300048   -3.9918229   -3.9918229   -2.7133514  0.069262528   -3.9918229    1.2784715      1024000 
  877000   0.99301405   -3.9926232   -3.9926232   -2.7141342  0.060570264   -3.9926232     1.278489      1024000 
  878000   0.99248327   -3.9904441   -3.9904441   -2.7126385   0.06322655   -3.9904441    1.2778056      1024000 
  879000   0.99321321    -3.993011    -3.993011   -2.7142656  0.062963006    -3.993011    1.2787454      1024000 
  880000   0.99477982    -3.993194    -3.993194   -2.7124316  0.062043925    -3.993194    1.2807624      1024000 
  881000   0.99394158    -3.990807    -3.990807   -2.7111239  0.070940651    -3.990807    1.2796831      1024000 
  882000   0.99403122   -3.9934558   -3.9934558   -2.7136572  0.079591976   -3.9934558    1.2797986      1024000 
  883000   0.99310253   -3.9913802   -3.9913802   -2.7127773  0.074540941   -3.9913802    1.2786029      1024000 
  884000    0.9944776   -3.9916182   -3.9916182   -2.7112449  0.074898969   -3.9916182    1.2803733      1024000 
  885000   0.99521996   -3.9940601   -3.9940601    -2.712731  0.070749586   -3.9940601     1.281329      1024000 
  886000   0.99375691   -3.9926175   -3.9926175   -2.7131722  0.078003274   -3.9926175    1.2794454      1024000 
  887000   0.99593095   -3.9946694   -3.9946694    -2.712425  0.064967611   -3.9946694    1.2822444      1024000 
  888000   0.99390274   -3.9924198   -3.9924198   -2.7127866  0.068767008   -3.9924198    1.2796331      1024000 
  889000   0.99375706   -3.9916657   -3.9916657   -2.7122201  0.080706495   -3.9916657    1.2794456      1024000 
  890000   0.99539307   -3.9937522   -3.9937522   -2.7122002  0.064456159   -3.9937522    1.2815519      1024000 
  891000   0.99449834   -3.9930917   -3.9930917   -2.7126917  0.070872829   -3.9930917       1.2804      1024000 
  892000   0.99449527   -3.9928499   -3.9928499   -2.7124539  0.071267094   -3.9928499     1.280396      1024000 
  893000   0.99480327   -3.9941854   -3.9941854   -2.7133929  0.066684491   -3.9941854    1.2807926      1024000 
  894000   0.99575438   -3.9939481   -3.9939481    -2.711931  0.070425602   -3.9939481    1.2820171      1024000 
  895000   0.99309798   -3.9921383   -3.9921383   -2.7135412  0.073413512   -3.9921383     1.278597      1024000 
  896000   0.99217369   -3.9907125   -3.9907125   -2.7133055  0.074100411   -3.9907125     1.277407      1024000 
  897000   0.99528548   -3.9932048   -3.9932048   -2.7117914  0.073103845   -3.9932048    1.2814134      1024000 
  898000   0.99501128   -3.9933404   -3.9933404   -2.7122801  0.076070949   -3.9933404    1.2810604      1024000 
  899000   0.99604218   -3.9931459   -3.9931459   -2.7107583  0.078226489   -3.9931459    1.2823876      1024000 
  900000   0.99566982    -3.992268    -3.992268   -2.7103598  0.067679841    -3.992268    1.2819082      1024000 
  901000   0.99680837   -3.9948347   -3.9948347   -2.7114606  0.074324952   -3.9948347    1.2833741      1024000 
  902000   0.99421866   -3.9931548   -3.9931548   -2.7131149  0.067585335   -3.9931548    1.2800399      1024000 
  903000   0.99420347   -3.9924239   -3.9924239   -2.7124035  0.074396323   -3.9924239    1.2800203      1024000 
  904000   0.99409712   -3.9917426   -3.9917426   -2.7118592  0.074715568   -3.9917426    1.2798834      1024000 
  905000   0.99349498   -3.9914704   -3.9914704   -2.7123622  0.069973353   -3.9914704    1.2791082      1024000 
  906000   0.99449643   -3.9924035   -3.9924035    -2.712006  0.072315399   -3.9924035    1.2803975      1024000 
  907000   0.99354887   -3.9900074   -3.9900074   -2.7108298  0.071731419   -3.9900074    1.2791776      1024000 
  908000   0.99381218   -3.9901415   -3.9901415    -2.710625  0.071307538   -3.9901415    1.2795166      1024000 
  909000    0.9935182   -3.9915125   -3.9915125   -2.7123745  0.069797542   -3.9915125    1.2791381      1024000 
  910000   0.99335471   -3.9885197   -3.9885197   -2.7095921  0.068394441   -3.9885197    1.2789276      1024000 
  911000   0.99467063    -3.990645    -3.990645   -2.7100232  0.069514955    -3.990645    1.2806218      1024000 
  912000   0.99393028   -3.9912535   -3.9912535   -2.7115849  0.069296543   -3.9912535    1.2796686      1024000 
  913000   0.99597868   -3.9928487   -3.9928487   -2.7105428  0.068731915   -3.9928487    1.2823059      1024000 
  914000   0.99431482   -3.9910486   -3.9910486   -2.7108849  0.071800035   -3.9910486    1.2801637      1024000 
  915000   0.99307244   -3.9901533   -3.9901533   -2.7115892  0.073861607   -3.9901533    1.2785642      1024000 
  916000   0.99338826   -3.9901034   -3.9901034   -2.7111326  0.063208394   -3.9901034    1.2789708      1024000 
  917000   0.99260415   -3.9891804   -3.9891804   -2.7112192  0.065369777   -3.9891804    1.2779612      1024000 
  918000   0.99354677   -3.9894329   -3.9894329   -2.7102581  0.067452089   -3.9894329    1.2791748      1024000 
  919000   0.99390637   -3.9900524   -3.9900524   -2.7104146  0.066747947   -3.9900524    1.2796378      1024000 
  920000   0.99496924   -3.9910969   -3.9910969   -2.7100906  0.066014358   -3.9910969    1.2810062      1024000 
  921000   0.99433944   -3.9896485   -3.9896485   -2.7094531  0.064514034   -3.9896485    1.2801954      1024000 
  922000    0.9940276   -3.9892909   -3.9892909    -2.709497  0.070773644   -3.9892909    1.2797939      1024000 
  923000    0.9937578    -3.990185    -3.990185   -2.7107385  0.072911825    -3.990185    1.2794465      1024000 
  924000   0.99666886   -3.9902053   -3.9902053   -2.7070108  0.075199965   -3.9902053    1.2831945      1024000 
  925000   0.99470029   -3.9883462   -3.9883462   -2.7076862  0.075380255   -3.9883462      1.28066      1024000 
  926000   0.99450397    -3.989979    -3.989979   -2.7095717   0.06868444    -3.989979    1.2804072      1024000 
  927000   0.99324924    -3.989991    -3.989991   -2.7111992  0.068824002    -3.989991    1.2787918      1024000 
  928000   0.99464849   -3.9889107   -3.9889107   -2.7083174  0.079407326   -3.9889107    1.2805933      1024000 
  929000   0.99456616    -3.989897    -3.989897   -2.7094097   0.07466487    -3.989897    1.2804873      1024000 
  930000   0.99455232   -3.9892785   -3.9892785   -2.7088091  0.067979127   -3.9892785    1.2804695      1024000 
  931000   0.99345832   -3.9881254   -3.9881254   -2.7090644  0.072808036   -3.9881254     1.279061      1024000 
  932000   0.99372219   -3.9888874   -3.9888874   -2.7094867  0.061458244   -3.9888874    1.2794007      1024000 
  933000    0.9943442   -3.9889338   -3.9889338   -2.7087323  0.069200395   -3.9889338    1.2802015      1024000 
  934000   0.99234666   -3.9891166   -3.9891166   -2.7114868  0.072495273   -3.9891166    1.2776297      1024000 
  935000    0.9949448   -3.9899973   -3.9899973   -2.7090225  0.073662019   -3.9899973    1.2809748      1024000 
  936000   0.99368209   -3.9893978   -3.9893978   -2.7100488  0.072088568   -3.9893978    1.2793491      1024000 
  937000   0.99503753   -3.9911009   -3.9911009   -2.7100067  0.068399312   -3.9911009    1.2810942      1024000 
  938000    0.9949595   -3.9918324   -3.9918324   -2.7108387  0.068332677   -3.9918324    1.2809937      1024000 
  939000   0.99621791   -3.9941531   -3.9941531   -2.7115392  0.063117971   -3.9941531    1.2826139      1024000 
  940000   0.99592141   -3.9938846   -3.9938846   -2.7116524  0.066095246   -3.9938846    1.2822322      1024000 
  941000   0.99621074   -3.9926872   -3.9926872   -2.7100825  0.069258669   -3.9926872    1.2826047      1024000 
  942000   0.99726315   -3.9931338   -3.9931338   -2.7091742  0.062352977   -3.9931338    1.2839596      1024000 
  943000   0.99461145   -3.9895105   -3.9895105   -2.7089649  0.081586618   -3.9895105    1.2805456      1024000 
  944000   0.99612453   -3.9914102   -3.9914102   -2.7089165   0.07291315   -3.9914102    1.2824937      1024000 
  945000   0.99577913   -3.9908229   -3.9908229   -2.7087739  0.069881492   -3.9908229     1.282049      1024000 
  946000   0.99512112   -3.9909668   -3.9909668    -2.709765   0.07379943   -3.9909668    1.2812018      1024000 
  947000     0.995302   -3.9912361   -3.9912361   -2.7098014  0.076757894   -3.9912361    1.2814347      1024000 
  948000   0.99499622    -3.991296    -3.991296   -2.7102551  0.069188662    -3.991296     1.281041      1024000 
  949000   0.99362933   -3.9906481   -3.9906481   -2.7113669  0.073901291   -3.9906481    1.2792811      1024000 
  950000   0.99370151   -3.9908578   -3.9908578   -2.7114837  0.069245767   -3.9908578    1.2793741      1024000 
  951000   0.99585764   -3.9927752   -3.9927752   -2.7106252  0.061147159   -3.9927752    1.2821501      1024000 
  952000   0.99357297   -3.9900484   -3.9900484   -2.7108398  0.067689498   -3.9900484    1.2792086      1024000 
  953000   0.99463454    -3.991202    -3.991202   -2.7106267  0.064185884    -3.991202    1.2805753      1024000 
  954000   0.99326731   -3.9909815   -3.9909815   -2.7121665   0.05959873   -3.9909815     1.278815      1024000 
  955000   0.99464113   -3.9905035   -3.9905035   -2.7099197   0.06448278   -3.9905035    1.2805838      1024000 
  956000   0.99501861   -3.9894485   -3.9894485   -2.7083786  0.071499111   -3.9894485    1.2810698      1024000 
  957000   0.99357182   -3.9892458   -3.9892458   -2.7100387  0.077799355   -3.9892458    1.2792071      1024000 
  958000   0.99455964   -3.9894896   -3.9894896   -2.7090107  0.070029131   -3.9894896    1.2804789      1024000 
  959000   0.99307086   -3.9879441   -3.9879441    -2.709382  0.065202672   -3.9879441    1.2785621      1024000 
  960000   0.99504147   -3.9897763   -3.9897763   -2.7086771  0.074394379   -3.9897763    1.2810992      1024000 
  961000   0.99612427   -3.9907234   -3.9907234   -2.7082301  0.069056145   -3.9907234    1.2824933      1024000 
  962000   0.99477761    -3.989454    -3.989454   -2.7086945  0.073918341    -3.989454    1.2807595      1024000 
  963000   0.99486825   -3.9889237   -3.9889237   -2.7080475  0.069053051   -3.9889237    1.2808762      1024000 
  964000    0.9944883   -3.9893244   -3.9893244   -2.7089374  0.074835433   -3.9893244    1.2803871      1024000 
  965000   0.99431576   -3.9902814   -3.9902814   -2.7101165  0.064398862   -3.9902814    1.2801649      1024000 
  966000    0.9938594   -3.9896877   -3.9896877   -2.7101103  0.065011726   -3.9896877    1.2795773      1024000 
  967000   0.99293406   -3.9891926   -3.9891926   -2.7108066  0.066144864   -3.9891926     1.278386      1024000 
  968000   0.99548876   -3.9909225   -3.9909225   -2.7092474  0.064144539   -3.9909225    1.2816751      1024000 
  969000   0.99045137   -3.9845898   -3.9845898   -2.7094002  0.077046102   -3.9845898    1.2751896      1024000 
  970000    0.9930539   -3.9882387   -3.9882387   -2.7096984  0.061012456   -3.9882387    1.2785403      1024000 
  971000   0.99475791   -3.9903771   -3.9903771   -2.7096429  0.060334544   -3.9903771    1.2807342      1024000 
  972000   0.99358998   -3.9888417   -3.9888417   -2.7096112  0.069251779   -3.9888417    1.2792305      1024000 
  973000   0.99358225   -3.9888577   -3.9888577   -2.7096371  0.063647529   -3.9888577    1.2792205      1024000 
  974000   0.99286144   -3.9870865   -3.9870865    -2.708794  0.074007739   -3.9870865    1.2782925      1024000 
  975000   0.99402375   -3.9880096   -3.9880096   -2.7082207  0.077916736   -3.9880096    1.2797889      1024000 
  976000   0.99353483   -3.9886079   -3.9886079   -2.7094485  0.064904117   -3.9886079    1.2791595      1024000 
  977000   0.99467763    -3.987245    -3.987245   -2.7066142  0.071646283    -3.987245    1.2806308      1024000 
  978000   0.99417287   -3.9875323   -3.9875323   -2.7075514  0.073025935   -3.9875323    1.2799809      1024000 
  979000   0.99516691   -3.9891323   -3.9891323   -2.7078716  0.065706006   -3.9891323    1.2812607      1024000 
  980000   0.99540807   -3.9872146   -3.9872146   -2.7056434  0.078145582   -3.9872146    1.2815712      1024000 
  981000   0.99389707    -3.987115    -3.987115   -2.7074892  0.070827116    -3.987115    1.2796258      1024000 
  982000   0.99458968   -3.9877987   -3.9877987   -2.7072811   0.06990925   -3.9877987    1.2805176      1024000 
  983000   0.99315493     -3.98754     -3.98754   -2.7088697  0.075347622     -3.98754    1.2786704      1024000 
  984000   0.99476693   -3.9893593   -3.9893593   -2.7086135  0.069298074   -3.9893593    1.2807458      1024000 
  985000   0.99444269   -3.9889479   -3.9889479   -2.7086196  0.074000224   -3.9889479    1.2803283      1024000 
  986000   0.99463748   -3.9871819   -3.9871819   -2.7066028  0.077305221   -3.9871819    1.2805791      1024000 
  987000     0.994674   -3.9883198   -3.9883198   -2.7076936  0.066021526   -3.9883198    1.2806261      1024000 
  988000   0.99420619   -3.9888356   -3.9888356   -2.7088117  0.068684736   -3.9888356    1.2800238      1024000 
  989000   0.99333272   -3.9874843   -3.9874843    -2.708585  0.075420223   -3.9874843    1.2788993      1024000 
  990000    0.9918775   -3.9866762   -3.9866762   -2.7096505  0.074412471   -3.9866762    1.2770257      1024000 
  991000   0.99399295   -3.9881189   -3.9881189   -2.7083696  0.078236189   -3.9881189    1.2797493      1024000 
  992000    0.9959317   -3.9906349   -3.9906349   -2.7083895  0.074995354   -3.9906349    1.2822454      1024000 
  993000   0.99580811   -3.9908495   -3.9908495   -2.7087633  0.071670074   -3.9908495    1.2820863      1024000 
  994000   0.99435511   -3.9888328   -3.9888328   -2.7086172  0.073124485   -3.9888328    1.2802156      1024000 
  995000   0.99229799     -3.98691     -3.98691   -2.7093429  0.067823105     -3.98691    1.2775671      1024000 
  996000   0.99277854   -3.9875697   -3.9875697   -2.7093839  0.069160022   -3.9875697    1.2781858      1024000 
  997000   0.99531936   -3.9887661   -3.9887661    -2.707309  0.070343678   -3.9887661     1.281457      1024000 
  998000   0.99639991   -3.9887471   -3.9887471   -2.7058989   0.06756057   -3.9887471    1.2828482      1024000 
  999000   0.99481056    -3.988696    -3.988696    -2.707894  0.074143292    -3.988696     1.280802      1024000 
 1000000   0.99576274   -3.9885256   -3.9885256   -2.7064977  0.082502853   -3.9885256    1.2820279      1024000 
Loop time of 52758.4 on 64 procs for 1000000 steps with 515430 atoms

Performance: 4094.135 tau/day, 18.954 timesteps/s
99.4% CPU use with 64 MPI tasks x 1 OpenMP threads

MPI task timing breakdown:
Section |  min time  |  avg time  |  max time  |%varavg|  %CPU | %total
-----------------------------------------------------------------------
Pair    | 14537      | 20219      | 30736      |2870.8 |  99.5 | 38.32
Bond    | 0.59778    | 0.78035    | 1.7341     |  23.3 | 100.0 |  0.00
Neigh   | 4373       | 7438.1     | 12778      |2091.9 |  99.9 | 14.10
Comm    | 6900.8     | 22207      | 29729      |3803.8 |  99.0 | 42.09
Output  | 27.522     | 29.979     | 35.728     |  61.8 | 100.0 |  0.06
Modify  | 1911       | 2684.2     | 3915.5     |1518.3 |  99.7 |  5.09
Other   |            | 179.2      |            |       |       |  0.34

Nlocal:    8053.59 ave 8667 max 7359 min
Histogram: 1 1 2 3 18 24 8 4 1 2
Nghost:    26809.8 ave 32023 max 18426 min
Histogram: 16 0 0 0 0 0 0 30 6 12
Neighs:    1.11599e+06 ave 1.30073e+06 max 844384 min
Histogram: 3 3 2 1 8 22 7 2 4 12

Total # of neighbors = 71423579
Ave neighs/atom = 138.571
Ave special neighs/atom = 0
Neighbor list builds = 65438
Dangerous builds = 0
Total wall time: 14:39:19
