LAMMPS (24 Dec 2020)
OMP_NUM_THREADS environment is not set. Defaulting to 1 thread. (src/comm.cpp:94)
  using 1 OpenMP thread(s) per MPI task
# Simple rigid body system
# needed variables: startTemp, temp

units		lj
atom_style	full
dimension 	3
boundary	p p f
pair_style	lj/cut/opt 2.5

variable 	gcmcdisplace	equal 0
variable 	sigma		equal 1.0
variable 	epsilon 	equal 1.0


read_restart	restart.dat.3000000
Reading restart file ...
  restart file = 24 Dec 2020, LAMMPS = 24 Dec 2020
WARNING: Restart file used different # of processors: 48 vs. 192 (src/read_restart.cpp:697)
  restoring atom style full from restart
  orthogonal box = (0.0000000 0.0000000 0.0000000) to (80.000000 80.000000 160.00000)
  6 by 4 by 8 MPI processor grid
  restoring pair style lj/cut/opt from restart
  439061 atoms
Finding 1-2 1-3 1-4 neighbors ...
  special bond factors lj:    0        0        0       
  special bond factors coul:  0        0        0       
     0 = max # of 1-2 neighbors
     0 = max # of 1-3 neighbors
     0 = max # of 1-4 neighbors
     1 = max # of special neighbors
  special bonds CPU = 1.401 seconds
  read_restart CPU = 1.724 seconds

mass		1 1.0
mass		2 1.0
mass		3 1.0


group		solvent type 1
439061 atoms in group solvent


neighbor 	0.4 bin

pair_coeff	1 1 1.0 1.0
pair_coeff	2 2 0.0 0.0
pair_coeff	3 3 0.0 0.0
pair_coeff	2 3 0.0 0.0
pair_coeff	1 2*3 0.0 0.0

pair_modify 	shift yes


balance 	1.05 shift z 10 1.05
Balancing ...
Neighbor list info ...
  update every 1 steps, delay 10 steps, check yes
  max neighbors/atom: 2000, page size: 100000
  master list distance cutoff = 2.9
  ghost atom cutoff = 2.9
  binsize = 1.45, bins = 56 56 111
  1 neighbor lists, perpetual/occasional/extra = 1 0 0
  (1) pair lj/cut/opt, perpetual
      attributes: half, newton on
      pair build: half/bin/newton
      stencil: half/bin/3d/newton
      bin: standard
 rebalancing time: 0.024 seconds
  iteration count = 5
  initial/final maximal load/proc = 3162.0000 2575.0000
  initial/final imbalance factor  = 1.3827327 1.1260394
  x cuts: 0.0000000 0.16666667 0.33333333 0.50000000 0.66666667 0.83333333 1.0000000
  y cuts: 0.0000000 0.25000000 0.50000000 0.75000000 1.0000000
  z cuts: 0.0000000 0.097656250 0.18359375 0.27734375 0.37890625 0.47656250 0.57031250 0.67968750 1.0000000


####################### WALLS ###########################


variable       epsilonWall equal 2*${epsilon}
variable       epsilonWall equal 2*1

variable       cutoffTop   equal   0.7147*${sigma}
variable       cutoffTop   equal   0.7147*1

variable       cutoffLow   equal   3*${sigma}
variable       cutoffLow   equal   3*1


fix            topWall all wall/lj93 zhi EDGE                ${epsilonWall} ${sigma} ${cutoffTop} units box
fix            topWall all wall/lj93 zhi EDGE                2 ${sigma} ${cutoffTop} units box
fix            topWall all wall/lj93 zhi EDGE                2 1 ${cutoffTop} units box
fix            topWall all wall/lj93 zhi EDGE                2 1 0.7147 units box

fix            lowWall all wall/lj93 zlo EDGE                ${epsilonWall} ${sigma} ${cutoffLow} units box
fix            lowWall all wall/lj93 zlo EDGE                2 ${sigma} ${cutoffLow} units box
fix            lowWall all wall/lj93 zlo EDGE                2 1 ${cutoffLow} units box
fix            lowWall all wall/lj93 zlo EDGE                2 1 3 units box


###################### COMPUTES ##########################

compute        bin1 solvent chunk/atom bin/1d z upper 1.0



######################	FIXES ############################


fix 		peclet solvent ave/chunk 1000 1 1000 bin1 density/number norm 		 none ave one file density.profile

fix 		 temp solvent ave/chunk 1000 1 1000 bin1 temp norm none ave one file temp.profile

fix 		2 solvent nve

## Thermostat


region		regthermo block EDGE EDGE EDGE EDGE 0 20

group 		thermo dynamic solvent region regthermo every 1000
dynamic group thermo defined

fix 		3 thermo langevin ${startTemp} ${temp} 10 156453
fix 		3 thermo langevin 1.0 ${temp} 10 156453
fix 		3 thermo langevin 1.0 1.0 10 156453


## Evaporation

region		regevap block EDGE EDGE EDGE EDGE 140 158
fix 		gcmc solvent gcmc 100 100 0 1 780493 ${temp} ${mu} ${gcmcdisplace} region regevap
fix 		gcmc solvent gcmc 100 100 0 1 780493 1.0 ${mu} ${gcmcdisplace} region regevap
fix 		gcmc solvent gcmc 100 100 0 1 780493 1.0 -3.7 ${gcmcdisplace} region regevap
fix 		gcmc solvent gcmc 100 100 0 1 780493 1.0 -3.7 0 region regevap


#### Load balancing

fix 		bal all balance 1000 1.05 shift z 10 1.05

############### Diagnostics and computes ###################
#compute 	com cube	  rigid/local	1 mol x y z
#compute 	quat cube	  rigid/local	1 mol quatw quati quatj quatk

thermo 		1000
thermo_style 	custom step temp epair etotal press pe ke atoms

dump		1 all custom 100000 dump.lammpstrj id mol type x y z
dump 		2 all image 10000 image.*.png type type
dump 		3 all movie 1000 movie.avi type type
#dump 		com cube local 1000 dump.*.xyz c_com[*]
#dump		quat cube      local 1000 dump.*.quat c_quat[*]


restart 	1000000 restart.dat
timestep 	0.005
timer 		full
New timer settings: style=full  mode=nosync  timeout=off


run		5000000
Per MPI rank memory allocation (min/avg/max) = 9.923 | 9.986 | 10.01 Mbytes
Step Temp E_pair TotEng Press PotEng KinEng Atoms 
 3000000     1.016004   -3.1352716   -1.6112691  0.079025997   -3.1352716    1.5240025   439061 
 3001000    1.0148575   -3.1352963   -1.6124794  0.074181525   -3.1352963    1.5228169   438907 
 3002000    1.0151312   -3.1378324   -1.6141049  0.071042476   -3.1378324    1.5237275   438763 
 3003000    1.0140379   -3.1379519   -1.6152721  0.071038858   -3.1379519    1.5226799   438592 
 3004000    1.0136069   -3.1391037   -1.6165398  0.075232013   -3.1391037    1.5225639   438439 
 3005000    1.0120393   -3.1374777   -1.6167691  0.073071029   -3.1374777    1.5207085   438295 
 3006000    1.0130398   -3.1402651   -1.6174764   0.07379956   -3.1402651    1.5227888   438129 
 3007000    1.0111579   -3.1385865   -1.6180054  0.076096092   -3.1385865    1.5205811   437950 
 3008000    1.0121558   -3.1408634   -1.6182184  0.073970599   -3.1408634     1.522645   437788 
 3009000    1.0086204   -3.1362753   -1.6183768   0.07838497   -3.1362753    1.5178985   437623 
 3010000    1.0099211   -3.1398103   -1.6194263  0.073140421   -3.1398103     1.520384   437471 
 3011000    1.0101681   -3.1412333   -1.6198444  0.074003477   -3.1412333    1.5213889   437289 
 3012000    1.0094052   -3.1431195   -1.6222223  0.068711073   -3.1431195    1.5208972   437100 
 3013000    1.0073463   -3.1414815   -1.6231273  0.075236161   -3.1414815    1.5183542   436939 
 3014000    1.0094789   -3.1455296   -1.6234001  0.069263901   -3.1455296    1.5221296   436778 
 3015000    1.0077933   -3.1429388   -1.6228497   0.07158446   -3.1429388    1.5200891   436634 
 3016000    1.0068245   -3.1425158   -1.6232722  0.077067701   -3.1425158    1.5192436   436457 
 3017000      1.00738   -3.1449276    -1.624229  0.074935328   -3.1449276    1.5206987   436280 
 3018000    1.0056499   -3.1442733   -1.6255215  0.074877588   -3.1442733    1.5187518   436089 
 3019000    1.0048458   -3.1436049   -1.6255384  0.072637106   -3.1436049    1.5180665   435937 
 3020000    1.0057902   -3.1453095   -1.6252932  0.070953238   -3.1453095    1.5200163   435787 
 3021000    1.0036207   -3.1436175   -1.6262566  0.075968905   -3.1436175     1.517361   435608 
 3022000    1.0037396   -3.1445573   -1.6264451  0.070135501   -3.1445573    1.5181122   435444 
 3023000    1.0040345   -3.1460086   -1.6268364  0.070355373   -3.1460086    1.5191722   435268 
 3024000    1.0033396   -3.1479112   -1.6291518  0.067610933   -3.1479112    1.5187595   435085 
 3025000    1.0015609   -3.1452172   -1.6286238  0.069106148   -3.1452172    1.5165934   434934 
 3026000    1.0020352   -3.1477355    -1.629705  0.073813206   -3.1477355    1.5180305   434728 
 3027000     1.000219   -3.1457161   -1.6299383  0.068179622   -3.1457161    1.5157777   434585 
 3028000    1.0005061   -3.1463515   -1.6296676  0.071437607   -3.1463515    1.5166839   434450 
 3029000   0.99882928    -3.145182   -1.6305275  0.071252348    -3.145182    1.5146545   434303 
 3030000   0.99786333   -3.1451579   -1.6313862   0.06832002   -3.1451579    1.5137717   434136 
 3031000   0.99812515   -3.1449899   -1.6302417   0.07019449   -3.1449899    1.5147481   433970 
 3032000   0.99739246   -3.1462784   -1.6321049  0.063345007   -3.1462784    1.5141735   433816 
 3033000   0.99770168   -3.1459148   -1.6306257  0.065638772   -3.1459148    1.5152892   433631 
 3034000   0.99602059   -3.1463481   -1.6330433  0.075394253   -3.1463481    1.5133048   433468 
 3035000   0.99525139   -3.1470443   -1.6343464  0.067617182   -3.1470443     1.512698   433307 
 3036000   0.99365874   -3.1460514   -1.6351569  0.067146925   -3.1460514    1.5108944   433130 
 3037000   0.99515507   -3.1494619   -1.6355232  0.070577896   -3.1494619    1.5139386   432910 
 3038000   0.99396591   -3.1501166   -1.6373476  0.064157819   -3.1501166     1.512769   432727 
 3039000     0.992767   -3.1496576   -1.6380915  0.065313721   -3.1496576    1.5115661   432549 
 3040000    0.9935141   -3.1510757   -1.6379173  0.062262857   -3.1510757    1.5131584   432419 
 3041000   0.99202492   -3.1501395   -1.6387599  0.063927177   -3.1501395    1.5113797   432279 
 3042000   0.99060913   -3.1496445   -1.6400028  0.068264755   -3.1496445    1.5096417   432159 
 3043000   0.99286664   -3.1531272   -1.6394532  0.067602088   -3.1531272     1.513674   431990 
 3044000   0.99104462   -3.1515029   -1.6400293  0.067212109   -3.1515029    1.5114736   431825 
 3045000   0.99118717   -3.1533881   -1.6411579  0.065833475   -3.1533881    1.5122303   431671 
 3046000   0.99210813   -3.1564944   -1.6421715  0.066895703   -3.1564944    1.5143229   431475 
 3047000    0.9925102   -3.1569911   -1.6414644  0.063141916   -3.1569911    1.5155267   431307 
 3048000   0.99155913    -3.156301   -1.6417174   0.06146759    -3.156301    1.5145837   431162 
 3049000   0.99071744   -3.1563994   -1.6426169  0.065881542   -3.1563994    1.5137825   431024 
 3050000   0.99104613   -3.1575308   -1.6425677  0.067664053   -3.1575308    1.5149631   430831 
 3051000    0.9880494   -3.1556201   -1.6446172  0.067083976   -3.1556201    1.5110029   430654 
 3052000   0.98825131   -3.1560937   -1.6440903  0.066551809   -3.1560937    1.5120034   430457 
 3053000   0.98927786   -3.1585692   -1.6443796  0.067384099   -3.1585692    1.5141896   430282 
 3054000   0.98771067   -3.1582219   -1.6459004  0.065607699   -3.1582219    1.5123215   430131 
 3055000   0.98710086    -3.158878   -1.6470192  0.067005313    -3.158878    1.5118588   429997 
 3056000   0.98665263   -3.1599255   -1.6482294  0.066316341   -3.1599255    1.5116961   429848 
 3057000   0.98526806   -3.1591628   -1.6490576  0.067725878   -3.1591628    1.5101052   429697 
 3058000   0.98539423    -3.161127   -1.6503714  0.061784266    -3.161127    1.5107557   429567 
 3059000   0.98592367   -3.1632161   -1.6511243  0.064416425   -3.1632161    1.5120919   429418 
 3060000   0.98364575   -3.1604433    -1.651353  0.064083342   -3.1604433    1.5090903   429278 
 3061000   0.98365826   -3.1607263   -1.6510717  0.059969545   -3.1607263    1.5096546   429123 
 3062000   0.98399115   -3.1617682   -1.6509972  0.065521155   -3.1617682     1.510771   428951 
 3063000    0.9805046   -3.1580898   -1.6521558  0.064489131   -3.1580898     1.505934   428804 
 3064000   0.98132618   -3.1609767   -1.6532394  0.059676328   -3.1609767    1.5077373   428650 
 3065000   0.98306136   -3.1629597    -1.651996  0.059374901   -3.1629597    1.5109638   428491 
 3066000   0.98181285   -3.1612494   -1.6517501  0.060431509   -3.1612494    1.5094993   428362 
 3067000   0.98135665   -3.1613842   -1.6521248  0.063608042   -3.1613842    1.5092594   428231 
 3068000   0.98218589   -3.1647309   -1.6536492    0.0649657   -3.1647309    1.5110817   428076 
 3069000   0.98040469   -3.1631273   -1.6541937  0.061596692   -3.1631273    1.5089335   427908 
 3070000   0.98090126     -3.16438   -1.6540716  0.060218454     -3.16438    1.5103084   427735 
 3071000   0.98052818   -3.1656003   -1.6553296  0.058223989   -3.1656003    1.5102706   427583 
 3072000   0.97868496   -3.1649903   -1.6568992  0.059331653   -3.1649903    1.5080912   427396 
 3073000   0.97790325   -3.1643675    -1.656899  0.062380359   -3.1643675    1.5074686   427231 
 3074000   0.97774102   -3.1663366    -1.658557  0.054262374   -3.1663366    1.5077796   427072 
 3075000   0.97627608   -3.1644156   -1.6584155  0.058305276   -3.1644156    1.5060001   426936 
 3076000   0.97534938   -3.1670856   -1.6620426  0.055003985   -3.1670856     1.505043   426802 
 3077000   0.97466294   -3.1670666   -1.6625329  0.058418626   -3.1670666    1.5045337   426646 
 3078000   0.97455947   -3.1685354   -1.6635477  0.064445373   -3.1685354    1.5049877   426472 
 3079000   0.97332577   -3.1677177   -1.6641168  0.057265159   -3.1677177    1.5036008   426325 
 3080000    0.9748265   -3.1710209   -1.6646742  0.059082007   -3.1710209    1.5063467   426204 
 3081000   0.97594399   -3.1709921   -1.6623593  0.061941278   -3.1709921    1.5086328   426046 
 3082000   0.97403716   -3.1706112   -1.6644205  0.062667655   -3.1706112    1.5061907   425903 
 3083000   0.97349245   -3.1703749   -1.6644006  0.060485929   -3.1703749    1.5059742   425726 
 3084000   0.97528245   -3.1747281   -1.6654991  0.062055785   -3.1747281     1.509229   425589 
 3085000   0.97522782   -3.1770888     -1.66743  0.061714414   -3.1770888    1.5096588   425444 
 3086000   0.97508263    -3.179247   -1.6692734  0.059045501    -3.179247    1.5099736   425292 
 3087000   0.97389249   -3.1787426   -1.6699522  0.060157284   -3.1787426    1.5087904   425106 
 3088000   0.97255324   -3.1792725   -1.6719719  0.056137141   -3.1792725    1.5073006   424941 
 3089000    0.9720963    -3.178611   -1.6715185  0.062841924    -3.178611    1.5070925   424800 
 3090000   0.97245041   -3.1804299   -1.6722736  0.057602577   -3.1804299    1.5081563   424655 
 3091000   0.97293924   -3.1830772   -1.6735941  0.059176058   -3.1830772    1.5094832   424495 
 3092000   0.97128203   -3.1807329   -1.6733024  0.062332307   -3.1807329    1.5074305   424349 
 3093000    0.9712181    -3.182682   -1.6748034  0.063362307    -3.182682    1.5078785   424195 
 3094000   0.96922535   -3.1816614   -1.6763267  0.060624784   -3.1816614    1.5053347   424040 
 3095000   0.97037521   -3.1852385   -1.6774636  0.061179862   -3.1852385    1.5077748   423856 
 3096000   0.96923628   -3.1841826   -1.6775625   0.06011905   -3.1841826    1.5066201   423683 
 3097000    0.9683426   -3.1843552   -1.6785698  0.057608744   -3.1843552    1.5057854   423527 
 3098000   0.96738593   -3.1838372   -1.6790492  0.056698746   -3.1838372     1.504788   423389 
 3099000   0.96855791   -3.1853519   -1.6782674  0.058299406   -3.1853519    1.5070845   423256 
 3100000   0.96731188   -3.1852117   -1.6796641  0.059800929   -3.1852117    1.5055476   423143 
 3101000   0.96717275   -3.1863167   -1.6804055  0.058258843   -3.1863167    1.5059112   422980 
 3102000   0.96749923   -3.1881117   -1.6811043  0.054459184   -3.1881117    1.5070074   422815 
 3103000   0.96600634   -3.1860004    -1.680845  0.060382326   -3.1860004    1.5051554   422682 
 3104000   0.96531908   -3.1874161   -1.6826835  0.051891764   -3.1874161    1.5047325   422500 
 3105000   0.96321746   -3.1860123    -1.683891  0.055495472   -3.1860123    1.5021214   422313 
 3106000   0.96341091   -3.1867767   -1.6838732  0.050368709   -3.1867767    1.5029035   422178 
 3107000   0.96208154   -3.1867663   -1.6853747  0.056657116   -3.1867663    1.5013916   422020 
 3108000   0.96261411   -3.1879173   -1.6851071  0.054685716   -3.1879173    1.5028103   421855 
 3109000   0.96131984      -3.1886   -1.6873156  0.052457441      -3.1886    1.5012844   421716 
 3110000   0.96307196   -3.1919065     -1.68734  0.052275157   -3.1919065    1.5045665   421563 
 3111000   0.96045208    -3.189593   -1.6885961  0.051982808    -3.189593     1.500997   421416 
 3112000   0.95985942   -3.1901132   -1.6896152  0.053121586   -3.1901132     1.500498   421296 
 3113000   0.95840112   -3.1903134   -1.6916824  0.048444481   -3.1903134     1.498631   421180 
 3114000   0.95871941   -3.1902132    -1.690586  0.046513209   -3.1902132    1.4996271   421040 
 3115000   0.95859672   -3.1917025   -1.6917044  0.049683101   -3.1917025    1.4999981   420882 
 3116000   0.95994197   -3.1939127   -1.6912454   0.05306825   -3.1939127    1.5026673   420724 
 3117000   0.95783641   -3.1912149   -1.6911947  0.052703308   -3.1912149    1.5000202   420542 
 3118000    0.9587122   -3.1934406   -1.6915596  0.051027974   -3.1934406     1.501881   420405 
 3119000   0.95711401   -3.1928944   -1.6929319  0.054053302   -3.1928944    1.4999624   420241 
 3120000   0.95731175   -3.1939093   -1.6931763  0.058593615   -3.1939093     1.500733   420112 
 3121000   0.95714634   -3.1939899   -1.6930946  0.052982674   -3.1939899    1.5008953   419994 
 3122000    0.9553652   -3.1935332   -1.6948778  0.052908169   -3.1935332    1.4986554   419839 
 3123000     0.955315   -3.1942958   -1.6951908  0.050195724   -3.1942958    1.4991051   419691 
 3124000   0.95443136   -3.1954128   -1.6970589   0.05137169   -3.1954128    1.4983539   419513 
 3125000   0.95536015    -3.196507   -1.6961299  0.055045661    -3.196507    1.5003771   419355 
 3126000   0.95460307   -3.1972156   -1.6975769  0.055681485   -3.1972156    1.4996387   419229 
 3127000   0.95399167   -3.1987492   -1.6995453  0.053952176   -3.1987492    1.4992039   419082 
 3128000   0.95475305   -3.1996885   -1.6987437  0.052838977   -3.1996885    1.5009448   418930 
 3129000   0.95355037   -3.2010667   -1.7015902  0.051356417   -3.2010667    1.4994765   418812 
 3130000   0.95218833   -3.1998303   -1.7020773  0.048211765   -3.1998303    1.4977531   418695 
 3131000   0.95139489   -3.2009199   -1.7039751  0.050283686   -3.2009199    1.4969448   418572 
 3132000   0.95158496   -3.2043997   -1.7065476  0.049764952   -3.2043997    1.4978522   418402 
 3133000   0.95047869   -3.2033036   -1.7065417  0.057956211   -3.2033036    1.4967619   418220 
 3134000   0.94973276   -3.2041245   -1.7079541  0.050631422   -3.2041245    1.4961704   418057 
 3135000   0.94865148   -3.2040016   -1.7090626  0.049889136   -3.2040016     1.494939   417925 
 3136000   0.95052156   -3.2060563   -1.7076218  0.052701259   -3.2060563    1.4984345   417772 
 3137000   0.95159915   -3.2075538   -1.7070326  0.050309307   -3.2075538    1.5005212   417664 
 3138000   0.94990706   -3.2063061   -1.7080513   0.04848559   -3.2063061    1.4982548   417552 
 3139000   0.95051256   -3.2082916   -1.7086185  0.053983705   -3.2082916    1.4996732   417423 
 3140000    0.9484436   -3.2058495   -1.7087879  0.048904629   -3.2058495    1.4970616   417241 
 3141000    0.9481656   -3.2069521   -1.7098593  0.055675928   -3.2069521    1.4970928   417110 
 3142000   0.94819772   -3.2084762   -1.7108982  0.053092839   -3.2084762     1.497578   416989 
 3143000   0.94830742   -3.2112231   -1.7130408  0.051692874   -3.2112231    1.4981824   416869 
 3144000   0.94566978   -3.2091779   -1.7147934  0.044494879   -3.2091779    1.4943845   416766 
 3145000   0.94604006   -3.2112642   -1.7158388  0.051917103   -3.2112642    1.4954253   416639 
 3146000    0.9462864   -3.2127175   -1.7163963  0.050945218   -3.2127175    1.4963211   416498 
 3147000   0.94492678   -3.2120676   -1.7175124  0.049235794   -3.2120676    1.4945552   416391 
 3148000    0.9432512   -3.2103278   -1.7178242  0.051201212   -3.2103278    1.4925036   416224 
 3149000   0.94406642   -3.2123201    -1.718024  0.046319834   -3.2123201    1.4942961   416084 
 3150000   0.94447306   -3.2139649   -1.7185795  0.043303466   -3.2139649    1.4953854   415960 
 3151000   0.94241875   -3.2133826   -1.7208264   0.04929216   -3.2133826    1.4925562   415842 
 3152000   0.94311117   -3.2155945   -1.7215105  0.049753384   -3.2155945     1.494084   415722 
 3153000   0.94281692   -3.2160239   -1.7218346  0.051533038   -3.2160239    1.4941893   415563 
 3154000   0.94232204   -3.2158526   -1.7220306  0.052751104   -3.2158526     1.493822   415447 
 3155000   0.94198902    -3.217191   -1.7233828   0.05256564    -3.217191    1.4938083   415304 
 3156000   0.94339257   -3.2212939   -1.7247662  0.046115518   -3.2212939    1.4965277   415167 
 3157000   0.94109892   -3.2163986   -1.7231101   0.05325238   -3.2163986    1.4932885   415056 
 3158000   0.94102871   -3.2188469   -1.7251337  0.049680656   -3.2188469    1.4937133   414907 
 3159000   0.94024702   -3.2187317   -1.7257482  0.051858948   -3.2187317    1.4929835   414765 
 3160000   0.94049947   -3.2218406   -1.7279736   0.04759381   -3.2218406    1.4938669   414631 
 3161000   0.93907733   -3.2194076   -1.7274037  0.052362253   -3.2194076    1.4920039   414521 
 3162000    0.9398194   -3.2225792   -1.7289639  0.045879711   -3.2225792    1.4936153   414401 
 3163000   0.94051695   -3.2234502   -1.7282321  0.046361939   -3.2234502    1.4952182   414264 
 3164000   0.94009589   -3.2232693    -1.728143  0.048746906   -3.2232693    1.4951262   414104 
 3165000   0.93920844   -3.2245074   -1.7301538  0.050795776   -3.2245074    1.4943536   413927 
 3166000   0.93949259   -3.2253092   -1.7299038   0.04593293   -3.2253092    1.4954054   413761 
 3167000   0.93871031   -3.2264001    -1.731774  0.047287573   -3.2264001    1.4946262   413632 
 3168000   0.93863873   -3.2266641   -1.7316422  0.049136278   -3.2266641    1.4950219   413491 
 3169000   0.93853318    -3.226395   -1.7310856  0.051228928    -3.226395    1.4953094   413365 
 3170000   0.93836698    -3.227522   -1.7318949  0.053244945    -3.227522    1.4956271   413204 
 3171000   0.93858848   -3.2297246   -1.7332555  0.049540412   -3.2297246    1.4964691   413069 
 3172000   0.93885048   -3.2304551    -1.733253  0.050040838   -3.2304551    1.4972021   412982 
 3173000   0.93761186   -3.2288472   -1.7333342  0.047351553   -3.2288472     1.495513   412903 
 3174000   0.93557841   -3.2269205   -1.7343111  0.044144133   -3.2269205    1.4926094   412809 
 3175000   0.93515536   -3.2283872   -1.7360333  0.048026978   -3.2283872    1.4923538   412693 
 3176000    0.9345657   -3.2281556   -1.7363054  0.039491978   -3.2281556    1.4918502   412572 
 3177000   0.93272344   -3.2266193   -1.7373886  0.047908181   -3.2266193    1.4892307   412483 
 3178000     0.931432   -3.2262649   -1.7385949   0.04327793   -3.2262649      1.48767   412344 
 3179000   0.93218738   -3.2295224   -1.7402197  0.045818333   -3.2295224    1.4893027   412226 
 3180000   0.93203293   -3.2302227   -1.7407042  0.049288879   -3.2302227    1.4895184   412098 
 3181000   0.93139215   -3.2294893    -1.740583  0.041902207   -3.2294893    1.4889063   411984 
 3182000   0.93056502   -3.2295058   -1.7416545  0.042056853   -3.2295058    1.4878513   411910 
 3183000   0.93124677   -3.2298688   -1.7404321  0.043925019   -3.2298688    1.4894367   411773 
 3184000   0.92992724   -3.2283535   -1.7407275  0.042949953   -3.2283535    1.4876261   411690 
 3185000   0.92891411   -3.2274045   -1.7410128   0.04627943   -3.2274045    1.4863917   411583 
 3186000   0.92800612    -3.227631   -1.7422953  0.045351711    -3.227631    1.4853357   411473 
 3187000   0.92817153   -3.2281128   -1.7420573  0.045749883   -3.2281128    1.4860555   411347 
 3188000   0.92837737   -3.2302735   -1.7435125  0.043483837   -3.2302735     1.486761   411243 
 3189000   0.92822127    -3.231936    -1.744944  0.045479101    -3.231936    1.4869919   411110 
 3190000    0.9284527   -3.2343936   -1.7466872  0.042492918   -3.2343936    1.4877064   411015 
 3191000   0.92707181   -3.2321155   -1.7461988  0.041636132   -3.2321155    1.4859168   410898 
 3192000   0.92865868   -3.2350135   -1.7461184  0.043368995   -3.2350135     1.488895   410778 
 3193000   0.92673314   -3.2338814   -1.7476285  0.046329285   -3.2338814    1.4862529   410655 
 3194000   0.92686748   -3.2334062   -1.7465686  0.045761849   -3.2334062    1.4868376   410553 
 3195000   0.92728574   -3.2357937   -1.7477994  0.037096069   -3.2357937    1.4879943   410419 
 3196000   0.92853361   -3.2371417   -1.7468037  0.044359422   -3.2371417     1.490338   410325 
 3197000   0.92707553   -3.2359794   -1.7476334  0.044819761   -3.2359794     1.488346   410229 
 3198000   0.92916594    -3.239914   -1.7477756  0.047399433    -3.239914    1.4921384   410109 
 3199000   0.92633481   -3.2366655   -1.7487143  0.043509745   -3.2366655    1.4879511   410010 
 3200000   0.92601312   -3.2368136   -1.7490962  0.044202655   -3.2368136    1.4877174   409932 
 3201000   0.92733799   -3.2395573   -1.7491551  0.044459378   -3.2395573    1.4904022   409779 
 3202000   0.92685533   -3.2421691   -1.7521172  0.050553553   -3.2421691    1.4900519   409662 
 3203000   0.92623896   -3.2429265   -1.7534655  0.046802184   -3.2429265     1.489461   409552 
 3204000   0.92646181   -3.2429278   -1.7528065  0.044403767   -3.2429278    1.4901213   409469 
 3205000   0.92291834   -3.2392658   -1.7544159  0.046089218   -3.2392658    1.4848499   409351 
 3206000   0.92447523   -3.2431376   -1.7554159  0.044131883   -3.2431376    1.4877218   409250 
 3207000   0.92419093   -3.2437936   -1.7562022  0.048982446   -3.2437936    1.4875914   409160 
 3208000    0.9241644    -3.244442   -1.7564497  0.048003013    -3.244442    1.4879924   409038 
 3209000   0.92498247   -3.2468317   -1.7570341  0.039765433   -3.2468317    1.4897976   408904 
 3210000    0.9228968   -3.2442014   -1.7572467  0.046055361   -3.2442014    1.4869548   408762 
 3211000   0.92145362   -3.2419731    -1.757053  0.047631924   -3.2419731    1.4849202   408682 
 3212000   0.92090247   -3.2437227   -1.7592475  0.043839192   -3.2437227    1.4844751   408560 
 3213000   0.92164384   -3.2462788   -1.7602922  0.039831161   -3.2462788    1.4859866   408473 
 3214000   0.92058848   -3.2462003   -1.7614318  0.045801564   -3.2462003    1.4847685   408340 
 3215000    0.9205317   -3.2481646   -1.7631931  0.047280134   -3.2481646    1.4849715   408259 
 3216000   0.92041415   -3.2484806   -1.7632694  0.045337807   -3.2484806    1.4852111   408141 
 3217000   0.92098737   -3.2495755   -1.7629623  0.043005548   -3.2495755    1.4866132   408010 
 3218000   0.91948441    -3.248959   -1.7643861  0.040108162    -3.248959    1.4845729   407904 
 3219000   0.91872873   -3.2499307   -1.7661995  0.047483143   -3.2499307    1.4837311   407800 
 3220000   0.91925326    -3.251978   -1.7668389  0.042720152    -3.251978    1.4851391   407646 
 3221000   0.91843623   -3.2523499   -1.7681521  0.041129466   -3.2523499    1.4841977   407542 
 3222000   0.91904193   -3.2521418   -1.7667138  0.043359771   -3.2521418     1.485428   407473 
 3223000   0.91730995   -3.2511615   -1.7681252   0.04534318   -3.2511615    1.4830363   407361 
 3224000   0.91774452   -3.2536136   -1.7694667  0.041052428   -3.2536136     1.484147   407249 
 3225000   0.91764905   -3.2528486   -1.7684442  0.047279054   -3.2528486    1.4844045   407136 
 3226000   0.91810331   -3.2547556   -1.7692843  0.040622724   -3.2547556    1.4854713   407045 
 3227000   0.91911842   -3.2549689   -1.7675738  0.040407432   -3.2549689    1.4873951   406968 
 3228000   0.91773618   -3.2540147   -1.7685644  0.043937504   -3.2540147    1.4854502   406888 
 3229000   0.91749464   -3.2560549   -1.7705356  0.045056208   -3.2560549    1.4855193   406762 
 3230000   0.91710922   -3.2544967   -1.7693167  0.047703996   -3.2544967      1.48518   406684 
 3231000   0.91781126   -3.2574419   -1.7708252  0.044853881   -3.2574419    1.4866167   406602 
 3232000   0.91672793   -3.2558645    -1.770714  0.046890332   -3.2558645    1.4851505   406523 
 3233000   0.91693611   -3.2571617     -1.77144  0.049752052   -3.2571617    1.4857217   406459 
 3234000    0.9167298   -3.2572118   -1.7714955  0.045497095   -3.2572118    1.4857164   406369 
 3235000   0.91659779   -3.2586148   -1.7726517  0.045667054   -3.2586148    1.4859632   406243 
 3236000   0.91596367   -3.2587269   -1.7732944  0.039661705   -3.2587269    1.4854324   406107 
 3237000   0.91430935   -3.2587105   -1.7756761  0.042181172   -3.2587105    1.4830345   406029 
 3238000   0.91522349   -3.2595859   -1.7747981  0.047335103   -3.2595859    1.4847878   405955 
 3239000   0.91525024   -3.2620085    -1.776987  0.040157961   -3.2620085    1.4850214   405903 
 3240000   0.91501872   -3.2625274   -1.7775889  0.045162546   -3.2625274    1.4849384   405823 
 3241000   0.91494003   -3.2634946   -1.7783362  0.041201249   -3.2634946    1.4851584   405728 
 3242000   0.91425761   -3.2627597   -1.7784932  0.039305626   -3.2627597    1.4842665   405669 
 3243000   0.91292275   -3.2624638   -1.7799076  0.045647996   -3.2624638    1.4825563   405544 
 3244000   0.91361169   -3.2636011   -1.7796406  0.045143128   -3.2636011    1.4839605   405466 
 3245000   0.91257997   -3.2620636   -1.7796327  0.046810306   -3.2620636    1.4824309   405426 
 3246000   0.91229985   -3.2621785   -1.7798406  0.044451582   -3.2621785    1.4823379   405327 
 3247000      0.91368   -3.2643109   -1.7795657   0.04169475   -3.2643109    1.4847452   405282 
 3248000   0.91315412    -3.264073   -1.7798124  0.046640727    -3.264073    1.4842605   405181 
 3249000   0.91202652   -3.2647969   -1.7819849  0.037675391   -3.2647969     1.482812   405076 
 3250000   0.91102301   -3.2654798   -1.7839812  0.039749767   -3.2654798    1.4814986   404989 
 3251000   0.91085693   -3.2650895   -1.7835903  0.046374876   -3.2650895    1.4814992   404915 
 3252000   0.91144457   -3.2663469   -1.7836832   0.04150891   -3.2663469    1.4826637   404858 
 3253000   0.91187096   -3.2665856   -1.7829057  0.046470942   -3.2665856    1.4836799   404770 
 3254000   0.91227009   -3.2677331   -1.7829526  0.044055514   -3.2677331    1.4847805   404647 
 3255000   0.91139545    -3.267692   -1.7840051  0.044321956    -3.267692    1.4836869   404557 
 3256000   0.91012682   -3.2675361   -1.7855445  0.039161807   -3.2675361    1.4819917   404456 
 3257000   0.91005577    -3.267043   -1.7848372  0.036113502    -3.267043    1.4822058   404366 
 3258000   0.91050668   -3.2690904   -1.7857467  0.045192631   -3.2690904    1.4833437   404256 
 3259000   0.90952493   -3.2675757    -1.785362   0.04701884   -3.2675757    1.4822136   404128 
 3260000   0.91060195   -3.2705045   -1.7862199  0.043581664   -3.2705045    1.4842847   404042 
 3261000    0.9095099   -3.2685349   -1.7857917  0.039823419   -3.2685349    1.4827431   403977 
 3262000      0.90854   -3.2708778   -1.7892684  0.039357828   -3.2708778    1.4816094   403855 
 3263000   0.90690397   -3.2688047   -1.7895739   0.03913831   -3.2688047    1.4792308   403776 
 3264000   0.90652786   -3.2679497   -1.7889734  0.041696752   -3.2679497    1.4789763   403678 
 3265000   0.90681134   -3.2688706   -1.7891056   0.04503727   -3.2688706     1.479765   403589 
 3266000   0.90710681    -3.270683   -1.7900616  0.038024347    -3.270683    1.4806214   403487 
 3267000   0.90679072   -3.2702079   -1.7898493  0.041681849   -3.2702079    1.4803586   403418 
 3268000   0.90606929   -3.2709828   -1.7915049  0.040337864   -3.2709828    1.4794779   403337 
 3269000   0.90450002   -3.2676152   -1.7902821  0.040015798   -3.2676152    1.4773331   403223 
 3270000   0.90414926   -3.2691627   -1.7921022  0.043484004   -3.2691627    1.4770605   403141 
 3271000   0.90418238   -3.2692789   -1.7919114  0.039093407   -3.2692789    1.4773675   403072 
 3272000    0.9037571   -3.2708432   -1.7937491  0.036610317   -3.2708432    1.4770941   402957 
 3273000   0.90342707   -3.2718454   -1.7948875  0.037742282   -3.2718454    1.4769578   402847 
 3274000    0.9043294   -3.2730449   -1.7943366   0.03705675   -3.2730449    1.4787083   402772 
 3275000   0.90380078   -3.2725783   -1.7943564  0.039324911   -3.2725783    1.4782219   402669 
 3276000   0.90359034   -3.2742006   -1.7960953  0.040774713   -3.2742006    1.4781054   402607 
 3277000   0.90189797     -3.27238   -1.7967498  0.036915857     -3.27238    1.4756302   402527 
 3278000   0.90223434   -3.2722954   -1.7958618  0.040377135   -3.2722954    1.4764336   402458 
 3279000   0.90346525   -3.2741311   -1.7952643  0.041842547   -3.2741311    1.4788668   402344 
 3280000   0.90283658   -3.2739401   -1.7957166  0.041969192   -3.2739401    1.4782235   402239 
 3281000   0.90268757   -3.2741894   -1.7958534  0.046518735   -3.2741894     1.478336   402142 
 3282000   0.90192437   -3.2745281   -1.7974052  0.034990579   -3.2745281    1.4771229   402132 
 3283000   0.90209507   -3.2763347   -1.7984876  0.044599449   -3.2763347    1.4778471   402011 
 3284000    0.9017232   -3.2778919   -1.8001651  0.043971043   -3.2778919    1.4777268   401878 
 3285000   0.90118792   -3.2785699   -1.8014593  0.040300394   -3.2785699    1.4771105   401807 
 3286000   0.90056576   -3.2772134    -1.800836  0.039330861   -3.2772134    1.4763774   401729 
 3287000   0.90174207   -3.2793671    -1.800708  0.044372595   -3.2793671    1.4786591   401633 
 3288000   0.90239567   -3.2817338   -1.8015606  0.041400944   -3.2817338    1.4801732   401513 
 3289000   0.90174096    -3.280468   -1.8010298  0.041683743    -3.280468    1.4794382   401421 
 3290000   0.90162162   -3.2811337    -1.801777  0.035498684   -3.2811337    1.4793567   401390 
 3291000   0.90085306   -3.2788499   -1.8005075   0.04594468   -3.2788499    1.4783424   401323 
 3292000   0.90089268   -3.2813161   -1.8024259  0.039030401   -3.2813161    1.4788902   401192 
 3293000   0.89978539   -3.2807205   -1.8034971  0.040792582   -3.2807205    1.4772234   401151 
 3294000   0.90077582   -3.2829521   -1.8037412  0.045713712   -3.2829521    1.4792108   401053 
 3295000   0.90097012   -3.2826804   -1.8029328   0.03617451   -3.2826804    1.4797476   400994 
 3296000   0.89761295   -3.2792524   -1.8044706  0.041166448   -3.2792524    1.4747818   400845 
 3297000   0.89967818   -3.2828325   -1.8044067  0.039145018   -3.2828325    1.4784258   400777 
 3298000   0.89808731   -3.2815156   -1.8055126  0.036112504   -3.2815156    1.4760031   400725 
 3299000   0.89743219   -3.2820859   -1.8070123  0.035833294   -3.2820859    1.4750736   400685 
 3300000   0.89647404   -3.2806124   -1.8067752  0.037356538   -3.2806124    1.4738371   400593 
 3301000   0.89683149   -3.2806869   -1.8060412  0.034374777   -3.2806869    1.4746457   400533 
 3302000   0.89595122   -3.2807888   -1.8073846   0.03733942   -3.2807888    1.4734043   400477 
 3303000   0.89680635   -3.2822247   -1.8069758  0.037108862   -3.2822247    1.4752489   400358 
 3304000   0.89711626   -3.2812665   -1.8053567    0.0424009   -3.2812665    1.4759098   400317 
 3305000   0.89677521   -3.2822199   -1.8066684  0.033205223   -3.2822199    1.4755515   400262 
 3306000   0.89755933   -3.2824582    -1.805325  0.037559903   -3.2824582    1.4771332   400183 
 3307000   0.89854725   -3.2865403   -1.8074338  0.037566229   -3.2865403    1.4791065   400089 
 3308000   0.89780266   -3.2852324    -1.807008  0.044451277   -3.2852324    1.4782244   399996 
 3309000   0.89599725   -3.2833453   -1.8078832  0.042234995   -3.2833453    1.4754621   399939 
 3310000   0.89716798   -3.2893545   -1.8117466   0.03192076   -3.2893545    1.4776079   399880 
 3311000   0.89535634   -3.2858031   -1.8108432  0.037217669   -3.2858031    1.4749599   399789 
 3312000   0.89494505   -3.2871937   -1.8125277  0.038068387   -3.2871937     1.474666   399685 
 3313000   0.89279855   -3.2855863    -1.814056  0.033511545   -3.2855863    1.4715303   399576 
 3314000   0.89280236   -3.2869622   -1.8153446  0.041001709   -3.2869622    1.4716176   399554 
 3315000   0.89336283   -3.2883966   -1.8155824   0.03618442   -3.2883966    1.4728142   399480 
 3316000   0.89148107   -3.2872277   -1.8171846  0.039999595   -3.2872277    1.4700431   399390 
 3317000   0.89313245   -3.2905686   -1.8174261  0.035560566   -3.2905686    1.4731425   399288 
 3318000   0.89252597   -3.2898717    -1.817512  0.042158232   -3.2898717    1.4723597   399229 
 3319000   0.89409273     -3.29298   -1.8176883   0.04010003     -3.29298    1.4752916   399135 
 3320000   0.89296297   -3.2930492   -1.8193226  0.036107537   -3.2930492    1.4737266   399054 
 3321000    0.8924118   -3.2929121   -1.8197777  0.036204168   -3.2929121    1.4731344   398968 
 3322000   0.89389012   -3.2946662    -1.818729  0.039862444   -3.2946662    1.4759373   398870 
 3323000   0.89423807    -3.296238   -1.8192745  0.040150082    -3.296238    1.4769635   398748 
 3324000   0.89507115   -3.2960343   -1.8175465  0.049032357   -3.2960343    1.4784878   398708 
 3325000    0.8938143   -3.2930996   -1.8165953  0.048828635   -3.2930996    1.4765043   398683 
 3326000   0.89499396   -3.2961662   -1.8175797  0.041489494   -3.2961662    1.4785865   398647 
 3327000   0.89453666   -3.2968674    -1.818851  0.048599342   -3.2968674    1.4780164   398597 
 3328000   0.89285092   -3.2970821   -1.8216363  0.043631301   -3.2970821    1.4754458   398539 
 3329000    0.8934362   -3.2996405   -1.8229311  0.042238306   -3.2996405    1.4767094   398459 
 3330000    0.8927839   -3.2992701   -1.8235055  0.042176544   -3.2992701    1.4757646   398423 
 3331000   0.89168348   -3.2999896   -1.8256259  0.044425519   -3.2999896    1.4743637   398310 
 3332000   0.89154259   -3.3017502   -1.8272048  0.035391303   -3.3017502    1.4745454   398198 
 3333000   0.89193626    -3.302001   -1.8266044  0.036061103    -3.302001    1.4753966   398144 
 3334000   0.89197094   -3.3016624   -1.8259749  0.041660945   -3.3016624    1.4756875   398081 
 3335000    0.8888134   -3.2969502   -1.8262354  0.043066722   -3.2969502    1.4707148   398013 
 3336000   0.89094347    -3.301014   -1.8266041  0.037692705    -3.301014    1.4744098   397967 
 3337000   0.89043641   -3.3023582   -1.8283096    0.0411078   -3.3023582    1.4740485   397838 
 3338000   0.88974961   -3.3003373   -1.8271813  0.042206002   -3.3003373     1.473156   397772 
 3339000   0.89000844   -3.3015269   -1.8276385  0.042321236   -3.3015269    1.4738883   397690 
 3340000   0.88845178   -3.3010329   -1.8294042  0.041947022   -3.3010329    1.4716287   397604 
 3341000   0.89021654   -3.3036852    -1.828985  0.039178835   -3.3036852    1.4747002   397564 
 3342000   0.89089484    -3.302519   -1.8264501  0.038829155    -3.302519    1.4760689   397498 
 3343000   0.88989038   -3.3027561   -1.8278543  0.039169335   -3.3027561    1.4749019   397364 
 3344000   0.88984066   -3.3023001   -1.8270871  0.039900866   -3.3023001     1.475213   397258 
 3345000   0.88866829   -3.3021609   -1.8286207  0.041239159   -3.3021609    1.4735402   397185 
 3346000   0.88949704   -3.3041439   -1.8288767  0.039097032   -3.3041439    1.4752672   397090 
 3347000   0.88810393   -3.3024619   -1.8292752  0.040524954   -3.3024619    1.4731867   397028 
 3348000   0.88659036    -3.301598    -1.830759  0.039593839    -3.301598     1.470839   396984 
 3349000   0.88782465   -3.3036928    -1.830654  0.036997704   -3.3036928    1.4730388   396943 
 3350000   0.88706221   -3.3016535   -1.8296869  0.039399211   -3.3016535    1.4719666   396891 
 3351000   0.88734351   -3.3034699    -1.830851  0.037086694   -3.3034699    1.4726189   396841 
 3352000   0.88595348    -3.302183   -1.8314336  0.039901026    -3.302183    1.4707494   396723 
 3353000   0.88579824    -3.301459    -1.830756   0.04044023    -3.301459     1.470703   396666 
 3354000    0.8858437   -3.3031816   -1.8319915  0.046180123   -3.3031816    1.4711901   396555 
 3355000   0.88508799   -3.3025943   -1.8323218  0.038244948   -3.3025943    1.4702725   396464 
 3356000   0.88590813   -3.3051573   -1.8331883  0.032195101   -3.3051573     1.471969   396374 
 3357000   0.88381194   -3.3031927   -1.8342397  0.035916182   -3.3031927     1.468953   396248 
 3358000   0.88645051   -3.3081298   -1.8345979  0.037274213   -3.3081298    1.4735319   396196 
 3359000   0.88558491   -3.3063608    -1.833989  0.041018027   -3.3063608    1.4723717   396121 
 3360000   0.88500106    -3.304951   -1.8333234  0.038174507    -3.304951    1.4716276   396060 
 3361000   0.88487475   -3.3073152   -1.8355855  0.034252799   -3.3073152    1.4717298   395976 
 3362000    0.8841204    -3.305513   -1.8348373  0.039652497    -3.305513    1.4706757   395922 
 3363000   0.88328151   -3.3053623   -1.8357889  0.037793141   -3.3053623    1.4695735   395843 
 3364000   0.88404591   -3.3083601   -1.8372138  0.036860824   -3.3083601    1.4711463   395762 
 3365000   0.88324988   -3.3074919   -1.8373285  0.036689268   -3.3074919    1.4701634   395670 
 3366000   0.88504712   -3.3078816   -1.8345182  0.044080007   -3.3078816    1.4733634   395614 
 3367000   0.88426925   -3.3087019   -1.8363618  0.034721257   -3.3087019    1.4723401   395541 
 3368000    0.8843498   -3.3099712   -1.8372326  0.030727661   -3.3099712    1.4727386   395470 
 3369000    0.8825881   -3.3081586   -1.8382014  0.036578621   -3.3081586    1.4699572   395429 
 3370000   0.88350522   -3.3102853   -1.8385587  0.037884575   -3.3102853    1.4717266   395364 
 3371000   0.88277998   -3.3100125   -1.8392932  0.039819964   -3.3100125    1.4707194   395310 
 3372000   0.88269431   -3.3094067   -1.8385771  0.039085817   -3.3094067    1.4708296   395242 
 3373000    0.8826271   -3.3105434   -1.8398481  0.038816045   -3.3105434    1.4706953   395248 
 3374000   0.88321657   -3.3099451   -1.8382304  0.039253543   -3.3099451    1.4717148   395238 
 3375000   0.88270363   -3.3099545   -1.8389158  0.034787932   -3.3099545    1.4710387   395190 
 3376000   0.88101425   -3.3083369   -1.8397457  0.037741173   -3.3083369    1.4685912   395091 
 3377000   0.88124234   -3.3094144   -1.8403574  0.038610509   -3.3094144     1.469057   395068 
 3378000   0.88208378   -3.3111208   -1.8403932  0.034022867   -3.3111208    1.4707277   394996 
 3379000   0.88083558   -3.3093896   -1.8406315  0.041230168   -3.3093896    1.4687581   394966 
 3380000   0.88052413   -3.3101201   -1.8418516  0.039595051   -3.3101201    1.4682685   394958 
 3381000   0.87984924   -3.3125802   -1.8449912  0.036745112   -3.3125802     1.467589   394838 
 3382000   0.88017295   -3.3136013   -1.8451153  0.038970904   -3.3136013     1.468486   394742 
 3383000   0.88133778   -3.3143589   -1.8436612  0.034250994   -3.3143589    1.4706977   394670 
 3384000    0.8805908   -3.3140544   -1.8445213  0.042261892   -3.3140544    1.4695331   394648 
 3385000   0.88044125   -3.3138563   -1.8443382  0.037047967   -3.3138563    1.4695181   394585 
 3386000   0.88091595   -3.3152403   -1.8446243   0.04160237   -3.3152403     1.470616   394503 
 3387000   0.88047987   -3.3149093   -1.8448424  0.042725256   -3.3149093    1.4700669   394455 
 3388000    0.8804029   -3.3154662   -1.8451886  0.041156884   -3.3154662    1.4702776   394364 
 3389000   0.88151341   -3.3173783   -1.8449885  0.039338567   -3.3173783    1.4723897   394295 
 3390000   0.87980352   -3.3149201   -1.8451888  0.040149561   -3.3149201    1.4697313   394242 
 3391000   0.88010587   -3.3156949   -1.8452497   0.04039337   -3.3156949    1.4704452   394186 
 3392000   0.88122817   -3.3204681   -1.8477592   0.03931431   -3.3204681    1.4727089   394082 
 3393000   0.87890997   -3.3173079   -1.8484061  0.038888324   -3.3173079    1.4689018   394064 
 3394000   0.87919933   -3.3188426   -1.8494125  0.041991605   -3.3188426    1.4694301   394052 
 3395000   0.87744519   -3.3174959   -1.8507146  0.038490222   -3.3174959    1.4667813   393976 
 3396000   0.87834145   -3.3174526   -1.8488786  0.033360393   -3.3174526     1.468574   393897 
 3397000   0.87751575   -3.3185037   -1.8512023  0.039103827   -3.3185037    1.4673015   393868 
 3398000   0.87775008   -3.3199071   -1.8519119  0.033042277   -3.3199071    1.4679952   393787 
 3399000    0.8772695   -3.3184503    -1.850957  0.036706356   -3.3184503    1.4674933   393706 
 3400000   0.87766564    -3.319838   -1.8514807  0.037345352    -3.319838    1.4683574   393652 
 3401000   0.87706526   -3.3196635   -1.8520272  0.035999814   -3.3196635    1.4676363   393576 
 3402000   0.87657489   -3.3200072   -1.8528821  0.038345045   -3.3200072    1.4671251   393493 
 3403000   0.87765391   -3.3212571   -1.8520871  0.038302042   -3.3212571      1.46917   393429 
 3404000   0.87648445   -3.3212571   -1.8538134  0.033907023   -3.3212571    1.4674436   393367 
 3405000   0.87716683    -3.322084   -1.8532179  0.044551225    -3.322084    1.4688661   393292 
 3406000   0.87832653    -3.324895   -1.8537914  0.036989334    -3.324895    1.4711036   393213 
 3407000   0.87821788   -3.3254758   -1.8542137  0.043571649   -3.3254758    1.4712621   393122 
 3408000   0.87491393   -3.3229309   -1.8568495  0.041474539   -3.3229309    1.4660814   393027 
 3409000   0.87650584    -3.327422   -1.8584227  0.038312148    -3.327422    1.4689993   392960 
 3410000   0.87606946   -3.3256143   -1.8569576  0.037029791   -3.3256143    1.4686567   392856 
 3411000    0.8756905   -3.3254142   -1.8571648  0.041277059   -3.3254142    1.4682494   392795 
 3412000   0.87479787   -3.3258161   -1.8586749  0.036464663   -3.3258161    1.4671412   392691 
 3413000   0.87366919   -3.3262401   -1.8607082  0.033504816   -3.3262401    1.4655319   392615 
 3414000   0.87404005   -3.3274887   -1.8612787  0.039061705   -3.3274887      1.46621   392600 
 3415000   0.87447928   -3.3270143   -1.8598358  0.035087806   -3.3270143    1.4671785   392538 
 3416000   0.87415208   -3.3290662   -1.8622461  0.039417274   -3.3290662    1.4668201   392487 
 3417000     0.872615   -3.3279961   -1.8635052  0.032009361   -3.3279961    1.4644909   392420 
 3418000   0.87249279   -3.3271375   -1.8625905  0.033803404   -3.3271375     1.464547   392350 
 3419000   0.87256149   -3.3284974   -1.8635027  0.038420145   -3.3284974    1.4649947   392261 
 3420000    0.8714905   -3.3293142   -1.8657222  0.040470636   -3.3293142     1.463592   392155 
 3421000   0.87365234   -3.3311511   -1.8637938  0.037212953   -3.3311511    1.4673573   392119 
 3422000    0.8718497   -3.3290822    -1.864577  0.041739616   -3.3290822    1.4645052   392072 
 3423000    0.8707896   -3.3270535   -1.8641461  0.037370451   -3.3270535    1.4629073   392023 
 3424000   0.87054383   -3.3267972   -1.8640789  0.038298151   -3.3267972    1.4627183   391963 
 3425000   0.87197726   -3.3300068   -1.8645136  0.035030706   -3.3300068    1.4654932   391865 
 3426000    0.8723195   -3.3299641   -1.8637834  0.036465931   -3.3299641    1.4661807   391835 
 3427000    0.8713562   -3.3304814   -1.8656769  0.041552781   -3.3304814    1.4648046   391770 
 3428000   0.87183073    -3.331779   -1.8660159  0.039664463    -3.331779    1.4657632   391727 
 3429000   0.86859876   -3.3278812   -1.8672684  0.037493938   -3.3278812    1.4606128   391651 
 3430000    0.8698885    -3.329637   -1.8666201  0.039099824    -3.329637    1.4630169   391588 
 3431000   0.86939616   -3.3294521   -1.8670168  0.036700272   -3.3294521    1.4624354   391522 
 3432000   0.86990965   -3.3301081   -1.8663865  0.031004454   -3.3301081    1.4637216   391409 
 3433000   0.86835564   -3.3270015    -1.865596  0.040123654   -3.3270015    1.4614055   391329 
 3434000    0.8698903   -3.3304487   -1.8661836  0.037481294   -3.3304487    1.4642651   391255 
 3435000   0.87034024   -3.3313245   -1.8660436  0.043422488   -3.3313245    1.4652809   391186 
 3436000   0.86850795   -3.3294293   -1.8669005  0.043440383   -3.3294293    1.4625289   391097 
 3437000    0.8699253   -3.3303517   -1.8653087  0.043004411   -3.3303517     1.465043   391063 
 3438000   0.86997517   -3.3316369   -1.8662439  0.040612425   -3.3316369     1.465393   390992 
 3439000   0.86906442   -3.3306687   -1.8666188   0.03657422   -3.3306687    1.4640499   390941 
 3440000   0.87054126   -3.3339376   -1.8671821  0.034278722   -3.3339376    1.4667554   390883 
 3441000   0.86881744   -3.3318163   -1.8676094   0.03762885   -3.3318163    1.4642069   390788 
 3442000   0.86711419    -3.330035   -1.8684854  0.038586745    -3.330035    1.4615496   390731 
 3443000   0.86716433   -3.3302683   -1.8685182  0.033585179   -3.3302683    1.4617501   390700 
 3444000   0.86684532   -3.3300843   -1.8685503  0.033431589   -3.3300843     1.461534   390614 
 3445000    0.8659365   -3.3298675    -1.869548  0.031710076   -3.3298675    1.4603195   390529 
 3446000   0.86586158   -3.3317071    -1.871125  0.034065833   -3.3317071    1.4605821   390425 
 3447000   0.86643469    -3.334174   -1.8723031  0.036937867    -3.334174    1.4618709   390339 
 3448000   0.86564607   -3.3329981   -1.8722707  0.039935547   -3.3329981    1.4607274   390289 
 3449000   0.86497432   -3.3324972   -1.8726078   0.03449225   -3.3324972    1.4598894   390210 
 3450000    0.8663199   -3.3354345   -1.8731017  0.033996815   -3.3354345    1.4623328   390164 
 3451000   0.86377464   -3.3332038   -1.8747936  0.033851029   -3.3332038    1.4584103   390064 
 3452000    0.8642144   -3.3342591   -1.8749866  0.032832327   -3.3342591    1.4592725   390032 
 3453000   0.86242367   -3.3318891    -1.875435  0.030444244   -3.3318891    1.4564541   389977 
 3454000     0.863685   -3.3342694    -1.875427  0.032097501   -3.3342694    1.4588423   389908 
 3455000   0.86461586   -3.3338205   -1.8730986  0.037610902   -3.3338205    1.4607219   389826 
 3456000    0.8645095   -3.3341093   -1.8733536  0.035521254   -3.3341093    1.4607558   389769 
 3457000   0.86507978   -3.3355468   -1.8736174  0.034285678   -3.3355468    1.4619294   389713 
 3458000      0.86515   -3.3345022   -1.8722815  0.034464557   -3.3345022    1.4622207   389667 
 3459000   0.86583748   -3.3353865   -1.8719213  0.037258138   -3.3353865    1.4634652   389645 
 3460000    0.8646956   -3.3356098   -1.8740484  0.035370591   -3.3356098    1.4615614   389638 
 3461000   0.86425334   -3.3355664    -1.874355  0.039278623   -3.3355664    1.4612114   389532 
 3462000   0.86522165   -3.3366526   -1.8736576  0.035878714   -3.3366526     1.462995   389493 
 3463000   0.86379087    -3.334973    -1.874176  0.038046893    -3.334973     1.460797   389434 
 3464000   0.86259233   -3.3356502   -1.8767115  0.034690463   -3.3356502    1.4589387   389389 
 3465000    0.8627527   -3.3367935   -1.8774449  0.035839716   -3.3367935    1.4593486   389352 
 3466000   0.86238459   -3.3380895   -1.8789064  0.035063631   -3.3380895    1.4591832   389230 
 3467000   0.86303865   -3.3386901   -1.8782051  0.034607458   -3.3386901     1.460485   389178 
 3468000   0.86223816   -3.3391353   -1.8798588  0.041573346   -3.3391353    1.4592766   389139 
 3469000   0.86281459   -3.3395201    -1.879024  0.038212232   -3.3395201    1.4604961   389074 
 3470000   0.86333584   -3.3419131   -1.8802416  0.038520247   -3.3419131    1.4616715   388996 
 3471000   0.86330128    -3.342268   -1.8805123  0.036472327    -3.342268    1.4617557   388958 
 3472000   0.86290166    -3.343131   -1.8817701  0.037608425    -3.343131    1.4613609   388883 
 3473000   0.86296016   -3.3436476   -1.8818907  0.034552839   -3.3436476    1.4617569   388804 
 3474000   0.86209293   -3.3432537   -1.8826465  0.038905367   -3.3432537    1.4606072   388719 
 3475000   0.86332776   -3.3454991   -1.8826605   0.04039414   -3.3454991    1.4628386   388682 
 3476000   0.86110461   -3.3439553   -1.8846397  0.036339957   -3.3439553    1.4593157   388617 
 3477000   0.85956564   -3.3423742   -1.8852916  0.037201721   -3.3423742    1.4570825   388517 
 3478000   0.85889566   -3.3430927   -1.8869022  0.032933336   -3.3430927    1.4561904   388452 
 3479000   0.85820456   -3.3447322    -1.889395  0.035269417   -3.3447322    1.4553372   388367 
 3480000   0.86011485   -3.3466551   -1.8879132  0.035287553   -3.3466551    1.4587419   388323 
 3481000   0.85974921   -3.3465987   -1.8882554   0.03517348   -3.3465987    1.4583434   388264 
 3482000   0.85878332   -3.3450874   -1.8882286  0.035304204   -3.3450874    1.4568588   388223 
 3483000   0.85887882   -3.3462035    -1.888995  0.036591369   -3.3462035    1.4572085   388173 
 3484000   0.85966693   -3.3486408   -1.8899637  0.030449789   -3.3486408    1.4586772   388138 
 3485000   0.85863173   -3.3479052   -1.8907443  0.037674512   -3.3479052    1.4571609   388074 
 3486000   0.85812677   -3.3494082    -1.892635  0.036103774   -3.3494082    1.4567732   387949 
 3487000   0.85854737    -3.351102   -1.8933142  0.036341955    -3.351102    1.4577878   387869 
 3488000   0.85817317   -3.3487954   -1.8914401  0.033655219   -3.3487954    1.4573554   387815 
 3489000   0.85931871   -3.3509144   -1.8914631  0.032941018   -3.3509144    1.4594513   387775 
 3490000   0.85848139   -3.3513591   -1.8930892  0.037491127   -3.3513591    1.4582698   387711 
 3491000   0.85833263    -3.351349   -1.8930384  0.039235905    -3.351349    1.4583105   387633 
 3492000   0.85767926    -3.351197   -1.8937898  0.035585145    -3.351197    1.4574072   387578 
 3493000   0.85665286   -3.3513027   -1.8952488  0.040062624   -3.3513027    1.4560539   387474 
 3494000   0.85874444   -3.3541566   -1.8942802  0.036013162   -3.3541566    1.4598764   387403 
 3495000   0.85694337    -3.355101   -1.8981096  0.035003201    -3.355101    1.4569913   387356 
 3496000   0.85839887   -3.3574876   -1.8977653  0.039425182   -3.3574876    1.4597222   387288 
 3497000   0.85833002    -3.354906   -1.8952594  0.035512312    -3.354906    1.4596466   387277 
 3498000   0.85890078   -3.3581687   -1.8973478  0.032274404   -3.3581687    1.4608209   387223 
 3499000   0.85677952   -3.3541965   -1.8967388  0.040898808   -3.3541965    1.4574577   387158 
 3500000   0.85820888   -3.3566184   -1.8965029   0.04094133   -3.3566184    1.4601155   387098 
 3501000    0.8581832   -3.3580413   -1.8977393  0.032343458   -3.3580413    1.4603019   387037 
 3502000   0.85778411   -3.3572393    -1.897526  0.039875461   -3.3572393    1.4597133   387013 
 3503000   0.85662316   -3.3561354   -1.8981415  0.036023295   -3.3561354    1.4579939   386945 
 3504000   0.85729801   -3.3604545   -1.9012064  0.040458582   -3.3604545    1.4592481   386917 
 3505000    0.8557128   -3.3588542   -1.9021575  0.036358605   -3.3588542    1.4566967   386878 
 3506000   0.85577162   -3.3586079   -1.9015739  0.033268873   -3.3586079    1.4570341   386815 
 3507000   0.85670911   -3.3597792   -1.9009528  0.034437772   -3.3597792    1.4588263   386763 
 3508000   0.85531884   -3.3596687    -1.902995  0.035695272   -3.3596687    1.4566736   386706 
 3509000   0.85498369   -3.3605845   -1.9042557  0.035056209   -3.3605845    1.4563288   386646 
 3510000   0.85398287   -3.3610141   -1.9062019  0.039553926   -3.3610141    1.4548122   386596 
 3511000   0.85373531    -3.359558   -1.9049719  0.034847786    -3.359558    1.4545861   386544 
 3512000   0.85372903   -3.3599805   -1.9051943  0.037756431   -3.3599805    1.4547862   386488 
 3513000   0.85359596   -3.3618152   -1.9070375  0.037445754   -3.3618152    1.4547777   386430 
 3514000   0.85573176   -3.3644524   -1.9058345  0.029654219   -3.3644524    1.4586178   386377 
 3515000   0.85385179   -3.3622473   -1.9065325  0.036495351   -3.3622473    1.4557148   386297 
 3516000   0.85326511   -3.3620102   -1.9070132  0.031219712   -3.3620102     1.454997   386222 
 3517000   0.85309478   -3.3618514   -1.9068849  0.032835053   -3.3618514    1.4549665   386153 
 3518000   0.85404885    -3.363174   -1.9063992  0.037862078    -3.363174    1.4567748   386105 
 3519000   0.85576423   -3.3661623   -1.9061742  0.036038072   -3.3661623    1.4599881   386029 
 3520000    0.8538899   -3.3652048   -1.9081765  0.040352246   -3.3652048    1.4570282   385966 
 3521000   0.85334047    -3.363899   -1.9076423  0.039875596    -3.363899    1.4562567   385922 
 3522000   0.85394398   -3.3659152   -1.9084549  0.039637988   -3.3659152    1.4574603   385876 
 3523000   0.85385883   -3.3646066   -1.9070422  0.037671547   -3.3646066    1.4575643   385810 
 3524000   0.85315108   -3.3636722    -1.907184  0.039566603   -3.3636722    1.4564883   385775 
 3525000   0.85338444   -3.3655423   -1.9084063  0.042069969   -3.3655423     1.457136   385709 
 3526000   0.85222194   -3.3647834   -1.9094513  0.040120808   -3.3647834    1.4553321   385661 
 3527000   0.85296061   -3.3662713   -1.9093831  0.035659127   -3.3662713    1.4568882   385583 
 3528000   0.85147931   -3.3632963    -1.908942   0.03877672   -3.3632963    1.4543543   385584 
 3529000   0.85148563   -3.3658596   -1.9112644  0.036915858   -3.3658596    1.4545952   385523 
 3530000   0.85143177   -3.3672534   -1.9123803   0.04225565   -3.3672534    1.4548731   385425 
 3531000   0.85070646   -3.3649078   -1.9110553  0.037799658   -3.3649078    1.4538525   385367 
 3532000   0.85057215     -3.36544   -1.9114662  0.029624621     -3.36544    1.4539738   385274 
 3533000   0.85072245   -3.3658627   -1.9114621  0.036502745   -3.3658627    1.4544006   385229 
 3534000   0.85069903   -3.3660353    -1.911316  0.033651533   -3.3660353    1.4547193   385134 
 3535000   0.84874901   -3.3641089   -1.9124792  0.031789989   -3.3641089    1.4516297   385069 
 3536000   0.84919497   -3.3659006   -1.9132441  0.029527034   -3.3659006    1.4526565   384999 
 3537000   0.84813414   -3.3632001   -1.9121924  0.032318153   -3.3632001    1.4510077   384955 
 3538000   0.84838677   -3.3628857   -1.9113213  0.040954024   -3.3628857    1.4515643   384922 
 3539000   0.84868355   -3.3645015   -1.9122332  0.040235758   -3.3645015    1.4522683   384870 
 3540000   0.85097422   -3.3673082   -1.9109877  0.034692278   -3.3673082    1.4563205   384835 
 3541000   0.85145776   -3.3687136   -1.9114899  0.039954506   -3.3687136    1.4572238   384815 
 3542000    0.8508594   -3.3679949   -1.9114734  0.037210267   -3.3679949    1.4565214   384730 
 3543000   0.85030047   -3.3679409   -1.9122135  0.037570551   -3.3679409    1.4557274   384687 
 3544000   0.85109484   -3.3685611   -1.9113374  0.036599209   -3.3685611    1.4572237   384651 
 3545000   0.84881547   -3.3669641   -1.9133748  0.038935209   -3.3669641    1.4535893   384580 
 3546000   0.84980693   -3.3680261   -1.9124777   0.03301951   -3.3680261    1.4555483   384511 
 3547000   0.84967866   -3.3688541   -1.9132907  0.036819128   -3.3688541    1.4555633   384449 
 3548000   0.84916921   -3.3689349   -1.9140589  0.035315124   -3.3689349     1.454876   384400 
 3549000   0.84768842   -3.3665836   -1.9141124  0.032254073   -3.3665836    1.4524713   384365 
 3550000   0.84840449   -3.3683963   -1.9145808  0.037950428   -3.3683963    1.4538155   384334 
 3551000   0.84868009   -3.3683431   -1.9138661  0.035953085   -3.3683431    1.4544769   384284 
 3552000   0.85015966   -3.3700532   -1.9129344   0.03538103   -3.3700532    1.4571188   384256 
 3553000   0.84918364   -3.3705761   -1.9150127  0.039862817   -3.3705761    1.4555634   384225 
 3554000   0.85051705   -3.3710733   -1.9131712  0.036178199   -3.3710733    1.4579021   384211 
 3555000   0.84960615   -3.3698421   -1.9132436  0.039401131   -3.3698421    1.4565985   384143 
 3556000   0.84715025   -3.3671997   -1.9144033  0.040573864   -3.3671997    1.4527964   384035 
 3557000   0.84793336   -3.3702516   -1.9157789  0.035728029   -3.3702516    1.4544727   383947 
 3558000   0.84895643   -3.3716159   -1.9154376  0.036543374   -3.3716159    1.4561783   383960 
 3559000   0.84886929   -3.3728604   -1.9165699  0.037429839   -3.3728604    1.4562905   383891 
 3560000   0.84807954   -3.3728574   -1.9177663  0.036485338   -3.3728574    1.4550911   383850 
 3561000   0.84822937   -3.3724965   -1.9169247  0.033166955   -3.3724965    1.4555719   383791 
 3562000   0.84792824   -3.3722659   -1.9169074  0.040501332   -3.3722659    1.4553585   383711 
 3563000   0.84891862   -3.3738307   -1.9166432  0.039416411   -3.3738307    1.4571875   383677 
 3564000   0.84773005   -3.3737632   -1.9184073  0.035123758   -3.3737632    1.4553559   383622 
 3565000   0.84805171   -3.3744261   -1.9183396  0.038349705   -3.3744261    1.4560865   383575 
 3566000   0.84680761     -3.37421   -1.9201459  0.036787341     -3.37421    1.4540641   383545 
 3567000   0.84704766   -3.3757169   -1.9211496  0.036790869   -3.3757169    1.4545673   383521 
 3568000   0.84638091   -3.3748197   -1.9211585  0.033932597   -3.3748197    1.4536612   383458 
 3569000   0.84456435   -3.3735997   -1.9227671  0.039934478   -3.3735997    1.4508325   383381 
 3570000   0.84547758   -3.3768908   -1.9243492  0.032840824   -3.3768908    1.4525415   383344 
 3571000   0.84450229   -3.3737092   -1.9226767  0.034559929   -3.3737092    1.4510325   383300 
 3572000   0.84526401   -3.3760411   -1.9233776  0.033735889   -3.3760411    1.4526635   383215 
 3573000   0.84484211   -3.3761188   -1.9239152  0.038509779   -3.3761188    1.4522036   383145 
 3574000   0.84473119   -3.3756545   -1.9235505   0.04091988   -3.3756545    1.4521039   383121 
 3575000   0.84541588   -3.3778069   -1.9243325  0.034592253   -3.3778069    1.4534744   383070 
 3576000   0.84602895    -3.377476   -1.9228792   0.03796625    -3.377476    1.4545968   383052 
 3577000   0.84538947   -3.3750997   -1.9214581  0.040185694   -3.3750997    1.4536415   383014 
 3578000   0.84669578   -3.3777776   -1.9216466  0.038879682   -3.3777776     1.456131   382950 
 3579000   0.84561483   -3.3746456   -1.9201305  0.037377455   -3.3746456    1.4545151   382886 
 3580000   0.84542383    -3.375717   -1.9213861  0.038570905    -3.375717    1.4543309   382848 
 3581000   0.84582768   -3.3768906   -1.9217357   0.03588059   -3.3768906    1.4551549   382814 
 3582000   0.84581759   -3.3775806   -1.9222454  0.036258924   -3.3775806    1.4553352   382762 
 3583000   0.84547663   -3.3775558    -1.922621  0.036645017   -3.3775558    1.4549348   382713 
 3584000    0.8458241    -3.377493   -1.9216522   0.03867182    -3.377493    1.4558408   382632 
 3585000   0.84425473    -3.375466   -1.9220415  0.036858231    -3.375466    1.4534245   382557 
 3586000   0.84467979   -3.3758627   -1.9213262  0.038300332   -3.3758627    1.4545365   382457 
 3587000   0.84521144   -3.3772812   -1.9215133  0.030595251   -3.3772812    1.4557679   382374 
 3588000   0.84413384   -3.3762244   -1.9220653  0.037583369   -3.3762244    1.4541591   382309 
 3589000   0.84316944   -3.3752433    -1.922586  0.041692753   -3.3752433    1.4526573   382267 
 3590000   0.84449409    -3.378193   -1.9230593  0.031573754    -3.378193    1.4551337   382216 
 3591000   0.84237964   -3.3746676   -1.9229342    0.0346621   -3.3746676    1.4517334   382152 
 3592000   0.84275872   -3.3759331   -1.9235312  0.028041693   -3.3759331    1.4524019   382148 
 3593000   0.84071477    -3.373457   -1.9243046  0.033651451    -3.373457    1.4491524   382076 
 3594000    0.8420172   -3.3770618   -1.9252198   0.02920897   -3.3770618     1.451842   381959 
 3595000   0.84094889   -3.3755008   -1.9254212  0.031925776   -3.3755008    1.4500797   381938 
 3596000   0.84193237   -3.3781016    -1.926155  0.030570711   -3.3781016    1.4519466   381893 
 3597000   0.84052153   -3.3758401   -1.9261178  0.029819092   -3.3758401    1.4497223   381838 
 3598000   0.84035016   -3.3744383   -1.9249584  0.033736928   -3.3744383    1.4494799   381824 
 3599000   0.83972343    -3.373257   -1.9246874   0.03475548    -3.373257    1.4485696   381779 
 3600000   0.84132587    -3.375451   -1.9238661  0.031431973    -3.375451    1.4515848   381713 
 3601000   0.84040726   -3.3746518   -1.9246632  0.036002356   -3.3746518    1.4499885   381716 
 3602000   0.84044584   -3.3754516   -1.9252522  0.034466458   -3.3754516    1.4501994   381678 
 3603000   0.84033573   -3.3751433   -1.9249287  0.028468927   -3.3751433    1.4502146   381624 
 3604000   0.84269655   -3.3777517   -1.9232494  0.034089213   -3.3777517    1.4545023   381568 
 3605000   0.84170435   -3.3778907   -1.9247201  0.043638941   -3.3778907    1.4531706   381468 
 3606000    0.8408231   -3.3774106   -1.9256815  0.036712568   -3.3774106     1.451729   381447 
 3607000   0.84213059   -3.3785023   -1.9241917  0.036993953   -3.3785023    1.4543106   381362 
 3608000   0.83997532   -3.3760369   -1.9253837  0.035288629   -3.3760369    1.4506532   381345 
 3609000   0.84055473   -3.3776425    -1.925882  0.029979277   -3.3776425    1.4517604   381317 
 3610000   0.84036154   -3.3774033   -1.9258394  0.035122589   -3.3774033    1.4515638   381281 
 3611000   0.83898296   -3.3746845   -1.9255133  0.039422813   -3.3746845    1.4491712   381284 
 3612000   0.83878808   -3.3745125   -1.9256323   0.03451003   -3.3745125    1.4488802   381272 
 3613000   0.83921726   -3.3749577   -1.9249559  0.038224438   -3.3749577    1.4500018   381172 
 3614000   0.84003421   -3.3761439   -1.9245134  0.028423057   -3.3761439    1.4516304   381115 
 3615000    0.8398251    -3.376401   -1.9251776  0.034169737    -3.376401    1.4512234   381127 
 3616000   0.84087431   -3.3783938   -1.9251934  0.034123329   -3.3783938    1.4532004   381084 
 3617000   0.83957024   -3.3764524   -1.9252087  0.037089083   -3.3764524    1.4512437   381006 
 3618000   0.83789984   -3.3751963   -1.9265738  0.039024738   -3.3751963    1.4486225   380936 
 3619000   0.83942797   -3.3792202   -1.9276776  0.037873392   -3.3792202    1.4515426   380863 
 3620000   0.83878096   -3.3787786   -1.9279624  0.032893092   -3.3787786    1.4508161   380760 
 3621000   0.83970543   -3.3826006   -1.9299337   0.03306028   -3.3826006     1.452667   380694 
 3622000     0.838502    -3.380306   -1.9296447  0.037305279    -3.380306    1.4506613   380674 
 3623000   0.83808989   -3.3805532    -1.930403  0.031202258   -3.3805532    1.4501502   380621 
 3624000   0.83679748   -3.3798768   -1.9317765  0.036709766   -3.3798768    1.4481004   380572 
 3625000   0.83817638   -3.3812775   -1.9308367  0.038846225   -3.3812775    1.4504408   380584 
 3626000    0.8382675   -3.3799591   -1.9292539  0.037314618   -3.3799591    1.4507053   380556 
 3627000   0.83782701    -3.381702   -1.9314542  0.028232568    -3.381702    1.4502478   380476 
 3628000   0.83547582   -3.3796705   -1.9332682  0.034661621   -3.3796705    1.4464023   380417 
 3629000   0.83581319   -3.3804959   -1.9334145   0.03750583   -3.3804959    1.4470815   380392 
 3630000   0.83738651   -3.3835419   -1.9335306  0.035213284   -3.3835419    1.4500113   380338 
 3631000   0.83819054   -3.3842361   -1.9327525  0.030518361   -3.3842361    1.4514837   380317 
 3632000   0.83766817   -3.3815057   -1.9308732  0.040929278   -3.3815057    1.4506325   380303 
 3633000   0.83884202   -3.3840829   -1.9312572  0.035731244   -3.3840829    1.4528257   380261 
 3634000   0.84002462   -3.3860125    -1.930932  0.036770116   -3.3860125    1.4550806   380207 
 3635000   0.83854268   -3.3866078   -1.9339567  0.038852626   -3.3866078    1.4526511   380171 
 3636000   0.83911926   -3.3883085   -1.9344252  0.035527987   -3.3883085    1.4538832   380110 
 3637000   0.83788855    -3.385942   -1.9338473  0.037310969    -3.385942    1.4520947   380020 
 3638000   0.83716456   -3.3868257   -1.9355962  0.036166223   -3.3868257    1.4512295   379918 
 3639000    0.8357768   -3.3852949   -1.9361774  0.038419706   -3.3852949    1.4491175   379841 
 3640000   0.83437104   -3.3830414   -1.9361975  0.037399709   -3.3830414    1.4468439   379798 
 3641000   0.83654043   -3.3877175   -1.9368749  0.033939669   -3.3877175    1.4508426   379736 
 3642000    0.8352609   -3.3870902   -1.9382722  0.035711539   -3.3870902     1.448818   379685 
 3643000   0.83522154   -3.3864487   -1.9374012   0.03211738   -3.3864487    1.4490475   379607 
 3644000   0.83464091   -3.3855769   -1.9373765  0.034271618   -3.3855769    1.4482003   379565 
 3645000   0.83553524   -3.3866741   -1.9367119  0.033885221   -3.3866741    1.4499622   379510 
 3646000    0.8344004    -3.385786   -1.9374306  0.035579467    -3.385786    1.4483554   379415 
 3647000   0.83568954   -3.3891557   -1.9384555   0.03215399   -3.3891557    1.4507001   379387 
 3648000   0.83539748   -3.3885102   -1.9381221  0.036903412   -3.3885102    1.4503881   379336 
 3649000   0.83564364   -3.3896341   -1.9385738  0.037500463   -3.3896341    1.4510603   379272 
 3650000   0.83607228   -3.3921304   -1.9401152  0.029736533   -3.3921304    1.4520152   379217 
 3651000   0.83303198   -3.3870108   -1.9400888  0.036983223   -3.3870108     1.446922   379168 
 3652000   0.83303597   -3.3887918   -1.9415919  0.031634978   -3.3887918    1.4471999   379097 
 3653000   0.83234321   -3.3886955   -1.9425083  0.027901143   -3.3886955    1.4461872   379047 
 3654000   0.83243533   -3.3872722   -1.9408104  0.030060492   -3.3872722    1.4464617   379017 
 3655000   0.83332943   -3.3890072   -1.9409536  0.032134489   -3.3890072    1.4480535   379007 
 3656000    0.8321861   -3.3883703   -1.9419906  0.034317543   -3.3883703    1.4463797   378925 
 3657000   0.83266002   -3.3889727   -1.9417311  0.036022573   -3.3889727    1.4472416   378915 
 3658000   0.83123678   -3.3869357   -1.9420306  0.035176884   -3.3869357    1.4449052   378879 
 3659000   0.83218067    -3.387666   -1.9410017  0.034074078    -3.387666    1.4466643   378848 
 3660000   0.83259919   -3.3897737   -1.9421603   0.03711283   -3.3897737    1.4476135   378790 
 3661000   0.83288921   -3.3891383   -1.9408638  0.036468735   -3.3891383    1.4482745   378749 
 3662000   0.83351788   -3.3892756   -1.9396669   0.03623147   -3.3892756    1.4496087   378686 
 3663000   0.83358021   -3.3918136   -1.9420007  0.033927293   -3.3918136    1.4498129   378661 
 3664000   0.83212292   -3.3910347   -1.9436264  0.036171252   -3.3910347    1.4474082   378627 
 3665000   0.83083948   -3.3896144   -1.9442973  0.033269651   -3.3896144     1.445317   378590 
 3666000    0.8300141   -3.3890598    -1.945129  0.034032296   -3.3890598    1.4439308   378577 
 3667000   0.83097679   -3.3899155   -1.9441572  0.033383302   -3.3899155    1.4457583   378537 
 3668000   0.83117864    -3.391568    -1.945321  0.032864024    -3.391568     1.446247   378501 
 3669000   0.83125313   -3.3902595   -1.9437873  0.036469404   -3.3902595    1.4464722   378476 
 3670000    0.8310126   -3.3905286   -1.9441769  0.035020036   -3.3905286    1.4463517   378398 
 3671000    0.8308156   -3.3893158   -1.9431732  0.037849798   -3.3893158    1.4461426   378363 
 3672000   0.83068466   -3.3890515   -1.9430834  0.042200655   -3.3890515    1.4459682   378349 
 3673000    0.8323319   -3.3912031   -1.9422412  0.039716594   -3.3912031    1.4489619   378316 
 3674000   0.83370029   -3.3934259   -1.9417749  0.034306151   -3.3934259     1.451651   378236 
 3675000    0.8319795   -3.3925641   -1.9434649  0.032612823   -3.3925641    1.4490992   378120 
 3676000   0.83239635   -3.3926744   -1.9427342  0.041938394   -3.3926744    1.4499403   378090 
 3677000   0.83242001   -3.3943907   -1.9444169  0.040460406   -3.3943907    1.4499738   378092 
 3678000   0.83242623   -3.3946765   -1.9444157  0.036005908   -3.3946765    1.4502608   378020 
 3679000   0.83171173   -3.3944222   -1.9454522  0.038683621   -3.3944222      1.44897   378032 
 3680000   0.82954471   -3.3911167   -1.9458378  0.038011456   -3.3911167    1.4452788   378010 
 3681000    0.8298563   -3.3945717   -1.9483942  0.035857853   -3.3945717    1.4461775   377917 
 3682000   0.82888114   -3.3910834   -1.9465403  0.033283776   -3.3910834    1.4445431   377900 
 3683000    0.8291556   -3.3925168   -1.9473539  0.035584268   -3.3925168    1.4451629   377863 
 3684000   0.82892647   -3.3928053    -1.947797  0.032613585   -3.3928053    1.4450083   377799 
 3685000   0.82922744   -3.3932516   -1.9475733  0.032246999   -3.3932516    1.4456783   377761 
 3686000    0.8305802   -3.3946518   -1.9464387  0.037961651   -3.3946518    1.4482131   377715 
 3687000   0.83159743   -3.3960255   -1.9458966  0.038019502   -3.3960255    1.4501288   377678 
 3688000   0.82959826   -3.3945591   -1.9478705  0.035948463   -3.3945591    1.4466886   377666 
 3689000   0.83030022   -3.3951376   -1.9470485  0.039076408   -3.3951376    1.4480891   377620 
 3690000   0.83084194   -3.3951168   -1.9459563   0.03651025   -3.3951168    1.4491606   377587 
 3691000   0.82957206   -3.3932825   -1.9463752   0.03821168   -3.3932825    1.4469073   377597 
 3692000   0.82997283   -3.3950495   -1.9472131  0.030986146   -3.3950495    1.4478364   377537 
 3693000   0.82883304   -3.3924612   -1.9464714   0.03197133   -3.3924612    1.4459898   377500 
 3694000   0.82942192   -3.3938219    -1.946636    0.0270755   -3.3938219    1.4471859   377456 
 3695000   0.82858646   -3.3924182   -1.9465981   0.03092944   -3.3924182    1.4458201   377432 
 3696000   0.82793076   -3.3914382   -1.9463526  0.034800606   -3.3914382    1.4450856   377325 
 3697000   0.82901354   -3.3929049   -1.9456916   0.03753906   -3.3929049    1.4472133   377263 
 3698000   0.83049118   -3.3980174   -1.9479478  0.032431151   -3.3980174    1.4500696   377191 
 3699000   0.82914693   -3.3944626   -1.9465827  0.035909645   -3.3944626    1.4478798   377150 
 3700000   0.82952405   -3.3937107   -1.9450111  0.038194792   -3.3937107    1.4486997   377108 
 3701000   0.82809701   -3.3934282   -1.9470097  0.039178965   -3.3934282    1.4464184   377053 
 3702000   0.82717221   -3.3917261   -1.9466701  0.038033254   -3.3917261    1.4450561   376987 
 3703000   0.82705907   -3.3927438   -1.9474829  0.033432227   -3.3927438    1.4452609   376882 
 3704000   0.82729555   -3.3938142   -1.9479252  0.038870127   -3.3938142     1.445889   376826 
 3705000   0.82806192   -3.3950158   -1.9475146  0.040919635   -3.3950158    1.4475012   376755 
 3706000   0.82822169   -3.3952412   -1.9473762  0.031745881   -3.3952412     1.447865   376733 
 3707000   0.82687335   -3.3941089   -1.9484706  0.036843277   -3.3941089    1.4456383   376699 
 3708000   0.82740814   -3.3964016   -1.9497246  0.032566337   -3.3964016     1.446677   376672 
 3709000   0.82636237   -3.3956349   -1.9505638  0.036060723   -3.3956349    1.4450711   376614 
 3710000   0.82699486   -3.3973649   -1.9508498  0.033337007   -3.3973649    1.4465151   376526 
 3711000    0.8250917   -3.3968377   -1.9533754   0.03496305   -3.3968377    1.4434623   376454 
 3712000   0.82624519   -3.3983715   -1.9526454  0.030285881   -3.3983715     1.445726   376390 
 3713000   0.82623144   -3.3983733   -1.9524908  0.035415276   -3.3983733    1.4458825   376343 
 3714000   0.82479197   -3.3973162   -1.9537725  0.035741583   -3.3973162    1.4435438   376296 
 3715000   0.82539549   -3.3980165   -1.9531823  0.032057104   -3.3980165    1.4448342   376235 
 3716000   0.82528524   -3.3992879   -1.9544776  0.029086349   -3.3992879    1.4448102   376191 
 3717000   0.82377276   -3.3971412   -1.9548906  0.033756705   -3.3971412    1.4422505   376168 
 3718000   0.82367156   -3.3971708   -1.9549901  0.029128004   -3.3971708    1.4421807   376140 
 3719000   0.82522686   -3.4008604   -1.9558028  0.027669936   -3.4008604    1.4450576   376100 
 3720000   0.82458665   -3.3994015     -1.95525  0.030414645   -3.3994015    1.4441515   376044 
 3721000   0.82466947   -3.3983779   -1.9538085  0.034210059   -3.3983779    1.4445693   375973 
 3722000   0.82607265   -3.4021774   -1.9547651  0.033235803   -3.4021774    1.4474123   375873 
 3723000   0.82440966    -3.399154   -1.9543289  0.037163954    -3.399154    1.4448252   375788 
 3724000     0.824517   -3.3977797   -1.9526472  0.038080467   -3.3977797    1.4451325   375757 
 3725000   0.82499515   -3.3988933   -1.9526225  0.035631527   -3.3988933    1.4462708   375679 
 3726000   0.82554373   -3.4008821   -1.9533106  0.041110392   -3.4008821    1.4475715   375591 
 3727000   0.82486351   -3.4027172   -1.9562999  0.033088307   -3.4027172    1.4464173   375581 
 3728000   0.82572718   -3.4034307   -1.9553833  0.032400189   -3.4034307    1.4480474   375551 
 3729000    0.8238044   -3.4008373    -1.955981   0.03514655   -3.4008373    1.4448564   375504 
 3730000    0.8244512   -3.4017731    -1.955713  0.032458014   -3.4017731    1.4460601   375486 
 3731000   0.82341849   -3.4011116   -1.9568705  0.030714133   -3.4011116    1.4442411   375488 
 3732000   0.82310756   -3.4021212   -1.9582756  0.029346224   -3.4021212    1.4438457   375449 
 3733000   0.82388923   -3.4030759   -1.9576088  0.030682529   -3.4030759    1.4454671   375384 
 3734000   0.82294373   -3.4031237   -1.9590307  0.033983453   -3.4031237    1.4440929   375310 
 3735000   0.82182535   -3.3988937   -1.9567941  0.040005537   -3.3988937    1.4420997   375318 
 3736000   0.82181559   -3.4001469   -1.9580067  0.039634818   -3.4001469    1.4421402   375303 
 3737000   0.82251599   -3.4029154    -1.959173  0.034528427   -3.4029154    1.4437424   375206 
 3738000    0.8224614   -3.4026361   -1.9587818  0.036124815   -3.4026361    1.4438544   375152 
 3739000   0.82172166   -3.4022084   -1.9593334  0.031082802   -3.4022084     1.442875   375069 
 3740000   0.82066389   -3.3994221   -1.9580894  0.037104981   -3.3994221    1.4413327   374987 
 3741000    0.8222579    -3.402449   -1.9580317  0.032444699    -3.402449    1.4444173   374913 
 3742000   0.82161703   -3.3995504    -1.956178  0.039406864   -3.3995504    1.4433724   374892 
 3743000   0.82220047   -3.4000806   -1.9557025  0.034524979   -3.4000806    1.4443781   374897 
 3744000    0.8234765    -3.401488   -1.9549454  0.035514616    -3.401488    1.4465425   374917 
 3745000   0.82443744   -3.4040842   -1.9557068  0.034856383   -3.4040842    1.4483774   374879 
 3746000   0.82329721   -3.4025942   -1.9561043  0.042764139   -3.4025942    1.4464899   374849 
 3747000   0.82092706   -3.3982882   -1.9557855  0.035524316   -3.3982882    1.4425027   374803 
 3748000   0.82220071   -3.4027133   -1.9577451  0.030691949   -3.4027133    1.4449682   374744 
 3749000   0.82095179   -3.4016142   -1.9587023  0.035023212   -3.4016142    1.4429119   374708 
 3750000   0.82152672   -3.4022336   -1.9581454  0.033251118   -3.4022336    1.4440881   374665 
 3751000    0.8210015   -3.4028653   -1.9595271  0.032983515   -3.4028653    1.4433383   374620 
 3752000   0.81990114   -3.4012868   -1.9597675  0.026301349   -3.4012868    1.4415192   374590 
 3753000   0.81967674   -3.4019032   -1.9604552  0.030724986   -3.4019032    1.4414479   374506 
 3754000   0.82013567    -3.402698   -1.9602119  0.034143027    -3.402698    1.4424861   374446 
 3755000   0.82118271   -3.4056146   -1.9611056  0.033709817   -3.4056146     1.444509   374399 
 3756000   0.82024424   -3.4038633   -1.9608433    0.0358494   -3.4038633      1.44302   374357 
 3757000   0.82138053   -3.4052929   -1.9600229  0.036286317   -3.4052929      1.44527   374292 
 3758000   0.82162795   -3.4065517    -1.960545  0.037826479   -3.4065517    1.4460067   374214 
 3759000   0.82140877   -3.4071121   -1.9612825  0.034120614   -3.4071121    1.4458296   374160 
 3760000   0.82059279   -3.4053017   -1.9606844  0.034161553   -3.4053017    1.4446173   374102 
 3761000    0.8202848   -3.4057334   -1.9614383  0.036759775   -3.4057334    1.4442951   374045 
 3762000    0.8199778    -3.406904   -1.9628675  0.035824859    -3.406904    1.4440364   373972 
 3763000    0.8185131   -3.4051956   -1.9635652   0.03379172   -3.4051956    1.4416304   373927 
 3764000   0.82049918   -3.4090021   -1.9637383  0.032713807   -3.4090021    1.4452637   373892 
 3765000     0.820389   -3.4094621   -1.9641875  0.034908264   -3.4094621    1.4452745   373839 
 3766000   0.82069013   -3.4105439   -1.9645996  0.036983986   -3.4105439    1.4459443   373803 
 3767000   0.81953279   -3.4073567   -1.9633511  0.035955444   -3.4073567    1.4440056   373777 
 3768000   0.82017079   -3.4084206   -1.9632792  0.037689809   -3.4084206    1.4451414   373774 
 3769000    0.8192497   -3.4086279   -1.9649511  0.030337015   -3.4086279    1.4436768   373733 
 3770000   0.81816814   -3.4085297   -1.9664386  0.036186411   -3.4085297    1.4420912   373650 
 3771000   0.81901638   -3.4101955   -1.9665319  0.037555718   -3.4101955    1.4436635   373630 
 3772000   0.81994503   -3.4115392   -1.9660337  0.036770056   -3.4115392    1.4455055   373577 
 3773000   0.81874988   -3.4083567   -1.9647805  0.036094023   -3.4083567    1.4435763   373531 
 3774000   0.81764408   -3.4078588   -1.9658578  0.036060287   -3.4078588     1.442001   373434 
 3775000    0.8190397   -3.4117608    -1.967105  0.036128431   -3.4117608    1.4446558   373384 
 3776000   0.81938759   -3.4118527   -1.9666452  0.033509947   -3.4118527    1.4452075   373400 
 3777000   0.81663165   -3.4069631   -1.9663966  0.032573846   -3.4069631    1.4405666   373343 
 3778000   0.81934684   -3.4124375   -1.9668257  0.032408732   -3.4124375    1.4456118   373277 
 3779000   0.81893181   -3.4121337   -1.9671923  0.038198209   -3.4121337    1.4449415   373261 
 3780000   0.81845161     -3.41118   -1.9670007  0.034264153     -3.41118    1.4441793   373239 
 3781000    0.8184987   -3.4119361   -1.9672092  0.035009496   -3.4119361    1.4447269   373119 
 3782000   0.81759617   -3.4113035   -1.9679375  0.037516242   -3.4113035     1.443366   373059 
 3783000   0.81911737   -3.4133967   -1.9671708  0.034315679   -3.4133967    1.4462259   373014 
 3784000   0.81732914   -3.4108157   -1.9677083  0.038509759   -3.4108157    1.4431073   373004 
 3785000   0.81568953   -3.4100531   -1.9697365  0.036934266   -3.4100531    1.4403166   372977 
 3786000   0.81619751   -3.4109865    -1.969657  0.034815326   -3.4109865    1.4413295   372947 
 3787000   0.81842664   -3.4149945   -1.9695076  0.035329316   -3.4149945    1.4454869   372890 
 3788000   0.81766895    -3.411902   -1.9676682  0.032673044    -3.411902    1.4442339   372868 
 3789000   0.81688173   -3.4093778   -1.9662402  0.043508128   -3.4093778    1.4431376   372792 
 3790000   0.81835332   -3.4121361   -1.9661971  0.031487527   -3.4121361     1.445939   372740 
 3791000    0.8175612   -3.4111385   -1.9665526  0.035342298   -3.4111385     1.444586   372728 
 3792000   0.81795377   -3.4136606   -1.9681948  0.035863867   -3.4136606    1.4454657   372680 
 3793000   0.81772961    -3.413152   -1.9680901  0.032715023    -3.413152    1.4450619   372682 
 3794000   0.81764689   -3.4122671   -1.9672622  0.033710812   -3.4122671    1.4450049   372659 
 3795000   0.81545045   -3.4094925   -1.9682224  0.037564292   -3.4094925    1.4412701   372621 
 3796000   0.81657564   -3.4098668    -1.966515  0.035054288   -3.4098668    1.4433518   372597 
 3797000   0.81563604   -3.4107749   -1.9688169  0.032334488   -3.4107749     1.441958   372528 
 3798000   0.81575845   -3.4100609   -1.9676154  0.034376071   -3.4100609    1.4424455   372458 
 3799000   0.81562275   -3.4107005   -1.9682239  0.031651221   -3.4107005    1.4424766   372388 
 3800000   0.81678329   -3.4109039   -1.9664213  0.035845842   -3.4109039    1.4444826   372400 
 3801000   0.81529177   -3.4096384    -1.967658  0.032159562   -3.4096384    1.4419803   372365 
 3802000   0.81718725   -3.4125183   -1.9671234  0.031948284   -3.4125183    1.4453949   372349 
 3803000   0.81592944    -3.411866   -1.9685098  0.035602855    -3.411866    1.4433562   372301 
 3804000   0.81523365   -3.4116817   -1.9694323   0.03838568   -3.4116817    1.4422494   372269 
 3805000   0.81563388   -3.4130349   -1.9699573  0.036738111   -3.4130349    1.4430776   372238 
 3806000   0.81453456   -3.4114373   -1.9700917  0.035023885   -3.4114373    1.4413456   372183 
 3807000   0.81354595   -3.4083017   -1.9685237  0.034421989   -3.4083017     1.439778   372136 
 3808000   0.81497011   -3.4118499   -1.9693732  0.030539997   -3.4118499    1.4424767   372090 
 3809000   0.81441364   -3.4116522   -1.9699512  0.034032927   -3.4116522     1.441701   372036 
 3810000   0.81485296    -3.412334   -1.9698242  0.034086047    -3.412334    1.4425097   372028 
 3811000   0.81653649   -3.4126208   -1.9669753  0.034193043   -3.4126208    1.4456455   371988 
 3812000   0.81469779   -3.4113368   -1.9688226  0.031947866   -3.4113368    1.4425142   371956 
 3813000   0.81573196   -3.4125164    -1.967938  0.031937021   -3.4125164    1.4445783   371896 
 3814000   0.81552366   -3.4136139   -1.9691519  0.037766004   -3.4136139    1.4444619   371831 
 3815000   0.81614747   -3.4150002   -1.9693712  0.039182886   -3.4150002     1.445629   371815 
 3816000   0.81449738   -3.4149779   -1.9720038  0.038962873   -3.4149779     1.442974   371746 
 3817000   0.81505224   -3.4176269   -1.9734096  0.036644621   -3.4176269    1.4442173   371679 
 3818000   0.81406927   -3.4164228   -1.9737105  0.029971287   -3.4164228    1.4427124   371618 
 3819000   0.81192837   -3.4121265   -1.9728636  0.036404355   -3.4121265    1.4392629   371529 
 3820000   0.81311972   -3.4153857   -1.9736346  0.032365281   -3.4153857    1.4417512   371432 
 3821000    0.8133682   -3.4173613   -1.9750337  0.033798849   -3.4173613    1.4423277   371397 
 3822000   0.81267779   -3.4166828   -1.9755019  0.033621359   -3.4166828     1.441181   371377 
 3823000    0.8136968   -3.4201048   -1.9767203  0.040065327   -3.4201048    1.4433845   371275 
 3824000   0.81336533   -3.4201998   -1.9772323  0.036838588   -3.4201998    1.4429675   371231 
 3825000   0.81282299    -3.418439   -1.9763559  0.040214501    -3.418439    1.4420831   371211 
 3826000   0.81388576   -3.4189569   -1.9750466  0.035742967   -3.4189569    1.4439102   371226 
 3827000   0.81293457   -3.4179782   -1.9755884  0.039194805   -3.4179782    1.4423898   371183 
 3828000   0.81271697   -3.4196376   -1.9773113  0.035914752   -3.4196376    1.4423262   371100 
 3829000   0.81305824   -3.4210325   -1.9779256  0.033663961   -3.4210325    1.4431069   371055 
 3830000   0.81198336   -3.4201461   -1.9786479  0.033112314   -3.4201461    1.4414982   370978 
 3831000   0.81258987   -3.4183618   -1.9756586  0.033473826   -3.4183618    1.4427033   370945 
 3832000   0.81136095   -3.4175235   -1.9768118  0.035700652   -3.4175235    1.4407117   370896 
 3833000   0.81258803   -3.4186751   -1.9756367  0.040209068   -3.4186751    1.4430384   370858 
 3834000   0.81246925   -3.4184812   -1.9757042  0.032721791   -3.4184812    1.4427769   370871 
 3835000    0.8122741    -3.418383    -1.975692   0.03322842    -3.418383     1.442691   370804 
 3836000   0.81133326   -3.4165646    -1.975358  0.038631365   -3.4165646    1.4412065   370756 
 3837000   0.81275231   -3.4188918   -1.9751178  0.032586499   -3.4188918     1.443774   370744 
 3838000   0.81079608   -3.4159989   -1.9755873  0.031508683   -3.4159989    1.4404116   370715 
 3839000   0.80975076   -3.4150715   -1.9763035  0.031458732   -3.4150715     1.438768   370660 
 3840000   0.80854116   -3.4131973   -1.9765281  0.032381013   -3.4131973    1.4366692   370647 
 3841000   0.81003535   -3.4164415    -1.976826  0.028299204   -3.4164415    1.4396155   370572 
 3842000   0.81067974   -3.4178858   -1.9769229  0.034393707   -3.4178858    1.4409629   370520 
 3843000   0.80995074   -3.4157422   -1.9758069   0.03169115   -3.4157422    1.4399353   370451 
 3844000   0.80993474   -3.4143632   -1.9743787  0.034905242   -3.4143632    1.4399846   370431 
 3845000   0.81011776   -3.4149497   -1.9743831   0.03362236   -3.4149497    1.4405666   370365 
 3846000   0.81122453    -3.417089   -1.9745426  0.038409106    -3.417089    1.4425464   370362 
 3847000   0.81078706   -3.4157708   -1.9739478  0.036216275   -3.4157708     1.441823   370348 
 3848000   0.81012985   -3.4165409   -1.9757271  0.034729113   -3.4165409    1.4408137   370307 
 3849000   0.80956521   -3.4167644    -1.976741  0.034528911   -3.4167644    1.4400234   370252 
 3850000   0.81091881   -3.4179911   -1.9755366  0.035799434   -3.4179911    1.4424545   370246 
 3851000   0.80874873   -3.4156781   -1.9768272  0.033227939   -3.4156781    1.4388509   370180 
 3852000   0.81061123   -3.4186258    -1.976251  0.034666475   -3.4186258    1.4423749   370126 
 3853000   0.80995778    -3.416933   -1.9755963  0.036113869    -3.416933    1.4413368   370094 
 3854000   0.81028459   -3.4185247   -1.9762205  0.037597905   -3.4185247    1.4423042   369995 
 3855000   0.81039404    -3.419758   -1.9773448   0.03359972    -3.419758    1.4424132   370017 
 3856000   0.80895437   -3.4195651   -1.9794341  0.031100376   -3.4195651     1.440131   369945 
 3857000   0.80739709   -3.4155594   -1.9782435  0.030434465   -3.4155594    1.4373159   369956 
 3858000   0.80889323   -3.4188796   -1.9787368  0.034696651   -3.4188796    1.4401428   369914 
 3859000   0.80912037   -3.4189573   -1.9781842  0.033959289   -3.4189573    1.4407731   369856 
 3860000   0.80879282    -3.417992   -1.9774867  0.033168098    -3.417992    1.4405053   369775 
 3861000   0.80749716   -3.4159198   -1.9776248  0.035070294   -3.4159198    1.4382949   369750 
 3862000   0.80812652   -3.4173781   -1.9779077  0.029776235   -3.4173781    1.4394704   369736 
 3863000   0.80922927   -3.4178822   -1.9763812  0.035990889   -3.4178822     1.441501   369719 
 3864000   0.80927244     -3.41857   -1.9767308  0.033820149     -3.41857    1.4418392   369652 
 3865000   0.80875721   -3.4178565   -1.9768105  0.037454303   -3.4178565     1.441046   369620 
 3866000   0.80849125   -3.4174216   -1.9767131  0.036873744   -3.4174216    1.4407085   369585 
 3867000   0.80804179    -3.418498   -1.9785086  0.031201361    -3.418498    1.4399894   369564 
 3868000   0.80741523   -3.4196198    -1.980564  0.033502514   -3.4196198    1.4390558   369517 
 3869000   0.80923832   -3.4217699   -1.9792618  0.032753751   -3.4217699    1.4425081   369465 
 3870000   0.80909644   -3.4223104   -1.9798834   0.03682422   -3.4223104     1.442427   369421 
 3871000   0.80816436   -3.4208629   -1.9799416  0.037334633   -3.4208629    1.4409213   369381 
 3872000   0.80736838   -3.4186489   -1.9789518  0.036266366   -3.4186489     1.439697   369331 
 3873000   0.80884297    -3.421968   -1.9793524  0.036921936    -3.421968    1.4426156   369257 
 3874000   0.80733609   -3.4187325   -1.9786992  0.030411969   -3.4187325    1.4400332   369230 
 3875000   0.80727792   -3.4183322   -1.9784651  0.034173699   -3.4183322    1.4398671   369246 
 3876000   0.80667531   -3.4186939   -1.9797263  0.037008313   -3.4186939    1.4389676   369201 
 3877000   0.80621047   -3.4184763   -1.9802015  0.038802964   -3.4184763    1.4382748   369166 
 3878000   0.80627578   -3.4193263   -1.9807168  0.030093413   -3.4193263    1.4386095   369110 
 3879000   0.80701894   -3.4217189   -1.9816039  0.028897263   -3.4217189     1.440115   369064 
 3880000   0.80644015   -3.4195836   -1.9801856  0.033218776   -3.4195836    1.4393981   368983 
 3881000   0.80709805   -3.4176897   -1.9769729  0.036447164   -3.4176897    1.4407168   368946 
 3882000   0.80668293   -3.4191622   -1.9790068  0.034583996   -3.4191622    1.4401554   368900 
 3883000   0.80572855   -3.4182793   -1.9799175  0.032514654   -3.4182793    1.4383618   368923 
 3884000    0.8068688   -3.4192739    -1.978814  0.034662474   -3.4192739    1.4404599   368907 
 3885000   0.80754359   -3.4196485   -1.9777573  0.033620056   -3.4196485    1.4418912   368849 
 3886000   0.80619269   -3.4196339   -1.9800142  0.033103798   -3.4196339    1.4396197   368813 
 3887000   0.80693668   -3.4208745   -1.9797114  0.031751174   -3.4208745    1.4411631   368758 
 3888000   0.80722636   -3.4205149   -1.9787211  0.028891603   -3.4205149    1.4417939   368729 
 3889000   0.80718536   -3.4211279   -1.9791022  0.039790341   -3.4211279    1.4420257   368651 
 3890000   0.80697164   -3.4215389   -1.9796956  0.033814237   -3.4215389    1.4418433   368600 
 3891000   0.80670289   -3.4205581   -1.9790033  0.038007661   -3.4205581    1.4415548   368551 
 3892000   0.80551621   -3.4200125   -1.9804455  0.038567649   -3.4200125     1.439567   368517 
 3893000   0.80583882   -3.4196719   -1.9793877  0.034597797   -3.4196719    1.4402843   368481 
 3894000   0.80717552   -3.4218197   -1.9788722  0.034983529   -3.4218197    1.4429475   368411 
 3895000   0.80589878   -3.4203445   -1.9795033  0.036537908   -3.4203445    1.4408411   368366 
 3896000   0.80523878   -3.4203409   -1.9804531  0.033002144   -3.4203409    1.4398878   368308 
 3897000   0.80612937   -3.4217076   -1.9800394  0.032857529   -3.4217076    1.4416682   368260 
 3898000   0.80583381   -3.4223746    -1.981094  0.031657764   -3.4223746    1.4412806   368224 
 3899000   0.80508653    -3.420896   -1.9806548  0.035415312    -3.420896    1.4402412   368148 
 3900000   0.80490771   -3.4219046   -1.9817368  0.031648914   -3.4219046    1.4401678   368085 
 3901000   0.80539398   -3.4237502   -1.9826889  0.032181205   -3.4237502    1.4410613   368079 
 3902000   0.80302014   -3.4207826   -1.9837852  0.033179291   -3.4207826    1.4369974   368032 
 3903000   0.80444169   -3.4220481   -1.9823699  0.033422963   -3.4220481    1.4396782   367997 
 3904000   0.80411829   -3.4229013   -1.9834381  0.030701466   -3.4229013    1.4394632   367904 
 3905000   0.80405511   -3.4228898   -1.9833871  0.033130431   -3.4228898    1.4395027   367865 
 3906000   0.80217712   -3.4188326   -1.9826218  0.032730842   -3.4188326    1.4362108   367847 
 3907000   0.80288936   -3.4192834   -1.9816372  0.031858018   -3.4192834    1.4376462   367806 
 3908000   0.80422019   -3.4219866   -1.9817381  0.032938842   -3.4219866    1.4402485   367750 
 3909000   0.80512534   -3.4232125   -1.9812019  0.038873359   -3.4232125    1.4420106   367714 
 3910000   0.80310886   -3.4196348   -1.9811497  0.037337503   -3.4196348    1.4384851   367692 
 3911000   0.80353177    -3.419593   -1.9800802  0.038675443    -3.419593    1.4395127   367623 
 3912000   0.80362129    -3.419912   -1.9801488  0.036283311    -3.419912    1.4397632   367600 
 3913000   0.80371932   -3.4222376   -1.9822204  0.033398934   -3.4222376    1.4400172   367580 
 3914000   0.80273734   -3.4194345   -1.9810672  0.031270142   -3.4194345    1.4383673   367552 
 3915000   0.80184176   -3.4206911   -1.9837018  0.035373201   -3.4206911    1.4369893   367494 
 3916000   0.80109038   -3.4198375   -1.9839837   0.03641405   -3.4198375    1.4358538   367440 
 3917000   0.80309601   -3.4247802   -1.9850965  0.030189648   -3.4247802    1.4396837   367380 
 3918000   0.80301789   -3.4238609   -1.9842349  0.033253146   -3.4238609     1.439626   367359 
 3919000   0.80239396   -3.4228905   -1.9843087   0.03714598   -3.4228905    1.4385818   367340 
 3920000   0.80322469   -3.4233214   -1.9830777  0.029825194   -3.4233214    1.4402437   367296 
 3921000   0.80175212    -3.420373   -1.9826484  0.030620287    -3.420373    1.4377246   367265 
 3922000     0.802422   -3.4208106   -1.9816574  0.036001965   -3.4208106    1.4391531   367207 
 3923000   0.80270292   -3.4230955   -1.9832072  0.034514593   -3.4230955    1.4398883   367148 
 3924000   0.80286554   -3.4246818   -1.9842743  0.033607486   -3.4246818    1.4404076   367090 
 3925000   0.80245187   -3.4241648   -1.9842719  0.032774685   -3.4241648    1.4398929   367032 
 3926000    0.8026809     -3.42343   -1.9830673  0.036275577     -3.42343    1.4403627   367017 
 3927000   0.80350113   -3.4239773   -1.9820603  0.030899498   -3.4239773    1.4419171   366996 
 3928000    0.8020532   -3.4213272   -1.9820164  0.031554856   -3.4213272    1.4393109   366998 
 3929000    0.8008603   -3.4198367   -1.9823689   0.03126295   -3.4198367    1.4374679   366922 
 3930000   0.80128066   -3.4216367   -1.9832183  0.030585012   -3.4216367    1.4384184   366872 
 3931000   0.80169646   -3.4224142   -1.9830296  0.034229945   -3.4224142    1.4393845   366816 
 3932000    0.8004591    -3.421737   -1.9844644  0.033766063    -3.421737    1.4372726   366788 
 3933000   0.80294248   -3.4245783   -1.9825045  0.037526337   -3.4245783    1.4420738   366701 
 3934000   0.80154669   -3.4236484   -1.9839126  0.039151494   -3.4236484    1.4397358   366658 
 3935000   0.80288152   -3.4255178   -1.9833922   0.03402714   -3.4255178    1.4421255   366660 
 3936000   0.80063562   -3.4230987   -1.9847523  0.037477755   -3.4230987    1.4383464   366595 
 3937000    0.8007567   -3.4245231   -1.9857158   0.03019672   -3.4245231    1.4388073   366533 
 3938000   0.79952984   -3.4235412   -1.9867541  0.036290059   -3.4235412    1.4367871   366486 
 3939000   0.79957883   -3.4228811      -1.9859  0.033545867   -3.4228811     1.436981   366459 
 3940000   0.79977942   -3.4226048   -1.9850789  0.033104954   -3.4226048    1.4375259   366412 
 3941000   0.79927984    -3.421441   -1.9846288  0.034811093    -3.421441    1.4368122   366365 
 3942000   0.79980643   -3.4224441   -1.9846146  0.038207121   -3.4224441    1.4378295   366347 
 3943000   0.80145282     -3.42389   -1.9829395  0.035047082     -3.42389    1.4409505   366306 
 3944000   0.80105515   -3.4250466   -1.9843864  0.036910706   -3.4250466    1.4406603   366198 
 3945000   0.80112088   -3.4246103   -1.9836469  0.032765254   -3.4246103    1.4409634   366151 
 3946000   0.80013484   -3.4220915   -1.9829056  0.030863022   -3.4220915    1.4391859   366152 
 3947000   0.79919634   -3.4194902   -1.9817646  0.036602393   -3.4194902    1.4377256   366094 
 3948000   0.79841861   -3.4179516   -1.9815976  0.028141943   -3.4179516     1.436354   366087 
 3949000   0.79958694      -3.4197   -1.9810281  0.035929085      -3.4197    1.4386719   366032 
 3950000   0.79813196   -3.4170898   -1.9808357  0.026958531   -3.4170898    1.4362541   365981 
 3951000   0.79811993   -3.4166598   -1.9802585  0.033160712   -3.4166598    1.4364013   365938 
 3952000   0.79976512   -3.4191264   -1.9797603  0.031043897   -3.4191264    1.4393661   365937 
 3953000   0.79889723   -3.4191493   -1.9810701  0.032799664   -3.4191493    1.4380792   365867 
 3954000   0.79892754   -3.4182701   -1.9801166  0.026328741   -3.4182701    1.4381534   365862 
 3955000   0.79756775   -3.4146485   -1.9788683  0.030330516   -3.4146485    1.4357802   365843 
 3956000    0.7974121   -3.4177162   -1.9820042  0.028148345   -3.4177162    1.4357119   365789 
 3957000   0.79791302   -3.4169245   -1.9801182  0.034927107   -3.4169245    1.4368063   365740 
 3958000   0.79836647   -3.4169481    -1.979168  0.034486157   -3.4169481    1.4377801   365700 
 3959000    0.7977302   -3.4167675   -1.9799682  0.035296032   -3.4167675    1.4367992   365658 
 3960000    0.7974249   -3.4158876   -1.9793947  0.032879186   -3.4158876    1.4364929   365596 
 3961000   0.79860376   -3.4190803   -1.9803221  0.034275698   -3.4190803    1.4387582   365560 
 3962000   0.79760325   -3.4177555   -1.9805324  0.032695424   -3.4177555    1.4372231   365492 
 3963000   0.79747797   -3.4178355   -1.9807557  0.032090656   -3.4178355    1.4370799   365471 
 3964000    0.7976365   -3.4166557   -1.9791957  0.032943157   -3.4166557    1.4374599   365447 
 3965000   0.79811066   -3.4178663   -1.9795637  0.033481094   -3.4178663    1.4383026   365450 
 3966000   0.79689372   -3.4162668   -1.9800748  0.034128474   -3.4162668    1.4361921   365429 
 3967000   0.79802586    -3.418257   -1.9798553   0.02970752    -3.418257    1.4384017   365386 
 3968000   0.79656133   -3.4155321   -1.9797505  0.031547829   -3.4155321    1.4357816   365381 
 3969000   0.79663606   -3.4164399   -1.9802091  0.030613238   -3.4164399    1.4362308   365301 
 3970000   0.79833424    -3.419508   -1.9800501  0.032060496    -3.419508    1.4394579   365259 
 3971000   0.79703182   -3.4187959   -1.9815132   0.03489485   -3.4187959    1.4372827   365215 
 3972000   0.79804187   -3.4190223   -1.9798079  0.034248785   -3.4190223    1.4392144   365187 
 3973000   0.79951734   -3.4210943   -1.9791479  0.035046733   -3.4210943    1.4419464   365169 
 3974000   0.79766963   -3.4193744   -1.9806186  0.029964285   -3.4193744    1.4387559   365133 
 3975000   0.79670102    -3.419066   -1.9817699  0.034634239    -3.419066    1.4372961   365060 
 3976000   0.79770107   -3.4213342   -1.9820447  0.036916208   -3.4213342    1.4392895   365012 
 3977000   0.79778456   -3.4223471   -1.9828793  0.033973059   -3.4223471    1.4394678   365005 
 3978000   0.79629896   -3.4228157   -1.9860205  0.031595844   -3.4228157    1.4367951   365003 
 3979000   0.79647288   -3.4217434   -1.9843431  0.033070494   -3.4217434    1.4374004   364929 
 3980000   0.79582636    -3.422086   -1.9857501  0.033392244    -3.422086    1.4363359   364903 
 3981000   0.79677953      -3.4255   -1.9872546  0.038983192      -3.4255    1.4382454   364855 
 3982000   0.79893367   -3.4301225   -1.9878068  0.033334211   -3.4301225    1.4423156   364809 
 3983000   0.79745504    -3.427861     -1.98797  0.039187877    -3.427861     1.439891   364747 
 3984000   0.79690242   -3.4265141   -1.9874158  0.032381163   -3.4265141    1.4390983   364695 
 3985000   0.79640022   -3.4245085   -1.9863762  0.040453947   -3.4245085    1.4381323   364710 
 3986000   0.79929163   -3.4279341   -1.9844539  0.036565504   -3.4279341    1.4434802   364678 
 3987000   0.79966109   -3.4284901   -1.9841605  0.033168419   -3.4284901    1.4443296   364632 
 3988000    0.7979998   -3.4269606   -1.9856632  0.038978143   -3.4269606    1.4412974   364640 
 3989000    0.7986632   -3.4290576   -1.9861307  0.036403288   -3.4290576    1.4429269   364531 
 3990000   0.79728324   -3.4273626   -1.9867984  0.042635324   -3.4273626    1.4405642   364498 
 3991000   0.79756144   -3.4288657   -1.9878858  0.037023704   -3.4288657    1.4409799   364520 
 3992000   0.79651842   -3.4270667   -1.9877936  0.034197538   -3.4270667    1.4392731   364475 
 3993000   0.79697506    -3.428736   -1.9885113  0.034128228    -3.428736    1.4402247   364443 
 3994000   0.79646868   -3.4284605    -1.989068  0.035402208   -3.4284605    1.4393925   364422 
 3995000   0.79639512   -3.4271815     -1.98776  0.033329217   -3.4271815    1.4394215   364381 
 3996000   0.79907226   -3.4307714     -1.98642  0.032440954   -3.4307714    1.4443514   364358 
 3997000   0.79594283   -3.4251789   -1.9864208  0.034679001   -3.4251789    1.4387581   364342 
 3998000   0.79623078   -3.4272086   -1.9880011  0.031513406   -3.4272086    1.4392075   364360 
 3999000   0.79460812   -3.4232441   -1.9868159  0.034516771   -3.4232441    1.4364282   364321 
 4000000   0.79404601   -3.4232489    -1.987758  0.033069301   -3.4232489    1.4354909   364301 
 4001000   0.79509727   -3.4239645    -1.986435  0.034558663   -3.4239645    1.4375295   364266 
 4002000   0.79451499    -3.423552   -1.9868071  0.030104185    -3.423552    1.4367449   364198 
 4003000   0.79550549    -3.423897    -1.985033  0.037427866    -3.423897     1.438864   364115 
 4004000   0.79717369   -3.4258453   -1.9839045  0.035020572   -3.4258453    1.4419407   364100 
 4005000   0.79562982   -3.4240534   -1.9848736  0.040566196   -3.4240534    1.4391798   364092 
 4006000   0.79571664   -3.4234282   -1.9839055   0.03524561   -3.4234282    1.4395226   364045 
 4007000   0.79469734   -3.4224642   -1.9846474  0.034193243   -3.4224642    1.4378169   364010 
 4008000   0.79395776   -3.4216556   -1.9848927  0.035254441   -3.4216556     1.436763   363938 
 4009000   0.79454404   -3.4216616   -1.9838456   0.03682641   -3.4216616     1.437816   363940 
 4010000   0.79396192   -3.4229578   -1.9859149  0.030581419   -3.4229578     1.437043   363869 
 4011000   0.79325015    -3.421676   -1.9856293  0.032666947    -3.421676    1.4360467   363795 
 4012000   0.79340707   -3.4211337   -1.9846568  0.031396549   -3.4211337    1.4364769   363758 
 4013000   0.79321454   -3.4211384    -1.984868   0.03791381   -3.4211384    1.4362705   363722 
 4014000   0.79493535   -3.4224065   -1.9828421  0.033516262   -3.4224065    1.4395644   363677 
 4015000   0.79578745   -3.4219372   -1.9806553  0.033973293   -3.4219372    1.4412819   363633 
 4016000   0.79369607   -3.4198354   -1.9821278  0.041792732   -3.4198354    1.4377076   363579 
 4017000   0.79347884   -3.4208727   -1.9836021  0.039306248   -3.4208727    1.4372706   363590 
 4018000   0.79442256   -3.4227964   -1.9836066  0.037782913   -3.4227964    1.4391898   363537 
 4019000   0.79437978   -3.4220775   -1.9828741  0.035298394   -3.4220775    1.4392034   363514 
 4020000   0.79417772   -3.4200376   -1.9812201  0.037086125   -3.4200376    1.4388175   363519 
 4021000   0.79269073   -3.4210472   -1.9847617   0.03509301   -3.4210472    1.4362855   363478 
 4022000   0.79436797   -3.4228432   -1.9832533  0.035064657   -3.4228432    1.4395899   363411 
 4023000   0.79307785   -3.4209271   -1.9835408  0.037337661   -3.4209271    1.4373864   363377 
 4024000   0.79216266   -3.4181649   -1.9822792  0.033364158   -3.4181649    1.4358857   363337 
 4025000   0.79253074   -3.4165738   -1.9799774  0.042008626   -3.4165738    1.4365964   363326 
 4026000   0.79311678   -3.4201205   -1.9823589  0.034264651   -3.4201205    1.4377616   363300 
 4027000   0.79208228   -3.4173424   -1.9812862  0.031539195   -3.4173424    1.4360562   363257 
 4028000    0.7924062   -3.4179435   -1.9810864  0.029685077   -3.4179435    1.4368571   363203 
 4029000    0.7926366    -3.419681   -1.9820579   0.03541867    -3.419681    1.4376232   363115 
 4030000   0.79209411   -3.4183206   -1.9813925  0.035979411   -3.4183206    1.4369281   363042 
 4031000   0.79308566   -3.4183939   -1.9795521  0.033737498   -3.4183939    1.4388418   363013 
 4032000   0.78994586   -3.4127672   -1.9795507  0.040164401   -3.4127672    1.4332166   362995 
 4033000   0.79094375   -3.4150377   -1.9798683  0.032374726   -3.4150377    1.4351694   362959 
 4034000   0.79253717   -3.4171625    -1.978872  0.034648221   -3.4171625    1.4382905   362901 
 4035000   0.79147464   -3.4158234   -1.9792514  0.031552594   -3.4158234     1.436572   362848 
 4036000   0.79075333   -3.4155134   -1.9802071  0.032883353   -3.4155134    1.4353063   362837 
 4037000   0.79066677   -3.4144408   -1.9791413  0.036653903   -3.4144408    1.4352995   362799 
 4038000   0.79127165   -3.4166968   -1.9802003  0.030612419   -3.4166968    1.4364965   362774 
 4039000    0.7918916    -3.418147   -1.9802674  0.032506886    -3.418147    1.4378797   362709 
 4040000   0.79147531   -3.4173784   -1.9800209  0.032001299   -3.4173784    1.4373576   362650 
 4041000   0.79192463   -3.4175352   -1.9794172  0.033239804   -3.4175352     1.438118   362664 
 4042000   0.79195386   -3.4151296   -1.9766808  0.036378791   -3.4151296    1.4384488   362594 
 4043000   0.79302612   -3.4193189   -1.9789424  0.033923563   -3.4193189    1.4403765   362599 
 4044000   0.79150024   -3.4173831   -1.9794688  0.032803504   -3.4173831    1.4379143   362521 
 4045000   0.79181996   -3.4183787   -1.9798319  0.035919269   -3.4183787    1.4385468   362508 
 4046000   0.79164193   -3.4197089   -1.9810213  0.034017165   -3.4197089    1.4386877   362391 
 4047000   0.79143226   -3.4180766   -1.9795358  0.031193197   -3.4180766    1.4385408   362332 
 4048000   0.79058134   -3.4174907   -1.9803736  0.030645066   -3.4174907    1.4371171   362301 
 4049000   0.79072817   -3.4175894   -1.9797768  0.031172837   -3.4175894    1.4378126   362193 
 4050000   0.78992075   -3.4178533   -1.9813065  0.036793524   -3.4178533    1.4365467   362142 
 4051000   0.79059154   -3.4201036   -1.9820948  0.034114388   -3.4201036    1.4380089   362081 
 4052000   0.79229572   -3.4209616   -1.9799286   0.03270449   -3.4209616     1.441033   362100 
 4053000    0.7915793   -3.4172017   -1.9773127  0.038646379   -3.4172017     1.439889   362060 
 4054000   0.79055925   -3.4163477   -1.9782267  0.036369744   -3.4163477    1.4381209   362038 
 4055000    0.7902269   -3.4191457   -1.9814904  0.032897118   -3.4191457    1.4376553   362003 
 4056000   0.78830934   -3.4153815   -1.9810088  0.035274801   -3.4153815    1.4343727   361951 
 4057000    0.7889921   -3.4167262   -1.9808016  0.036140608   -3.4167262    1.4359245   361873 
 4058000   0.79006263    -3.419636   -1.9818387   0.03401854    -3.419636    1.4377973   361892 
 4059000   0.78942226   -3.4187981   -1.9820748  0.033112247   -3.4187981    1.4367233   361869 
 4060000   0.79055144   -3.4213739   -1.9825836  0.032939647   -3.4213739    1.4387902   361866 
 4061000   0.79101363    -3.420774   -1.9810033  0.034646304    -3.420774    1.4397707   361831 
 4062000   0.79110284    -3.422483   -1.9824704  0.030853858    -3.422483    1.4400127   361811 
 4063000   0.79063411   -3.4220455   -1.9828144  0.033821337   -3.4220455     1.439231   361793 
 4064000   0.78986909   -3.4222964   -1.9840565  0.029495584   -3.4222964      1.43824   361692 
 4065000   0.78958344   -3.4216694   -1.9838144  0.037168424   -3.4216694     1.437855   361658 
 4066000   0.78911895   -3.4221373   -1.9851083  0.032442103   -3.4221373     1.437029   361653 
 4067000   0.78789359   -3.4203033   -1.9852677  0.030127964   -3.4203033    1.4350356   361593 
 4068000   0.78866903   -3.4192107   -1.9826912  0.037167343   -3.4192107    1.4365195   361575 
 4069000   0.78995826   -3.4217472   -1.9827004  0.033225465   -3.4217472    1.4390469   361530 
 4070000   0.78883775   -3.4209019   -1.9836776  0.035080628   -3.4209019    1.4372243   361475 
 4071000   0.78914244     -3.42354   -1.9855338  0.035957284     -3.42354    1.4380062   361418 
 4072000   0.78931478   -3.4238206   -1.9851381  0.036721998   -3.4238206    1.4386825   361327 
 4073000   0.78923966   -3.4250306   -1.9862939   0.03631036   -3.4250306    1.4387367   361279 
 4074000   0.78739241   -3.4222158   -1.9866001  0.035108805   -3.4222158    1.4356156   361217 
 4075000   0.78747528   -3.4220491   -1.9862029  0.029674945   -3.4220491    1.4358462   361197 
 4076000   0.78795531   -3.4225851   -1.9858119  0.031342757   -3.4225851    1.4367732   361184 
 4077000   0.78821154   -3.4222668   -1.9847438  0.033686079   -3.4222668     1.437523   361113 
 4078000   0.78925413     -3.42436   -1.9849635  0.039233694     -3.42436    1.4393965   361120 
 4079000   0.78912273   -3.4234685   -1.9841283  0.038214685   -3.4234685    1.4393402   361074 
 4080000   0.78796797   -3.4223859   -1.9849768  0.034825049   -3.4223859    1.4374091   361030 
 4081000   0.78810627   -3.4227428   -1.9847667   0.03608431   -3.4227428    1.4379761   360951 
 4082000   0.78830267   -3.4248214   -1.9862279  0.036857095   -3.4248214    1.4385935   360886 
 4083000    0.7875464   -3.4247364   -1.9873837  0.031170322   -3.4247364    1.4373528   360851 
 4084000   0.78582746   -3.4229143   -1.9885915  0.034058022   -3.4229143    1.4343228   360824 
 4085000   0.78559993   -3.4238842   -1.9897143   0.03289595   -3.4238842    1.4341699   360758 
 4086000   0.78849436   -3.4273989   -1.9876377  0.029906666   -3.4273989    1.4397612   360681 
 4087000   0.78635078   -3.4252762   -1.9892141  0.033672141   -3.4252762    1.4360621   360627 
 4088000   0.78810117   -3.4266541   -1.9872916  0.030616253   -3.4266541    1.4393625   360601 
 4089000   0.78718182   -3.4244081   -1.9864974  0.038901931   -3.4244081    1.4379107   360544 
 4090000   0.78747109    -3.423674   -1.9849995  0.036127245    -3.423674    1.4386745   360485 
 4091000   0.78798642   -3.4243354   -1.9845277  0.041550572   -3.4243354    1.4398077   360437 
 4092000   0.78767115   -3.4239347   -1.9846591  0.038500513   -3.4239347    1.4392756   360426 
 4093000   0.78889554   -3.4271535   -1.9856406  0.033074176   -3.4271535    1.4415129   360426 
 4094000   0.78810219   -3.4239487   -1.9836578  0.036873212   -3.4239487     1.440291   360369 
 4095000   0.78590154   -3.4209573    -1.984708  0.032261736   -3.4209573    1.4362493   360374 
 4096000    0.7845145   -3.4205428   -1.9865897  0.032895256   -3.4205428    1.4339532   360314 
 4097000   0.78366727   -3.4196169   -1.9869817  0.030065551   -3.4196169    1.4326352   360256 
 4098000   0.78398894   -3.4211445    -1.987766  0.025220613   -3.4211445    1.4333784   360217 
 4099000   0.78398636   -3.4197303   -1.9864322  0.034347081   -3.4197303    1.4332981   360236 
 4100000   0.78439148   -3.4204246   -1.9862187  0.032515563   -3.4204246     1.434206   360194 
 4101000   0.78612508   -3.4223367   -1.9850128  0.032607786   -3.4223367    1.4373239   360207 
 4102000     0.788376   -3.4241278   -1.9825964  0.035359538   -3.4241278    1.4415314   360184 
 4103000   0.78679134   -3.4233369   -1.9845232  0.034021615   -3.4233369    1.4388136   360139 
 4104000   0.78701204   -3.4221822   -1.9830289  0.038049756   -3.4221822    1.4391533   360155 
 4105000   0.78680395    -3.422692   -1.9837514  0.035776217    -3.422692    1.4389406   360113 
 4106000   0.78735221   -3.4221285   -1.9819973  0.032097957   -3.4221285    1.4401312   360066 
 4107000   0.78576158    -3.421036   -1.9835307  0.038382942    -3.421036    1.4375053   359995 
 4108000   0.78499299   -3.4203677    -1.984061  0.034245581   -3.4203677    1.4363067   359943 
 4109000   0.78563791   -3.4237529   -1.9861504  0.033718285   -3.4237529    1.4376025   359914 
 4110000    0.7850792   -3.4225711   -1.9857913  0.032671991   -3.4225711    1.4367797   359864 
 4111000   0.78417254   -3.4208649    -1.985521  0.036095394   -3.4208649    1.4353438   359808 
 4112000   0.78405371   -3.4207698   -1.9854001  0.031400332   -3.4207698    1.4353697   359747 
 4113000   0.78378538   -3.4203975   -1.9854553  0.032353171   -3.4203975    1.4349423   359731 
 4114000   0.78414086   -3.4222429   -1.9865022  0.030421584   -3.4222429    1.4357407   359694 
 4115000   0.78444058   -3.4211576   -1.9845605  0.034295956   -3.4211576     1.436597   359617 
 4116000    0.7844692   -3.4218366   -1.9849953  0.033304939   -3.4218366    1.4368412   359569 
 4117000   0.78344767   -3.4217477   -1.9865381  0.034312615   -3.4217477    1.4352097   359509 
 4118000   0.78349013   -3.4223434   -1.9869601  0.032117064   -3.4223434    1.4353833   359485 
 4119000   0.78364093   -3.4230358   -1.9873123   0.03330972   -3.4230358    1.4357235   359469 
 4120000   0.78411671   -3.4245114   -1.9877924   0.03156956   -3.4245114    1.4367191   359438 
 4121000   0.78243449   -3.4210921   -1.9871202  0.034711206   -3.4210921    1.4339719   359354 
 4122000   0.78483911   -3.4236916   -1.9851566  0.033586988   -3.4236916     1.438535   359315 
 4123000   0.78372128   -3.4221621   -1.9853961  0.038098866   -3.4221621     1.436766   359245 
 4124000   0.78478484   -3.4225819   -1.9838261   0.03695481   -3.4225819    1.4387558   359235 
 4125000   0.78386258   -3.4219785   -1.9846694  0.034656056   -3.4219785    1.4373091   359174 
 4126000   0.78418269   -3.4237116   -1.9855873  0.033449513   -3.4237116    1.4381243   359117 
 4127000   0.78382675   -3.4231295    -1.985566   0.03589119   -3.4231295    1.4375636   359094 
 4128000   0.78455242   -3.4235436   -1.9843886  0.038712278   -3.4235436     1.439155   359029 
 4129000   0.78404435   -3.4224898   -1.9843309   0.03416588   -3.4224898    1.4381589   359045 
 4130000   0.78321082   -3.4220121     -1.98511  0.039116772   -3.4220121    1.4369021   358977 
 4131000   0.78351175   -3.4236297   -1.9861274  0.035992661   -3.4236297    1.4375023   358965 
 4132000   0.78403941   -3.4219059   -1.9832191  0.035370532   -3.4219059    1.4386868   358911 
 4133000   0.78316961   -3.4207697   -1.9835588   0.03342542   -3.4207697    1.4372109   358881 
 4134000    0.7825044   -3.4205986   -1.9844044  0.031314838   -3.4205986    1.4361942   358830 
 4135000   0.78119355   -3.4206215   -1.9865694   0.03311413   -3.4206215    1.4340521   358764 
 4136000   0.78065973   -3.4203377   -1.9871138  0.031181244   -3.4203377    1.4332239   358726 
 4137000   0.78184764    -3.422172   -1.9867232  0.030290129    -3.422172    1.4354489   358715 
 4138000   0.78121779   -3.4206159   -1.9860995  0.032621324   -3.4206159    1.4345164   358659 
 4139000    0.7815269   -3.4210278   -1.9857196  0.033325344   -3.4210278    1.4353081   358603 
 4140000   0.78207908   -3.4228533   -1.9863908  0.030090694   -3.4228533    1.4364624   358568 
 4141000   0.78205787   -3.4214587   -1.9849511  0.037602257   -3.4214587    1.4365076   358547 
 4142000   0.78236676   -3.4204645   -1.9834296  0.039923993   -3.4204645    1.4370349   358557 
 4143000   0.78285194   -3.4219341   -1.9836189  0.039841979   -3.4219341    1.4383152   358460 
 4144000   0.78241136   -3.4207179   -1.9831761  0.035560654   -3.4207179    1.4375418   358451 
 4145000    0.7839333   -3.4245485   -1.9840858  0.034491185   -3.4245485    1.4404627   358420 
 4146000   0.78408057   -3.4217572   -1.9808229  0.031697848   -3.4217572    1.4409343   358370 
 4147000   0.78423386   -3.4235424   -1.9825154  0.038072976   -3.4235424     1.441027   358417 
 4148000   0.78261611   -3.4212637   -1.9830929  0.033741764   -3.4212637    1.4381708   358388 
 4149000   0.78233064   -3.4221183   -1.9843357  0.038096559   -3.4221183    1.4377826   358354 
 4150000   0.78261632   -3.4225469   -1.9840626   0.03587139   -3.4225469    1.4384842   358310 
 4151000    0.7815601   -3.4214931   -1.9847979   0.03129251   -3.4214931    1.4366952   358272 
 4152000   0.78053576   -3.4209809   -1.9859444  0.033647515   -3.4209809    1.4350365   358216 
 4153000   0.77996732   -3.4205696   -1.9864821  0.036716743   -3.4205696    1.4340875   358192 
 4154000   0.78095554   -3.4222321   -1.9862033  0.034072541   -3.4222321    1.4360288   358161 
 4155000   0.78093178   -3.4219071   -1.9859421  0.031053367   -3.4219071    1.4359651   358166 
 4156000   0.78106557   -3.4228944   -1.9863103   0.03127085   -3.4228944    1.4365841   358073 
 4157000    0.7815363   -3.4226993   -1.9849804  0.039202164   -3.4226993    1.4377189   358006 
 4158000   0.77963668   -3.4197434   -1.9852987  0.037806745   -3.4197434    1.4344447   357951 
 4159000    0.7825052   -3.4251932   -1.9851489  0.032078475   -3.4251932    1.4400443   357871 
 4160000   0.78156168   -3.4233523   -1.9848674  0.035872371   -3.4233523    1.4384848   357827 
 4161000   0.78227076   -3.4255719   -1.9856331  0.032331686   -3.4255719    1.4399388   357790 
 4162000   0.78128726   -3.4230067    -1.984625  0.033682941   -3.4230067    1.4383817   357727 
 4163000   0.78244678   -3.4243138   -1.9837329  0.033047079   -3.4243138    1.4405809   357711 
 4164000   0.78130244   -3.4221623   -1.9835476  0.038064733   -3.4221623    1.4386148   357676 
 4165000   0.78022882   -3.4211434   -1.9843006  0.037340553   -3.4211434    1.4368428   357625 
 4166000   0.78164398   -3.4242012   -1.9844987  0.032893704   -3.4242012    1.4397025   357562 
 4167000   0.77968106   -3.4239391   -1.9875508  0.035077568   -3.4239391    1.4363883   357487 
 4168000   0.78022405   -3.4255968   -1.9878824  0.034568677   -3.4255968    1.4377144   357406 
 4169000   0.78036384   -3.4252713   -1.9873114  0.032647852   -3.4252713    1.4379599   357409 
 4170000   0.77981478   -3.4247793   -1.9877466  0.032316673   -3.4247793    1.4370326   357388 
 4171000   0.77977669   -3.4255486   -1.9884334  0.033480109   -3.4255486    1.4371152   357350 
 4172000   0.77912475   -3.4250829    -1.988916  0.036169424   -3.4250829    1.4361669   357287 
 4173000   0.77884552   -3.4244646   -1.9887361  0.034628585   -3.4244646    1.4357286   357268 
 4174000   0.77877568   -3.4243864   -1.9886861  0.032489948   -3.4243864    1.4357003   357243 
 4175000   0.77754385   -3.4226425   -1.9890928   0.03319116   -3.4226425    1.4335497   357213 
 4176000   0.77855089      -3.4248   -1.9892449  0.028023612      -3.4248    1.4355551   357176 
 4177000   0.77797217   -3.4235908   -1.9889903  0.033346354   -3.4235908    1.4346005   357148 
 4178000   0.77829081   -3.4246546   -1.9892455  0.034019857   -3.4246546    1.4354091   357093 
 4179000   0.77919428   -3.4247053   -1.9877225  0.035179286   -3.4247053    1.4369828   357116 
 4180000    0.7786193    -3.422025   -1.9859297  0.032144653    -3.422025    1.4360954   357073 
 4181000   0.77824073   -3.4234804   -1.9877777  0.036288269   -3.4234804    1.4357027   356997 
 4182000   0.77843939   -3.4232396   -1.9870577  0.032650695   -3.4232396    1.4361819   356969 
 4183000   0.77884178   -3.4224544   -1.9854899   0.03644669   -3.4224544    1.4369645   356959 
 4184000    0.7784392   -3.4223147   -1.9859279  0.031580137   -3.4223147    1.4363867   356918 
 4185000   0.77875728   -3.4234835   -1.9862441  0.035343262   -3.4234835    1.4372394   356852 
 4186000   0.77708439   -3.4210138   -1.9865884  0.036296733   -3.4210138    1.4344253   356784 
 4187000   0.77847595   -3.4222503   -1.9850951  0.032076719   -3.4222503    1.4371551   356744 
 4188000   0.77811055   -3.4233194   -1.9866536  0.036714473   -3.4233194    1.4366658   356698 
 4189000   0.77837097   -3.4228843   -1.9855926  0.039628176   -3.4228843    1.4372917   356662 
 4190000   0.77793009   -3.4228276   -1.9861284  0.034281955   -3.4228276    1.4366992   356607 
 4191000   0.77725565   -3.4210815   -1.9854186  0.037283291   -3.4210815    1.4356629   356555 
 4192000   0.77757698   -3.4224403   -1.9860751  0.035564821   -3.4224403    1.4363652   356528 
 4193000   0.77831048   -3.4250933   -1.9872078  0.031261227   -3.4250933    1.4378855   356487 
 4194000   0.77761068   -3.4248215   -1.9880757  0.035994285   -3.4248215    1.4367458   356449 
 4195000   0.77695044   -3.4230063   -1.9872346  0.034335059   -3.4230063    1.4357717   356388 
 4196000   0.77781521   -3.4238662   -1.9863392  0.036326524   -3.4238662     1.437527   356349 
 4197000   0.77711209   -3.4234306   -1.9870378  0.035985891   -3.4234306    1.4363928   356308 
 4198000   0.77556218   -3.4177552   -1.9841548  0.038622869   -3.4177552    1.4336004   356290 
 4199000   0.77690077   -3.4221101   -1.9859184  0.035205386   -3.4221101    1.4361917   356261 
 4200000   0.77682117   -3.4204606   -1.9843072  0.032903451   -3.4204606    1.4361534   356234 
 4201000   0.77667307   -3.4210103   -1.9849453  0.036923559   -3.4210103     1.436065   356188 
 4202000   0.77668385   -3.4194262   -1.9833413  0.036663595   -3.4194262    1.4360849   356188 
 4203000   0.77659849   -3.4189628    -1.982943  0.037966212   -3.4189628    1.4360198   356165 
 4204000   0.77754609   -3.4178696   -1.9799078  0.035854244   -3.4178696    1.4379618   356118 
 4205000   0.77753151   -3.4181816   -1.9800004  0.035645232   -3.4181816    1.4381812   356057 
 4206000   0.77635074   -3.4166973   -1.9804379  0.028364868   -3.4166973    1.4362593   355992 
 4207000   0.77614367    -3.416569   -1.9806283  0.032877204    -3.416569    1.4359408   355976 
 4208000    0.7754471   -3.4141938     -1.97957  0.032842379   -3.4141938    1.4346239   355983 
 4209000   0.77597426   -3.4155435   -1.9799484  0.034995414   -3.4155435    1.4355951   355984 
 4210000   0.77628124   -3.4151852   -1.9790504  0.035638811   -3.4151852    1.4361348   355991 
 4211000   0.77702867   -3.4148871   -1.9770384  0.036186637   -3.4148871    1.4378488   355909 
 4212000    0.7766513   -3.4163383    -1.978691  0.035498188   -3.4163383    1.4376473   355786 
 4213000   0.77572822   -3.4155126   -1.9793722  0.035445014   -3.4155126    1.4361404   355736 
 4214000   0.77424636   -3.4137037   -1.9802705  0.037779462   -3.4137037    1.4334333   355727 
 4215000   0.77367572    -3.413522   -1.9807787  0.034836373    -3.413522    1.4327433   355636 
 4216000   0.77437163   -3.4152559   -1.9808891  0.033234717   -3.4152559    1.4343668   355553 
 4217000   0.77489671   -3.4170142   -1.9814124  0.036212719   -3.4170142    1.4356018   355488 
 4218000   0.77564919   -3.4198866   -1.9828826  0.027939529   -3.4198866     1.437004   355486 
 4219000   0.77481556   -3.4163873   -1.9806895  0.033546642   -3.4163873    1.4356978   355427 
 4220000   0.77420691    -3.415866    -1.981086  0.037486243    -3.415866      1.43478   355375 
 4221000   0.77439178   -3.4173399   -1.9820557  0.033428958   -3.4173399    1.4352841   355335 
 4222000   0.77445504   -3.4170203   -1.9812916  0.032814304   -3.4170203    1.4357286   355254 
 4223000   0.77369777   -3.4156103   -1.9811199  0.030255048   -3.4156103    1.4344903   355213 
 4224000   0.77459818   -3.4185198   -1.9820365  0.039424099   -3.4185198    1.4364833   355133 
 4225000   0.77355279   -3.4174172   -1.9825857  0.036270317   -3.4174172    1.4348315   355062 
 4226000    0.7735427   -3.4185644   -1.9834849  0.035623181   -3.4185644    1.4350795   354996 
 4227000   0.77380733   -3.4189022   -1.9831012  0.034681686   -3.4189022     1.435801   354939 
 4228000   0.77328061   -3.4203127   -1.9852302    0.0341835   -3.4203127    1.4350824   354875 
 4229000   0.77228084    -3.419119    -1.985791  0.036670511    -3.419119     1.433328   354850 
 4230000   0.77374309    -3.422908   -1.9865261  0.032800439    -3.422908    1.4363819   354766 
 4231000   0.77271907    -3.422715   -1.9880076  0.035164815    -3.422715    1.4347074   354710 
 4232000   0.77151617   -3.4214871    -1.988791  0.032680816   -3.4214871    1.4326961   354655 
 4233000    0.7730335   -3.4249173   -1.9892942  0.031376046   -3.4249173    1.4356231   354628 
 4234000   0.77149493   -3.4225723   -1.9897581  0.037262508   -3.4225723    1.4328142   354616 
 4235000   0.77334244   -3.4239146   -1.9876044  0.037311678   -3.4239146    1.4363102   354600 
 4236000   0.77432475   -3.4273975   -1.9888816  0.035131912   -3.4273975     1.438516   354506 
 4237000   0.77449044   -3.4265099   -1.9875359  0.032288071   -3.4265099    1.4389739   354469 
 4238000   0.77306833   -3.4242646    -1.987718  0.038131974   -3.4242646    1.4365465   354416 
 4239000   0.77331698   -3.4265504    -1.989481  0.035095164   -3.4265504    1.4370694   354401 
 4240000   0.77195106   -3.4241756   -1.9894826  0.034160763   -3.4241756     1.434693   354361 
 4241000    0.7742065   -3.4271993   -1.9879084  0.037398246   -3.4271993     1.439291   354261 
 4242000   0.77328035   -3.4256941   -1.9878449  0.036049191   -3.4256941    1.4378493   354192 
 4243000   0.77304585   -3.4242595   -1.9867326  0.034359248   -3.4242595    1.4375269   354164 
 4244000   0.77146003   -3.4229234   -1.9882644  0.036097376   -3.4229234     1.434659   354144 
 4245000   0.77358919   -3.4246169   -1.9859984  0.034599525   -3.4246169    1.4386185   354144 
 4246000     0.773172   -3.4260062   -1.9879199  0.036216952   -3.4260062    1.4380863   354084 
 4247000   0.77078875   -3.4215768   -1.9877937  0.035015768   -3.4215768    1.4337831   354052 
 4248000   0.77193315   -3.4229948   -1.9869613  0.038154832   -3.4229948    1.4360335   354022 
 4249000   0.77081437   -3.4231034   -1.9889972  0.033805798   -3.4231034    1.4341062   353984 
 4250000    0.7698539   -3.4213233   -1.9887896  0.034249219   -3.4213233    1.4325337   353931 
 4251000     0.768643   -3.4184332   -1.9880113  0.033836267   -3.4184332    1.4304219   353896 
 4252000   0.77037058   -3.4227731   -1.9888931  0.028958926   -3.4227731      1.43388   353836 
 4253000   0.76892779    -3.418112   -1.9867394  0.032946542    -3.418112    1.4313725   353792 
 4254000   0.76910907   -3.4198881   -1.9878584  0.029929558   -3.4198881    1.4320298   353713 
 4255000   0.76999538   -3.4209736   -1.9869611  0.031548923   -3.4209736    1.4340125   353631 
 4256000   0.76886451   -3.4191311   -1.9871275   0.03627843   -3.4191311    1.4320035   353607 
 4257000   0.77056828   -3.4208667   -1.9856088  0.033985035   -3.4208667     1.435258   353587 
 4258000   0.76942087   -3.4196679   -1.9864214  0.030866727   -3.4196679    1.4332465   353556 
 4259000   0.76967132   -3.4191551   -1.9854624  0.027126624   -3.4191551    1.4336927   353561 
 4260000   0.77029141   -3.4195408   -1.9843885  0.035419692   -3.4195408    1.4351522   353486 
 4261000   0.76986784   -3.4183505   -1.9837358  0.031464493   -3.4183505    1.4346147   353424 
 4262000   0.76901019   -3.4165274    -1.983231  0.035575861   -3.4165274    1.4332963   353355 
 4263000   0.77003739    -3.418713     -1.98336  0.030359292    -3.418713     1.435353   353320 
 4264000   0.77043732   -3.4193396   -1.9831964  0.032820383   -3.4193396    1.4361432   353309 
 4265000   0.76841474   -3.4170348   -1.9844834  0.037983843   -3.4170348    1.4325514   353265 
 4266000   0.76995739   -3.4184122   -1.9830296  0.035811872   -3.4184122    1.4353826   353276 
 4267000   0.77052986   -3.4195634   -1.9830851  0.035040053   -3.4195634    1.4364783   353269 
 4268000   0.77078358   -3.4212529   -1.9840534  0.031864647   -3.4212529    1.4371995   353208 
 4269000   0.76976672   -3.4185012   -1.9830961   0.03729962   -3.4185012    1.4354051   353183 
 4270000    0.7696192   -3.4188198   -1.9834216  0.033691636   -3.4188198    1.4353982   353117 
 4271000    0.7705556   -3.4192923    -1.982229  0.037260291   -3.4192923    1.4370633   353137 
 4272000   0.77057254   -3.4193109   -1.9822079  0.036481109   -3.4193109     1.437103   353135 
 4273000    0.7705987   -3.4191573   -1.9820543  0.035142463   -3.4191573     1.437103   353147 
 4274000   0.77136529   -3.4191333   -1.9804134  0.040172498   -3.4191333      1.43872   353101 
 4275000   0.77157902   -3.4206642   -1.9812195  0.032249376   -3.4206642    1.4394448   353021 
 4276000   0.76902459   -3.4178135   -1.9831302  0.036029941   -3.4178135    1.4346833   353020 
 4277000   0.77035572   -3.4203561   -1.9831039  0.034339835   -3.4203561    1.4372522   352999 
 4278000   0.76949995   -3.4193248   -1.9832747  0.030180261   -3.4193248    1.4360502   352902 
 4279000   0.76836266   -3.4164589   -1.9824581  0.036323728   -3.4164589    1.4340009   352884 
 4280000   0.76870353   -3.4167531   -1.9821404    0.0370667   -3.4167531    1.4346127   352890 
 4281000    0.7701612   -3.4197537   -1.9824084  0.034710186   -3.4197537    1.4373453   352887 
 4282000   0.76819936    -3.416123   -1.9822115   0.03450982    -3.416123    1.4339115   352831 
 4283000   0.76881308   -3.4194602   -1.9841835  0.033960142   -3.4194602    1.4352767   352777 
 4284000   0.76839939    -3.416508   -1.9819182  0.032081382    -3.416508    1.4345898   352756 
 4285000   0.76800318   -3.4156794    -1.981561  0.033683172   -3.4156794    1.4341184   352690 
 4286000    0.7665355   -3.4142189   -1.9827032  0.033808489   -3.4142189    1.4315157   352656 
 4287000   0.76664647   -3.4165514   -1.9846782  0.023513062   -3.4165514    1.4318732   352619 
 4288000   0.76722648   -3.4172549   -1.9840627  0.033726193   -3.4172549    1.4331922   352561 
 4289000   0.76849841   -3.4186916   -1.9828831  0.031778634   -3.4186916    1.4358085   352502 
 4290000   0.76804551   -3.4185483   -1.9833499  0.035550642   -3.4185483    1.4351985   352444 
 4291000   0.76695127   -3.4167598   -1.9834272  0.035148689   -3.4167598    1.4333327   352400 
 4292000   0.76680441      -3.4165   -1.9834621  0.034842324      -3.4165    1.4330379   352405 
 4293000    0.7685313   -3.4186278   -1.9823137  0.035587614   -3.4186278    1.4363141   352393 
 4294000   0.76777737   -3.4166718   -1.9817342  0.035402017   -3.4166718    1.4349376   352385 
 4295000    0.7680339    -3.417789   -1.9823434  0.035446477    -3.417789    1.4354456   352378 
 4296000   0.76809484    -3.418161   -1.9824793  0.033316811    -3.418161    1.4356817   352348 
 4297000   0.76710837   -3.4183241    -1.984242  0.037705146   -3.4183241    1.4340821   352288 
 4298000   0.76583578   -3.4181253   -1.9862272  0.031103293   -3.4181253    1.4318981   352240 
 4299000   0.76605342   -3.4192752   -1.9866814   0.03578136   -3.4192752    1.4325938   352169 
 4300000    0.7679485   -3.4207322    -1.984517  0.031602544   -3.4207322    1.4362153   352150 
 4301000   0.76668498   -3.4193082   -1.9851709  0.040849686   -3.4193082    1.4341373   352080 
 4302000   0.76511171   -3.4160372   -1.9847941  0.031831201   -3.4160372    1.4312432   352068 
 4303000   0.76583963   -3.4173485   -1.9844506  0.027486721   -3.4173485    1.4328979   351996 
 4304000   0.76612177   -3.4185723   -1.9849917  0.028272048   -3.4185723    1.4335805   351958 
 4305000   0.76708858   -3.4188677   -1.9834984  0.039093483   -3.4188677    1.4353692   351963 
 4306000   0.76727008   -3.4202507   -1.9843134  0.037976086   -3.4202507    1.4359373   351907 
 4307000   0.76695917     -3.42069   -1.9851509  0.043258297     -3.42069     1.435539   351862 
 4308000   0.76670141   -3.4201434   -1.9848747  0.039773629   -3.4201434    1.4352687   351810 
 4309000   0.76508993   -3.4183347   -1.9859769  0.035183248   -3.4183347    1.4323579   351784 
 4310000   0.76544799    -3.418473   -1.9852981  0.027790533    -3.418473    1.4331749   351748 
 4311000   0.76594487   -3.4197828   -1.9854982  0.033306513   -3.4197828    1.4342846   351704 
 4312000   0.76611644   -3.4202247   -1.9855087  0.036255501   -3.4202247     1.434716   351677 
 4313000   0.76636623   -3.4209619   -1.9857455  0.026809815   -3.4209619    1.4352165   351669 
 4314000    0.7650481   -3.4185772   -1.9857152  0.035655448   -3.4185772     1.432862   351641 
 4315000   0.76634492   -3.4223198   -1.9868616  0.030692885   -3.4223198    1.4354582   351600 
 4316000    0.7643545   -3.4186888    -1.986682  0.032717246   -3.4186888    1.4320068   351532 
 4317000   0.76549548    -3.419633   -1.9853294  0.034750058    -3.419633    1.4343036   351493 
 4318000   0.76489862   -3.4172852   -1.9841081  0.037626801   -3.4172852    1.4331771   351495 
 4319000   0.76489654   -3.4184005   -1.9849867   0.03082301   -3.4184005    1.4334138   351436 
 4320000    0.7652596   -3.4185508    -1.984175  0.034395569   -3.4185508    1.4343758   351367 
 4321000    0.7655773   -3.4204577   -1.9853966  0.027641517   -3.4204577    1.4350611   351345 
 4322000   0.76372776   -3.4173683   -1.9856845  0.035136492   -3.4173683    1.4316839   351323 
 4323000   0.76372926   -3.4177853    -1.986013  0.034069612   -3.4177853    1.4317723   351302 
 4324000   0.76328388   -3.4169804   -1.9857498  0.033720435   -3.4169804    1.4312306   351230 
 4325000   0.76545432   -3.4191044   -1.9835343   0.02946387   -3.4191044    1.4355702   351164 
 4326000   0.76349306   -3.4158087   -1.9837088  0.036274721   -3.4158087    1.4320999   351113 
 4327000   0.76468664   -3.4200734   -1.9854528  0.041756635   -3.4200734    1.4346207   351044 
 4328000      0.76438   -3.4196035   -1.9854069  0.035275361   -3.4196035    1.4341965   351007 
 4329000    0.7654023   -3.4201981   -1.9840179  0.038553357   -3.4201981    1.4361801   350991 
 4330000   0.76524753    -3.421271   -1.9851316  0.032321484    -3.421271    1.4361393   350930 
 4331000   0.76325306   -3.4160915   -1.9835564  0.037538768   -3.4160915    1.4325351   350896 
 4332000   0.76393858   -3.4180567   -1.9841001  0.033019335   -3.4180567    1.4339566   350863 
 4333000   0.76466452   -3.4196037   -1.9839612   0.03576475   -3.4196037    1.4356425   350784 
 4334000   0.76386883   -3.4192125   -1.9848063  0.027956113   -3.4192125    1.4344062   350721 
 4335000   0.76352388   -3.4180479   -1.9842895  0.032797378   -3.4180479    1.4337584   350721 
 4336000   0.76257312   -3.4172921   -1.9851434  0.033000348   -3.4172921    1.4321487   350678 
 4337000   0.76318127   -3.4179291   -1.9846178  0.035187667   -3.4179291    1.4333112   350673 
 4338000   0.76318226   -3.4170867   -1.9836019  0.032942698   -3.4170867    1.4334848   350631 
 4339000   0.76233637   -3.4178448   -1.9856629  0.033885295   -3.4178448    1.4321819   350561 
 4340000   0.76114376   -3.4169079   -1.9866483  0.032753299   -3.4169079    1.4302596   350483 
 4341000   0.76235667   -3.4176594   -1.9848672  0.035255975   -3.4176594    1.4327922   350421 
 4342000   0.76291879   -3.4204139   -1.9862378  0.031187065   -3.4204139    1.4341761   350341 
 4343000   0.76375287   -3.4227805   -1.9866224  0.034370327   -3.4227805    1.4361581   350240 
 4344000   0.76319051   -3.4220103    -1.986963  0.029565544   -3.4220103    1.4350473   350253 
 4345000   0.76348963   -3.4204873   -1.9848857  0.037850359   -3.4204873    1.4356016   350255 
 4346000   0.76340671   -3.4214689    -1.985933  0.036384904   -3.4214689    1.4355359   350233 
 4347000   0.76445355   -3.4235419   -1.9858241  0.038160115   -3.4235419    1.4377178   350181 
 4348000   0.76502638     -3.42379   -1.9847524  0.035975841     -3.42379    1.4390376   350122 
 4349000   0.76461727   -3.4216715   -1.9833131  0.031929443   -3.4216715    1.4383584   350100 
 4350000   0.76381626   -3.4215093   -1.9845469  0.035676287   -3.4215093    1.4369624   350073 
 4351000   0.76441952   -3.4234044   -1.9850852  0.034950756   -3.4234044    1.4383192   350019 
 4352000   0.76304752   -3.4197549   -1.9838285  0.037516668   -3.4197549    1.4359264   349973 
 4353000    0.7621719   -3.4192248   -1.9848724   0.03571254   -3.4192248    1.4343524   349955 
 4354000   0.76330731   -3.4197052   -1.9833187  0.037281952   -3.4197052    1.4363865   349980 
 4355000   0.76320936   -3.4200291   -1.9836299  0.033099344   -3.4200291    1.4363992   349932 
 4356000   0.76267094   -3.4192601   -1.9836362  0.036792305   -3.4192601    1.4356238   349874 
 4357000   0.76210851   -3.4188938   -1.9840785  0.034123801   -3.4188938    1.4348153   349813 
 4358000     0.761448   -3.4210631   -1.9872167  0.032139966   -3.4210631    1.4338464   349746 
 4359000   0.76227667   -3.4202809   -1.9848002  0.030222911   -3.4202809    1.4354807   349728 
 4360000   0.76148711   -3.4184073   -1.9840977  0.036797877   -3.4184073    1.4343096   349651 
 4361000   0.76192201   -3.4200905   -1.9849535  0.032051705   -3.4200905     1.435137   349649 
 4362000   0.76145406   -3.4192361   -1.9847754  0.030593207   -3.4192361    1.4344607   349599 
 4363000   0.76102628   -3.4182991   -1.9842341   0.03301067   -3.4182991     1.434065   349499 
 4364000   0.76056189   -3.4174934   -1.9841271  0.034524146   -3.4174934    1.4333663   349456 
 4365000   0.76136977   -3.4205631   -1.9853991  0.031103552   -3.4205631     1.435164   349389 
 4366000   0.76199937    -3.422116   -1.9854938  0.031909122    -3.422116    1.4366222   349323 
 4367000   0.76079948   -3.4191522   -1.9845828  0.034206703   -3.4191522    1.4345694   349272 
 4368000    0.7600835   -3.4176269   -1.9844608  0.030620609   -3.4176269     1.433166   349285 
 4369000    0.7597433   -3.4178752   -1.9852892  0.029523792   -3.4178752    1.4325861   349270 
 4370000   0.75802589   -3.4151309   -1.9856236  0.034268851   -3.4151309    1.4295073   349231 
 4371000   0.75808934   -3.4151066   -1.9854469   0.03620636   -3.4151066    1.4296597   349223 
 4372000   0.76038902   -3.4187992   -1.9846671  0.031642687   -3.4187992    1.4341321   349190 
 4373000   0.76129126   -3.4203714    -1.984406  0.036352624   -3.4203714    1.4359654   349158 
 4374000    0.7616777    -3.420709   -1.9839241  0.033516345    -3.420709    1.4367849   349136 
 4375000   0.76104542   -3.4208775   -1.9852771  0.035696312   -3.4208775    1.4356004   349134 
 4376000   0.75956764   -3.4195055   -1.9865327  0.033281158   -3.4195055    1.4329728   349095 
 4377000   0.76015302   -3.4202007   -1.9857702  0.030749434   -3.4202007    1.4344306   349009 
 4378000    0.7587358   -3.4192626   -1.9872971  0.035710267   -3.4192626    1.4319655   348958 
 4379000   0.75820724   -3.4190639   -1.9879565  0.031114303   -3.4190639    1.4311074   348924 
 4380000   0.75795595   -3.4173977   -1.9866334  0.029722164   -3.4173977    1.4307643   348892 
 4381000   0.75792472   -3.4187201   -1.9877933  0.031460906   -3.4187201    1.4309268   348838 
 4382000   0.75962281   -3.4210124   -1.9865754  0.036051868   -3.4210124     1.434437   348764 
 4383000   0.75917827   -3.4199437   -1.9861323  0.034213006   -3.4199437    1.4338113   348712 
 4384000   0.76009296   -3.4218265   -1.9862712  0.031531118   -3.4218265    1.4355553   348708 
 4385000   0.75856599   -3.4184478   -1.9854929  0.034209549   -3.4184478    1.4329549   348639 
 4386000   0.75775629   -3.4193958   -1.9878144  0.035766956   -3.4193958    1.4315814   348601 
 4387000   0.75890056   -3.4233667    -1.989315  0.037441921   -3.4233667    1.4340517   348526 
 4388000   0.75982624   -3.4229721   -1.9870599  0.032352113   -3.4229721    1.4359122   348499 
 4389000   0.75889307   -3.4222684   -1.9879221  0.035403921   -3.4222684    1.4343463   348451 
 4390000   0.75894455   -3.4215556   -1.9870668  0.033675056   -3.4215556    1.4344888   348440 
 4391000    0.7584697   -3.4234086    -1.989805  0.035369808   -3.4234086    1.4336037   348437 
 4392000   0.75886604   -3.4240566    -1.989498  0.031749539   -3.4240566    1.4345586   348387 
 4393000   0.75836223   -3.4238535   -1.9900909  0.037100135   -3.4238535    1.4337626   348349 
 4394000   0.75827321   -3.4236548   -1.9898629  0.039011853   -3.4236548    1.4337919   348301 
 4395000      0.75875   -3.4249463   -1.9902364  0.030779645   -3.4249463    1.4347099   348297 
 4396000   0.75798115   -3.4240629   -1.9904446  0.033667005   -3.4240629    1.4336183   348209 
 4397000   0.75774554   -3.4220591   -1.9886353  0.036093436   -3.4220591    1.4334238   348148 
 4398000   0.75697214   -3.4207359   -1.9887587  0.034418576   -3.4207359    1.4319772   348144 
 4399000   0.75932389   -3.4232092   -1.9867831  0.035801651   -3.4232092    1.4364261   348144 
 4400000   0.75951548   -3.4230783   -1.9862278  0.035836668   -3.4230783    1.4368504   348129 
 4401000   0.76040572   -3.4241753   -1.9855581  0.033511846   -3.4241753    1.4386172   348109 
 4402000   0.75847266   -3.4210749   -1.9860736  0.036321531   -3.4210749    1.4350013   348099 
 4403000   0.75906205   -3.4198516   -1.9838383  0.032834684   -3.4198516    1.4360132   348124 
 4404000   0.75801132   -3.4176582    -1.983571  0.033128631   -3.4176582    1.4340872   348109 
 4405000   0.75686188   -3.4163274   -1.9843572   0.03190297   -3.4163274    1.4319702   348095 
 4406000    0.7573791   -3.4164066    -1.983573  0.030578208   -3.4164066    1.4328335   348123 
 4407000   0.75813524   -3.4159008   -1.9815626  0.036177606   -3.4159008    1.4343382   348105 
 4408000   0.75703001   -3.4132437   -1.9809225  0.033710872   -3.4132437    1.4323212   348087 
 4409000   0.75763331   -3.4132453   -1.9795726  0.032714885   -3.4132453    1.4336727   348036 
 4410000   0.75891449   -3.4151299    -1.979041  0.029239216   -3.4151299    1.4360889   348038 
 4411000   0.76051655   -3.4165087   -1.9771774  0.036242303   -3.4165087    1.4393313   347987 
 4412000   0.75882701   -3.4126011   -1.9764095  0.035754606   -3.4126011    1.4361915   347973 
 4413000   0.75923385    -3.413429   -1.9762816  0.031845968    -3.413429    1.4371474   347928 
 4414000   0.75830052   -3.4123462   -1.9768706  0.037844456   -3.4123462    1.4354756   347905 
 4415000   0.75720479    -3.411968   -1.9782823  0.034685914    -3.411968    1.4336857   347836 
 4416000   0.75828061   -3.4138118   -1.9779777     0.031524   -3.4138118    1.4358341   347809 
 4417000   0.75910285   -3.4142333   -1.9764661  0.032807658   -3.4142333    1.4377672   347718 
 4418000   0.75738101    -3.412827   -1.9781313  0.040741816    -3.412827    1.4346958   347672 
 4419000   0.75971319   -3.4158504   -1.9764718  0.035066724   -3.4158504    1.4393786   347608 
 4420000   0.75954967   -3.4161704   -1.9766792  0.034170614   -3.4161704    1.4394912   347506 
 4421000   0.75861679   -3.4127933   -1.9746976  0.036592304   -3.4127933    1.4380956   347416 
 4422000   0.75792248   -3.4129703   -1.9761081    0.0339988   -3.4129703    1.4368622   347396 
 4423000   0.75795368   -3.4120257   -1.9750258  0.035241083   -3.4120257    1.4369999   347377 
 4424000   0.75867164   -3.4132876   -1.9747277  0.035154551   -3.4132876    1.4385599   347329 
 4425000   0.75748334   -3.4106675   -1.9742864  0.034637944   -3.4106675    1.4363811   347311 
 4426000   0.75704299   -3.4111933    -1.975577   0.03543944   -3.4111933    1.4356163   347294 
 4427000   0.75472629   -3.4072445   -1.9759432  0.034984548   -3.4072445    1.4313014   347275 
 4428000   0.75574249   -3.4082868   -1.9748478  0.029963461   -3.4082868    1.4334391   347224 
 4429000   0.75661277   -3.4083396   -1.9732168  0.031803993   -3.4083396    1.4351228   347216 
 4430000    0.7560688   -3.4079789   -1.9736152   0.03063736   -3.4079789    1.4343637   347150 
 4431000   0.75599353   -3.4092131   -1.9746079  0.035883991   -3.4092131    1.4346052   347057 
 4432000   0.75654984   -3.4096189   -1.9738215  0.034916756   -3.4096189    1.4357974   347024 
 4433000   0.75566283   -3.4084763   -1.9741474  0.032101919   -3.4084763    1.4343289   346972 
 4434000   0.75573311   -3.4076689   -1.9732768  0.034262025   -3.4076689    1.4343921   346989 
 4435000   0.75582955   -3.4068181   -1.9719411  0.032612721   -3.4068181     1.434877   346916 
 4436000   0.75725666   -3.4093826   -1.9717922  0.031122126   -3.4093826    1.4375904   346915 
 4437000   0.75743331   -3.4090922   -1.9709468  0.030865377   -3.4090922    1.4381454   346862 
 4438000   0.75555648   -3.4065218   -1.9716214  0.030229278   -3.4065218    1.4349004   346785 
 4439000   0.75547553   -3.4065452   -1.9717364  0.036486279   -3.4065452    1.4348088   346770 
 4440000   0.75630746   -3.4074943   -1.9710932  0.035049873   -3.4074943    1.4364012   346767 
 4441000   0.75615203   -3.4076387   -1.9712842  0.032862001   -3.4076387    1.4363545   346707 
 4442000   0.75593962   -3.4080147   -1.9719022  0.034632272   -3.4080147    1.4361126   346668 
 4443000   0.75556132   -3.4069011   -1.9713084   0.03576856   -3.4069011    1.4355927   346620 
 4444000   0.75617197   -3.4078164   -1.9709349  0.036046623   -3.4078164    1.4368814   346589 
 4445000   0.75460328   -3.4060433   -1.9719523  0.035422617   -3.4060433    1.4340909   346543 
 4446000   0.75500221   -3.4067143   -1.9718031  0.031839215   -3.4067143    1.4349112   346528 
 4447000   0.75532409   -3.4071217   -1.9713834  0.028357868   -3.4071217    1.4357384   346476 
 4448000   0.75649038   -3.4092999   -1.9712491  0.036852633   -3.4092999    1.4380508   346453 
 4449000   0.75621464   -3.4103164    -1.972408  0.035423669   -3.4103164    1.4379084   346361 
 4450000   0.75533392    -3.407038   -1.9707835  0.039047167    -3.407038    1.4362545   346356 
 4451000   0.75612708   -3.4083657   -1.9705698   0.03748628   -3.4083657    1.4377959   346348 
 4452000   0.75569987   -3.4075874    -1.970388  0.033857758   -3.4075874    1.4371993   346296 
 4453000   0.75561457   -3.4077936   -1.9706901  0.030306607   -3.4077936    1.4371035   346280 
 4454000   0.75555082   -3.4090447   -1.9720002   0.03695231   -3.4090447    1.4370445   346265 
 4455000   0.75310086   -3.4048172   -1.9723622  0.033548649   -3.4048172     1.432455   346248 
 4456000   0.75639651   -3.4086139    -1.969803  0.035748445   -3.4086139    1.4388109   346227 
 4457000   0.75441393   -3.4059036    -1.970694  0.031792879   -3.4059036    1.4352096   346186 
 4458000   0.75412576   -3.4065595   -1.9716162   0.03298345   -3.4065595    1.4349432   346118 
 4459000   0.75511461   -3.4097759    -1.972648  0.030673366   -3.4097759    1.4371279   346045 
 4460000   0.75538674   -3.4098636   -1.9719851  0.030719117   -3.4098636    1.4378785   345989 
 4461000   0.75435152    -3.407409   -1.9712478   0.03796079    -3.407409    1.4361612   345928 
 4462000   0.75471603   -3.4088068   -1.9717065  0.037248387   -3.4088068    1.4371003   345869 
 4463000   0.75419403   -3.4087327   -1.9724104  0.033592592   -3.4087327    1.4363222   345817 
 4464000   0.75381986   -3.4095594   -1.9739913  0.036146333   -3.4095594    1.4355681   345827 
 4465000   0.75397005   -3.4080693   -1.9720781  0.031208718   -3.4080693    1.4359912   345794 
 4466000   0.75330324   -3.4084597   -1.9735393  0.034591269   -3.4084597    1.4349204   345746 
 4467000   0.75257335   -3.4084325   -1.9747822  0.032999081   -3.4084325    1.4336503   345717 
 4468000   0.75244573   -3.4078208   -1.9742229  0.032958146   -3.4078208    1.4335979   345671 
 4469000   0.75342399   -3.4091758   -1.9734191  0.030209804   -3.4091758    1.4357567   345600 
 4470000   0.75280715   -3.4097453   -1.9750604  0.030413816   -3.4097453     1.434685   345575 
 4471000   0.75338746   -3.4102445   -1.9741003   0.03368746   -3.4102445    1.4361442   345490 
 4472000   0.75275354   -3.4108828   -1.9756147  0.033995336   -3.4108828    1.4352681   345410 
 4473000    0.7522869   -3.4101051    -1.975627   0.03507318   -3.4101051     1.434478   345386 
 4474000   0.75288613    -3.411653   -1.9758328  0.036599331    -3.411653    1.4358202   345338 
 4475000   0.75275682   -3.4084262    -1.972915  0.038622588   -3.4084262    1.4355112   345353 
 4476000   0.75367316   -3.4106044   -1.9732707  0.030482194   -3.4106044    1.4373336   345335 
 4477000   0.75305069   -3.4102914   -1.9741574  0.028555152   -3.4102914     1.436134   345338 
 4478000   0.75220365   -3.4083417   -1.9736568  0.035432763   -3.4083417    1.4346848   345298 
 4479000   0.75132131   -3.4068074   -1.9737474  0.034041484   -3.4068074      1.43306   345284 
 4480000    0.7506955   -3.4080417   -1.9758891  0.030915063   -3.4080417    1.4321526   345215 
 4481000   0.75096254    -3.407575   -1.9747511  0.034920382    -3.407575    1.4328239   345176 
 4482000   0.75079391    -3.409891   -1.9772063  0.037112788    -3.409891    1.4326848   345132 
 4483000   0.75051425   -3.4084751   -1.9762908  0.035285461   -3.4084751    1.4321843   345124 
 4484000   0.75082805   -3.4083725   -1.9754814  0.029875682   -3.4083725    1.4328911   345098 
 4485000   0.75117237   -3.4099355   -1.9760217  0.030804604   -3.4099355    1.4339138   345010 
 4486000   0.75130533   -3.4090998   -1.9747451  0.029158089   -3.4090998    1.4343547   344965 
 4487000   0.75078483   -3.4079024   -1.9745248  0.033013159   -3.4079024    1.4333776   344961 
 4488000   0.75091151   -3.4089862   -1.9752669  0.032479749   -3.4089862    1.4337192   344937 
 4489000   0.75118585   -3.4086439   -1.9743344  0.033193693   -3.4086439    1.4343096   344921 
 4490000   0.75141181   -3.4074803    -1.972602  0.034280093   -3.4074803    1.4348783   344888 
 4491000   0.75218812   -3.4074094   -1.9709862  0.034158494   -3.4074094    1.4364232   344873 
 4492000   0.75199523   -3.4094672   -1.9731292  0.034479626   -3.4094672     1.436338   344805 
 4493000   0.75018541   -3.4082466    -1.975037  0.032500314   -3.4082466    1.4332096   344726 
 4494000    0.7499828   -3.4097631    -1.976791  0.037153143   -3.4097631    1.4329722   344690 
 4495000   0.75047551   -3.4102921   -1.9762829   0.03312796   -3.4102921    1.4340092   344667 
 4496000   0.74945549    -3.408205   -1.9759911  0.034309989    -3.408205    1.4322139   344630 
 4497000   0.74889494   -3.4084162   -1.9772485  0.033013929   -3.4084162    1.4311677   344624 
 4498000   0.74985721   -3.4104872   -1.9772561  0.026116429   -3.4104872    1.4332312   344570 
 4499000   0.74926559   -3.4097088   -1.9773507  0.036356793   -3.4097088    1.4323581   344508 
 4500000   0.75051818   -3.4129642   -1.9779283  0.030469452   -3.4129642    1.4350359   344440 
 4501000   0.75008077    -3.412142   -1.9778592  0.034252029    -3.412142    1.4342828   344420 
 4502000   0.75006065   -3.4111561   -1.9766077  0.033735472   -3.4111561    1.4345484   344347 
 4503000   0.74938027   -3.4098015   -1.9764919  0.036812767   -3.4098015    1.4333096   344332 
 4504000   0.74942619   -3.4110797   -1.9776032  0.032872408   -3.4110797    1.4334765   344313 
 4505000   0.74859294    -3.409419   -1.9772785  0.030052585    -3.409419    1.4321406   344251 
 4506000   0.75100062   -3.4143817   -1.9774095  0.032991927   -3.4143817    1.4369721   344197 
 4507000    0.7497458   -3.4128029     -1.97809  0.034120425   -3.4128029    1.4347129   344163 
 4508000   0.75064092   -3.4138541   -1.9774617   0.03315005   -3.4138541    1.4363924   344171 
 4509000   0.74859345   -3.4121142   -1.9791693   0.03442437   -3.4121142    1.4329449   344058 
 4510000   0.74908661   -3.4129601   -1.9788211  0.038294851   -3.4129601     1.434139   343998 
 4511000   0.74945285   -3.4131859   -1.9781872  0.030994418   -3.4131859    1.4349987   343960 
 4512000   0.74850447   -3.4120415   -1.9786961  0.033466092   -3.4120415    1.4333453   343921 
 4513000   0.74887702   -3.4150028   -1.9808189   0.03757653   -3.4150028    1.4341839   343891 
 4514000   0.74959105   -3.4157373   -1.9800357  0.035158536   -3.4157373    1.4357016   343855 
 4515000   0.74878172   -3.4154085   -1.9809149  0.039824205   -3.4154085    1.4344935   343773 
 4516000   0.74860294   -3.4131272   -1.9789469  0.038769795   -3.4131272    1.4341803   343766 
 4517000   0.74851544   -3.4160733   -1.9817811  0.035579674   -3.4160733    1.4342922   343699 
 4518000   0.74817152   -3.4141445   -1.9803278  0.038766557   -3.4141445    1.4338167   343655 
 4519000   0.74807516    -3.413799   -1.9800334  0.036862615    -3.413799    1.4337655   343623 
 4520000   0.74838006   -3.4155633   -1.9809838  0.032354629   -3.4155633    1.4345795   343568 
 4521000   0.74789667   -3.4136684   -1.9798026  0.034983501   -3.4136684    1.4338658   343517 
 4522000   0.74699537   -3.4122184   -1.9798888  0.038326426   -3.4122184    1.4323296   343471 
 4523000   0.74752313   -3.4140341   -1.9806717  0.032885285   -3.4140341    1.4333624   343466 
 4524000   0.74771703   -3.4163132   -1.9825247  0.032772561   -3.4163132    1.4337885   343453 
 4525000   0.74577535   -3.4123622   -1.9820221  0.034269377   -3.4123622    1.4303401   343387 
 4526000   0.74763486   -3.4160476   -1.9818237  0.028712195   -3.4160476    1.4342239   343311 
 4527000   0.74710362   -3.4131483   -1.9799018  0.032838352   -3.4131483    1.4332465   343301 
 4528000   0.74691286    -3.412518   -1.9793828  0.032220596    -3.412518    1.4331352   343240 
 4529000   0.74863435   -3.4147318   -1.9783814  0.034859014   -3.4147318    1.4363505   343261 
 4530000   0.74849603   -3.4129208   -1.9767814  0.039170038   -3.4129208    1.4361395   343248 
 4531000   0.74940702    -3.415327   -1.9772846  0.031814221    -3.415327    1.4380424   343211 
 4532000   0.74898797   -3.4154843   -1.9780618  0.033637389   -3.4154843    1.4374226   343167 
 4533000   0.74767545   -3.4122538   -1.9770239  0.035995984   -3.4122538    1.4352299   343089 
 4534000   0.74678456   -3.4120884     -1.97846  0.032179365   -3.4120884    1.4336283   343063 
 4535000   0.74708356   -3.4137414   -1.9793843  0.032724348   -3.4137414    1.4343571   343026 
 4536000   0.74661105   -3.4120844   -1.9786345  0.035702151   -3.4120844    1.4334499   343026 
 4537000   0.74692992   -3.4116758   -1.9774256  0.032259276   -3.4116758    1.4342502   342981 
 4538000   0.74673393   -3.4127019   -1.9788071  0.033676349   -3.4127019    1.4338948   342976 
 4539000   0.74710082   -3.4120732   -1.9773819  0.035905165   -3.4120732    1.4346913   342954 
 4540000   0.74758875   -3.4129594   -1.9770506  0.037645111   -3.4129594    1.4359088   342887 
 4541000   0.74688233   -3.4127528   -1.9779623  0.034736602   -3.4127528    1.4347905   342830 
 4542000   0.74778436   -3.4118423   -1.9751932  0.033702141   -3.4118423    1.4366491   342800 
 4543000   0.74725959   -3.4121758    -1.976204  0.033199091   -3.4121758    1.4359718   342721 
 4544000   0.74735869   -3.4117151   -1.9754523  0.032354448   -3.4117151    1.4362628   342697 
 4545000   0.74692721   -3.4109015   -1.9753841  0.034736356   -3.4109015    1.4355174   342677 
 4546000   0.74671682   -3.4118155   -1.9765643  0.032257439   -3.4118155    1.4352513   342644 
 4547000    0.7473037    -3.414459   -1.9779707  0.029253265    -3.414459    1.4364883   342618 
 4548000    0.7467427   -3.4131331   -1.9775681  0.038429088   -3.4131331     1.435565   342581 
 4549000   0.74796843   -3.4124454    -1.974629  0.031419571   -3.4124454    1.4378164   342606 
 4550000   0.74717158   -3.4111301   -1.9746274  0.029989327   -3.4111301    1.4365027   342554 
 4551000   0.74579456   -3.4083939   -1.9744759  0.033341161   -3.4083939     1.433918   342539 
 4552000    0.7454708   -3.4083716   -1.9750468  0.036290055   -3.4083716    1.4333248   342532 
 4553000   0.74481987   -3.4070558   -1.9748278  0.033388536   -3.4070558     1.432228   342495 
 4554000   0.74617443     -3.40978   -1.9748007  0.036969938     -3.40978    1.4349793   342460 
 4555000   0.74603803   -3.4111423   -1.9762535  0.033423448   -3.4111423    1.4348888   342419 
 4556000   0.74787751   -3.4121956   -1.9736428  0.035539743   -3.4121956    1.4385528   342389 
 4557000   0.74754495   -3.4104894   -1.9725595   0.03483392   -3.4104894    1.4379299   342385 
 4558000   0.74807409   -3.4089305   -1.9697264  0.040393034   -3.4089305    1.4392041   342324 
 4559000   0.74900035   -3.4130109   -1.9717553  0.037111656   -3.4130109    1.4412556   342260 
 4560000   0.74744816   -3.4108295     -1.97238  0.031342677   -3.4108295    1.4384495   342217 
 4561000   0.74601326   -3.4093647   -1.9735381  0.033660725   -3.4093647    1.4358266   342184 
 4562000   0.74593484   -3.4092097   -1.9735676   0.03470451   -3.4092097    1.4356421   342192 
 4563000   0.74555368   -3.4082419   -1.9731741  0.034411422   -3.4082419    1.4350678   342154 
 4564000   0.74767445   -3.4115142   -1.9723137  0.033811633   -3.4115142    1.4392004   342142 
 4565000   0.74568379    -3.408432    -1.973034   0.03691983    -3.408432     1.435398   342135 
 4566000   0.74755489   -3.4101617   -1.9709221  0.037551149   -3.4101617    1.4392395   342078 
 4567000   0.74679451   -3.4088013   -1.9710467  0.031657052   -3.4088013    1.4377546   342083 
 4568000   0.74766954   -3.4086067   -1.9689866  0.035382624   -3.4086067    1.4396202   342040 
 4569000   0.74664126   -3.4079587   -1.9701714  0.034338923   -3.4079587    1.4377874   342005 
 4570000   0.74534068   -3.4038332   -1.9683531  0.035953992   -3.4038332    1.4354801   341958 
 4571000   0.74440589   -3.4052436   -1.9714548  0.033054778   -3.4052436    1.4337888   341932 
 4572000   0.74487544   -3.4030578    -1.968373  0.035608976   -3.4030578    1.4346848   341934 
 4573000   0.74658546   -3.4060349   -1.9680817  0.031445998   -3.4060349    1.4379532   341940 
 4574000   0.74579423   -3.4046683   -1.9679197  0.034366133   -3.4046683    1.4367486   341864 
 4575000   0.74542849   -3.4026935   -1.9666369  0.029631023   -3.4026935    1.4360566   341861 
 4576000   0.74627433   -3.4035796   -1.9656495  0.030345406   -3.4035796    1.4379301   341803 
 4577000   0.74486279   -3.4012196   -1.9659127  0.035040091   -3.4012196    1.4353069   341780 
 4578000   0.74780989   -3.4055997   -1.9643693  0.037885367   -3.4055997    1.4412304   341722 
 4579000   0.74721331   -3.4033822   -1.9629475  0.035503989   -3.4033822    1.4404347   341638 
 4580000   0.74564102   -3.4028612   -1.9653902  0.037883437   -3.4028612     1.437471   341622 
 4581000   0.74596407   -3.4029081   -1.9646249  0.034218879   -3.4029081    1.4382832   341577 
 4582000   0.74482062   -3.3995387   -1.9632288  0.035030909   -3.3995387    1.4363098   341522 
 4583000   0.74526582   -3.3986615   -1.9615436   0.03446578   -3.3986615    1.4371179   341534 
 4584000   0.74573256   -3.3990625    -1.960893   0.03434914   -3.3990625    1.4381695   341498 
 4585000   0.74550448   -3.4007214   -1.9626633   0.03165474   -3.4007214    1.4380581   341420 
 4586000   0.74456188   -3.3983316   -1.9618561  0.036400035   -3.3983316    1.4364755   341364 
 4587000   0.74626117   -3.4019197   -1.9619887  0.031149644   -3.4019197     1.439931   341322 
 4588000   0.74538972   -3.3998308   -1.9614801  0.038242093   -3.3998308    1.4383507   341298 
 4589000   0.74389028   -3.3974787   -1.9617901  0.034780284   -3.3974787    1.4356886   341243 
 4590000   0.74513077   -3.3969276    -1.958967  0.039857521   -3.3969276    1.4379606   341272 
 4591000   0.74356653   -3.3962286   -1.9610428  0.036710895   -3.3962286    1.4351858   341214 
 4592000   0.74284285   -3.3970206   -1.9629332  0.033193755   -3.3970206    1.4340874   341143 
 4593000   0.74418289   -3.3989185   -1.9620125  0.031520617   -3.3989185     1.436906   341088 
 4594000   0.74314014   -3.3963927   -1.9613991  0.035140014   -3.3963927    1.4349936   341064 
 4595000   0.74229693   -3.3943334   -1.9609007  0.032825022   -3.3943334    1.4334326   341048 
 4596000   0.74287022   -3.3964602   -1.9615966  0.028358635   -3.3964602    1.4348637   340971 
 4597000    0.7420056   -3.3963463   -1.9630223  0.027223272   -3.3963463    1.4333239   340940 
 4598000    0.7421984     -3.39842   -1.9645807  0.033192478     -3.39842    1.4338394   340906 
 4599000   0.74187644   -3.3974751   -1.9642367   0.02964428   -3.3974751    1.4332384   340901 
 4600000   0.74206037   -3.3966198   -1.9628241  0.030585179   -3.3966198    1.4337956   340853 
 4601000   0.74278082   -3.3983597   -1.9630626   0.03709387   -3.3983597    1.4352971   340827 
 4602000   0.74351545   -3.3992907   -1.9624306  0.036522654   -3.3992907      1.43686   340793 
 4603000   0.74308905   -3.4021183   -1.9657999  0.033985079   -3.4021183    1.4363184   340726 
 4604000   0.74261247   -3.3985716   -1.9631112  0.038566998   -3.3985716    1.4354604   340711 
 4605000   0.74306992    -3.400434   -1.9639165  0.033142798    -3.400434    1.4365175   340670 
 4606000   0.74465305   -3.4020177   -1.9622537  0.029666425   -3.4020177     1.439764   340626 
 4607000    0.7443537   -3.4031484   -1.9638153  0.036642195   -3.4031484    1.4393331   340591 
 4608000   0.74380271     -3.40262   -1.9641581  0.033518879     -3.40262     1.438462   340545 
 4609000   0.74437812   -3.4035075    -1.963937  0.036443937   -3.4035075    1.4395705   340546 
 4610000   0.74278982   -3.3987667   -1.9621412  0.037324536   -3.3987667    1.4366254   340516 
 4611000   0.74230922   -3.3991291   -1.9632898  0.037159301   -3.3991291    1.4358393   340482 
 4612000   0.74215124    -3.398493   -1.9625545  0.034387091    -3.398493    1.4359386   340386 
 4613000   0.74130908   -3.3989706   -1.9644339   0.03688304   -3.3989706    1.4345367   340332 
 4614000   0.74151655   -3.3997079   -1.9645547  0.037000258   -3.3997079    1.4351533   340281 
 4615000   0.74054034   -3.3986252   -1.9651676   0.03517388   -3.3986252    1.4334576   340235 
 4616000    0.7405728   -3.3983291   -1.9646105  0.035077649   -3.3983291    1.4337185   340188 
 4617000   0.74107483   -3.3990998   -1.9641732  0.031439372   -3.3990998    1.4349267   340132 
 4618000   0.73895023   -3.3962561   -1.9653212  0.032042903   -3.3962561    1.4309348   340103 
 4619000   0.74106581    -3.401104   -1.9657137  0.033914663    -3.401104    1.4353903   340018 
 4620000    0.7401834   -3.4007564   -1.9667758   0.03668301   -3.4007564    1.4339805   339947 
 4621000   0.73998103   -3.4011532   -1.9672779  0.033184451   -3.4011532    1.4338753   339879 
 4622000   0.73807771   -3.3972701   -1.9667504  0.032163089   -3.3972701    1.4305197   339800 
 4623000   0.73693051   -3.3951252   -1.9666439  0.031732271   -3.3951252    1.4284812   339756 
 4624000    0.7381804   -3.3971081   -1.9659387  0.027892015   -3.3971081    1.4311694   339693 
 4625000   0.73950083   -3.3991748   -1.9652681  0.034414232   -3.3991748    1.4339067   339651 
 4626000   0.73987956   -3.4000685   -1.9651993   0.03483798   -3.4000685    1.4348692   339597 
 4627000   0.74159775   -3.4017451   -1.9634803  0.036586337   -3.4017451    1.4382649   339582 
 4628000   0.74041619   -3.3986376    -1.962567  0.041762594   -3.3986376    1.4360706   339559 
 4629000   0.74100215   -3.4000517   -1.9625991  0.037306713   -3.4000517    1.4374526   339501 
 4630000   0.74200184   -3.4026423   -1.9631359  0.033392736   -3.4026423    1.4395064   339474 
 4631000    0.7406443   -3.4015435   -1.9644676  0.039450666   -3.4015435    1.4370759   339426 
 4632000   0.73942069   -3.3996814   -1.9649331  0.040116399   -3.3996814    1.4347482   339415 
 4633000    0.7389665   -3.3993841   -1.9653524  0.037040669   -3.3993841    1.4340317   339376 
 4634000   0.73986396   -3.4008571   -1.9650076  0.031792572   -3.4008571    1.4358495   339358 
 4635000   0.73908438   -3.4008263   -1.9663714  0.031881106   -3.4008263    1.4344549   339330 
 4636000   0.73975683   -3.4021132   -1.9661796  0.033979572   -3.4021132    1.4359335   339289 
 4637000   0.73880283    -3.400502   -1.9662385   0.03310099    -3.400502    1.4342635   339246 
 4638000   0.73836409   -3.3993246   -1.9658283  0.035884803   -3.3993246    1.4334963   339226 
 4639000   0.73989815   -3.4003218   -1.9638388  0.035741201   -3.4003218     1.436483   339224 
 4640000   0.73849241   -3.3985473   -1.9645102  0.036245837   -3.3985473    1.4340371   339157 
 4641000   0.74040769   -3.4005447   -1.9627334  0.038418889   -3.4005447    1.4378114   339144 
 4642000   0.74098667   -3.4006898   -1.9617541  0.033482341   -3.4006898    1.4389357   339144 
 4643000   0.74053876   -3.3985646   -1.9604181  0.034223167   -3.3985646    1.4381465   339125 
 4644000   0.73871957   -3.3944437   -1.9596397  0.036325236   -3.3944437    1.4348039   339080 
 4645000   0.74048032   -3.3994749   -1.9611068    0.0380443   -3.3994749    1.4383681   339046 
 4646000    0.7402869    -3.399636   -1.9614825  0.034437605    -3.399636    1.4381535   339008 
 4647000   0.73869041   -3.3987199   -1.9634435  0.029453219   -3.3987199    1.4352764   338955 
 4648000   0.73935695   -3.3998214   -1.9629659  0.033700711   -3.3998214    1.4368555   338888 
 4649000   0.73862256    -3.397824   -1.9622177  0.034328875    -3.397824    1.4356062   338846 
 4650000   0.73852897   -3.3973285   -1.9618576   0.03353476   -3.3973285    1.4354709   338835 
 4651000   0.73949899   -3.3988703   -1.9614037  0.035134245   -3.3988703    1.4374666   338809 
 4652000   0.73818428   -3.3974072   -1.9621403  0.035755986   -3.3974072    1.4352669   338725 
 4653000   0.73954876   -3.3998902   -1.9619194  0.029894032   -3.3998902    1.4379708   338713 
 4654000   0.73873442    -3.397439   -1.9609624  0.034482971    -3.397439    1.4364765   338692 
 4655000   0.73809957   -3.3965589   -1.9609481  0.039152035   -3.3965589    1.4356108   338605 
 4656000   0.73905241   -3.3986834   -1.9611046  0.035799934   -3.3986834    1.4375787   338578 
 4657000   0.73855643   -3.3973351    -1.960492    0.0370013   -3.3973351    1.4368431   338524 
 4658000   0.73843071   -3.3984277   -1.9614768  0.034381905   -3.3984277    1.4369508   338441 
 4659000   0.73753108    -3.398286   -1.9628058  0.036276895    -3.398286    1.4354802   338375 
 4660000   0.73951334   -3.3995584   -1.9600883  0.034047985   -3.3995584    1.4394701   338344 
 4661000   0.73745966   -3.3974489    -1.961989  0.036987541   -3.3974489    1.4354599   338347 
 4662000   0.73835043   -3.3998828   -1.9625998   0.03284062   -3.3998828     1.437283   338326 
 4663000   0.73973396   -3.3993501   -1.9591482  0.037635616   -3.3993501    1.4402018   338273 
 4664000   0.73863489   -3.3994614   -1.9612846  0.028947597   -3.3994614    1.4381768   338246 
 4665000   0.73754568   -3.3994672   -1.9633093  0.027462915   -3.3994672    1.4361579   338222 
 4666000    0.7368782   -3.3979291   -1.9628248  0.028371414   -3.3979291    1.4351043   338164 
 4667000   0.73582772   -3.3958555   -1.9626614  0.034856959   -3.3958555    1.4331941   338132 
 4668000   0.73638532   -3.3972288   -1.9628808    0.0329648   -3.3972288     1.434348   338116 
 4669000    0.7381064   -3.4001864   -1.9624521  0.032091238   -3.4001864    1.4377344   338108 
 4670000   0.73814061   -3.3975416   -1.9596895  0.032488177   -3.3975416     1.437852   338096 
 4671000   0.73717271   -3.3965818   -1.9605345  0.038567396   -3.3965818    1.4360473   338077 
 4672000   0.73779609   -3.3971371   -1.9599349  0.035399388   -3.3971371    1.4372022   338091 
 4673000   0.74031495   -3.4004663   -1.9584086  0.036124443   -3.4004663    1.4420577   338103 
 4674000   0.73969888   -3.3991223   -1.9582391  0.035918851   -3.3991223    1.4408832   338097 
 4675000   0.73927197    -3.398418   -1.9581661  0.036797954    -3.398418    1.4402518   338050 
 4676000   0.73846972   -3.3997693   -1.9607654  0.036366258   -3.3997693    1.4390039   337976 
 4677000   0.73889933   -3.3998515   -1.9600915  0.037435021   -3.3998515    1.4397601   337995 
 4678000   0.73800276   -3.3992953   -1.9611715  0.034900717   -3.3992953    1.4381237   337969 
 4679000   0.73730215   -3.3985378   -1.9614519  0.032220342   -3.3985378    1.4370859   337892 
 4680000   0.73724811   -3.3972285   -1.9602692  0.035102766   -3.3972285    1.4369593   337897 
 4681000   0.73625518   -3.3958556    -1.960598  0.037694774   -3.3958556    1.4352576   337842 
 4682000   0.73970934   -3.4018694   -1.9598143  0.036670298   -3.4018694    1.4420552   337827 
 4683000   0.73812463   -3.4003391   -1.9612199  0.038674823   -3.4003391    1.4391192   337791 
 4684000   0.73565939   -3.3955261   -1.9610648  0.032249191   -3.3955261    1.4344613   337756 
 4685000   0.73695131   -3.3986916    -1.961558  0.033843924   -3.3986916    1.4371336   337720 
 4686000   0.73753878   -3.3982681   -1.9598867  0.033812107   -3.3982681    1.4383815   337696 
 4687000   0.73680812   -3.3973531   -1.9601242  0.036575098   -3.3973531    1.4372289   337632 
 4688000   0.73761296   -3.3971133   -1.9582037  0.036529631   -3.3971133    1.4389096   337606 
 4689000   0.73728953   -3.3974867   -1.9592761  0.034963376   -3.3974867    1.4382105   337622 
 4690000   0.73674862   -3.3988138   -1.9614668  0.032229168   -3.3988138     1.437347   337577 
 4691000    0.7372293   -3.3985072   -1.9601202  0.036534577   -3.3985072     1.438387   337553 
 4692000   0.73623972   -3.3963467   -1.9594775  0.040097127   -3.3963467    1.4368692   337456 
 4693000   0.73624779   -3.3969585   -1.9599373  0.032264018   -3.3969585    1.4370212   337424 
 4694000   0.73653577   -3.3971007   -1.9595047   0.03476098   -3.3971007     1.437596   337421 
 4695000   0.73679168   -3.3958557   -1.9576792  0.038593607   -3.3958557    1.4381765   337402 
 4696000   0.73772284   -3.3980007   -1.9578871  0.034491779   -3.3980007    1.4401136   337374 
 4697000   0.73699984   -3.3954215   -1.9565615    0.0370786   -3.3954215      1.43886   337337 
 4698000   0.73758947   -3.3954889   -1.9554137  0.031210359   -3.3954889    1.4400752   337322 
 4699000   0.73674757    -3.392324   -1.9538882  0.034405056    -3.392324    1.4384357   337321 
 4700000   0.73757854   -3.3952443   -1.9549642  0.033993875   -3.3952443    1.4402802   337269 
 4701000   0.73600479   -3.3934399   -1.9562797  0.030552232   -3.3934399    1.4371602   337280 
 4702000   0.73719652   -3.3932412   -1.9537326  0.035554095   -3.3932412    1.4395086   337275 
 4703000   0.73720773   -3.3933435   -1.9537106  0.034969535   -3.3933435    1.4396329   337251 
 4704000   0.73773535   -3.3922926   -1.9516251  0.034896838   -3.3922926    1.4406675   337250 
 4705000   0.73793091   -3.3924856   -1.9512353  0.037892809   -3.3924856    1.4412503   337203 
 4706000   0.73783853   -3.3928591    -1.951584  0.039723723   -3.3928591     1.441275   337155 
 4707000   0.73676221   -3.3904538   -1.9509525  0.036988378   -3.3904538    1.4395013   337078 
 4708000   0.73648649   -3.3900631   -1.9510663  0.039508087   -3.3900631    1.4389968   337070 
 4709000   0.73604784   -3.3909024    -1.952511  0.037081703   -3.3909024    1.4383915   337011 
 4710000   0.73615315   -3.3904884   -1.9516392  0.036494929   -3.3904884    1.4388492   336952 
 4711000   0.73658588   -3.3929834   -1.9533311  0.032974707   -3.3929834    1.4396522   336962 
 4712000   0.73692697     -3.39054   -1.9501869  0.034167567     -3.39054    1.4403531   336954 
 4713000   0.73761802   -3.3920812   -1.9503689  0.036886851   -3.3920812    1.4417123   336952 
 4714000   0.73542787   -3.3871364   -1.9495128  0.039864152   -3.3871364    1.4376236   336907 
 4715000   0.73573605   -3.3906303   -1.9520755  0.031414641   -3.3906303    1.4385548   336830 
 4716000   0.73633652   -3.3911989   -1.9513461  0.034674562   -3.3911989    1.4398528   336801 
 4717000   0.73555582   -3.3916159   -1.9529907  0.034837852   -3.3916159    1.4386252   336731 
 4718000   0.73536841   -3.3897676   -1.9512739  0.034277795   -3.3897676    1.4384936   336676 
 4719000   0.73479109   -3.3905723    -1.952845  0.032592243   -3.3905723    1.4377273   336591 
 4720000   0.73325618   -3.3911693   -1.9561639  0.034708797   -3.3911693    1.4350054   336525 
 4721000   0.73380743   -3.3914506   -1.9554219  0.031030273   -3.3914506    1.4360287   336538 
 4722000   0.73369522   -3.3909369   -1.9549827  0.031259215   -3.3909369    1.4359542   336504 
 4723000   0.73534585   -3.3913417     -1.95205  0.034804504   -3.3913417    1.4392917   336479 
 4724000   0.73604823   -3.3936698   -1.9530291  0.033581257   -3.3936698    1.4406408   336485 
 4725000   0.73470145   -3.3921387    -1.953839  0.037154082   -3.3921387    1.4382997   336416 
 4726000   0.73500362   -3.3922304   -1.9531723  0.034312806   -3.3922304    1.4390581   336377 
 4727000    0.7347989   -3.3919638   -1.9529044  0.035594047   -3.3919638    1.4390594   336283 
 4728000   0.73615122   -3.3940673    -1.952085  0.035804501   -3.3940673    1.4419822   336219 
 4729000   0.73487212   -3.3923781   -1.9529271   0.03848013   -3.3923781     1.439451   336225 
 4730000   0.73613296   -3.3949749   -1.9528955  0.035175115   -3.3949749    1.4420794   336188 
 4731000   0.73660084   -3.3968925   -1.9535143  0.036092199   -3.3968925    1.4433781   336099 
 4732000   0.73460163    -3.392504   -1.9529106  0.037690771    -3.392504    1.4395934   336068 
 4733000   0.73339441   -3.3897397   -1.9522425  0.036514491   -3.3897397    1.4374971   336005 
 4734000   0.73495682   -3.3929224   -1.9521313   0.03677872   -3.3929224    1.4407911   335951 
 4735000   0.73285514   -3.3906895   -1.9536634  0.038734853   -3.3906895    1.4370261   335868 
 4736000   0.73434525   -3.3921334   -1.9521168  0.034703047   -3.3921334    1.4400166   335852 
 4737000   0.73440792   -3.3942365   -1.9537625  0.034016445   -3.3942365     1.440474   335774 
 4738000     0.734892   -3.3926958   -1.9512122     0.033906   -3.3926958    1.4414836   335760 
 4739000   0.73493552   -3.3928292   -1.9511787    0.0376195   -3.3928292    1.4416505   335741 
 4740000    0.7344268   -3.3903878   -1.9497138  0.030916076   -3.3903878    1.4406741   335736 
 4741000    0.7330828   -3.3869251   -1.9486905   0.03538127   -3.3869251    1.4382347   335690 
 4742000   0.73195429   -3.3879911   -1.9517609  0.029675764   -3.3879911    1.4362303   335641 
 4743000   0.72928641   -3.3851567   -1.9538542  0.036772045   -3.3851567    1.4313025   335569 
 4744000    0.7336737   -3.3925126   -1.9524452  0.032674385   -3.3925126    1.4400675   335533 
 4745000   0.73239291   -3.3910175   -1.9531468  0.030368842   -3.3910175    1.4378706   335459 
 4746000   0.73237566   -3.3896278   -1.9517096  0.030360814   -3.3896278    1.4379182   335440 
 4747000   0.73302012    -3.390147   -1.9507404  0.037642467    -3.390147    1.4394067   335388 
 4748000   0.73235511   -3.3898595   -1.9517201  0.035103317   -3.3898595    1.4381394   335379 
 4749000   0.73306219   -3.3907525   -1.9508339  0.036368366   -3.3907525    1.4399186   335288 
 4750000   0.73285072   -3.3899502   -1.9503912  0.035280808   -3.3899502     1.439559   335275 
 4751000   0.73135597   -3.3869263   -1.9500463  0.031990506   -3.3869263      1.43688   335215 
 4752000   0.73273687   -3.3904601    -1.950575  0.031113768   -3.3904601    1.4398851   335147 
 4753000   0.73165024   -3.3890659   -1.9511188  0.031837529   -3.3890659    1.4379472   335101 
 4754000    0.7312042   -3.3881096   -1.9507603  0.030275642   -3.3881096    1.4373493   335036 
 4755000   0.73102714   -3.3876358     -1.95039  0.036972797   -3.3876358    1.4372458   334979 
 4756000   0.73084196   -3.3881253   -1.9511406  0.033192401   -3.3881253    1.4369847   334955 
 4757000   0.73137499   -3.3901019   -1.9517257  0.035292903   -3.3901019    1.4383763   334875 
 4758000   0.73048655   -3.3892976   -1.9524455  0.034403906   -3.3892976    1.4368521   334823 
 4759000   0.72985983   -3.3894673   -1.9536292  0.031404517   -3.3894673    1.4358381   334772 
 4760000   0.72883102   -3.3884795   -1.9544855  0.031240481   -3.3884795     1.433994   334730 
 4761000   0.73070428   -3.3916743   -1.9539559  0.030230704   -3.3916743    1.4377184   334721 
 4762000    0.7302372   -3.3897772   -1.9530465  0.032764118   -3.3897772    1.4367307   334737 
 4763000   0.73111903   -3.3911225   -1.9525279  0.030521713   -3.3911225    1.4385946   334707 
 4764000    0.7311236   -3.3922199   -1.9536034  0.035535596   -3.3922199    1.4386165   334704 
 4765000   0.73159184   -3.3929588   -1.9533306   0.03544165   -3.3929588    1.4396282   334683 
 4766000   0.73127732   -3.3902465    -1.950734   0.03894978   -3.3902465    1.4395125   334566 
 4767000   0.73067269   -3.3905498   -1.9521674  0.039314993   -3.3905498    1.4383825   334552 
 4768000   0.72999536   -3.3874246   -1.9503798   0.03956897   -3.3874246    1.4370448   334553 
 4769000   0.73030343   -3.3900228   -1.9521695  0.039660998   -3.3900228    1.4378532   334506 
 4770000   0.73015018   -3.3897471   -1.9522987  0.036279582   -3.3897471    1.4374484   334530 
 4771000    0.7310699   -3.3915345     -1.95197  0.034416932   -3.3915345    1.4395646   334459 
 4772000   0.72977584   -3.3893991   -1.9522451  0.034604924   -3.3893991    1.4371539   334427 
 4773000   0.72827881   -3.3888692   -1.9544232  0.035119432   -3.3888692     1.434446   334371 
 4774000   0.73064114   -3.3928309   -1.9535254   0.03507671   -3.3928309    1.4393055   334323 
 4775000    0.7296965   -3.3910108   -1.9533554  0.031022761   -3.3910108    1.4376554   334274 
 4776000   0.72990677   -3.3908573   -1.9523703  0.034603688   -3.3908573    1.4384871   334177 
 4777000   0.72990446   -3.3916252   -1.9530953  0.036201383   -3.3916252    1.4385299   334166 
 4778000   0.72976063   -3.3912074   -1.9528706  0.037663969   -3.3912074    1.4383368   334145 
 4779000   0.72856922    -3.388696   -1.9524538  0.035376664    -3.388696    1.4362422   334086 
 4780000   0.72883835   -3.3900262   -1.9532492  0.033816708   -3.3900262     1.436777   334085 
 4781000   0.72806254   -3.3875124   -1.9520843  0.031501685   -3.3875124    1.4354281   334043 
 4782000   0.72857798   -3.3889803   -1.9523382  0.031846422   -3.3889803    1.4366422   333997 
 4783000   0.72891966   -3.3878282   -1.9502626  0.032155362   -3.3878282    1.4375655   333939 
 4784000   0.72690404   -3.3855452   -1.9519076  0.035859833   -3.3855452    1.4336376   333928 
 4785000   0.72956144   -3.3896656   -1.9505758  0.030910659   -3.3896656    1.4390898   333879 
 4786000   0.73004941   -3.3905437   -1.9502973    0.0281915   -3.3905437    1.4402465   333834 
 4787000   0.72955741   -3.3886382   -1.9494227  0.037455972   -3.3886382    1.4392155   333848 
 4788000   0.72801039   -3.3862675   -1.9498845  0.032890554   -3.3862675    1.4363831   333797 
 4789000    0.7285913    -3.388519   -1.9505763   0.03558707    -3.388519    1.4379428   333701 
 4790000   0.72923327   -3.3894551   -1.9503833  0.033300842   -3.3894551    1.4390718   333733 
 4791000   0.72974028   -3.3914004   -1.9512547  0.029708862   -3.3914004    1.4401457   333716 
 4792000   0.72750599   -3.3867052   -1.9508312  0.032920839   -3.3867052     1.435874   333684 
 4793000   0.72861522   -3.3881342   -1.9499244  0.031319629   -3.3881342    1.4382098   333650 
 4794000   0.72917446   -3.3897581   -1.9503279  0.036729781   -3.3897581    1.4394302   333623 
 4795000    0.7274824   -3.3854753   -1.9492734   0.03720789   -3.3854753    1.4362019   333597 
 4796000   0.72920658   -3.3881537   -1.9484314  0.037210949   -3.3881537    1.4397223   333570 
 4797000   0.72860232   -3.3874628   -1.9488991  0.032913039   -3.3874628    1.4385637   333562 
 4798000   0.72851141   -3.3860056   -1.9474488  0.034330831   -3.3860056    1.4385568   333522 
 4799000   0.72804468   -3.3867339    -1.948866   0.03210907   -3.3867339    1.4378679   333468 
 4800000   0.72718656   -3.3833941   -1.9470917   0.03230601   -3.3833941    1.4363024   333438 
 4801000   0.72679414   -3.3829882    -1.947138  0.035206027   -3.3829882    1.4358503   333363 
 4802000   0.72687536   -3.3832435   -1.9471553   0.03351406   -3.3832435    1.4360883   333345 
 4803000   0.72780948   -3.3836986   -1.9456785  0.036040368   -3.3836986    1.4380201   333325 
 4804000   0.72958941   -3.3857065   -1.9440701  0.034581111   -3.3857065    1.4416364   333302 
 4805000    0.7279069   -3.3843964   -1.9456356  0.032238499   -3.3843964    1.4387608   333198 
 4806000   0.72809424   -3.3839009    -1.944718  0.036868347   -3.3839009    1.4391829   333186 
 4807000   0.72648273   -3.3819476   -1.9458941  0.034591386   -3.3819476    1.4360535   333173 
 4808000   0.72644186   -3.3824825   -1.9461433  0.034225722   -3.3824825    1.4363392   333088 
 4809000   0.72606426   -3.3818035   -1.9458746   0.03479031   -3.3818035    1.4359288   333010 
 4810000   0.72408431   -3.3775045   -1.9456204  0.036062081   -3.3775045    1.4318841   333040 
 4811000   0.72646823   -3.3801955   -1.9433988  0.028617323   -3.3801955    1.4367968   332994 
 4812000   0.72641735   -3.3819647   -1.9448197  0.034779872   -3.3819647     1.437145   332890 
 4813000   0.72727449   -3.3829499   -1.9439275   0.03463818   -3.3829499    1.4390223   332848 
 4814000   0.72602909   -3.3810392   -1.9440667  0.031704627   -3.3810392    1.4369726   332752 
 4815000   0.72599018   -3.3820182   -1.9448031  0.037364946   -3.3820182    1.4372152   332678 
 4816000    0.7243529    -3.378677   -1.9446514  0.032877742    -3.378677    1.4340257   332666 
 4817000   0.72612095   -3.3831846   -1.9453778  0.033696749   -3.3831846    1.4378068   332601 
 4818000   0.72579733   -3.3821472   -1.9447002  0.031874336   -3.3821472     1.437447   332536 
 4819000   0.72586727   -3.3820968   -1.9444291  0.030077399   -3.3820968    1.4376676   332517 
 4820000   0.72584779   -3.3831979   -1.9453354  0.034931853   -3.3831979    1.4378625   332463 
 4821000   0.72688163   -3.3850531   -1.9448307  0.035112609   -3.3850531    1.4402224   332391 
 4822000   0.72542665   -3.3818942   -1.9446367  0.037196004   -3.3818942    1.4372574   332410 
 4823000   0.72574869   -3.3825269   -1.9445016  0.036925845   -3.3825269    1.4380252   332380 
 4824000    0.7241836   -3.3806493   -1.9455827  0.035940718   -3.3806493    1.4350666   332347 
 4825000   0.72369895   -3.3816722   -1.9472423  0.028971521   -3.3816722    1.4344299   332272 
 4826000   0.72287402   -3.3796901   -1.9468694  0.036175049   -3.3796901    1.4328207   332266 
 4827000   0.72365187   -3.3825751   -1.9479449  0.030387067   -3.3825751    1.4346302   332204 
 4828000   0.72363475   -3.3819195   -1.9472844  0.035197188   -3.3819195    1.4346351   332195 
 4829000   0.72346138   -3.3826861   -1.9480708  0.033351567   -3.3826861    1.4346153   332120 
 4830000   0.72377662   -3.3839062   -1.9485059  0.032089371   -3.3839062    1.4354003   332083 
 4831000   0.72429334   -3.3851772   -1.9487002  0.036819682   -3.3851772     1.436477   332071 
 4832000   0.72495843   -3.3862429    -1.948109  0.031013974   -3.3862429    1.4381339   331993 
 4833000   0.72570984   -3.3880439   -1.9480941  0.034561958   -3.3880439    1.4399498   331918 
 4834000   0.72383955   -3.3853326   -1.9490636  0.033314389   -3.3853326     1.436269   331911 
 4835000   0.72379507   -3.3860403   -1.9498206  0.027561076   -3.3860403    1.4362197   331902 
 4836000   0.72481356   -3.3876217   -1.9492336  0.036214034   -3.3876217     1.438388   331868 
 4837000   0.72383829   -3.3858046      -1.9493  0.033137165   -3.3858046    1.4365046   331856 
 4838000   0.72401691   -3.3861325   -1.9490396  0.034745616   -3.3861325    1.4370929   331802 
 4839000   0.72445712   -3.3868074     -1.94865  0.039460217   -3.3868074    1.4381574   331758 
 4840000   0.72449957    -3.386374   -1.9480109  0.041024872    -3.386374     1.438363   331730 
 4841000   0.72449486    -3.387198   -1.9489137  0.036740979    -3.387198    1.4382843   331746 
 4842000   0.72475173   -3.3879908   -1.9490013  0.034012678   -3.3879908    1.4389895   331701 
 4843000   0.72306886   -3.3869604   -1.9509443  0.031396605   -3.3869604    1.4360161   331616 
 4844000    0.7220406    -3.384695   -1.9506215  0.037853162    -3.384695    1.4340735   331593 
 4845000   0.72262393   -3.3847539   -1.9493921  0.034199277   -3.3847539    1.4353619   331563 
 4846000   0.72232124   -3.3829801   -1.9480939  0.042167153   -3.3829801    1.4348862   331534 
 4847000    0.7237999   -3.3848439   -1.9468686  0.034155947   -3.3848439    1.4379753   331499 
 4848000   0.72329344   -3.3849468   -1.9477783  0.039528537   -3.3849468    1.4371685   331453 
 4849000   0.72297968   -3.3840258   -1.9473636  0.037083775   -3.3840258    1.4366621   331426 
 4850000    0.7236583   -3.3857123   -1.9476409  0.030601006   -3.3857123    1.4380714   331412 
 4851000   0.72353099   -3.3846529   -1.9468171  0.029274918   -3.3846529    1.4378358   331408 
 4852000   0.72449275   -3.3865484   -1.9466233   0.02895757   -3.3865484    1.4399252   331367 
 4853000   0.72113743   -3.3813753   -1.9479718  0.035277057   -3.3813753    1.4334035   331333 
 4854000   0.72134082   -3.3822111   -1.9481955  0.035070458   -3.3822111    1.4340156   331285 
 4855000   0.72110509   -3.3813388   -1.9474023    0.0333893   -3.3813388    1.4339365   331195 
 4856000   0.72096672   -3.3803749   -1.9465274  0.028910127   -3.3803749    1.4338475   331152 
 4857000   0.72088318   -3.3802136   -1.9462724  0.037236932   -3.3802136    1.4339412   331092 
 4858000   0.72280267   -3.3819016   -1.9439773  0.035162692   -3.3819016    1.4379244   331054 
 4859000   0.72155417   -3.3797796   -1.9440874  0.032757096   -3.3797796    1.4356922   330996 
 4860000   0.72281497   -3.3826723   -1.9443368  0.034543777   -3.3826723    1.4383355   330965 
 4861000   0.72281175    -3.382558   -1.9438768  0.037032176    -3.382558    1.4386812   330884 
 4862000   0.72252249   -3.3838022   -1.9452576  0.034262144   -3.3838022    1.4385446   330783 
 4863000   0.72211825   -3.3834991    -1.945716  0.029812524   -3.3834991    1.4377832   330773 
 4864000   0.72114566   -3.3823025   -1.9460954  0.033705352   -3.3823025    1.4362071   330690 
 4865000   0.72201055   -3.3833352   -1.9452187   0.03383199   -3.3833352    1.4381166   330647 
 4866000   0.72139972   -3.3819428   -1.9449343  0.031852495   -3.3819428    1.4370086   330622 
 4867000   0.72090095   -3.3801901   -1.9441837  0.033233114   -3.3801901    1.4360063   330624 
 4868000   0.72228571   -3.3818408   -1.9429934  0.032092798   -3.3818408    1.4388474   330605 
 4869000   0.72255863   -3.3826586   -1.9430846  0.035176848   -3.3826586     1.439574   330563 
 4870000   0.72245836   -3.3828505    -1.943398  0.033684086   -3.3828505    1.4394526   330545 
 4871000   0.72016516   -3.3795432   -1.9446467  0.037469062   -3.3795432    1.4348965   330542 
 4872000   0.72116811    -3.378575   -1.9417584  0.036061924    -3.378575    1.4368166   330560 
 4873000   0.72224075   -3.3800456   -1.9412007  0.034401099   -3.3800456    1.4388449   330585 
 4874000   0.72157473   -3.3801405   -1.9425268   0.03308994   -3.3801405    1.4376137   330563 
 4875000   0.72086831   -3.3783967   -1.9421036   0.03357058   -3.3783967    1.4362932   330543 
 4876000   0.72136698   -3.3803098   -1.9428534  0.031794413   -3.3803098    1.4374564   330504 
 4877000    0.7224305   -3.3806094   -1.9408813  0.028620948   -3.3806094    1.4397281   330469 
 4878000   0.72203925   -3.3783971    -1.939379  0.035707094   -3.3783971     1.439018   330453 
 4879000   0.72204463   -3.3803645   -1.9412181  0.035281817   -3.3803645    1.4391463   330426 
 4880000   0.72283328   -3.3806243   -1.9396924  0.035905832   -3.3806243    1.4409319   330377 
 4881000   0.72326561   -3.3799452   -1.9380292  0.035962434   -3.3799452     1.441916   330349 
 4882000   0.72295764   -3.3787274    -1.937325  0.033532634   -3.3787274    1.4414023   330326 
 4883000    0.7226473   -3.3800527   -1.9392212  0.036787108   -3.3800527    1.4408316   330315 
 4884000   0.72136816   -3.3756085    -1.937275  0.035548374   -3.3756085    1.4383335   330303 
 4885000   0.72254251   -3.3778962   -1.9368984  0.034342057   -3.3778962    1.4409978   330229 
 4886000   0.72123429   -3.3751244   -1.9366572  0.036047027   -3.3751244    1.4384672   330211 
 4887000   0.72153744   -3.3763254   -1.9372013  0.034931993   -3.3763254    1.4391241   330199 
 4888000   0.72062586   -3.3760838   -1.9386299  0.038769527   -3.3760838    1.4374539   330165 
 4889000   0.72040725   -3.3745221   -1.9372212  0.034987815   -3.3745221    1.4373009   330100 
 4890000   0.72198179   -3.3752336   -1.9345905   0.04093147   -3.3752336     1.440643   330054 
 4891000   0.72113002   -3.3742153   -1.9350932  0.033590827   -3.3742153    1.4391222   330013 
 4892000    0.7219516   -3.3743469   -1.9335066  0.038730793   -3.3743469    1.4408403   329995 
 4893000   0.72001702   -3.3735133   -1.9364338  0.034802967   -3.3735133    1.4370795   329972 
 4894000   0.72096605    -3.375066   -1.9360356  0.037065492    -3.375066    1.4390304   329959 
 4895000   0.71980482   -3.3727826   -1.9359306  0.034178007   -3.3727826     1.436852   329927 
 4896000   0.71973155   -3.3721386   -1.9353501  0.034039439   -3.3721386    1.4367884   329908 
 4897000   0.72015919   -3.3718777   -1.9341441  0.033281015   -3.3718777    1.4377336   329887 
 4898000   0.72085459   -3.3744723   -1.9351234  0.032782983   -3.3744723    1.4393488   329835 
 4899000   0.72070661   -3.3747943   -1.9356712  0.033056548   -3.3747943    1.4391232   329819 
 4900000   0.72153479   -3.3764185   -1.9354931  0.034303002   -3.3764185    1.4409255   329785 
 4901000   0.72013334   -3.3737094   -1.9352468  0.035246879   -3.3737094    1.4384626   329708 
 4902000   0.71986865    -3.372569    -1.934561  0.034125693    -3.372569     1.438008   329691 
 4903000   0.71966503   -3.3708425   -1.9329665   0.03368848   -3.3708425     1.437876   329628 
 4904000   0.71996497   -3.3730037   -1.9343495  0.035264185   -3.3730037    1.4386542   329587 
 4905000   0.72078745   -3.3752621   -1.9347852  0.034746017   -3.3752621    1.4404769   329546 
 4906000   0.72102333   -3.3743657   -1.9333474  0.037386767   -3.3743657    1.4410183   329530 
 4907000   0.72060593   -3.3746376   -1.9343486  0.036864672   -3.3746376     1.440289   329506 
 4908000   0.71938344   -3.3725606   -1.9345011  0.040224683   -3.3725606    1.4380594   329457 
 4909000   0.72151158   -3.3760062   -1.9334211  0.037639239   -3.3760062    1.4425851   329395 
 4910000   0.71957361    -3.374951   -1.9360092  0.030591407    -3.374951    1.4389418   329342 
 4911000   0.71916078   -3.3741983   -1.9357675  0.032343443   -3.3741983    1.4384308   329270 
 4912000   0.72011008    -3.376577   -1.9359981  0.034049942    -3.376577    1.4405789   329213 
 4913000   0.71903756   -3.3748515   -1.9361997  0.038767746   -3.3748515    1.4386518   329163 
 4914000   0.71987898   -3.3759591   -1.9351773  0.033959499   -3.3759591    1.4407818   329061 
 4915000   0.72042707   -3.3756199   -1.9338682  0.033825142   -3.3756199    1.4417517   329090 
 4916000   0.71965737   -3.3753753   -1.9349539  0.038143266   -3.3753753    1.4404214   329042 
 4917000     0.720021   -3.3759614   -1.9347552  0.035050023   -3.3759614    1.4412062   329029 
 4918000   0.71965762   -3.3743211   -1.9336933   0.03784074   -3.3743211    1.4406277   328995 
 4919000   0.71901653   -3.3736195   -1.9341483  0.035983985   -3.3736195    1.4394712   328966 
 4920000   0.71881031   -3.3733871   -1.9342281  0.037261771   -3.3733871     1.439159   328943 
 4921000   0.71987224   -3.3769148   -1.9353273  0.032669769   -3.3769148    1.4415875   328874 
 4922000   0.71838442   -3.3743905   -1.9357912  0.033960375   -3.3743905    1.4385993   328876 
 4923000   0.71843983   -3.3743493    -1.935569  0.035708274   -3.3743493    1.4387803   328860 
 4924000   0.71946587   -3.3766694   -1.9357292  0.031696274   -3.3766694    1.4409402   328836 
 4925000   0.71706761   -3.3725831   -1.9359917  0.033640641   -3.3725831    1.4365914   328732 
 4926000   0.71717963   -3.3746016   -1.9374229  0.037692964   -3.3746016    1.4371787   328649 
 4927000   0.71928492   -3.3769481   -1.9354628  0.035925812   -3.3769481    1.4414853   328629 
 4928000   0.71703325    -3.372834   -1.9356294  0.034605352    -3.372834    1.4372046   328576 
 4929000   0.71717871   -3.3724062   -1.9346826  0.038307743   -3.3724062    1.4377237   328524 
 4930000   0.71839555   -3.3749537   -1.9346153  0.035035662   -3.3749537    1.4403384   328484 
 4931000   0.71720328   -3.3718161   -1.9337893  0.033805657   -3.3718161    1.4380268   328466 
 4932000   0.71769124    -3.370825   -1.9316358  0.037181573    -3.370825    1.4391892   328424 
 4933000   0.71731253   -3.3723699   -1.9336554  0.036682927   -3.3723699    1.4387145   328359 
 4934000   0.71724938    -3.372805   -1.9340331  0.039836614    -3.372805    1.4387719   328317 
 4935000   0.71911136   -3.3766795   -1.9340056  0.036702583   -3.3766795    1.4426739   328279 
 4936000   0.71659475   -3.3735854   -1.9356668  0.035066609   -3.3735854    1.4379186   328212 
 4937000   0.71786071   -3.3769935   -1.9362362  0.036342087   -3.3769935    1.4407574   328144 
 4938000   0.71562995   -3.3744568   -1.9379972  0.033281889   -3.3744568    1.4364597   328103 
 4939000    0.7161327   -3.3764789   -1.9387603  0.030657159   -3.3764789    1.4377186   328046 
 4940000   0.71437331   -3.3745839   -1.9401657  0.028919816   -3.3745839    1.4344182   327993 
 4941000   0.71597502   -3.3767553   -1.9388667  0.032792316   -3.3767553    1.4378886   327935 
 4942000   0.71692692   -3.3784575   -1.9386529  0.033382019   -3.3784575    1.4398047   327934 
 4943000   0.71689788   -3.3774427   -1.9376173  0.035453441   -3.3774427    1.4398254   327916 
 4944000   0.71628192   -3.3752927   -1.9364806  0.033433745   -3.3752927     1.438812   327865 
 4945000   0.71721451   -3.3765843   -1.9357012  0.038024271   -3.3765843    1.4408831   327820 
 4946000    0.7176696   -3.3779738   -1.9359389  0.037682127   -3.3779738    1.4420349   327766 
 4947000   0.71718239   -3.3770267   -1.9357949  0.034756985   -3.3770267    1.4412319   327726 
 4948000   0.71680686   -3.3748227   -1.9342092  0.033258303   -3.3748227    1.4406135   327695 
 4949000   0.71581262   -3.3735171   -1.9347218  0.037289568   -3.3735171    1.4387953   327654 
 4950000   0.71614781    -3.374133   -1.9344135  0.039497073    -3.374133    1.4397195   327597 
 4951000   0.71585733   -3.3759177   -1.9364043  0.036196221   -3.3759177    1.4395134   327511 
 4952000   0.71617367   -3.3766881   -1.9362922  0.034915205   -3.3766881    1.4403958   327455 
 4953000   0.71732995   -3.3787722   -1.9356542  0.031229228   -3.3787722     1.443118   327365 
 4954000   0.71588686    -3.375559   -1.9352562  0.034680713    -3.375559    1.4403028   327345 
 4955000   0.71439642   -3.3725571   -1.9351607   0.03168442   -3.3725571    1.4373964   327324 
 4956000   0.71479314   -3.3725725   -1.9342328  0.036416979   -3.3725725    1.4383396   327291 
 4957000   0.71552606   -3.3718131   -1.9317742   0.03376715   -3.3718131    1.4400388   327240 
 4958000   0.71590902   -3.3728949   -1.9319753  0.031861942   -3.3728949    1.4409196   327215 
 4959000   0.71509919   -3.3723289   -1.9328236  0.035797588   -3.3723289    1.4395053   327166 
 4960000   0.71513932   -3.3723623   -1.9323933  0.033483337   -3.3723623     1.439969   327079 
 4961000   0.71438353   -3.3721361   -1.9336011  0.034344532   -3.3721361    1.4385351   327059 
 4962000   0.71525921   -3.3733901   -1.9328582  0.035174104   -3.3733901    1.4405319   327006 
 4963000   0.71427244   -3.3733064   -1.9346651  0.033517753   -3.3733064    1.4386413   326984 
 4964000   0.71343651   -3.3712003   -1.9340185  0.040795929   -3.3712003    1.4371818   326933 
 4965000   0.71305382   -3.3713152   -1.9347769  0.031849023   -3.3713152    1.4365383   326904 
 4966000   0.71230994   -3.3701358   -1.9349337  0.032021379   -3.3701358    1.4352021   326867 
 4967000   0.71283098   -3.3723105   -1.9359487  0.032185239   -3.3723105    1.4363618   326842 
 4968000   0.71101926   -3.3691051   -1.9361265  0.042289578   -3.3691051    1.4329786   326781 
 4969000   0.71319671   -3.3732105   -1.9356675  0.031506531   -3.3732105    1.4375429   326741 
 4970000   0.71411183   -3.3742658   -1.9346888  0.035122489   -3.3742658    1.4395769   326698 
 4971000   0.71425156    -3.373244   -1.9333589  0.036335611    -3.373244    1.4398851   326692 
 4972000   0.71526233   -3.3761366   -1.9340726  0.038072285   -3.3761366     1.442064   326660 
 4973000   0.71457624   -3.3750047   -1.9340461  0.035082996   -3.3750047    1.4409586   326597 
 4974000   0.71386778   -3.3727076   -1.9330101  0.035207093   -3.3727076    1.4396975   326559 
 4975000     0.715809   -3.3760229   -1.9324413  0.033457548   -3.3760229    1.4435815   326566 
 4976000   0.71439394   -3.3738664   -1.9330063  0.036740105   -3.3738664    1.4408601   326536 
 4977000   0.71325165   -3.3714087   -1.9328348  0.036023637   -3.3714087    1.4385739   326532 
 4978000   0.71400902   -3.3721492   -1.9318007   0.03564409   -3.3721492    1.4403485   326476 
 4979000   0.71490776   -3.3746919   -1.9321106   0.03560616   -3.3746919    1.4425812   326381 
 4980000   0.71454994   -3.3730436   -1.9310607  0.035487888   -3.3730436    1.4419829   326353 
 4981000   0.71194846   -3.3677965   -1.9308477  0.038565698   -3.3677965    1.4369488   326304 
 4982000   0.71183347   -3.3702215   -1.9334387  0.034215915   -3.3702215    1.4367827   326289 
 4983000   0.71267381   -3.3716172   -1.9329178  0.037681753   -3.3716172    1.4386994   326239 
 4984000   0.71284143   -3.3720233   -1.9327208  0.033265693   -3.3720233    1.4393025   326179 
 4985000   0.71230211    -3.370285   -1.9318995  0.038264132    -3.370285    1.4383855   326140 
 4986000   0.71249507   -3.3704848   -1.9315155  0.032476072   -3.3704848    1.4389693   326096 
 4987000    0.7097585   -3.3663185   -1.9326167  0.032299022   -3.3663185    1.4337019   326037 
 4988000   0.71151435   -3.3697652   -1.9324637  0.032255999   -3.3697652    1.4373015   326025 
 4989000   0.71156924   -3.3693052   -1.9317385  0.039364581   -3.3693052    1.4375667   325990 
 4990000   0.71118588   -3.3675848   -1.9304399  0.033621975   -3.3675848     1.437145   325910 
 4991000   0.71202361   -3.3707676   -1.9317444  0.035973867   -3.3707676    1.4390233   325868 
 4992000   0.71055476   -3.3690593   -1.9330222  0.035461457   -3.3690593     1.436037   325872 
 4993000   0.71107977   -3.3704157   -1.9331765  0.033089195   -3.3704157    1.4372392   325840 
 4994000    0.7107482   -3.3700747   -1.9332191  0.037131124   -3.3700747    1.4368557   325775 
 4995000   0.70979505   -3.3678046   -1.9327305  0.035353948   -3.3678046    1.4350741   325742 
 4996000    0.7101003   -3.3683623   -1.9325079  0.034035795   -3.3683623    1.4358544   325705 
 4997000   0.71147701   -3.3704989   -1.9315117  0.035134684   -3.3704989    1.4389872   325626 
 4998000   0.70998731   -3.3690776   -1.9328608  0.037030918   -3.3690776    1.4362168   325571 
 4999000   0.71105188   -3.3713999   -1.9328794  0.038461425   -3.3713999    1.4385205   325537 
 5000000   0.71151531   -3.3736138   -1.9338019  0.035371485   -3.3736138    1.4398119   325457 
 5001000   0.71073182   -3.3727679   -1.9344044  0.037696001   -3.3727679    1.4383635   325426 
 5002000   0.71287637   -3.3751853   -1.9320915  0.035475571   -3.3751853    1.4430938   325338 
 5003000   0.70994205   -3.3706819   -1.9333161  0.035863757   -3.3706819    1.4373658   325290 
 5004000   0.71106626   -3.3727388   -1.9328666  0.032336824   -3.3727388    1.4398721   325238 
 5005000   0.71068493   -3.3748323   -1.9354579  0.039603069   -3.3748323    1.4393743   325176 
 5006000   0.71002114   -3.3719584   -1.9338533  0.039179657   -3.3719584    1.4381051   325159 
 5007000    0.7096806   -3.3736395     -1.93572  0.033289021   -3.3736395    1.4379195   325045 
 5008000   0.70894642   -3.3717481   -1.9352013  0.031852929   -3.3717481    1.4365469   325019 
 5009000   0.70806943   -3.3708567   -1.9357557  0.032344497   -3.3708567     1.435101   324944 
 5010000   0.70806472   -3.3725097    -1.937277  0.037506037   -3.3725097    1.4352327   324912 
 5011000   0.70889214    -3.373463   -1.9362921  0.035311328    -3.373463    1.4371709   324853 
 5012000   0.70844191   -3.3743962   -1.9378683  0.034331189   -3.3743962    1.4365279   324792 
 5013000   0.70857735    -3.371662   -1.9349259  0.034066742    -3.371662    1.4367361   324807 
 5014000   0.70909172   -3.3726643   -1.9349737  0.033542225   -3.3726643    1.4376906   324827 
 5015000   0.70849755   -3.3721999   -1.9355946  0.030115382   -3.3721999    1.4366053   324800 
 5016000   0.70849786   -3.3701861   -1.9334784  0.034895422   -3.3701861    1.4367077   324777 
 5017000   0.71025707   -3.3731025   -1.9327343  0.034019026   -3.3731025    1.4403682   324756 
 5018000   0.70834535   -3.3717064   -1.9350735  0.033343499   -3.3717064    1.4366328   324724 
 5019000   0.70909346   -3.3738406   -1.9353626  0.031702709   -3.3738406    1.4384779   324650 
 5020000   0.70937721   -3.3729866   -1.9338843  0.036594184   -3.3729866    1.4391023   324639 
 5021000    0.7084531   -3.3723437   -1.9349169  0.032384074   -3.3723437    1.4374268   324594 
 5022000   0.70822659    -3.370661   -1.9335831  0.034604942    -3.370661    1.4370779   324569 
 5023000   0.70866633   -3.3713499   -1.9332822  0.040082168   -3.3713499    1.4380677   324547 
 5024000   0.71006726   -3.3741855   -1.9329152  0.037182633   -3.3741855    1.4412703   324466 
 5025000   0.70944014   -3.3721049   -1.9317968  0.035011731   -3.3721049    1.4403081   324396 
 5026000   0.70894484   -3.3711362   -1.9318691  0.033853992   -3.3711362     1.439267   324404 
 5027000   0.70894876   -3.3737349   -1.9343357  0.030440907   -3.3737349    1.4393992   324376 
 5028000   0.70765998   -3.3689124   -1.9320147  0.040380948   -3.3689124    1.4368978   324350 
 5029000   0.70842121   -3.3700768   -1.9315491  0.035301709   -3.3700768    1.4385277   324331 
 5030000   0.70767986   -3.3680269   -1.9306855  0.036372463   -3.3680269    1.4373414   324259 
 5031000   0.70854271   -3.3691602   -1.9299509  0.034809422   -3.3691602    1.4392093   324233 
 5032000   0.70636673   -3.3667403   -1.9316323  0.034433718   -3.3667403    1.4351081   324161 
 5033000   0.70663938   -3.3666182   -1.9306107  0.033407698   -3.3666182    1.4360075   324083 
 5034000   0.70751637   -3.3676383   -1.9297776  0.032086432   -3.3676383    1.4378607   324067 
 5035000   0.70679356   -3.3650189   -1.9285252   0.03235109   -3.3650189    1.4364937   324044 
 5036000   0.70707402   -3.3649643   -1.9277276  0.032462562   -3.3649643    1.4372367   324005 
 5037000    0.7054233   -3.3612768   -1.9273822  0.033795556   -3.3612768    1.4338946   324002 
 5038000   0.70693977   -3.3637776   -1.9268271  0.030923797   -3.3637776    1.4369505   324008 
 5039000   0.70749686   -3.3648991   -1.9265942  0.031626994   -3.3648991    1.4383048   323958 
 5040000    0.7084951   -3.3648845   -1.9244125  0.038388437   -3.3648845     1.440472   323927 
 5041000   0.70785266   -3.3621215   -1.9229645  0.042559034   -3.3621215     1.439157   323929 
 5042000    0.7071223   -3.3618239   -1.9240098  0.031543163   -3.3618239    1.4378141   323897 
 5043000   0.70741026   -3.3608425   -1.9220431  0.030280618   -3.3608425    1.4387994   323807 
 5044000   0.70600402   -3.3604434   -1.9243977  0.032602598   -3.3604434    1.4360457   323783 
 5045000   0.70505198   -3.3603097   -1.9258992  0.034744635   -3.3603097    1.4344105   323715 
 5046000   0.70494301   -3.3607141   -1.9263835  0.029862646   -3.3607141    1.4343305   323683 
 5047000   0.70626246   -3.3628376   -1.9254894  0.033683961   -3.3628376    1.4373483   323608 
 5048000   0.70435557   -3.3605877   -1.9268854  0.029996879   -3.3605877    1.4337023   323555 
 5049000   0.70562181   -3.3604207   -1.9239767  0.031775671   -3.3604207    1.4364439   323518 
 5050000    0.7080906   -3.3641146   -1.9225023  0.034129383   -3.3641146    1.4416123   323486 
 5051000   0.70696131   -3.3625713   -1.9232092  0.039381356   -3.3625713    1.4393621   323475 
 5052000    0.7072108   -3.3636836   -1.9237334  0.035149286   -3.3636836    1.4399502   323457 
 5053000   0.70786315   -3.3640471   -1.9225057  0.036231185   -3.3640471    1.4415414   323398 
 5054000   0.70709155    -3.361967   -1.9217699  0.035469937    -3.361967    1.4401971   323347 
 5055000   0.70567257   -3.3618491   -1.9242309  0.033252312   -3.3618491    1.4376182   323277 
 5056000    0.7047473     -3.36179   -1.9259413    0.0329572     -3.36179    1.4358487   323251 
 5057000   0.70527729   -3.3634181   -1.9264496  0.032652388   -3.3634181    1.4369685   323242 
 5058000   0.70522474   -3.3618933    -1.924774  0.029521241   -3.3618933    1.4371193   323184 
 5059000   0.70486765   -3.3627716   -1.9260732  0.029035733   -3.3627716    1.4366983   323115 
 5060000    0.7057559   -3.3618893   -1.9230866  0.035218634   -3.3618893    1.4388027   323049 
 5061000   0.70528499   -3.3634076   -1.9253112  0.038422324   -3.3634076    1.4380964   322992 
 5062000   0.70542154   -3.3642358   -1.9257496  0.033719394   -3.3642358    1.4384862   322967 
 5063000   0.70634321   -3.3630954    -1.922538  0.036007705   -3.3630954    1.4405574   322924 
 5064000   0.70602642   -3.3630659    -1.923101  0.035506237   -3.3630659    1.4399649   322912 
 5065000   0.70502808    -3.362085   -1.9238044  0.033736604    -3.362085    1.4382806   322833 
 5066000   0.70561429   -3.3626832   -1.9231353  0.032361037   -3.3626832    1.4395478   322817 
 5067000   0.70316904   -3.3592507   -1.9244337  0.033638263   -3.3592507     1.434817   322759 
 5068000    0.7040976   -3.3621176   -1.9252367  0.034933014   -3.3621176    1.4368809   322721 
 5069000    0.7044712   -3.3642895   -1.9263789  0.041067826   -3.3642895    1.4379106   322661 
 5070000   0.70438062   -3.3648274   -1.9268565   0.03424745   -3.3648274    1.4379709   322606 
 5071000   0.70457242   -3.3642396   -1.9257523  0.030549672   -3.3642396    1.4384873   322578 
 5072000   0.70480713   -3.3662775   -1.9270076  0.031584619   -3.3662775    1.4392699   322510 
 5073000   0.70246771   -3.3631384   -1.9285613  0.033402517   -3.3631384    1.4345771   322491 
 5074000   0.70329328    -3.363431   -1.9269051  0.029106465    -3.363431    1.4365259   322432 
 5075000   0.70364893   -3.3639539   -1.9264652  0.033202974   -3.3639539    1.4374886   322379 
 5076000   0.70403527   -3.3663919   -1.9278597  0.033912393   -3.3663919    1.4385322   322322 
 5077000   0.70505732   -3.3655627   -1.9248751  0.035870665   -3.3655627    1.4406876   322307 
 5078000   0.70526494   -3.3668445   -1.9255941  0.037471242   -3.3668445    1.4412505   322276 
 5079000   0.70483263   -3.3646682   -1.9242207  0.036588729   -3.3646682    1.4404475   322258 
 5080000   0.70458896   -3.3657782   -1.9255114  0.035050053   -3.3657782    1.4402668   322187 
 5081000   0.70293909   -3.3636002   -1.9266033  0.033718786   -3.3636002    1.4369969   322164 
 5082000   0.70417001   -3.3657859   -1.9260403  0.032441808   -3.3657859    1.4397456   322112 
 5083000   0.70290993   -3.3642335   -1.9269037  0.034585626   -3.3642335    1.4373299   322076 
 5084000   0.70319709   -3.3650697   -1.9268088  0.033755926   -3.3650697    1.4382609   321999 
 5085000   0.70406145   -3.3669042   -1.9267099  0.039186098   -3.3669042    1.4401943   321962 
 5086000   0.70520298   -3.3670942   -1.9244618   0.03504774   -3.3670942    1.4426324   321939 
 5087000   0.70329704   -3.3658567   -1.9270697  0.032814804   -3.3658567    1.4387871   321927 
 5088000   0.70303962   -3.3640691   -1.9257506  0.033454533   -3.3640691    1.4383185   321914 
 5089000   0.70284182   -3.3642444   -1.9261966  0.031939623   -3.3642444    1.4380478   321884 
 5090000   0.70304904   -3.3646665   -1.9260338  0.031813007   -3.3646665    1.4386327   321848 
 5091000   0.70204204   -3.3639476   -1.9273309  0.034179625   -3.3639476    1.4366168   321838 
 5092000   0.70251725   -3.3632198   -1.9253536  0.035309437   -3.3632198    1.4378662   321776 
 5093000   0.70254403   -3.3607034   -1.9230728  0.040224504   -3.3607034    1.4376306   321841 
 5094000   0.70328437   -3.3626404   -1.9231996  0.037744117   -3.3626404    1.4394408   321775 
 5095000   0.70312595   -3.3625787   -1.9231848  0.036281405   -3.3625787    1.4393939   321713 
 5096000   0.70324986   -3.3637417   -1.9241076  0.034650725   -3.3637417    1.4396341   321716 
 5097000   0.70262688   -3.3621074     -1.92361  0.036665755   -3.3621074    1.4384974   321685 
 5098000   0.70312021   -3.3632553    -1.923721  0.035993285   -3.3632553    1.4395342   321679 
 5099000   0.70125712   -3.3605754   -1.9246457   0.03454989   -3.3605754    1.4359297   321632 
 5100000   0.70160636   -3.3605578   -1.9236852  0.034930362   -3.3605578    1.4368726   321581 
 5101000   0.70281097   -3.3626911   -1.9229798  0.033989537   -3.3626911    1.4397112   321498 
 5102000   0.70296789   -3.3629877   -1.9230536  0.035128348   -3.3629877    1.4399341   321520 
 5103000   0.70267509   -3.3629181    -1.923445  0.036924203   -3.3629181    1.4394732   321489 
 5104000   0.70326533    -3.362113   -1.9212514   0.03734516    -3.362113    1.4408616   321449 
 5105000   0.70254972   -3.3616752   -1.9222619  0.030760085   -3.3616752    1.4394133   321445 
 5106000   0.70218607   -3.3608561    -1.921767    0.0355849   -3.3608561    1.4390891   321351 
 5107000   0.70225519   -3.3618622   -1.9223985  0.034492607   -3.3618622    1.4394637   321299 
 5108000   0.70293531   -3.3626554   -1.9216541  0.037873458   -3.3626554    1.4410013   321267 
 5109000   0.70205935   -3.3603752   -1.9209455  0.031796526   -3.3603752    1.4394296   321217 
 5110000   0.70081139   -3.3584444   -1.9215377  0.033336921   -3.3584444    1.4369067   321209 
 5111000   0.70067374   -3.3575109   -1.9206761   0.03526929   -3.3575109    1.4368347   321162 
 5112000   0.70074238   -3.3572323    -1.919939   0.03122447   -3.3572323    1.4372932   321091 
 5113000   0.70238709   -3.3617047   -1.9206116  0.034335543   -3.3617047    1.4410931   320996 
 5114000   0.70198601   -3.3612218   -1.9206195  0.035859865   -3.3612218    1.4406023   320922 
 5115000     0.700635   -3.3608259    -1.922678   0.03459296   -3.3608259    1.4381479   320851 
 5116000   0.70132721   -3.3614456   -1.9217422  0.042419749   -3.3614456    1.4397034   320821 
 5117000   0.70204362   -3.3622748   -1.9207502   0.03173118   -3.3622748    1.4415245   320743 
 5118000   0.70083731   -3.3607262   -1.9214946  0.035383548   -3.3607262    1.4392316   320702 
 5119000   0.70056677   -3.3589114   -1.9203207    0.0366527   -3.3589114    1.4385908   320721 
 5120000    0.7003297   -3.3591387   -1.9209092  0.028355092   -3.3591387    1.4382295   320693 
 5121000   0.70033105   -3.3606069   -1.9221189  0.034663149   -3.3606069     1.438488   320636 
 5122000   0.70003671   -3.3588577   -1.9208039  0.038564745   -3.3588577    1.4380538   320598 
 5123000   0.70177101   -3.3599732   -1.9182578  0.036108401   -3.3599732    1.4417154   320576 
 5124000   0.70305122   -3.3623927   -1.9178714  0.032432084   -3.3623927    1.4445212   320537 
 5125000    0.7021047   -3.3619777   -1.9194057  0.032383379   -3.3619777     1.442572   320538 
 5126000       0.7018   -3.3609358   -1.9189224  0.037045487   -3.3609358    1.4420134   320523 
 5127000   0.70045173   -3.3586746   -1.9192519  0.033931782   -3.3586746    1.4394227   320483 
 5128000   0.70164248   -3.3602488   -1.9181991  0.031546352   -3.3602488    1.4420497   320443 
 5129000   0.69938015   -3.3566524   -1.9190775  0.033455473   -3.3566524     1.437575   320404 
 5130000   0.70159361   -3.3610964   -1.9186971  0.033900039   -3.3610964    1.4423993   320343 
 5131000   0.69950437   -3.3576359   -1.9194555  0.029632107   -3.3576359    1.4381804   320326 
 5132000   0.69902538   -3.3554406   -1.9182002  0.033830232   -3.3554406    1.4372405   320316 
 5133000   0.70067496   -3.3576229   -1.9170807   0.03317518   -3.3576229    1.4405422   320336 
 5134000   0.69909849   -3.3549736   -1.9172597  0.034407375   -3.3549736     1.437714   320244 
 5135000   0.70047005   -3.3569122   -1.9163416  0.031862115   -3.3569122    1.4405706   320236 
 5136000   0.70092467   -3.3585281   -1.9168785  0.034381521   -3.3585281    1.4416496   320204 
 5137000   0.70032221   -3.3583765   -1.9179525  0.036582822   -3.3583765     1.440424   320201 
 5138000   0.69946223   -3.3571898   -1.9182919  0.032499926   -3.3571898    1.4388978   320147 
 5139000   0.69904153    -3.354062   -1.9160341  0.033997173    -3.354062    1.4380279   320148 
 5140000   0.70016862   -3.3572091   -1.9167907  0.034289976   -3.3572091    1.4404185   320132 
 5141000   0.69980204   -3.3584552   -1.9184715  0.032881645   -3.3584552    1.4399837   320061 
 5142000    0.6996122   -3.3577956   -1.9180901   0.03351875   -3.3577956    1.4397055   320036 
 5143000   0.69809686   -3.3556317   -1.9187796  0.033016148   -3.3556317    1.4368521   319977 
 5144000   0.69834766   -3.3544381    -1.916917  0.037317376   -3.3544381     1.437521   319943 
 5145000   0.69864469   -3.3551183   -1.9166891  0.037686574   -3.3551183    1.4384292   319877 
 5146000   0.69851476   -3.3556636   -1.9172681  0.033605005   -3.3556636    1.4383955   319825 
 5147000   0.69793294   -3.3533806   -1.9160799  0.034612742   -3.3533806    1.4373007   319802 
 5148000   0.69963414   -3.3560891   -1.9151678   0.03747044   -3.3560891    1.4409213   319776 
 5149000   0.69970572   -3.3564334    -1.915261   0.03020189   -3.3564334    1.4411724   319753 
 5150000   0.69992516   -3.3576984   -1.9158847  0.034486685   -3.3576984    1.4418137   319711 
 5151000   0.69872017   -3.3563929   -1.9169038  0.036634012   -3.3563929    1.4394891   319676 
 5152000   0.69863459   -3.3556963   -1.9161944  0.033555003   -3.3556963    1.4395019   319634 
 5153000   0.69952247    -3.357267   -1.9156425  0.039042395    -3.357267    1.4416245   319569 
 5154000   0.69818769   -3.3544737   -1.9154154  0.039575403   -3.3544737    1.4390583   319528 
 5155000   0.69988233   -3.3585128   -1.9158623  0.032935835   -3.3585128    1.4426505   319506 
 5156000   0.69825403   -3.3563905   -1.9169342   0.03900799   -3.3563905    1.4394564   319470 
 5157000   0.69960053   -3.3573006    -1.914951  0.038253576   -3.3573006    1.4423496   319444 
 5158000   0.69871837   -3.3556704   -1.9149772  0.036229983   -3.3556704    1.4406932   319408 
 5159000   0.70006795   -3.3586778   -1.9149805  0.035167479   -3.3586778    1.4436974   319359 
 5160000   0.69914744   -3.3554678   -1.9136687  0.032625402   -3.3554678    1.4417991   319359 
 5161000   0.69906962   -3.3557142   -1.9139086  0.035184732   -3.3557142    1.4418056   319322 
 5162000   0.69659377   -3.3518295   -1.9150537  0.035497868   -3.3518295    1.4367758   319305 
 5163000   0.69641851    -3.351665   -1.9152597  0.036781532    -3.351665    1.4364053   319307 
 5164000    0.6962655   -3.3517002    -1.915435  0.038087651   -3.3517002    1.4362651   319268 
 5165000   0.69663371   -3.3533558    -1.916151  0.034606202   -3.3533558    1.4372047   319228 
 5166000   0.69604724   -3.3522552   -1.9161614  0.032864172   -3.3522552    1.4360938   319206 
 5167000   0.69746983   -3.3557335   -1.9165332  0.030335089   -3.3557335    1.4392002   319168 
 5168000   0.69646416    -3.351345   -1.9140443  0.034726385    -3.351345    1.4373007   319129 
 5169000   0.69728297   -3.3528941   -1.9136646  0.034867343   -3.3528941    1.4392295   319076 
 5170000   0.69766018   -3.3544554   -1.9141674  0.033451646   -3.3544554    1.4402879   319014 
 5171000   0.69862231   -3.3548813   -1.9122634  0.033398057   -3.3548813    1.4426179   318938 
 5172000   0.69980618   -3.3572633   -1.9116886  0.031810163   -3.3572633    1.4455747   318825 
 5173000   0.70067278   -3.3594847   -1.9119428  0.033586137   -3.3594847    1.4475419   318786 
 5174000    0.6999019    -3.357489     -1.91139  0.039604296    -3.357489     1.446099   318753 
 5175000   0.69764998   -3.3534728   -1.9118728   0.03654309   -3.3534728       1.4416   318719 
 5176000   0.69715642   -3.3535641   -1.9126856  0.034166969   -3.3535641    1.4408785   318653 
 5177000   0.69675758   -3.3538305   -1.9136498  0.037835184   -3.3538305    1.4401807   318625 
 5178000     0.695293   -3.3506982   -1.9134591  0.037183296   -3.3506982    1.4372391   318606 
 5179000   0.69634901   -3.3532939   -1.9136008   0.03904272   -3.3532939    1.4396931   318546 
 5180000   0.69691877   -3.3519805   -1.9109194  0.035687452   -3.3519805    1.4410611   318504 
 5181000   0.69617433   -3.3515351   -1.9117421  0.033571797   -3.3515351     1.439793   318444 
 5182000   0.69713784   -3.3545758   -1.9127085  0.032200282   -3.3545758    1.4418672   318426 
 5183000   0.69766263   -3.3573674   -1.9141202  0.031474845   -3.3573674    1.4432472   318361 
 5184000   0.69481965   -3.3509699   -1.9134504  0.036538236   -3.3509699    1.4375195   318327 
 5185000   0.69385041   -3.3504607   -1.9149194  0.034006807   -3.3504607    1.4355413   318321 
 5186000   0.69423343    -3.347956   -1.9116042  0.039060206    -3.347956    1.4363518   318317 
 5187000   0.69438332   -3.3482115   -1.9113645  0.032775579   -3.3482115     1.436847   318276 
 5188000   0.69390187   -3.3496926   -1.9135982  0.030585845   -3.3496926    1.4360944   318222 
 5189000   0.69291033   -3.3489746   -1.9146258  0.032934155   -3.3489746    1.4343488   318154 
 5190000   0.69463058   -3.3521244   -1.9140655  0.032554016   -3.3521244     1.438059   318121 
 5191000   0.69567697   -3.3535059   -1.9131176  0.037074399   -3.3535059    1.4403882   318085 
 5192000   0.69590167   -3.3530029   -1.9120135  0.039979021   -3.3530029    1.4409894   318055 
 5193000   0.69634691   -3.3531929      -1.9112  0.034736566   -3.3531929    1.4419929   318037 
 5194000   0.69574262    -3.350296    -1.909491  0.035259132    -3.350296     1.440805   318023 
 5195000   0.69601789    -3.351227   -1.9095029  0.033316093    -3.351227    1.4417241   317946 
 5196000   0.69555248   -3.3504838   -1.9094518  0.034547891   -3.3504838     1.441032   317886 
 5197000   0.69659466   -3.3517361   -1.9086266   0.03506775   -3.3517361    1.4431095   317904 
 5198000   0.69580665   -3.3516749   -1.9101752  0.034603521   -3.3516749    1.4414997   317899 
 5199000   0.69511994   -3.3513883   -1.9109579  0.036856593   -3.3513883    1.4404304   317821 
 5200000   0.69541384   -3.3507978    -1.909704  0.036479186   -3.3507978    1.4410939   317809 
 5201000   0.69591067   -3.3519001   -1.9095497  0.034488381   -3.3519001    1.4423504   317759 
 5202000   0.69488167   -3.3482053    -1.907956  0.037210605   -3.3482053    1.4402494   317752 
 5203000   0.69408435   -3.3486664   -1.9097027  0.040576579   -3.3486664    1.4389636   317671 
 5204000   0.69472477   -3.3502292    -1.909634  0.033336992   -3.3502292    1.4405952   317604 
 5205000   0.69441119   -3.3498981   -1.9098353  0.031188174   -3.3498981    1.4400628   317578 
 5206000   0.69358834   -3.3484367   -1.9098085  0.033504939   -3.3484367    1.4386282   317518 
 5207000   0.69330221   -3.3480698     -1.90994  0.033472723   -3.3480698    1.4381298   317497 
 5208000   0.69446469   -3.3503695   -1.9095651  0.036150563   -3.3503695    1.4408044   317439 
 5209000   0.69536129   -3.3513345   -1.9083154  0.037766845   -3.3513345    1.4430191   317361 
 5210000   0.69467527   -3.3492219    -1.907422  0.038125985   -3.3492219    1.4417999   317316 
 5211000   0.69451597   -3.3498581   -1.9080117   0.03489751   -3.3498581    1.4418464   317233 
 5212000    0.6929495   -3.3473633   -1.9085693   0.03329544   -3.3473633    1.4387939   317189 
 5213000   0.69285128   -3.3483111   -1.9095714  0.032285221   -3.3483111    1.4387397   317156 
 5214000    0.6917687   -3.3453414   -1.9087546  0.031516252   -3.3453414    1.4365868   317135 
 5215000    0.6934624   -3.3471852   -1.9070948   0.03638952   -3.3471852    1.4400904   317138 
 5216000   0.69299093   -3.3472551   -1.9078306  0.035313538   -3.3472551    1.4394245   317069 
 5217000   0.69263481   -3.3473484    -1.908423  0.033490019   -3.3473484    1.4389253   317016 
 5218000    0.6937963   -3.3500599   -1.9085215  0.038962721   -3.3500599    1.4415384   316972 
 5219000   0.69277007   -3.3473822   -1.9080033   0.03486206   -3.3473822    1.4393789   316978 
 5220000   0.69335317   -3.3465507   -1.9056012  0.031103416   -3.3465507    1.4409495   316899 
 5221000   0.69244895   -3.3461232    -1.906794  0.033587194   -3.3461232    1.4393292   316842 
 5222000    0.6925866   -3.3475589   -1.9076572  0.030710204   -3.3475589    1.4399017   316779 
 5223000   0.69203395   -3.3480067   -1.9090769  0.032153884   -3.3480067    1.4389298   316740 
 5224000   0.69196967   -3.3473268   -1.9084307  0.034855751   -3.3473268    1.4388961   316718 
 5225000   0.69176176   -3.3462629   -1.9076629  0.031578715   -3.3462629    1.4386001   316688 
 5226000    0.6922489   -3.3438259   -1.9041855  0.038594107   -3.3438259    1.4396404   316682 
 5227000   0.69099046   -3.3434325   -1.9061369  0.039584766   -3.3434325    1.4372956   316622 
 5228000   0.69201708   -3.3462182   -1.9066326  0.032498107   -3.3462182    1.4395856   316588 
 5229000   0.69110556   -3.3457979   -1.9079722  0.032786398   -3.3457979    1.4378257   316558 
 5230000    0.6924109   -3.3477024   -1.9069243  0.032787751   -3.3477024     1.440778   316506 
 5231000   0.69324638   -3.3484709   -1.9057493  0.038061622   -3.3484709    1.4427216   316461 
 5232000   0.69185841   -3.3457145   -1.9057267  0.037252909   -3.3457145    1.4399878   316427 
 5233000   0.69239529   -3.3480563   -1.9067597  0.038048924   -3.3480563    1.4412966   316385 
 5234000    0.6925861   -3.3489456   -1.9071106  0.030209641   -3.3489456     1.441835   316354 
 5235000   0.69155681   -3.3484558   -1.9084813  0.033189229   -3.3484558    1.4399745   316292 
 5236000   0.69025205    -3.346409   -1.9088696  0.035566145    -3.346409    1.4375394   316230 
 5237000   0.68941226   -3.3449308   -1.9089723  0.032659742   -3.3449308    1.4359585   316193 
 5238000   0.69069885   -3.3462478   -1.9073092  0.034422418   -3.3462478    1.4389386   316127 
 5239000   0.69112651   -3.3467847   -1.9068048  0.038175919   -3.3467847    1.4399799   316094 
 5240000   0.69195218   -3.3495767   -1.9076575  0.035215634   -3.3495767    1.4419192   316046 
 5241000   0.69149331   -3.3503566   -1.9091474  0.033961399   -3.3503566    1.4412092   315992 
 5242000    0.6913511   -3.3488429   -1.9077613  0.038081011   -3.3488429    1.4410816   315955 
 5243000   0.69005462   -3.3474823   -1.9089029  0.033104523   -3.3474823    1.4385794   315911 
 5244000   0.68892507   -3.3461461   -1.9098715  0.030622725   -3.3461461    1.4362747   315900 
 5245000   0.69181782   -3.3512306   -1.9085644  0.035848955   -3.3512306    1.4426662   315821 
 5246000   0.68992674   -3.3488958   -1.9097219  0.036161282   -3.3488958    1.4391739   315722 
 5247000   0.69073885   -3.3491855   -1.9082126  0.035046656   -3.3491855    1.4409729   315699 
 5248000     0.691555   -3.3512803    -1.908454   0.03528157   -3.3512803    1.4428263   315666 
 5249000   0.69227508   -3.3501028   -1.9056918   0.03357056   -3.3501028     1.444411   315648 
 5250000   0.69145554   -3.3488815   -1.9059199  0.036734696   -3.3488815    1.4429616   315591 
 5251000   0.69045056   -3.3479777   -1.9068895  0.036297594   -3.3479777    1.4410881   315542 
 5252000   0.69054422   -3.3465879   -1.9053499  0.036184328   -3.3465879     1.441238   315552 
 5253000   0.68867223   -3.3420625   -1.9046268  0.036593375   -3.3420625    1.4374357   315529 
 5254000   0.68869889    -3.343757   -1.9060788  0.035690303    -3.343757    1.4376781   315488 
 5255000   0.69008396   -3.3457351   -1.9050469  0.032437962   -3.3457351    1.4406882   315462 
 5256000   0.68960571   -3.3438775   -1.9040188  0.035998767   -3.3438775    1.4398587   315425 
 5257000   0.69014222   -3.3456946   -1.9044964  0.033277473   -3.3456946    1.4411982   315377 
 5258000   0.69029216   -3.3456546   -1.9039238  0.033843955   -3.3456546    1.4417307   315329 
 5259000     0.689959   -3.3455359   -1.9043776  0.033708526   -3.3455359    1.4411583   315302 
 5260000    0.6901442   -3.3461351   -1.9046631  0.032971825   -3.3461351     1.441472   315318 
 5261000   0.68920955    -3.343341   -1.9037527  0.034317797    -3.343341    1.4395883   315303 
 5262000   0.68906918   -3.3439132   -1.9044811  0.035735394   -3.3439132    1.4394321   315273 
 5263000   0.68702583   -3.3428908   -1.9074494  0.033017178   -3.3428908    1.4354414   315212 
 5264000   0.68906252   -3.3441457   -1.9044261  0.033539472   -3.3441457    1.4397196   315207 
 5265000    0.6897073   -3.3436749   -1.9025076  0.038609636   -3.3436749    1.4411674   315185 
 5266000   0.69067021   -3.3454334   -1.9021624  0.034982488   -3.3454334     1.443271   315165 
 5267000   0.68993325   -3.3463614   -1.9042324  0.034275968   -3.3463614    1.4421291   315078 
 5268000   0.69073043   -3.3490239    -1.905146  0.034185359   -3.3490239    1.4438778   315060 
 5269000   0.69009121   -3.3461112   -1.9033726  0.036686477   -3.3461112    1.4427385   315017 
 5270000   0.68865902   -3.3455607   -1.9055604  0.039017959   -3.3455607    1.4400003   314961 
 5271000   0.68936152   -3.3450235   -1.9035451  0.035764309   -3.3450235    1.4414784   314959 
 5272000   0.68909884   -3.3461152   -1.9050763  0.036783548   -3.3461152     1.441039   314935 
 5273000   0.68794609   -3.3443987   -1.9055191   0.03546155   -3.3443987    1.4388796   314880 
 5274000   0.68984115   -3.3484099   -1.9054154  0.034134287   -3.3484099    1.4429945   314847 
 5275000   0.68902217   -3.3462171   -1.9047526  0.037053128   -3.3462171    1.4414645   314807 
 5276000   0.68948288   -3.3464383   -1.9035562  0.036294067   -3.3464383    1.4428821   314708 
 5277000   0.68961346   -3.3467756   -1.9034873  0.039580656   -3.3467756    1.4432883   314679 
 5278000   0.68969627   -3.3458267   -1.9022137  0.038591844   -3.3458267     1.443613   314646 
 5279000   0.68952076   -3.3461634   -1.9025874  0.037719727   -3.3461634     1.443576   314574 
 5280000   0.68807754   -3.3438022   -1.9030049  0.037218046   -3.3438022    1.4407972   314521 
 5281000   0.68793673   -3.3436653   -1.9029155  0.033390744   -3.3436653    1.4407498   314467 
 5282000   0.68648417    -3.340106   -1.9022018  0.037265783    -3.340106    1.4379043   314424 
 5283000   0.68860689   -3.3429739   -1.9003986  0.031276104   -3.3429739    1.4425753   314375 
 5284000   0.68721569   -3.3418001   -1.9021484  0.031659513   -3.3418001    1.4396517   314377 
 5285000    0.6876114   -3.3431143   -1.9023174  0.034955151   -3.3431143    1.4407969   314308 
 5286000   0.68767495   -3.3416631   -1.9005221   0.03163672   -3.3416631     1.441141   314262 
 5287000   0.68557978   -3.3401114   -1.9031691  0.032587068   -3.3401114    1.4369422   314220 
 5288000   0.68571673   -3.3375965   -1.9001659  0.030185789   -3.3375965    1.4374305   314176 
 5289000   0.68740142   -3.3381118   -1.8968837  0.034441309   -3.3381118    1.4412281   314118 
 5290000    0.6875027   -3.3378744   -1.8961952  0.038764407   -3.3378744    1.4416792   314066 
 5291000   0.68762203   -3.3361429   -1.8940436  0.037250534   -3.3361429    1.4420993   314029 
 5292000   0.68905756   -3.3391241   -1.8939406  0.037475473   -3.3391241    1.4451835   314013 
 5293000    0.6880504   -3.3393983   -1.8961111  0.035886205   -3.3393983    1.4432872   313966 
 5294000   0.68782949   -3.3399155   -1.8969401   0.04219381   -3.3399155    1.4429755   313933 
 5295000   0.68740941   -3.3398349   -1.8974788   0.03474297   -3.3398349    1.4423561   313876 
 5296000   0.68684488   -3.3377768   -1.8964583   0.03267296   -3.3377768    1.4413185   313844 
 5297000   0.68520241   -3.3367406   -1.8986809  0.038503875   -3.3367406    1.4380597   313803 
 5298000    0.6863188   -3.3415099   -1.9008776  0.030369859   -3.3415099    1.4406323   313753 
 5299000    0.6850526   -3.3364382   -1.8983537  0.034958647   -3.3364382    1.4380844   313729 
 5300000   0.68788018   -3.3439911   -1.8997868   0.03612477   -3.3439911    1.4442043   313689 
 5301000   0.68737732   -3.3420928   -1.8988016  0.037411583   -3.3420928    1.4432912   313658 
 5302000   0.68754913   -3.3423792   -1.8986214  0.035087633   -3.3423792    1.4437578   313635 
 5303000   0.68645584   -3.3423688   -1.9006585  0.036868519   -3.3423688    1.4417103   313581 
 5304000   0.68574285   -3.3435816   -1.9030197  0.037958636   -3.3435816     1.440562   313505 
 5305000   0.68466839   -3.3421783   -1.9037221  0.031566601   -3.3421783    1.4384562   313472 
 5306000   0.68422084   -3.3410421   -1.9034161  0.033321334   -3.3410421     1.437626   313448 
 5307000   0.68502052   -3.3430876   -1.9036711  0.039215075   -3.3430876    1.4394165   313424 
 5308000   0.68557198   -3.3446023   -1.9036409  0.035628822   -3.3446023    1.4409614   313340 
 5309000   0.68510586   -3.3441596    -1.903925  0.036679944   -3.3441596    1.4402345   313285 
 5310000   0.68705112   -3.3477183    -1.903293  0.037993718   -3.3477183    1.4444253   313263 
 5311000   0.68660915   -3.3460755   -1.9022568  0.038589647   -3.3460755    1.4438187   313193 
 5312000   0.68661275   -3.3449126   -1.9009849  0.034236692   -3.3449126    1.4439277   313171 
 5313000   0.68635153   -3.3443728   -1.9005933  0.039672816   -3.3443728    1.4437795   313084 
 5314000   0.68566768   -3.3455958   -1.9032318  0.034889214   -3.3455958     1.442364   313079 
 5315000   0.68495094   -3.3431787   -1.9022488   0.03552187   -3.3431787    1.4409299   313063 
 5316000   0.68447061   -3.3439721   -1.9038503  0.041196564   -3.3439721    1.4401218   313019 
 5317000   0.68443238   -3.3439736   -1.9036469  0.033605295   -3.3439736    1.4403267   312957 
 5318000   0.68398453   -3.3424244   -1.9029712  0.033404916   -3.3424244    1.4394532   312942 
 5319000   0.68286065   -3.3383466   -1.9012402   0.03431235   -3.3383466    1.4371064   312938 
 5320000   0.68440708   -3.3398428   -1.8994451  0.034462446   -3.3398428    1.4403977   312930 
 5321000   0.68439366   -3.3403784   -1.8997097  0.033845637   -3.3403784    1.4406687   312865 
 5322000   0.68509922   -3.3407455   -1.8984117  0.038546594   -3.3407455    1.4423337   312826 
 5323000   0.68437264   -3.3407122   -1.8995626  0.036349913   -3.3407122    1.4411496   312751 
 5324000   0.68446386   -3.3401297   -1.8985023  0.035287455   -3.3401297    1.4416275   312689 
 5325000    0.6841127   -3.3393862   -1.8982632   0.03503692   -3.3393862    1.4411229   312638 
 5326000    0.6838517   -3.3399728   -1.8990402  0.033032864   -3.3399728    1.4409326   312560 
 5327000   0.68385301   -3.3409132   -1.8996828  0.036055504   -3.3409132    1.4412305   312496 
 5328000   0.68285655   -3.3396556    -1.900318  0.037392425   -3.3396556    1.4393377   312451 
 5329000   0.68294448   -3.3414489   -1.9016817  0.032672106   -3.3414489    1.4397672   312398 
 5330000   0.68425211   -3.3422214   -1.8993972  0.032783494   -3.3422214    1.4428242   312333 
 5331000   0.68405605    -3.341996   -1.8993035  0.035145236    -3.341996    1.4426925   312272 
 5332000   0.68313124   -3.3397747   -1.8987974  0.040775208   -3.3397747    1.4409774   312221 
 5333000   0.68288243   -3.3396213   -1.8988734  0.038402711   -3.3396213    1.4407479   312157 
 5334000   0.68293702   -3.3401678   -1.8993186  0.037876605   -3.3401678    1.4408492   312160 
 5335000   0.68219804   -3.3407845   -1.9014113  0.037377672   -3.3407845    1.4393731   312142 
 5336000    0.6815138   -3.3403656   -1.9021827  0.033366682   -3.3403656    1.4381828   312087 
 5337000   0.68199813   -3.3393185   -1.8999891  0.035978803   -3.3393185    1.4393294   312060 
 5338000   0.68208731   -3.3402353   -1.9004639   0.03598326   -3.3402353    1.4397714   312005 
 5339000   0.68322995    -3.343074   -1.9006549  0.042579467    -3.343074    1.4424191   311954 
 5340000   0.68252182   -3.3403722   -1.8994896  0.030988262   -3.3403722    1.4408826   311963 
 5341000   0.68239148    -3.339363   -1.8986817  0.037787152    -3.339363    1.4406813   311947 
 5342000   0.68164771   -3.3389412   -1.8996825  0.035789905   -3.3389412    1.4392587   311915 
 5343000   0.68212802   -3.3413421   -1.9009215   0.03575691   -3.3413421    1.4404206   311883 
 5344000   0.68137675    -3.341634    -1.902703  0.036803479    -3.341634     1.438931   311862 
 5345000   0.68227763   -3.3408454   -1.8997438  0.033731091   -3.3408454    1.4411015   311804 
 5346000   0.68252656   -3.3408269   -1.8988666  0.034679446   -3.3408269    1.4419603   311732 
 5347000   0.68447899   -3.3416543   -1.8951979  0.036913237   -3.3416543    1.4464564   311652 
 5348000   0.68408259   -3.3401076   -1.8944797  0.036545512   -3.3401076     1.445628   311650 
 5349000   0.68298534   -3.3383609   -1.8948201  0.037555932   -3.3383609    1.4435408   311600 
 5350000   0.68380853   -3.3413589   -1.8958231  0.038106767   -3.3413589    1.4455358   311545 
 5351000   0.68233312   -3.3396648   -1.8968543  0.035636272   -3.3396648    1.4428105   311460 
 5352000    0.6815097   -3.3369259   -1.8957038  0.038760737   -3.3369259    1.4412221   311427 
 5353000   0.68238771   -3.3396378   -1.8965914  0.033374648   -3.3396378    1.4430464   311434 
 5354000   0.68114836   -3.3368488   -1.8962243  0.030892249   -3.3368488    1.4406245   311391 
 5355000   0.68019292   -3.3371512   -1.8980714   0.02959425   -3.3371512    1.4390797   311288 
 5356000    0.6802824   -3.3357529   -1.8961185  0.038739726   -3.3357529    1.4396344   311209 
 5357000   0.68095878   -3.3371743   -1.8960113  0.032267416   -3.3371743     1.441163   311188 
 5358000   0.68039754   -3.3377985   -1.8974483  0.036815452   -3.3377985    1.4403502   311107 
 5359000   0.68092755   -3.3385921   -1.8970319  0.035488581   -3.3385921    1.4415602   311088 
 5360000    0.6795542   -3.3345719   -1.8957527  0.030607899   -3.3345719    1.4388192   311052 
 5361000   0.68011556    -3.336347   -1.8962373  0.037362327    -3.336347    1.4401096   311030 
 5362000   0.68086837   -3.3392819   -1.8971749  0.030137939   -3.3392819    1.4421071   310943 
 5363000   0.68072432   -3.3380279   -1.8960961  0.030723129   -3.3380279    1.4419318   310915 
 5364000   0.68154642   -3.3395184   -1.8956362  0.036427945   -3.3395184    1.4438822   310870 
 5365000   0.68147855   -3.3400012   -1.8961653  0.037585221   -3.3400012    1.4438359   310849 
 5366000   0.68086338   -3.3395288   -1.8967549  0.037422986   -3.3395288    1.4427739   310797 
 5367000   0.68082892   -3.3397332   -1.8967212  0.033723629   -3.3397332     1.443012   310730 
 5368000   0.68130103    -3.340516   -1.8963036  0.032728505    -3.340516    1.4442125   310687 
 5369000   0.68188323   -3.3400329    -1.894335  0.036847384   -3.3400329    1.4456979   310633 
 5370000   0.68133621   -3.3378972   -1.8933776  0.038081653   -3.3378972    1.4445195   310637 
 5371000   0.68061474   -3.3383568   -1.8952508  0.039911933   -3.3383568    1.4431061   310612 
 5372000   0.67999569   -3.3384548   -1.8966659  0.037668093   -3.3384548    1.4417888   310613 
 5373000   0.67963674   -3.3370794   -1.8959217   0.03560637   -3.3370794    1.4411577   310585 
 5374000   0.67821941   -3.3354542   -1.8971815  0.032814539   -3.3354542    1.4382727   310559 
 5375000   0.68019923   -3.3395473   -1.8967369  0.030880117   -3.3395473    1.4428103   310486 
 5376000   0.67968144   -3.3388154   -1.8967597  0.034215463   -3.3388154    1.4420557   310412 
 5377000   0.68041176   -3.3388725   -1.8952999  0.032420073   -3.3388725    1.4435727   310419 
 5378000   0.67915311   -3.3371475   -1.8960734   0.03273162   -3.3371475    1.4410741   310382 
 5379000    0.6796257   -3.3361991   -1.8940479  0.037140925   -3.3361991    1.4421512   310366 
 5380000   0.68030304   -3.3383012     -1.89455  0.034915169   -3.3383012    1.4437513   310331 
 5381000   0.67983706   -3.3384912   -1.8955847  0.036867532   -3.3384912    1.4429065   310300 
 5382000   0.67994666   -3.3387822    -1.895471  0.031129622   -3.3387822    1.4433112   310263 
 5383000   0.67998793    -3.336659   -1.8932694  0.031228465    -3.336659    1.4433895   310265 
 5384000   0.67986983   -3.3378638   -1.8946645  0.037019904   -3.3378638    1.4431993   310252 
 5385000    0.6793875   -3.3374924   -1.8950985  0.040135984   -3.3374924    1.4423939   310205 
 5386000   0.68021275   -3.3386606   -1.8942492  0.037324677   -3.3386606    1.4444114   310148 
 5387000   0.68041382   -3.3409164   -1.8959988  0.034778072   -3.3409164    1.4449176   310131 
 5388000   0.68066665   -3.3412832   -1.8956376  0.032030035   -3.3412832    1.4456456   310090 
 5389000   0.68030278   -3.3405646   -1.8956685  0.036641643   -3.3405646    1.4448961   310085 
 5390000   0.67868985   -3.3387463   -1.8969225  0.038463032   -3.3387463    1.4418238   310009 
 5391000   0.67929036   -3.3396897   -1.8965483   0.04110487   -3.3396897    1.4431414   310000 
 5392000   0.67959642   -3.3402371   -1.8964921  0.036922242   -3.3402371    1.4437451   310010 
 5393000   0.67920837   -3.3383494   -1.8954381    0.0354194   -3.3383494    1.4429114   310012 
 5394000   0.67824768   -3.3362462   -1.8953292  0.030700784   -3.3362462     1.440917   310002 
 5395000   0.67848251   -3.3382708   -1.8965201  0.039360807   -3.3382708    1.4417507   309930 
 5396000   0.67825276   -3.3388544   -1.8973221  0.033159836   -3.3388544    1.4415323   309872 
 5397000   0.67862585   -3.3379495   -1.8953822  0.034332618   -3.3379495    1.4425673   309820 
 5398000   0.67916547    -3.337857   -1.8940121  0.039544959    -3.337857    1.4438449   309792 
 5399000   0.67840133   -3.3383591    -1.896148  0.032879376   -3.3383591    1.4422111   309794 
 5400000   0.67772321   -3.3373899   -1.8963228  0.035796913   -3.3373899    1.4410672   309730 
 5401000   0.67784418   -3.3381318   -1.8966539  0.031302233   -3.3381318    1.4414779   309697 
 5402000   0.67759179   -3.3384701   -1.8972356  0.036208411   -3.3384701    1.4412344   309634 
 5403000   0.67754952   -3.3387115   -1.8974134  0.036907524   -3.3387115    1.4412981   309601 
 5404000   0.67842633   -3.3407263    -1.897302  0.036141524   -3.3407263    1.4434244   309545 
 5405000   0.67924891   -3.3392988   -1.8940076  0.033694231   -3.3392988    1.4452912   309520 
 5406000   0.67917818    -3.341345    -1.895784  0.035997694    -3.341345    1.4455611   309430 
 5407000   0.67810933   -3.3401159   -1.8965592   0.03499209   -3.3401159    1.4435567   309372 
 5408000    0.6769257   -3.3397082   -1.8984942  0.035943767   -3.3397082     1.441214   309334 
 5409000   0.67705459   -3.3392408   -1.8974122  0.039005232   -3.3392408    1.4418287   309261 
 5410000   0.67648251   -3.3386155   -1.8977395  0.043728514   -3.3386155     1.440876   309204 
 5411000   0.67793201   -3.3427868   -1.8986553   0.03491899   -3.3427868    1.4441315   309168 
 5412000   0.67756862   -3.3422845   -1.8987076  0.039254665   -3.3422845    1.4435768   309121 
 5413000   0.67734511   -3.3421512    -1.898663   0.03246494   -3.3421512    1.4434882   309038 
 5414000   0.67601559   -3.3388056   -1.8980248  0.037686453   -3.3388056    1.4407808   309011 
 5415000   0.67569587   -3.3410694   -1.9008069  0.031917081   -3.3410694    1.4402625   308976 
 5416000   0.67691924   -3.3411766   -1.8980636  0.035779383   -3.3411766     1.443113   308924 
 5417000   0.67649044   -3.3390477   -1.8967695  0.035958925   -3.3390477    1.4422782   308907 
 5418000      0.67588   -3.3384756   -1.8974148  0.035698008   -3.3384756    1.4410607   308889 
 5419000   0.67609351    -3.337798   -1.8962167  0.032260265    -3.337798    1.4415813   308875 
 5420000   0.67623309    -3.337386   -1.8952036  0.030618552    -3.337386    1.4421824   308810 
 5421000   0.67519311   -3.3363209   -1.8960626  0.035236805   -3.3363209    1.4402583   308747 
 5422000   0.67617096   -3.3384465   -1.8959388  0.031950326   -3.3384465    1.4425077   308712 
 5423000   0.67458178   -3.3348195   -1.8955436   0.03598265   -3.3348195    1.4392759   308678 
 5424000    0.6748251   -3.3367177   -1.8966427  0.033205482   -3.3367177     1.440075   308618 
 5425000   0.67508436   -3.3391468   -1.8984578  0.033707867   -3.3391468    1.4406889   308605 
 5426000   0.67454164   -3.3368615   -1.8971208  0.030907092   -3.3368615    1.4397407   308560 
 5427000   0.67489739   -3.3360311   -1.8952416  0.031547112   -3.3360311    1.4407895   308498 
 5428000   0.67429968   -3.3343655   -1.8946653  0.034729496   -3.3343655    1.4397001   308458 
 5429000   0.67518685    -3.334935   -1.8932706  0.035175764    -3.334935    1.4416645   308443 
 5430000    0.6751266   -3.3346127   -1.8928853  0.032930825   -3.3346127    1.4417274   308402 
 5431000   0.67487904   -3.3356161   -1.8941088  0.034940851   -3.3356161    1.4415073   308336 
 5432000   0.67588729   -3.3360903   -1.8923358  0.036055604   -3.3360903    1.4437545   308316 
 5433000    0.6749819   -3.3349927   -1.8929196  0.037111801   -3.3349927    1.4420731   308262 
 5434000    0.6747977   -3.3330159   -1.8911025  0.033999943   -3.3330159    1.4419134   308212 
 5435000   0.67405439   -3.3326459   -1.8920684   0.03755838   -3.3326459    1.4405775   308158 
 5436000   0.67286448   -3.3301862   -1.8920165  0.040068222   -3.3301862    1.4381698   308129 
 5437000   0.67353251   -3.3342815    -1.894338   0.03726301   -3.3342815    1.4399434   308055 
 5438000   0.67270507     -3.33197   -1.8934313   0.03239196     -3.33197    1.4385387   307977 
 5439000   0.67336939    -3.334593   -1.8944607  0.031712953    -3.334593    1.4401323   307940 
 5440000   0.67307579   -3.3329684   -1.8933377   0.03766155   -3.3329684    1.4396306   307913 
 5441000    0.6725225   -3.3331341   -1.8946448  0.033286196   -3.3331341    1.4384892   307904 
 5442000   0.67258625   -3.3330269   -1.8941723  0.034485758   -3.3330269    1.4388546   307855 
 5443000   0.67470871    -3.335107   -1.8917166  0.034121478    -3.335107    1.4433904   307856 
 5444000   0.67354219   -3.3346978    -1.893433  0.038275383   -3.3346978    1.4412648   307777 
 5445000   0.67330671   -3.3349278   -1.8940592  0.037130783   -3.3349278    1.4408686   307754 
 5446000   0.67326195   -3.3352485   -1.8942603  0.036957131   -3.3352485    1.4409882   307708 
 5447000   0.67133073   -3.3313096   -1.8942774  0.030874047   -3.3313096    1.4370322   307670 
 5448000   0.67215512   -3.3326177    -1.893615  0.032328185   -3.3326177    1.4390027   307626 
 5449000   0.67161184   -3.3338196    -1.895765  0.030454528   -3.3338196    1.4380546   307580 
 5450000   0.67167025   -3.3353792    -1.896816  0.035435026   -3.3353792    1.4385632   307498 
 5451000   0.67162381   -3.3345502   -1.8958525  0.034233239   -3.3345502    1.4386977   307448 
 5452000   0.67268767    -3.336433   -1.8952548  0.030980613    -3.336433    1.4411782   307405 
 5453000   0.67220202   -3.3353274   -1.8948476  0.040197105   -3.3353274    1.4404798   307332 
 5454000   0.67367337   -3.3369594    -1.893195  0.033327681   -3.3369594    1.4437643   307304 
 5455000    0.6730503   -3.3362215   -1.8936564  0.039191179   -3.3362215    1.4425651   307275 
 5456000   0.67243576    -3.334021   -1.8927262  0.032190833    -3.334021    1.4412949   307265 
 5457000   0.67290682   -3.3355053   -1.8928674  0.036804617   -3.3355053    1.4426379   307194 
 5458000   0.67216103   -3.3360901   -1.8946663   0.03390373   -3.3360901    1.4414238   307112 
 5459000   0.67140259   -3.3356802   -1.8956437  0.040052586   -3.3356802    1.4400364   307061 
 5460000   0.67263366   -3.3366193   -1.8937639  0.035186875   -3.3366193    1.4428554   307023 
 5461000   0.67272575   -3.3385367   -1.8954179  0.029298446   -3.3385367    1.4431188   307009 
 5462000   0.67298404   -3.3380731   -1.8943203  0.033512726   -3.3380731    1.4437528   306992 
 5463000    0.6722395   -3.3360011   -1.8938409  0.034067399   -3.3360011    1.4421602   306991 
 5464000   0.67196154   -3.3350729   -1.8933023  0.032547412   -3.3350729    1.4417706   306947 
 5465000   0.67112263   -3.3337019   -1.8934967  0.038030789   -3.3337019    1.4402052   306897 
 5466000   0.67094019   -3.3339919    -1.893892  0.036791081   -3.3339919    1.4400999   306836 
 5467000   0.67014342   -3.3341405   -1.8954741  0.034160524   -3.3341405    1.4386664   306777 
 5468000    0.6700216   -3.3330898   -1.8942347  0.035038373   -3.3330898    1.4388551   306681 
 5469000   0.67103448    -3.335179   -1.8939843  0.036246244    -3.335179    1.4411947   306646 
 5470000   0.67162535   -3.3335972   -1.8909594   0.03504834   -3.3335972    1.4426378   306609 
 5471000   0.67064446   -3.3328151    -1.892162  0.036219838   -3.3328151    1.4406531   306583 
 5472000     0.668945   -3.3294287   -1.8923701  0.029309724   -3.3294287    1.4370586   306571 
 5473000   0.66828567   -3.3289789   -1.8933976  0.025289387   -3.3289789    1.4355813   306584 
 5474000   0.66780518   -3.3279618   -1.8932302  0.028683453   -3.3279618    1.4347317   306545 
 5475000   0.66983568   -3.3298486   -1.8905245   0.03407974   -3.3298486    1.4393241   306496 
 5476000   0.66877214   -3.3299647    -1.892668  0.035994352   -3.3299647    1.4372967   306441 
 5477000   0.67021555   -3.3289604   -1.8883782  0.038411235   -3.3289604    1.4405822   306402 
 5478000   0.67101913   -3.3305377   -1.8879552  0.035231834   -3.3305377    1.4425825   306344 
 5479000   0.67089936   -3.3306733   -1.8882117  0.037635014   -3.3306733    1.4424616   306315 
 5480000    0.6724161   -3.3335536   -1.8876422   0.03432749   -3.3335536    1.4459114   306275 
 5481000   0.67007264   -3.3286818   -1.8876402  0.041224985   -3.3286818    1.4410416   306239 
 5482000   0.66917813   -3.3274365   -1.8879002   0.03750639   -3.3274365    1.4395363   306150 
 5483000   0.66883752   -3.3280922   -1.8890254   0.03609198   -3.3280922    1.4390668   306094 
 5484000   0.66843778   -3.3274216    -1.889135  0.033375657   -3.3274216    1.4382866   306077 
 5485000   0.66883297   -3.3301056   -1.8905501  0.031595334   -3.3301056    1.4395555   305988 
 5486000    0.6680873   -3.3294564   -1.8911627   0.03732542   -3.3294564    1.4382937   305915 
 5487000   0.66756541   -3.3281894   -1.8908548  0.032730472   -3.3281894    1.4373346   305880 
 5488000   0.66699208    -3.326257   -1.8900958  0.033382808    -3.326257    1.4361612   305867 
 5489000   0.66767064   -3.3259903   -1.8882082  0.030064633   -3.3259903    1.4377821   305833 
 5490000   0.66752919   -3.3242202   -1.8866252  0.034887073   -3.3242202     1.437595   305808 
 5491000   0.66846903   -3.3272604   -1.8873635  0.032556977   -3.3272604    1.4398968   305749 
 5492000   0.66770504   -3.3246561   -1.8862638  0.038282843   -3.3246561    1.4383923   305719 
 5493000   0.66732786   -3.3256157    -1.887876  0.033886501   -3.3256157    1.4377397   305685 
 5494000   0.66686743   -3.3238878   -1.8868957  0.033552321   -3.3238878    1.4369922   305633 
 5495000   0.66748346   -3.3222255   -1.8836611  0.036529173   -3.3222255    1.4385643   305581 
 5496000   0.66672048   -3.3221348   -1.8849232  0.035005181   -3.3221348    1.4372116   305519 
 5497000   0.66781066   -3.3227553   -1.8828638   0.03207953   -3.3227553    1.4398915   305449 
 5498000   0.66804808   -3.3229001   -1.8822655  0.033067911   -3.3229001    1.4406345   305400 
 5499000   0.66723942   -3.3222011   -1.8831031  0.037210148   -3.3222011     1.439098   305356 
 5500000   0.66866651   -3.3228363   -1.8803912  0.036431774   -3.3228363    1.4424452   305299 
 5501000   0.66935105   -3.3233788   -1.8794806  0.036186668   -3.3233788    1.4438982   305304 
 5502000   0.66868156   -3.3226417   -1.8802491  0.030212922   -3.3226417    1.4423926   305317 
 5503000   0.66770001    -3.320648   -1.8802594  0.030861453    -3.320648    1.4403886   305293 
 5504000   0.66745736   -3.3183948   -1.8782231  0.033887605   -3.3183948    1.4401718   305228 
 5505000   0.66758336    -3.321025   -1.8803643  0.034190813    -3.321025    1.4406607   305182 
 5506000   0.66764013   -3.3191458   -1.8782823  0.033501259   -3.3191458    1.4408635   305165 
 5507000   0.66623642   -3.3184672   -1.8802325  0.033797398   -3.3184672    1.4382347   305080 
 5508000   0.66875346   -3.3212366    -1.877431  0.037074485   -3.3212366    1.4438056   305051 
 5509000   0.66669116   -3.3165988   -1.8769954  0.038224673   -3.3165988    1.4396033   304998 
 5510000    0.6671752   -3.3193563   -1.8784196  0.031584358   -3.3193563    1.4409367   304937 
 5511000   0.66696614   -3.3184947   -1.8776552   0.03771001   -3.3184947    1.4408396   304862 
 5512000   0.66647684   -3.3192166    -1.879231  0.033756499   -3.3192166    1.4399856   304819 
 5513000   0.66736024   -3.3199163    -1.878093  0.035371656   -3.3199163    1.4418234   304834 
 5514000    0.6681802   -3.3207985   -1.8771421  0.036310676   -3.3207985    1.4436564   304821 
 5515000    0.6694272   -3.3245421   -1.8779684   0.03447787   -3.3245421    1.4465737   304774 
 5516000   0.66753484   -3.3210144   -1.8784116   0.03934753   -3.3210144    1.4426028   304749 
 5517000   0.66720922   -3.3223061   -1.8801324  0.034339121   -3.3223061    1.4421736   304691 
 5518000   0.66639517   -3.3225625   -1.8821816  0.029278904   -3.3225625    1.4403809   304698 
 5519000   0.66599149   -3.3201657    -1.880369  0.035826866   -3.3201657    1.4397967   304637 
 5520000    0.6658901   -3.3210351   -1.8812261  0.035570683   -3.3210351     1.439809   304588 
 5521000   0.66652284   -3.3245366   -1.8830045  0.035649768   -3.3245366    1.4415322   304513 
 5522000   0.66665746   -3.3254928    -1.883248  0.037208773   -3.3254928    1.4422448   304424 
 5523000   0.66458313   -3.3243038   -1.8864143  0.030119565   -3.3243038    1.4378895   304396 
 5524000   0.66576842   -3.3251818   -1.8846758  0.032662759   -3.3251818     1.440506   304385 
 5525000   0.66580713    -3.328409    -1.887502  0.031779853    -3.328409    1.4409069   304318 
 5526000   0.66564199   -3.3266086   -1.8861301  0.034374028   -3.3266086    1.4404785   304333 
 5527000   0.66452774   -3.3248556   -1.8864102   0.03678416   -3.3248556    1.4384454   304253 
 5528000   0.66505521   -3.3264841   -1.8866366  0.040405576   -3.3264841    1.4398474   304198 
 5529000   0.66461145   -3.3258717   -1.8868762  0.039086172   -3.3258717    1.4389955   304175 
 5530000     0.666433   -3.3302909   -1.8871094  0.039756512   -3.3302909    1.4431814   304124 
 5531000   0.66561605   -3.3272258   -1.8853963  0.034003313   -3.3272258    1.4418295   304036 
 5532000   0.66589819   -3.3287383   -1.8859655  0.037497407   -3.3287383    1.4427728   303966 
 5533000   0.66551412   -3.3279804   -1.8860681  0.038950786   -3.3279804    1.4419122   303972 
 5534000   0.66422335   -3.3250293   -1.8857669  0.036904299   -3.3250293    1.4392624   303941 
 5535000   0.66389746   -3.3274648    -1.888634  0.032312176   -3.3274648    1.4388308   303883 
 5536000   0.66337725   -3.3269103   -1.8892589  0.036214504   -3.3269103    1.4376514   303894 
 5537000   0.66319728   -3.3268327   -1.8894153  0.035430177   -3.3268327    1.4374174   303861 
 5538000   0.66308317    -3.325973   -1.8884575  0.036260985    -3.325973    1.4375155   303788 
 5539000   0.66421595   -3.3266643   -1.8865413  0.035652043   -3.3266643    1.4401229   303756 
 5540000   0.66287527   -3.3246288   -1.8874552  0.038102756   -3.3246288    1.4371735   303765 
 5541000   0.66307965   -3.3254662   -1.8874992  0.036125482   -3.3254662     1.437967   303691 
 5542000   0.66187189   -3.3250663   -1.8893166  0.036723626   -3.3250663    1.4357496   303606 
 5543000   0.66378327   -3.3292556   -1.8892459  0.031405854   -3.3292556    1.4400097   303582 
 5544000   0.66370071   -3.3272785   -1.8873768  0.034400186   -3.3272785    1.4399017   303567 
 5545000   0.66393272   -3.3299463   -1.8893657  0.039894578   -3.3299463    1.4405807   303530 
 5546000   0.66309449   -3.3282065   -1.8892692  0.038884767   -3.3282065    1.4389373   303493 
 5547000   0.66348518   -3.3264488   -1.8864549  0.034359209   -3.3264488    1.4399939   303449 
 5548000   0.66430308   -3.3281427   -1.8860267  0.036107265   -3.3281427    1.4421159   303376 
 5549000   0.66321795   -3.3277775   -1.8876707  0.035309637   -3.3277775    1.4401068   303303 
 5550000   0.66354569   -3.3273394   -1.8861741  0.036792014   -3.3273394    1.4411653   303230 
 5551000   0.66387105   -3.3277094   -1.8858659  0.037567809   -3.3277094    1.4418434   303236 
 5552000   0.66269976      -3.3261   -1.8867814   0.03224508      -3.3261    1.4393185   303232 
 5553000   0.66277907   -3.3251297   -1.8855392  0.034910562   -3.3251297    1.4395905   303211 
 5554000   0.66288105   -3.3267711   -1.8867074  0.030005091   -3.3267711    1.4400637   303158 
 5555000   0.66401592   -3.3272705   -1.8847176  0.035852073   -3.3272705    1.4425529   303153 
 5556000   0.66291794   -3.3247041   -1.8842514  0.034474208   -3.3247041    1.4404527   303093 
 5557000   0.66205913   -3.3230056   -1.8842007  0.036906122   -3.3230056    1.4388049   303047 
 5558000   0.66164516   -3.3222458   -1.8841792  0.030524278   -3.3222458    1.4380666   303013 
 5559000   0.66212175   -3.3228099   -1.8836029  0.034223825   -3.3228099     1.439207   302991 
 5560000   0.65986006   -3.3184769   -1.8840628  0.038830393   -3.3184769     1.434414   302965 
 5561000   0.66158495   -3.3256543   -1.8872771  0.032707981   -3.3256543    1.4383772   302920 
 5562000   0.66364001   -3.3274243   -1.8843504   0.03329919   -3.3274243    1.4430739   302872 
 5563000   0.66542678   -3.3291633   -1.8818935  0.037167163   -3.3291633    1.4472698   302807 
 5564000   0.66372545   -3.3248799   -1.8812913   0.03730499   -3.3248799    1.4435886   302803 
 5565000   0.66280476   -3.3230357   -1.8813734  0.036631524   -3.3230357    1.4416622   302787 
 5566000   0.66214814   -3.3226833   -1.8822589  0.036635746   -3.3226833    1.4404243   302747 
 5567000   0.66181142   -3.3225534   -1.8825667  0.036640701   -3.3225534    1.4399867   302685 
 5568000   0.66193144   -3.3208165   -1.8806495  0.036789164   -3.3208165     1.440167   302702 
 5569000   0.66209069   -3.3223797   -1.8815139  0.033659757   -3.3223797    1.4408657   302628 
 5570000   0.66312617   -3.3230431   -1.8800241  0.038271133   -3.3230431     1.443019   302649 
 5571000   0.66126313   -3.3190398   -1.8801082  0.033495867   -3.3190398    1.4389316   302656 
 5572000   0.66177995   -3.3192058   -1.8789735  0.035393826   -3.3192058    1.4402323   302619 
 5573000   0.66206993   -3.3208036   -1.8795878   0.03595408   -3.3208036    1.4412158   302545 
 5574000   0.66031329   -3.3184422    -1.880884  0.031995051   -3.3184422    1.4375582   302510 
 5575000   0.66046681   -3.3180037   -1.8799164  0.032031944   -3.3180037    1.4380873   302469 
 5576000   0.66001386   -3.3158913   -1.8785194  0.035749489   -3.3158913     1.437372   302412 
 5577000    0.6616008    -3.319712   -1.8788888  0.034932249    -3.319712    1.4408232   302413 
 5578000   0.66121808   -3.3193197   -1.8789299  0.035915352   -3.3193197    1.4403898   302329 
 5579000   0.66104605   -3.3203778   -1.8800054  0.033339171   -3.3203778    1.4403724   302254 
 5580000    0.6610479   -3.3205515   -1.8799129  0.032341938   -3.3205515    1.4406386   302199 
 5581000   0.65928836   -3.3167416   -1.8797379  0.037626646   -3.3167416    1.4370037   302157 
 5582000   0.66038227     -3.31934   -1.8797662  0.034830216     -3.31934    1.4395738   302118 
 5583000   0.65982528   -3.3174265   -1.8790193  0.033529878   -3.3174265    1.4384072   302108 
 5584000   0.66103175   -3.3190912   -1.8777294  0.035018563   -3.3190912    1.4413617   302040 
 5585000   0.66054539   -3.3196029    -1.879149  0.035940291   -3.3196029    1.4404539   302008 
 5586000     0.660377   -3.3177392   -1.8774475  0.040189084   -3.3177392    1.4402917   301965 
 5587000   0.65952728   -3.3158238   -1.8772091  0.034412032   -3.3158238    1.4386147   301928 
 5588000   0.66011089   -3.3176218   -1.8776053  0.037981052   -3.3176218    1.4400165   301901 
 5589000   0.66084695     -3.31849    -1.876734  0.037650323     -3.31849    1.4417559   301873 
 5590000   0.65906064   -3.3167444   -1.8786188  0.035298231   -3.3167444    1.4381256   301817 
 5591000   0.65910697   -3.3166547   -1.8779609  0.038292236   -3.3166547    1.4386938   301719 
 5592000   0.65893172   -3.3159728    -1.877509  0.027968846   -3.3159728    1.4384639   301687 
 5593000   0.65977255   -3.3189116   -1.8785215    0.0298554   -3.3189116    1.4403901   301668 
 5594000   0.65865526   -3.3132966   -1.8751265  0.037725986   -3.3132966    1.4381702   301622 
 5595000    0.6602525   -3.3173061   -1.8754811  0.035541907   -3.3173061    1.4418251   301587 
 5596000   0.66109584   -3.3168408   -1.8729107  0.032692041   -3.3168408      1.44393   301532 
 5597000   0.66067078   -3.3183466   -1.8752206  0.034286834   -3.3183466    1.4431261   301506 
 5598000   0.66014228   -3.3189488   -1.8765944   0.03507797   -3.3189488    1.4423544   301426 
 5599000   0.66078431   -3.3188952   -1.8747883  0.033046742   -3.3188952    1.4441069   301353 
 5600000   0.65928385   -3.3157473   -1.8747809  0.037740002   -3.3157473    1.4409664   301324 
 5601000   0.65997133   -3.3188922   -1.8762221  0.032764272   -3.3188922    1.4426701   301282 
 5602000   0.65965302   -3.3193387   -1.8771586   0.03606457   -3.3193387    1.4421801   301239 
 5603000   0.66028374   -3.3204006   -1.8767027  0.033016064   -3.3204006     1.443698   301210 
 5604000   0.65913717   -3.3166834   -1.8754636  0.035709775   -3.3166834    1.4412197   301204 
 5605000    0.6584694   -3.3165051   -1.8765112  0.035491016   -3.3165051    1.4399939   301155 
 5606000   0.65787193    -3.315216   -1.8763041  0.037092056    -3.315216    1.4389119   301108 
 5607000    0.6590365   -3.3201404   -1.8786334  0.029117517   -3.3201404    1.4415069   301098 
 5608000   0.65858003   -3.3182007   -1.8774147  0.034969364   -3.3182007     1.440786   301040 
 5609000   0.65840617   -3.3172645   -1.8767249   0.03671592   -3.3172645    1.4405396   301012 
 5610000   0.65821199   -3.3193996   -1.8788349  0.036918088   -3.3193996    1.4405646   300918 
 5611000   0.65905382   -3.3206085   -1.8779425  0.034291115   -3.3206085     1.442666   300864 
 5612000    0.6606962   -3.3240652   -1.8777849  0.030089791   -3.3240652    1.4462804   300860 
 5613000   0.65776007   -3.3211575   -1.8811799  0.036250724   -3.3211575    1.4399775   300834 
 5614000   0.65822095    -3.320923   -1.8798024  0.037313146    -3.320923    1.4411206   300806 
 5615000   0.65829561   -3.3217024   -1.8802171  0.030750434   -3.3217024    1.4414854   300764 
 5616000   0.65724444   -3.3198564   -1.8802899  0.037095358   -3.3198564    1.4395665   300684 
 5617000   0.65806789   -3.3230781   -1.8814443  0.034463175   -3.3230781    1.4416338   300629 
 5618000   0.65768147   -3.3211798   -1.8802583  0.030684842   -3.3211798    1.4409215   300601 
 5619000   0.65712824   -3.3198138   -1.8798601  0.036387938   -3.3198138    1.4399537   300550 
 5620000   0.65831155   -3.3222429   -1.8795523  0.034134877   -3.3222429    1.4426907   300520 
 5621000    0.6580325   -3.3223049   -1.8799426  0.038689882   -3.3223049    1.4423623   300461 
 5622000   0.65799872   -3.3237008   -1.8811004  0.033660592   -3.3237008    1.4426004   300396 
 5623000   0.65698827   -3.3225292   -1.8821201   0.03524503   -3.3225292     1.440409   300391 
 5624000   0.65736411   -3.3228544    -1.881583  0.038278269   -3.3228544    1.4412714   300383 
 5625000    0.6566467    -3.320319   -1.8804624  0.029962806    -3.320319    1.4398567   300350 
 5626000   0.65581615   -3.3200361   -1.8815695  0.033771444   -3.3200361    1.4384665   300260 
 5627000   0.65655915      -3.3222   -1.8821086  0.030360851      -3.3222    1.4400914   300261 
 5628000   0.65636605   -3.3203724   -1.8807237   0.03563829   -3.3203724    1.4396487   300265 
 5629000    0.6585471   -3.3223035   -1.8776448  0.032952127   -3.3223035    1.4446587   300218 
 5630000   0.65827269   -3.3198797   -1.8757605  0.033837728   -3.3198797    1.4441192   300205 
 5631000   0.65857621    -3.320124   -1.8750645  0.039556001    -3.320124    1.4450595   300148 
 5632000   0.65731953   -3.3195957   -1.8771014  0.034476042   -3.3195957    1.4424943   300108 
 5633000   0.65619662   -3.3176713   -1.8772717  0.034844446   -3.3176713    1.4403996   300031 
 5634000   0.65481041   -3.3170001   -1.8795523  0.031136315   -3.3170001    1.4374478   300012 
 5635000   0.65514956   -3.3190928     -1.88068  0.028705712   -3.3190928    1.4384128   299966 
 5636000   0.65672737   -3.3203403   -1.8781363  0.030887248   -3.3203403    1.4422039   299898 
 5637000    0.6567696   -3.3206511   -1.8780754  0.032159781   -3.3206511    1.4425757   299840 
 5638000   0.65629483   -3.3183229   -1.8767131  0.031604481   -3.3183229    1.4416098   299824 
 5639000    0.6552088   -3.3145968   -1.8750941  0.039314163   -3.3145968    1.4395027   299766 
 5640000    0.6555096   -3.3150422   -1.8746817  0.035368187   -3.3150422    1.4403606   299725 
 5641000   0.65677761   -3.3162021   -1.8726893  0.033115997   -3.3162021    1.4435128   299649 
 5642000   0.65613591   -3.3180587   -1.8756819  0.034524945   -3.3180587    1.4423768   299592 
 5643000   0.65501528   -3.3166747   -1.8765595   0.03481505   -3.3166747    1.4401152   299550 
 5644000   0.65481401   -3.3142453   -1.8743034  0.034653494   -3.3142453    1.4399419   299494 
 5645000    0.6550934   -3.3154774   -1.8746999  0.036994716   -3.3154774    1.4407776   299448 
 5646000   0.65604716   -3.3172115   -1.8741146   0.03575138   -3.3172115    1.4430969   299402 
 5647000   0.65581312   -3.3174246   -1.8747221  0.036114067   -3.3174246    1.4427026   299377 
 5648000   0.65594304   -3.3170944   -1.8740289  0.034445692   -3.3170944    1.4430655   299361 
 5649000   0.65468733   -3.3130087   -1.8727491  0.036881522   -3.3130087    1.4402596   299370 
 5650000   0.65470422   -3.3138384   -1.8734791  0.031793057   -3.3138384    1.4403593   299357 
 5651000   0.65324719    -3.310069   -1.8726127  0.038033674    -3.310069    1.4374564   299294 
 5652000   0.65370328   -3.3120571   -1.8735586   0.03646519   -3.3120571    1.4384984   299286 
 5653000   0.65392505   -3.3104969   -1.8712989   0.03217594   -3.3104969     1.439198   299242 
 5654000   0.65281624   -3.3094637    -1.872341  0.031516828   -3.3094637    1.4371227   299166 
 5655000   0.65502872   -3.3120375   -1.8699671  0.033813228   -3.3120375    1.4420704   299150 
 5656000   0.65464477   -3.3080674   -1.8668182  0.035948784   -3.3080674    1.4412492   299145 
 5657000   0.65431764   -3.3088723   -1.8683529  0.034236558   -3.3088723    1.4405194   299147 
 5658000   0.65528131   -3.3133823   -1.8704809  0.035751185   -3.3133823    1.4429014   299093 
 5659000   0.65441685   -3.3102967   -1.8690096  0.032007657   -3.3102967    1.4412871   299033 
 5660000   0.65388767   -3.3096311   -1.8695577  0.035994481   -3.3096311    1.4400734   299043 
 5661000   0.65414771   -3.3088824   -1.8680387  0.033271689   -3.3088824    1.4408437   299002 
 5662000   0.65361786   -3.3101476   -1.8701821  0.038953581   -3.3101476    1.4399656   298942 
 5663000   0.65391025   -3.3101716    -1.869345  0.034436499   -3.3101716    1.4408266   298897 
 5664000    0.6532725   -3.3093577   -1.8698978  0.029993174   -3.3093577    1.4394599   298889 
 5665000   0.65210716   -3.3086724   -1.8713955   0.03315434   -3.3086724    1.4372768   298809 
 5666000   0.65215104   -3.3095145   -1.8718378  0.034628927   -3.3095145    1.4376767   298746 
 5667000   0.65284508   -3.3108733   -1.8714354  0.034979061   -3.3108733     1.439438   298698 
 5668000    0.6511884   -3.3087154   -1.8725167  0.036943084   -3.3087154    1.4361987   298612 
 5669000   0.65256457   -3.3110039   -1.8715387  0.037559134   -3.3110039    1.4394652   298564 
 5670000   0.65276789   -3.3120535   -1.8717828  0.036831889   -3.3120535    1.4402707   298490 
 5671000   0.65158235   -3.3098381   -1.8719423  0.039765743   -3.3098381    1.4378958   298440 
 5672000   0.65260495    -3.313217   -1.8728426  0.032182903    -3.313217    1.4403744   298394 
 5673000   0.65206906   -3.3114037   -1.8719467  0.038113957   -3.3114037     1.439457   298339 
 5674000   0.65182789   -3.3110082   -1.8718134  0.032262789   -3.3110082    1.4391948   298283 
 5675000   0.65032992   -3.3084411   -1.8723756  0.037414436   -3.3084411    1.4360655   298246 
 5676000    0.6515666    -3.309668     -1.87078  0.034959937    -3.309668     1.438888   298227 
 5677000   0.65189008   -3.3112984   -1.8714546  0.035039461   -3.3112984    1.4398437   298177 
 5678000   0.65212768   -3.3125986   -1.8720609  0.036403516   -3.3125986    1.4405376   298142 
 5679000   0.65176203   -3.3127598   -1.8727546  0.035162131   -3.3127598    1.4400052   298085 
 5680000    0.6528173   -3.3136056   -1.8710366  0.036092449   -3.3136056     1.442569   298037 
 5681000   0.65125142   -3.3102203   -1.8709908   0.03585386   -3.3102203    1.4392295   298012 
 5682000   0.65054307   -3.3091463   -1.8712409  0.036181717   -3.3091463    1.4379054   297962 
 5683000   0.65073849   -3.3091758   -1.8708385  0.035312568   -3.3091758    1.4383373   297962 
 5684000   0.65072504   -3.3087354   -1.8701574  0.038056239   -3.3087354     1.438578   297906 
 5685000   0.65090836    -3.311889   -1.8725289  0.033702243    -3.311889    1.4393601   297828 
 5686000   0.65004608   -3.3093686    -1.871949  0.031953888   -3.3093686    1.4374195   297835 
 5687000   0.65102381   -3.3095142   -1.8696039  0.037231452   -3.3095142    1.4399103   297767 
 5688000   0.65164688   -3.3106782   -1.8692349  0.036382337   -3.3106782    1.4414433   297735 
 5689000   0.65208251    -3.310828   -1.8683533  0.036802129    -3.310828    1.4424747   297721 
 5690000   0.65127894   -3.3093374   -1.8685725  0.038251032   -3.3093374    1.4407649   297707 
 5691000   0.65068631    -3.309485   -1.8697845  0.034412497    -3.309485    1.4397005   297656 
 5692000   0.65073215   -3.3111616   -1.8711517  0.032502626   -3.3111616      1.44001   297613 
 5693000   0.65102722   -3.3107343   -1.8698583  0.033384212   -3.3107343    1.4408759   297569 
 5694000   0.65001384   -3.3091235   -1.8700986  0.037309882   -3.3091235    1.4390248   297488 
 5695000    0.6498131     -3.31115     -1.87241  0.035335902     -3.31115      1.43874   297455 
 5696000    0.6509467   -3.3110418    -1.869632  0.037081549   -3.3110418    1.4414098   297422 
 5697000   0.65060736   -3.3107538   -1.8696157  0.039479069   -3.3107538    1.4411381   297323 
 5698000    0.6512088   -3.3116394   -1.8688537  0.038469786   -3.3116394    1.4427857   297258 
 5699000   0.65046515    -3.309701   -1.8684804  0.034558264    -3.309701    1.4412206   297241 
 5700000   0.64917419    -3.307162   -1.8684339   0.03448878    -3.307162    1.4387281   297165 
 5701000   0.64916225   -3.3075888   -1.8687177    0.0307207   -3.3075888    1.4388711   297130 
 5702000   0.64868156   -3.3082736   -1.8700904  0.034640462   -3.3082736    1.4381832   297052 
 5703000   0.64897868   -3.3075328   -1.8685795  0.031017936   -3.3075328    1.4389533   297029 
 5704000   0.64752039   -3.3050641   -1.8692039  0.035470956   -3.3050641    1.4358601   297000 
 5705000   0.64794183   -3.3057643   -1.8688971   0.03663129   -3.3057643    1.4368672   296985 
 5706000   0.64913867   -3.3071382   -1.8672387  0.028954174   -3.3071382    1.4398995   296907 
 5707000   0.64931689   -3.3067291   -1.8663276  0.034978159   -3.3067291    1.4404015   296885 
 5708000   0.64957076   -3.3059068   -1.8648838  0.035320046   -3.3059068     1.441023   296873 
 5709000   0.65046003   -3.3063265    -1.863185  0.034136054   -3.3063265    1.4431416   296843 
 5710000   0.64942786   -3.3079968   -1.8668443  0.036767591   -3.3079968    1.4411526   296781 
 5711000   0.64811656   -3.3055443   -1.8672532  0.037076282   -3.3055443    1.4382911   296771 
 5712000   0.64921293   -3.3061065   -1.8650474  0.034139011   -3.3061065    1.4410592   296702 
 5713000   0.64837808   -3.3068378   -1.8674765  0.032196546   -3.3068378    1.4393613   296670 
 5714000   0.64777228   -3.3066003   -1.8685208  0.040215621   -3.3066003    1.4380795   296657 
 5715000   0.64696446   -3.3053028   -1.8687068  0.032946249   -3.3053028     1.436596   296593 
 5716000   0.64942362   -3.3075766    -1.865554  0.032904399   -3.3075766    1.4420226   296600 
 5717000   0.64773503    -3.306233   -1.8675912  0.035460204    -3.306233    1.4386418   296524 
 5718000   0.64760566    -3.307958   -1.8694678  0.035020835    -3.307958    1.4384903   296496 
 5719000   0.64728484   -3.3095396   -1.8716116  0.031953122   -3.3095396     1.437928   296465 
 5720000   0.64642683   -3.3071313   -1.8707556  0.034810483   -3.3071313    1.4363756   296392 
 5721000   0.64666242   -3.3073867   -1.8701385   0.03470478   -3.3073867    1.4372483   296320 
 5722000   0.64605219    -3.304797   -1.8689632   0.03520198    -3.304797    1.4358338   296332 
 5723000   0.64677553   -3.3066301    -1.868849  0.032490047   -3.3066301    1.4377811   296262 
 5724000   0.64790837   -3.3082699   -1.8677469  0.035300791   -3.3082699     1.440523   296216 
 5725000   0.64869849   -3.3086847   -1.8663562  0.037632984   -3.3086847    1.4423284   296206 
 5726000   0.64811744   -3.3091928   -1.8676599  0.035653001   -3.3091928    1.4415329   296104 
 5727000   0.64680491   -3.3078188   -1.8689477  0.036724754   -3.3078188    1.4388712   296051 
 5728000   0.64802342    -3.308013   -1.8663046  0.037155765    -3.308013    1.4417084   296025 
 5729000   0.64686638    -3.308748   -1.8693317  0.035549318    -3.308748    1.4394163   295967 
 5730000   0.64612721   -3.3090417   -1.8709106  0.033779199   -3.3090417    1.4381311   295893 
 5731000   0.64568938   -3.3072277   -1.8698963  0.033145137   -3.3072277    1.4373314   295857 
 5732000   0.64693833    -3.308524   -1.8681884  0.034177522    -3.308524    1.4403356   295811 
 5733000   0.64773718   -3.3066287   -1.8646023  0.033376377   -3.3066287    1.4420264   295829 
 5734000    0.6474849    -3.305072   -1.8636754  0.032742598    -3.305072    1.4413966   295843 
 5735000   0.64650008   -3.3037566   -1.8643772  0.036398104   -3.3037566    1.4393794   295807 
 5736000   0.64562039   -3.3043414   -1.8665123  0.036792862   -3.3043414    1.4378291   295723 
 5737000   0.64631649   -3.3048296   -1.8652214  0.036282077   -3.3048296    1.4396081   295676 
 5738000   0.64604876   -3.3036768   -1.8643194  0.034087434   -3.3036768    1.4393574   295605 
 5739000   0.64587959   -3.3035354   -1.8642189  0.036215596   -3.3035354    1.4393165   295536 
 5740000   0.64630399   -3.3049822   -1.8645688  0.036248598   -3.3049822    1.4404133   295505 
 5741000   0.64604987   -3.3042778   -1.8641335  0.034944035   -3.3042778    1.4401443   295444 
 5742000   0.64548815   -3.3025213    -1.863561  0.034556235   -3.3025213    1.4389603   295430 
 5743000   0.64655491   -3.3037491   -1.8622351  0.034031871   -3.3037491     1.441514   295394 
 5744000   0.64583875   -3.3007758   -1.8606635  0.035416766   -3.3007758    1.4401123   295354 
 5745000   0.64567816    -3.299372   -1.8591984  0.039212376    -3.299372    1.4401736   295268 
 5746000   0.64695877    -3.303843   -1.8608961  0.036632461    -3.303843    1.4429469   295285 
 5747000   0.64561727    -3.300989   -1.8609317  0.035409381    -3.300989    1.4400573   295264 
 5748000   0.64516202   -3.2988012   -1.8595352  0.036720339   -3.2988012    1.4392661   295218 
 5749000   0.64560718   -3.2980699   -1.8576302  0.035140892   -3.2980699    1.4404397   295181 
 5750000   0.64459486   -3.2961247   -1.8578072  0.033166383   -3.2961247    1.4383175   295153 
 5751000   0.64406349   -3.2963894   -1.8590628  0.035835759   -3.2963894    1.4373266   295113 
 5752000   0.64437667    -3.297798   -1.8595141  0.032338617    -3.297798    1.4382838   295060 
 5753000   0.64501677   -3.2984321    -1.858373  0.034030529   -3.2984321    1.4400591   294989 
 5754000   0.64419162   -3.2991829   -1.8607564  0.029906792   -3.2991829    1.4384266   294946 
 5755000   0.64347512   -3.2970315   -1.8600441  0.033029063   -3.2970315    1.4369875   294913 
 5756000   0.64480436   -3.2970627   -1.8569701  0.036160069   -3.2970627    1.4400926   294885 
 5757000   0.64420969   -3.2980387    -1.858918  0.034135648   -3.2980387    1.4391207   294812 
 5758000   0.64441727   -3.2983286   -1.8584365  0.031814202   -3.2983286    1.4398921   294749 
 5759000   0.64509751    -3.300282   -1.8584639  0.038296656    -3.300282    1.4418181   294666 
 5760000   0.64384649   -3.2989721   -1.8597352  0.036637777   -3.2989721    1.4392369   294622 
 5761000   0.64369285   -3.3004928   -1.8613111  0.032203519   -3.3004928    1.4391817   294563 
 5762000    0.6432403   -3.2998277   -1.8614136   0.03235702   -3.2998277     1.438414   294513 
 5763000   0.64326543   -3.3001251   -1.8613959  0.033288598   -3.3001251    1.4387291   294460 
 5764000   0.64508835    -3.303301   -1.8603232  0.037392191    -3.303301    1.4429778   294425 
 5765000   0.64499507   -3.3012899   -1.8584717  0.037185463   -3.3012899    1.4428181   294415 
 5766000   0.64576933   -3.3039586   -1.8592662  0.037562441   -3.3039586    1.4446924   294386 
 5767000   0.64602287   -3.3035033   -1.8582092  0.034761416   -3.3035033     1.445294   294379 
 5768000   0.64463426   -3.2993059    -1.856702  0.037496413   -3.2993059    1.4426039   294294 
 5769000   0.64466909   -3.3031818   -1.8600635  0.038006403   -3.3031818    1.4431183   294205 
 5770000   0.64386615   -3.2997754    -1.858234   0.03793208   -3.2997754    1.4415414   294160 
 5771000    0.6434993   -3.2997514   -1.8587913  0.038055226   -3.2997514    1.4409601   294111 
 5772000   0.64394437   -3.3000308   -1.8578289  0.037704931   -3.3000308    1.4422019   294061 
 5773000   0.64381979   -3.3008639   -1.8587203  0.031086792   -3.3008639    1.4421436   294016 
 5774000   0.64318891   -3.3010883   -1.8601668  0.032536389   -3.3010883    1.4409215   293977 
 5775000   0.64285154   -3.3033611   -1.8629553  0.031219765   -3.3033611    1.4404058   293928 
 5776000   0.64267952   -3.2997532   -1.8597426  0.038244564   -3.2997532    1.4400106   293930 
 5777000   0.64233781   -3.2982675   -1.8588757  0.032973784   -3.2982675    1.4393918   293900 
 5778000   0.64318671   -3.2999605   -1.8585192  0.034437328   -3.2999605    1.4414412   293870 
 5779000   0.64358197   -3.3012478   -1.8587048  0.035471012   -3.3012478     1.442543   293826 
 5780000   0.64375705     -3.29822   -1.8550783  0.033392071     -3.29822    1.4431418   293784 
 5781000   0.64472242   -3.3002014   -1.8546545  0.034689119   -3.3002014     1.445547   293735 
 5782000   0.64298026   -3.2988262   -1.8568074  0.036525195   -3.2988262    1.4420188   293658 
 5783000   0.64280056   -3.2970502   -1.8551938  0.035875895   -3.2970502    1.4418564   293609 
 5784000   0.64194884   -3.2957162   -1.8557065  0.036308989   -3.2957162    1.4400097   293596 
 5785000    0.6421427   -3.2972355   -1.8563493  0.036420108   -3.2972355    1.4408863   293506 
 5786000   0.64099185   -3.2946441   -1.8560559  0.032576946   -3.2946441    1.4385882   293448 
 5787000   0.64147941    -3.296939   -1.8569916  0.035740749    -3.296939    1.4399474   293394 
 5788000   0.64135726   -3.2972399   -1.8575471   0.03240773   -3.2972399    1.4396928   293390 
 5789000   0.64024305   -3.2952403   -1.8578134  0.037824316   -3.2952403    1.4374269   293342 
 5790000   0.64145083   -3.2990257   -1.8586614  0.031902206   -3.2990257    1.4403644   293296 
 5791000   0.63969995   -3.2937887   -1.8571551  0.034023386   -3.2937887    1.4366336   293255 
 5792000   0.64010941   -3.2953758   -1.8577099  0.034663498   -3.2953758    1.4376659   293232 
 5793000   0.64119233   -3.2990129   -1.8586299   0.03111836   -3.2990129     1.440383   293174 
 5794000   0.64107663   -3.2976012   -1.8571833  0.039057266   -3.2976012    1.4404179   293114 
 5795000   0.64307139   -3.3015835   -1.8567132  0.035817284   -3.3015835    1.4448703   293120 
 5796000   0.64205114   -3.2999902   -1.8572104  0.037418476   -3.2999902    1.4427798   293079 
 5797000   0.64205832   -3.2988699   -1.8556997  0.038780592   -3.2988699    1.4431702   293003 
 5798000   0.64162006   -3.3005552   -1.8580452  0.034325175   -3.3005552      1.44251   292937 
 5799000   0.64230238    -3.301281   -1.8570545  0.036611646    -3.301281    1.4442264   292900 
 5800000   0.64004478   -3.2973063   -1.8579399  0.034286352   -3.2973063    1.4393664   292856 
 5801000   0.64093051   -3.2994471    -1.857562  0.036106541   -3.2994471    1.4418851   292749 
 5802000   0.64159665   -3.3003282     -1.85655  0.040440213   -3.3003282    1.4437782   292669 
 5803000   0.64043626   -3.2992348   -1.8579299  0.037195345   -3.2992348    1.4413049   292641 
 5804000   0.64045187   -3.3001981   -1.8583703  0.032244858   -3.3001981    1.4418278   292542 
 5805000   0.64044437   -3.2986321   -1.8569344  0.038318527   -3.2986321    1.4416976   292565 
 5806000   0.63952173   -3.2959069   -1.8561682  0.035825134   -3.2959069    1.4397388   292541 
 5807000   0.64001946   -3.2980696   -1.8568358  0.035786906   -3.2980696    1.4412337   292465 
 5808000   0.64026423   -3.2997433   -1.8576132  0.031824006   -3.2997433    1.4421301   292395 
 5809000   0.64060297    -3.298723   -1.8556868  0.032429426    -3.298723    1.4430362   292366 
 5810000   0.64034962   -3.2966335   -1.8540052  0.035430673   -3.2966335    1.4426283   292333 
 5811000   0.64072809   -3.2963704   -1.8525586  0.038422985   -3.2963704    1.4438118   292266 
 5812000   0.64107769   -3.2980492   -1.8531925  0.035516133   -3.2980492    1.4448567   292214 
 5813000   0.64034416   -3.2980418   -1.8545222  0.036289868   -3.2980418    1.4435196   292150 
 5814000   0.63829677   -3.2941557   -1.8548525   0.03313696   -3.2941557    1.4393033   292069 
 5815000   0.63886494   -3.2953548    -1.854652  0.032655319   -3.2953548    1.4407028   292045 
 5816000   0.63832464   -3.2937865   -1.8538633   0.03367961   -3.2937865    1.4399232   291956 
 5817000   0.63902791   -3.2932389   -1.8517194  0.031020483   -3.2932389    1.4415195   291954 
 5818000   0.63853583   -3.2943217   -1.8536902  0.030494752   -3.2943217    1.4406315   291909 
 5819000    0.6377316   -3.2927567   -1.8537769  0.033960658   -3.2927567    1.4389797   291876 
 5820000   0.63828027   -3.2925574   -1.8520139  0.037030959   -3.2925574    1.4405435   291810 
 5821000   0.63865842    -3.293645   -1.8521887  0.033102789    -3.293645    1.4414562   291798 
 5822000   0.63852056   -3.2924933    -1.851037  0.032189266   -3.2924933    1.4414563   291735 
 5823000   0.63684899   -3.2889506   -1.8512383  0.034885213   -3.2889506    1.4377123   291729 
 5824000   0.63719658   -3.2898996    -1.851156  0.031701691   -3.2898996    1.4387436   291679 
 5825000   0.63860507   -3.2915115   -1.8495679  0.033277149   -3.2915115    1.4419437   291675 
 5826000   0.63904643    -3.292639   -1.8493722  0.037695567    -3.292639    1.4432668   291609 
 5827000   0.63936288   -3.2936673   -1.8493936  0.038887748   -3.2936673    1.4442737   291550 
 5828000   0.64006069    -3.295726   -1.8496131  0.033275845    -3.295726    1.4461129   291497 
 5829000   0.63865781   -3.2924347   -1.8492042  0.034737687   -3.2924347    1.4432305   291439 
 5830000   0.63852557   -3.2931423   -1.8500918  0.039186435   -3.2931423    1.4430505   291415 
 5831000   0.63818864   -3.2910225   -1.8485404    0.0333209   -3.2910225    1.4424821   291376 
 5832000   0.63687111   -3.2890927   -1.8492822  0.035387263   -3.2890927    1.4398105   291314 
 5833000   0.63702626   -3.2911085    -1.850789  0.033813562   -3.2911085    1.4403194   291282 
 5834000   0.63823683   -3.2947317   -1.8513679  0.035241608   -3.2947317    1.4433637   291220 
 5835000   0.63668718   -3.2891931   -1.8492003  0.034975044   -3.2891931    1.4399928   291193 
 5836000   0.63706335   -3.2899066   -1.8487166  0.036505847   -3.2899066      1.44119   291123 
 5837000   0.63715148   -3.2896194   -1.8478983  0.038307996   -3.2896194    1.4417211   291056 
 5838000   0.63790112   -3.2905858   -1.8468262  0.036045196   -3.2905858    1.4437597   290987 
 5839000   0.63835191   -3.2927754   -1.8475882  0.035195942   -3.2927754    1.4451872   290905 
 5840000   0.63794817   -3.2921505   -1.8478327  0.036573444   -3.2921505    1.4443179   290896 
 5841000   0.63780604   -3.2916623    -1.847418   0.03347552   -3.2916623    1.4442443   290846 
 5842000   0.63628247   -3.2902261   -1.8489808  0.035147722   -3.2902261    1.4412453   290755 
 5843000   0.63602938   -3.2897582    -1.848888  0.034113579   -3.2897582    1.4408702   290715 
 5844000   0.63638981   -3.2925161   -1.8504771  0.031314113   -3.2925161    1.4420389   290644 
 5845000   0.63574831    -3.290638   -1.8499139  0.034623879    -3.290638    1.4407241   290616 
 5846000   0.63602094   -3.2882679   -1.8467524  0.037407318   -3.2882679    1.4415156   290581 
 5847000   0.63515033   -3.2879411   -1.8480568  0.040607453   -3.2879411    1.4398843   290512 
 5848000   0.63656637   -3.2902118   -1.8468392  0.033642074   -3.2902118    1.4433726   290456 
 5849000   0.63673907   -3.2922025   -1.8480753  0.031564929   -3.2922025    1.4441272   290383 
 5850000    0.6354558   -3.2900742   -1.8486738  0.029524767   -3.2900742    1.4414004   290346 
 5851000   0.63449925   -3.2880991    -1.848571  0.033598447   -3.2880991    1.4395281   290286 
 5852000    0.6354607   -3.2882431   -1.8464642  0.035506653   -3.2882431     1.441779   290272 
 5853000   0.63654885   -3.2904603   -1.8460283  0.034908041   -3.2904603    1.4444319   290235 
 5854000   0.63679189   -3.2901427    -1.844965  0.037389804   -3.2901427    1.4451776   290196 
 5855000   0.63668694   -3.2890039    -1.844174  0.037892709   -3.2890039    1.4448299   290218 
 5856000   0.63638215   -3.2889877   -1.8447748  0.034189856   -3.2889877    1.4442129   290203 
 5857000   0.63537646   -3.2880053   -1.8456124  0.039706132   -3.2880053    1.4423928   290110 
 5858000   0.63448107   -3.2866461   -1.8460426  0.032036107   -3.2866461    1.4406035   290061 
 5859000    0.6348849   -3.2875984   -1.8458395  0.033568257   -3.2875984     1.441759   290013 
 5860000   0.63440066   -3.2890889   -1.8482656  0.033416744   -3.2890889    1.4408233   289980 
 5861000   0.63410263   -3.2878632   -1.8475131  0.034037946   -3.2878632      1.44035   289939 
 5862000   0.63588687   -3.2914044   -1.8466128  0.029195327   -3.2914044    1.4447916   289861 
 5863000      0.63562   -3.2898334   -1.8457677  0.034300192   -3.2898334    1.4440657   289885 
 5864000   0.63403499   -3.2865828   -1.8460982  0.031559401   -3.2865828    1.4404846   289881 
 5865000   0.63461467   -3.2878426   -1.8459814   0.03799371   -3.2878426    1.4418612   289869 
 5866000    0.6349382   -3.2884802   -1.8458988  0.035525471   -3.2884802    1.4425814   289872 
 5867000   0.63356199    -3.287605   -1.8476337  0.033607757    -3.287605    1.4399712   289768 
 5868000   0.63261747   -3.2846734   -1.8465759  0.032781169   -3.2846734    1.4380975   289713 
 5869000     0.634489   -3.2891252    -1.846325   0.03638652   -3.2891252    1.4428002   289623 
 5870000   0.63374104   -3.2882091   -1.8468162   0.03549439   -3.2882091     1.441393   289564 
 5871000   0.63414181   -3.2894801   -1.8467022  0.035265105   -3.2894801    1.4427778   289469 
 5872000   0.63350917    -3.288354   -1.8467665  0.041086687    -3.288354    1.4415875   289419 
 5873000   0.63488518   -3.2928499   -1.8477518  0.031589447   -3.2928499    1.4450981   289343 
 5874000    0.6341416   -3.2931464   -1.8493167  0.035711416   -3.2931464    1.4438298   289258 
 5875000   0.63301339   -3.2922522   -1.8508716  0.037967991   -3.2922522    1.4413806   289234 
 5876000   0.63271134    -3.290084   -1.8492367  0.036296695    -3.290084    1.4408473   289203 
 5877000   0.63187694   -3.2883041   -1.8492326  0.035670226   -3.2883041    1.4390716   289178 
 5878000   0.63242841   -3.2883121   -1.8477804  0.033956746   -3.2883121    1.4405317   289137 
 5879000   0.63236565   -3.2878791   -1.8471615  0.033802114   -3.2878791    1.4407176   289071 
 5880000   0.63296888   -3.2893606   -1.8470441  0.037415367   -3.2893606    1.4423165   289026 
 5881000   0.63245195     -3.28781   -1.8465068  0.036768697     -3.28781    1.4413032   288993 
 5882000   0.63378533    -3.290965   -1.8461932  0.034320701    -3.290965    1.4447718   288907 
 5883000   0.63286838   -3.2883506   -1.8453095  0.031915173   -3.2883506    1.4430411   288835 
 5884000   0.63261536   -3.2881338   -1.8454149  0.028877843   -3.2881338    1.4427189   288784 
 5885000    0.6323281   -3.2863708   -1.8440772  0.033394927   -3.2863708    1.4422936   288738 
 5886000   0.63122596   -3.2857655   -1.8456367   0.03271831   -3.2857655    1.4401288   288668 
 5887000   0.63104006   -3.2854417   -1.8456023  0.033402574   -3.2854417    1.4398394   288641 
 5888000   0.63160559   -3.2857775   -1.8443581  0.033124692   -3.2857775    1.4414194   288583 
 5889000   0.63137332   -3.2880032   -1.8467543  0.033956225   -3.2880032    1.4412489   288511 
 5890000   0.63098527   -3.2865442   -1.8460314   0.03337098   -3.2865442    1.4405128   288481 
 5891000   0.62962763   -3.2838886   -1.8462858  0.030592374   -3.2838886    1.4376028   288443 
 5892000   0.63156926   -3.2875618   -1.8452707  0.033594229   -3.2875618     1.442291   288392 
 5893000   0.62998763   -3.2843318   -1.8455379  0.036462629   -3.2843318    1.4387939   288369 
 5894000   0.63173627   -3.2863968   -1.8431639  0.033397545   -3.2863968    1.4432329   288280 
 5895000   0.63136865   -3.2868492   -1.8441008  0.033884944   -3.2868492    1.4427484   288209 
 5896000    0.6319751   -3.2873345   -1.8429597  0.033550592   -3.2873345    1.4443748   288161 
 5897000   0.63037816   -3.2829123   -1.8422722  0.032088925   -3.2829123      1.44064   288178 
 5898000   0.62958639   -3.2821112   -1.8430859  0.040817218   -3.2821112    1.4390253   288139 
 5899000    0.6316396   -3.2853452   -1.8414466  0.037363059   -3.2853452    1.4438986   288103 
 5900000   0.63047333    -3.283646   -1.8421533  0.031229219    -3.283646    1.4414928   288051 
 5901000   0.62988926   -3.2854785    -1.844871  0.030151337   -3.2854785    1.4406075   287961 
 5902000   0.63024207   -3.2881235   -1.8464037  0.030390409   -3.2881235    1.4417198   287900 
 5903000   0.62780853   -3.2844396   -1.8479874  0.030206981   -3.2844396    1.4364523   287840 
 5904000   0.62914958   -3.2877975   -1.8482218   0.03248595   -3.2877975    1.4395757   287829 
 5905000    0.6282302   -3.2845906   -1.8469538  0.037847243   -3.2845906    1.4376368   287796 
 5906000   0.62879847   -3.2846767   -1.8454994  0.033853846   -3.2846767    1.4391773   287748 
 5907000   0.62945288   -3.2855983   -1.8445727  0.039727989   -3.2855983    1.4410256   287678 
 5908000   0.63007307   -3.2891621   -1.8462452  0.039252212   -3.2891621    1.4429169   287584 
 5909000   0.62938431   -3.2900964    -1.848446   0.03422688   -3.2900964    1.4416504   287522 
 5910000   0.62901544   -3.2876948   -1.8468142  0.034403909   -3.2876948    1.4408807   287507 
 5911000   0.62906494   -3.2887448   -1.8477708  0.037025798   -3.2887448     1.440974   287511 
 5912000   0.62913193   -3.2907881   -1.8490037  0.031421241   -3.2907881    1.4417844   287380 
 5913000   0.62774587   -3.2879447   -1.8491666  0.033233321   -3.2879447    1.4387782   287346 
 5914000   0.62800807   -3.2913924   -1.8517126  0.030331143   -3.2913924    1.4396797   287286 
 5915000   0.62793555   -3.2889474   -1.8490029     0.032763   -3.2889474    1.4399446   287200 
 5916000   0.62757539   -3.2893279   -1.8499988  0.034820283   -3.2893279    1.4393291   287158 
 5917000   0.62810856   -3.2919189   -1.8515075  0.030677693   -3.2919189    1.4404115   287186 
 5918000   0.62698373    -3.286524   -1.8484316  0.038339802    -3.286524    1.4380924   287134 
 5919000   0.62668081   -3.2871612   -1.8497035  0.032988958   -3.2871612    1.4374576   287122 
 5920000   0.62916427   -3.2896526   -1.8462974  0.035583414   -3.2896526    1.4433552   287082 
 5921000   0.62759701   -3.2873592   -1.8475191  0.033876718   -3.2873592      1.43984   287066 
 5922000    0.6277623   -3.2876629   -1.8469267  0.035098656   -3.2876629    1.4407362   286963 
 5923000   0.62827624   -3.2903514   -1.8483151  0.037429761   -3.2903514    1.4420363   286939 
 5924000   0.62718086   -3.2912083   -1.8515256  0.030532836   -3.2912083    1.4396827   286907 
 5925000    0.6280143   -3.2895033    -1.847827  0.033246776   -3.2895033    1.4416762   286891 
 5926000   0.62782153    -3.287289   -1.8458493   0.03538153    -3.287289    1.4414397   286850 
 5927000   0.62796723   -3.2842669   -1.8426585  0.036299748   -3.2842669    1.4416084   286883 
 5928000   0.62856198   -3.2855664   -1.8423965  0.032843624   -3.2855664    1.4431699   286844 
 5929000   0.62806422   -3.2853278   -1.8430091  0.033299339   -3.2853278    1.4423187   286786 
 5930000   0.62954472    -3.287023   -1.8409666  0.036108799    -3.287023    1.4460564   286719 
 5931000   0.62708506   -3.2828885   -1.8420949  0.036181557   -3.2828885    1.4407936   286642 
 5932000    0.6268944   -3.2807444   -1.8401426  0.037975007   -3.2807444    1.4406018   286593 
 5933000   0.62687099   -3.2801064   -1.8395383  0.030746194   -3.2801064    1.4405681   286589 
 5934000   0.62616654   -3.2803083   -1.8411783  0.035361454   -3.2803083      1.43913   286553 
 5935000   0.62661221   -3.2812249   -1.8408595  0.029649407   -3.2812249    1.4403654   286511 
 5936000   0.62715226   -3.2801105   -1.8384534  0.032317307   -3.2801105    1.4416571   286501 
 5937000   0.62626791   -3.2789308   -1.8390503  0.036155434   -3.2789308    1.4398805   286450 
 5938000   0.62615798   -3.2791733   -1.8394752  0.032076333   -3.2791733    1.4396982   286436 
 5939000   0.62726153   -3.2812248   -1.8384906  0.032291522   -3.2812248    1.4427342   286337 
 5940000   0.62605518   -3.2803339   -1.8401279  0.031851426   -3.2803339     1.440206   286288 
 5941000    0.6267424   -3.2808562   -1.8388124  0.030127113   -3.2808562    1.4420437   286237 
 5942000   0.62597423   -3.2784049   -1.8381236  0.031001672   -3.2784049    1.4402813   286236 
 5943000   0.62590269   -3.2774072   -1.8372855  0.036348302   -3.2774072    1.4401218   286235 
 5944000   0.62588155   -3.2778401   -1.8375154  0.034482689   -3.2778401    1.4403247   286185 
 5945000   0.62692837     -3.28065   -1.8376591  0.034982231     -3.28065    1.4429909   286134 
 5946000   0.62780186   -3.2801959    -1.835134  0.035952761   -3.2801959     1.445062   286122 
 5947000   0.62865932   -3.2822215     -1.83511  0.038777042   -3.2822215    1.4471115   286107 
 5948000   0.62737022   -3.2817263   -1.8373044  0.036051896   -3.2817263    1.4444218   286052 
 5949000   0.62624361   -3.2801268   -1.8382383   0.03477313   -3.2801268    1.4418885   286040 
 5950000   0.62685957   -3.2813206   -1.8378575  0.034931649   -3.2813206    1.4434631   286009 
 5951000   0.62568598   -3.2793264   -1.8382231  0.035371684   -3.2793264    1.4411033   285941 
 5952000   0.62535887   -3.2784967   -1.8382273  0.036964588   -3.2784967    1.4402693   285957 
 5953000   0.62598827   -3.2809536   -1.8390582  0.035402469   -3.2809536    1.4418954   285922 
 5954000   0.62587173   -3.2819741   -1.8400193  0.032848761   -3.2819741    1.4419548   285857 
 5955000   0.62711343   -3.2811974   -1.8361949  0.036667148   -3.2811974    1.4450026   285820 
 5956000   0.62554409   -3.2808038   -1.8390441  0.033982964   -3.2808038    1.4417597   285746 
 5957000    0.6260576   -3.2824111   -1.8393617  0.037172412   -3.2824111    1.4430494   285725 
 5958000   0.62623301    -3.283755   -1.8401699  0.036073737    -3.283755     1.443585   285699 
 5959000   0.62595444   -3.2839101   -1.8406893  0.033777827   -3.2839101    1.4432207   285644 
 5960000   0.62629988    -3.283522   -1.8394796   0.03822395    -3.283522    1.4440424   285639 
 5961000   0.62600968   -3.2838197   -1.8404615  0.037415798   -3.2838197    1.4433582   285642 
 5962000   0.62650456   -3.2826887   -1.8382451  0.038121936   -3.2826887    1.4444436   285653 
 5963000   0.62492648   -3.2803736   -1.8393262  0.038104985   -3.2803736    1.4410474   285605 
 5964000   0.62439575   -3.2799648   -1.8399144  0.033449947   -3.2799648    1.4400504   285560 
 5965000   0.62359845   -3.2789235   -1.8402988   0.03029645   -3.2789235    1.4386247   285478 
 5966000   0.62376912   -3.2791707   -1.8400465   0.03316885   -3.2791707    1.4391243   285457 
 5967000   0.62416406   -3.2800209   -1.8397837  0.035229203   -3.2800209    1.4402373   285417 
 5968000   0.62400707    -3.278529    -1.838442  0.037075149    -3.278529     1.440087   285375 
 5969000    0.6241562   -3.2816481   -1.8408686  0.032198268   -3.2816481    1.4407795   285306 
 5970000   0.62404801   -3.2808274    -1.839924  0.033644494   -3.2808274    1.4409035   285232 
 5971000    0.6242631   -3.2812608   -1.8397242  0.035946987   -3.2812608    1.4415366   285205 
 5972000   0.62439658   -3.2802109   -1.8381739  0.035630424   -3.2802109    1.4420369   285167 
 5973000   0.62389362   -3.2788747   -1.8376455   0.03327915   -3.2788747    1.4412291   285097 
 5974000   0.62514086   -3.2818322   -1.8373419  0.036758617   -3.2818322    1.4444903   285022 
 5975000   0.62527669    -3.281074   -1.8362394  0.034196983    -3.281074    1.4448346   285016 
 5976000   0.62478712   -3.2813207   -1.8373032  0.035263563   -3.2813207    1.4440174   284954 
 5977000   0.62443142   -3.2806191   -1.8372363  0.034116381   -3.2806191    1.4433828   284917 
 5978000   0.62430102   -3.2826577   -1.8394041  0.035430644   -3.2826577    1.4432536   284883 
 5979000     0.622602   -3.2777245   -1.8381814  0.036475139   -3.2777245    1.4395431   284840 
 5980000   0.62415781   -3.2814051    -1.837834  0.037177631   -3.2814051    1.4435711   284755 
 5981000   0.62373154   -3.2807773   -1.8380807  0.037703298   -3.2807773    1.4426967   284733 
 5982000   0.62326455   -3.2787995   -1.8370666   0.03781642   -3.2787995     1.441733   284710 
 5983000   0.62449422   -3.2805541   -1.8357686  0.036138387   -3.2805541    1.4447855   284669 
 5984000   0.62383421   -3.2794089   -1.8360134  0.035653826   -3.2794089    1.4433955   284642 
 5985000   0.62438555   -3.2794848   -1.8343059  0.036712024   -3.2794848    1.4451789   284542 
 5986000   0.62456752   -3.2795263    -1.833718  0.042009816   -3.2795263    1.4458083   284501 
 5987000   0.62311367   -3.2764801   -1.8336772   0.03272473   -3.2764801    1.4428029   284430 
 5988000   0.62447119   -3.2800717   -1.8339221   0.03682918   -3.2800717    1.4461496   284390 
 5989000   0.62263283   -3.2790604   -1.8367573  0.038508004   -3.2790604    1.4423031   284309 
 5990000   0.62273459   -3.2768875   -1.8341914  0.034244287   -3.2768875    1.4426962   284278 
 5991000   0.62258995   -3.2772541   -1.8348423  0.032749865   -3.2772541    1.4424118   284268 
 5992000   0.62180495   -3.2753353   -1.8347726  0.033918522   -3.2753353    1.4405627   284274 
 5993000   0.62149242   -3.2743196   -1.8343948  0.034362643   -3.2743196    1.4399248   284257 
 5994000    0.6214491   -3.2737884    -1.833888  0.040291446   -3.2737884    1.4399004   284242 
 5995000   0.62109103   -3.2744895     -1.83512  0.033847696   -3.2744895    1.4393695   284183 
 5996000   0.62108353   -3.2748077   -1.8353138  0.031523959   -3.2748077    1.4394939   284155 
 5997000   0.62105021   -3.2743404   -1.8348629  0.029943512   -3.2743404    1.4394775   284143 
 5998000   0.62213789   -3.2736145   -1.8314332  0.035485284   -3.2736145    1.4421813   284107 
 5999000   0.62180203   -3.2719459   -1.8302742   0.03392068   -3.2719459    1.4416716   284054 
 6000000   0.62302848   -3.2761186   -1.8313745  0.037364549   -3.2761186    1.4447441   284009 
 6001000   0.62249399   -3.2754318    -1.831734  0.037075122   -3.2754318    1.4436978   283971 
 6002000   0.62237166   -3.2737509   -1.8301537  0.037388006   -3.2737509    1.4435971   283935 
 6003000   0.62374065   -3.2781308   -1.8310729  0.034848963   -3.2781308    1.4470579   283879 
 6004000   0.62283748   -3.2780621   -1.8327686  0.035118159   -3.2780621    1.4452935   283814 
 6005000   0.62324075   -3.2789486   -1.8323625  0.036794931   -3.2789486    1.4465861   283744 
 6006000   0.62346701   -3.2794985   -1.8322342  0.039813305   -3.2794985    1.4472643   283714 
 6007000    0.6222951    -3.276972    -1.832041  0.040566307    -3.276972     1.444931   283638 
 6008000   0.62291752   -3.2780866   -1.8314299  0.034602547   -3.2780866    1.4466567   283583 
 6009000   0.62278002   -3.2772333   -1.8308245  0.036199455   -3.2772333    1.4464088   283569 
 6010000   0.62313027   -3.2804266   -1.8327551  0.035638736   -3.2804266    1.4476715   283481 
 6011000   0.62003764   -3.2758876   -1.8348622  0.036791126   -3.2758876    1.4410255   283375 
 6012000   0.62113985   -3.2779805    -1.834317  0.035449827   -3.2779805    1.4436635   283360 
 6013000   0.62088096   -3.2785792   -1.8351251  0.031996363   -3.2785792     1.443454   283283 
 6014000   0.62133056   -3.2778567   -1.8328932  0.032616593   -3.2778567    1.4449635   283192 
 6015000   0.61937893   -3.2746965   -1.8342514  0.033739643   -3.2746965    1.4404451   283188 
 6016000   0.61940213   -3.2754592   -1.8348635  0.032363209   -3.2754592    1.4405957   283169 
 6017000   0.61979945   -3.2754826     -1.83353  0.036772982   -3.2754826    1.4419526   283084 
 6018000   0.62016572   -3.2775819   -1.8345426  0.035802925   -3.2775819    1.4430392   283038 
 6019000   0.62174397   -3.2794257   -1.8324687  0.032134013   -3.2794257     1.446957   282990 
 6020000    0.6214243   -3.2774748   -1.8311902   0.03809174   -3.2774748    1.4462846   282976 
 6021000   0.62097019   -3.2777669   -1.8322225  0.034965192   -3.2777669    1.4455444   282914 
 6022000   0.62134291   -3.2800651   -1.8333462  0.037066706   -3.2800651    1.4467189   282854 
 6023000   0.61993695    -3.276418   -1.8328553  0.033962505    -3.276418    1.4435627   282831 
 6024000   0.62033015   -3.2747959    -1.830384  0.033658541   -3.2747959    1.4444119   282844 
 6025000   0.61939599   -3.2751499   -1.8327959  0.035674981   -3.2751499     1.442354   282821 
 6026000   0.62183649   -3.2793183   -1.8312761  0.032701912   -3.2793183    1.4480422   282820 
 6027000    0.6186345   -3.2714308   -1.8308093  0.038126408   -3.2714308    1.4406215   282813 
 6028000   0.61944327   -3.2745141    -1.831846  0.038406724   -3.2745141    1.4426682   282781 
 6029000   0.61986617    -3.275029   -1.8313402    0.0304132    -3.275029    1.4436888   282774 
 6030000   0.61919418   -3.2727272   -1.8304607  0.033446277   -3.2727272    1.4422666   282746 
 6031000   0.61997665   -3.2724895   -1.8281092  0.036937487   -3.2724895    1.4443803   282689 
 6032000   0.62142546   -3.2785583   -1.8305158  0.040844885   -3.2785583    1.4480425   282633 
 6033000   0.62009701    -3.276611   -1.8313624  0.036124682    -3.276611    1.4452486   282574 
 6034000   0.61963208   -3.2758188   -1.8311426  0.034503385   -3.2758188    1.4446763   282474 
 6035000   0.61845475   -3.2751488   -1.8329315  0.033716071   -3.2751488    1.4422173   282418 
 6036000    0.6190645   -3.2777581   -1.8336997  0.036096681   -3.2777581    1.4440585   282336 
 6037000   0.62039078   -3.2781643   -1.8309147   0.03695894   -3.2781643    1.4472496   282317 
 6038000    0.6210485   -3.2780949    -1.829039   0.04091231   -3.2780949     1.449056   282264 
 6039000   0.61930343   -3.2736302   -1.8286817  0.038455765   -3.2736302    1.4449485   282271 
 6040000   0.61903654   -3.2737605   -1.8295421  0.038869044   -3.2737605    1.4442183   282292 
 6041000   0.61915053   -3.2748615   -1.8301572  0.035050478   -3.2748615    1.4447043   282249 
 6042000     0.620295   -3.2764576   -1.8287597  0.034750776   -3.2764576    1.4476979   282186 
 6043000   0.61922697   -3.2720664   -1.8266921  0.038999266   -3.2720664    1.4453743   282153 
 6044000   0.61870228   -3.2711841   -1.8269936  0.038255011   -3.2711841    1.4441905   282145 
 6045000   0.61931123   -3.2713933   -1.8255508  0.035214427   -3.2713933    1.4458425   282100 
 6046000   0.61867819    -3.271148   -1.8264248  0.037342903    -3.271148    1.4447231   282030 
 6047000   0.61837852   -3.2725977   -1.8283797   0.03409035   -3.2725977    1.4442179   281992 
 6048000   0.61973931   -3.2714843   -1.8239959  0.035346108   -3.2714843    1.4474885   281974 
 6049000   0.61938853   -3.2688861   -1.8220886  0.035467221   -3.2688861    1.4467974   281949 
 6050000   0.61780686   -3.2683319   -1.8246504  0.033736688   -3.2683319    1.4436815   281836 
 6051000   0.61847054   -3.2685463   -1.8231908  0.036840781   -3.2685463    1.4453555   281812 
 6052000   0.61623731   -3.2654491   -1.8254047  0.034489087   -3.2654491    1.4400445   281830 
 6053000   0.61861305   -3.2685747   -1.8229528  0.034056237   -3.2685747    1.4456218   281825 
 6054000   0.61785207   -3.2677497   -1.8237269   0.03303644   -3.2677497    1.4440228   281790 
 6055000    0.6186666   -3.2710165    -1.824859  0.036825619   -3.2710165    1.4461575   281745 
 6056000   0.61878302   -3.2719194   -1.8251149  0.036451831   -3.2719194    1.4468045   281672 
 6057000   0.61885336   -3.2721633   -1.8249374  0.039790013   -3.2721633    1.4472258   281622 
 6058000   0.61769174   -3.2703373   -1.8255817  0.037694695   -3.2703373    1.4447556   281574 
 6059000    0.6172825   -3.2710832   -1.8271258  0.032756754   -3.2710832    1.4439573   281543 
 6060000   0.61699181    -3.270439   -1.8268027  0.034223491    -3.270439    1.4436363   281473 
 6061000    0.6162487   -3.2683836   -1.8262965   0.03729661   -3.2683836    1.4420871   281436 
 6062000    0.6180795   -3.2711842   -1.8248745  0.040518669   -3.2711842    1.4463097   281448 
 6063000    0.6187057    -3.273683   -1.8253625  0.037150052    -3.273683    1.4483205   281342 
 6064000   0.61799119   -3.2712788   -1.8244251  0.036611202   -3.2712788    1.4468536   281302 
 6065000   0.61677452   -3.2710028   -1.8265817  0.038614668   -3.2710028     1.444421   281221 
 6066000   0.61588716   -3.2689724   -1.8265423  0.037213986   -3.2689724    1.4424301   281204 
 6067000   0.61671037   -3.2724361   -1.8278057  0.033587506   -3.2724361    1.4446304   281151 
 6068000   0.61642535   -3.2699117    -1.825651  0.038572201   -3.2699117    1.4442607   281093 
 6069000    0.6160253    -3.267209   -1.8236082  0.033427393    -3.267209    1.4436007   281039 
 6070000   0.61614524   -3.2664226   -1.8222068  0.033727783   -3.2664226    1.4442158   280974 
 6071000   0.61572193    -3.267854    -1.824466  0.033458888    -3.267854     1.443388   280942 
 6072000   0.61552093   -3.2677592    -1.824452  0.035429126   -3.2677592    1.4433072   280866 
 6073000   0.61572491    -3.266988   -1.8230277   0.03725182    -3.266988    1.4439603   280832 
 6074000   0.61368945   -3.2631151   -1.8235643  0.032900842   -3.2631151    1.4395508   280761 
 6075000   0.61313551   -3.2614138   -1.8229933   0.03258768   -3.2614138    1.4384205   280728 
 6076000   0.61275377   -3.2610638   -1.8231752  0.039684788   -3.2610638    1.4378886   280657 
 6077000   0.61426273   -3.2650434   -1.8234597    0.0329117   -3.2650434    1.4415836   280627 
 6078000   0.61400345   -3.2665799    -1.825235  0.027018861   -3.2665799    1.4413449   280555 
 6079000    0.6139418   -3.2637263   -1.8223771  0.036165841   -3.2637263    1.4413492   280526 
 6080000   0.61388682   -3.2645251   -1.8230737  0.033532093   -3.2645251    1.4414514   280481 
 6081000   0.61525321   -3.2678748   -1.8228492   0.03699756   -3.2678748    1.4450255   280410 
 6082000   0.61494773   -3.2674987   -1.8228764  0.040216561   -3.2674987    1.4446223   280349 
 6083000   0.61412092   -3.2663381   -1.8233029  0.033301218   -3.2663381    1.4430352   280280 
 6084000   0.61437439   -3.2681919   -1.8245302  0.036728075   -3.2681919    1.4436617   280274 
 6085000    0.6136756   -3.2662243   -1.8239628  0.036974441   -3.2662243    1.4422615   280227 
 6086000   0.61325403   -3.2657213   -1.8239773  0.036368318   -3.2657213    1.4417441   280135 
 6087000   0.61322515   -3.2646713   -1.8226245  0.035527622   -3.2646713    1.4420468   280063 
 6088000   0.61332423   -3.2654889   -1.8229155  0.034537236   -3.2654889    1.4425734   280006 
 6089000   0.61366944   -3.2643694   -1.8207315  0.037693241   -3.2643694     1.443638   279957 
 6090000   0.61306229   -3.2631855   -1.8206667  0.036796314   -3.2631855    1.4425188   279897 
 6091000   0.61310705   -3.2650527   -1.8222997  0.037437056   -3.2650527     1.442753   279872 
 6092000   0.61306843   -3.2653491   -1.8225735  0.034706847   -3.2653491    1.4427756   279850 
 6093000   0.61260445   -3.2636728   -1.8219325  0.035110352   -3.2636728    1.4417403   279839 
 6094000    0.6116215   -3.2634928    -1.823824   0.03480783   -3.2634928    1.4396688   279792 
 6095000   0.61257958   -3.2633857   -1.8212917  0.036403372   -3.2633857     1.442094   279759 
 6096000   0.61285721   -3.2648335   -1.8220704  0.032262244   -3.2648335    1.4427631   279756 
 6097000   0.61250294   -3.2632323   -1.8209474  0.031338599   -3.2632323    1.4422848   279687 
 6098000   0.61217611   -3.2624489   -1.8207739  0.034103345   -3.2624489     1.441675   279656 
 6099000   0.61163771   -3.2623335   -1.8214989  0.037184676   -3.2623335    1.4408347   279573 
 6100000   0.61249612   -3.2635505    -1.820513  0.037698378   -3.2635505    1.4430375   279538 
 6101000   0.61187667   -3.2639674   -1.8222037  0.039856302   -3.2639674    1.4417638   279502 
 6102000   0.61298245   -3.2658065   -1.8215095  0.030435948   -3.2658065     1.444297   279516 
 6103000   0.61188391   -3.2654779   -1.8233823  0.031542227   -3.2654779    1.4420955   279441 
 6104000   0.61202674   -3.2666512   -1.8238163  0.036763796   -3.2666512    1.4428349   279363 
 6105000   0.61128285   -3.2642324   -1.8229293  0.037442209   -3.2642324    1.4413031   279320 
 6106000    0.6128406   -3.2669563   -1.8219803  0.034788185   -3.2669563     1.444976   279320 
 6107000   0.61144275   -3.2654527   -1.8233803  0.036045152   -3.2654527    1.4420725   279244 
 6108000   0.61131508   -3.2664286   -1.8244197  0.036982132   -3.2664286    1.4420089   279198 
 6109000   0.61190614   -3.2697926   -1.8262292  0.029782184   -3.2697926    1.4435634   279167 
 6110000   0.61098751   -3.2671853   -1.8255928   0.03135488   -3.2671853    1.4415925   279129 
 6111000   0.61068955   -3.2649588   -1.8239093  0.036238975   -3.2649588    1.4410495   279098 
 6112000   0.61160086   -3.2665112   -1.8232492  0.034589655   -3.2665112     1.443262   279086 
 6113000   0.61281251   -3.2681224   -1.8219442  0.035681157   -3.2681224    1.4461782   279075 
 6114000   0.61184424   -3.2654552   -1.8212049  0.039011095   -3.2654552    1.4442503   279006 
 6115000   0.61119936   -3.2648031   -1.8218682  0.037700019   -3.2648031    1.4429349   278966 
 6116000   0.61190168   -3.2663373   -1.8216615  0.036717278   -3.2663373    1.4446758   278950 
 6117000    0.6116803   -3.2647295   -1.8204521    0.0337595   -3.2647295    1.4442774   278926 
 6118000    0.6111476   -3.2621182   -1.8187571  0.037291632   -3.2621182    1.4433612   278860 
 6119000   0.61170144    -3.262103   -1.8171436  0.035222413    -3.262103    1.4449594   278804 
 6120000   0.61054984   -3.2587263   -1.8162389   0.03803849   -3.2587263    1.4424874   278756 
 6121000   0.61090384   -3.2610017   -1.8171963  0.037437373   -3.2610017    1.4438054   278663 
 6122000   0.61076845     -3.25862   -1.8147926  0.036460661     -3.25862    1.4438274   278597 
 6123000   0.60853841   -3.2554302   -1.8165542  0.032734205   -3.2554302    1.4388759   278535 
 6124000   0.60853362   -3.2564765   -1.8171829  0.031759928   -3.2564765    1.4392935   278452 
 6125000   0.60690285   -3.2545376   -1.8189723  0.031327705   -3.2545376    1.4355653   278427 
 6126000   0.60835744   -3.2572178   -1.8180102  0.029470786   -3.2572178    1.4392076   278388 
 6127000   0.60921242   -3.2563086   -1.8149644  0.034956241   -3.2563086    1.4413442   278366 
 6128000   0.60934819   -3.2570564   -1.8154842  0.037231451   -3.2570564    1.4415722   278384 
 6129000   0.60949278   -3.2579148   -1.8155861  0.038185684   -3.2579148    1.4423287   278304 
 6130000   0.61054567   -3.2596232   -1.8147458  0.036643062   -3.2596232    1.4448774   278293 
 6131000   0.61010964   -3.2556691   -1.8116783  0.038466432   -3.2556691    1.4439908   278265 
 6132000   0.60952367   -3.2575792   -1.8148404  0.034335901   -3.2575792    1.4427388   278239 
 6133000   0.60761867   -3.2557645   -1.8171626  0.034114416   -3.2557645    1.4386019   278167 
 6134000   0.61026793   -3.2596871   -1.8145114  0.032595572   -3.2596871    1.4451757   278109 
 6135000   0.61058236   -3.2606785   -1.8143838  0.037303451   -3.2606785    1.4462947   278037 
 6136000   0.60957677   -3.2622044    -1.817902  0.037352893   -3.2622044    1.4443023   277962 
 6137000   0.60820723   -3.2613508   -1.8199563  0.039297205   -3.2613508    1.4413945   277897 
 6138000   0.60862478   -3.2611261   -1.8184462  0.033335612   -3.2611261    1.4426799   277840 
 6139000   0.60971657   -3.2632523   -1.8177659  0.032518208   -3.2632523    1.4454864   277798 
 6140000   0.60908567   -3.2625491   -1.8183036  0.033591126   -3.2625491    1.4442455   277749 
 6141000   0.60886792   -3.2619727   -1.8179576  0.033625455   -3.2619727    1.4440151   277694 
 6142000    0.6093669   -3.2655216   -1.8201097  0.038452484   -3.2655216    1.4454119   277653 
 6143000   0.60800807   -3.2629158   -1.8202439  0.034488123   -3.2629158     1.442672   277560 
 6144000   0.60794639   -3.2627771   -1.8199188  0.036723181   -3.2627771    1.4428583   277496 
 6145000   0.60796405   -3.2628287   -1.8196997  0.033204546   -3.2628287    1.4431291   277452 
 6146000   0.60703049   -3.2622725   -1.8211465  0.036748507   -3.2622725     1.441126   277411 
 6147000   0.60769025   -3.2640149   -1.8213902  0.038551278   -3.2640149    1.4426247   277424 
 6148000   0.60764562    -3.262003   -1.8194114  0.035179189    -3.262003    1.4425916   277410 
 6149000   0.60794142   -3.2607705   -1.8172894  0.035641302   -3.2607705    1.4434811   277374 
 6150000   0.60845034   -3.2624109   -1.8175026  0.037939175   -3.2624109    1.4449083   277332 
 6151000   0.60682147   -3.2617514   -1.8202643  0.038464237   -3.2617514    1.4414872   277246 
 6152000   0.60579736   -3.2599702   -1.8208016  0.034421133   -3.2599702    1.4391686   277224 
 6153000   0.60607428    -3.259662    -1.819851  0.037683069    -3.259662    1.4398109   277227 
 6154000   0.60614646   -3.2595274   -1.8193424   0.03482288   -3.2595274     1.440185   277188 
 6155000   0.60497747   -3.2582152   -1.8203512   0.03289129   -3.2582152     1.437864   277100 
 6156000   0.60564239   -3.2600413   -1.8200202  0.036714036   -3.2600413    1.4400212   276989 
 6157000   0.60631184   -3.2624931    -1.820547  0.037149969   -3.2624931    1.4419461   276925 
 6158000   0.60731317   -3.2629275     -1.81824  0.040290947   -3.2629275    1.4446874   276856 
 6159000   0.60731526   -3.2631366   -1.8181624  0.036215457   -3.2631366    1.4449742   276802 
 6160000   0.60628848   -3.2629557   -1.8199813  0.036823757   -3.2629557    1.4429743   276717 
 6161000   0.60658759   -3.2638916   -1.8202784   0.03529081   -3.2638916    1.4436132   276731 
 6162000   0.60549691   -3.2630143   -1.8217937  0.035626616   -3.2630143    1.4412206   276692 
 6163000   0.60323695    -3.259452   -1.8232576  0.036248176    -3.259452    1.4361943   276624 
 6164000   0.60370489   -3.2609243     -1.82346  0.035388183   -3.2609243    1.4374643   276594 
 6165000   0.60535589   -3.2632495   -1.8215882  0.032181327   -3.2632495    1.4416613   276543 
 6166000    0.6034627   -3.2605891   -1.8232702  0.037201443   -3.2605891    1.4373189   276511 
 6167000   0.60560044   -3.2652298   -1.8224383  0.035989171   -3.2652298    1.4427915   276438 
 6168000   0.60473035   -3.2645487   -1.8234235  0.033737821   -3.2645487    1.4411252   276360 
 6169000   0.60461412   -3.2601248   -1.8192297  0.037213952   -3.2601248    1.4408951   276351 
 6170000   0.60448841   -3.2610238   -1.8200841    0.0368903   -3.2610238    1.4409397   276285 
 6171000   0.60549407   -3.2622547    -1.818714  0.036094812   -3.2622547    1.4435407   276246 
 6172000   0.60359942   -3.2607341   -1.8214238  0.036280401   -3.2607341    1.4393103   276191 
 6173000   0.60341375   -3.2586925   -1.8196634   0.03513383   -3.2586925    1.4390291   276160 
 6174000   0.60412935   -3.2611205   -1.8197586  0.031392201   -3.2611205    1.4413619   276040 
 6175000    0.6042406   -3.2619786   -1.8201737  0.038215533   -3.2619786    1.4418049   276006 
 6176000   0.60396442   -3.2608545   -1.8195623  0.036897195   -3.2608545    1.4412922   275978 
 6177000   0.60389257   -3.2617785   -1.8203915  0.031959751   -3.2617785    1.4413871   275927 
 6178000   0.60309947   -3.2604553   -1.8206533  0.033219364   -3.2604553    1.4398019   275868 
 6179000   0.60348154    -3.259949   -1.8190573  0.033421837    -3.259949    1.4408916   275834 
 6180000    0.6029829     -3.25749   -1.8175331  0.038285889     -3.25749    1.4399569   275785 
 6181000   0.60350158   -3.2600882   -1.8185111  0.036500548   -3.2600882    1.4415771   275712 
 6182000   0.60183388   -3.2570741    -1.819272  0.033402443   -3.2570741    1.4378021   275672 
 6183000   0.60261174   -3.2586044   -1.8187768  0.034940666   -3.2586044    1.4398275   275640 
 6184000   0.60477782   -3.2642279    -1.818947  0.036011593   -3.2642279    1.4452809   275587 
 6185000   0.60304058   -3.2605157   -1.8192452  0.031470335   -3.2605157    1.4412705   275560 
 6186000   0.60357374   -3.2609145   -1.8181394  0.030853883   -3.2609145    1.4427751   275516 
 6187000   0.60315378   -3.2595856   -1.8177725  0.038370086   -3.2595856    1.4418131   275508 
 6188000   0.60398282   -3.2601855   -1.8162543  0.040028243   -3.2601855    1.4439312   275482 
 6189000   0.60372175   -3.2582899   -1.8147785  0.040245258   -3.2582899    1.4435114   275443 
 6190000   0.60258561   -3.2565528   -1.8151876  0.035485658   -3.2565528    1.4413652   275334 
 6191000   0.60232563   -3.2574388    -1.816507  0.031016394   -3.2574388    1.4409318   275298 
 6192000   0.60088174   -3.2563894   -1.8185724  0.031255666   -3.2563894    1.4378171   275233 
 6193000   0.60045839   -3.2549866   -1.8180207  0.031971787   -3.2549866    1.4369659   275202 
 6194000   0.60068316   -3.2554859   -1.8176739  0.033944884   -3.2554859     1.437812   275143 
 6195000    0.6011235   -3.2572002   -1.8180464  0.032534541   -3.2572002    1.4391538   275088 
 6196000   0.60014827   -3.2552488   -1.8183567  0.033941588   -3.2552488    1.4368921   275074 
 6197000   0.60127755   -3.2537829   -1.8140667  0.035739506   -3.2537829    1.4397162   275051 
 6198000   0.60227258    -3.253982    -1.811705  0.035225644    -3.253982     1.442277   275017 
 6199000   0.60300033   -3.2564277   -1.8121401  0.033759414   -3.2564277    1.4442876   274966 
 6200000   0.60283297   -3.2532343   -1.8091479  0.041226838   -3.2532343    1.4440863   274928 
 6201000    0.6032228   -3.2548017   -1.8095817  0.039916003   -3.2548017    1.4452199   274890 
 6202000   0.60138659   -3.2503077   -1.8093613  0.038539112   -3.2503077    1.4409465   274866 
 6203000   0.60241047   -3.2513098    -1.807763  0.033436353   -3.2513098    1.4435468   274838 
 6204000   0.60171571    -3.250756   -1.8086641  0.035798576    -3.250756    1.4420918   274798 
 6205000   0.60129873   -3.2492591   -1.8081614  0.035878104   -3.2492591    1.4410977   274797 
 6206000   0.60130496   -3.2492682   -1.8078828  0.034934531   -3.2492682    1.4413854   274745 
 6207000   0.60134068   -3.2479392   -1.8064629  0.036592044   -3.2479392    1.4414763   274744 
 6208000   0.60023241    -3.247609    -1.808255  0.038404165    -3.247609     1.439354   274642 
 6209000   0.60120593   -3.2493852   -1.8072347  0.033113938   -3.2493852    1.4421506   274554 
 6210000   0.60069797   -3.2491434   -1.8078701  0.030783596   -3.2491434    1.4412733   274489 
 6211000   0.60162265   -3.2526124   -1.8091941  0.032316109   -3.2526124    1.4434183   274503 
 6212000   0.60074168   -3.2494944    -1.808111  0.032368064   -3.2494944    1.4413835   274488 
 6213000   0.60222637   -3.2509085   -1.8055836  0.035178516   -3.2509085    1.4453249   274416 
 6214000   0.60085849   -3.2493505   -1.8072612  0.037657246   -3.2493505    1.4420893   274407 
 6215000   0.60266642   -3.2509973   -1.8043949  0.037863841   -3.2509973    1.4466024   274374 
 6216000   0.60169509   -3.2507104   -1.8061395  0.036190142   -3.2507104    1.4445709   274317 
 6217000   0.60127763   -3.2526223   -1.8087483  0.034536969   -3.2526223     1.443874   274259 
 6218000   0.60053377    -3.252976   -1.8106884  0.032512656    -3.252976    1.4422875   274221 
 6219000    0.5996647   -3.2476062   -1.8074952  0.034007563   -3.2476062    1.4401111   274238 
 6220000   0.60027989   -3.2500036   -1.8080523  0.034327922   -3.2500036    1.4419513   274169 
 6221000   0.59975733   -3.2492209   -1.8083199  0.034907836   -3.2492209     1.440901   274130 
 6222000   0.59908286    -3.249133   -1.8094953  0.037889283    -3.249133    1.4396377   274062 
 6223000   0.59979467   -3.2530656   -1.8114228   0.03434818   -3.2530656    1.4416428   274006 
 6224000   0.59921931   -3.2525178   -1.8117636  0.034061248   -3.2525178    1.4407541   273912 
 6225000   0.59963101   -3.2500591   -1.8083098  0.035024081   -3.2500591    1.4417493   273911 
 6226000   0.59974482   -3.2479047   -1.8055658  0.035975645   -3.2479047    1.4423389   273851 
 6227000   0.60028638    -3.249784   -1.8060847  0.040744895    -3.249784    1.4436993   273840 
 6228000   0.60151541   -3.2533751   -1.8065298  0.035978326   -3.2533751    1.4468453   273804 
 6229000   0.60153729   -3.2533349    -1.806215  0.035239636   -3.2533349    1.4471199   273762 
 6230000   0.60058765   -3.2498899   -1.8049595   0.03719029   -3.2498899    1.4449304   273744 
 6231000   0.59944169   -3.2485041   -1.8058722  0.030784524   -3.2485041    1.4426319   273657 
 6232000   0.59966381    -3.248989   -1.8056432  0.035264373    -3.248989    1.4433457   273623 
 6233000   0.59903724   -3.2497668   -1.8076972  0.031972411   -3.2497668    1.4420695   273579 
 6234000   0.59713218   -3.2468964   -1.8090713  0.032595212   -3.2468964     1.437825   273514 
 6235000   0.59790029    -3.249352   -1.8094247  0.033183536    -3.249352    1.4399273   273466 
 6236000   0.59857443   -3.2486501   -1.8068989  0.031126938   -3.2486501    1.4417511   273428 
 6237000   0.59806837   -3.2454389   -1.8047539  0.036050734   -3.2454389     1.440685   273399 
 6238000   0.59834216   -3.2450061   -1.8034031   0.03539306   -3.2450061    1.4416029   273350 
 6239000   0.59709466   -3.2463503   -1.8075371  0.038481105   -3.2463503    1.4388131   273309 
 6240000   0.59724186   -3.2464298   -1.8069934  0.037286695   -3.2464298    1.4394364   273258 
 6241000   0.59777536   -3.2457207   -1.8048087  0.034516296   -3.2457207    1.4409121   273222 
 6242000   0.59737265    -3.247157   -1.8069469  0.032643079    -3.247157    1.4402102   273171 
 6243000   0.59735871   -3.2461357     -1.80559  0.030464454   -3.2461357    1.4405457   273101 
 6244000   0.59737623   -3.2459158   -1.8049955  0.038014068   -3.2459158    1.4409203   273038 
 6245000    0.5982251   -3.2468198   -1.8035083  0.038342734   -3.2468198    1.4433115   272973 
 6246000   0.59720677   -3.2454549   -1.8040669  0.031344207   -3.2454549    1.4413879   272872 
 6247000   0.59905018   -3.2496967     -1.80369   0.03635325   -3.2496967    1.4460067   272840 
 6248000   0.59830221   -3.2481134   -1.8036263  0.033890267   -3.2481134    1.4444871   272786 
 6249000   0.59738433   -3.2471055   -1.8046176  0.031913975   -3.2471055    1.4424879   272745 
 6250000   0.59711897   -3.2479619   -1.8059509  0.036006602   -3.2479619     1.442011   272714 
 6251000   0.59677712   -3.2475794   -1.8062407  0.037203552   -3.2475794    1.4413387   272685 
 6252000   0.59492148   -3.2421907   -1.8050175  0.036417168   -3.2421907    1.4371732   272625 
 6253000   0.59504491   -3.2430482   -1.8052552  0.028978759   -3.2430482    1.4377931   272564 
 6254000   0.59520268   -3.2428297   -1.8045288  0.035579067   -3.2428297    1.4383009   272540 
 6255000   0.59572724   -3.2451633   -1.8053834  0.034130207   -3.2451633    1.4397798   272500 
 6256000   0.59662677    -3.247375   -1.8051089  0.035205309    -3.247375    1.4422661   272441 
 6257000   0.59691262   -3.2485699   -1.8053214  0.036299972   -3.2485699    1.4432485   272386 
 6258000   0.59661044   -3.2505115   -1.8073632   0.03569546   -3.2505115    1.4431483   272267 
 6259000   0.59644919   -3.2495126   -1.8064098  0.031574094   -3.2495126    1.4431028   272202 
 6260000   0.59682777   -3.2488778   -1.8045247  0.035578845   -3.2488778    1.4443531   272139 
 6261000   0.59538213   -3.2475805   -1.8064294  0.036688509   -3.2475805    1.4411511   272083 
 6262000   0.59718078   -3.2524484   -1.8067789  0.036281506   -3.2524484    1.4456695   272052 
 6263000   0.59578796   -3.2484608   -1.8059085  0.035783994   -3.2484608    1.4425523   272004 
 6264000   0.59570071   -3.2471796   -1.8047749  0.037699619   -3.2471796    1.4424047   271992 
 6265000   0.59513087   -3.2466361   -1.8053357  0.038343565   -3.2466361    1.4413004   271940 
 6266000   0.59503839   -3.2482437   -1.8068174  0.032206743   -3.2482437    1.4414263   271874 
 6267000   0.59557857   -3.2488235     -1.80551   0.03601163   -3.2488235    1.4433135   271765 
 6268000   0.59453459   -3.2490791   -1.8080358  0.036675732   -3.2490791    1.4410433   271716 
 6269000   0.59420711   -3.2499447   -1.8095043  0.036798474   -3.2499447    1.4404404   271680 
 6270000    0.5960374   -3.2499226   -1.8049974   0.03487401   -3.2499226    1.4449252   271671 
 6271000   0.59551467   -3.2472256   -1.8034188  0.037158099   -3.2472256    1.4438068   271643 
 6272000   0.59330691   -3.2444609    -1.805583   0.03591999   -3.2444609    1.4388779   271563 
 6273000   0.59500742   -3.2472643   -1.8041401  0.033867673   -3.2472643    1.4431242   271540 
 6274000   0.59368978   -3.2452439   -1.8052572  0.036359521   -3.2452439    1.4399867   271529 
 6275000   0.59469614   -3.2472247   -1.8042816  0.035827092   -3.2472247    1.4429431   271432 
 6276000   0.59405065   -3.2457835   -1.8043004   0.03436944   -3.2457835    1.4414831   271412 
 6277000   0.59426217   -3.2466058   -1.8044766  0.033081408   -3.2466058    1.4421292   271387 
 6278000   0.59397657   -3.2448295   -1.8030799  0.036412739   -3.2448295    1.4417496   271328 
 6279000    0.5937902   -3.2434292    -1.801776  0.032244045   -3.2434292    1.4416532   271261 
 6280000    0.5935271   -3.2437013   -1.8024212  0.036143955   -3.2437013    1.4412801   271211 
 6281000   0.59455433   -3.2459275   -1.8019134  0.038210309   -3.2459275    1.4440141   271166 
 6282000   0.59283718   -3.2416694   -1.8014593  0.038045011   -3.2416694    1.4402101   271097 
 6283000   0.59342289   -3.2443877   -1.8023504  0.030914989   -3.2443877    1.4420373   271021 
 6284000   0.59342041   -3.2437495   -1.8014469  0.033518448   -3.2437495    1.4423026   270970 
 6285000   0.59334559   -3.2429414   -1.8007354  0.039183802   -3.2429414     1.442206   270954 
 6286000   0.59194391   -3.2428297   -1.8037227  0.033385316   -3.2428297     1.439107   270896 
 6287000   0.59218604   -3.2421072   -1.8024806  0.032424989   -3.2421072    1.4396266   270909 
 6288000   0.59303347   -3.2410854   -1.7994572  0.033867631   -3.2410854    1.4416282   270920 
 6289000   0.59367087   -3.2420284   -1.7984351  0.038931757   -3.2420284    1.4435933   270842 
 6290000   0.59387493   -3.2432256   -1.7990721  0.034415836   -3.2432256    1.4441535   270830 
 6291000   0.59344559   -3.2391306   -1.7958826  0.038353628   -3.2391306     1.443248   270804 
 6292000   0.59367706   -3.2384279    -1.794489   0.03673512   -3.2384279    1.4439389   270780 
 6293000   0.59275665   -3.2402928   -1.7982943   0.03707865   -3.2402928    1.4419985   270724 
 6294000   0.59284832   -3.2392491   -1.7970382  0.033966701   -3.2392491    1.4422108   270726 
 6295000   0.59380591   -3.2390185   -1.7942754  0.036132099   -3.2390185    1.4447431   270688 
 6296000   0.59339138   -3.2370625   -1.7930559    0.0364669   -3.2370625    1.4440067   270637 
 6297000   0.59365709    -3.237505    -1.792761  0.038951239    -3.237505     1.444744   270620 
 6298000   0.59396405   -3.2375678   -1.7920714  0.038386443   -3.2375678    1.4454964   270619 
 6299000   0.59354194   -3.2366206   -1.7916923  0.036463778   -3.2366206    1.4449283   270533 
 6300000   0.59252519   -3.2357461    -1.793245  0.037716775   -3.2357461    1.4425011   270524 
 6301000   0.59172628   -3.2330074   -1.7925578      0.03911   -3.2330074    1.4404497   270544 
 6302000   0.59309905   -3.2366943   -1.7926147  0.034228276   -3.2366943    1.4440797   270490 
 6303000   0.59259967   -3.2346435   -1.7915183  0.034384718   -3.2346435    1.4431252   270441 
 6304000   0.59410353   -3.2377597   -1.7907261  0.036702843   -3.2377597    1.4470336   270395 
 6305000   0.59313518   -3.2357241   -1.7908032   0.03700161   -3.2357241    1.4449208   270349 
 6306000   0.59332261   -3.2357018   -1.7896237  0.037123702   -3.2357018    1.4460781   270218 
 6307000   0.59379502   -3.2375949    -1.790194  0.033901625   -3.2375949    1.4474009   270186 
 6308000   0.59205185   -3.2353918    -1.791914  0.038700932   -3.2353918    1.4434778   270125 
 6309000   0.59192963   -3.2357808   -1.7923766  0.038006781   -3.2357808    1.4434042   270083 
 6310000   0.59245136   -3.2363565    -1.791236  0.036212928   -3.2363565    1.4451205   270000 
 6311000   0.59124632   -3.2365022   -1.7943531  0.036029525   -3.2365022    1.4421491   270006 
 6312000   0.59004294   -3.2322039   -1.7927501  0.035434634   -3.2322039    1.4394538   269961 
 6313000   0.59260112   -3.2374514   -1.7915961  0.038481229   -3.2374514    1.4458553   269931 
 6314000   0.59063428   -3.2327466   -1.7915512  0.032604362   -3.2327466    1.4411953   269905 
 6315000   0.59090569   -3.2363251   -1.7939705  0.037838696   -3.2363251    1.4423546   269812 
 6316000   0.59203779    -3.237713   -1.7923003  0.031564522    -3.237713    1.4454126   269757 
 6317000   0.59071558   -3.2356927    -1.793075  0.037554913   -3.2356927    1.4426177   269676 
 6318000   0.59112495   -3.2371034   -1.7934753  0.037912216   -3.2371034    1.4436282   269674 
 6319000   0.59301574   -3.2388136   -1.7902938  0.039567765   -3.2388136    1.4485197   269623 
 6320000   0.59268931   -3.2385526   -1.7903951  0.036680963   -3.2385526    1.4481574   269542 
 6321000   0.59114826   -3.2364045   -1.7919106  0.040264512   -3.2364045    1.4444939   269523 
 6322000   0.59118628   -3.2369959   -1.7922108   0.03779195   -3.2369959    1.4447852   269486 
 6323000   0.59026705   -3.2362128   -1.7933689  0.034285605   -3.2362128    1.4428439   269429 
 6324000   0.59093615   -3.2378147   -1.7931047  0.036165974   -3.2378147      1.44471   269386 
 6325000   0.59060881   -3.2362336   -1.7922274  0.040221429   -3.2362336    1.4440062   269368 
 6326000   0.59129748   -3.2376659   -1.7919706  0.037942695   -3.2376659    1.4456953   269367 
 6327000   0.59042871   -3.2340165   -1.7901398  0.036391553   -3.2340165    1.4438767   269310 
 6328000   0.59021505   -3.2345427   -1.7907488  0.037208546   -3.2345427    1.4437939   269228 
 6329000    0.5898307   -3.2323298   -1.7889936  0.037827815   -3.2323298    1.4433361   269138 
 6330000   0.58982266   -3.2319711   -1.7881397  0.034538134   -3.2319711    1.4438315   269042 
 6331000   0.59060024   -3.2338229   -1.7878139  0.036660917   -3.2338229     1.446009   268991 
 6332000   0.59007358   -3.2324776   -1.7876667  0.032842474   -3.2324776    1.4448109   268974 
 6333000   0.58996075   -3.2328762   -1.7882557  0.037667622   -3.2328762    1.4446205   268958 
 6334000   0.59094988    -3.235202   -1.7879819  0.038019765    -3.235202    1.4472202   268925 
 6335000   0.58900658   -3.2308795    -1.787855  0.035722197   -3.2308795    1.4430245   268820 
 6336000   0.58860487   -3.2284925   -1.7863664  0.035875929   -3.2284925    1.4421262   268804 
 6337000    0.5889125   -3.2284769   -1.7852372  0.039809564   -3.2284769    1.4432396   268737 
 6338000   0.58974551    -3.231744   -1.7862424  0.035349149    -3.231744    1.4455016   268696 
 6339000   0.58933619   -3.2310288   -1.7863423  0.036634408   -3.2310288    1.4446865   268661 
 6340000   0.58961753   -3.2322989   -1.7864114  0.036637042   -3.2322989    1.4458875   268566 
 6341000   0.58956656    -3.231121   -1.7850893   0.03756972    -3.231121    1.4460317   268516 
 6342000   0.58882496    -3.230537   -1.7857647  0.032506333    -3.230537    1.4447723   268412 
 6343000   0.58732331   -3.2253405   -1.7840164   0.03679727   -3.2253405    1.4413241   268368 
 6344000    0.5870539   -3.2263007   -1.7852458  0.036617514   -3.2263007    1.4410549   268295 
 6345000   0.58762355    -3.229289   -1.7866368  0.034368308    -3.229289    1.4426522   268258 
 6346000   0.58744902   -3.2286441   -1.7863021  0.033425188   -3.2286441     1.442342   268236 
 6347000    0.5876295   -3.2265172   -1.7835546  0.029341407   -3.2265172    1.4429626   268203 
 6348000   0.58780284    -3.226846   -1.7834308  0.032856214    -3.226846    1.4434152   268198 
 6349000   0.58771491   -3.2267183   -1.7833145  0.037386819   -3.2267183    1.4434038   268160 
 6350000   0.58814251   -3.2270468   -1.7824797  0.034322552   -3.2270468    1.4445671   268139 
 6351000   0.58769953    -3.223842    -1.780266  0.036785858    -3.223842     1.443576   268121 
 6352000   0.58884042   -3.2259538   -1.7792895  0.032423324   -3.2259538    1.4466643   268068 
 6353000   0.58972136   -3.2278107   -1.7787983  0.034475776   -3.2278107    1.4490124   268034 
 6354000   0.58981592   -3.2269505   -1.7774353  0.039414641   -3.2269505    1.4495151   267984 
 6355000   0.58954344   -3.2279145   -1.7788094  0.040975879   -3.2279145    1.4491051   267936 
 6356000   0.59117516   -3.2303428   -1.7771781  0.036836555   -3.2303428    1.4531647   267927 
 6357000   0.58999027   -3.2300503    -1.779495  0.036715986   -3.2300503    1.4505553   267871 
 6358000   0.58809997    -3.227365   -1.7812521  0.036858345    -3.227365    1.4461129   267833 
 6359000   0.58789284   -3.2274835   -1.7817611  0.034656504   -3.2274835    1.4457223   267811 
 6360000   0.58856413    -3.226862   -1.7792618  0.032531592    -3.226862    1.4476002   267769 
 6361000   0.58852531   -3.2275038   -1.7795719  0.034887358   -3.2275038    1.4479319   267690 
 6362000   0.58591342   -3.2238409   -1.7820926   0.03130422   -3.2238409    1.4417483   267645 
 6363000   0.58662222   -3.2246625   -1.7811701  0.037602799   -3.2246625    1.4434924   267645 
 6364000   0.58703353   -3.2253669   -1.7807382  0.036196415   -3.2253669    1.4446287   267622 
 6365000   0.58635893   -3.2250511   -1.7821904  0.030745625   -3.2250511    1.4428607   267642 
 6366000   0.58766821   -3.2275929   -1.7809483  0.040008337   -3.2275929    1.4466446   267538 
 6367000   0.58710425    -3.226658   -1.7812936  0.038303529    -3.226658    1.4453644   267518 
 6368000    0.5863561   -3.2251142   -1.7813866  0.038281064   -3.2251142    1.4437276   267480 
 6369000   0.58882915   -3.2268662   -1.7771037   0.03453124   -3.2268662    1.4497626   267490 
 6370000   0.58893149   -3.2266801   -1.7765137  0.038796524   -3.2266801    1.4501663   267462 
 6371000   0.58733821   -3.2267354   -1.7803625  0.037421443   -3.2267354    1.4463729   267438 
 6372000   0.58756052    -3.226294   -1.7790165  0.035758972    -3.226294    1.4472775   267372 
 6373000   0.58657954   -3.2263705   -1.7811634  0.037138945   -3.2263705    1.4452071   267308 
 6374000   0.58666523   -3.2294643   -1.7837649  0.036959951   -3.2294643    1.4456995   267256 
 6375000   0.58641095   -3.2281267   -1.7829944  0.036620895   -3.2281267    1.4451323   267245 
 6376000   0.58765119   -3.2315727   -1.7828582  0.038074963   -3.2315727    1.4487146   267148 
 6377000   0.58818438    -3.229724   -1.7797384     0.038114    -3.229724    1.4499856   267156 
 6378000   0.58721144   -3.2268737    -1.779059  0.041325067   -3.2268737    1.4478147   267114 
 6379000   0.58677191   -3.2257496   -1.7785418  0.037260258   -3.2257496    1.4472078   267026 
 6380000   0.58671798   -3.2298289   -1.7824289  0.033572416   -3.2298289       1.4474   266966 
 6381000   0.58591116   -3.2262844   -1.7804252  0.035227184   -3.2262844    1.4458592   266883 
 6382000   0.58732019   -3.2278268   -1.7783494  0.037155571   -3.2278268    1.4494774   266857 
 6383000   0.58760537   -3.2265173   -1.7761784  0.036890859   -3.2265173    1.4503389   266828 
 6384000   0.58677311   -3.2265522   -1.7779689  0.041345633   -3.2265522    1.4485833   266773 
 6385000   0.58741992   -3.2276353   -1.7772921  0.039885365   -3.2276353    1.4503432   266743 
 6386000   0.58640863   -3.2265958   -1.7784509   0.03282606   -3.2265958    1.4481449   266688 
 6387000   0.58549911   -3.2241555   -1.7780073  0.033074259   -3.2241555    1.4461482   266642 
 6388000   0.58427262   -3.2243287   -1.7811016  0.037378701   -3.2243287    1.4432271   266622 
 6389000   0.58494878   -3.2252858   -1.7800361  0.039993412   -3.2252858    1.4452497   266557 
 6390000   0.58501247   -3.2260852   -1.7805751  0.030159671   -3.2260852    1.4455101   266538 
 6391000   0.58371015   -3.2226106   -1.7801453  0.036337879   -3.2226106    1.4424653   266506 
 6392000   0.58480429   -3.2247305   -1.7791002  0.034185242   -3.2247305    1.4456303   266421 
 6393000   0.58507889   -3.2254357   -1.7787412  0.033636213   -3.2254357    1.4466946   266350 
 6394000   0.58532896   -3.2246974   -1.7771127  0.037425991   -3.2246974    1.4475847   266300 
 6395000   0.58513114   -3.2231442   -1.7757227  0.037533776   -3.2231442    1.4474216   266240 
 6396000   0.58654154   -3.2270795   -1.7760383  0.043524798   -3.2270795    1.4510412   266216 
 6397000   0.58655397     -3.22516     -1.77387  0.040242625     -3.22516      1.45129   266176 
 6398000   0.58531785   -3.2218223   -1.7735091  0.037625549   -3.2218223    1.4483132   266161 
 6399000   0.58608275   -3.2256191   -1.7750917  0.036921309   -3.2256191    1.4505274   266102 
 6400000   0.58476165   -3.2220991   -1.7746292  0.036726427   -3.2220991    1.4474699   266063 
 6401000   0.58476919   -3.2200633     -1.77227   0.03843187   -3.2200633    1.4477933   266007 
 6402000   0.58461318   -3.2195078    -1.771845   0.03275696   -3.2195078    1.4476628   265960 
 6403000   0.58553713    -3.221966   -1.7715626  0.034191582    -3.221966    1.4504034   265877 
 6404000   0.58447445   -3.2171814   -1.7694539  0.034558169   -3.2171814    1.4477275   265885 
 6405000   0.58500225   -3.2171911   -1.7682216  0.034712097   -3.2171911    1.4489695   265897 
 6406000   0.58426873   -3.2160101   -1.7687323  0.037857113   -3.2160101    1.4472778   265874 
 6407000   0.58334673   -3.2137942   -1.7681695  0.035626396   -3.2137942    1.4456247   265758 
 6408000    0.5834555   -3.2125862   -1.7665288  0.030578823   -3.2125862    1.4460575   265728 
 6409000   0.58274806   -3.2137543   -1.7690642  0.037714007   -3.2137543    1.4446901   265657 
 6410000   0.58329986   -3.2128707   -1.7666275  0.035077311   -3.2128707    1.4462432   265623 
 6411000   0.58305941    -3.213662   -1.7679551  0.038702019    -3.213662    1.4457069   265612 
 6412000    0.5847993   -3.2179563    -1.767482  0.036232896   -3.2179563    1.4504742   265529 
 6413000   0.58485434   -3.2170826   -1.7659527   0.03860766   -3.2170826    1.4511299   265434 
 6414000   0.58394349   -3.2164094   -1.7673648   0.03389837   -3.2164094    1.4490446   265402 
 6415000   0.58485009   -3.2171237   -1.7657254  0.042401686   -3.2171237    1.4513982   265383 
 6416000   0.58349169   -3.2151481   -1.7668317  0.037739982   -3.2151481    1.4483164   265330 
 6417000   0.58321418   -3.2172441   -1.7692509  0.036550049   -3.2172441    1.4479932   265263 
 6418000   0.58209935   -3.2161265   -1.7710701  0.034361375   -3.2161265    1.4450565   265294 
 6419000   0.58200187   -3.2174858   -1.7723554  0.034316408   -3.2174858    1.4451304   265236 
 6420000   0.58171867   -3.2174153   -1.7726776  0.031879836   -3.2174153    1.4447377   265179 
 6421000   0.58276312   -3.2178326   -1.7702389  0.036520896   -3.2178326    1.4475937   265131 
 6422000   0.58180969   -3.2165045    -1.771072    0.0366856   -3.2165045    1.4454325   265093 
 6423000   0.58251757    -3.215279   -1.7679896  0.032992029    -3.215279    1.4472894   265075 
 6424000   0.58300752   -3.2189421    -1.769927  0.030812473   -3.2189421    1.4490151   264982 
 6425000   0.58281824   -3.2171757    -1.768642  0.037694358   -3.2171757    1.4485337   264984 
 6426000   0.58290337   -3.2188051   -1.7696058  0.031565863   -3.2188051    1.4491993   264901 
 6427000   0.58184993   -3.2148563   -1.7681013  0.035724009   -3.2148563     1.446755   264869 
 6428000   0.58236339   -3.2144124   -1.7661019  0.038185994   -3.2144124    1.4483106   264818 
 6429000   0.58212804   -3.2141002   -1.7663312  0.034138456   -3.2141002     1.447769   264810 
 6430000   0.58156582   -3.2113802   -1.7649166  0.036477626   -3.2113802    1.4464636   264793 
 6431000   0.58032019   -3.2100124   -1.7665052  0.032928809   -3.2100124    1.4435072   264767 
 6432000   0.58022377   -3.2105519   -1.7670501  0.031738782   -3.2105519    1.4435018   264724 
 6433000   0.57962217   -3.2095834   -1.7672078  0.040107051   -3.2095834    1.4423756   264656 
 6434000   0.58129664   -3.2135613   -1.7668111  0.036205175   -3.2135613    1.4467502   264618 
 6435000   0.58032391   -3.2108405   -1.7661182  0.035430828   -3.2108405    1.4447224   264546 
 6436000   0.57955784   -3.2118001   -1.7687558  0.036186972   -3.2118001    1.4430443   264504 
 6437000   0.57937748   -3.2089214   -1.7663208  0.036013393   -3.2089214    1.4426007   264503 
 6438000   0.57988793   -3.2106707   -1.7663731  0.036878793   -3.2106707    1.4442976   264425 
 6439000    0.5810154   -3.2137196   -1.7664168  0.038714106   -3.2137196    1.4473028   264389 
 6440000   0.58216518   -3.2163341   -1.7660795  0.034725567   -3.2163341    1.4502546   264373 
 6441000   0.58094946   -3.2147057   -1.7673756  0.037375064   -3.2147057    1.4473301   264354 
 6442000     0.580973   -3.2117447   -1.7642793   0.03958852   -3.2117447    1.4474654   264340 
 6443000   0.58078099   -3.2134321   -1.7661823  0.035693436   -3.2134321    1.4472498   264292 
 6444000   0.58021123   -3.2129543   -1.7668233  0.039614719   -3.2129543     1.446131   264237 
 6445000   0.58117922   -3.2146736   -1.7660149  0.034803293   -3.2146736    1.4486588   264216 
 6446000   0.58115197   -3.2140032   -1.7651108  0.035406236   -3.2140032    1.4488924   264161 
 6447000   0.58250059   -3.2162363   -1.7638991  0.036050219   -3.2162363    1.4523372   264146 
 6448000   0.58096271   -3.2126176   -1.7640216  0.033912706   -3.2126176    1.4485961   264129 
 6449000   0.58179618   -3.2115529   -1.7607468  0.036958064   -3.2115529    1.4508061   264105 
 6450000   0.58229007   -3.2135365   -1.7611083  0.037939841   -3.2135365    1.4524282   264034 
 6451000   0.58098514    -3.213795   -1.7643364  0.033723863    -3.213795    1.4494587   263982 
 6452000   0.58065578   -3.2119176   -1.7630721  0.036442058   -3.2119176    1.4488456   263944 
 6453000   0.57885078   -3.2084738   -1.7639679  0.034642555   -3.2084738    1.4445059   263914 
 6454000   0.57942476   -3.2101043   -1.7638428  0.035378738   -3.2101043    1.4462616   263855 
 6455000   0.57970454   -3.2062909   -1.7590567   0.04158322   -3.2062909    1.4472342   263805 
 6456000    0.5792044   -3.2056614   -1.7591823  0.036619168   -3.2056614    1.4464791   263715 
 6457000   0.57897139   -3.2061378   -1.7599445  0.037387377   -3.2061378    1.4461933   263661 
 6458000   0.58024682   -3.2084785   -1.7588355  0.041848373   -3.2084785    1.4496431   263613 
 6459000   0.58043677   -3.2092331   -1.7589779  0.034413136   -3.2092331    1.4502551   263588 
 6460000   0.57937014    -3.205917   -1.7580852  0.036641846    -3.205917    1.4478318   263544 
 6461000   0.57875814   -3.2042079   -1.7576201  0.034185144   -3.2042079    1.4465879   263492 
 6462000   0.57912307   -3.2056926   -1.7580113  0.034060929   -3.2056926    1.4476813   263459 
 6463000    0.5794375   -3.2057512   -1.7571519  0.035634542   -3.2057512    1.4485992   263435 
 6464000   0.57783694   -3.2020253   -1.7569612  0.035356267   -3.2020253    1.4450641   263350 
 6465000   0.57717497   -3.2020972   -1.7584583  0.037160763   -3.2020972    1.4436389   263308 
 6466000    0.5776498   -3.2060003   -1.7611244  0.033831609   -3.2060003    1.4448759   263299 
 6467000   0.57835547    -3.205566   -1.7587052  0.035712166    -3.205566    1.4468608   263259 
 6468000   0.57820046   -3.2045184   -1.7580069  0.030699587   -3.2045184    1.4465115   263252 
 6469000   0.57664265   -3.2027483   -1.7595475   0.03212225   -3.2027483    1.4432008   263145 
 6470000   0.57744862   -3.2040734   -1.7585478  0.034451448   -3.2040734    1.4455256   263089 
 6471000   0.57760201   -3.2037261   -1.7576296  0.038383307   -3.2037261    1.4460965   263055 
 6472000   0.57832907   -3.2049653   -1.7568559  0.038819493   -3.2049653    1.4481094   263020 
 6473000   0.57759182    -3.204268   -1.7578176  0.034673087    -3.204268    1.4464504   262986 
 6474000   0.57687921   -3.2057368   -1.7608733  0.033941983   -3.2057368    1.4448636   262950 
 6475000   0.57722352   -3.2042448   -1.7581668  0.036672937   -3.2042448    1.4460779   262886 
 6476000   0.57777685   -3.2048826   -1.7570329  0.035816482   -3.2048826    1.4478497   262816 
 6477000   0.57658187   -3.2042607   -1.7591141  0.034215523   -3.2042607    1.4451466   262763 
 6478000   0.57582999   -3.2048304   -1.7611672  0.038350868   -3.2048304    1.4436631   262690 
 6479000   0.57620608   -3.2051964   -1.7602768  0.038421337   -3.2051964    1.4449196   262633 
 6480000   0.57670436   -3.2061526   -1.7598018  0.033132658   -3.2061526    1.4463508   262600 
 6481000   0.57643928   -3.2035628   -1.7578988  0.038087245   -3.2035628     1.445664   262604 
 6482000   0.57695488   -3.2057781   -1.7582313  0.034205355   -3.2057781    1.4475469   262497 
 6483000   0.57592375   -3.2035793   -1.7582891  0.038603758   -3.2035793    1.4452902   262437 
 6484000   0.57652442   -3.2059531   -1.7588743  0.034727464   -3.2059531    1.4470788   262386 
 6485000   0.57516631   -3.2019438   -1.7581308  0.037621547   -3.2019438     1.443813   262360 
 6486000   0.57650594    -3.204547   -1.7570456  0.033492367    -3.204547    1.4475013   262301 
 6487000   0.57551109   -3.2035221   -1.7582707  0.035768864   -3.2035221    1.4452514   262256 
 6488000   0.57590759   -3.2039342   -1.7575327  0.032702425   -3.2039342    1.4464015   262228 
 6489000   0.57529343   -3.2032407   -1.7580675   0.03660048   -3.2032407    1.4451732   262171 
 6490000   0.57580883   -3.2048177   -1.7580573    0.0333406   -3.2048177    1.4467604   262118 
 6491000   0.57491205   -3.2032845   -1.7586781  0.036979165   -3.2032845    1.4446064   262100 
 6492000   0.57579523   -3.2038288    -1.756821  0.036779364   -3.2038288    1.4470077   262067 
 6493000   0.57533097   -3.2035724   -1.7574776  0.038701474   -3.2035724    1.4460949   262021 
 6494000   0.57516911   -3.2036596   -1.7576625  0.035232528   -3.2036596    1.4459971   261965 
 6495000   0.57410181    -3.203197   -1.7592824  0.031031991    -3.203197    1.4439146   261856 
 6496000    0.5753923   -3.2048633   -1.7575483  0.035402937   -3.2048633    1.4473151   261828 
 6497000   0.57509486   -3.2042358   -1.7576302  0.037060225   -3.2042358    1.4466056   261821 
 6498000   0.57570973   -3.2062424   -1.7576641  0.035599534   -3.2062424    1.4485783   261744 
 6499000   0.57296935   -3.2021772   -1.7599542  0.037335317   -3.2021772     1.442223   261646 
 6500000   0.57340406   -3.2057755   -1.7622596  0.033308565   -3.2057755    1.4435158   261610 
 6501000   0.57316222   -3.2047638   -1.7618127  0.038436707   -3.2047638    1.4429512   261602 
 6502000   0.57304062   -3.2070739   -1.7641531  0.033635147   -3.2070739    1.4429208   261552 
 6503000    0.5733252   -3.2065661    -1.762741  0.031399566   -3.2065661    1.4438251   261518 
 6504000   0.57165842   -3.2043587   -1.7644888  0.034288451   -3.2043587    1.4398698   261474 
 6505000   0.57269046   -3.2049094   -1.7622029  0.038749424   -3.2049094    1.4427065   261431 
 6506000   0.57381716   -3.2079519   -1.7621968  0.036782568   -3.2079519     1.445755   261393 
 6507000   0.57361742   -3.2102259   -1.7645372  0.034251672   -3.2102259    1.4456887   261314 
 6508000   0.57278082   -3.2064528   -1.7624527  0.033957947   -3.2064528    1.4440002   261238 
 6509000   0.57430431   -3.2076095   -1.7596688  0.039441618   -3.2076095    1.4479407   261220 
 6510000   0.57386556   -3.2084876   -1.7611877  0.034539235   -3.2084876    1.4472999   261136 
 6511000   0.57381715      -3.2114   -1.7639006  0.035517857      -3.2114    1.4474993   261078 
 6512000   0.57234754   -3.2084429   -1.7644295  0.038480288   -3.2084429    1.4440134   261038 
 6513000   0.57252985   -3.2082286   -1.7636391  0.039542705   -3.2082286    1.4445896   261017 
 6514000   0.57104122    -3.207655   -1.7665455  0.040723859    -3.207655    1.4411095   260967 
 6515000   0.57216002   -3.2104902   -1.7661642  0.037126442   -3.2104902     1.444326   260896 
 6516000   0.57179758   -3.2093117   -1.7655355  0.037194483   -3.2093117    1.4437763   260830 
 6517000   0.57231841   -3.2101078   -1.7647948   0.03734051   -3.2101078     1.445313   260790 
 6518000   0.57169911   -3.2091686   -1.7650928  0.036234996   -3.2091686    1.4440758   260731 
 6519000   0.57130489   -3.2057745   -1.7625008  0.037757643   -3.2057745    1.4432737   260696 
 6520000   0.57166288   -3.2073465   -1.7629246  0.036492267   -3.2073465    1.4444219   260652 
 6521000   0.57103652   -3.2063585   -1.7632313  0.031039159   -3.2063585    1.4431272   260600 
 6522000   0.57106339   -3.2052509   -1.7615794  0.037928088   -3.2052509    1.4436715   260514 
 6523000   0.57197829   -3.2068378   -1.7605758  0.035798825   -3.2068378     1.446262   260464 
 6524000   0.57058039   -3.2060857   -1.7628541  0.038491715   -3.2060857    1.4432316   260373 
 6525000   0.57115071   -3.2067229   -1.7622041  0.040258302   -3.2067229    1.4445188   260401 
 6526000    0.5706224   -3.2058752   -1.7623267  0.036560243   -3.2058752    1.4435485   260335 
 6527000   0.57025034    -3.204157   -1.7611396  0.035274029    -3.204157    1.4430175   260261 
 6528000   0.57007597   -3.2062567   -1.7634199  0.035281946   -3.2062567    1.4428368   260214 
 6529000   0.56991273   -3.2031266   -1.7603314  0.036219656   -3.2031266    1.4427951   260147 
 6530000   0.57110459    -3.204129   -1.7584166  0.035652575    -3.204129    1.4457124   260165 
 6531000   0.57120917   -3.2053947   -1.7592731  0.038224063   -3.2053947    1.4461217   260139 
 6532000    0.5706133   -3.2043749   -1.7594618  0.034116063   -3.2043749    1.4449131   260085 
 6533000    0.5701195   -3.2042602   -1.7601145  0.037673721   -3.2042602    1.4441457   259998 
 6534000   0.57069029   -3.2041166   -1.7582247  0.033168061   -3.2041166    1.4458919   259944 
 6535000    0.5698195    -3.202838   -1.7588524  0.035674552    -3.202838    1.4439856   259890 
 6536000   0.56977235   -3.2023102   -1.7582719  0.037094506   -3.2023102    1.4440384   259859 
 6537000   0.56912473   -3.2027902   -1.7601045  0.034999945   -3.2027902    1.4426858   259807 
 6538000   0.56994451   -3.2034551   -1.7584187  0.035529658   -3.2034551    1.4450364   259758 
 6539000   0.57080942   -3.2050861   -1.7575838  0.033148599   -3.2050861    1.4475023   259709 
 6540000   0.56981687   -3.2022781   -1.7569199  0.036260699   -3.2022781    1.4453582   259642 
 6541000   0.56958008   -3.2023693   -1.7571776   0.03499446   -3.2023693    1.4451917   259564 
 6542000   0.56883836    -3.198988   -1.7554614   0.03536833    -3.198988    1.4435267   259525 
 6543000   0.56953619   -3.1994972   -1.7538822  0.037012757   -3.1994972     1.445615   259468 
 6544000   0.57009755   -3.2002181   -1.7526147  0.036883323   -3.2002181    1.4476034   259367 
 6545000   0.56942794   -3.1998126   -1.7535303  0.035236618   -3.1998126    1.4462823   259299 
 6546000   0.56862753   -3.1969228    -1.752328  0.034696933   -3.1969228    1.4445947   259237 
 6547000     0.568423   -3.1981046   -1.7539292  0.032210181   -3.1981046    1.4441754   259219 
 6548000    0.5686775   -3.1988616   -1.7537887  0.037160845   -3.1988616    1.4450729   259174 
 6549000   0.56771187   -3.1939147   -1.7510451  0.036603269   -3.1939147    1.4428696   259129 
 6550000   0.56718985   -3.1924954   -1.7507411  0.037970218   -3.1924954    1.4417543   259091 
 6551000   0.56785383   -3.1944958   -1.7506748  0.038274929   -3.1944958     1.443821   259023 
 6552000    0.5691391   -3.1974745        -1.75  0.033409874   -3.1974745    1.4474745   258954 
 6553000   0.56752695    -3.196248   -1.7525781  0.037435861    -3.196248    1.4436699   258901 
 6554000   0.56713372   -3.1961307   -1.7529873  0.037644656   -3.1961307    1.4431434   258816 
 6555000    0.5680435   -3.1963103   -1.7506452  0.036812795   -3.1963103    1.4456651   258779 
 6556000   0.56826502   -3.1981139   -1.7517676  0.034496489   -3.1981139    1.4463462   258758 
 6557000   0.56866808   -3.1982402   -1.7506443   0.03760364   -3.1982402    1.4475959   258718 
 6558000   0.56784412   -3.1970638   -1.7511015  0.035256555   -3.1970638    1.4459623   258635 
 6559000   0.56690134    -3.197443    -1.753552  0.036946768    -3.197443     1.443891   258576 
 6560000    0.5675568   -3.1968931   -1.7513383  0.037492118   -3.1968931    1.4455548   258577 
 6561000   0.56685782   -3.1955257   -1.7516004   0.03468945   -3.1955257    1.4439253   258550 
 6562000   0.56755487   -3.1973402   -1.7513765  0.037791572   -3.1973402    1.4459637   258503 
 6563000   0.56811094   -3.1984479   -1.7506194  0.036168725   -3.1984479    1.4478285   258423 
 6564000   0.56695464   -3.1954076   -1.7501401  0.033918521   -3.1954076    1.4452676   258354 
 6565000   0.56726391   -3.1954777   -1.7490242  0.037741062   -3.1954777    1.4464535   258283 
 6566000   0.56635717   -3.1934917   -1.7490987  0.035711174   -3.1934917     1.444393   258238 
 6567000   0.56614291   -3.1952007   -1.7509905  0.034110411   -3.1952007    1.4442101   258173 
 6568000   0.56540315   -3.1945257   -1.7518059  0.030871317   -3.1945257    1.4427198   258102 
 6569000   0.56476799    -3.193702    -1.752212  0.032476269    -3.193702      1.44149   258032 
 6570000   0.56613781   -3.1956362    -1.750437  0.035600109   -3.1956362    1.4451991   257994 
 6571000   0.56671509   -3.1954416   -1.7486623  0.033305638   -3.1954416    1.4467793   257975 
 6572000   0.56625762   -3.1971402   -1.7511196  0.036168305   -3.1971402    1.4460206   257902 
 6573000    0.5666485      -3.1983   -1.7508266  0.034012796      -3.1983    1.4474734   257821 
 6574000   0.56582834   -3.1953026   -1.7497336  0.037428879   -3.1953026     1.445569   257787 
 6575000   0.56626089   -3.1972702     -1.75054  0.036237349   -3.1972702    1.4467302   257777 
 6576000   0.56651811     -3.19962   -1.7519855  0.037290423     -3.19962    1.4476344   257733 
 6577000   0.56611378   -3.1972288   -1.7502739  0.038042534   -3.1972288    1.4469549   257670 
 6578000   0.56625029   -3.1971315   -1.7494568  0.037930025   -3.1971315    1.4476747   257604 
 6579000   0.56590729   -3.1951359   -1.7479786  0.040514274   -3.1951359    1.4471573   257540 
 6580000   0.56368802   -3.1940332    -1.752288  0.035365163   -3.1940332    1.4417452   257493 
 6581000   0.56383495    -3.193713    -1.751424  0.034315446    -3.193713     1.442289   257463 
 6582000   0.56398267   -3.1942717    -1.751347  0.036476279   -3.1942717    1.4429247   257417 
 6583000   0.56455714   -3.1932578   -1.7485547  0.032429778   -3.1932578    1.4447031   257362 
 6584000   0.56275944    -3.190322   -1.7497938  0.038208711    -3.190322    1.4405282   257286 
 6585000   0.56561894   -3.1954358   -1.7475823  0.038507565   -3.1954358    1.4478535   257285 
 6586000   0.56425253     -3.19107   -1.7462537  0.040147092     -3.19107    1.4448162   257203 
 6587000   0.56430319   -3.1908989   -1.7457507  0.037379973   -3.1908989    1.4451483   257167 
 6588000   0.56444326   -3.1946456   -1.7486945  0.032911487   -3.1946456    1.4459511   257088 
 6589000   0.56277875   -3.1919012   -1.7501748  0.035845399   -3.1919012    1.4417264   257081 
 6590000   0.56451012   -3.1926037   -1.7463013  0.036929595   -3.1926037    1.4463024   257056 
 6591000   0.56418373    -3.192561   -1.7467404  0.035972685    -3.192561    1.4458206   256993 
 6592000     0.563692   -3.1910956   -1.7462147  0.032444129   -3.1910956    1.4448809   256936 
 6593000   0.56293031   -3.1901901    -1.747183  0.038414041   -3.1901901    1.4430071   256922 
 6594000   0.56443029   -3.1904425    -1.743151  0.037350478   -3.1904425    1.4472915   256844 
 6595000    0.5641895   -3.1912043   -1.7442317  0.034628431   -3.1912043    1.4469727   256791 
 6596000    0.5633303   -3.1904314   -1.7452403  0.035424696   -3.1904314    1.4451912   256716 
 6597000    0.5637107   -3.1914907   -1.7449573  0.035835021   -3.1914907    1.4465333   256651 
 6598000   0.56303253   -3.1881158   -1.7432833  0.033842563   -3.1881158    1.4448325   256644 
 6599000    0.5627407   -3.1864496   -1.7420958  0.036711963   -3.1864496    1.4443538   256596 
 6600000   0.56367007   -3.1912121    -1.743875  0.034487448   -3.1912121     1.447337   256490 
 6601000   0.56343705    -3.191331   -1.7441071  0.034571635    -3.191331    1.4472239   256404 
 6602000   0.56337376   -3.1917847   -1.7444862  0.034098772   -3.1917847    1.4472984   256362 
 6603000    0.5627184   -3.1915846   -1.7457498   0.03645065   -3.1915846    1.4458348   256323 
 6604000   0.56197571   -3.1895648   -1.7453058  0.035604747   -3.1895648     1.444259   256264 
 6605000   0.56238695    -3.191652   -1.7459412  0.036615184    -3.191652    1.4457108   256194 
 6606000   0.56111861   -3.1898163   -1.7471915  0.036940868   -3.1898163    1.4426248   256163 
 6607000   0.56242351   -3.1937935   -1.7472774  0.036657372   -3.1937935    1.4465162   256068 
 6608000   0.56183196   -3.1929526   -1.7473764  0.036040721   -3.1929526    1.4455762   255965 
 6609000   0.56189114   -3.1943828   -1.7483436  0.034878089   -3.1943828    1.4460392   255910 
 6610000   0.56213644   -3.1949685   -1.7483715  0.032755845   -3.1949685     1.446597   255923 
 6611000   0.56115137   -3.1942666   -1.7500127  0.035068082   -3.1942666    1.4442539   255889 
 6612000   0.56186434   -3.1947684   -1.7487134  0.034995654   -3.1947684     1.446055   255895 
 6613000   0.56179815   -3.1943267    -1.747939   0.03879807   -3.1943267    1.4463877   255806 
 6614000   0.56182063   -3.1937806   -1.7471145  0.036167658   -3.1937806    1.4466661   255767 
 6615000   0.56152583   -3.1923117   -1.7460767  0.039207237   -3.1923117     1.446235   255709 
 6616000   0.56139311   -3.1934504   -1.7471387   0.03521132   -3.1934504    1.4463117   255635 
 6617000   0.56123529   -3.1940362   -1.7478143  0.035689104   -3.1940362    1.4462219   255579 
 6618000   0.56073924   -3.1918136   -1.7464741  0.038201171   -3.1918136    1.4453395   255509 
 6619000   0.56166839   -3.1939462   -1.7457809  0.037160369   -3.1939462    1.4481652   255433 
 6620000   0.56172473   -3.1966875   -1.7480084  0.034659405   -3.1966875    1.4486791   255368 
 6621000   0.56158755   -3.1942135   -1.7456726  0.039967941   -3.1942135    1.4485409   255330 
 6622000   0.56113987   -3.1921126   -1.7447264  0.036745423   -3.1921126    1.4473862   255330 
 6623000   0.56197105   -3.1932803   -1.7431937  0.035197173   -3.1932803    1.4500866   255232 
 6624000   0.56053943   -3.1918646   -1.7451377  0.031793456   -3.1918646     1.446727   255173 
 6625000   0.56167603   -3.1931125   -1.7432077  0.037143641   -3.1931125    1.4499048   255130 
 6626000   0.56207612   -3.1914709   -1.7402887  0.036892106   -3.1914709    1.4511822   255087 
 6627000   0.56134336   -3.1892542   -1.7394922  0.036299521   -3.1892542    1.4497621   255004 
 6628000   0.56063376   -3.1880558   -1.7398822  0.040362185   -3.1880558    1.4481736   254961 
 6629000   0.55957468   -3.1837506   -1.7380349  0.039097159   -3.1837506    1.4457157   254912 
 6630000   0.55857873   -3.1814423   -1.7379486  0.037678854   -3.1814423    1.4434937   254850 
 6631000   0.55953753   -3.1855469   -1.7392576    0.0338905   -3.1855469    1.4462892   254794 
 6632000   0.55858031    -3.184565   -1.7406197  0.032609555    -3.184565    1.4439454   254771 
 6633000   0.55848438   -3.1813159   -1.7372785  0.037099176   -3.1813159    1.4440375   254711 
 6634000   0.55824222   -3.1799365   -1.7362815   0.03674438   -3.1799365    1.4436551   254668 
 6635000   0.55918237   -3.1802771   -1.7340431  0.037623411   -3.1802771     1.446234   254642 
 6636000   0.55900519   -3.1796155   -1.7337546  0.032589844   -3.1796155    1.4458609   254627 
 6637000   0.55812323   -3.1790641   -1.7353313  0.032094869   -3.1790641    1.4437328   254600 
 6638000   0.56032999   -3.1805154   -1.7311083  0.037653264   -3.1805154     1.449407   254606 
 6639000   0.56058595   -3.1806622   -1.7303197  0.034572436   -3.1806622    1.4503426   254558 
 6640000   0.55995538   -3.1786476   -1.7297487  0.036065769   -3.1786476     1.448899   254525 
 6641000   0.55985632   -3.1779734   -1.7292966  0.034260235   -3.1779734    1.4486768   254519 
 6642000   0.55949281    -3.178363   -1.7303822  0.035156735    -3.178363    1.4479808   254476 
 6643000   0.56079694   -3.1796303   -1.7281261  0.037920454   -3.1796303    1.4515043   254450 
 6644000     0.560789   -3.1808619   -1.7289103  0.041940923   -3.1808619    1.4519516   254368 
 6645000   0.55920495   -3.1776233   -1.7294997  0.033679454   -3.1776233    1.4481236   254320 
 6646000   0.55927227   -3.1792123   -1.7308233  0.035544666   -3.1792123     1.448389   254304 
 6647000   0.55858912   -3.1781393   -1.7311781  0.032623401   -3.1781393    1.4469612   254244 
 6648000   0.55752928   -3.1781279   -1.7333609  0.036326353   -3.1781279     1.444767   254147 
 6649000    0.5578906   -3.1806513   -1.7345782  0.035958231   -3.1806513    1.4460732   254082 
 6650000   0.55878186   -3.1811046   -1.7325217  0.032762214   -3.1811046    1.4485829   254047 
 6651000   0.55823858   -3.1798189   -1.7322056  0.031598328   -3.1798189    1.4476133   253970 
 6652000   0.55869058   -3.1809583   -1.7319675  0.039479782   -3.1809583    1.4489908   253934 
 6653000   0.55777522   -3.1784398   -1.7317376  0.035895952   -3.1784398    1.4467022   253919 
 6654000   0.55895741   -3.1788457   -1.7290544  0.033066769   -3.1788457    1.4497913   253915 
 6655000   0.55806808   -3.1776496   -1.7299882  0.032746049   -3.1776496    1.4476614   253884 
 6656000     0.558306   -3.1793409   -1.7309083  0.036501867   -3.1793409    1.4484326   253857 
 6657000   0.55858352   -3.1770477   -1.7276667  0.037396718   -3.1770477    1.4493809   253817 
 6658000   0.55763909   -3.1746322   -1.7271429   0.03595968   -3.1746322    1.4474893   253719 
 6659000   0.55757749   -3.1743274   -1.7267755  0.035289244   -3.1743274    1.4475519   253680 
 6660000   0.55730387   -3.1749609   -1.7279597   0.03606642   -3.1749609    1.4470012   253652 
 6661000   0.55810582   -3.1773905   -1.7280842  0.036652487   -3.1773905    1.4493063   253613 
 6662000   0.55630012    -3.176528   -1.7315006  0.036011787    -3.176528    1.4450274   253541 
 6663000   0.55751702   -3.1777354   -1.7295241  0.038527706   -3.1777354    1.4482113   253537 
 6664000   0.55699799   -3.1775548   -1.7304292  0.036804446   -3.1775548    1.4471256   253491 
 6665000   0.55594082   -3.1746588   -1.7298923  0.035994013   -3.1746588    1.4447665   253423 
 6666000   0.55824346   -3.1788046   -1.7278307  0.031275031   -3.1788046    1.4509739   253384 
 6667000   0.55710995    -3.175854   -1.7278378  0.040176602    -3.175854    1.4480162   253386 
 6668000    0.5566564   -3.1750001   -1.7275515  0.035750332   -3.1750001    1.4474486   253279 
 6669000   0.55761911    -3.177829   -1.7278485  0.036426375    -3.177829    1.4499805   253274 
 6670000   0.55562323   -3.1763564   -1.7313375  0.036802487   -3.1763564    1.4450189   253234 
 6671000   0.55684132   -3.1764167   -1.7282013  0.039779286   -3.1764167    1.4482154   253229 
 6672000   0.55605595   -3.1747761   -1.7282605  0.034913787   -3.1747761    1.4465155   253169 
 6673000   0.55634049   -3.1760336    -1.728635  0.036989272   -3.1760336    1.4473986   253144 
 6674000   0.55581954   -3.1751506   -1.7286387  0.033333868   -3.1751506    1.4465119   253062 
 6675000   0.55650146   -3.1761602   -1.7273412   0.04085421   -3.1761602     1.448819   252969 
 6676000   0.55645194   -3.1735134   -1.7244224  0.034187969   -3.1735134    1.4490911   252899 
 6677000   0.55543577   -3.1728822    -1.726117  0.038118676   -3.1728822    1.4467652   252843 
 6678000   0.55604368   -3.1732797   -1.7246847  0.034103514   -3.1732797     1.448595   252800 
 6679000   0.55638634   -3.1709725   -1.7209686  0.037718998   -3.1709725    1.4500039   252710 
 6680000   0.55604122   -3.1685627   -1.7195558  0.039900801   -3.1685627     1.449007   252727 
 6681000   0.55630872   -3.1711761   -1.7210933  0.038749727   -3.1711761    1.4500828   252661 
 6682000   0.55641649   -3.1707575    -1.720302  0.038279199   -3.1707575    1.4504555   252645 
 6683000   0.55536977   -3.1690677   -1.7210541  0.034533932   -3.1690677    1.4480135   252595 
 6684000   0.55283189     -3.16579   -1.7240738  0.032690407     -3.16579    1.4417162   252539 
 6685000   0.55388082   -3.1673131   -1.7227242  0.032530374   -3.1673131    1.4445889   252515 
 6686000   0.55459592   -3.1721757   -1.7253952  0.035508019   -3.1721757    1.4467806   252458 
 6687000   0.55531121   -3.1717926   -1.7226524  0.041228935   -3.1717926    1.4491402   252372 
 6688000   0.55377728   -3.1675531    -1.722055  0.040289611   -3.1675531    1.4454981   252309 
 6689000   0.55408637   -3.1709637   -1.7239648  0.034849253   -3.1709637    1.4469988   252188 
 6690000   0.55391051   -3.1728127   -1.7259575  0.036502908   -3.1728127    1.4468551   252133 
 6691000   0.55487246   -3.1752944   -1.7253976  0.036258732   -3.1752944    1.4498969   252041 
 6692000   0.55433719    -3.174637   -1.7257824  0.033833377    -3.174637    1.4488546   251979 
 6693000   0.55414384   -3.1736151   -1.7252027  0.037887722   -3.1736151    1.4484125   251968 
 6694000   0.55509091   -3.1742019   -1.7230663  0.037918698   -3.1742019    1.4511355   251925 
 6695000   0.55466452   -3.1761319   -1.7255582  0.033717724   -3.1761319    1.4505736   251829 
 6696000   0.55409547   -3.1731666   -1.7239833   0.03645064   -3.1731666    1.4491833   251812 
 6697000   0.55390022   -3.1752387   -1.7263532  0.036210386   -3.1752387    1.4488855   251775 
 6698000   0.55422754   -3.1735163   -1.7232562  0.037288892   -3.1735163    1.4502601   251685 
 6699000   0.55297216   -3.1725665   -1.7253441  0.038872329   -3.1725665    1.4472224   251642 
 6700000   0.55361206   -3.1731869   -1.7239846   0.03466471   -3.1731869    1.4492023   251589 
 6701000    0.5528785   -3.1721841   -1.7245798  0.034325356   -3.1721841    1.4476043   251533 
 6702000   0.55261397   -3.1725543   -1.7252859  0.035160865   -3.1725543    1.4472684   251471 
 6703000   0.55368642   -3.1735624   -1.7229084  0.036699765   -3.1735624     1.450654   251371 
 6704000   0.55176324   -3.1700315   -1.7241401  0.038253574   -3.1700315    1.4458914   251323 
 6705000   0.55270775   -3.1742777   -1.7255193  0.036614196   -3.1742777    1.4487584   251255 
 6706000   0.55198475   -3.1718296   -1.7247244    0.0376868   -3.1718296    1.4471052   251213 
 6707000   0.55116713   -3.1673859   -1.7224242  0.035946563   -3.1673859    1.4449617   251213 
 6708000    0.5517048   -3.1709221   -1.7240844  0.037707149   -3.1709221    1.4468378   251132 
 6709000   0.55260749   -3.1718488   -1.7223263  0.036925326   -3.1718488    1.4495225   251077 
 6710000    0.5518504    -3.170873   -1.7229039  0.036887014    -3.170873    1.4479692   251002 
 6711000   0.55190822   -3.1700524   -1.7215622  0.036689431   -3.1700524    1.4484902   250938 
 6712000   0.55112545   -3.1689119   -1.7221936  0.032321362   -3.1689119    1.4467183   250889 
 6713000    0.5523765   -3.1695021   -1.7194651  0.034851554   -3.1695021     1.450037   250883 
 6714000   0.55147618   -3.1671334   -1.7194656  0.036131527   -3.1671334    1.4476678   250884 
 6715000   0.55272054    -3.168795   -1.7174209  0.038367225    -3.168795     1.451374   250808 
 6716000   0.55190692   -3.1676292   -1.7180853  0.040352458   -3.1676292    1.4495439   250755 
 6717000   0.55262818   -3.1679472   -1.7160632  0.038566517   -3.1679472    1.4518841   250678 
 6718000   0.55275172   -3.1669069   -1.7144259  0.033058669   -3.1669069     1.452481   250631 
 6719000   0.55194448   -3.1656314   -1.7153179  0.032923009   -3.1656314    1.4503135   250639 
 6720000   0.55093597   -3.1619664   -1.7141238  0.035876108   -3.1619664    1.4478425   250608 
 6721000   0.54967486   -3.1613346   -1.7164891  0.036750618   -3.1613346    1.4448455   250553 
 6722000   0.54973629   -3.1638334   -1.7182495  0.036285302   -3.1638334    1.4455839   250453 
 6723000   0.54902708   -3.1606119   -1.7168064  0.034954373   -3.1606119    1.4438054   250438 
 6724000   0.54932042   -3.1628968   -1.7179564  0.034886042   -3.1628968    1.4449403   250375 
 6725000   0.54874347   -3.1640173   -1.7202717  0.034290902   -3.1640173    1.4437456   250319 
 6726000   0.54946145   -3.1643561   -1.7185886  0.034351196   -3.1643561    1.4457675   250296 
 6727000   0.54914128   -3.1635492   -1.7183412  0.036223257   -3.1635492     1.445208   250247 
 6728000   0.54981929   -3.1650308   -1.7178013  0.035264404   -3.1650308    1.4472294   250206 
 6729000   0.55042409   -3.1668605   -1.7177032  0.036426287   -3.1668605    1.4491573   250148 
 6730000   0.54980078   -3.1664808    -1.718652  0.037041496   -3.1664808    1.4478288   250094 
 6731000   0.54993077   -3.1684616   -1.7199835  0.035476199   -3.1684616    1.4484781   250041 
 6732000   0.54914973    -3.169105   -1.7220764  0.037467587    -3.169105    1.4470285   249936 
 6733000   0.54897421   -3.1692809    -1.722576  0.033482321   -3.1692809    1.4467049   249912 
 6734000   0.54870271   -3.1709268   -1.7243411  0.038359448   -3.1709268    1.4465857   249809 
 6735000   0.54857605   -3.1732811   -1.7267282  0.035562284   -3.1732811    1.4465529   249757 
 6736000   0.54873582   -3.1718779   -1.7247299  0.039415462   -3.1718779     1.447148   249727 
 6737000   0.54891647   -3.1737264   -1.7258817  0.038639421   -3.1737264    1.4478447   249689 
 6738000    0.5505503    -3.177166   -1.7247151  0.037897349    -3.177166    1.4524508   249638 
 6739000   0.54879744   -3.1734933   -1.7250924  0.044237231   -3.1734933    1.4484009   249539 
 6740000   0.54863977   -3.1747652   -1.7265657  0.040915429   -3.1747652    1.4481995   249502 
 6741000   0.54777252   -3.1740201   -1.7276229  0.036202805   -3.1740201    1.4463972   249418 
 6742000   0.54816212   -3.1743402   -1.7264266  0.038636435   -3.1743402    1.4479136   249334 
 6743000   0.54766627   -3.1741919   -1.7274662  0.033097628   -3.1741919    1.4467257   249313 
 6744000   0.54762565   -3.1704957   -1.7239991   0.03458593   -3.1704957    1.4464966   249334 
 6745000   0.54674248   -3.1669916   -1.7225729  0.034770606   -3.1669916    1.4444187   249290 
 6746000   0.54766079    -3.165832   -1.7185577  0.037645112    -3.165832    1.4472743   249216 
 6747000   0.54779256   -3.1649178   -1.7170745  0.039101401   -3.1649178    1.4478433   249178 
 6748000   0.54830767   -3.1661839   -1.7167115  0.034970555   -3.1661839    1.4494724   249132 
 6749000   0.54597574   -3.1614638   -1.7176924  0.035121016   -3.1614638    1.4437714   249052 
 6750000    0.5475073   -3.1637884   -1.7156472  0.037227263   -3.1637884    1.4481413   248997 
 6751000   0.54764638    -3.162366   -1.7137056  0.038070755    -3.162366    1.4486604   248971 
 6752000   0.54715868   -3.1638038   -1.7158344  0.042289559   -3.1638038    1.4479694   248868 
 6753000   0.54490176   -3.1613816   -1.7188863  0.037587865   -3.1613816    1.4424952   248782 
 6754000   0.54601179   -3.1631891   -1.7173892  0.036551853   -3.1631891    1.4457999   248719 
 6755000   0.54674354   -3.1624164   -1.7143878  0.033183995   -3.1624164    1.4480286   248669 
 6756000   0.54657069   -3.1601641   -1.7121333  0.040029337   -3.1601641    1.4480308   248590 
 6757000    0.5457756   -3.1607122   -1.7146075  0.038682942   -3.1607122    1.4461048   248559 
 6758000   0.54637938   -3.1618059   -1.7138334  0.033973785   -3.1618059    1.4479725   248513 
 6759000   0.54565647    -3.160213   -1.7135567  0.038105336    -3.160213    1.4466563   248410 
 6760000   0.54554477   -3.1614206   -1.7147809  0.035937088   -3.1614206    1.4466397   248362 
 6761000   0.54519699   -3.1592455   -1.7130913    0.0355565   -3.1592455    1.4461542   248287 
 6762000   0.54527853   -3.1605986   -1.7140067  0.032296828   -3.1605986    1.4465919   248249 
 6763000   0.54633993    -3.162901   -1.7131079  0.035127265    -3.162901    1.4497931   248183 
 6764000   0.54456738   -3.1607206   -1.7151477  0.035341882   -3.1607206    1.4455729   248100 
 6765000   0.54477006   -3.1622401   -1.7157152  0.036459855   -3.1622401    1.4465249   248029 
 6766000   0.54550261   -3.1615174   -1.7129482  0.033296013   -3.1615174    1.4485693   248012 
 6767000   0.54541095   -3.1640911   -1.7155842  0.035290221   -3.1640911    1.4485069   247981 
 6768000   0.54524225   -3.1630825   -1.7147433  0.039129665   -3.1630825    1.4483392   247933 
 6769000   0.54441257   -3.1607079     -1.71417  0.036913348   -3.1607079    1.4465379   247864 
 6770000   0.54502507    -3.161593   -1.7133225  0.040792618    -3.161593    1.4482705   247846 
 6771000   0.54415781   -3.1608757   -1.7145479  0.035989727   -3.1608757    1.4463278   247784 
 6772000   0.54397753   -3.1623452   -1.7164732   0.03788714   -3.1623452     1.445872   247780 
 6773000   0.54389757   -3.1614319   -1.7155915    0.0352371   -3.1614319    1.4458403   247749 
 6774000   0.54420043   -3.1622083   -1.7153702  0.032945428   -3.1622083    1.4468382   247716 
 6775000   0.54438606   -3.1643911   -1.7165684  0.037726629   -3.1643911    1.4478226   247632 
 6776000   0.54533533   -3.1638511   -1.7134277   0.03740033   -3.1638511    1.4504234   247619 
 6777000   0.54462211   -3.1607237   -1.7119807  0.042111828   -3.1607237     1.448743   247582 
 6778000   0.54420047    -3.157968   -1.7104168  0.038609436    -3.157968    1.4475512   247594 
 6779000   0.54545057   -3.1617937   -1.7106066   0.04248151   -3.1617937     1.451187   247541 
 6780000   0.54392236   -3.1584074   -1.7108827  0.039451066   -3.1584074    1.4475247   247472 
 6781000   0.54463884   -3.1580087   -1.7083547   0.03618477   -3.1580087     1.449654   247434 
 6782000   0.54393286   -3.1570403   -1.7092713  0.040274759   -3.1570403    1.4477691   247435 
 6783000   0.54380492   -3.1559377   -1.7083161  0.035973879   -3.1559377    1.4476216   247402 
 6784000   0.54376168   -3.1531363   -1.7055362  0.037259707   -3.1531363    1.4476001   247386 
 6785000   0.54462127   -3.1548733   -1.7045216  0.038664566   -3.1548733    1.4503517   247307 
 6786000   0.54376403   -3.1509009   -1.7025275  0.035112916   -3.1509009    1.4483733   247255 
 6787000   0.54379314   -3.1521934   -1.7033851  0.037022253   -3.1521934    1.4488083   247194 
 6788000   0.54371141   -3.1507574   -1.7017741  0.033776491   -3.1507574    1.4489833   247127 
 6789000   0.54403187    -3.150816    -1.700832  0.037158646    -3.150816     1.449984   247102 
 6790000   0.54241307    -3.148208   -1.7022342  0.038182429    -3.148208    1.4459738   247050 
 6791000   0.54371099   -3.1481439    -1.698933  0.035326846   -3.1481439    1.4492109   247088 
 6792000   0.54534599   -3.1514321   -1.6975455   0.03643704   -3.1514321    1.4538866   247034 
 6793000   0.54368952    -3.146143   -1.6963615  0.034931902    -3.146143    1.4497815   246981 
 6794000   0.54294041   -3.1463202   -1.6984659  0.038811092   -3.1463202    1.4478543   246969 
 6795000   0.54449505   -3.1476067   -1.6956008  0.040621941   -3.1476067    1.4520059   246968 
 6796000   0.54313073   -3.1467988   -1.6979384  0.037828182   -3.1467988    1.4488605   246884 
 6797000   0.54245436   -3.1423022   -1.6952754  0.036549291   -3.1423022    1.4470269   246889 
 6798000   0.54226937   -3.1421512   -1.6952427  0.032967372   -3.1421512    1.4469085   246825 
 6799000   0.54234394   -3.1439947   -1.6964591  0.036051359   -3.1439947    1.4475356   246752 
 6800000   0.54305658   -3.1463135   -1.6963176   0.03726884   -3.1463135    1.4499959   246657 
 6801000   0.54240837   -3.1472602   -1.6988483  0.036531718   -3.1472602    1.4484119   246632 
 6802000   0.54008859   -3.1437813   -1.7013184  0.036537767   -3.1437813     1.442463   246590 
 6803000   0.54048034   -3.1447186   -1.7009693  0.037218693   -3.1447186    1.4437493   246549 
 6804000   0.54174107   -3.1471963   -1.6998444  0.033114092   -3.1471963    1.4473518   246509 
 6805000   0.54307531   -3.1508527   -1.6994652  0.037206888   -3.1508527    1.4513875   246429 
 6806000   0.54252308   -3.1484378   -1.6981966  0.043122104   -3.1484378    1.4502412   246373 
 6807000   0.54216507   -3.1489749   -1.6994141  0.037257768   -3.1489749    1.4495607   246326 
 6808000   0.54169835   -3.1470976   -1.6983966  0.035917356   -3.1470976     1.448701   246260 
 6809000   0.54261904   -3.1518871   -1.7006295   0.03366234   -3.1518871    1.4512576   246244 
 6810000   0.54183812   -3.1506767   -1.7012428  0.034210378   -3.1506767    1.4494339   246199 
 6811000   0.54051349   -3.1497018   -1.7032473  0.038793773   -3.1497018    1.4464544   246103 
 6812000   0.54208503   -3.1512848   -1.7005953   0.03787926   -3.1512848    1.4506895   246098 
 6813000   0.54092025   -3.1495027   -1.7016009  0.039129534   -3.1495027    1.4479019   246042 
 6814000   0.54136303   -3.1544672   -1.7050032   0.03528591   -3.1544672    1.4494641   245978 
 6815000   0.53995162   -3.1519152   -1.7059714  0.035560811   -3.1519152    1.4459438   245934 
 6816000    0.5396388    -3.150429   -1.7050409  0.032421894    -3.150429    1.4453882   245886 
 6817000   0.53946774   -3.1498847   -1.7044609  0.038007924   -3.1498847    1.4454238   245802 
 6818000   0.53990167   -3.1530512   -1.7060291   0.03718553   -3.1530512    1.4470221   245728 
 6819000   0.54041181   -3.1547941   -1.7058151   0.03695584   -3.1547941     1.448979   245628 
 6820000   0.54044412   -3.1546761   -1.7055574  0.033535068   -3.1546761    1.4491187   245619 
 6821000   0.53996386    -3.152609   -1.7045127   0.03622192    -3.152609    1.4480963   245574 
 6822000   0.54090467   -3.1564554   -1.7054401  0.037500669   -3.1564554    1.4510153   245507 
 6823000   0.53947482   -3.1528715   -1.7056978  0.036818423   -3.1528715    1.4471737   245508 
 6824000   0.54036666    -3.153612   -1.7036738  0.035009751    -3.153612    1.4499382   245445 
 6825000   0.53998982   -3.1526408   -1.7036666  0.038703849   -3.1526408    1.4489743   245437 
 6826000   0.54036594   -3.1537785   -1.7032572   0.03544178   -3.1537785    1.4505213   245346 
 6827000   0.54033974   -3.1546099   -1.7038101  0.035133256   -3.1546099    1.4507999   245287 
 6828000    0.5398191   -3.1545936   -1.7048962  0.037482831   -3.1545936    1.4496975   245237 
 6829000   0.53888424    -3.153312   -1.7057768  0.040326427    -3.153312    1.4475352   245178 
 6830000   0.53890952   -3.1523846    -1.704504  0.037574458   -3.1523846    1.4478806   245131 
 6831000   0.53915726   -3.1518877   -1.7029692  0.039309727   -3.1518877    1.4489186   245068 
 6832000   0.53913832   -3.1514054   -1.7022834  0.039126889   -3.1514054     1.449122   245025 
 6833000   0.53893622   -3.1511225   -1.7019524  0.038265679   -3.1511225    1.4491702   244925 
 6834000   0.54006435   -3.1517564   -1.6995291  0.038916647   -3.1517564    1.4522274   244921 
 6835000   0.54039283   -3.1518025   -1.6984011  0.039826731   -3.1518025    1.4534014   244872 
 6836000   0.53995248   -3.1507926   -1.6982492  0.038757876   -3.1507926    1.4525434   244817 
 6837000    0.5386994   -3.1457409   -1.6965389  0.036668679   -3.1457409     1.449202   244812 
 6838000   0.53907297    -3.144565   -1.6940796  0.036290023    -3.144565    1.4504854   244765 
 6839000   0.53766923   -3.1428717   -1.6958381  0.037348046   -3.1428717    1.4470336   244710 
 6840000   0.53749641   -3.1429814   -1.6962533  0.036299687   -3.1429814    1.4467281   244683 
 6841000   0.53823053   -3.1429318   -1.6939731  0.031458157   -3.1429318    1.4489586   244640 
 6842000   0.53922418   -3.1438606   -1.6920667  0.035807315   -3.1438606    1.4517939   244613 
 6843000   0.53759363   -3.1396252    -1.691961  0.035247217   -3.1396252    1.4476642   244569 
 6844000   0.53794161   -3.1392427   -1.6905822  0.036605862   -3.1392427    1.4486605   244559 
 6845000   0.53723445    -3.138571   -1.6913947  0.032687273    -3.138571    1.4471763   244488 
 6846000    0.5383906   -3.1411321   -1.6905388  0.032729115   -3.1411321    1.4505933   244437 
 6847000   0.53779712   -3.1394557   -1.6902065   0.03985652   -3.1394557    1.4492492   244394 
 6848000   0.53917475   -3.1429755   -1.6895857  0.036893558   -3.1429755    1.4533898   244322 
 6849000   0.54015245   -3.1447038   -1.6882911  0.039869895   -3.1447038    1.4564127   244257 
 6850000   0.53789268   -3.1407704   -1.6900706   0.03740285   -3.1407704    1.4506998   244193 
 6851000   0.53804461   -3.1415984   -1.6901203  0.035084546   -3.1415984    1.4514781   244131 
 6852000   0.53774718   -3.1431934   -1.6922205  0.039682317   -3.1431934    1.4509729   244081 
 6853000   0.53706891   -3.1404769   -1.6913104  0.040824704   -3.1404769    1.4491665   244077 
 6854000   0.53770839   -3.1435881   -1.6922204  0.037933177   -3.1435881    1.4513677   243997 
 6855000   0.53722851   -3.1427502   -1.6922854  0.038727533   -3.1427502    1.4504648   243931 
 6856000   0.53663573   -3.1425778   -1.6934164  0.036325472   -3.1425778    1.4491614   243881 
 6857000   0.53733401   -3.1462607   -1.6950411  0.034045864   -3.1462607    1.4512196   243852 
 6858000   0.53720143   -3.1485189   -1.6971276  0.035867802   -3.1485189    1.4513913   243763 
 6859000   0.53547901   -3.1430882   -1.6960953  0.038421586   -3.1430882     1.446993   243720 
 6860000   0.53615211   -3.1454048   -1.6963967  0.040764113   -3.1454048     1.449008   243687 
 6861000   0.53585057   -3.1458745   -1.6974437  0.039567581   -3.1458745    1.4484308   243647 
 6862000   0.53633564   -3.1463259   -1.6965006   0.03952541   -3.1463259    1.4498253   243633 
 6863000   0.53664451   -3.1462548   -1.6953445  0.040008013   -3.1462548    1.4509104   243591 
 6864000   0.53594547   -3.1467338    -1.697523  0.034279479   -3.1467338    1.4492108   243559 
 6865000   0.53561699   -3.1472803   -1.6985592   0.03603393   -3.1472803    1.4487211   243492 
 6866000   0.53586783   -3.1497831   -1.6999489  0.037587419   -3.1497831    1.4498342   243419 
 6867000   0.53546993   -3.1485512   -1.6996566  0.036989913   -3.1485512    1.4488946   243396 
 6868000   0.53566127   -3.1471969   -1.6974332  0.040055049   -3.1471969    1.4497637   243337 
 6869000   0.53541243   -3.1473406    -1.697744  0.034292056   -3.1473406    1.4495966   243252 
 6870000    0.5345349   -3.1468258   -1.6995574  0.034073015   -3.1468258    1.4472684   243244 
 6871000   0.53494846   -3.1472032   -1.6984042  0.034530394   -3.1472032     1.448799   243175 
 6872000   0.53516743   -3.1466866   -1.6969129   0.04033682   -3.1466866    1.4497736   243111 
 6873000    0.5343485   -3.1452452   -1.6974995  0.035360383   -3.1452452    1.4477457   243079 
 6874000   0.53382867    -3.143426   -1.6967197  0.035853015    -3.143426    1.4467063   243017 
 6875000   0.53390066   -3.1442321   -1.6971342  0.032156346   -3.1442321    1.4470979   242984 
 6876000   0.53344936   -3.1424164   -1.6962799  0.032016309   -3.1424164    1.4461366   242940 
 6877000    0.5332106   -3.1408708   -1.6952566  0.036658151   -3.1408708    1.4456142   242919 
 6878000   0.53462222   -3.1442137   -1.6944143  0.036846484   -3.1442137    1.4497995   242859 
 6879000   0.53289792   -3.1387343   -1.6933669  0.039966228   -3.1387343    1.4453675   242818 
 6880000   0.53477779   -3.1437126   -1.6927563  0.038084059   -3.1437126    1.4509562   242736 
 6881000   0.53480463   -3.1416687   -1.6902211  0.037832358   -3.1416687    1.4514476   242666 
 6882000   0.53465772    -3.143256   -1.6917106  0.040148765    -3.143256    1.4515454   242583 
 6883000   0.53403572   -3.1439291    -1.693911  0.039283539   -3.1439291    1.4500181   242556 
 6884000   0.53426925    -3.143731   -1.6929293  0.035050728    -3.143731    1.4508017   242531 
 6885000   0.53349475   -3.1444869   -1.6953342  0.038757241   -3.1444869    1.4491527   242455 
 6886000   0.53400361   -3.1453224   -1.6944404  0.035216269   -3.1453224     1.450882   242397 
 6887000   0.53362445   -3.1418972   -1.6918779  0.036629904   -3.1418972    1.4500193   242369 
 6888000   0.53318781   -3.1407278   -1.6917156  0.037477757   -3.1407278    1.4490122   242339 
 6889000    0.5347337   -3.1416341   -1.6882409  0.040251552   -3.1416341    1.4533933   242309 
 6890000   0.53265083   -3.1343979   -1.6862355  0.036198772   -3.1343979    1.4481624   242237 
 6891000   0.53430314   -3.1388574   -1.6857769  0.036872423   -3.1388574    1.4530806   242166 
 6892000   0.53378119   -3.1405352   -1.6884604  0.036789633   -3.1405352    1.4520748   242097 
 6893000    0.5321449   -3.1378118   -1.6898594  0.039052256   -3.1378118    1.4479525   242042 
 6894000   0.53260567   -3.1354382   -1.6856629  0.039572761   -3.1354382    1.4497752   241947 
 6895000   0.53188406    -3.134467   -1.6861891  0.035934316    -3.134467    1.4482779   241869 
 6896000   0.53121175   -3.1331677   -1.6863795  0.031706191   -3.1331677    1.4467882   241812 
 6897000   0.52996006   -3.1295185   -1.6859901  0.033994463   -3.1295185    1.4435284   241787 
 6898000   0.52980081   -3.1305831     -1.68676  0.027841131   -3.1305831    1.4438231   241665 
 6899000   0.53170537   -3.1302682   -1.6810808  0.038606437   -3.1302682    1.4491874   241636 
 6900000   0.53243586   -3.1319471    -1.680222  0.038116863   -3.1319471    1.4517251   241545 
 6901000    0.5319171   -3.1299695   -1.6793646   0.03504153   -3.1299695    1.4506049   241496 
 6902000   0.53087162   -3.1286135    -1.680566  0.033533146   -3.1286135    1.4480476   241447 
 6903000   0.52969224   -3.1268269   -1.6819005  0.038997063   -3.1268269    1.4449264   241431 
 6904000   0.53034885   -3.1310232    -1.684018  0.036674401   -3.1310232    1.4470052   241383 
 6905000   0.53144801    -3.130126   -1.6798635  0.031851211    -3.130126    1.4502625   241340 
 6906000   0.53050208   -3.1292635   -1.6810063  0.036033923   -3.1292635    1.4482572   241244 
 6907000   0.52957457   -3.1305788   -1.6846019  0.035633639   -3.1305788    1.4459769   241202 
 6908000    0.5307089   -3.1326122   -1.6830093  0.036832131   -3.1326122     1.449603   241114 
 6909000   0.52926086   -3.1321334   -1.6858738  0.034747889   -3.1321334    1.4462596   241012 
 6910000   0.52828661   -3.1293402   -1.6852575  0.037016267   -3.1293402    1.4440826   240931 
 6911000   0.52735932   -3.1306587   -1.6886918  0.035140207   -3.1306587    1.4419668   240861 
 6912000   0.52858869   -3.1333959   -1.6878756   0.03502323   -3.1333959    1.4455204   240829 
 6913000    0.5296284     -3.13708   -1.6883434  0.037777206     -3.13708    1.4487366   240767 
 6914000    0.5290474   -3.1366372   -1.6890449   0.03501164   -3.1366372    1.4475923   240693 
 6915000   0.52985733   -3.1377795   -1.6878687  0.038845897   -3.1377795    1.4499108   240676 
 6916000   0.53032163   -3.1397267   -1.6884006  0.041689538   -3.1397267    1.4513261   240652 
 6917000   0.52970498   -3.1382658   -1.6882296  0.036719873   -3.1382658    1.4500362   240586 
 6918000   0.53014145   -3.1395009   -1.6879502  0.036227673   -3.1395009    1.4515508   240533 
 6919000   0.52992307   -3.1404206   -1.6892204  0.033510925   -3.1404206    1.4512002   240492 
 6920000   0.52894372   -3.1404695   -1.6915778  0.038393587   -3.1404695    1.4488918   240430 
 6921000   0.52858856   -3.1394712   -1.6911246  0.038955096   -3.1394712    1.4483466   240359 
 6922000   0.52964105   -3.1415294   -1.6900211  0.037679673   -3.1415294    1.4515082   240313 
 6923000   0.53053498   -3.1445586   -1.6902616  0.036304444   -3.1445586     1.454297   240257 
 6924000   0.53015569   -3.1452131   -1.6916957  0.035964657   -3.1452131    1.4535174   240214 
 6925000   0.52804364   -3.1400072   -1.6918342  0.040156748   -3.1400072     1.448173   240140 
 6926000   0.52845022   -3.1419744   -1.6922819   0.03875739   -3.1419744    1.4496925   240073 
 6927000   0.52886509   -3.1419779    -1.690827  0.037938344   -3.1419779     1.451151   240020 
 6928000   0.52942463   -3.1440851   -1.6910416  0.038212286   -3.1440851    1.4530435   239961 
 6929000   0.52867476   -3.1392254   -1.6879497   0.03427371   -3.1392254    1.4512757   239913 
 6930000   0.52696583   -3.1347888   -1.6878545  0.035901058   -3.1347888    1.4469343   239855 
 6931000   0.52754056   -3.1339653   -1.6852416  0.035250153   -3.1339653    1.4487238   239820 
 6932000   0.52681723   -3.1299361   -1.6830539  0.038176092   -3.1299361    1.4468822   239796 
 6933000   0.52734576   -3.1322792   -1.6835407  0.036280863   -3.1322792    1.4487386   239729 
 6934000   0.52716675   -3.1309099   -1.6824697   0.03895631   -3.1309099    1.4484401   239697 
 6935000   0.52712042   -3.1299872   -1.6813058  0.037071395   -3.1299872    1.4486815   239636 
 6936000   0.52678556   -3.1297269   -1.6815185  0.038563259   -3.1297269    1.4482084   239562 
 6937000   0.52693905   -3.1300764   -1.6811496   0.03679616   -3.1300764    1.4489267   239513 
 6938000    0.5270919   -3.1312564   -1.6813888  0.039736602   -3.1312564    1.4498676   239427 
 6939000   0.52813125   -3.1309075    -1.678187  0.038823278   -3.1309075    1.4527205   239428 
 6940000   0.52826905   -3.1310121   -1.6776637  0.035028006   -3.1310121    1.4533484   239387 
 6941000   0.52672593    -3.128602   -1.6788268  0.035846394    -3.128602    1.4497753   239276 
 6942000   0.52719243    -3.131682    -1.680192  0.037662385    -3.131682      1.45149   239205 
 6943000   0.52614234    -3.130546   -1.6817715  0.035439858    -3.130546    1.4487745   239176 
 6944000   0.52599733   -3.1307116    -1.682082  0.032461439   -3.1307116    1.4486296   239134 
 6945000   0.52569098   -3.1317009    -1.683582  0.035009659   -3.1317009    1.4481189   239079 
 6946000   0.52671982   -3.1328853   -1.6815559   0.03755494   -3.1328853    1.4513294   239017 
 6947000   0.52709492   -3.1334773   -1.6805733  0.035151788   -3.1334773     1.452904   238928 
 6948000   0.52726178   -3.1332895   -1.6796214  0.034041365   -3.1332895    1.4536681   238878 
 6949000   0.52591967   -3.1295681   -1.6793088   0.03873943   -3.1295681    1.4502593   238830 
 6950000   0.52480369   -3.1291942   -1.6818305  0.037247711   -3.1291942    1.4473637   238800 
 6951000   0.52535703   -3.1283444   -1.6793393  0.038733334   -3.1283444    1.4490051   238781 
 6952000   0.52500618   -3.1322853   -1.6835866  0.033617842   -3.1322853    1.4486987   238672 
 6953000   0.52515951   -3.1300329   -1.6807228  0.038149026   -3.1300329    1.4493101   238641 
 6954000   0.52611393   -3.1314827   -1.6792162  0.036410923   -3.1314827    1.4522665   238588 
 6955000   0.52442504   -3.1283148     -1.68051  0.040192434   -3.1283148    1.4478048   238555 
 6956000   0.52424477   -3.1313334   -1.6836257  0.038833332   -3.1313334    1.4477077   238489 
 6957000   0.52405885      -3.1289   -1.6811776  0.037692198      -3.1289    1.4477224   238402 
 6958000   0.52453021   -3.1288453   -1.6796748  0.036204881   -3.1288453    1.4491704   238378 
 6959000   0.52560147   -3.1313417   -1.6787667  0.038848034   -3.1313417     1.452575   238305 
 6960000   0.52442779    -3.129724   -1.6801493  0.037312783    -3.129724    1.4495746   238265 
 6961000   0.52506761   -3.1319528    -1.680238  0.037136809   -3.1319528    1.4517148   238204 
 6962000   0.52414536    -3.126644   -1.6772113  0.039607408    -3.126644    1.4494327   238160 
 6963000   0.52320909   -3.1272155   -1.6796182   0.03605024   -3.1272155    1.4475973   238036 
 6964000   0.52443973   -3.1292431   -1.6779178  0.041286076   -3.1292431    1.4513253   237983 
 6965000   0.52321529   -3.1261715   -1.6778391  0.037341682   -3.1261715    1.4483324   237918 
 6966000   0.52479155   -3.1288658   -1.6761335  0.038322332   -3.1288658    1.4527324   237912 
 6967000   0.52497894    -3.130255   -1.6768083  0.037299737    -3.130255    1.4534466   237880 
 6968000   0.52485721   -3.1302682   -1.6769998  0.039986866   -3.1302682    1.4532684   237854 
 6969000   0.52354305   -3.1240128   -1.6742551  0.040023352   -3.1240128    1.4497577   237833 
 6970000   0.52569918   -3.1266193   -1.6705849  0.039157798   -3.1266193    1.4560344   237783 
 6971000   0.52368097   -3.1261066   -1.6755462  0.036318759   -3.1261066    1.4505604   237764 
 6972000   0.52335056   -3.1237967   -1.6740295  0.036880898   -3.1237967    1.4497672   237744 
 6973000   0.52323153   -3.1230191   -1.6734475  0.038578796   -3.1230191    1.4495716   237722 
 6974000   0.52426767   -3.1268865   -1.6739799  0.032345315   -3.1268865    1.4529066   237646 
 6975000   0.52288561   -3.1205776   -1.6711961  0.038087148   -3.1205776    1.4493815   237596 
 6976000   0.52459303   -3.1236557   -1.6690394  0.038308712   -3.1236557    1.4546162   237514 
 6977000   0.52382944   -3.1219472   -1.6689773  0.039793646   -3.1219472      1.45297   237437 
 6978000   0.52309163   -3.1189752   -1.6677217  0.040752528   -3.1189752    1.4512535   237383 
 6979000   0.52218189   -3.1150792   -1.6659956  0.037049123   -3.1150792    1.4490836   237325 
 6980000    0.5223615   -3.1155361   -1.6659663  0.034782231   -3.1155361    1.4495698   237327 
 6981000   0.52290806   -3.1177095   -1.6661092  0.034294555   -3.1177095    1.4516003   237243 
 6982000   0.52211685   -3.1163361   -1.6664677  0.037812813   -3.1163361    1.4498684   237167 
 6983000   0.52174086   -3.1149017   -1.6657718  0.038931848   -3.1149017    1.4491298   237117 
 6984000   0.52110645   -3.1109278    -1.663041  0.034684584   -3.1109278    1.4478868   237032 
 6985000     0.521881   -3.1149786   -1.6641563  0.033915491   -3.1149786    1.4508223   236904 
 6986000   0.52341826   -3.1192619   -1.6640555  0.037881914   -3.1192619    1.4552064   236886 
 6987000   0.52241758   -3.1159696   -1.6632754  0.038264306   -3.1159696    1.4526942   236842 
 6988000   0.52175895   -3.1131089   -1.6620991   0.03759396   -3.1131089    1.4510097   236818 
 6989000   0.52348478   -3.1151902    -1.659012  0.040198776   -3.1151902    1.4561782   236758 
 6990000    0.5237299   -3.1146661   -1.6575168  0.039385833   -3.1146661    1.4571493   236711 
 6991000   0.52253122   -3.1139457   -1.6601436     0.039161   -3.1139457     1.453802   236713 
 6992000     0.521604   -3.1099035   -1.6583194  0.039820553   -3.1099035    1.4515841   236654 
 6993000   0.52113971   -3.1104841   -1.6599899  0.033087585   -3.1104841    1.4504943   236621 
 6994000   0.51867426   -3.1054782   -1.6614249  0.036897624   -3.1054782    1.4440532   236552 
 6995000   0.51998399   -3.1107212   -1.6628073  0.036220791   -3.1107212    1.4479139   236517 
 6996000   0.52027641   -3.1094846   -1.6606156  0.033876818   -3.1094846    1.4488691   236494 
 6997000   0.52065923   -3.1098238   -1.6598703  0.036409783   -3.1098238    1.4499535   236491 
 6998000   0.52201153   -3.1111744   -1.6572459  0.033061392   -3.1111744    1.4539285   236457 
 6999000   0.52181094   -3.1106832   -1.6571289  0.040398131   -3.1106832    1.4535542   236427 
 7000000   0.52173914    -3.112678   -1.6587888  0.035052887    -3.112678    1.4538892   236340 
 7001000   0.52076348   -3.1113572   -1.6597999  0.035962098   -3.1113572    1.4515574   236277 
 7002000   0.52082402   -3.1094286   -1.6575059   0.03800556   -3.1094286    1.4519228   236245 
 7003000   0.52210799   -3.1129374   -1.6572628  0.042700365   -3.1129374    1.4556747   236217 
 7004000   0.52182659   -3.1126845   -1.6574863  0.039735884   -3.1126845    1.4551981   236167 
 7005000   0.52090974   -3.1113799   -1.6585479  0.034753514   -3.1113799     1.452832   236136 
 7006000   0.52092402   -3.1113325   -1.6582267  0.037138312   -3.1113325    1.4531057   236098 
 7007000   0.52054482   -3.1113026    -1.658904  0.034166915   -3.1113026    1.4523986   236041 
 7008000   0.51949762   -3.1105523   -1.6604673  0.036652358   -3.1105523    1.4500849   235942 
 7009000   0.51963526   -3.1137796     -1.66296  0.035724262   -3.1137796    1.4508196   235885 
 7010000   0.51876403   -3.1092057   -1.6604562  0.039038402   -3.1092057    1.4487495   235826 
 7011000   0.51812743   -3.1076708   -1.6603615  0.034340856   -3.1076708    1.4473092   235771 
 7012000   0.51819442   -3.1080895   -1.6602677  0.035241986   -3.1080895    1.4478218   235718 
 7013000   0.51834693   -3.1097792    -1.661224  0.038056842   -3.1097792    1.4485552   235668 
 7014000   0.52030233   -3.1124557   -1.6582509  0.038228513   -3.1124557    1.4542048   235638 
 7015000   0.52038253   -3.1107278   -1.6560025  0.039217254   -3.1107278    1.4547253   235590 
 7016000   0.51924459   -3.1087529   -1.6571779  0.039700642   -3.1087529     1.451575   235585 
 7017000   0.52016573   -3.1135293   -1.6592805  0.033490435   -3.1135293    1.4542488   235569 
 7018000   0.51979933   -3.1116576   -1.6578962  0.033312717   -3.1116576    1.4537614   235482 
 7019000   0.51937029   -3.1087215   -1.6558145  0.037785545   -3.1087215     1.452907   235426 
 7020000    0.5195396   -3.1081634   -1.6545111  0.041577826   -3.1081634    1.4536523   235382 
 7021000   0.51824256   -3.1065423   -1.6561309  0.036526411   -3.1065423    1.4504114   235319 
 7022000   0.51833254   -3.1056103   -1.6544784  0.041231068   -3.1056103    1.4511319   235243 
 7023000   0.51921818   -3.1090782   -1.6552505  0.040415139   -3.1090782    1.4538277   235208 
 7024000   0.51773328   -3.1072165   -1.6570903  0.041840627   -3.1072165    1.4501262   235134 
 7025000   0.51921783   -3.1104417   -1.6560338  0.036481119   -3.1104417     1.454408   235114 
 7026000   0.51862986    -3.109285    -1.656215  0.036295485    -3.109285      1.45307   235064 
 7027000   0.51842518   -3.1082746   -1.6552403  0.036293196   -3.1082746    1.4530343   234977 
 7028000   0.51705414   -3.1047979   -1.6551251  0.035748058   -3.1047979    1.4496728   234899 
 7029000    0.5164447   -3.1029922      -1.6548  0.037019292   -3.1029922    1.4481922   234862 
 7030000   0.51641312   -3.1048408   -1.6565398  0.037403806   -3.1048408     1.448301   234830 
 7031000    0.5173514   -3.1062427   -1.6551125  0.039486461   -3.1062427    1.4511302   234798 
 7032000   0.51786177   -3.1070934   -1.6542471  0.035920047   -3.1070934    1.4528463   234752 
 7033000   0.51765999    -3.103906   -1.6514525  0.036889011    -3.103906    1.4524535   234724 
 7034000   0.51762668   -3.1072019   -1.6541671  0.034954113   -3.1072019    1.4530348   234615 
 7035000    0.5176134   -3.1081823   -1.6548132  0.036621392   -3.1081823    1.4533692   234555 
 7036000   0.51723416   -3.1071678   -1.6544795  0.037184101   -3.1071678    1.4526883   234493 
 7037000   0.51824562   -3.1085074   -1.6524506  0.038431349   -3.1085074    1.4560569   234408 
 7038000   0.51737294   -3.1077067   -1.6540335  0.039786722   -3.1077067    1.4536732   234397 
 7039000   0.51651507   -3.1102575   -1.6586974   0.03729873   -3.1102575    1.4515601   234349 
 7040000   0.51485762   -3.1064145   -1.6594691  0.034024195   -3.1064145    1.4469454   234342 
 7041000   0.51641408    -3.109312   -1.6576021  0.037094446    -3.109312    1.4517099   234279 
 7042000   0.51546744   -3.1103396   -1.6607216  0.039034953   -3.1103396    1.4496181   234187 
 7043000   0.51683874   -3.1125468   -1.6587246  0.036964754   -3.1125468    1.4538221   234131 
 7044000    0.5172831   -3.1108116    -1.655466  0.041086442   -3.1108116    1.4553456   234087 
 7045000   0.51608708   -3.1099202   -1.6574183  0.036852326   -3.1099202    1.4525019   234003 
 7046000   0.51430159   -3.1064776   -1.6589267  0.037078489   -3.1064776    1.4475509   233991 
 7047000   0.51471045   -3.1059722   -1.6570413  0.037677652   -3.1059722    1.4489308   233954 
 7048000   0.51466596   -3.1069328   -1.6577122  0.033314465   -3.1069328    1.4492206   233887 
 7049000   0.51529645   -3.1086819   -1.6573819  0.036381963   -3.1086819       1.4513   233838 
 7050000   0.51591551   -3.1081032   -1.6548981  0.036963793   -3.1081032    1.4532051   233812 
 7051000   0.51719749   -3.1094556   -1.6520474  0.034712046   -3.1094556    1.4574083   233717 
 7052000     0.515531   -3.1062501   -1.6532021  0.035897556   -3.1062501     1.453048   233663 
 7053000   0.51423514    -3.102891   -1.6531231  0.035043859    -3.102891    1.4497679   233603 
 7054000   0.51427071   -3.1037175   -1.6533962  0.036898271   -3.1037175    1.4503214   233530 
 7055000   0.51427333   -3.1007222   -1.6500829  0.037957802   -3.1007222    1.4506393   233480 
 7056000   0.51235239   -3.0974944   -1.6518526  0.038689459   -3.0974944    1.4456419   233412 
 7057000   0.51345669   -3.0987214   -1.6497712  0.036299923   -3.0987214    1.4489502   233381 
 7058000   0.51294481   -3.0993732   -1.6513836  0.037322018   -3.0993732    1.4479896   233303 
 7059000   0.51345282   -3.1006689   -1.6506858  0.037404925   -3.1006689     1.449983   233213 
 7060000   0.51394654   -3.1006207   -1.6489447  0.037948561   -3.1006207    1.4516761   233165 
 7061000    0.5134937   -3.0984982   -1.6479208  0.036084397   -3.0984982    1.4505774   233136 
 7062000   0.51419847   -3.0990104   -1.6459123  0.037447495   -3.0990104    1.4530981   233051 
 7063000   0.51504879   -3.1005938   -1.6446241  0.037935776   -3.1005938    1.4559696   232976 
 7064000   0.51376477   -3.1016078   -1.6489623  0.033384153   -3.1016078    1.4526454   232927 
 7065000   0.51284535   -3.0982294    -1.647947  0.034187342   -3.0982294    1.4502824   232889 
 7066000   0.51263693   -3.0996548   -1.6495072  0.035143059   -3.0996548    1.4501476   232816 
 7067000   0.51249893   -3.0970252   -1.6469316  0.034781506   -3.0970252    1.4500935   232762 
 7068000   0.51210458   -3.0953231    -1.645922  0.039468901   -3.0953231    1.4494012   232694 
 7069000   0.51351586   -3.0963515   -1.6425249  0.042155839   -3.0963515    1.4538266   232625 
 7070000   0.51313136   -3.0932898   -1.6404082  0.033584016   -3.0932898    1.4528817   232602 
 7071000   0.51153789   -3.0909584   -1.6420777  0.038980437   -3.0909584    1.4488807   232520 
 7072000     0.511494   -3.0897265   -1.6407707  0.033556726   -3.0897265    1.4489558   232488 
 7073000   0.51226139   -3.0903981   -1.6388377   0.04047008   -3.0903981    1.4515605   232419 
 7074000   0.51127991    -3.088496    -1.639486  0.034553432    -3.088496      1.44901   232382 
 7075000   0.51183817   -3.0868594   -1.6359239  0.040532717   -3.0868594    1.4509355   232327 
 7076000   0.51221166   -3.0897686    -1.637443  0.036691072   -3.0897686    1.4523256   232274 
 7077000   0.51135513   -3.0880345   -1.6379627  0.036358993   -3.0880345    1.4500718   232246 
 7078000   0.51161217   -3.0881063   -1.6369932  0.036553938   -3.0881063    1.4511131   232196 
 7079000   0.51112997   -3.0874068   -1.6373241  0.035635995   -3.0874068    1.4500826   232142 
 7080000    0.5105045   -3.0857235   -1.6369659  0.033509329   -3.0857235    1.4487575   232070 
 7081000   0.51175144   -3.0875137   -1.6348357  0.035632968   -3.0875137    1.4526781   232009 
 7082000   0.51070361   -3.0841738   -1.6341076  0.040708632   -3.0841738    1.4500661   231951 
 7083000   0.51096072   -3.0859806   -1.6349279  0.033641916   -3.0859806    1.4510527   231910 
 7084000   0.51053753   -3.0814102   -1.6312216  0.039517412   -3.0814102    1.4501885   231856 
 7085000   0.51141317   -3.0828184   -1.6295534  0.038691226   -3.0828184     1.453265   231762 
 7086000   0.51102569    -3.083008   -1.6305433  0.037349562    -3.083008    1.4524647   231714 
 7087000   0.50878462   -3.0786939   -1.6322493  0.037851542   -3.0786939    1.4464446   231658 
 7088000   0.50848275   -3.0803775   -1.6342355   0.03571859   -3.0803775     1.446142   231569 
 7089000   0.50961436   -3.0818144   -1.6323414  0.035815209   -3.0818144     1.449473   231551 
 7090000   0.50985028   -3.0828595   -1.6323834  0.037602868   -3.0828595     1.450476   231498 
 7091000   0.50903083   -3.0777065   -1.6295993  0.036267903   -3.0777065    1.4481072   231504 
 7092000   0.50942462     -3.07884   -1.6294372  0.037295197     -3.07884    1.4494028   231476 
 7093000   0.50952299    -3.079404   -1.6293455  0.039914645    -3.079404    1.4500585   231416 
 7094000   0.51026206   -3.0817791    -1.629316   0.03638673   -3.0817791    1.4524631   231368 
 7095000   0.50940384   -3.0802482    -1.629902  0.033341076   -3.0802482    1.4503462   231316 
 7096000   0.50902947   -3.0781823    -1.628877  0.035726113   -3.0781823    1.4493053   231312 
 7097000    0.5099725   -3.0820032   -1.6295859  0.036827755   -3.0820032    1.4524173   231244 
 7098000   0.50958309   -3.0839191   -1.6323534  0.033834047   -3.0839191    1.4515656   231203 
 7099000   0.50961539    -3.084429   -1.6325641  0.035636351    -3.084429    1.4518649   231170 
 7100000   0.50960175   -3.0829179   -1.6307212  0.038684789   -3.0829179    1.4521966   231111 
 7101000   0.50894268    -3.082578   -1.6318514  0.038258663    -3.082578    1.4507265   231046 
 7102000   0.50923965    -3.087322   -1.6352399  0.037831569    -3.087322    1.4520821   230965 
 7103000    0.5097475   -3.0897215    -1.636122  0.036739447   -3.0897215    1.4535994   230954 
 7104000     0.508552   -3.0861472   -1.6355486  0.040837853   -3.0861472    1.4505986   230889 
 7105000   0.50848874   -3.0853926   -1.6347295  0.037255286   -3.0853926    1.4506632   230850 
 7106000   0.51042913   -3.0891434   -1.6325975  0.037560575   -3.0891434    1.4565459   230795 
 7107000   0.50904372   -3.0898688   -1.6368355  0.036214371   -3.0898688    1.4530333   230725 
 7108000   0.50887737   -3.0887404   -1.6357411  0.038059183   -3.0887404    1.4529993   230655 
 7109000   0.50791684   -3.0859264   -1.6350848  0.040297052   -3.0859264    1.4508416   230562 
 7110000   0.50755465   -3.0847269   -1.6346934  0.037842554   -3.0847269    1.4500335   230526 
 7111000   0.50742664   -3.0871372   -1.6373814  0.034916656   -3.0871372    1.4497558   230512 
 7112000   0.50854202   -3.0885138   -1.6351677  0.036172863   -3.0885138     1.453346   230448 
 7113000   0.50746745   -3.0856279   -1.6349626  0.040789574   -3.0856279    1.4506654   230386 
 7114000   0.50638843   -3.0836935   -1.6358298   0.03348574   -3.0836935    1.4478636   230341 
 7115000   0.50580559    -3.081669    -1.635208   0.03576866    -3.081669    1.4464609   230299 
 7116000   0.50650064   -3.0828243   -1.6337843  0.035660103   -3.0828243      1.44904   230205 
 7117000   0.50701106   -3.0836305   -1.6329727  0.035416961   -3.0836305    1.4506578   230180 
 7118000   0.50712539   -3.0881127   -1.6364403  0.037818641   -3.0881127    1.4516724   230071 
 7119000   0.50621725   -3.0832432   -1.6338491  0.037711909   -3.0832432     1.449394   230020 
 7120000   0.50812615   -3.0892495   -1.6340103  0.035655671   -3.0892495    1.4552392   229960 
 7121000   0.50722744    -3.086469    -1.633494  0.035957634    -3.086469    1.4529749   229911 
 7122000   0.50722951    -3.086271   -1.6330942  0.038211709    -3.086271    1.4531768   229880 
 7123000   0.50647121   -3.0848124   -1.6334735  0.037898085   -3.0848124    1.4513389   229827 
 7124000   0.50614026   -3.0846945   -1.6339378  0.042694494   -3.0846945    1.4507567   229769 
 7125000   0.50664211   -3.0847546    -1.632079  0.035676095   -3.0847546    1.4526756   229693 
 7126000   0.50647047   -3.0860498   -1.6334743  0.038886653   -3.0860498    1.4525756   229631 
 7127000   0.50636575   -3.0873277   -1.6346413  0.037480635   -3.0873277    1.4526864   229566 
 7128000   0.50494936   -3.0827242   -1.6337918  0.034708429   -3.0827242    1.4489323   229517 
 7129000   0.50476632   -3.0828707    -1.634268   0.03601182   -3.0828707    1.4486028   229486 
 7130000   0.50493935   -3.0805605   -1.6310064  0.036920622   -3.0805605    1.4495541   229414 
 7131000   0.50590138   -3.0841576   -1.6315695   0.03765888   -3.0841576    1.4525881   229371 
 7132000   0.50602508   -3.0834171   -1.6299415  0.035185729   -3.0834171    1.4534756   229287 
 7133000   0.50575007    -3.083863    -1.630645  0.035797494    -3.083863    1.4532181   229203 
 7134000   0.50534166    -3.082482    -1.630184  0.036306816    -3.082482     1.452298   229163 
 7135000   0.50425992   -3.0834341   -1.6337768  0.036116877   -3.0834341    1.4496573   229089 
 7136000   0.50373532   -3.0809119   -1.6328386  0.033847713   -3.0809119    1.4480733   229101 
 7137000   0.50438988   -3.0819311   -1.6319255  0.038138384   -3.0819311    1.4500056   229093 
 7138000   0.50399234   -3.0820085   -1.6327661  0.033235917   -3.0820085    1.4492423   229033 
 7139000   0.50518097   -3.0851653   -1.6323592  0.034623109   -3.0851653    1.4528061   229010 
 7140000   0.50424546    -3.083169   -1.6325275  0.037867137    -3.083169    1.4506416   228927 
 7141000   0.50406758   -3.0820848   -1.6316382   0.03874302   -3.0820848    1.4504466   228877 
 7142000   0.50389879   -3.0803576   -1.6299721  0.036938038   -3.0803576    1.4503855   228810 
 7143000   0.50539271   -3.0887349   -1.6336296  0.038216336   -3.0887349    1.4551052   228744 
 7144000   0.50550906   -3.0916022   -1.6356465  0.037453639   -3.0916022    1.4559558   228663 
 7145000   0.50486794   -3.0862824   -1.6317215   0.03867188   -3.0862824    1.4545609   228592 
 7146000   0.50593588   -3.0889112    -1.631197  0.037841814   -3.0889112    1.4577142   228580 
 7147000   0.50343174   -3.0838244   -1.6330205  0.038839775   -3.0838244    1.4508039   228532 
 7148000   0.50476979   -3.0861717   -1.6315181  0.040667355   -3.0861717    1.4546535   228533 
 7149000   0.50422042   -3.0863885   -1.6330384  0.040980593   -3.0863885    1.4533502   228489 
 7150000   0.50262342   -3.0822422   -1.6330893  0.037884128   -3.0822422    1.4491529   228425 
 7151000   0.50446461    -3.084065   -1.6293552  0.036700807    -3.084065    1.4547098   228386 
 7152000   0.50425282   -3.0834273   -1.6289971  0.040802325   -3.0834273    1.4544302   228334 
 7153000   0.50325383   -3.0798146   -1.6280624   0.03688696   -3.0798146    1.4517522   228302 
 7154000   0.50426595   -3.0830511   -1.6280414   0.03792487   -3.0830511    1.4550097   228249 
 7155000   0.50350288   -3.0789544   -1.6258026  0.040818077   -3.0789544    1.4531517   228195 
 7156000   0.50331871   -3.0786986   -1.6258046  0.036685716   -3.0786986     1.452894   228152 
 7157000   0.50235588   -3.0762507   -1.6258309  0.037018491   -3.0762507    1.4504198   228104 
 7158000   0.50261558   -3.0774783   -1.6260223  0.037830865   -3.0774783     1.451456   228059 
 7159000   0.50230417   -3.0762572    -1.625026  0.036422794   -3.0762572    1.4512312   227953 
 7160000   0.50399837   -3.0776672   -1.6212665  0.035130436   -3.0776672    1.4564007   227910 
 7161000   0.50395642    -3.076691     -1.62006  0.037186312    -3.076691     1.456631   227855 
 7162000   0.50420536    -3.077178   -1.6195907  0.036004805    -3.077178    1.4575872   227818 
 7163000   0.50400493   -3.0761724   -1.6188639  0.037962363   -3.0761724    1.4573085   227771 
 7164000    0.5030156   -3.0728762   -1.6181473   0.04140545   -3.0728762    1.4547289   227727 
 7165000    0.5026174   -3.0714683   -1.6176037  0.037614389   -3.0714683    1.4538646   227682 
 7166000   0.50357499   -3.0754729   -1.6186657  0.040180765   -3.0754729    1.4568072   227655 
 7167000    0.5024688   -3.0734931   -1.6195538  0.038357264   -3.0734931    1.4539392   227603 
 7168000   0.50234254   -3.0728981   -1.6191454  0.039162441   -3.0728981    1.4537527   227575 
 7169000   0.50347199   -3.0722483   -1.6152142  0.034926601   -3.0722483    1.4570341   227573 
 7170000   0.50203117   -3.0678465   -1.6145734  0.035830825   -3.0678465    1.4532731   227509 
 7171000   0.50193547   -3.0696311   -1.6164115  0.036312922   -3.0696311    1.4532196   227474 
 7172000   0.50280449   -3.0706108   -1.6144079  0.040955808   -3.0706108     1.456203   227401 
 7173000    0.5018688   -3.0670705   -1.6130723  0.041110131   -3.0670705    1.4539982   227322 
 7174000   0.50125072   -3.0640485   -1.6114513  0.035681066   -3.0640485    1.4525973   227261 
 7175000   0.50167862   -3.0671055   -1.6128331  0.036481931   -3.0671055    1.4542725   227193 
 7176000   0.50029201   -3.0616403   -1.6111831  0.036253791   -3.0616403    1.4504572   227161 
 7177000   0.50152843   -3.0657301   -1.6113105  0.037303057   -3.0657301    1.4544196   227102 
 7178000   0.50163445   -3.0695558   -1.6143161   0.03449252   -3.0695558    1.4552397   227022 
 7179000   0.50112593   -3.0698957   -1.6158237  0.037002607   -3.0698957    1.4540719   226974 
 7180000   0.50080389   -3.0692362   -1.6157977   0.03540848   -3.0692362    1.4534385   226927 
 7181000   0.50168309   -3.0737828   -1.6170994  0.037616594   -3.0737828    1.4566834   226819 
 7182000   0.50079687   -3.0751417   -1.6207173  0.037807423   -3.0751417    1.4544244   226770 
 7183000   0.49998427   -3.0741449   -1.6217539  0.038178857   -3.0741449     1.452391   226719 
 7184000   0.49889852   -3.0761649   -1.6265634   0.03542594   -3.0761649    1.4496015   226662 
 7185000   0.49938988    -3.076714   -1.6246854  0.040477429    -3.076714    1.4520286   226506 
 7186000   0.49952476   -3.0756018   -1.6228027  0.039570242   -3.0756018    1.4527992   226447 
 7187000   0.49872963   -3.0755801   -1.6246577  0.037115218   -3.0755801    1.4509223   226379 
 7188000    0.4985264   -3.0809037   -1.6300214  0.038404485   -3.0809037    1.4508823   226293 
 7189000   0.49842206   -3.0779006   -1.6272899  0.036319879   -3.0779006    1.4506107   226288 
 7190000   0.49807977   -3.0768667   -1.6268613  0.038608886   -3.0768667    1.4500053   226227 
 7191000   0.49803073   -3.0782434   -1.6281822  0.039309653   -3.0782434    1.4500613   226196 
 7192000   0.49756894   -3.0776833   -1.6284732   0.03890044   -3.0776833    1.4492101   226119 
 7193000   0.49877396   -3.0805496   -1.6275535  0.037111804   -3.0805496    1.4529961   226076 
 7194000   0.49831352    -3.078342   -1.6262312  0.039700393    -3.078342    1.4521108   226005 
 7195000   0.49880584   -3.0800662   -1.6262377  0.038063722   -3.0800662    1.4538285   225961 
 7196000   0.49750896   -3.0794032    -1.629053  0.036639336   -3.0794032    1.4503502   225914 
 7197000    0.4974508   -3.0801971   -1.6293806  0.036437107   -3.0801971    1.4508165   225815 
 7198000   0.49598991   -3.0789309   -1.6323943  0.034643265   -3.0789309    1.4465366   225818 
 7199000   0.49709168   -3.0806339   -1.6307813  0.034466892   -3.0806339    1.4498526   225802 
 7200000   0.49768139   -3.0772317   -1.6253248  0.039798824   -3.0772317    1.4519069   225750 
 7201000   0.49765413    -3.077198   -1.6252742  0.043226336    -3.077198    1.4519239   225735 
 7202000   0.49716149   -3.0787693   -1.6278971  0.036868922   -3.0787693    1.4508722   225675 
 7203000   0.49725335   -3.0759453   -1.6244255  0.039861997   -3.0759453    1.4515198   225616 
 7204000   0.49701089   -3.0773707   -1.6261149  0.036756031   -3.0773707    1.4512559   225547 
 7205000   0.49568696   -3.0731327   -1.6254859  0.038783488   -3.0731327    1.4476467   225507 
 7206000   0.49682381    -3.074782   -1.6236478  0.038651998    -3.074782    1.4511342   225481 
 7207000   0.49566751   -3.0726435   -1.6243792  0.037465096   -3.0726435    1.4482643   225402 
 7208000   0.49591069   -3.0724505   -1.6230191  0.035667827   -3.0724505    1.4494314   225331 
 7209000   0.49549153   -3.0717014   -1.6230451  0.036735973   -3.0717014    1.4486563   225261 
 7210000   0.49557024   -3.0733988   -1.6241328  0.038757107   -3.0733988     1.449266   225202 
 7211000   0.49578768    -3.072578   -1.6219804  0.039674921    -3.072578    1.4505976   225094 
 7212000   0.49703139   -3.0759466   -1.6214904  0.036565954   -3.0759466    1.4544562   225060 
 7213000   0.49634391   -3.0728463   -1.6204341  0.037722461   -3.0728463    1.4524121   225065 
 7214000   0.49530613   -3.0710307   -1.6212689  0.034857985   -3.0710307    1.4497619   225005 
 7215000   0.49657484   -3.0733336   -1.6195416  0.036994769   -3.0733336     1.453792   224956 
 7216000   0.49587036   -3.0732323   -1.6209735  0.037676941   -3.0732323    1.4522589   224874 
 7217000   0.49603693   -3.0726622   -1.6194179  0.039653639   -3.0726622    1.4532443   224797 
 7218000   0.49606076   -3.0702178   -1.6166644  0.041632183   -3.0702178    1.4535534   224760 
 7219000   0.49587753    -3.071553   -1.6182067  0.040852707    -3.071553    1.4533462   224709 
 7220000    0.4950525   -3.0678615   -1.6168106  0.039701256   -3.0678615    1.4510509   224690 
 7221000    0.4942351   -3.0679335   -1.6188206  0.039974425   -3.0679335    1.4491129   224619 
 7222000   0.49460608   -3.0693581   -1.6188281  0.034460385   -3.0693581      1.45053   224568 
 7223000   0.49424776   -3.0714664    -1.621419    0.0373816   -3.0714664    1.4500474   224480 
 7224000   0.49332327   -3.0688598   -1.6211314   0.03569493   -3.0688598    1.4477285   224419 
 7225000   0.49456819   -3.0700922   -1.6185099  0.035032766   -3.0700922    1.4515824   224388 
 7226000   0.49395898   -3.0683485   -1.6181018  0.037813326   -3.0683485    1.4502467   224318 
 7227000   0.49392634    -3.069945   -1.6190438  0.038816267    -3.069945    1.4509012   224202 
 7228000   0.49482437   -3.0721197   -1.6181201  0.035343059   -3.0721197    1.4539996   224131 
 7229000   0.49254249   -3.0654655   -1.6175444  0.039529461   -3.0654655    1.4479211   224034 
 7230000   0.49392985   -3.0649515   -1.6129001  0.038734415   -3.0649515    1.4520514   224026 
 7231000   0.49369293   -3.0679446   -1.6161036  0.041093789   -3.0679446    1.4518409   223951 
 7232000   0.49311848   -3.0663386   -1.6157271  0.035832993   -3.0663386    1.4506115   223880 
 7233000   0.49319205   -3.0687241   -1.6176239  0.035682728   -3.0687241    1.4511001   223838 
 7234000   0.49326033   -3.0695302   -1.6178206  0.037731166   -3.0695302    1.4517096   223775 
 7235000   0.49341692   -3.0683197   -1.6155519  0.036312294   -3.0683197    1.4527677   223683 
 7236000   0.49312282   -3.0664228   -1.6144171  0.038105473   -3.0664228    1.4520057   223667 
 7237000   0.49226073   -3.0644324   -1.6144206  0.039629245   -3.0644324    1.4500118   223583 
 7238000   0.49236588    -3.064403   -1.6137506  0.036590374    -3.064403    1.4506525   223532 
 7239000   0.49156472   -3.0623144   -1.6138021  0.036108373   -3.0623144    1.4485123   223498 
 7240000   0.49281864   -3.0671326   -1.6143077   0.03358436   -3.0671326    1.4528248   223403 
 7241000   0.49204372   -3.0625351   -1.6117739   0.03804028   -3.0625351    1.4507612   223369 
 7242000   0.49160472   -3.0594257   -1.6098616  0.035493313   -3.0594257    1.4495641   223354 
 7243000   0.49240682   -3.0618317   -1.6095188  0.037587693   -3.0618317    1.4523129   223295 
 7244000   0.49217285   -3.0616996   -1.6096085  0.036633056   -3.0616996     1.452091   223223 
 7245000   0.49241666   -3.0622527   -1.6089866  0.033956769   -3.0622527    1.4532661   223153 
 7246000   0.49168035   -3.0584266    -1.607119  0.039722779   -3.0584266    1.4513076   223120 
 7247000   0.49214125    -3.060907   -1.6079589   0.03867421    -3.060907    1.4529481   223077 
 7248000   0.49236041   -3.0593838   -1.6054824  0.039446159   -3.0593838    1.4539015   223030 
 7249000   0.49195766   -3.0594905   -1.6065373  0.038619621   -3.0594905    1.4529532   222993 
 7250000   0.49127564   -3.0585575   -1.6072541  0.034682918   -3.0585575    1.4513034   222937 
 7251000   0.49203251   -3.0603635   -1.6064329  0.037138804   -3.0603635    1.4539306   222877 
 7252000   0.49125388   -3.0577565   -1.6056185  0.039721026   -3.0577565     1.452138   222799 
 7253000   0.49184832    -3.060015   -1.6056107  0.037890099    -3.060015    1.4544043   222721 
 7254000   0.49174634   -3.0571732   -1.6029202  0.039162295   -3.0571732    1.4542529   222698 
 7255000    0.4913214   -3.0578614   -1.6045062  0.040040243   -3.0578614    1.4533552   222643 
 7256000   0.49167207   -3.0574441   -1.6026073  0.037802655   -3.0574441    1.4548368   222575 
 7257000   0.49162347   -3.0555346   -1.6005147  0.041098063   -3.0555346    1.4550199   222525 
 7258000   0.49062151   -3.0575726   -1.6055116  0.038734493   -3.0575726     1.452061   222524 
 7259000   0.49040016   -3.0554214    -1.603983  0.035358194   -3.0554214    1.4514385   222519 
 7260000   0.48997149   -3.0549402   -1.6046336    0.0331999   -3.0549402    1.4503066   222498 
 7261000   0.49053561    -3.054484   -1.6021617  0.037088169    -3.054484    1.4523224   222445 
 7262000   0.49183787   -3.0578779   -1.6011237  0.040155823   -3.0578779    1.4567542   222357 
 7263000    0.4913817   -3.0570003    -1.601427  0.036027443   -3.0570003    1.4555733   222331 
 7264000   0.48992336   -3.0529672   -1.6014069  0.036707512   -3.0529672    1.4515603   222284 
 7265000   0.49004341   -3.0546665   -1.6022408  0.040309758   -3.0546665    1.4524256   222206 
 7266000   0.49029978   -3.0562775   -1.6026668  0.037686774   -3.0562775    1.4536107   222141 
 7267000    0.4907585   -3.0553483   -1.5997748  0.039260028   -3.0553483    1.4555735   222049 
 7268000   0.49099554   -3.0571818   -1.6007872  0.036233499   -3.0571818    1.4563946   222031 
 7269000   0.49052594   -3.0545486   -1.5993306  0.039870286   -3.0545486     1.455218   221998 
 7270000   0.48992482   -3.0535909   -1.5999205  0.038482679   -3.0535909    1.4536704   221962 
 7271000   0.49089517    -3.056747   -1.5999612  0.037736421    -3.056747    1.4567858   221926 
 7272000   0.48964566   -3.0523676   -1.5991065  0.036195733   -3.0523676    1.4532611   221898 
 7273000   0.48977274    -3.051027   -1.5968841  0.040749132    -3.051027    1.4541429   221821 
 7274000   0.48907269   -3.0493937   -1.5966678  0.036379517   -3.0493937    1.4527259   221720 
 7275000   0.48777864   -3.0478804   -1.5984819  0.036463706   -3.0478804    1.4493985   221641 
 7276000   0.48917238   -3.0501773   -1.5961192  0.035676573   -3.0501773    1.4540582   221562 
 7277000   0.48911205   -3.0516084    -1.597362  0.033315613   -3.0516084    1.4542464   221506 
 7278000   0.48800301    -3.047018   -1.5957611  0.036102562    -3.047018    1.4512569   221459 
 7279000   0.48922643   -3.0510344   -1.5958961  0.036991341   -3.0510344    1.4551383   221422 
 7280000   0.48858419   -3.0460544   -1.5929052  0.037750886   -3.0460544    1.4531493   221434 
 7281000   0.48957981   -3.0462268   -1.5900177  0.038161489   -3.0462268    1.4562091   221419 
 7282000   0.48983292   -3.0474519   -1.5899831  0.036761171   -3.0474519    1.4574688   221342 
 7283000   0.48828825   -3.0425763   -1.5890731  0.041660019   -3.0425763    1.4535032   221246 
 7284000   0.48823274   -3.0443656   -1.5907583  0.037360767   -3.0443656    1.4536073   221205 
 7285000   0.48847325   -3.0452206   -1.5903776  0.037392355   -3.0452206    1.4548429   221126 
 7286000   0.48829081   -3.0431621   -1.5884218  0.036045482   -3.0431621    1.4547403   221059 
 7287000   0.48772417   -3.0427925   -1.5895366  0.036829623   -3.0427925     1.453256   221028 
 7288000   0.48692058   -3.0417562   -1.5903956  0.033936175   -3.0417562    1.4513606   220952 
 7289000    0.4874726   -3.0430993   -1.5895473  0.035200125   -3.0430993     1.453552   220869 
 7290000   0.48814048   -3.0451106   -1.5889144  0.040215222   -3.0451106    1.4561962   220770 
 7291000   0.48768141   -3.0424945   -1.5873448  0.039889609   -3.0424945    1.4551497   220721 
 7292000   0.48789989    -3.041445    -1.585208   0.03928962    -3.041445     1.456237   220655 
 7293000   0.48898908    -3.043219   -1.5836252  0.039867235    -3.043219    1.4595938   220639 
 7294000   0.48713665   -3.0410744   -1.5862913  0.037744034   -3.0410744    1.4547831   220530 
 7295000   0.48653649   -3.0386367   -1.5849867   0.03799557   -3.0386367      1.45365   220430 
 7296000   0.48615279   -3.0385695   -1.5856375  0.037069356   -3.0385695     1.452932   220365 
 7297000   0.48681667   -3.0395733   -1.5841618  0.038499818   -3.0395733    1.4554115   220290 
 7298000   0.48539964   -3.0369205   -1.5851655  0.039121732   -3.0369205     1.451755   220202 
 7299000   0.48630617   -3.0381006   -1.5833371  0.037050291   -3.0381006    1.4547636   220157 
 7300000   0.48574341   -3.0346851   -1.5817436  0.038631325   -3.0346851    1.4529415   220178 
 7301000   0.48572022   -3.0340077   -1.5808782  0.034420692   -3.0340077    1.4531295   220139 
 7302000   0.48636703   -3.0349051   -1.5796421  0.036965739   -3.0349051    1.4552629   220109 
 7303000   0.48588439    -3.033217   -1.5789358  0.037330533    -3.033217    1.4542813   220039 
 7304000   0.48634083   -3.0362156   -1.5803101  0.039934566   -3.0362156    1.4559055   220000 
 7305000   0.48698767   -3.0366738   -1.5784475   0.03989137   -3.0366738    1.4582263   219942 
 7306000   0.48682478   -3.0354783   -1.5773088  0.036032862   -3.0354783    1.4581695   219877 
 7307000   0.48512228    -3.034683   -1.5808328  0.039306113    -3.034683    1.4538503   219759 
 7308000   0.48478058   -3.0359854   -1.5824978   0.03726145   -3.0359854    1.4534876   219659 
 7309000   0.48440941   -3.0363342   -1.5835428  0.035511822   -3.0363342    1.4527915   219596 
 7310000   0.48413619   -3.0368261   -1.5844506  0.038200656   -3.0368261    1.4523755   219535 
 7311000   0.48359767    -3.035788   -1.5847173  0.037881939    -3.035788    1.4510706   219488 
 7312000   0.48397978   -3.0348209   -1.5824118  0.036666464   -3.0348209    1.4524091   219459 
 7313000   0.48417167   -3.0344495   -1.5808619  0.035389001   -3.0344495    1.4535877   219368 
 7314000   0.48438902   -3.0357367   -1.5811981  0.038255563   -3.0357367    1.4545386   219323 
 7315000   0.48303552   -3.0336218   -1.5827109  0.033623384   -3.0336218    1.4509109   219257 
 7316000   0.48450712   -3.0372187   -1.5818677   0.03547278   -3.0372187    1.4553511   219254 
 7317000   0.48523105   -3.0376634   -1.5799184  0.036914127   -3.0376634     1.457745   219221 
 7318000   0.48407788   -3.0381218   -1.5829185   0.03674994   -3.0381218    1.4552033   219082 
 7319000   0.48328725   -3.0334762    -1.580099  0.038696551   -3.0334762    1.4533772   218999 
 7320000   0.48378737   -3.0389572   -1.5836706  0.037852359   -3.0389572    1.4552865   218938 
 7321000   0.48297601   -3.0361875   -1.5826312  0.037352763   -3.0361875    1.4535563   218831 
 7322000   0.48247506    -3.035517   -1.5834352  0.037638352    -3.035517    1.4520818   218826 
 7323000   0.48340432     -3.03608   -1.5810619  0.040066006     -3.03608    1.4550182   218805 
 7324000   0.48377337   -3.0390123   -1.5824906  0.038317917   -3.0390123    1.4565217   218746 
 7325000   0.48349512   -3.0359201   -1.5802228  0.039326365   -3.0359201    1.4556973   218744 
 7326000   0.48277964   -3.0302731   -1.5765971  0.038145193   -3.0302731     1.453676   218724 
 7327000   0.48306439   -3.0326821   -1.5776564  0.034439107   -3.0326821    1.4550257   218650 
 7328000   0.48351712   -3.0319831   -1.5752606  0.040065434   -3.0319831    1.4567225   218600 
 7329000   0.48361823   -3.0326761   -1.5750755  0.041347846   -3.0326761    1.4576006   218514 
 7330000   0.48161204   -3.0295339   -1.5774483  0.037772723   -3.0295339    1.4520856   218434 
 7331000   0.48234649   -3.0305115   -1.5757386  0.037718599   -3.0305115    1.4547729   218363 
 7332000   0.48198325   -3.0298268   -1.5758298  0.038642196   -3.0298268     1.453997   218315 
 7333000   0.48154021   -3.0270983   -1.5740585  0.036142268   -3.0270983    1.4530398   218258 
 7334000   0.48164967   -3.0272764   -1.5735532  0.032803241   -3.0272764    1.4537231   218205 
 7335000   0.48051327   -3.0245638   -1.5739847  0.036520706   -3.0245638    1.4505791   218162 
 7336000   0.48150082   -3.0267299   -1.5730629  0.040690606   -3.0267299    1.4536669   218146 
 7337000   0.48150195   -3.0296479   -1.5755176  0.037517151   -3.0296479    1.4541303   218077 
 7338000    0.4813261   -3.0284259   -1.5745733  0.037463763   -3.0284259    1.4538525   218039 
 7339000   0.48107585    -3.027182   -1.5735053  0.036001249    -3.027182    1.4536767   217952 
 7340000   0.48197358   -3.0324306   -1.5754128  0.037504974   -3.0324306    1.4570178   217858 
 7341000   0.48063004   -3.0293266   -1.5757432  0.036402096   -3.0293266    1.4535834   217764 
 7342000   0.48002548    -3.025724   -1.5736689  0.036662084    -3.025724    1.4520551   217719 
 7343000   0.48016666   -3.0296447   -1.5767755  0.034795553   -3.0296447    1.4528692   217661 
 7344000   0.47966941   -3.0309636   -1.5795256  0.039925101   -3.0309636     1.451438   217650 
 7345000   0.48036632   -3.0305749   -1.5766006  0.037520296   -3.0305749    1.4539743   217586 
 7346000   0.48064613   -3.0327201   -1.5776113  0.037983273   -3.0327201    1.4551088   217543 
 7347000   0.48016075   -3.0282888   -1.5742885  0.036120046   -3.0282888    1.4540003   217489 
 7348000   0.47946856   -3.0283365   -1.5757443  0.036136292   -3.0283365    1.4525922   217386 
 7349000   0.47951763   -3.0287802   -1.5754043  0.037675012   -3.0287802     1.453376   217291 
 7350000   0.47968624   -3.0294129    -1.575198  0.035717025   -3.0294129    1.4542149   217242 
 7351000   0.47887674   -3.0292022   -1.5771673  0.035030523   -3.0292022    1.4520349   217201 
 7352000   0.47851481   -3.0260485   -1.5747302  0.037655188   -3.0260485    1.4513183   217144 
 7353000   0.47864517   -3.0249551   -1.5728669  0.037574013   -3.0249551    1.4520882   217088 
 7354000   0.47898643   -3.0263172   -1.5728656   0.03619414   -3.0263172    1.4534515   217039 
 7355000   0.47738556   -3.0256676   -1.5764394  0.036650647   -3.0256676    1.4492282   216944 
 7356000   0.47834348   -3.0268779   -1.5745208  0.039057091   -3.0268779    1.4523571   216911 
 7357000   0.47905274   -3.0284944   -1.5735613  0.037976692   -3.0284944    1.4549331   216848 
 7358000   0.47899796   -3.0274092   -1.5722532  0.036861232   -3.0274092     1.455156   216790 
 7359000   0.47850839   -3.0287988   -1.5746606  0.037689628   -3.0287988    1.4541382   216720 
 7360000   0.47761553   -3.0270791   -1.5750981  0.035618241   -3.0270791     1.451981   216637 
 7361000   0.47789327   -3.0264797   -1.5731781  0.036122244   -3.0264797    1.4533017   216566 
 7362000   0.47866244   -3.0308137   -1.5747965  0.036977436   -3.0308137    1.4560172   216510 
 7363000   0.47835732   -3.0292149   -1.5736753  0.041828721   -3.0292149    1.4555396   216443 
 7364000   0.47746982   -3.0262089   -1.5732624  0.040716572   -3.0262089    1.4529465   216427 
 7365000   0.47770739   -3.0266869   -1.5726077  0.038332515   -3.0266869    1.4540793   216366 
 7366000   0.47782235   -3.0290625   -1.5744317  0.036287345   -3.0290625    1.4546309   216336 
 7367000   0.47772551   -3.0269629   -1.5720888   0.03941913   -3.0269629    1.4548741   216256 
 7368000   0.47753438   -3.0272901   -1.5724397  0.036426655   -3.0272901    1.4548504   216173 
 7369000    0.4768747   -3.0254047   -1.5722212  0.036417206   -3.0254047    1.4531834   216122 
 7370000   0.47789984   -3.0273637   -1.5704025  0.033825702   -3.0273637    1.4569613   216025 
 7371000   0.47659617    -3.023767   -1.5704909  0.037357136    -3.023767    1.4532761   215982 
 7372000   0.47617491   -3.0226831   -1.5703285  0.033614086   -3.0226831    1.4523546   215928 
 7373000   0.47710014   -3.0249215   -1.5693876  0.035093587   -3.0249215    1.4555339   215875 
 7374000   0.47557046   -3.0235413   -1.5723986  0.039937149   -3.0235413    1.4511428   215834 
 7375000   0.47690571   -3.0249926   -1.5694788  0.036934769   -3.0249926    1.4555138   215790 
 7376000   0.47749425   -3.0257354    -1.567993  0.038201915   -3.0257354    1.4577424   215726 
 7377000    0.4760522   -3.0249743   -1.5712165  0.036380737   -3.0249743    1.4537578   215664 
 7378000   0.47565713   -3.0252032   -1.5722409  0.036169249   -3.0252032    1.4529623   215603 
 7379000   0.47720214   -3.0281561   -1.5704744  0.037729971   -3.0281561    1.4576817   215603 
 7380000   0.47601562   -3.0260453   -1.5717923  0.038662569   -3.0260453     1.454253   215574 
 7381000   0.47697596   -3.0318748   -1.5740726  0.038216486   -3.0318748    1.4578022   215483 
 7382000   0.47599914   -3.0293441   -1.5737573  0.040385584   -3.0293441    1.4555868   215369 
 7383000   0.47521897   -3.0300438   -1.5761542  0.038078896   -3.0300438    1.4538897   215267 
 7384000   0.47574238   -3.0312153   -1.5751832  0.038844431   -3.0312153    1.4560321   215187 
 7385000   0.47604655   -3.0334366   -1.5759386   0.04008649   -3.0334366    1.4574981   215108 
 7386000   0.47720238   -3.0341211    -1.572561   0.03840209   -3.0341211      1.46156   215031 
 7387000    0.4764786   -3.0339283   -1.5742524  0.041544536   -3.0339283    1.4596759   214982 
 7388000   0.47604189   -3.0311508   -1.5721273  0.040786195   -3.0311508    1.4590235   214881 
 7389000   0.47620301   -3.0310539   -1.5712173  0.039913456   -3.0310539    1.4598366   214834 
 7390000   0.47447026   -3.0269038   -1.5721285  0.038006618   -3.0269038    1.4547753   214797 
 7391000   0.47291963   -3.0264802   -1.5757839  0.034551724   -3.0264802    1.4506963   214697 
 7392000   0.47334884   -3.0263847   -1.5743583  0.039860209   -3.0263847    1.4520264   214695 
 7393000   0.47439818   -3.0262807   -1.5707778  0.035234261   -3.0262807     1.455503   214657 
 7394000   0.47390089   -3.0248068    -1.570213  0.035827391   -3.0248068    1.4545939   214566 
 7395000   0.47295328   -3.0226673   -1.5704202  0.037435706   -3.0226673     1.452247   214483 
 7396000   0.47324894   -3.0214655   -1.5677819  0.037273112   -3.0214655    1.4536835   214405 
 7397000   0.47311183   -3.0204979   -1.5668627  0.040253152   -3.0204979    1.4536353   214350 
 7398000   0.47460482   -3.0229227   -1.5641285  0.037659801   -3.0229227    1.4587942   214266 
 7399000   0.47429514    -3.020504   -1.5622806   0.03773295    -3.020504    1.4582234   214210 
 7400000   0.47297043   -3.0185906   -1.5638424  0.040094947   -3.0185906    1.4547482   214122 
 7401000   0.47293572   -3.0200066   -1.5647126  0.038503406   -3.0200066    1.4552939   214026 
 7402000   0.47199006   -3.0182813   -1.5656122   0.03781436   -3.0182813    1.4526691   213984 
 7403000   0.47104123   -3.0169188   -1.5671632  0.037401133   -3.0169188    1.4497556   213983 
 7404000   0.47217713   -3.0179284   -1.5643712  0.037255875   -3.0179284    1.4535573   213938 
 7405000   0.47162926   -3.0160515    -1.563692  0.039278904   -3.0160515    1.4523595   213866 
 7406000   0.47243533   -3.0147659   -1.5595568  0.038127303   -3.0147659    1.4552092   213812 
 7407000   0.47285082   -3.0160434   -1.5595408  0.041956726   -3.0160434    1.4565026   213810 
 7408000   0.47332644   -3.0148691   -1.5565468  0.035555302   -3.0148691    1.4583223   213758 
 7409000   0.47197465   -3.0114362    -1.556496  0.037706222   -3.0114362    1.4549402   213643 
 7410000   0.47131554    -3.010815   -1.5578658   0.03784054    -3.010815    1.4529492   213637 
 7411000    0.4701688   -3.0085643    -1.558682  0.035980369   -3.0085643    1.4498823   213568 
 7412000   0.47091495    -3.009699     -1.55706  0.035049532    -3.009699     1.452639   213501 
 7413000   0.47070142   -3.0087073   -1.5562916  0.036690656   -3.0087073    1.4524157   213437 
 7414000   0.47094222   -3.0109598   -1.5572767  0.035747356   -3.0109598    1.4536831   213360 
 7415000   0.46968228   -3.0070049   -1.5568234  0.040054237   -3.0070049    1.4501814   213303 
 7416000   0.47035187   -3.0083541   -1.5556217  0.036049934   -3.0083541    1.4527324   213232 
 7417000   0.47043019    -3.011969    -1.558613  0.040852097    -3.011969     1.453356   213176 
 7418000   0.47060879   -3.0102922   -1.5560706  0.038358897   -3.0102922    1.4542216   213130 
 7419000   0.47124839   -3.0145342   -1.5578988  0.037283028   -3.0145342    1.4566354   213066 
 7420000   0.47048863   -3.0149982    -1.560042  0.038360557   -3.0149982    1.4549562   212968 
 7421000   0.47126488   -3.0164275   -1.5585232  0.039429423   -3.0164275    1.4579043   212888 
 7422000   0.47068233   -3.0127433   -1.5563607  0.038596986   -3.0127433    1.4563827   212847 
 7423000   0.46914925   -3.0113813   -1.5594832  0.036024904   -3.0113813    1.4518982   212809 
 7424000   0.46951947   -3.0142056   -1.5605263  0.038062701   -3.0142056    1.4536792   212716 
 7425000   0.47019673    -3.012105   -1.5560483  0.034357823    -3.012105    1.4560567   212675 
 7426000   0.46978047   -3.0117769   -1.5566056  0.040627829   -3.0117769    1.4551714   212616 
 7427000   0.46939995   -3.0140519   -1.5597651   0.03868586   -3.0140519    1.4542868   212573 
 7428000   0.46935466   -3.0121329   -1.5577743  0.037525561   -3.0121329    1.4543586   212542 
 7429000   0.46947921   -3.0119351   -1.5567113  0.040780358   -3.0119351    1.4552238   212472 
 7430000   0.46965333   -3.0114859   -1.5553249  0.040497683   -3.0114859     1.456161   212414 
 7431000   0.46999364   -3.0126579   -1.5550094  0.037206563   -3.0126579    1.4576485   212351 
 7432000   0.46927946   -3.0095772   -1.5536157  0.037301116   -3.0095772    1.4559614   212274 
 7433000   0.46960447   -3.0101507   -1.5529475  0.037132418   -3.0101507    1.4572032   212240 
 7434000   0.47005992   -3.0098349   -1.5509229  0.035368899   -3.0098349    1.4589121   212197 
 7435000   0.46772041   -3.0061172   -1.5541583  0.039433966   -3.0061172    1.4519589   212152 
 7436000   0.46789317   -3.0059274   -1.5527541  0.036955551   -3.0059274    1.4531733   212053 
 7437000   0.46741347   -3.0048924   -1.5530583  0.037060457   -3.0048924    1.4518341   212031 
 7438000   0.46751692   -3.0073008   -1.5547686  0.037800762   -3.0073008    1.4525322   211976 
 7439000   0.46684915   -3.0046802   -1.5541543  0.037258939   -3.0046802    1.4505259   211966 
 7440000   0.46715069   -3.0030313   -1.5512808  0.040980637   -3.0030313    1.4517505   211924 
 7441000   0.46759755   -3.0065072   -1.5527506  0.035351068   -3.0065072    1.4537566   211834 
 7442000   0.46664853   -3.0056242     -1.55427  0.036079791   -3.0056242    1.4513542   211754 
 7443000     0.467132   -3.0060931   -1.5528303   0.03536872   -3.0060931    1.4532628   211695 
 7444000   0.46744683   -3.0037403   -1.5490377   0.03697077   -3.0037403    1.4547026   211628 
 7445000   0.46761712   -3.0063064   -1.5503927  0.040763201   -3.0063064    1.4559137   211529 
 7446000   0.46705253   -3.0054078   -1.5510388  0.040497422   -3.0054078    1.4543689   211498 
 7447000   0.46751046   -3.0058246   -1.5498783  0.038382878   -3.0058246    1.4559464   211476 
 7448000   0.46716947   -3.0038068   -1.5486403  0.040418452   -3.0038068    1.4551666   211435 
 7449000   0.46788386   -3.0042508    -1.546266  0.038115511   -3.0042508    1.4579848   211349 
 7450000   0.46609283   -3.0004658   -1.5477459  0.036012576   -3.0004658    1.4527199   211303 
 7451000   0.46517379   -2.9994625   -1.5490716  0.033303661   -2.9994625    1.4503909   211225 
 7452000   0.46505231   -2.9999507   -1.5493617  0.036895196   -2.9999507     1.450589   211141 
 7453000   0.46612356   -3.0006361   -1.5465129  0.036740838   -3.0006361    1.4541232   211113 
 7454000   0.46569945    -2.999148   -1.5457488  0.034666839    -2.999148    1.4533991   211026 
 7455000   0.46487801   -2.9930018   -1.5415955  0.035642872   -2.9930018    1.4514063   210943 
 7456000   0.46491776    -2.993277   -1.5411615  0.038178974    -2.993277    1.4521156   210858 
 7457000   0.46634149   -2.9966549   -1.5395396  0.039123625   -2.9966549    1.4571153   210778 
 7458000   0.46599341   -2.9953563   -1.5385546  0.035536136   -2.9953563    1.4568018   210666 
 7459000   0.46529877   -2.9927162   -1.5378443   0.03677013   -2.9927162    1.4548719   210631 
 7460000   0.46585813   -2.9948809   -1.5377966  0.039022628   -2.9948809    1.4570843   210564 
 7461000   0.46509911   -2.9952901   -1.5403656  0.032005616   -2.9952901    1.4549245   210533 
 7462000   0.46431085   -2.9930336   -1.5400366   0.03975665   -2.9930336     1.452997   210455 
 7463000   0.46402541   -2.9928579   -1.5402157  0.039272018   -2.9928579    1.4526421   210377 
 7464000   0.46477412   -2.9909042   -1.5355585  0.033307456   -2.9909042    1.4553457   210325 
 7465000   0.46441372   -2.9891226   -1.5343936  0.035586172   -2.9891226     1.454729   210251 
 7466000   0.46376429   -2.9887307   -1.5355937  0.035982263   -2.9887307    1.4531371   210187 
 7467000   0.46267261    -2.987956   -1.5377152  0.039449888    -2.987956    1.4502409   210111 
 7468000   0.46200233   -2.9873828   -1.5388224  0.036393093   -2.9873828    1.4485604   210050 
 7469000   0.46226402   -2.9887686   -1.5389321  0.035239359   -2.9887686    1.4498365   209984 
 7470000   0.46324653   -2.9914843   -1.5380957   0.03608963   -2.9914843    1.4533887   209916 
 7471000   0.46323938   -2.9913993   -1.5377284  0.037429285   -2.9913993    1.4536709   209872 
 7472000   0.46178813   -2.9864183   -1.5368733  0.035274878   -2.9864183     1.449545   209810 
 7473000    0.4621323   -2.9907654   -1.5396974  0.036982838   -2.9907654     1.451068   209746 
 7474000   0.46126205    -2.988287    -1.539468  0.034342982    -2.988287     1.448819   209676 
 7475000   0.46259941   -2.9915229   -1.5379348  0.035839732   -2.9915229    1.4535881   209594 
 7476000    0.4624628   -2.9922324    -1.538595  0.037552181   -2.9922324    1.4536374   209525 
 7477000   0.46196575   -2.9926743   -1.5402388  0.039481812   -2.9926743    1.4524355   209473 
 7478000   0.46345443   -2.9958392   -1.5386397  0.040551106   -2.9958392    1.4571995   209461 
 7479000   0.46212246   -2.9925709   -1.5387543  0.039703161   -2.9925709    1.4538166   209345 
 7480000   0.46192398   -2.9930501   -1.5394483  0.036022945   -2.9930501    1.4536018   209286 
 7481000   0.46101991   -2.9932566   -1.5418756  0.035577901   -2.9932566     1.451381   209196 
 7482000   0.46217405   -2.9918374   -1.5362872  0.036760239   -2.9918374    1.4555502   209119 
 7483000   0.46186921   -2.9919882   -1.5373145  0.037368705   -2.9919882    1.4546737   209107 
 7484000   0.46191164   -2.9922069   -1.5369264  0.037921528   -2.9922069    1.4552805   209039 
 7485000   0.46203053   -2.9935289   -1.5372677  0.040015211   -2.9935289    1.4562612   208952 
 7486000   0.46245708   -2.9948592   -1.5369257  0.036545135   -2.9948592    1.4579335   208905 
 7487000   0.46118446   -2.9896672   -1.5353628  0.041637218   -2.9896672    1.4543044   208850 
 7488000   0.46009752   -2.9888964   -1.5373662  0.038446333   -2.9888964    1.4515301   208756 
 7489000   0.46100239   -2.9891751   -1.5345325   0.03276967   -2.9891751    1.4546427   208719 
 7490000   0.46029921   -2.9902296   -1.5375274  0.038625632   -2.9902296    1.4527023   208679 
 7491000   0.46113533   -2.9901284   -1.5342571  0.041493079   -2.9901284    1.4558713   208603 
 7492000   0.46141726   -2.9905377   -1.5331964  0.039769808   -2.9905377    1.4573412   208520 
 7493000   0.45987925   -2.9895994   -1.5366908   0.03546438   -2.9895994    1.4529086   208459 
 7494000   0.46015704    -2.991009     -1.53686  0.036314436    -2.991009     1.454149   208407 
 7495000   0.45798943   -2.9835376   -1.5359398  0.036853055   -2.9835376    1.4475977   208364 
 7496000   0.45977621   -2.9870017   -1.5337564  0.034104106   -2.9870017    1.4532453   208364 
 7497000    0.4593099    -2.984567   -1.5326004  0.041123911    -2.984567    1.4519666   208336 
 7498000   0.45982628   -2.9835321   -1.5294934  0.041109705   -2.9835321    1.4540387   208273 
 7499000   0.45936585   -2.9836471    -1.530555  0.035670452   -2.9836471     1.453092   208200 
 7500000   0.46009907   -2.9835243   -1.5278262  0.036461118   -2.9835243     1.455698   208159 
 7501000   0.46011373   -2.9841365   -1.5278114  0.042186957   -2.9841365    1.4563251   208076 
 7502000   0.45982471   -2.9831942    -1.527665  0.036096225   -2.9831942    1.4555292   208059 
 7503000   0.45978585   -2.9822653   -1.5266352  0.038670225   -2.9822653    1.4556301   208027 
 7504000   0.46015392   -2.9829141   -1.5254181  0.039249285   -2.9829141     1.457496   207927 
 7505000   0.45767942   -2.9765735   -1.5265038  0.037778109   -2.9765735    1.4500697   207868 
 7506000   0.45855623   -2.9770732   -1.5237921  0.038164992   -2.9770732    1.4532812   207806 
 7507000   0.45765278   -2.9790031   -1.5280405  0.037321667   -2.9790031    1.4509625   207728 
 7508000   0.45833109   -2.9800892   -1.5266333  0.035867358   -2.9800892    1.4534559   207679 
 7509000   0.45824593   -2.9808456   -1.5271907  0.035601503   -2.9808456    1.4536548   207612 
 7510000   0.45848297   -2.9808638   -1.5261418  0.039446998   -2.9808638    1.4547221   207567 
 7511000   0.45901815   -2.9793474   -1.5229132  0.038754563   -2.9793474    1.4564342   207565 
 7512000   0.45781546   -2.9789884   -1.5260833  0.039368873   -2.9789884    1.4529051   207524 
 7513000   0.45844471   -2.9801576   -1.5247436  0.037170224   -2.9801576     1.455414   207451 
 7514000    0.4584683   -2.9809978   -1.5252563  0.037940651   -2.9809978    1.4557416   207415 
 7515000   0.45808539   -2.9798606   -1.5246543  0.041571451   -2.9798606    1.4552063   207318 
 7516000   0.45769821   -2.9819151   -1.5274336  0.037076876   -2.9819151    1.4544815   207246 
 7517000   0.45743844   -2.9804589   -1.5263258  0.034972335   -2.9804589    1.4541331   207178 
 7518000   0.45730943   -2.9820739    -1.527986  0.035395934   -2.9820739    1.4540879   207126 
 7519000   0.45722217    -2.981414   -1.5272805  0.035308461    -2.981414    1.4541334   207080 
 7520000   0.45777079   -2.9837732   -1.5274801  0.038852389   -2.9837732    1.4562931   207021 
 7521000   0.45735931   -2.9829149   -1.5274457  0.034591056   -2.9829149    1.4554692   206952 
 7522000    0.4558726   -2.9780588   -1.5269842  0.040979319   -2.9780588    1.4510746   206904 
 7523000   0.45790735   -2.9832942   -1.5250522  0.038050887   -2.9832942     1.458242   206806 
 7524000   0.45635858   -2.9810648   -1.5274176  0.038426314   -2.9810648    1.4536473   206758 
 7525000   0.45660155   -2.9824153   -1.5278183  0.040605117   -2.9824153    1.4545971   206733 
 7526000   0.45560981   -2.9818943   -1.5299931  0.036898742   -2.9818943    1.4519012   206667 
 7527000   0.45594862   -2.9818994   -1.5287356  0.037249446   -2.9818994    1.4531637   206641 
 7528000   0.45665346   -2.9851123   -1.5294204  0.040033474   -2.9851123    1.4556919   206601 
 7529000   0.45697958   -2.9862166   -1.5290196  0.035073209   -2.9862166     1.457197   206535 
 7530000   0.45572698    -2.982644   -1.5287796  0.040772605    -2.982644    1.4538645   206441 
 7531000   0.45714009   -2.9856064   -1.5268522  0.041305802   -2.9856064    1.4587542   206387 
 7532000   0.45600134   -2.9827651    -1.527278  0.040203905   -2.9827651    1.4554871   206335 
 7533000   0.45587493    -2.982497   -1.5271454   0.03789549    -2.982497    1.4553516   206297 
 7534000   0.45635725   -2.9844256    -1.526863  0.043251166   -2.9844256    1.4575626   206202 
 7535000   0.45595748   -2.9865478   -1.5296756   0.03635327   -2.9865478    1.4568722   206119 
 7536000   0.45469365   -2.9832147   -1.5298942  0.039762426   -2.9832147    1.4533205   206050 
 7537000    0.4537331   -2.9787046   -1.5282783  0.036269221   -2.9787046    1.4504263   206025 
 7538000   0.45303314   -2.9760218   -1.5274182  0.039607139   -2.9760218    1.4486036   205966 
 7539000   0.45438608   -2.9798023    -1.526675  0.034341517   -2.9798023    1.4531273   205938 
 7540000   0.45437738   -2.9784625   -1.5248336  0.037239013   -2.9784625    1.4536289   205863 
 7541000   0.45363762   -2.9765803   -1.5247186  0.035317065   -2.9765803    1.4518617   205778 
 7542000    0.4541568   -2.9778297   -1.5237199  0.039920675   -2.9778297    1.4541098   205695 
 7543000   0.45530041   -2.9819455   -1.5236707  0.040849629   -2.9819455    1.4582748   205624 
 7544000   0.45410569   -2.9753077   -1.5206897  0.039297349   -2.9753077     1.454618   205600 
 7545000   0.45411251    -2.974411   -1.5196013  0.036652493    -2.974411    1.4548097   205576 
 7546000   0.45347343   -2.9754761   -1.5222685  0.039672939   -2.9754761    1.4532077   205513 
 7547000   0.45491588   -2.9786314   -1.5200844  0.039332628   -2.9786314     1.458547   205412 
 7548000   0.45463911   -2.9797676   -1.5217815  0.039196646   -2.9797676    1.4579861   205366 
 7549000   0.45421588   -2.9792049   -1.5222568  0.037583232   -2.9792049    1.4569481   205321 
 7550000   0.45463777   -2.9791627   -1.5205062    0.0415636   -2.9791627    1.4586565   205271 
 7551000   0.45409169   -2.9749197   -1.5177028  0.039413344   -2.9749197    1.4572169   205227 
 7552000   0.45380026   -2.9765057   -1.5197272  0.037148538   -2.9765057    1.4567785   205157 
 7553000   0.45413111   -2.9762833   -1.5180091  0.039962086   -2.9762833    1.4582742   205096 
 7554000   0.45276348   -2.9728705   -1.5185411  0.038531171   -2.9728705    1.4543293   205033 
 7555000   0.45222568   -2.9708846   -1.5176236  0.036604955   -2.9708846     1.453261   204940 
 7556000   0.45305381   -2.9727791   -1.5166863  0.038023765   -2.9727791    1.4560928   204916 
 7557000   0.45243713   -2.9684967   -1.5138677  0.036782129   -2.9684967     1.454629   204843 
 7558000    0.4516858   -2.9663227   -1.5135348  0.040340599   -2.9663227    1.4527879   204762 
 7559000   0.45306443   -2.9694197   -1.5119699  0.037187155   -2.9694197    1.4574498   204730 
 7560000   0.45232988   -2.9687258   -1.5133048  0.037620222   -2.9687258     1.455421   204683 
 7561000   0.45317332   -2.9696084   -1.5110888    0.0362782   -2.9696084    1.4585197   204629 
 7562000   0.45341794   -2.9688417   -1.5089212  0.039934354   -2.9688417    1.4599205   204543 
 7563000    0.4525749   -2.9658424    -1.508223  0.039394681   -2.9658424    1.4576194   204485 
 7564000   0.45307869   -2.9699339   -1.5103493  0.035270805   -2.9699339    1.4595846   204437 
 7565000   0.45103526   -2.9636509   -1.5103861  0.036471309   -2.9636509    1.4532647   204400 
 7566000    0.4516524   -2.9664182   -1.5107092  0.036873013   -2.9664182     1.455709   204336 
 7567000   0.45102411   -2.9657392   -1.5114004  0.039277409   -2.9657392    1.4543388   204244 
 7568000   0.45187501   -2.9674095   -1.5099845  0.038570533   -2.9674095     1.457425   204196 
 7569000   0.45264039   -2.9677358   -1.5073916   0.03818034   -2.9677358    1.4603442   204133 
 7570000   0.45187887   -2.9661382    -1.507565   0.03732197   -2.9661382    1.4585732   204037 
 7571000   0.45076131   -2.9654148   -1.5098353  0.037571054   -2.9654148    1.4555795   203951 
 7572000   0.45056194   -2.9650501   -1.5094649  0.039586413   -2.9650501    1.4555852   203860 
 7573000   0.45161474   -2.9665242   -1.5072157  0.037421645   -2.9665242    1.4593085   203815 
 7574000   0.45280025   -2.9701538   -1.5066269  0.038151016   -2.9701538     1.463527   203761 
 7575000   0.45082648   -2.9604961   -1.5029911  0.044022875   -2.9604961     1.457505   203711 
 7576000   0.45006874   -2.9588161   -1.5032963  0.038409859   -2.9588161    1.4555197   203646 
 7577000   0.44838379   -2.9582156    -1.507511  0.037125706   -2.9582156    1.4507046   203557 
 7578000   0.44925632   -2.9584785   -1.5046581  0.036457713   -2.9584785    1.4538204   203516 
 7579000   0.44808995   -2.9549663   -1.5047493  0.036880292   -2.9549663     1.450217   203492 
 7580000    0.4491228   -2.9554534   -1.5016007  0.037413369   -2.9554534    1.4538527   203451 
 7581000   0.44944041   -2.9551624   -1.4995447  0.044330869   -2.9551624    1.4556177   203348 
 7582000   0.44820485   -2.9542557   -1.5020254   0.04074415   -2.9542557    1.4522303   203262 
 7583000   0.44883269   -2.9572852   -1.5026699  0.039035029   -2.9572852    1.4546152   203213 
 7584000   0.44890633   -2.9586778   -1.5034301  0.039763484   -2.9586778    1.4552477   203158 
 7585000   0.44844356   -2.9592094   -1.5048104  0.039660028   -2.9592094     1.454399   203067 
 7586000   0.44933836   -2.9623025   -1.5045276  0.042644458   -2.9623025    1.4577748   203001 
 7587000   0.45007909   -2.9616812   -1.5012945  0.039799195   -2.9616812    1.4603866   202972 
 7588000   0.44991226    -2.962627   -1.5020621  0.038595524    -2.962627    1.4605649   202872 
 7589000   0.44991984   -2.9640388   -1.5029164  0.040002006   -2.9640388    1.4611224   202798 
 7590000   0.44993845    -2.965766   -1.5042156  0.038309248    -2.965766    1.4615504   202747 
 7591000   0.44956752   -2.9656329   -1.5047181  0.035438428   -2.9656329    1.4609148   202668 
 7592000   0.44803795   -2.9630579   -1.5067471  0.034540586   -2.9630579    1.4563107   202617 
 7593000   0.44763836   -2.9612756   -1.5054949  0.034288055   -2.9612756    1.4557807   202510 
 7594000   0.44836395   -2.9620688   -1.5037052  0.037018995   -2.9620688    1.4583637   202479 
 7595000   0.44833117   -2.9639416   -1.5051298  0.037298531   -2.9639416    1.4588118   202402 
 7596000   0.44840166    -2.962439   -1.5030374  0.041603752    -2.962439    1.4594017   202352 
 7597000   0.44846276   -2.9648391   -1.5044446  0.035296115   -2.9648391    1.4603944   202242 
 7598000   0.44851881   -2.9619102   -1.5011238  0.039095358   -2.9619102    1.4607864   202213 
 7599000   0.44615426   -2.9592903   -1.5053854  0.036847736   -2.9592903     1.453905   202099 
 7600000   0.44597185   -2.9544869    -1.501011  0.039812053   -2.9544869    1.4534759   202076 
 7601000   0.44723394   -2.9581294   -1.5001938  0.039176704   -2.9581294    1.4579355   202028 
 7602000   0.44662572   -2.9538893   -1.4975689   0.03894697   -2.9538893    1.4563204   201977 
 7603000   0.44712224   -2.9544684   -1.4961102   0.03603688   -2.9544684    1.4583582   201919 
 7604000    0.4467276   -2.9508267   -1.4933731  0.036661385   -2.9508267    1.4574536   201866 
 7605000   0.44748425   -2.9546325   -1.4940736  0.039242215   -2.9546325    1.4605589   201778 
 7606000   0.44661826   -2.9535229   -1.4950315  0.040029961   -2.9535229    1.4584913   201673 
 7607000   0.44590829   -2.9490318   -1.4922089  0.035608624   -2.9490318    1.4568229   201583 
 7608000   0.44508669   -2.9521648   -1.4977736  0.038832839   -2.9521648    1.4543912   201548 
 7609000   0.44591929   -2.9544466   -1.4966765  0.038189287   -2.9544466    1.4577701   201457 
 7610000   0.44432603   -2.9487101   -1.4958818  0.037345237   -2.9487101    1.4528283   201420 
 7611000   0.44460084   -2.9477456    -1.493311   0.03915035   -2.9477456    1.4544345   201322 
 7612000   0.44399025   -2.9488173   -1.4958966  0.036390185   -2.9488173    1.4529206   201255 
 7613000   0.44506935    -2.949109   -1.4923024  0.038676141    -2.949109    1.4568066   201206 
 7614000   0.44552418   -2.9501047   -1.4913889  0.036283623   -2.9501047    1.4587158   201148 
 7615000   0.44468736   -2.9513056   -1.4948952  0.037715036   -2.9513056    1.4564104   201088 
 7616000   0.44434503    -2.949915    -1.494329  0.039964735    -2.949915     1.455586   201047 
 7617000   0.44523202   -2.9506285   -1.4920934  0.040202637   -2.9506285    1.4585351   201041 
 7618000   0.44615758   -2.9486779   -1.4867617  0.039845247   -2.9486779    1.4619162   200993 
 7619000   0.44567522   -2.9463696   -1.4858596  0.039126993   -2.9463696      1.46051   200969 
 7620000   0.44474628   -2.9470021   -1.4887453  0.037470473   -2.9470021    1.4582568   200860 
 7621000   0.44535022   -2.9497385   -1.4890943  0.037589128   -2.9497385    1.4606442   200804 
 7622000   0.44396992   -2.9439772   -1.4874756  0.039438521   -2.9439772    1.4565016   200751 
 7623000   0.44334074   -2.9437146   -1.4889438  0.039876567   -2.9437146    1.4547708   200705 
 7624000   0.44464759   -2.9432406   -1.4837598  0.038893631   -2.9432406    1.4594809   200647 
 7625000   0.44368354   -2.9418331   -1.4851028  0.036162159   -2.9418331    1.4567303   200590 
 7626000   0.44368571   -2.9382183   -1.4813646  0.038685297   -2.9382183    1.4568537   200574 
 7627000   0.44286847   -2.9357116   -1.4812513  0.034575871   -2.9357116    1.4544603   200534 
 7628000   0.44312747   -2.9364051   -1.4805933   0.03529335   -2.9364051    1.4558118   200465 
 7629000   0.44394944   -2.9360806   -1.4769278  0.038595268   -2.9360806    1.4591528   200377 
 7630000   0.44464272   -2.9376728   -1.4757891  0.039329014   -2.9376728    1.4618838   200315 
 7631000   0.44351761     -2.93481   -1.4763923   0.03875763     -2.93481    1.4584177   200283 
 7632000   0.44287941   -2.9352512   -1.4783066  0.037939878   -2.9352512    1.4569447   200197 
 7633000   0.44165516    -2.933962   -1.4803986  0.035950498    -2.933962    1.4535634   200108 
 7634000   0.44212266    -2.935709   -1.4802433  0.037900503    -2.935709    1.4554657   200058 
 7635000   0.44315501   -2.9357938   -1.4766306  0.039876107   -2.9357938    1.4591632   200017 
 7636000   0.44323877   -2.9372373   -1.4774115  0.037661597   -2.9372373    1.4598259   199964 
 7637000   0.44231731   -2.9369292   -1.4795843  0.038626445   -2.9369292    1.4573449   199888 
 7638000   0.44303786   -2.9385508   -1.4787004  0.039115134   -2.9385508    1.4598504   199870 
 7639000   0.44144633   -2.9377839   -1.4826899  0.035281451   -2.9377839     1.455094   199803 
 7640000   0.44213092   -2.9375677   -1.4799035  0.037508157   -2.9375677    1.4576642   199760 
 7641000   0.44221373   -2.9399015   -1.4817015  0.037363965   -2.9399015       1.4582   199724 
 7642000   0.44224316   -2.9394664   -1.4805119  0.038181294   -2.9394664    1.4589545   199634 
 7643000   0.44171805   -2.9387498   -1.4808777  0.036688974   -2.9387498    1.4578721   199545 
 7644000   0.44086197   -2.9360311   -1.4804957  0.040694592   -2.9360311    1.4555354   199478 
 7645000   0.44219112   -2.9371818   -1.4770825  0.037785424   -2.9371818    1.4600993   199454 
 7646000    0.4420262   -2.9369749   -1.4767319  0.036711843   -2.9369749    1.4602429   199360 
 7647000   0.44113415   -2.9356482   -1.4778988  0.037807382   -2.9356482    1.4577494   199298 
 7648000   0.44034905   -2.9349715   -1.4791664  0.038962311   -2.9349715    1.4558051   199209 
 7649000   0.44072354    -2.937162   -1.4794822  0.037646062    -2.937162    1.4576798   199122 
 7650000   0.44083443   -2.9354185   -1.4769544  0.039916046   -2.9354185     1.458464   199065 
 7651000   0.44027038   -2.9340279   -1.4769249  0.041839628   -2.9340279     1.457103   198996 
 7652000   0.43999841   -2.9347606   -1.4781917  0.035018226   -2.9347606    1.4565689   198946 
 7653000   0.43938526   -2.9352311   -1.4803044  0.042187378   -2.9352311    1.4549267   198893 
 7654000   0.44075373   -2.9357119   -1.4760483   0.03698636   -2.9357119    1.4596636   198865 
 7655000   0.43907108    -2.928143   -1.4739056  0.042195454    -2.928143    1.4542373   198845 
 7656000   0.44180845   -2.9323696   -1.4687199  0.040707874   -2.9323696    1.4636497   198798 
 7657000    0.4407436   -2.9302772   -1.4695307  0.043130443   -2.9302772    1.4607465   198713 
 7658000   0.43995329   -2.9268168   -1.4682198  0.039709647   -2.9268168     1.458597   198649 
 7659000   0.44095551    -2.929805   -1.4673331  0.036562109    -2.929805    1.4624719   198574 
 7660000   0.44012185   -2.9250114   -1.4651795  0.035235579   -2.9250114    1.4598319   198557 
 7661000   0.43945058   -2.9226229   -1.4645475  0.035746332   -2.9226229    1.4580754   198493 
 7662000   0.43836766   -2.9194715   -1.4644614  0.037961421   -2.9194715    1.4550101   198421 
 7663000   0.43873146    -2.926319   -1.4695948  0.035814369    -2.926319    1.4567242   198352 
 7664000   0.43676953   -2.9201767   -1.4697547  0.035841911   -2.9201767     1.450422   198323 
 7665000   0.43843225   -2.9197655   -1.4635209   0.03664644   -2.9197655    1.4562446   198282 
 7666000   0.43854244    -2.919553   -1.4627954  0.040009147    -2.919553    1.4567576   198262 
 7667000   0.43957335   -2.9264135   -1.4658704  0.040151721   -2.9264135     1.460543   198213 
 7668000    0.4384414   -2.9213052   -1.4643469  0.039782284   -2.9213052    1.4569584   198189 
 7669000   0.43780478   -2.9215588   -1.4660476  0.039156583   -2.9215588    1.4555112   198098 
 7670000   0.43819881   -2.9219769   -1.4646849   0.03782887   -2.9219769     1.457292   198034 
 7671000    0.4386763   -2.9228846    -1.463393  0.041548423   -2.9228846    1.4594916   197951 
 7672000   0.43790424   -2.9213969   -1.4636713  0.040716071   -2.9213969    1.4577256   197842 
 7673000   0.43852345   -2.9230551   -1.4627294  0.039375495   -2.9230551    1.4603257   197769 
 7674000   0.43791069   -2.9230241   -1.4642226  0.034417484   -2.9230241    1.4588015   197699 
 7675000   0.43748195   -2.9248247   -1.4671343  0.034908224   -2.9248247    1.4576903   197656 
 7676000    0.4379568   -2.9250803     -1.46518  0.035577641   -2.9250803    1.4599003   197571 
 7677000   0.43819278   -2.9252896   -1.4642033  0.037958389   -2.9252896    1.4610863   197517 
 7678000   0.43666179   -2.9186853   -1.4624015  0.036803316   -2.9186853    1.4562837   197476 
 7679000   0.43816005   -2.9221859   -1.4603206  0.040696845   -2.9221859    1.4618653   197397 
 7680000   0.43659404   -2.9188514   -1.4620707  0.039646284   -2.9188514    1.4567807   197378 
 7681000   0.43595118   -2.9191276   -1.4634667  0.040703657   -2.9191276    1.4556608   197239 
 7682000   0.43659357   -2.9229501   -1.4644714  0.042661173   -2.9229501    1.4584787   197148 
 7683000   0.43604856   -2.9210524   -1.4643278  0.034588731   -2.9210524    1.4567246   197139 
 7684000   0.43705686   -2.9250505   -1.4642906  0.037629133   -2.9250505    1.4607599   197049 
 7685000   0.43684084   -2.9216031   -1.4610983  0.039808365   -2.9216031    1.4605049   196986 
 7686000   0.43639711    -2.923242   -1.4637243  0.037126798    -2.923242    1.4595177   196919 
 7687000   0.43624713   -2.9221484   -1.4626505  0.037067549   -2.9221484    1.4594979   196854 
 7688000   0.43652684   -2.9227818   -1.4620142  0.037818236   -2.9227818    1.4607676   196809 
 7689000   0.43580779    -2.918086   -1.4593021  0.037623937    -2.918086    1.4587839   196752 
 7690000   0.43507211   -2.9192352   -1.4626177  0.039960631   -2.9192352    1.4566175   196712 
 7691000   0.43403744   -2.9167798    -1.463449  0.037703752   -2.9167798    1.4533307   196688 
 7692000   0.43596771   -2.9198979   -1.4597029  0.033325905   -2.9198979     1.460195   196634 
 7693000   0.43464746   -2.9158294   -1.4597676  0.038548721   -2.9158294    1.4560618   196595 
 7694000    0.4343438   -2.9142964    -1.458378  0.038095152   -2.9142964    1.4559184   196477 
 7695000   0.43450193   -2.9165358    -1.459813   0.03733104   -2.9165358    1.4567228   196440 
 7696000   0.43305785   -2.9125531    -1.460169  0.039600565   -2.9125531    1.4523841   196372 
 7697000   0.43429777   -2.9159521   -1.4590535  0.037225419   -2.9159521    1.4568986   196324 
 7698000   0.43446309   -2.9162813   -1.4582711  0.036875377   -2.9162813    1.4580102   196249 
 7699000   0.43364521   -2.9112474   -1.4557669  0.038268996   -2.9112474    1.4554806   196220 
 7700000   0.43346056   -2.9145068   -1.4592529  0.040177394   -2.9145068    1.4552539   196167 
 7701000    0.4328847   -2.9097181   -1.4560196  0.041715278   -2.9097181    1.4536985   196116 
 7702000   0.43477536    -2.915255   -1.4546636    0.0397489    -2.915255    1.4605913   196043 
 7703000   0.43397804   -2.9113055   -1.4530431  0.043583592   -2.9113055    1.4582624   195996 
 7704000   0.43328205   -2.9100325   -1.4537075  0.037914362   -2.9100325     1.456325   195942 
 7705000   0.43241129   -2.9082225   -1.4545498  0.040229434   -2.9082225    1.4536727   195905 
 7706000   0.43294439   -2.9089102   -1.4526723  0.039462607   -2.9089102    1.4562379   195801 
 7707000   0.43256279   -2.9079559   -1.4521613  0.038607177   -2.9079559    1.4557946   195688 
 7708000   0.43242429   -2.9078903   -1.4518028   0.04502794   -2.9078903    1.4560874   195586 
 7709000   0.43291239   -2.9080869   -1.4496998  0.039830464   -2.9080869    1.4583871   195498 
 7710000   0.43229266   -2.9086333    -1.452155  0.035690608   -2.9086333    1.4564782   195474 
 7711000   0.43252773   -2.9060389   -1.4480079  0.038447355   -2.9060389     1.458031   195372 
 7712000   0.43114811    -2.907935   -1.4537955  0.037207706    -2.907935    1.4541396   195270 
 7713000   0.43120131   -2.9058197   -1.4511432  0.038394023   -2.9058197    1.4546766   195222 
 7714000   0.43206171    -2.905882   -1.4476007  0.039612344    -2.905882    1.4582814   195128 
 7715000   0.43214553   -2.9086988   -1.4497981  0.035662549   -2.9086988    1.4589007   195083 
 7716000   0.43119536   -2.9055922   -1.4491751  0.039914902   -2.9055922    1.4564171   194986 
 7717000   0.42998274   -2.9023794   -1.4497154  0.039869286   -2.9023794    1.4526641   194940 
 7718000   0.43133749   -2.9020545   -1.4445518  0.036955275   -2.9020545    1.4575027   194905 
 7719000   0.43076894   -2.9012996   -1.4449036  0.037585258   -2.9012996     1.456396   194796 
 7720000   0.42996983   -2.8995657   -1.4454609  0.036186135   -2.8995657    1.4541048   194741 
 7721000   0.43042822    -2.898456   -1.4422999  0.040148258    -2.898456    1.4561561   194674 
 7722000   0.43053062    -2.898302   -1.4409911  0.038561938    -2.898302     1.457311   194566 
 7723000   0.42990992   -2.8995626    -1.443567  0.038980788   -2.8995626    1.4559957   194461 
 7724000   0.42957862   -2.8987785   -1.4432986  0.038341097   -2.8987785    1.4554799   194380 
 7725000   0.43041947    -2.899345    -1.440746  0.040759335    -2.899345     1.458599   194344 
 7726000   0.43021853   -2.9003625   -1.4418441  0.035522844   -2.9003625    1.4585184   194264 
 7727000   0.42845628   -2.8980952   -1.4450126  0.041754319   -2.8980952    1.4530826   194192 
 7728000   0.42986943   -2.9011461   -1.4426399  0.037018587   -2.9011461    1.4585061   194108 
 7729000   0.43013475   -2.9014977   -1.4418207  0.039314275   -2.9014977    1.4596771   194072 
 7730000   0.43002027   -2.9025219   -1.4426918  0.040975791   -2.9025219    1.4598301   194000 
 7731000   0.42887127   -2.8972946    -1.440832  0.038993347   -2.8972946    1.4564626   193929 
 7732000   0.42963036    -2.900282   -1.4406319  0.037605197    -2.900282    1.4596501   193848 
 7733000   0.42874815    -2.900687   -1.4435832  0.040431217    -2.900687    1.4571039   193788 
 7734000   0.42821549   -2.8973917   -1.4417601  0.036805341   -2.8973917    1.4556316   193743 
 7735000   0.42844695   -2.9030014   -1.4456426  0.039037412   -2.9030014    1.4573587   193618 
 7736000   0.42742268    -2.901428   -1.4469073  0.037905612    -2.901428    1.4545207   193532 
 7737000   0.42778838   -2.9021968   -1.4457318  0.037745563   -2.9021968    1.4564651   193439 
 7738000   0.42903728   -2.9068558   -1.4459045  0.039632545   -2.9068558    1.4609513   193408 
 7739000   0.42711666   -2.9028215   -1.4479966  0.037927436   -2.9028215    1.4548249   193353 
 7740000   0.42721905   -2.9022965    -1.446641  0.037407689   -2.9022965    1.4556555   193289 
 7741000   0.42845056   -2.9059936   -1.4456358  0.039438263   -2.9059936    1.4603578   193222 
 7742000   0.42725889   -2.9015635   -1.4451017  0.042116906   -2.9015635    1.4564619   193200 
 7743000   0.42650383   -2.8981775   -1.4439433  0.036546139   -2.8981775    1.4542342   193154 
 7744000   0.42641807   -2.8962713   -1.4419681  0.039440455   -2.8962713    1.4543032   193106 
 7745000   0.42633073   -2.8962511   -1.4416431  0.038756363   -2.8962511     1.454608   193026 
 7746000   0.42794277   -2.8992678   -1.4386679  0.039160128   -2.8992678    1.4605999   192961 
 7747000   0.42698969   -2.8958639   -1.4382373  0.039250016   -2.8958639    1.4576265   192924 
 7748000   0.42704658   -2.8983894   -1.4401605  0.039056714   -2.8983894    1.4582289   192870 
 7749000   0.42516178   -2.8917849   -1.4394272  0.038896053   -2.8917849    1.4523577   192795 
 7750000   0.42646946   -2.8926108   -1.4350452  0.038034328   -2.8926108    1.4575656   192697 
 7751000   0.42583524   -2.8922372   -1.4361515  0.036892758   -2.8922372    1.4560857   192606 
 7752000    0.4261489   -2.8909842   -1.4332811  0.037291754   -2.8909842    1.4577031   192534 
 7753000   0.42486536   -2.8877636    -1.433862  0.036886524   -2.8877636    1.4539016   192456 
 7754000    0.4252433   -2.8894409   -1.4342763  0.037729897   -2.8894409    1.4551646   192460 
 7755000   0.42519905   -2.8887015    -1.433469  0.039833197   -2.8887015    1.4552325   192431 
 7756000   0.42522208   -2.8888199   -1.4331455  0.034422336   -2.8888199    1.4556744   192383 
 7757000   0.42531209   -2.8874048   -1.4310968  0.037166945   -2.8874048    1.4563081   192340 
 7758000   0.42576153   -2.8862398   -1.4277635    0.0395729   -2.8862398    1.4584763   192257 
 7759000   0.42551617   -2.8890592   -1.4310366  0.038983251   -2.8890592    1.4580226   192206 
 7760000   0.42430943   -2.8859786   -1.4312659  0.037268043   -2.8859786    1.4547127   192097 
 7761000   0.42421646   -2.8854093   -1.4302351  0.041732963   -2.8854093    1.4551742   191994 
 7762000   0.42504591   -2.8894795   -1.4310498  0.038041712   -2.8894795    1.4584296   191940 
 7763000   0.42498061   -2.8900412   -1.4315012  0.041132198   -2.8900412      1.45854   191896 
 7764000   0.42600192   -2.8919284   -1.4293803  0.036829517   -2.8919284    1.4625481   191830 
 7765000   0.42492145    -2.888933   -1.4297901  0.037740759    -2.888933    1.4591429   191790 
 7766000   0.42473449   -2.8832468   -1.4247307  0.040714807   -2.8832468    1.4585161   191788 
 7767000   0.42470384   -2.8844386   -1.4256474  0.037933043   -2.8844386    1.4587912   191738 
 7768000   0.42499013    -2.888289   -1.4277908  0.037127269    -2.888289    1.4604981   191643 
 7769000    0.4239796   -2.8861078   -1.4287325  0.038212442   -2.8861078    1.4573752   191597 
 7770000   0.42386092   -2.8845076    -1.426749  0.037323998   -2.8845076    1.4577586   191493 
 7771000   0.42321653    -2.882662   -1.4265113  0.039619816    -2.882662    1.4561507   191413 
 7772000   0.42330418   -2.8814201   -1.4244807  0.037225847   -2.8814201    1.4569394   191349 
 7773000   0.42290125   -2.8809745     -1.42511  0.040710553   -2.8809745    1.4558645   191308 
 7774000   0.42262591   -2.8803766   -1.4246686  0.039574812   -2.8803766     1.455708   191204 
 7775000   0.42407507   -2.8828771   -1.4214591  0.040082776   -2.8828771     1.461418   191110 
 7776000   0.42385356   -2.8837613   -1.4225637  0.038632064   -2.8837613    1.4611975   191039 
 7777000   0.42388475   -2.8809471   -1.4193513   0.03970594   -2.8809471    1.4615958   191001 
 7778000   0.42322662   -2.8801592   -1.4204735  0.040803258   -2.8801592    1.4596857   190954 
 7779000   0.42092323   -2.8767327   -1.4245122  0.039721206   -2.8767327    1.4522205   190891 
 7780000   0.42128923   -2.8768568   -1.4230537  0.040551607   -2.8768568    1.4538031   190849 
 7781000   0.42181687   -2.8765404   -1.4201992  0.039845854   -2.8765404    1.4563412   190755 
 7782000   0.42235096    -2.881851   -1.4233981  0.036904828    -2.881851    1.4584528   190720 
 7783000   0.42210188   -2.8799612   -1.4217109  0.036555639   -2.8799612    1.4582503   190634 
 7784000   0.42104481   -2.8769548    -1.421784  0.037207865   -2.8769548    1.4551708   190559 
 7785000   0.41977523   -2.8744923   -1.4233209  0.038529409   -2.8744923    1.4511714   190508 
 7786000   0.42082009   -2.8788782   -1.4236822  0.037625992   -2.8788782     1.455196   190454 
 7787000   0.42221243   -2.8797206   -1.4193725   0.04036103   -2.8797206    1.4603481   190410 
 7788000   0.42172467   -2.8812029   -1.4221357  0.035185181   -2.8812029    1.4590672   190357 
 7789000   0.42131454   -2.8775179   -1.4193641  0.042506748   -2.8775179    1.4581538   190291 
 7790000   0.42197082   -2.8806037   -1.4195873  0.040760053   -2.8806037    1.4610163   190214 
 7791000   0.42159196   -2.8811768   -1.4209963  0.039682643   -2.8811768    1.4601805   190152 
 7792000   0.42058546   -2.8775319   -1.4206918   0.04297911   -2.8775319    1.4568401   190133 
 7793000   0.42234282   -2.8823318   -1.4189427  0.039991077   -2.8823318    1.4633891   190073 
 7794000   0.42055956    -2.876005   -1.4183577  0.040038009    -2.876005    1.4576474   190016 
 7795000   0.42150857   -2.8763422   -1.4148903  0.040635101   -2.8763422    1.4614519   189949 
 7796000   0.42144554   -2.8775882   -1.4156698  0.040019044   -2.8775882    1.4619184   189860 
 7797000   0.41946535   -2.8680126   -1.4122807   0.03912328   -2.8680126    1.4557318   189771 
 7798000   0.41930878   -2.8684115   -1.4127091  0.039163333   -2.8684115    1.4557024   189704 
 7799000   0.41895297   -2.8657792   -1.4108519  0.035177269   -2.8657792    1.4549273   189644 
 7800000   0.41922858   -2.8670228   -1.4105547   0.03659629   -2.8670228    1.4564681   189568 
 7801000   0.42018543   -2.8695275    -1.409165  0.037657665   -2.8695275    1.4603625   189494 
 7802000   0.41895051   -2.8635082   -1.4073916  0.041263731   -2.8635082    1.4561166   189488 
 7803000   0.42040057    -2.869476   -1.4075867  0.034897582    -2.869476    1.4618894   189393 
 7804000   0.42086286   -2.8671365   -1.4031217  0.036371046   -2.8671365    1.4640148   189326 
 7805000   0.42023632   -2.8619903    -1.399537  0.041336261   -2.8619903    1.4624533   189246 
 7806000    0.4198735    -2.862429   -1.4006745  0.037180998    -2.862429    1.4617545   189173 
 7807000    0.4185721   -2.8600602   -1.4022893  0.040185916   -2.8600602    1.4577709   189102 
 7808000   0.41831421   -2.8608181   -1.4033981  0.035865113   -2.8608181      1.45742   189031 
 7809000   0.41840562   -2.8617932   -1.4038234  0.038884164   -2.8617932    1.4579698   189001 
 7810000    0.4182671   -2.8569494   -1.3991846  0.039992701   -2.8569494    1.4577648   188965 
 7811000   0.41887903   -2.8579519   -1.3977143  0.042072238   -2.8579519    1.4602376   188921 
 7812000    0.4192078   -2.8577456   -1.3958512   0.03764079   -2.8577456    1.4618944   188855 
 7813000   0.41865391    -2.855477   -1.3951585  0.036056212    -2.855477    1.4603185   188809 
 7814000    0.4189484   -2.8583289   -1.3961235  0.041021114   -2.8583289    1.4622054   188698 
 7815000   0.41837073   -2.8555584   -1.3952067  0.036151578   -2.8555584    1.4603517   188677 
 7816000    0.4181691   -2.8568741   -1.3968703  0.036391027   -2.8568741    1.4600038   188631 
 7817000   0.41817908   -2.8579951   -1.3972749  0.037937206   -2.8579951    1.4607202   188543 
 7818000   0.41692311   -2.8538211   -1.3968622  0.038613354   -2.8538211    1.4569589   188462 
 7819000   0.41736653   -2.8552098   -1.3963298  0.038391347   -2.8552098      1.45888   188414 
 7820000   0.41827841   -2.8565524   -1.3941046  0.040860034   -2.8565524    1.4624478   188365 
 7821000   0.41936223   -2.8587913   -1.3919155   0.04065441   -2.8587913    1.4668758   188283 
 7822000   0.41863462   -2.8567521   -1.3918145  0.042012248   -2.8567521    1.4649376   188205 
 7823000   0.41778053   -2.8563351   -1.3938734  0.039656743   -2.8563351    1.4624617   188139 
 7824000   0.41791244   -2.8565102   -1.3930266  0.039985027   -2.8565102    1.4634835   188067 
 7825000    0.4182331    -2.853669    -1.388338  0.037960114    -2.853669     1.465331   187974 
 7826000   0.41727911   -2.8524154   -1.3899522  0.038723016   -2.8524154    1.4624632   187913 
 7827000   0.41661671   -2.8519136   -1.3913834  0.036159601   -2.8519136    1.4605303   187863 
 7828000   0.41671435   -2.8511799   -1.3897394  0.040331168   -2.8511799    1.4614405   187790 
 7829000   0.41674274   -2.8493793   -1.3872942  0.038059157   -2.8493793     1.462085   187720 
 7830000   0.41681735   -2.8474633   -1.3848048  0.039519356   -2.8474633    1.4626584   187680 
 7831000   0.41667522    -2.847167   -1.3845709  0.036894716    -2.847167    1.4625961   187624 
 7832000   0.41711802   -2.8469291   -1.3822088  0.039953229   -2.8469291    1.4647203   187551 
 7833000   0.41721462   -2.8465934   -1.3807758  0.044026656   -2.8465934    1.4658176   187454 
 7834000   0.41695878   -2.8429849    -1.377292  0.039965451   -2.8429849    1.4656928   187355 
 7835000   0.41571194   -2.8439371   -1.3819248  0.041432715   -2.8439371    1.4620123   187265 
 7836000   0.41624814    -2.846853   -1.3822667  0.039244868    -2.846853    1.4645862   187177 
 7837000    0.4164727   -2.8443027   -1.3786679   0.03947786   -2.8443027    1.4656348   187144 
 7838000   0.41654679   -2.8468526   -1.3802753  0.044831118   -2.8468526    1.4665773   187057 
 7839000   0.41589012   -2.8481629      -1.3836  0.039325705   -2.8481629    1.4645628   187019 
 7840000   0.41463478   -2.8443837   -1.3838589  0.038088963   -2.8443837    1.4605248   186970 
 7841000   0.41594769   -2.8464952   -1.3805774  0.039465202   -2.8464952    1.4659178   186872 
 7842000   0.41530015   -2.8452899   -1.3810901  0.040720704   -2.8452899    1.4641998   186800 
 7843000   0.41432104   -2.8462236   -1.3850064  0.039901526   -2.8462236    1.4612172   186740 
 7844000   0.41368373   -2.8440156   -1.3847022  0.038598161   -2.8440156    1.4593134   186696 
 7845000   0.41493161   -2.8479399   -1.3836285  0.038507964   -2.8479399    1.4643115   186620 
 7846000   0.41537573   -2.8510217   -1.3845536  0.042178437   -2.8510217    1.4664682   186545 
 7847000    0.4142907   -2.8477172   -1.3846169  0.039675203   -2.8477172    1.4631003   186486 
 7848000   0.41466551   -2.8480011   -1.3829565  0.041279969   -2.8480011    1.4650446   186407 
 7849000   0.41398814   -2.8474451   -1.3844171  0.038960128   -2.8474451    1.4630281   186359 
 7850000   0.41372113   -2.8482851   -1.3857219  0.039212729   -2.8482851    1.4625632   186298 
 7851000   0.41362774   -2.8453806   -1.3829435  0.039601398   -2.8453806    1.4624371   186272 
 7852000   0.41341044   -2.8476672   -1.3854253   0.04073918   -2.8476672    1.4622419   186199 
 7853000    0.4142458   -2.8500077   -1.3845986  0.039945345   -2.8500077    1.4654091   186172 
 7854000   0.41397662   -2.8478029   -1.3827795  0.042431229   -2.8478029    1.4650234   186100 
 7855000    0.4123186   -2.8443698   -1.3845393  0.042152523   -2.8443698    1.4598305   186014 
 7856000   0.41311035   -2.8444301   -1.3812064  0.037984934   -2.8444301    1.4632237   185939 
 7857000   0.41259958   -2.8449234   -1.3826202  0.038363266   -2.8449234    1.4623032   185826 
 7858000   0.41319509   -2.8457225   -1.3806859  0.040715344   -2.8457225    1.4650366   185747 
 7859000   0.41234271   -2.8427143   -1.3803062  0.040332027   -2.8427143     1.462408   185697 
 7860000    0.4127596   -2.8431887   -1.3787107  0.043862196   -2.8431887    1.4644781   185622 
 7861000   0.41207593   -2.8420848   -1.3793942  0.037619444   -2.8420848    1.4626907   185541 
 7862000   0.41163769   -2.8387484   -1.3770933  0.039861507   -2.8387484     1.461655   185475 
 7863000   0.41277929   -2.8392935   -1.3732213  0.041798937   -2.8392935    1.4660723   185429 
 7864000   0.41293812    -2.839338   -1.3723694  0.038887984    -2.839338    1.4669686   185387 
 7865000   0.41077948   -2.8324312   -1.3728634  0.041786628   -2.8324312    1.4595677   185353 
 7866000   0.41197254   -2.8372209   -1.3723313  0.039717762   -2.8372209    1.4648896   185216 
 7867000   0.41242156   -2.8369391   -1.3702549  0.039204657   -2.8369391    1.4666842   185191 
 7868000   0.41180023   -2.8360657   -1.3711481  0.041541186   -2.8360657    1.4649176   185135 
 7869000   0.41212673   -2.8365992   -1.3699181  0.042152568   -2.8365992    1.4666811   185059 
 7870000   0.41064721   -2.8307306   -1.3688092  0.038003595   -2.8307306    1.4619214   184995 
 7871000   0.41082569   -2.8297447   -1.3662386  0.036768014   -2.8297447    1.4635061   184875 
 7872000   0.41076104   -2.8292106   -1.3657686  0.035742159   -2.8292106     1.463442   184854 
 7873000   0.41115803   -2.8319324   -1.3667034  0.039826586   -2.8319324     1.465229   184807 
 7874000   0.40929752   -2.8272604   -1.3682433  0.040160893   -2.8272604    1.4590172   184754 
 7875000   0.40947064   -2.8283806   -1.3678531  0.038101189   -2.8283806    1.4605276   184641 
 7876000   0.41084577   -2.8283708   -1.3624302  0.040128696   -2.8283708    1.4659406   184577 
 7877000   0.40937379   -2.8282585   -1.3667783  0.040571556   -2.8282585    1.4614802   184477 
 7878000   0.40944975   -2.8322281   -1.3700328  0.038003968   -2.8322281    1.4621953   184421 
 7879000    0.4097177    -2.829982   -1.3663458  0.040476272    -2.829982    1.4636362   184360 
 7880000   0.41020264    -2.831296   -1.3654742  0.039914112    -2.831296    1.4658218   184303 
 7881000   0.41015221   -2.8307758   -1.3643784  0.040105078   -2.8307758    1.4663975   184208 
 7882000    0.4097419   -2.8305607   -1.3652086  0.041050164   -2.8305607    1.4653521   184155 
 7883000   0.40928881    -2.829598   -1.3654449  0.040541844    -2.829598    1.4641531   184102 
 7884000   0.40987911   -2.8312926   -1.3646852  0.041320066   -2.8312926    1.4666074   184059 
 7885000   0.41034743    -2.830791   -1.3619094  0.041517363    -2.830791    1.4688816   183984 
 7886000   0.40983871   -2.8320404   -1.3642219  0.038609659   -2.8320404    1.4678185   183889 
 7887000   0.40973594   -2.8303652   -1.3622362  0.040907286   -2.8303652    1.4681291   183804 
 7888000   0.40892512   -2.8277065   -1.3623233  0.039794185   -2.8277065    1.4653833   183784 
 7889000   0.40816164   -2.8246998   -1.3615748  0.038768768   -2.8246998     1.463125   183724 
 7890000   0.40823199   -2.8286148   -1.3646958  0.040408481   -2.8286148     1.463919   183656 
 7891000   0.40810976   -2.8285519   -1.3649278  0.038904511   -2.8285519    1.4636241   183638 
 7892000   0.40809731   -2.8245381   -1.3605839  0.042375733   -2.8245381    1.4639541   183591 
 7893000   0.40648735   -2.8205871   -1.3616454  0.038388269   -2.8205871    1.4589417   183495 
 7894000   0.40801504   -2.8264598   -1.3613004  0.039239157   -2.8264598    1.4651594   183403 
 7895000   0.40838247   -2.8274477   -1.3602569   0.04204793   -2.8274477    1.4671908   183314 
 7896000   0.40845032   -2.8275063   -1.3595753  0.039263575   -2.8275063     1.467931   183252 
 7897000   0.40753459   -2.8244207   -1.3597487  0.040360219   -2.8244207    1.4646719   183248 
 7898000   0.40752887   -2.8246177   -1.3593826  0.040661809   -2.8246177    1.4652351   183175 
 7899000   0.40613804   -2.8234655   -1.3627366  0.037822676   -2.8234655    1.4607289   183113 
 7900000   0.40712882   -2.8258173    -1.361365  0.039100753   -2.8258173    1.4644523   183093 
 7901000   0.40709856   -2.8230902   -1.3578904  0.042975143   -2.8230902    1.4651997   182986 
 7902000   0.40638294   -2.8211059   -1.3578661  0.039161068   -2.8211059    1.4632399   182909 
 7903000   0.40579151   -2.8226223   -1.3607926  0.038920905   -2.8226223    1.4618296   182819 
 7904000   0.40641929   -2.8214916   -1.3567515  0.040623248   -2.8214916    1.4647401   182738 
 7905000   0.40617293   -2.8225857   -1.3583489   0.03778608   -2.8225857    1.4642368   182690 
 7906000   0.40658054   -2.8235548   -1.3571904  0.040606968   -2.8235548    1.4663645   182608 
 7907000   0.40660769   -2.8208011   -1.3540175  0.040976597   -2.8208011    1.4667836   182568 
 7908000   0.40429748    -2.816698   -1.3574009  0.038891113    -2.816698    1.4592971   182462 
 7909000   0.40430637   -2.8191881   -1.3589545  0.040323302   -2.8191881    1.4602336   182349 
 7910000   0.40524711   -2.8190328   -1.3547913  0.042450837   -2.8190328    1.4642415   182273 
 7911000   0.40585733   -2.8202585   -1.3533534  0.038367637   -2.8202585    1.4669051   182216 
 7912000   0.40439442   -2.8146594   -1.3527289  0.041213826   -2.8146594    1.4619305   182177 
 7913000   0.40433596   -2.8143575   -1.3524056  0.037340162   -2.8143575    1.4619519   182148 
 7914000   0.40454171    -2.815611   -1.3523448  0.039131995    -2.815611    1.4632662   182077 
 7915000   0.40433617    -2.814783    -1.351963  0.038524234    -2.814783      1.46282   182040 
 7916000   0.40527622   -2.8153529   -1.3485437  0.039513581   -2.8153529    1.4668092   181967 
 7917000   0.40461926   -2.8127799   -1.3477446  0.040521927   -2.8127799    1.4650353   181892 
 7918000   0.40428348   -2.8111001    -1.346862  0.039813071   -2.8111001    1.4642381   181840 
 7919000   0.40464326   -2.8097259   -1.3440477  0.041715243   -2.8097259    1.4656782   181823 
 7920000   0.40447938   -2.8095528   -1.3437588  0.042002527   -2.8095528     1.465794   181735 
 7921000   0.40284622   -2.8027962   -1.3428724   0.03817723   -2.8027962    1.4599238   181729 
 7922000    0.4027312   -2.8019305   -1.3419334  0.038457971   -2.8019305     1.459997   181668 
 7923000   0.40196446   -2.8008264   -1.3427904  0.038915991   -2.8008264    1.4580361   181566 
 7924000   0.40295773   -2.7984918   -1.3360555  0.039926512   -2.7984918    1.4624363   181467 
 7925000   0.40228998   -2.7982496   -1.3377297   0.03817118   -2.7982496    1.4605199   181404 
 7926000   0.40214869   -2.7987694   -1.3382149  0.042464751   -2.7987694    1.4605545   181336 
 7927000   0.40272695   -2.7989179    -1.335884  0.039661237   -2.7989179    1.4630338   181289 
 7928000   0.40391434   -2.8026909   -1.3349953  0.038993968   -2.8026909    1.4676955   181246 
 7929000   0.40155899    -2.799024   -1.3390977  0.039505381    -2.799024    1.4599263   181148 
 7930000   0.40263695    -2.804904   -1.3407272  0.042472137    -2.804904    1.4641768   181107 
 7931000   0.40260672   -2.8016633   -1.3368765  0.040682026   -2.8016633    1.4647867   181018 
 7932000   0.40235618   -2.7996029    -1.335121  0.040013898   -2.7996029    1.4644819   180943 
 7933000   0.40256601   -2.8010824   -1.3354641   0.04297073   -2.8010824    1.4656183   180897 
 7934000   0.40208641   -2.8030826    -1.338668  0.038685732   -2.8030826    1.4644146   180830 
 7935000   0.40093003   -2.7987328   -1.3380048  0.038544791   -2.7987328    1.4607281   180765 
 7936000   0.40232188   -2.8012805   -1.3349622  0.040187188   -2.8012805    1.4663182   180701 
 7937000   0.40108594   -2.7979022   -1.3356759  0.038291006   -2.7979022    1.4622263   180650 
 7938000   0.40092265   -2.7997997   -1.3377074  0.039486653   -2.7997997    1.4620924   180593 
 7939000   0.40058728   -2.8009657   -1.3394246  0.037304643   -2.8009657    1.4615411   180510 
 7940000   0.40053546   -2.7985439   -1.3368356  0.042887555   -2.7985439    1.4617083   180466 
 7941000   0.40041974   -2.7992878    -1.336916  0.038678406   -2.7992878    1.4623718   180332 
 7942000   0.40068202   -2.8009972   -1.3369937  0.039042167   -2.8009972    1.4640035   180249 
 7943000    0.3997335   -2.7980953    -1.337136  0.040295857   -2.7980953    1.4609593   180197 
 7944000    0.4003345   -2.7978411   -1.3345228  0.038991255   -2.7978411    1.4633183   180177 
 7945000   0.40000729   -2.7964441   -1.3339159    0.0413654   -2.7964441    1.4625281   180127 
 7946000   0.40019546   -2.7988035   -1.3352299  0.040161542   -2.7988035    1.4635736   180083 
 7947000     0.401184   -2.8002719   -1.3324392  0.039797174   -2.8002719    1.4678328   180004 
 7948000   0.40014027   -2.7930206    -1.328787  0.041013326   -2.7930206    1.4642336   179977 
 7949000   0.39993791   -2.7942092   -1.3299675  0.036217875   -2.7942092    1.4642416   179885 
 7950000   0.39961883   -2.7926868    -1.329117  0.038452974   -2.7926868    1.4635697   179824 
 7951000   0.39972014   -2.7903797   -1.3259666   0.04142108   -2.7903797    1.4644131   179766 
 7952000   0.40048052   -2.7946531   -1.3271849   0.04238557   -2.7946531    1.4674682   179733 
 7953000    0.3993971    -2.791758   -1.3275917  0.041400828    -2.791758    1.4641663   179651 
 7954000   0.39861448   -2.7899529   -1.3283302  0.041254806   -2.7899529    1.4616227   179611 
 7955000   0.40032659   -2.7938928   -1.3254444  0.036206022   -2.7938928    1.4684483   179544 
 7956000   0.39964567   -2.7894422   -1.3237038  0.038962811   -2.7894422    1.4657384   179570 
 7957000   0.39892945   -2.7885369   -1.3248221  0.039706037   -2.7885369    1.4637148   179496 
 7958000   0.39768633   -2.7846061   -1.3247449  0.041050513   -2.7846061    1.4598612   179409 
 7959000   0.39769887   -2.7886559   -1.3283335  0.040662809   -2.7886559    1.4603224   179358 
 7960000   0.39823588   -2.7911467    -1.328053  0.040672921   -2.7911467    1.4630937   179260 
 7961000   0.39877822   -2.7937832   -1.3277483  0.041090888   -2.7937832    1.4660349   179144 
 7962000   0.39755858   -2.7904476   -1.3287089  0.043944272   -2.7904476    1.4617387   179121 
 7963000   0.39730164    -2.790772   -1.3292273   0.04087404    -2.790772    1.4615447   179029 
 7964000   0.39706602   -2.7900452   -1.3290408  0.041491321   -2.7900452    1.4610044   178989 
 7965000   0.39597257   -2.7869485   -1.3291123  0.037405187   -2.7869485    1.4578362   178884 
 7966000   0.39684866   -2.7850573   -1.3233501  0.037282111   -2.7850573    1.4617072   178805 
 7967000   0.39691746   -2.7837174   -1.3211597  0.042076517   -2.7837174    1.4625577   178732 
 7968000   0.39827262   -2.7894521   -1.3213095  0.039969386   -2.7894521    1.4681426   178660 
 7969000   0.39634632   -2.7850671   -1.3236163  0.037330019   -2.7850671    1.4614508   178610 
 7970000   0.39565088   -2.7883344   -1.3286634  0.038775414   -2.7883344     1.459671   178514 
 7971000   0.39694246    -2.790077   -1.3246887  0.040978236    -2.790077    1.4653882   178398 
 7972000   0.39684156   -2.7877735   -1.3222238  0.041834081   -2.7877735    1.4655498   178333 
 7973000    0.3976475   -2.7880862   -1.3188845  0.041474679   -2.7880862    1.4692017   178251 
 7974000   0.39736687   -2.7869608   -1.3182274  0.042747234   -2.7869608    1.4687334   178182 
 7975000   0.39630159   -2.7871052    -1.321495  0.039982357   -2.7871052    1.4656102   178083 
 7976000   0.39711967   -2.7895515    -1.320264  0.037211942   -2.7895515    1.4692874   178004 
 7977000   0.39729941   -2.7897335   -1.3193433  0.041951824   -2.7897335    1.4703903   177951 
 7978000   0.39533101   -2.7821273   -1.3187013  0.044042622   -2.7821273     1.463426   177912 
 7979000   0.39504215   -2.7824513   -1.3196917  0.039134827   -2.7824513    1.4627596   177863 
 7980000   0.39460604   -2.7807005   -1.3189969  0.037183434   -2.7807005    1.4617036   177795 
 7981000    0.3948922   -2.7808707   -1.3177285  0.039612456   -2.7808707    1.4631421   177749 
 7982000   0.39470813   -2.7813934   -1.3184724  0.039649705   -2.7813934     1.462921   177693 
 7983000    0.3947969   -2.7760482   -1.3127076  0.041312612   -2.7760482    1.4633406   177682 
 7984000   0.39599122   -2.7769307   -1.3080886  0.043278396   -2.7769307    1.4688421   177552 
 7985000   0.39411176   -2.7733878   -1.3109241  0.039056474   -2.7733878    1.4624637   177480 
 7986000   0.39400811   -2.7729123   -1.3100666   0.03951907   -2.7729123    1.4628457   177387 
 7987000   0.39425792   -2.7713708   -1.3072097  0.041739865   -2.7713708    1.4641611   177340 
 7988000   0.39468746   -2.7749733   -1.3087293  0.040102696   -2.7749733    1.4662441   177281 
 7989000   0.39468363   -2.7758278   -1.3089526  0.043377904   -2.7758278    1.4668752   177203 
 7990000   0.39431096   -2.7737723   -1.3075871  0.040267537   -2.7737723    1.4661852   177119 
 7991000   0.39407017   -2.7712282   -1.3051023  0.038837332   -2.7712282    1.4661259   177018 
 7992000   0.39500279   -2.7752393    -1.305054  0.043889899   -2.7752393    1.4701854   176947 
 7993000   0.39320282   -2.7719794   -1.3078067  0.042290332   -2.7719794    1.4641727   176864 
 7994000     0.393731   -2.7681794   -1.3016585  0.040951299   -2.7681794    1.4665209   176818 
 7995000   0.39434193   -2.7688187   -1.2990913   0.03875955   -2.7688187    1.4697274   176706 
 7996000   0.39365924   -2.7654326   -1.2980504  0.038374493   -2.7654326    1.4673823   176682 
 7997000   0.39352868   -2.7639035   -1.2960857  0.038317504   -2.7639035    1.4678178   176571 
 7998000    0.3926231   -2.7613849    -1.296389  0.040667901   -2.7613849     1.464996   176504 
 7999000   0.39339165    -2.759965   -1.2916272  0.039703198    -2.759965    1.4683378   176447 
 8000000   0.39151233   -2.7527395    -1.290712  0.040791922   -2.7527395    1.4620276   176362 
Loop time of 8574.62 on 192 procs for 5000000 steps with 176362 atoms

Performance: 251906.295 tau/day, 583.116 timesteps/s
99.1% CPU use with 192 MPI tasks x 1 OpenMP threads

MPI task timing breakdown:
Section |  min time  |  avg time  |  max time  |%varavg|  %CPU | %total
-----------------------------------------------------------------------
Pair    | 888.58     | 2167.9     | 2498.7     |1031.1 |  99.0 | 25.28
Bond    | 3.2204     | 3.3273     | 3.4277     |   2.4 | 100.0 |  0.04
Neigh   | 536.95     | 1047.3     | 1168.5     | 583.1 |  99.4 | 12.21
Comm    | 1260.7     | 1699.6     | 3556.4     |1672.1 |  98.8 | 19.82
Output  | 283.24     | 287.01     | 287.04     |   1.6 |  98.8 |  3.35
Modify  | 3213.1     | 3292.7     | 3559.9     | 215.2 |  99.2 | 38.40
Other   |            | 76.67      |            |       |       |  0.89

Nlocal:        918.552 ave        1286 max         711 min
Histogram: 8 4 14 115 41 6 2 1 0 1
Nghost:        1982.59 ave        2547 max         789 min
Histogram: 24 0 4 3 30 15 5 5 19 87
Neighs:        20887.0 ave       31021 max        1970 min
Histogram: 34 7 5 1 2 3 2 24 88 26

Total # of neighbors = 4010303
Ave neighs/atom = 22.739042
Ave special neighs/atom = 0.0000000
Neighbor list builds = 505000
Dangerous builds = 450000

write_restart   restart_write.dat
System init for write_restart ...
write_data	data.write
System init for write_data ...
WARNING: Not all mixed pair coeffs generated from mixing. Use write_data with 'pair ij' option to store all pair coeffs. (src/write_data.cpp:312)

Total wall time: 2:22:57
