LAMMPS (24 Dec 2020)
OMP_NUM_THREADS environment is not set. Defaulting to 1 thread. (src/comm.cpp:94)
  using 1 OpenMP thread(s) per MPI task
# Simple rigid body system
# needed variables:

units		lj
atom_style	full
dimension 	3
boundary	p p f
pair_style	lj/cut/opt 2.5


variable 	sigma		equal 1.0
variable 	epsilon 	equal 1.0


region		box block 0 80 0 80 0 80
create_box 	3 box
Created orthogonal box = (0.0000000 0.0000000 0.0000000) to (80.000000 80.000000 80.000000)
  2 by 4 by 4 MPI processor grid
lattice 	sc 1.0
Lattice spacing in x,y,z = 1.0000000 1.0000000 1.0000000

create_atoms 	1 region box
Created 512000 atoms
  create_atoms CPU = 0.015 seconds

mass		1 1.0
mass		2 1.0
mass		3 1.0


group		solvent type 1
512000 atoms in group solvent


velocity 	solvent create ${startTemp} 563435 loop geom
velocity 	solvent create 0.5 563435 loop geom

read_data	data.vac add append
Reading data file ...
  orthogonal box = (0.0000000 0.0000000 0.0000000) to (80.000000 80.000000 160.00000)
  2 by 2 by 8 MPI processor grid
Finding 1-2 1-3 1-4 neighbors ...
  special bond factors lj:    0        0        0       
  special bond factors coul:  0        0        0       
     0 = max # of 1-2 neighbors
     0 = max # of 1-3 neighbors
     0 = max # of 1-4 neighbors
     1 = max # of special neighbors
  special bonds CPU = 0.083 seconds
  read_data CPU = 0.092 seconds

neighbor 	0.4 bin

pair_coeff	1 1 1.0 1.0
pair_coeff	2 2 0.0 0.0
pair_coeff	3 3 0.0 0.0
pair_coeff	2 3 0.0 0.0
pair_coeff	1 2*3 0.0 0.0

pair_modify 	shift yes


balance 	1.05 shift z 10 1.05
Balancing ...
Neighbor list info ...
  update every 1 steps, delay 10 steps, check yes
  max neighbors/atom: 2000, page size: 100000
  master list distance cutoff = 2.9
  ghost atom cutoff = 2.9
  binsize = 1.45, bins = 56 56 111
  1 neighbor lists, perpetual/occasional/extra = 1 0 0
  (1) pair lj/cut/opt, perpetual
      attributes: half, newton on
      pair build: half/bin/newton
      stencil: half/bin/3d/newton
      bin: standard
 rebalancing time: 0.017 seconds
  iteration count = 5
  initial/final maximal load/proc = 32000.000 19200.000
  initial/final imbalance factor  = 2.0000000 1.2000000
  x cuts: 0.0000000 0.50000000 1.0000000
  y cuts: 0.0000000 0.50000000 1.0000000
  z cuts: 0.0000000 0.062500000 0.12890625 0.18750000 0.25781250 0.30859375 0.38671875 0.43750000 1.0000000


####################### WALLS ###########################


region	       low block  EDGE EDGE EDGE EDGE 0 2

region 	       top block  EDGE EDGE EDGE EDGE 159 160


delete_atoms   region low
WARNING: Ignoring 'compress yes' for molecular system (src/delete_atoms.cpp:125)
Deleted 19200 atoms, new total = 492800

delete_atoms   region top
WARNING: Ignoring 'compress yes' for molecular system (src/delete_atoms.cpp:125)
Deleted 0 atoms, new total = 492800


variable       epsilonWall equal 2*${epsilon}
variable       epsilonWall equal 2*1

variable       cutoffTop   equal   0.7147*${sigma}
variable       cutoffTop   equal   0.7147*1

variable       cutoffLow   equal   3*${sigma}
variable       cutoffLow   equal   3*1


fix            topWall all wall/lj93 zhi EDGE                ${epsilonWall} ${sigma} ${cutoffTop} units box
fix            topWall all wall/lj93 zhi EDGE                2 ${sigma} ${cutoffTop} units box
fix            topWall all wall/lj93 zhi EDGE                2 1 ${cutoffTop} units box
fix            topWall all wall/lj93 zhi EDGE                2 1 0.7147 units box

fix            lowWall all wall/lj93 zlo EDGE                ${epsilonWall} ${sigma} ${cutoffLow} units box
fix            lowWall all wall/lj93 zlo EDGE                2 ${sigma} ${cutoffLow} units box
fix            lowWall all wall/lj93 zlo EDGE                2 1 ${cutoffLow} units box
fix            lowWall all wall/lj93 zlo EDGE                2 1 3 units box


###################### COMPUTES ##########################

compute        bin1 solvent chunk/atom bin/1d z upper 1.0



######################	FIXES ############################


fix 		peclet solvent ave/chunk 1000 1 1000 bin1 density/number norm 		 none ave one file density.profile

fix 		2 solvent nve

## Thermostat


region		regthermo block EDGE EDGE EDGE EDGE 0 20

group 		thermo dynamic solvent region regthermo every 1000
dynamic group thermo defined

fix 		3 thermo langevin ${startTemp} ${temp} 10 156453
fix 		3 thermo langevin 0.5 ${temp} 10 156453
fix 		3 thermo langevin 0.5 1.4 10 156453



#### Load balancing


fix 		bal all balance 1000 1.05 shift z 10 1.05


############### Diagnostics and computes ###################
#compute 	com cube	  rigid/local	1 mol x y z
#compute 	quat cube	  rigid/local	1 mol quatw quati quatj quatk

thermo 		1000
thermo_style 	custom step temp epair evdwl etotal press pe ke vol

dump		1 all custom 100000 dump.lammpstrj id mol type x y z
dump 		2 all image 10000 image.*.png type type
dump 		3 all movie 1000 movie.avi type type
#dump 		com cube local 1000 dump.*.xyz c_com[*]
#dump		quat cube      local 1000 dump.*.quat c_quat[*]


restart 	500000 restart.dat
timestep 	0.0025
timer 		full
New timer settings: style=full  mode=nosync  timeout=off


run		1000000
Per MPI rank memory allocation (min/avg/max) = 21.45 | 22.19 | 22.73 Mbytes
Step Temp E_pair E_vdwl TotEng Press PotEng KinEng Volume 
       0   0.49998514   -3.2974116   -3.2974116   -2.5474355    8.3319627   -3.2974116   0.74997619      1024000 
    1000    1.4278383   -4.8147535   -4.8147535   -2.6730003    3.6846156   -4.8147535    2.1417532      1024000 
    2000    1.3672317   -4.8642919   -4.8642919   -2.8134485    2.4646428   -4.8642919    2.0508434      1024000 
    3000    1.2639923   -4.8390363   -4.8390363   -2.9430516    1.6255191   -4.8390363    1.8959847      1024000 
    4000    1.2124513   -4.8490079   -4.8490079   -3.0303346   0.72316029   -4.8490079    1.8186732      1024000 
    5000    1.1411687   -4.7866441   -4.7866441   -3.0748946  0.078358855   -4.7866441    1.7117496      1024000 
    6000     1.061762   -4.6831364   -4.6831364   -3.0904967   -0.2626952   -4.6831364    1.5926397      1024000 
    7000    1.0032249   -4.5963886   -4.5963886   -3.0915543  -0.36030361   -4.5963886    1.5048343      1024000 
    8000   0.99178891   -4.5790101   -4.5790101   -3.0913298  -0.23450519   -4.5790101    1.4876803      1024000 
    9000     1.004038   -4.6030259   -4.6030259    -3.096972 -0.087618649   -4.6030259    1.5060539      1024000 
   10000    1.0086487   -4.6209392   -4.6209392   -3.1079692 -0.013021276   -4.6209392      1.51297      1024000 
   11000    1.0070037   -4.6304424   -4.6304424   -3.1199398 0.00063195654   -4.6304424    1.5105026      1024000 
   12000    1.0056285   -4.6386732   -4.6386732   -3.1302336  0.025510274   -4.6386732    1.5084396      1024000 
   13000    1.0101182   -4.6532731   -4.6532731   -3.1380988  0.070072437   -4.6532731    1.5151743      1024000 
   14000    1.0121899    -4.663721    -4.663721   -3.1454392  0.089019446    -4.663721    1.5182818      1024000 
   15000    1.0072289   -4.6620546   -4.6620546   -3.1512143  0.086149082   -4.6620546    1.5108403      1024000 
   16000    1.0039702   -4.6626183   -4.6626183   -3.1566661  0.078132479   -4.6626183    1.5059522      1024000 
   17000    1.0014519   -4.6637911   -4.6637911   -3.1616163  0.079000128   -4.6637911    1.5021748      1024000 
   18000    1.0032901   -4.6712984   -4.6712984   -3.1663663  0.098700925   -4.6712984     1.504932      1024000 
   19000    1.0036942   -4.6755486   -4.6755486   -3.1700103   0.10728691   -4.6755486    1.5055382      1024000 
   20000    1.0036259   -4.6788721   -4.6788721   -3.1734363    0.1154691   -4.6788721    1.5054359      1024000 
   21000    1.0039373   -4.6824112   -4.6824112   -3.1765083   0.11361833   -4.6824112    1.5059029      1024000 
   22000    1.0035753   -4.6846501   -4.6846501   -3.1792902    0.1260024   -4.6846501    1.5053599      1024000 
   23000    1.0053538   -4.6902417   -4.6902417   -3.1822141    0.1289501   -4.6902417    1.5080276      1024000 
   24000    1.0071534   -4.6956556   -4.6956556   -3.1849286   0.20933484   -4.6956556    1.5107271      1024000 
   25000    1.0198711   -4.7173152   -4.7173152   -3.1875117   0.64962516   -4.7173152    1.5298035      1024000 
   26000    1.0364214   -4.7436988   -4.7436988   -3.1890699    1.0399821   -4.7436988    1.5546289      1024000 
   27000     1.045385   -4.7582303   -4.7582303    -3.190156    1.5231949   -4.7582303    1.5680744      1024000 
   28000    1.0527142   -4.7708673   -4.7708673   -3.1917993    1.7051572   -4.7708673    1.5790681      1024000 
   29000    1.0320548   -4.7414081   -4.7414081   -3.1933291    1.3491084   -4.7414081    1.5480791      1024000 
   30000    1.0153003   -4.7168097   -4.7168097   -3.1938623   0.96752231   -4.7168097    1.5229474      1024000 
   31000   0.99845848   -4.6918642   -4.6918642   -3.1941796      0.61247   -4.6918642    1.4976847      1024000 
   32000   0.96470022   -4.6422055   -4.6422055   -3.1951581   0.36635193   -4.6422055    1.4470474      1024000 
   33000   0.92494791   -4.5842979   -4.5842979   -3.1968788   0.16810267   -4.5842979    1.3874191      1024000 
   34000   0.88431662   -4.5244159   -4.5244159   -3.1979437  0.019599098   -4.5244159    1.3264722      1024000 
   35000   0.85370969   -4.4794031   -4.4794031   -3.1988411 -0.068305186   -4.4794031    1.2805619      1024000 
   36000   0.83339274   -4.4505415   -4.4505415    -3.200455  -0.10961431   -4.4505415    1.2500866      1024000 
   37000   0.82538386   -4.4388421   -4.4388421   -3.2007688  -0.10382475   -4.4388421    1.2380733      1024000 
   38000   0.82768755   -4.4433236   -4.4433236   -3.2017948 -0.088253641   -4.4433236    1.2415288      1024000 
   39000   0.83551307   -4.4559922   -4.4559922   -3.2027251 -0.056591783   -4.4559922    1.2532671      1024000 
   40000   0.84755253   -4.4748205   -4.4748205   -3.2034943 -0.010691677   -4.4748205    1.2713262      1024000 
   41000   0.86122459   -4.4960619   -4.4960619   -3.2042276   0.04566184   -4.4960619    1.2918343      1024000 
   42000    0.8737819   -4.5159688   -4.5159688   -3.2052987   0.10050646   -4.5159688    1.3106702      1024000 
   43000   0.88241477   -4.5297424   -4.5297424   -3.2061229   0.14324937   -4.5297424    1.3236195      1024000 
   44000   0.88556937   -4.5352867   -4.5352867   -3.2069354   0.17199576   -4.5352867    1.3283514      1024000 
   45000   0.88751345   -4.5390189   -4.5390189   -3.2077515   0.16822838   -4.5390189    1.3312675      1024000 
   46000   0.88104878   -4.5300507   -4.5300507   -3.2084802   0.15087864   -4.5300507    1.3215705      1024000 
   47000   0.87198225   -4.5173947   -4.5173947   -3.2094239   0.10215146   -4.5173947    1.3079707      1024000 
   48000   0.85987988   -4.4997193   -4.4997193   -3.2099021  0.054666261   -4.4997193    1.2898172      1024000 
   49000   0.84885506     -4.48394     -4.48394     -3.21066  0.012095743     -4.48394      1.27328      1024000 
   50000   0.83985595    -4.471895    -4.471895   -3.2121136 -0.011651707    -4.471895    1.2597814      1024000 
   51000   0.83705152    -4.468808    -4.468808   -3.2132333 -0.014977459    -4.468808    1.2555747      1024000 
   52000   0.83816385   -4.4715668   -4.4715668   -3.2143235 -0.0069814009   -4.4715668    1.2572432      1024000 
   53000   0.84338019   -4.4807459   -4.4807459   -3.2156782 0.0038812053   -4.4807459    1.2650677      1024000 
   54000   0.84989617   -4.4917737   -4.4917737   -3.2169321  0.037335539   -4.4917737    1.2748417      1024000 
   55000   0.85861796   -4.5067274   -4.5067274   -3.2188031  0.070784498   -4.5067274    1.2879243      1024000 
   56000   0.86859424   -4.5231825   -4.5231825   -3.2202938   0.11478482   -4.5231825    1.3028887      1024000 
   57000   0.87582137    -4.536221    -4.536221   -3.2224917   0.13510632    -4.536221    1.3137294      1024000 
   58000   0.87656228    -4.539524    -4.539524   -3.2246833   0.15173109    -4.539524    1.3148407      1024000 
   59000   0.87580674   -4.5405596   -4.5405596   -3.2268521   0.14307266   -4.5405596    1.3137074      1024000 
   60000     0.869243    -4.533832    -4.533832   -3.2299702   0.12668848    -4.533832    1.3038618      1024000 
   61000    0.8655999   -4.5307913   -4.5307913   -3.2323941    0.1047013   -4.5307913    1.2983972      1024000 
   62000   0.86293512   -4.5301602   -4.5301602   -3.2357601    0.1067778   -4.5301602    1.2944001      1024000 
   63000   0.86528879    -4.537703    -4.537703   -3.2397724   0.12745463    -4.537703    1.2979305      1024000 
   64000   0.86791879   -4.5462191   -4.5462191   -3.2443435   0.16292656   -4.5462191    1.3018755      1024000 
   65000   0.87359515   -4.5609997   -4.5609997   -3.2506096   0.19772992   -4.5609997    1.3103901      1024000 
   66000   0.88171532     -4.57986     -4.57986   -3.2572897   0.24593592     -4.57986    1.3225703      1024000 
   67000   0.88958607    -4.598687    -4.598687   -3.2643106   0.30890907    -4.598687    1.3343764      1024000 
   68000   0.89408282   -4.6145784   -4.6145784   -3.2734569   0.37355121   -4.6145784    1.3411215      1024000 
   69000   0.89319086   -4.6237006   -4.6237006   -3.2839171   0.39487159   -4.6237006    1.3397836      1024000 
   70000   0.88461058   -4.6198955   -4.6198955   -3.2929823   0.35669798   -4.6198955    1.3269132      1024000 
   71000   0.87272296   -4.6085051   -4.6085051   -3.2994233   0.33102609   -4.6085051    1.3090818      1024000 
   72000    0.8616621   -4.6114795   -4.6114795   -3.3189889   0.40812597   -4.6114795    1.2924905      1024000 
   73000   0.85086943   -4.6232518   -4.6232518   -3.3469502   0.47613967   -4.6232518    1.2763016      1024000 
   74000   0.84613253   -4.6424002   -4.6424002    -3.373204   0.49166944   -4.6424002    1.2691962      1024000 
   75000   0.84460923   -4.6626297   -4.6626297   -3.3957185   0.48392072   -4.6626297    1.2669113      1024000 
   76000   0.84809868   -4.6848327   -4.6848327   -3.4126872   0.46611225   -4.6848327    1.2721454      1024000 
   77000   0.85061165   -4.7010167   -4.7010167   -3.4251018   0.47701342   -4.7010167    1.2759149      1024000 
   78000   0.85412667   -4.7137131   -4.7137131   -3.4325257   0.49782262   -4.7137131    1.2811874      1024000 
   79000   0.85246131   -4.7170154   -4.7170154    -3.438326   0.47595796   -4.7170154    1.2786894      1024000 
   80000   0.83696025   -4.6972418   -4.6972418    -3.441804   0.36842502   -4.6972418    1.2554378      1024000 
   81000   0.81523827   -4.6674022   -4.6674022   -3.4445473   0.26100741   -4.6674022    1.2228549      1024000 
   82000   0.79529112   -4.6413123   -4.6413123    -3.448378   0.17292747   -4.6413123    1.1929343      1024000 
   83000   0.77686386   -4.6175921   -4.6175921   -3.4522987   0.11056768   -4.6175921    1.1652934      1024000 
   84000   0.76180801   -4.6000297   -4.6000297     -3.45732  0.054934404   -4.6000297    1.1427097      1024000 
   85000   0.74826916    -4.583075    -4.583075   -3.4606736 -0.0075619203    -4.583075    1.1224015      1024000 
   86000   0.73759782   -4.5687664   -4.5687664    -3.462372 -0.064132377   -4.5687664    1.1063945      1024000 
   87000    0.7277444   -4.5532928   -4.5532928   -3.4616785  -0.11604115   -4.5532928    1.0916144      1024000 
   88000   0.72060287   -4.5399539   -4.5399539   -3.4590518  -0.16605163   -4.5399539    1.0809021      1024000 
   89000   0.71518848   -4.5258654   -4.5258654   -3.4530848  -0.20050553   -4.5258654    1.0727805      1024000 
   90000   0.71022411   -4.5119186   -4.5119186   -3.4465846  -0.22027224   -4.5119186     1.065334      1024000 
   91000   0.70734049   -4.5010894   -4.5010894   -3.4400808   -0.2242551   -4.5010894    1.0610086      1024000 
   92000   0.70697295   -4.4942045   -4.4942045   -3.4337473  -0.22344168   -4.4942045    1.0604573      1024000 
   93000   0.70902512   -4.4917768   -4.4917768   -3.4282413  -0.21548261   -4.4917768    1.0635355      1024000 
   94000   0.71293418   -4.4932535   -4.4932535   -3.4238544  -0.19935029   -4.4932535    1.0693991      1024000 
   95000   0.71602345   -4.4953951   -4.4953951   -3.4213621   -0.1663194   -4.4953951     1.074033      1024000 
   96000   0.72352971   -4.5058698   -4.5058698   -3.4205775  -0.12839034   -4.5058698    1.0852924      1024000 
   97000   0.73135474   -4.5193696   -4.5193696   -3.4223398 -0.090197776   -4.5193696    1.0970299      1024000 
   98000   0.73628756   -4.5313648   -4.5313648   -3.4269357 -0.048217755   -4.5313648    1.1044291      1024000 
   99000   0.74341448   -4.5463961   -4.5463961   -3.4312766 -0.014942088   -4.5463961    1.1151195      1024000 
  100000   0.74891175   -4.5591847   -4.5591847   -3.4358193 0.0046048396   -4.5591847    1.1233653      1024000 
  101000   0.75186892   -4.5689097   -4.5689097   -3.4411086  0.012745733   -4.5689097    1.1278011      1024000 
  102000   0.75050121   -4.5705324   -4.5705324   -3.4447828  0.015317434   -4.5705324    1.1257495      1024000 
  103000   0.74887543   -4.5704235   -4.5704235   -3.4471126 0.0023459825   -4.5704235    1.1233109      1024000 
  104000   0.74586038   -4.5670902   -4.5670902   -3.4483019 -0.012028738   -4.5670902    1.1187883      1024000 
  105000   0.74211545   -4.5625521   -4.5625521   -3.4493812 -0.029299409   -4.5625521    1.1131709      1024000 
  106000    0.7381166    -4.557501    -4.557501   -3.4503284 -0.041545765    -4.557501    1.1071726      1024000 
  107000    0.7363738   -4.5560337   -4.5560337   -3.4514753 -0.045557404   -4.5560337    1.1045585      1024000 
  108000   0.73629079   -4.5567493   -4.5567493   -3.4523154 -0.044772478   -4.5567493    1.1044339      1024000 
  109000    0.7372528    -4.559356    -4.559356   -3.4534791 -0.038297356    -4.559356     1.105877      1024000 
  110000   0.73955956   -4.5637164   -4.5637164   -3.4543793 -0.022761142   -4.5637164    1.1093371      1024000 
  111000   0.74177849   -4.5700633   -4.5700633   -3.4573978 -0.018593452   -4.5700633    1.1126655      1024000 
  112000   0.74354017   -4.5741084   -4.5741084   -3.4588004 -0.0078802227   -4.5741084     1.115308      1024000 
  113000   0.74496063   -4.5782949   -4.5782949   -3.4608562 -0.0069743423   -4.5782949    1.1174387      1024000 
  114000   0.74576254   -4.5801816   -4.5801816     -3.46154 -0.0065649053   -4.5801816    1.1186415      1024000 
  115000   0.74626053   -4.5819831   -4.5819831   -3.4625946 -0.0051219075   -4.5819831    1.1193885      1024000 
  116000   0.74475125   -4.5805587   -4.5805587   -3.4634341 -0.0064386124   -4.5805587    1.1171246      1024000 
  117000   0.74455166    -4.580923    -4.580923   -3.4640978 -0.0085060745    -4.580923    1.1168252      1024000 
  118000   0.74326934   -4.5799404   -4.5799404   -3.4650387 -0.0089166774   -4.5799404    1.1149018      1024000 
  119000   0.74292074   -4.5801879   -4.5801879    -3.465809 -0.011669119   -4.5801879    1.1143789      1024000 
  120000   0.74443765   -4.5831661   -4.5831661   -3.4665119 -0.011886942   -4.5831661    1.1166542      1024000 
  121000   0.74429179   -4.5838644   -4.5838644    -3.467429 -0.0069577092   -4.5838644    1.1164354      1024000 
  122000   0.74536925   -4.5856429   -4.5856429   -3.4675912 -0.0027773828   -4.5856429    1.1180516      1024000 
  123000   0.74641749   -4.5879669   -4.5879669   -3.4683429 -0.0057015023   -4.5879669     1.119624      1024000 
  124000   0.74660041   -4.5894751   -4.5894751   -3.4695767 0.0012805261   -4.5894751    1.1198983      1024000 
  125000   0.74794016    -4.592073    -4.592073    -3.470165 -0.0038842291    -4.592073     1.121908      1024000 
  126000   0.74814783   -4.5925268   -4.5925268   -3.4703073 0.0045474339   -4.5925268    1.1222195      1024000 
  127000   0.74766154   -4.5926032   -4.5926032   -3.4711132 0.0067468877   -4.5926032      1.12149      1024000 
  128000    0.7477212   -4.5929165   -4.5929165    -3.471337 0.0057731981   -4.5929165    1.1215795      1024000 
  129000   0.74710006   -4.5926071   -4.5926071   -3.4719593  0.006984697   -4.5926071    1.1206478      1024000 
  130000   0.74706112   -4.5929791   -4.5929791   -3.4723897 0.0046042185   -4.5929791    1.1205894      1024000 
  131000   0.74726623   -4.5943026   -4.5943026   -3.4734055 0.0070569486   -4.5943026    1.1208971      1024000 
  132000   0.74501852    -4.592356    -4.592356   -3.4748305  0.010825829    -4.592356    1.1175255      1024000 
  133000   0.74671055    -4.595889    -4.595889   -3.4758254  0.012594328    -4.595889    1.1200636      1024000 
  134000   0.74823381   -4.5985198   -4.5985198   -3.4761714  0.010473646   -4.5985198    1.1223484      1024000 
  135000   0.74776772   -4.5981646   -4.5981646   -3.4765153  0.011482998   -4.5981646    1.1216493      1024000 
  136000   0.74856084   -4.6004677   -4.6004677   -3.4776287  0.007982185   -4.6004677     1.122839      1024000 
  137000   0.74751054   -4.5987942   -4.5987942   -3.4775307  0.011741726   -4.5987942    1.1212635      1024000 
  138000   0.74765194   -4.5999735   -4.5999735   -3.4784979  0.014024914   -4.5999735    1.1214756      1024000 
  139000   0.74755127    -4.600565    -4.600565   -3.4792404 0.0071265956    -4.600565    1.1213246      1024000 
  140000   0.74874372   -4.6014995   -4.6014995   -3.4783862 0.0065822305   -4.6014995    1.1231133      1024000 
  141000   0.74827966   -4.6016975   -4.6016975   -3.4792802 0.0066661651   -4.6016975    1.1224172      1024000 
  142000   0.74690987   -4.6006856   -4.6006856    -3.480323 0.0073396043   -4.6006856    1.1203625      1024000 
  143000   0.74803046   -4.6019851   -4.6019851   -3.4799417 0.0072409526   -4.6019851    1.1220434      1024000 
  144000   0.74791534   -4.6025483   -4.6025483   -3.4806776 0.0081930947   -4.6025483    1.1218707      1024000 
  145000   0.74952132   -4.6049836   -4.6049836   -3.4807039 0.0061048115   -4.6049836    1.1242797      1024000 
  146000    0.7501755   -4.6063095   -4.6063095   -3.4810486 0.0087364398   -4.6063095     1.125261      1024000 
  147000    0.7494314   -4.6050688   -4.6050688    -3.480924  0.016452832   -4.6050688    1.1241448      1024000 
  148000   0.75054931   -4.6070479   -4.6070479   -3.4812262  0.016876249   -4.6070479    1.1258217      1024000 
  149000   0.75080019   -4.6078621   -4.6078621   -3.4816641  0.025291955   -4.6078621     1.126198      1024000 
  150000   0.75074523   -4.6083206   -4.6083206   -3.4822051  0.023112284   -4.6083206    1.1261156      1024000 
  151000   0.75169822    -4.609724    -4.609724   -3.4821789  0.019773557    -4.609724     1.127545      1024000 
  152000    0.7522263   -4.6103615   -4.6103615   -3.4820244  0.022685964   -4.6103615    1.1283372      1024000 
  153000   0.75183419   -4.6101432   -4.6101432   -3.4823942  0.025653088   -4.6101432     1.127749      1024000 
  154000   0.75245175   -4.6112476   -4.6112476   -3.4825722  0.029005653   -4.6112476    1.1286753      1024000 
  155000   0.75311757   -4.6123293   -4.6123293   -3.4826552  0.026623014   -4.6123293    1.1296741      1024000 
  156000   0.75295587   -4.6126172   -4.6126172   -3.4831857  0.031556299   -4.6126172    1.1294315      1024000 
  157000   0.75257707   -4.6127429   -4.6127429   -3.4838796  0.033033262   -4.6127429    1.1288633      1024000 
  158000   0.75368036   -4.6152574   -4.6152574   -3.4847392  0.035760644   -4.6152574    1.1305182      1024000 
  159000   0.75493818   -4.6174561   -4.6174561   -3.4850511  0.037930841   -4.6174561     1.132405      1024000 
  160000   0.75496923   -4.6181825   -4.6181825    -3.485731  0.043698391   -4.6181825    1.1324515      1024000 
  161000    0.7554193   -4.6187802   -4.6187802   -3.4856536  0.049676751   -4.6187802    1.1331267      1024000 
  162000   0.75726602   -4.6218167   -4.6218167     -3.48592  0.049496364   -4.6218167    1.1358967      1024000 
  163000   0.75618471   -4.6212269   -4.6212269   -3.4869522  0.052821175   -4.6212269    1.1342748      1024000 
  164000   0.75629336   -4.6216859   -4.6216859   -3.4872482  0.050184508   -4.6216859    1.1344377      1024000 
  165000   0.75547307   -4.6218207   -4.6218207   -3.4886134  0.052527195   -4.6218207    1.1332073      1024000 
  166000   0.75472961   -4.6212635   -4.6212635   -3.4891714  0.052414978   -4.6212635    1.1320921      1024000 
  167000   0.75426117   -4.6202319   -4.6202319   -3.4888424  0.050449365   -4.6202319    1.1313895      1024000 
  168000   0.75367158   -4.6191574   -4.6191574   -3.4886524  0.047076023   -4.6191574    1.1305051      1024000 
  169000   0.75369356   -4.6198378   -4.6198378   -3.4892997  0.038988588   -4.6198378     1.130538      1024000 
  170000   0.75259928   -4.6188216   -4.6188216   -3.4899249  0.036182505   -4.6188216    1.1288966      1024000 
  171000   0.75220061   -4.6172688   -4.6172688   -3.4889701  0.030935541   -4.6172688    1.1282986      1024000 
  172000   0.75046341    -4.614753    -4.614753   -3.4890601  0.025766889    -4.614753    1.1256928      1024000 
  173000   0.74920805    -4.612311    -4.612311   -3.4885013  0.022170484    -4.612311    1.1238098      1024000 
  174000   0.74817912   -4.6101621   -4.6101621   -3.4878957  0.011737601   -4.6101621    1.1222664      1024000 
  175000   0.74735957   -4.6073664   -4.6073664   -3.4863294  0.011220312   -4.6073664    1.1210371      1024000 
  176000   0.74680428   -4.6059885   -4.6059885   -3.4857843 0.0037205121   -4.6059885    1.1202042      1024000 
  177000    0.7463509   -4.6050712   -4.6050712   -3.4855472 -0.0046779264   -4.6050712    1.1195241      1024000 
  178000   0.74532192   -4.6023461   -4.6023461   -3.4843654 -0.0080319558   -4.6023461    1.1179806      1024000 
  179000   0.74415111   -4.6001218   -4.6001218   -3.4838974 -0.012816667   -4.6001218    1.1162244      1024000 
  180000   0.74269635   -4.5968216   -4.5968216   -3.4827794 -0.013732294   -4.5968216    1.1140423      1024000 
  181000   0.74308486   -4.5965537   -4.5965537   -3.4819287 -0.015389466   -4.5965537     1.114625      1024000 
  182000   0.74479386   -4.5965802   -4.5965802   -3.4793917  -0.01802074   -4.5965802    1.1171885      1024000 
  183000   0.74370852   -4.5933886   -4.5933886   -3.4778281 -0.015790545   -4.5933886    1.1155605      1024000 
  184000   0.74558751   -4.5955819   -4.5955819    -3.477203 -0.014882425   -4.5955819     1.118379      1024000 
  185000   0.74529041    -4.594254    -4.594254   -3.4763207 -0.013233788    -4.594254    1.1179333      1024000 
  186000    0.7455896   -4.5935318   -4.5935318   -3.4751497 -0.0086620263   -4.5935318    1.1183821      1024000 
  187000   0.74613516   -4.5936122   -4.5936122   -3.4744117 -0.0016305525   -4.5936122    1.1192005      1024000 
  188000   0.74783972   -4.5956486   -4.5956486   -3.4738913 -0.00019201201   -4.5956486    1.1217573      1024000 
  189000   0.74926122    -4.597511    -4.597511   -3.4736215 -0.0028723437    -4.597511    1.1238895      1024000 
  190000   0.74997317   -4.5973953   -4.5973953   -3.4724378 0.0017472911   -4.5973953    1.1249575      1024000 
  191000   0.75073936   -4.5986568   -4.5986568   -3.4725501 0.0054761075   -4.5986568    1.1261068      1024000 
  192000   0.75076851    -4.598305    -4.598305   -3.4721545  0.012733686    -4.598305    1.1261505      1024000 
  193000   0.75175285   -4.5999368   -4.5999368   -3.4723098 0.0087077807   -4.5999368     1.127627      1024000 
  194000   0.75207238   -4.5999403   -4.5999403    -3.471834   0.01804569   -4.5999403    1.1281063      1024000 
  195000   0.75252622   -4.6001083   -4.6001083   -3.4713212  0.021986601   -4.6001083     1.128787      1024000 
  196000   0.75323078   -4.6012121   -4.6012121   -3.4713683  0.032491593   -4.6012121    1.1298439      1024000 
  197000   0.75409038   -4.6029893   -4.6029893    -3.471856  0.029797623   -4.6029893    1.1311333      1024000 
  198000   0.75484356   -4.6045809   -4.6045809   -3.4723179  0.026354197   -4.6045809     1.132263      1024000 
  199000   0.75602331   -4.6062432   -4.6062432   -3.4722105   0.02838902   -4.6062432    1.1340327      1024000 
  200000   0.75550383   -4.6054963   -4.6054963   -3.4722428  0.030583532   -4.6054963    1.1332534      1024000 
  201000   0.75513627   -4.6048705   -4.6048705   -3.4721684  0.033289958   -4.6048705    1.1327021      1024000 
  202000    0.7545793   -4.6045188   -4.6045188   -3.4726522  0.031799282   -4.6045188    1.1318667      1024000 
  203000   0.75495359   -4.6048965   -4.6048965   -3.4724684  0.029769659   -4.6048965    1.1324281      1024000 
  204000   0.75445912   -4.6035725   -4.6035725   -3.4718861  0.025616623   -4.6035725    1.1316864      1024000 
  205000   0.75428961   -4.6028387   -4.6028387   -3.4714065     0.026543   -4.6028387    1.1314321      1024000 
  206000   0.75386522   -4.6013917   -4.6013917   -3.4705962  0.022406364   -4.6013917    1.1307955      1024000 
  207000   0.75362508   -4.6011699   -4.6011699   -3.4707345   0.01920952   -4.6011699    1.1304353      1024000 
  208000   0.75295893    -4.599909    -4.599909   -3.4704729  0.019988228    -4.599909    1.1294361      1024000 
  209000    0.7530459   -4.5987961   -4.5987961   -3.4692296  0.015201968   -4.5987961    1.1295666      1024000 
  210000   0.75237766   -4.5963366   -4.5963366   -3.4677724  0.013809594   -4.5963366    1.1285642      1024000 
  211000   0.75211071   -4.5952977   -4.5952977   -3.4671339  0.014896036   -4.5952977    1.1281638      1024000 
  212000   0.75207956   -4.5947376   -4.5947376   -3.4666205  0.013619506   -4.5947376    1.1281171      1024000 
  213000   0.75156288    -4.593516    -4.593516   -3.4661739 0.0026105469    -4.593516     1.127342      1024000 
  214000   0.75163033   -4.5925161   -4.5925161   -3.4650729 0.00066516164   -4.5925161    1.1274432      1024000 
  215000   0.75115109   -4.5909407   -4.5909407   -3.4642163 0.00020565716   -4.5909407    1.1267244      1024000 
  216000   0.75035831   -4.5883458   -4.5883458   -3.4628106 0.0085850551   -4.5883458    1.1255352      1024000 
  217000   0.74980631   -4.5872462   -4.5872462    -3.462539 0.0004934679   -4.5872462    1.1247072      1024000 
  218000   0.75107898   -4.5878922   -4.5878922    -3.461276 -0.0039183608   -4.5878922    1.1266162      1024000 
  219000   0.75084022   -4.5863966   -4.5863966   -3.4601385 -0.0045858616   -4.5863966    1.1262581      1024000 
  220000   0.75051783    -4.585411    -4.585411   -3.4596366 -0.00082737392    -4.585411    1.1257745      1024000 
  221000   0.75034821   -4.5847591   -4.5847591   -3.4592391 -0.0021383082   -4.5847591      1.12552      1024000 
  222000   0.75134645   -4.5838616   -4.5838616   -3.4568442 -0.0028448332   -4.5838616    1.1270174      1024000 
  223000   0.75148946   -4.5837356   -4.5837356   -3.4565037  0.003997859   -4.5837356    1.1272319      1024000 
  224000   0.75245921   -4.5844017   -4.5844017   -3.4557152 0.0068501491   -4.5844017    1.1286865      1024000 
  225000   0.75321203   -4.5839349   -4.5839349   -3.4541191 0.0068622211   -4.5839349    1.1298158      1024000 
  226000   0.75242618   -4.5821105   -4.5821105   -3.4534735  0.011161694   -4.5821105     1.128637      1024000 
  227000   0.75358783    -4.583359    -4.583359   -3.4529796  0.011087459    -4.583359    1.1303794      1024000 
  228000   0.75496547   -4.5843872   -4.5843872   -3.4519413 0.0098507238   -4.5843872    1.1324459      1024000 
  229000   0.75451978   -4.5822061   -4.5822061   -3.4504287   0.01208788   -4.5822061    1.1317774      1024000 
  230000   0.75589356   -4.5842135   -4.5842135   -3.4503755  0.010237175   -4.5842135     1.133838      1024000 
  231000   0.75520532   -4.5824306   -4.5824306   -3.4496249  0.022845144   -4.5824306    1.1328057      1024000 
  232000   0.75588797   -4.5826981   -4.5826981   -3.4488684  0.021961959   -4.5826981    1.1338296      1024000 
  233000   0.75670599   -4.5839566   -4.5839566   -3.4488999  0.016182802   -4.5839566    1.1350567      1024000 
  234000   0.75654858   -4.5840891   -4.5840891   -3.4492685  0.016263502   -4.5840891    1.1348206      1024000 
  235000   0.75735283   -4.5842601   -4.5842601   -3.4482331  0.018112096   -4.5842601    1.1360269      1024000 
  236000   0.75682942   -4.5831263   -4.5831263   -3.4478845  0.016472269   -4.5831263    1.1352418      1024000 
  237000    0.7566037   -4.5830134   -4.5830134   -3.4481101   0.02481824   -4.5830134    1.1349033      1024000 
  238000   0.75658235   -4.5824836   -4.5824836   -3.4476124  0.017110247   -4.5824836    1.1348712      1024000 
  239000    0.7568274   -4.5811816   -4.5811816   -3.4459428  0.017830194   -4.5811816    1.1352388      1024000 
  240000   0.75747738   -4.5815355   -4.5815355   -3.4453217   0.01964727   -4.5815355    1.1362138      1024000 
  241000   0.75727862   -4.5801928   -4.5801928   -3.4442772  0.019925171   -4.5801928    1.1359156      1024000 
  242000   0.75721691    -4.580574    -4.580574    -3.444751  0.015352794    -4.580574    1.1358231      1024000 
  243000   0.75758528    -4.580053    -4.580053   -3.4436774  0.014035336    -4.580053    1.1363756      1024000 
  244000   0.75698404   -4.5772398   -4.5772398   -3.4417661  0.018013987   -4.5772398    1.1354738      1024000 
  245000   0.75753536   -4.5770862   -4.5770862   -3.4407855  0.012494551   -4.5770862    1.1363007      1024000 
  246000   0.75699133     -4.57439     -4.57439   -3.4389053  0.024203487     -4.57439    1.1354847      1024000 
  247000   0.75733604   -4.5745393   -4.5745393   -3.4385376  0.016719513   -4.5745393    1.1360018      1024000 
  248000   0.75789856   -4.5747516   -4.5747516   -3.4379061  0.011598605   -4.5747516    1.1368455      1024000 
  249000   0.75731308   -4.5732533   -4.5732533    -3.437286  0.010188239   -4.5732533    1.1359673      1024000 
  250000   0.75693193   -4.5710324   -4.5710324   -3.4356369  0.015168195   -4.5710324    1.1353956      1024000 
  251000   0.75730092   -4.5705265   -4.5705265   -3.4345774  0.012766285   -4.5705265    1.1359491      1024000 
  252000   0.75769761   -4.5702167   -4.5702167   -3.4336726  0.010882505   -4.5702167    1.1365441      1024000 
  253000    0.7573538   -4.5690761   -4.5690761   -3.4330477 0.0083441112   -4.5690761    1.1360284      1024000 
  254000    0.7570807   -4.5675961   -4.5675961   -3.4319773   0.01047793   -4.5675961    1.1356187      1024000 
  255000   0.75729321   -4.5666057   -4.5666057   -3.4306682 0.0089386586   -4.5666057    1.1359375      1024000 
  256000   0.75785974   -4.5665398   -4.5665398   -3.4297525 0.0065919224   -4.5665398    1.1367873      1024000 
  257000   0.75826995   -4.5653872   -4.5653872   -3.4279846  0.010439193   -4.5653872    1.1374026      1024000 
  258000   0.75828282    -4.564237    -4.564237    -3.426815  0.011809428    -4.564237    1.1374219      1024000 
  259000   0.75891433   -4.5634684   -4.5634684   -3.4250992 0.0099259441   -4.5634684    1.1383692      1024000 
  260000   0.75804319   -4.5619184   -4.5619184   -3.4248559  0.010988965   -4.5619184    1.1370625      1024000 
  261000   0.75842455   -4.5619304   -4.5619304   -3.4242959  0.009040228   -4.5619304    1.1376345      1024000 
  262000    0.7597879   -4.5628993   -4.5628993   -3.4232198 0.0097279774   -4.5628993    1.1396795      1024000 
  263000    0.7599457   -4.5613053   -4.5613053   -3.4213891  0.013321685   -4.5613053    1.1399162      1024000 
  264000   0.75956347   -4.5604641   -4.5604641   -3.4211212 0.0089269063   -4.5604641    1.1393429      1024000 
  265000   0.76005448    -4.560616    -4.560616   -3.4205366 0.0074837644    -4.560616    1.1400794      1024000 
  266000   0.75957528   -4.5582962   -4.5582962   -3.4189356  0.014327859   -4.5582962    1.1393606      1024000 
  267000     0.760739   -4.5593585   -4.5593585   -3.4182523  0.014840315   -4.5593585    1.1411062      1024000 
  268000   0.76061884   -4.5580348   -4.5580348   -3.4171088  0.015731292   -4.5580348     1.140926      1024000 
  269000   0.76161894   -4.5583074   -4.5583074   -3.4158813   0.01682648   -4.5583074    1.1424261      1024000 
  270000   0.76239704   -4.5583565   -4.5583565   -3.4147633  0.016180127   -4.5583565    1.1435932      1024000 
  271000   0.76132544   -4.5557681   -4.5557681   -3.4137822  0.019592133   -4.5557681    1.1419858      1024000 
  272000   0.76325577   -4.5567268   -4.5567268   -3.4118455  0.020510745   -4.5567268    1.1448813      1024000 
  273000   0.76295146    -4.555914    -4.555914   -3.4114891  0.019958128    -4.555914    1.1444249      1024000 
  274000   0.76357618    -4.555153    -4.555153   -3.4097911  0.018641001    -4.555153    1.1453619      1024000 
  275000   0.76376825   -4.5542312   -4.5542312   -3.4085811   0.01781278   -4.5542312    1.1456501      1024000 
  276000   0.76253714   -4.5517394   -4.5517394    -3.407936  0.022288136   -4.5517394    1.1438034      1024000 
  277000   0.76286552   -4.5499997   -4.5499997   -3.4057038  0.022046905   -4.5499997     1.144296      1024000 
  278000   0.76347351   -4.5509282   -4.5509282   -3.4057203  0.019816811   -4.5509282    1.1452079      1024000 
  279000   0.76291497   -4.5490072   -4.5490072   -3.4046371  0.014586996   -4.5490072    1.1443701      1024000 
  280000   0.76356772   -4.5485344   -4.5485344   -3.4031852  0.015496891   -4.5485344    1.1453493      1024000 
  281000   0.76342271   -4.5478147   -4.5478147   -3.4026829  0.016898558   -4.5478147    1.1451317      1024000 
  282000   0.76339607   -4.5466154   -4.5466154   -3.4015237  0.015235638   -4.5466154    1.1450918      1024000 
  283000   0.76350157   -4.5459978   -4.5459978   -3.4007478  0.015744725   -4.5459978      1.14525      1024000 
  284000   0.76333428   -4.5437827   -4.5437827   -3.3987836  0.015154953   -4.5437827    1.1449991      1024000 
  285000   0.76389304    -4.543307    -4.543307   -3.3974698  0.013991228    -4.543307    1.1458372      1024000 
  286000   0.76379712   -4.5420207   -4.5420207   -3.3963274  0.013931759   -4.5420207    1.1456934      1024000 
  287000   0.76300862   -4.5399293   -4.5399293   -3.3954187  0.011684946   -4.5399293    1.1445106      1024000 
  288000   0.76389876   -4.5402973   -4.5402973   -3.3944515 0.0071317158   -4.5402973    1.1458458      1024000 
  289000   0.76499262   -4.5398126   -4.5398126    -3.392326 0.0079372338   -4.5398126    1.1474866      1024000 
  290000   0.76558864   -4.5397021   -4.5397021   -3.3913214 0.0044332155   -4.5397021    1.1483806      1024000 
  291000   0.76401243   -4.5366014   -4.5366014   -3.3905851 0.0052535491   -4.5366014    1.1460163      1024000 
  292000   0.76467395   -4.5362557   -4.5362557   -3.3892471 0.0057262947   -4.5362557    1.1470086      1024000 
  293000   0.76537114   -4.5363249   -4.5363249   -3.3882706 0.0046973219   -4.5363249    1.1480544      1024000 
  294000   0.76447603   -4.5335349   -4.5335349   -3.3868232 0.0095424762   -4.5335349    1.1467117      1024000 
  295000    0.7655829   -4.5340027   -4.5340027   -3.3856307 0.0057439102   -4.5340027     1.148372      1024000 
  296000   0.76567681   -4.5326084   -4.5326084   -3.3840955  0.010103486   -4.5326084    1.1485129      1024000 
  297000   0.76627748   -4.5318153   -4.5318153   -3.3824014  0.010182572   -4.5318153    1.1494139      1024000 
  298000   0.76701148   -4.5311943   -4.5311943   -3.3806794  0.011005119   -4.5311943    1.1505149      1024000 
  299000   0.76717893   -4.5294374   -4.5294374   -3.3786713   0.01330918   -4.5294374    1.1507661      1024000 
  300000   0.76630038   -4.5276121   -4.5276121   -3.3781638  0.012939826   -4.5276121    1.1494482      1024000 
  301000   0.76860888   -4.5300574   -4.5300574   -3.3771464 0.0097566753   -4.5300574     1.152911      1024000 
  302000    0.7686514    -4.528663    -4.528663   -3.3756883  0.016856179    -4.528663    1.1529748      1024000 
  303000   0.76840847   -4.5273666   -4.5273666   -3.3747562  0.015025763   -4.5273666    1.1526104      1024000 
  304000   0.76872128   -4.5261635   -4.5261635   -3.3730839  0.013340131   -4.5261635    1.1530796      1024000 
  305000   0.76816523   -4.5245515   -4.5245515    -3.372306   0.01750772   -4.5245515    1.1522455      1024000 
  306000   0.77016885   -4.5272005   -4.5272005   -3.3719495  0.016936657   -4.5272005    1.1552509      1024000 
  307000   0.76944521   -4.5246395   -4.5246395    -3.370474  0.020050983   -4.5246395    1.1541655      1024000 
  308000   0.76967492   -4.5236302   -4.5236302   -3.3691202  0.012064842   -4.5236302      1.15451      1024000 
  309000   0.76972952   -4.5227038   -4.5227038   -3.3681119  0.016190569   -4.5227038    1.1545919      1024000 
  310000   0.77084423   -4.5228067   -4.5228067   -3.3665427  0.010169933   -4.5228067     1.156264      1024000 
  311000   0.77102446   -4.5216304   -4.5216304    -3.365096  0.015479836   -4.5216304    1.1565343      1024000 
  312000   0.77133402   -4.5209782   -4.5209782   -3.3639795  0.013715108   -4.5209782    1.1569987      1024000 
  313000   0.77102818   -4.5195009   -4.5195009    -3.362961  0.020828442   -4.5195009    1.1565399      1024000 
  314000   0.77157218   -4.5190425   -4.5190425   -3.3616866  0.015925206   -4.5190425    1.1573559      1024000 
  315000   0.77072684   -4.5167842   -4.5167842   -3.3606963  0.016558961   -4.5167842    1.1560879      1024000 
  316000   0.77238784   -4.5168076   -4.5168076   -3.3582281  0.016127651   -4.5168076    1.1585794      1024000 
  317000   0.77255694   -4.5152955   -4.5152955   -3.3564624  0.015573496   -4.5152955    1.1588331      1024000 
  318000   0.77187244   -4.5143566   -4.5143566   -3.3565503  0.015141248   -4.5143566    1.1578063      1024000 
  319000   0.77351615   -4.5148363   -4.5148363   -3.3545644  0.010691238   -4.5148363    1.1602719      1024000 
  320000   0.77162779   -4.5106725   -4.5106725   -3.3532331  0.018859593   -4.5106725    1.1574393      1024000 
  321000    0.7725229   -4.5105811   -4.5105811   -3.3517991   0.01711527   -4.5105811     1.158782      1024000 
  322000   0.77242944    -4.509306    -4.509306   -3.3506642  0.013193486    -4.509306    1.1586418      1024000 
  323000   0.77274202   -4.5080948   -4.5080948   -3.3489841   0.01448483   -4.5080948    1.1591107      1024000 
  324000   0.77169982    -4.505606    -4.505606   -3.3480586  0.015010673    -4.505606    1.1575474      1024000 
  325000   0.77210157   -4.5045802   -4.5045802   -3.3464302  0.012669503   -4.5045802      1.15815      1024000 
  326000   0.77219979   -4.5031949   -4.5031949   -3.3448975  0.012988751   -4.5031949    1.1582973      1024000 
  327000   0.77316958   -4.5028691   -4.5028691   -3.3431171  0.009115106   -4.5028691     1.159752      1024000 
  328000    0.7730552   -4.5011995   -4.5011995    -3.341619   0.01366085   -4.5011995    1.1595804      1024000 
  329000   0.77426497   -4.5017045   -4.5017045   -3.3403094   0.01099411   -4.5017045    1.1613951      1024000 
  330000   0.77524863   -4.5016269   -4.5016269   -3.3387563 0.0066054559   -4.5016269    1.1628706      1024000 
  331000   0.77409241   -4.4984176   -4.4984176   -3.3372814  0.010810472   -4.4984176    1.1611363      1024000 
  332000   0.77329418   -4.4953105   -4.4953105   -3.3353715  0.016210603   -4.4953105    1.1599389      1024000 
  333000   0.77463405   -4.4959312   -4.4959312   -3.3339824  0.010512788   -4.4959312    1.1619487      1024000 
  334000   0.77515122   -4.4958307   -4.4958307   -3.3331062 0.0078503118   -4.4958307    1.1627245      1024000 
  335000   0.77573645    -4.495256    -4.495256   -3.3316536 0.0068792059    -4.495256    1.1636023      1024000 
  336000   0.77596822   -4.4938708   -4.4938708   -3.3299209  0.011166303   -4.4938708      1.16395      1024000 
  337000   0.77653126   -4.4934206   -4.4934206   -3.3286261 0.0090864016   -4.4934206    1.1647945      1024000 
  338000   0.77641854    -4.491801    -4.491801   -3.3271755  0.011081233    -4.491801    1.1646255      1024000 
  339000   0.77757419   -4.4917117   -4.4917117   -3.3253528  0.012652051   -4.4917117    1.1663589      1024000 
  340000   0.77728442   -4.4903239   -4.4903239   -3.3243997  0.013620115   -4.4903239    1.1659243      1024000 
  341000   0.77739624   -4.4889905   -4.4889905   -3.3228985  0.012873502   -4.4889905     1.166092      1024000 
  342000   0.77672674   -4.4866814   -4.4866814   -3.3215937  0.014762521   -4.4866814    1.1650877      1024000 
  343000   0.77786284   -4.4863033   -4.4863033   -3.3195114  0.015102788   -4.4863033    1.1667919      1024000 
  344000   0.77843899    -4.485689    -4.485689   -3.3180328  0.012819594    -4.485689    1.1676561      1024000 
  345000   0.77771296   -4.4838996   -4.4838996   -3.3173326  0.014677596   -4.4838996    1.1665671      1024000 
  346000   0.77836193   -4.4834834   -4.4834834   -3.3159428  0.013277636   -4.4834834    1.1675405      1024000 
  347000   0.77878959   -4.4824702   -4.4824702   -3.3142882  0.013078616   -4.4824702     1.168182      1024000 
  348000   0.77866605   -4.4806687   -4.4806687    -3.312672  0.014777526   -4.4806687    1.1679967      1024000 
  349000   0.77897785   -4.4803764   -4.4803764    -3.311912  0.018010305   -4.4803764    1.1684644      1024000 
  350000     0.779186   -4.4799842   -4.4799842   -3.3112076  0.013633507   -4.4799842    1.1687766      1024000 
  351000   0.77846843   -4.4772921   -4.4772921   -3.3095918  0.015844791   -4.4772921    1.1677003      1024000 
  352000   0.77974048   -4.4777796   -4.4777796   -3.3081712  0.010749588   -4.4777796    1.1696083      1024000 
  353000    0.7798582   -4.4768622   -4.4768622   -3.3070773   0.01494273   -4.4768622    1.1697849      1024000 
  354000   0.77896386   -4.4736806   -4.4736806   -3.3052372  0.015069999   -4.4736806    1.1684434      1024000 
  355000   0.78058878   -4.4754616   -4.4754616   -3.3045809  0.012929501   -4.4754616    1.1708808      1024000 
  356000   0.77982278   -4.4720978   -4.4720978    -3.302366  0.015068211   -4.4720978    1.1697318      1024000 
  357000    0.7809239   -4.4719667   -4.4719667   -3.3005833  0.016058597   -4.4719667    1.1713835      1024000 
  358000   0.78038532   -4.4701293   -4.4701293   -3.2995537  0.018228309   -4.4701293    1.1705756      1024000 
  359000   0.78121289   -4.4695687   -4.4695687   -3.2977518  0.015501689   -4.4695687     1.171817      1024000 
  360000   0.78193497    -4.468708    -4.468708   -3.2958079  0.018804792    -4.468708    1.1729001      1024000 
  361000   0.78240071   -4.4681339   -4.4681339   -3.2945352  0.023934372   -4.4681339    1.1735987      1024000 
  362000   0.78338533    -4.468372    -4.468372   -3.2932963  0.017188826    -4.468372    1.1750756      1024000 
  363000   0.78252457   -4.4662711   -4.4662711   -3.2924867  0.015927913   -4.4662711    1.1737845      1024000 
  364000   0.78293794   -4.4639754   -4.4639754   -3.2895709  0.013927314   -4.4639754    1.1744045      1024000 
  365000   0.78328478   -4.4631241   -4.4631241   -3.2881993  0.016363371   -4.4631241    1.1749248      1024000 
  366000   0.78379436   -4.4617608   -4.4617608   -3.2860717  0.016675453   -4.4617608    1.1756892      1024000 
  367000   0.78440047   -4.4620423   -4.4620423    -3.285444  0.010405999   -4.4620423    1.1765983      1024000 
  368000   0.78336553   -4.4594591   -4.4594591   -3.2844132  0.011457136   -4.4594591    1.1750459      1024000 
  369000   0.78347313   -4.4582524   -4.4582524   -3.2830451  0.012990184   -4.4582524    1.1752073      1024000 
  370000   0.78442576   -4.4581947   -4.4581947   -3.2815584  0.015661325   -4.4581947    1.1766363      1024000 
  371000   0.78515337   -4.4570412   -4.4570412   -3.2793135  0.012937828   -4.4570412    1.1777277      1024000 
  372000   0.78491967   -4.4549608   -4.4549608   -3.2775837  0.016735395   -4.4549608    1.1773771      1024000 
  373000   0.78579547   -4.4543555   -4.4543555   -3.2756647  0.012507562   -4.4543555    1.1786908      1024000 
  374000   0.78515178   -4.4517884   -4.4517884   -3.2740631   0.01702647   -4.4517884    1.1777253      1024000 
  375000   0.78593538   -4.4516985   -4.4516985   -3.2727978  0.013833477   -4.4516985    1.1789007      1024000 
  376000   0.78561649   -4.4500959   -4.4500959   -3.2716736     0.015483   -4.4500959    1.1784224      1024000 
  377000   0.78608122   -4.4481318   -4.4481318   -3.2690124  0.016026585   -4.4481318    1.1791194      1024000 
  378000   0.78693013   -4.4475555   -4.4475555   -3.2671627  0.017352771   -4.4475555    1.1803928      1024000 
  379000   0.78640754   -4.4446652   -4.4446652   -3.2650563  0.018098764   -4.4446652    1.1796089      1024000 
  380000   0.78684752   -4.4435394   -4.4435394   -3.2632705  0.015448514   -4.4435394    1.1802689      1024000 
  381000   0.78837066   -4.4440195   -4.4440195   -3.2614659   0.01117204   -4.4440195    1.1825536      1024000 
  382000   0.78750872   -4.4408902   -4.4408902   -3.2596295  0.011624507   -4.4408902    1.1812607      1024000 
  383000   0.78859355   -4.4411497   -4.4411497   -3.2582617  0.007851005   -4.4411497    1.1828879      1024000 
  384000   0.78829699   -4.4394734   -4.4394734   -3.2570303  0.010091909   -4.4394734    1.1824431      1024000 
  385000   0.78792522   -4.4376444   -4.4376444    -3.255759  0.011739392   -4.4376444    1.1818854      1024000 
  386000   0.78744907    -4.434914    -4.434914   -3.2537428  0.012455249    -4.434914    1.1811712      1024000 
  387000   0.78799689   -4.4342994   -4.4342994   -3.2523065  0.012246682   -4.4342994    1.1819929      1024000 
  388000    0.7874023    -4.432341    -4.432341   -3.2512399  0.013065478    -4.432341     1.181101      1024000 
  389000   0.78830129   -4.4321887   -4.4321887   -3.2497392 0.0087516705   -4.4321887    1.1824495      1024000 
  390000   0.78927239    -4.431985    -4.431985   -3.2480789 0.0047725309    -4.431985    1.1839062      1024000 
  391000   0.78874215   -4.4296001   -4.4296001   -3.2464893 0.0087053072   -4.4296001    1.1831108      1024000 
  392000   0.78871835   -4.4279139   -4.4279139   -3.2448387  0.011089602   -4.4279139    1.1830751      1024000 
  393000   0.78991339   -4.4269508   -4.4269508   -3.2420831  0.015295098   -4.4269508    1.1848677      1024000 
  394000   0.78986491   -4.4259455   -4.4259455   -3.2411506  0.013762865   -4.4259455     1.184795      1024000 
  395000   0.79073387   -4.4251307   -4.4251307   -3.2390323  0.014319665   -4.4251307    1.1860984      1024000 
  396000   0.79095106   -4.4241947   -4.4241947   -3.2377705 0.0073768358   -4.4241947    1.1864242      1024000 
  397000   0.79133149   -4.4229787   -4.4229787   -3.2359839 0.0092968677   -4.4229787    1.1869948      1024000 
  398000   0.79138358   -4.4220775   -4.4220775   -3.2350046   0.01341675   -4.4220775     1.187073      1024000 
  399000    0.7911958   -4.4195324   -4.4195324   -3.2327411  0.011585517   -4.4195324    1.1867913      1024000 
  400000   0.79301738   -4.4206184   -4.4206184   -3.2310948  0.013674251   -4.4206184    1.1895237      1024000 
  401000   0.79262039   -4.4180341   -4.4180341   -3.2291059   0.01763013   -4.4180341    1.1889282      1024000 
  402000   0.79370966   -4.4178963   -4.4178963   -3.2273343  0.012965536   -4.4178963    1.1905621      1024000 
  403000   0.79346445   -4.4163905   -4.4163905   -3.2261962  0.017294652   -4.4163905    1.1901943      1024000 
  404000    0.7942543   -4.4161935   -4.4161935   -3.2248144  0.016289716   -4.4161935     1.191379      1024000 
  405000   0.79419659   -4.4152085   -4.4152085   -3.2239161  0.014769682   -4.4152085    1.1912925      1024000 
  406000   0.79404659     -4.41427     -4.41427   -3.2232025  0.014299339     -4.41427    1.1910675      1024000 
  407000   0.79440558   -4.4136065   -4.4136065   -3.2220006  0.017313296   -4.4136065     1.191606      1024000 
  408000    0.7943027   -4.4109923   -4.4109923   -3.2195407   0.01416545   -4.4109923    1.1914516      1024000 
  409000   0.79397955   -4.4096778   -4.4096778   -3.2187109  0.015339858   -4.4096778    1.1909669      1024000 
  410000    0.7956243   -4.4102489   -4.4102489   -3.2168149 0.0077682118   -4.4102489     1.193434      1024000 
  411000   0.79521899   -4.4084536   -4.4084536   -3.2156275  0.011826787   -4.4084536    1.1928261      1024000 
  412000   0.79453764   -4.4068009   -4.4068009   -3.2149968  0.012950935   -4.4068009     1.191804      1024000 
  413000   0.79670502   -4.4076882   -4.4076882   -3.2126331  0.011879456   -4.4076882    1.1950551      1024000 
  414000   0.79637094   -4.4055727   -4.4055727   -3.2110187  0.017620933   -4.4055727     1.194554      1024000 
  415000   0.79623802   -4.4041578   -4.4041578   -3.2098032  0.019541434   -4.4041578    1.1943546      1024000 
  416000   0.79816397   -4.4043662   -4.4043662   -3.2071227  0.019924842   -4.4043662    1.1972435      1024000 
  417000   0.79799298    -4.402051    -4.402051    -3.205064  0.024245409    -4.402051     1.196987      1024000 
  418000   0.79835927   -4.4004991   -4.4004991   -3.2029627  0.023159675   -4.4004991    1.1975365      1024000 
  419000   0.79829335   -4.3987025   -4.3987025   -3.2012649  0.021170652   -4.3987025    1.1974376      1024000 
  420000   0.79889778   -4.3983101   -4.3983101   -3.1999658  0.017324133   -4.3983101    1.1983442      1024000 
  421000   0.79977671    -4.397668    -4.397668   -3.1980053   0.01927673    -4.397668    1.1996626      1024000 
  422000   0.80022885   -4.3966011   -4.3966011   -3.1962603  0.017509736   -4.3966011    1.2003408      1024000 
  423000   0.79934998   -4.3932744   -4.3932744   -3.1942518  0.020850803   -4.3932744    1.1990225      1024000 
  424000   0.79990329   -4.3924331   -4.3924331   -3.1925806  0.021828387   -4.3924331    1.1998525      1024000 
  425000   0.79937308   -4.3909324   -4.3909324   -3.1918752  0.014012226   -4.3909324    1.1990572      1024000 
  426000   0.79915202   -4.3883187   -4.3883187   -3.1895931  0.014779893   -4.3883187    1.1987256      1024000 
  427000   0.79937093   -4.3858876   -4.3858876   -3.1868336  0.017286882   -4.3858876     1.199054      1024000 
  428000   0.80073922   -4.3864313   -4.3864313   -3.1853249  0.018870545   -4.3864313    1.2011064      1024000 
  429000    0.8014149   -4.3860596   -4.3860596   -3.1839396  0.015050635   -4.3860596    1.2021199      1024000 
  430000   0.80091959   -4.3823789   -4.3823789    -3.181002  0.017658821   -4.3823789    1.2013769      1024000 
  431000   0.80097398   -4.3809629   -4.3809629   -3.1795043  0.021974229   -4.3809629    1.2014585      1024000 
  432000   0.80171634   -4.3802561   -4.3802561    -3.177684  0.014646485   -4.3802561    1.2025721      1024000 
  433000   0.80125346     -4.37765     -4.37765   -3.1757722  0.014781594     -4.37765    1.2018778      1024000 
  434000   0.80105295   -4.3759691   -4.3759691   -3.1743921  0.014595562   -4.3759691     1.201577      1024000 
  435000   0.80204014   -4.3764762   -4.3764762   -3.1734184  0.012022383   -4.3764762    1.2030578      1024000 
  436000   0.80154583   -4.3730732   -4.3730732   -3.1707569  0.010692741   -4.3730732    1.2023163      1024000 
  437000   0.80195106   -4.3716687   -4.3716687   -3.1687446  0.013210623   -4.3716687    1.2029241      1024000 
  438000   0.80286259   -4.3704881   -4.3704881   -3.1661967 0.0066053797   -4.3704881    1.2042914      1024000 
  439000   0.80285485   -4.3686077   -4.3686077   -3.1643279 0.0072980339   -4.3686077    1.2042798      1024000 
  440000   0.80293566   -4.3660293   -4.3660293   -3.1616283 0.0096633497   -4.3660293    1.2044011      1024000 
  441000   0.80330372   -4.3652066   -4.3652066   -3.1602534  0.011184344   -4.3652066    1.2049531      1024000 
  442000   0.80357639   -4.3634994   -4.3634994   -3.1581373  0.011172524   -4.3634994    1.2053621      1024000 
  443000   0.80356094   -4.3629815   -4.3629815   -3.1576426  0.012549196   -4.3629815     1.205339      1024000 
  444000     0.802971   -4.3604208   -4.3604208   -3.1559668  0.012794477   -4.3604208    1.2044541      1024000 
  445000   0.80418155    -4.360234    -4.360234   -3.1539641 0.0095801472    -4.360234    1.2062699      1024000 
  446000   0.80497985   -4.3587564   -4.3587564   -3.1512891  0.010048565   -4.3587564    1.2074673      1024000 
  447000   0.80447264   -4.3559361   -4.3559361   -3.1492295   0.01121597   -4.3559361    1.2067065      1024000 
  448000   0.80419584   -4.3541102   -4.3541102   -3.1478189   0.00762589   -4.3541102    1.2062913      1024000 
  449000   0.80529337   -4.3538013   -4.3538013   -3.1458637 0.0061037164   -4.3538013    1.2079376      1024000 
  450000    0.8054644   -4.3519696   -4.3519696   -3.1437755 0.0097193341   -4.3519696    1.2081941      1024000 
  451000   0.80650813   -4.3515918   -4.3515918   -3.1418321  0.007773733   -4.3515918    1.2097597      1024000 
  452000    0.8064595   -4.3496681   -4.3496681   -3.1399813   0.01054602   -4.3496681    1.2096868      1024000 
  453000   0.80668357   -4.3484376   -4.3484376   -3.1384147  0.012159104   -4.3484376    1.2100229      1024000 
  454000   0.80646118   -4.3455355   -4.3455355   -3.1358462  0.020167726   -4.3455355    1.2096893      1024000 
  455000   0.80832243   -4.3458843   -4.3458843   -3.1334031  0.012439211   -4.3458843    1.2124812      1024000 
  456000   0.80927963   -4.3452843   -4.3452843   -3.1313673  0.016850115   -4.3452843     1.213917      1024000 
  457000   0.81099577   -4.3456852   -4.3456852    -3.129194  0.015428348   -4.3456852    1.2164912      1024000 
  458000   0.80954006   -4.3423925   -4.3423925   -3.1280849  0.021499273   -4.3423925    1.2143076      1024000 
  459000   0.81096983   -4.3425356   -4.3425356   -3.1260833  0.018628217   -4.3425356    1.2164523      1024000 
  460000   0.81093774   -4.3416205   -4.3416205   -3.1252163  0.018425876   -4.3416205    1.2164041      1024000 
  461000   0.81046547   -4.3395081   -4.3395081   -3.1238124  0.011840392   -4.3395081    1.2156957      1024000 
  462000   0.81090133   -4.3386773   -4.3386773   -3.1223278  0.016972069   -4.3386773    1.2163495      1024000 
  463000     0.810348   -4.3370874   -4.3370874   -3.1215678  0.014308868   -4.3370874    1.2155195      1024000 
  464000   0.81024627   -4.3349862   -4.3349862   -3.1196193  0.008750066   -4.3349862    1.2153669      1024000 
  465000   0.81029891    -4.333087    -4.333087   -3.1176411   0.01006066    -4.333087    1.2154459      1024000 
  466000   0.80952262   -4.3303524   -4.3303524    -3.116071  0.015843174   -4.3303524    1.2142815      1024000 
  467000   0.80993508   -4.3299947   -4.3299947   -3.1150945 0.0075270592   -4.3299947    1.2149001      1024000 
  468000   0.81147959   -4.3304366   -4.3304366   -3.1132197 0.0082217264   -4.3304366    1.2172169      1024000 
  469000   0.81207979   -4.3289639   -4.3289639   -3.1108467  0.015781608   -4.3289639    1.2181172      1024000 
  470000   0.81145282   -4.3269159   -4.3269159   -3.1097391  0.018011652   -4.3269159    1.2171768      1024000 
  471000   0.81202457   -4.3257678   -4.3257678   -3.1077334  0.012627727   -4.3257678    1.2180344      1024000 
  472000   0.81375918   -4.3260014   -4.3260014   -3.1053651   0.01733972   -4.3260014    1.2206363      1024000 
  473000   0.81370429   -4.3236655   -4.3236655   -3.1031116  0.020034385   -4.3236655     1.220554      1024000 
  474000   0.81386729   -4.3213586   -4.3213586   -3.1005601  0.020769511   -4.3213586    1.2207985      1024000 
  475000    0.8153019   -4.3220119   -4.3220119   -3.0990616   0.01692244   -4.3220119    1.2229504      1024000 
  476000   0.81561189   -4.3203889   -4.3203889   -3.0969736  0.015880571   -4.3203889    1.2234153      1024000 
  477000   0.81458589   -4.3172765   -4.3172765   -3.0954001  0.016388788   -4.3172765    1.2218764      1024000 
  478000   0.81488231   -4.3155084   -4.3155084   -3.0931874  0.022177805   -4.3155084     1.222321      1024000 
  479000    0.8155892   -4.3149867   -4.3149867   -3.0916053  0.017045385   -4.3149867    1.2233813      1024000 
  480000    0.8161599   -4.3145719   -4.3145719   -3.0903346  0.015544317   -4.3145719    1.2242374      1024000 
  481000   0.81535842   -4.3119398   -4.3119398   -3.0889047  0.015888779   -4.3119398    1.2230351      1024000 
  482000   0.81537268   -4.3112116   -4.3112116   -3.0881551  0.015892259   -4.3112116    1.2230565      1024000 
  483000   0.81684816     -4.31018     -4.31018   -3.0849103  0.012613862     -4.31018    1.2252698      1024000 
  484000   0.81589885    -4.307449    -4.307449   -3.0836032  0.011273292    -4.307449    1.2238458      1024000 
  485000    0.8166636   -4.3060057   -4.3060057   -3.0810128  0.015033252   -4.3060057    1.2249929      1024000 
  486000   0.81801101   -4.3053591   -4.3053591   -3.0783451  0.013979566   -4.3053591     1.227014      1024000 
  487000   0.81778235   -4.3027248   -4.3027248   -3.0760537  0.014453075   -4.3027248     1.226671      1024000 
  488000   0.81798818   -4.3007656   -4.3007656   -3.0737858  0.015569259   -4.3007656    1.2269798      1024000 
  489000   0.81752785    -4.297984    -4.297984   -3.0716947  0.019901532    -4.297984    1.2262893      1024000 
  490000   0.81862928    -4.297783    -4.297783   -3.0698416  0.015086898    -4.297783    1.2279414      1024000 
  491000   0.81913162   -4.2971941   -4.2971941   -3.0684991  0.014835509   -4.2971941    1.2286949      1024000 
  492000   0.81990915    -4.296071    -4.296071   -3.0662097  0.019371906    -4.296071    1.2298612      1024000 
  493000    0.8194276   -4.2932389   -4.2932389      -3.0641  0.020546526   -4.2932389    1.2291389      1024000 
  494000   0.81965595   -4.2922935   -4.2922935   -3.0628121  0.012106835   -4.2922935    1.2294814      1024000 
  495000   0.81897383   -4.2889064   -4.2889064   -3.0604481  0.019887219   -4.2889064    1.2284582      1024000 
  496000    0.8197086   -4.2880556   -4.2880556   -3.0584952  0.018633333   -4.2880556    1.2295604      1024000 
  497000   0.82082961   -4.2872569   -4.2872569    -3.056015  0.015301381   -4.2872569    1.2312419      1024000 
  498000   0.82152859   -4.2857565   -4.2857565   -3.0534662   0.01722156   -4.2857565    1.2322904      1024000 
  499000   0.82077926   -4.2833608   -4.2833608   -3.0521945  0.016903089   -4.2833608    1.2311664      1024000 
  500000   0.82073962   -4.2819316   -4.2819316   -3.0508247  0.012858878   -4.2819316    1.2311069      1024000 
  501000   0.82067207   -4.2799995   -4.2799995   -3.0489939  0.010849266   -4.2799995    1.2310056      1024000 
  502000   0.82136061   -4.2794591   -4.2794591   -3.0474207   0.01124748   -4.2794591    1.2320384      1024000 
  503000   0.82109541    -4.277397    -4.277397   -3.0457564  0.007657275    -4.277397    1.2316406      1024000 
  504000   0.82217132   -4.2759642   -4.2759642   -3.0427097 0.0081594101   -4.2759642    1.2332545      1024000 
  505000   0.82085078   -4.2720625   -4.2720625   -3.0407888   0.01474311   -4.2720625    1.2312737      1024000 
  506000   0.82208218   -4.2717481   -4.2717481   -3.0386274  0.012093906   -4.2717481    1.2331208      1024000 
  507000   0.82182568   -4.2691607   -4.2691607   -3.0364246  0.017564803   -4.2691607     1.232736      1024000 
  508000   0.82230006   -4.2670934   -4.2670934   -3.0336458  0.016625592   -4.2670934    1.2334476      1024000 
  509000    0.8231698   -4.2660047   -4.2660047   -3.0312525  0.019410065   -4.2660047    1.2347522      1024000 
  510000   0.82452563    -4.266087    -4.266087    -3.029301  0.018485987    -4.266087    1.2367859      1024000 
  511000   0.82375397   -4.2638977   -4.2638977   -3.0282692   0.01772203   -4.2638977    1.2356284      1024000 
  512000    0.8255274   -4.2654632   -4.2654632   -3.0271746   0.01125793   -4.2654632    1.2382886      1024000 
  513000   0.82565368   -4.2641365   -4.2641365   -3.0256585 0.0099383724   -4.2641365     1.238478      1024000 
  514000    0.8257054   -4.2633075   -4.2633075   -3.0247519  0.011497761   -4.2633075    1.2385556      1024000 
  515000   0.82466713   -4.2596962   -4.2596962    -3.022698  0.012756421   -4.2596962    1.2369982      1024000 
  516000   0.82522394   -4.2585636   -4.2585636   -3.0207302  0.012486588   -4.2585636    1.2378334      1024000 
  517000   0.82457495   -4.2559188   -4.2559188   -3.0190589 0.0062995509   -4.2559188    1.2368599      1024000 
  518000   0.82421714   -4.2536712   -4.2536712    -3.017348  0.010387167   -4.2536712    1.2363232      1024000 
  519000   0.82553899   -4.2532022   -4.2532022   -3.0148962 0.0051982174   -4.2532022     1.238306      1024000 
  520000   0.82556151   -4.2515658   -4.2515658   -3.0132261  0.011111816   -4.2515658    1.2383398      1024000 
  521000   0.82525516   -4.2496091   -4.2496091   -3.0117289  0.015163667   -4.2496091    1.2378802      1024000 
  522000   0.82638195    -4.248979    -4.248979   -3.0094086 0.0087789836    -4.248979    1.2395704      1024000 
  523000   0.82726383   -4.2480724   -4.2480724   -3.0071792 0.0094546181   -4.2480724    1.2408932      1024000 
  524000   0.82822615   -4.2480342   -4.2480342   -3.0056975  0.014240829   -4.2480342    1.2423367      1024000 
  525000   0.82705014   -4.2449593   -4.2449593   -3.0043866  0.020397199   -4.2449593    1.2405727      1024000 
  526000   0.82800283   -4.2446149   -4.2446149   -3.0026131  0.015928017   -4.2446149    1.2420017      1024000 
  527000   0.82786251   -4.2427664   -4.2427664   -3.0009751  0.016633768   -4.2427664    1.2417912      1024000 
  528000   0.82850468   -4.2413868   -4.2413868   -2.9986323  0.017532441   -4.2413868    1.2427545      1024000 
  529000   0.82786225   -4.2392515   -4.2392515   -2.9974606  0.019888326   -4.2392515    1.2417909      1024000 
  530000    0.8299087   -4.2398015   -4.2398015    -2.994941  0.016492572   -4.2398015    1.2448605      1024000 
  531000   0.82934386   -4.2355657   -4.2355657   -2.9915524  0.015803923   -4.2355657    1.2440133      1024000 
  532000   0.82976356   -4.2352621   -4.2352621   -2.9906193  0.010506953   -4.2352621    1.2446428      1024000 
  533000   0.82935488   -4.2323476   -4.2323476   -2.9883178  0.011100001   -4.2323476    1.2440298      1024000 
  534000   0.82996374   -4.2321303   -4.2321303   -2.9871872  0.010488524   -4.2321303    1.2449431      1024000 
  535000   0.82993976   -4.2305782   -4.2305782   -2.9856711   0.01547796   -4.2305782    1.2449071      1024000 
  536000   0.83115083   -4.2301127   -4.2301127    -2.983389  0.012044987   -4.2301127    1.2467237      1024000 
  537000   0.83255894   -4.2298823   -4.2298823   -2.9810464  0.010531418   -4.2298823    1.2488359      1024000 
  538000   0.83110643   -4.2262674   -4.2262674   -2.9796103  0.023972548   -4.2262674    1.2466571      1024000 
  539000   0.83320333   -4.2281614   -4.2281614   -2.9783589  0.014062144   -4.2281614    1.2498025      1024000 
  540000   0.83322696   -4.2251258   -4.2251258   -2.9752879  0.016943258   -4.2251258    1.2498379      1024000 
  541000   0.83314467   -4.2224081   -4.2224081   -2.9726937  0.022011646   -4.2224081    1.2497145      1024000 
  542000   0.83431374   -4.2221285   -4.2221285   -2.9706605  0.019970378   -4.2221285    1.2514681      1024000 
  543000   0.83399003   -4.2197309   -4.2197309   -2.9687484  0.021635087   -4.2197309    1.2509825      1024000 
  544000   0.83475629    -4.218255    -4.218255   -2.9661232  0.017981889    -4.218255    1.2521319      1024000 
  545000   0.83510953    -4.216808    -4.216808   -2.9641462  0.019672655    -4.216808    1.2526618      1024000 
  546000   0.83571055   -4.2162655   -4.2162655   -2.9627022  0.019206758   -4.2162655    1.2535633      1024000 
  547000   0.83511626   -4.2140852   -4.2140852   -2.9614134  0.015687251   -4.2140852    1.2526718      1024000 
  548000   0.83396316   -4.2112513   -4.2112513   -2.9603091  0.020205829   -4.2112513    1.2509422      1024000 
  549000   0.83481111   -4.2113611   -4.2113611    -2.959147  0.015980112   -4.2113611    1.2522141      1024000 
  550000   0.83521073   -4.2104294   -4.2104294   -2.9576158  0.015213449   -4.2104294    1.2528136      1024000 
  551000   0.83415922   -4.2061088   -4.2061088   -2.9548725  0.014397849   -4.2061088    1.2512363      1024000 
  552000    0.8354982   -4.2060739   -4.2060739   -2.9528291  0.015029854   -4.2060739    1.2532448      1024000 
  553000   0.83576613   -4.2040928   -4.2040928   -2.9504461  0.013679469   -4.2040928    1.2536466      1024000 
  554000   0.83470063   -4.1998194   -4.1998194   -2.9477709  0.018012604   -4.1998194    1.2520484      1024000 
  555000   0.83562284   -4.1995781   -4.1995781   -2.9461463  0.021768086   -4.1995781    1.2534317      1024000 
  556000   0.83689206   -4.1993207   -4.1993207   -2.9439851  0.014682402   -4.1993207    1.2553355      1024000 
  557000    0.8366917   -4.1969333   -4.1969333   -2.9418983  0.013341788   -4.1969333     1.255035      1024000 
  558000   0.83725247   -4.1952553   -4.1952553   -2.9393792   0.01898155   -4.1952553    1.2558762      1024000 
  559000   0.83713761   -4.1932212   -4.1932212   -2.9375173  0.024955053   -4.1932212    1.2557039      1024000 
  560000   0.83762507   -4.1917787   -4.1917787   -2.9353437  0.020770571   -4.1917787    1.2564351      1024000 
  561000   0.83920517   -4.1928206   -4.1928206   -2.9340154  0.016682609   -4.1928206    1.2588052      1024000 
  562000   0.83824472   -4.1891596   -4.1891596   -2.9317951  0.018935635   -4.1891596    1.2573645      1024000 
  563000   0.83980456   -4.1897497   -4.1897497   -2.9300454  0.018150409   -4.1897497    1.2597043      1024000 
  564000   0.83943161   -4.1863028   -4.1863028    -2.927158   0.02255629   -4.1863028    1.2591449      1024000 
  565000   0.83956013   -4.1841884   -4.1841884   -2.9248508  0.016060786   -4.1841884    1.2593376      1024000 
  566000   0.84088987    -4.184493    -4.184493   -2.9231607  0.010994047    -4.184493    1.2613322      1024000 
  567000   0.83994443   -4.1811713   -4.1811713   -2.9212572  0.016603689   -4.1811713    1.2599141      1024000 
  568000   0.83982352   -4.1792772   -4.1792772   -2.9195445  0.015512918   -4.1792772    1.2597327      1024000 
  569000   0.83980856   -4.1770442   -4.1770442   -2.9173339  0.020899465   -4.1770442    1.2597103      1024000 
  570000   0.83979877   -4.1755812   -4.1755812   -2.9158856  0.016848064   -4.1755812    1.2596956      1024000 
  571000   0.83948554   -4.1736629   -4.1736629   -2.9144371   0.01261683   -4.1736629    1.2592257      1024000 
  572000   0.83948865   -4.1706828   -4.1706828   -2.9114524   0.01252157   -4.1706828    1.2592304      1024000 
  573000   0.84010362   -4.1697777   -4.1697777   -2.9096248 0.0096783435   -4.1697777    1.2601529      1024000 
  574000   0.83853291   -4.1666139   -4.1666139   -2.9088171  0.015879249   -4.1666139    1.2577968      1024000 
  575000   0.84058911    -4.167023    -4.167023   -2.9061419  0.011647252    -4.167023    1.2608811      1024000 
  576000   0.84077311   -4.1654325   -4.1654325   -2.9042754  0.019158502   -4.1654325    1.2611571      1024000 
  577000   0.84274341   -4.1655007   -4.1655007   -2.9013882  0.013945474   -4.1655007    1.2641125      1024000 
  578000   0.84222951   -4.1630829   -4.1630829   -2.8997412  0.020381353   -4.1630829    1.2633417      1024000 
  579000   0.84302316   -4.1612226   -4.1612226   -2.8966905   0.01918919   -4.1612226    1.2645322      1024000 
  580000   0.84314991   -4.1599193   -4.1599193    -2.895197  0.022438163   -4.1599193    1.2647223      1024000 
  581000   0.84491882   -4.1602517   -4.1602517    -2.892876  0.015708355   -4.1602517    1.2673757      1024000 
  582000   0.84429924    -4.156755    -4.156755   -2.8903087  0.022303352    -4.156755    1.2664463      1024000 
  583000   0.84436707   -4.1544051   -4.1544051    -2.887857  0.019181466   -4.1544051     1.266548      1024000 
  584000   0.84373284   -4.1507901   -4.1507901   -2.8851934  0.018661476   -4.1507901    1.2655967      1024000 
  585000   0.84520388   -4.1506871   -4.1506871   -2.8828839  0.017159822   -4.1506871    1.2678032      1024000 
  586000    0.8456078   -4.1497575   -4.1497575   -2.8813484  0.014083853   -4.1497575    1.2684091      1024000 
  587000   0.84444776   -4.1464554   -4.1464554   -2.8797864  0.016508181   -4.1464554    1.2666691      1024000 
  588000   0.84480322   -4.1445892   -4.1445892   -2.8773869  0.015548494   -4.1445892    1.2672023      1024000 
  589000   0.84405407   -4.1411594   -4.1411594   -2.8750809  0.018807039   -4.1411594    1.2660785      1024000 
  590000   0.84404774   -4.1394965   -4.1394965   -2.8734275  0.020879568   -4.1394965     1.266069      1024000 
  591000   0.84617609   -4.1397566   -4.1397566   -2.8704951  0.014974984   -4.1397566    1.2692616      1024000 
  592000   0.84576975   -4.1379842   -4.1379842   -2.8693322  0.014613515   -4.1379842    1.2686521      1024000 
  593000   0.84656698   -4.1380022   -4.1380022   -2.8681543  0.013371968   -4.1380022    1.2698479      1024000 
  594000   0.84629784   -4.1345134   -4.1345134   -2.8650692  0.017330779   -4.1345134    1.2694442      1024000 
  595000   0.84578155   -4.1318756   -4.1318756   -2.8632058  0.021717865   -4.1318756    1.2686698      1024000 
  596000   0.84635055     -4.12993     -4.12993   -2.8604067  0.028215415     -4.12993    1.2695232      1024000 
  597000   0.84807274   -4.1296523   -4.1296523   -2.8575457  0.023993496   -4.1296523    1.2721065      1024000 
  598000   0.84724792   -4.1270174   -4.1270174   -2.8561481  0.020682572   -4.1270174    1.2708693      1024000 
  599000   0.84826122   -4.1257944   -4.1257944   -2.8534051  0.024729567   -4.1257944    1.2723893      1024000 
  600000   0.84801233   -4.1241925   -4.1241925   -2.8521766  0.026918633   -4.1241925    1.2720159      1024000 
  601000   0.84783397   -4.1216256   -4.1216256   -2.8498772  0.024202637   -4.1216256    1.2717484      1024000 
  602000   0.84850006   -4.1198889   -4.1198889   -2.8471414  0.026479425   -4.1198889    1.2727475      1024000 
  603000   0.84980329   -4.1198567   -4.1198567   -2.8451543  0.025950642   -4.1198567    1.2747023      1024000 
  604000   0.84998945   -4.1181283   -4.1181283   -2.8431467   0.02613911   -4.1181283    1.2749816      1024000 
  605000   0.84937344    -4.114964    -4.114964   -2.8409064  0.025668162    -4.114964    1.2740576      1024000 
  606000   0.85011979   -4.1142108   -4.1142108   -2.8390337  0.021820603   -4.1142108    1.2751771      1024000 
  607000   0.85144917   -4.1138891   -4.1138891    -2.836718  0.020050935   -4.1138891    1.2771712      1024000 
  608000   0.85150661   -4.1117157   -4.1117157   -2.8344583  0.021131283   -4.1117157    1.2772573      1024000 
  609000   0.85211315   -4.1104064   -4.1104064   -2.8322393  0.018229839   -4.1104064    1.2781671      1024000 
  610000   0.85232313   -4.1080902   -4.1080902   -2.8296081  0.022825177   -4.1080902    1.2784821      1024000 
  611000   0.85110765   -4.1041822   -4.1041822   -2.8275233   0.02504335   -4.1041822    1.2766589      1024000 
  612000   0.85217993   -4.1029161   -4.1029161   -2.8246488  0.024960269   -4.1029161    1.2782673      1024000 
  613000   0.85272933   -4.1029502   -4.1029502   -2.8238588  0.021415994   -4.1029502    1.2790914      1024000 
  614000   0.85289525    -4.101005    -4.101005   -2.8216647  0.026831479    -4.101005    1.2793403      1024000 
  615000   0.85279208   -4.0975363   -4.0975363   -2.8183508  0.028884689   -4.0975363    1.2791855      1024000 
  616000     0.854081   -4.0970249   -4.0970249    -2.815906   0.02891752   -4.0970249    1.2811189      1024000 
  617000   0.85298816   -4.0937022   -4.0937022   -2.8142226  0.027373398   -4.0937022    1.2794796      1024000 
  618000   0.85241571    -4.089818    -4.089818   -2.8111971  0.022654203    -4.089818     1.278621      1024000 
  619000   0.85304026   -4.0893965   -4.0893965   -2.8098387  0.023203674   -4.0893965    1.2795578      1024000 
  620000   0.85199657   -4.0876789   -4.0876789   -2.8096867  0.025787444   -4.0876789    1.2779923      1024000 
  621000   0.85282318   -4.0869483   -4.0869483   -2.8077161  0.019910954   -4.0869483    1.2792322      1024000 
  622000   0.85245146   -4.0832131   -4.0832131   -2.8045385  0.022621136   -4.0832131    1.2786746      1024000 
  623000    0.8532431   -4.0825889   -4.0825889   -2.8027269  0.025731454   -4.0825889    1.2798621      1024000 
  624000   0.85319159   -4.0809968   -4.0809968    -2.801212  0.023523463   -4.0809968    1.2797848      1024000 
  625000   0.85345449   -4.0792038   -4.0792038   -2.7990247  0.021296884   -4.0792038    1.2801791      1024000 
  626000   0.85394403   -4.0784233   -4.0784233   -2.7975099  0.021577169   -4.0784233    1.2809134      1024000 
  627000   0.85339103   -4.0754731   -4.0754731   -2.7953891   0.02407849   -4.0754731    1.2800839      1024000 
  628000   0.85458967   -4.0747363   -4.0747363   -2.7928544  0.018275563   -4.0747363    1.2818819      1024000 
  629000   0.85462329   -4.0722739   -4.0722739   -2.7903416  0.028275896   -4.0722739    1.2819323      1024000 
  630000   0.85665211   -4.0732036   -4.0732036   -2.7882281  0.021245259   -4.0732036    1.2849756      1024000 
  631000    0.8562774   -4.0695271   -4.0695271   -2.7851137  0.023982574   -4.0695271    1.2844135      1024000 
  632000   0.85635747     -4.06686     -4.06686   -2.7823264  0.029563739     -4.06686    1.2845336      1024000 
  633000   0.85626797   -4.0655378   -4.0655378   -2.7811385  0.030630537   -4.0655378    1.2843993      1024000 
  634000   0.85778818   -4.0652822   -4.0652822   -2.7786026  0.025016536   -4.0652822    1.2866797      1024000 
  635000   0.85773707   -4.0621209   -4.0621209   -2.7755179  0.031746526   -4.0621209     1.286603      1024000 
  636000   0.85695502   -4.0588735   -4.0588735   -2.7734436   0.03035328   -4.0588735    1.2854299      1024000 
  637000   0.85818279   -4.0596401   -4.0596401   -2.7723686  0.030169309   -4.0596401    1.2872716      1024000 
  638000   0.85888688   -4.0590203   -4.0590203   -2.7706926  0.026221643   -4.0590203    1.2883277      1024000 
  639000   0.85968745   -4.0575908   -4.0575908   -2.7680623   0.03058663   -4.0575908    1.2895286      1024000 
  640000   0.85943196   -4.0559223   -4.0559223    -2.766777  0.029034552   -4.0559223    1.2891453      1024000 
  641000     0.859188   -4.0541701   -4.0541701   -2.7653907  0.026447405   -4.0541701    1.2887794      1024000 
  642000   0.85869096   -4.0518931   -4.0518931   -2.7638592  0.034048758   -4.0518931    1.2880338      1024000 
  643000   0.85994041   -4.0507269   -4.0507269   -2.7608189  0.032386438   -4.0507269     1.289908      1024000 
  644000   0.86119221   -4.0503408   -4.0503408   -2.7585551   0.03208728   -4.0503408    1.2917857      1024000 
  645000    0.8615234   -4.0497742   -4.0497742   -2.7574917  0.033021951   -4.0497742    1.2922825      1024000 
  646000   0.86207015   -4.0476157   -4.0476157   -2.7545131  0.035323104   -4.0476157    1.2931026      1024000 
  647000   0.86232065   -4.0463884   -4.0463884   -2.7529101  0.032060731   -4.0463884    1.2934784      1024000 
  648000   0.86175854   -4.0440993   -4.0440993   -2.7514641  0.033556262   -4.0440993    1.2926352      1024000 
  649000   0.86032066   -4.0385491   -4.0385491   -2.7480707  0.034968697   -4.0385491    1.2904784      1024000 
  650000     0.861217    -4.037576    -4.037576   -2.7457531  0.034908492    -4.037576    1.2918229      1024000 
  651000   0.86187404   -4.0354912   -4.0354912   -2.7426828  0.029608674   -4.0354912    1.2928084      1024000 
  652000   0.86150784   -4.0333003   -4.0333003   -2.7410412  0.035219797   -4.0333003    1.2922591      1024000 
  653000   0.86286014    -4.033098    -4.033098   -2.7388105  0.030169336    -4.033098    1.2942876      1024000 
  654000   0.86136978   -4.0298086   -4.0298086   -2.7377566  0.035442459   -4.0298086     1.292052      1024000 
  655000   0.86327208   -4.0303779   -4.0303779   -2.7354724  0.034704544   -4.0303779    1.2949055      1024000 
  656000   0.86406223   -4.0290053   -4.0290053   -2.7329146  0.034093185   -4.0290053    1.2960907      1024000 
  657000   0.86361886   -4.0265755   -4.0265755   -2.7311498   0.02893718   -4.0265755    1.2954257      1024000 
  658000    0.8632687   -4.0246383   -4.0246383   -2.7297379  0.032700287   -4.0246383    1.2949004      1024000 
  659000   0.86322447   -4.0229082   -4.0229082   -2.7280741  0.038626882   -4.0229082    1.2948341      1024000 
  660000   0.86488945   -4.0227698   -4.0227698   -2.7254383  0.038346799   -4.0227698    1.2973315      1024000 
  661000    0.8650605   -4.0210021   -4.0210021    -2.723414  0.036042083   -4.0210021    1.2975881      1024000 
  662000   0.86524918   -4.0202061   -4.0202061    -2.722335  0.036321492   -4.0202061    1.2978711      1024000 
  663000   0.86508473   -4.0187978   -4.0187978   -2.7211733  0.036874474   -4.0187978    1.2976245      1024000 
  664000   0.86544521   -4.0172732   -4.0172732    -2.719108  0.038128179   -4.0172732    1.2981652      1024000 
  665000   0.86683007   -4.0170228   -4.0170228   -2.7167804  0.047199895   -4.0170228    1.3002425      1024000 
  666000   0.86667871   -4.0147607   -4.0147607   -2.7147453  0.043002214   -4.0147607    1.3000154      1024000 
  667000   0.86724325    -4.014689    -4.014689   -2.7138268  0.044082886    -4.014689    1.3008622      1024000 
  668000   0.86732194   -4.0127857   -4.0127857   -2.7118054  0.044310072   -4.0127857    1.3009803      1024000 
  669000   0.86722415   -4.0105297   -4.0105297   -2.7096961  0.042583175   -4.0105297    1.3008336      1024000 
  670000   0.86815964   -4.0105266   -4.0105266   -2.7082898  0.046308762   -4.0105266    1.3022368      1024000 
  671000   0.86809322   -4.0085756   -4.0085756   -2.7064384  0.041083466   -4.0085756    1.3021372      1024000 
  672000   0.86881955    -4.007856    -4.007856   -2.7046293  0.039407531    -4.007856    1.3032267      1024000 
  673000   0.86880845   -4.0066719   -4.0066719   -2.7034619  0.042380645   -4.0066719      1.30321      1024000 
  674000   0.86998838   -4.0060826   -4.0060826   -2.7011027  0.039197121   -4.0060826    1.3049799      1024000 
  675000   0.86837057   -4.0014583   -4.0014583   -2.6989051  0.041538014   -4.0014583    1.3025532      1024000 
  676000   0.86957653   -4.0013428   -4.0013428   -2.6969807  0.041698929   -4.0013428    1.3043622      1024000 
  677000   0.87059418    -4.001656    -4.001656   -2.6957673  0.038251235    -4.001656    1.3058886      1024000 
  678000   0.86882869   -3.9973635   -3.9973635   -2.6941232  0.045335121   -3.9973635    1.3032404      1024000 
  679000   0.86882984   -3.9959476   -3.9959476   -2.6927055  0.046764221   -3.9959476    1.3032421      1024000 
  680000   0.87021384   -3.9953944   -3.9953944   -2.6900763  0.044340785   -3.9953944    1.3053181      1024000 
  681000   0.87136537   -3.9959234   -3.9959234    -2.688878  0.044518934   -3.9959234    1.3070454      1024000 
  682000   0.87237992   -3.9952499   -3.9952499   -2.6866826  0.049320638   -3.9952499    1.3085672      1024000 
  683000   0.87119868   -3.9925596   -3.9925596   -2.6857643  0.053471501   -3.9925596    1.3067954      1024000 
  684000   0.87389035   -3.9953424   -3.9953424   -2.6845095  0.045674646   -3.9953424    1.3108329      1024000 
  685000   0.87383477   -3.9930122   -3.9930122   -2.6822627  0.046457373   -3.9930122    1.3107495      1024000 
  686000   0.87321853    -3.991367    -3.991367   -2.6815418  0.049120852    -3.991367    1.3098251      1024000 
  687000   0.87333499   -3.9900995   -3.9900995   -2.6800997  0.048585592   -3.9900995    1.3099998      1024000 
  688000   0.87309564   -3.9873199   -3.9873199   -2.6776791  0.047606992   -3.9873199    1.3096408      1024000 
  689000   0.87304623      -3.9861      -3.9861   -2.6765333  0.051300609      -3.9861    1.3095667      1024000 
  690000     0.872657   -3.9839762   -3.9839762   -2.6749934  0.046715439   -3.9839762    1.3089828      1024000 
  691000   0.87312246   -3.9827552   -3.9827552   -2.6730741  0.044945925   -3.9827552     1.309681      1024000 
  692000   0.87289305   -3.9802933   -3.9802933   -2.6709564  0.044869329   -3.9802933    1.3093369      1024000 
  693000   0.87242443   -3.9780443   -3.9780443   -2.6694103  0.050001511   -3.9780443     1.308634      1024000 
  694000   0.87280353   -3.9768496   -3.9768496   -2.6676469  0.044148601   -3.9768496    1.3092026      1024000 
  695000   0.87362779   -3.9769913   -3.9769913   -2.6665523  0.042614197   -3.9769913     1.310439      1024000 
  696000   0.87383867   -3.9754676   -3.9754676   -2.6647123   0.04643049   -3.9754676    1.3107553      1024000 
  697000   0.87538977   -3.9763823   -3.9763823   -2.6633003   0.04591807   -3.9763823     1.313082      1024000 
  698000   0.87515291   -3.9748658   -3.9748658   -2.6621391  0.047549999   -3.9748658    1.3127267      1024000 
  699000   0.87506273   -3.9730526   -3.9730526   -2.6604612  0.050307146   -3.9730526    1.3125914      1024000 
  700000   0.87637226   -3.9734897   -3.9734897   -2.6589339  0.048416379   -3.9734897    1.3145557      1024000 
  701000   0.87509824   -3.9702138   -3.9702138   -2.6575691  0.048831295   -3.9702138    1.3126447      1024000 
  702000   0.87648837   -3.9706415   -3.9706415   -2.6559116   0.04763235   -3.9706415    1.3147299      1024000 
  703000    0.8776524    -3.970389    -3.970389    -2.653913  0.056731637    -3.970389    1.3164759      1024000 
  704000   0.87936478   -3.9704345   -3.9704345     -2.65139  0.051749255   -3.9704345    1.3190445      1024000 
  705000   0.87816597   -3.9679492   -3.9679492   -2.6507029  0.052856749   -3.9679492    1.3172463      1024000 
  706000    0.8775941   -3.9651826   -3.9651826   -2.6487941  0.055879803   -3.9651826    1.3163885      1024000 
  707000    0.8786503   -3.9648806   -3.9648806   -2.6469078  0.051444402   -3.9648806    1.3179728      1024000 
  708000   0.87962421   -3.9640045   -3.9640045   -2.6445709  0.057977868   -3.9640045    1.3194336      1024000 
  709000   0.87890438   -3.9617247   -3.9617247   -2.6433708  0.054282882   -3.9617247    1.3183539      1024000 
  710000   0.87898499    -3.961206    -3.961206   -2.6427312  0.052302449    -3.961206    1.3184748      1024000 
  711000    0.8796977   -3.9608722   -3.9608722   -2.6413283  0.053462318   -3.9608722    1.3195439      1024000 
  712000   0.87914519   -3.9583635   -3.9583635   -2.6396484  0.057219587   -3.9583635    1.3187151      1024000 
  713000   0.88053725   -3.9578278   -3.9578278   -2.6370246  0.054236477   -3.9578278    1.3208032      1024000 
  714000   0.87953176   -3.9554893   -3.9554893   -2.6361943  0.052237829   -3.9554893     1.319295      1024000 
  715000   0.87959677   -3.9538514   -3.9538514    -2.634459  0.053870516   -3.9538514    1.3193925      1024000 
  716000    0.8799654    -3.952855    -3.952855   -2.6329095  0.051877927    -3.952855    1.3199454      1024000 
  717000   0.88114599   -3.9535328   -3.9535328   -2.6318165  0.051108052   -3.9535328    1.3217163      1024000 
  718000   0.88103067   -3.9512701   -3.9512701   -2.6297268  0.052188894   -3.9512701    1.3215433      1024000 
  719000   0.88113092   -3.9507847   -3.9507847    -2.629091  0.051178557   -3.9507847    1.3216937      1024000 
  720000   0.88197166    -3.951308    -3.951308   -2.6283532  0.051231459    -3.951308    1.3229548      1024000 
  721000   0.88343858   -3.9525426   -3.9525426   -2.6273874  0.052081262   -3.9525426    1.3251552      1024000 
  722000   0.88317897   -3.9506647   -3.9506647   -2.6258989  0.051953512   -3.9506647    1.3247658      1024000 
  723000   0.88259015   -3.9483456   -3.9483456   -2.6244631  0.055821613   -3.9483456    1.3238825      1024000 
  724000   0.88250737   -3.9471771   -3.9471771   -2.6234187  0.050087496   -3.9471771    1.3237584      1024000 
  725000   0.88432028    -3.947759    -3.947759   -2.6212813  0.055722763    -3.947759    1.3264777      1024000 
  726000   0.88468553   -3.9473581   -3.9473581   -2.6203325  0.056063355   -3.9473581    1.3270256      1024000 
  727000   0.88381635   -3.9444504   -3.9444504   -2.6187286  0.058154848   -3.9444504    1.3257218      1024000 
  728000   0.88493526   -3.9443441   -3.9443441   -2.6169439  0.057091868   -3.9443441    1.3274002      1024000 
  729000   0.88455387   -3.9431472   -3.9431472   -2.6163191  0.056738663   -3.9431472    1.3268281      1024000 
  730000   0.88493736   -3.9427823   -3.9427823    -2.615379  0.056011125   -3.9427823    1.3274033      1024000 
  731000   0.88519677   -3.9418129   -3.9418129   -2.6140205  0.057557431   -3.9418129    1.3277925      1024000 
  732000   0.88529684   -3.9410737   -3.9410737   -2.6131311  0.053874302   -3.9410737    1.3279426      1024000 
  733000   0.88666823   -3.9414078   -3.9414078   -2.6114081  0.053354485   -3.9414078    1.3299996      1024000 
  734000   0.88542427   -3.9381574   -3.9381574   -2.6100237  0.055865896   -3.9381574    1.3281337      1024000 
  735000   0.88575139   -3.9374031   -3.9374031   -2.6087787  0.055064379   -3.9374031    1.3286244      1024000 
  736000   0.88578292   -3.9358613   -3.9358613   -2.6071896   0.05702164   -3.9358613    1.3286717      1024000 
  737000   0.88685937   -3.9362861   -3.9362861   -2.6059997  0.056308948   -3.9362861    1.3302863      1024000 
  738000   0.88636546    -3.934004    -3.934004   -2.6044586  0.055481631    -3.934004    1.3295455      1024000 
  739000   0.88635606   -3.9328888   -3.9328888   -2.6033574  0.057505528   -3.9328888    1.3295314      1024000 
  740000    0.8874103   -3.9335671   -3.9335671   -2.6024543  0.057708678   -3.9335671    1.3311128      1024000 
  741000    0.8882084    -3.933874    -3.933874   -2.6015641  0.054752675    -3.933874    1.3323099      1024000 
  742000   0.88799964   -3.9326812   -3.9326812   -2.6006845  0.055913305   -3.9326812    1.3319968      1024000 
  743000   0.89056852   -3.9343892   -3.9343892   -2.5985391  0.055127007   -3.9343892    1.3358501      1024000 
  744000   0.88986556   -3.9323935   -3.9323935   -2.5975978   0.05974131   -3.9323935    1.3347956      1024000 
  745000   0.88997056   -3.9318025   -3.9318025   -2.5968493  0.056658094   -3.9318025    1.3349531      1024000 
  746000   0.89055962   -3.9316233   -3.9316233   -2.5957866  0.067529385   -3.9316233    1.3358367      1024000 
  747000   0.89207111   -3.9332241   -3.9332241   -2.5951201  0.065273373   -3.9332241     1.338104      1024000 
  748000   0.89236289   -3.9328064   -3.9328064   -2.5942648  0.071061158   -3.9328064    1.3385416      1024000 
  749000   0.89351392   -3.9340056   -3.9340056   -2.5937375  0.071403227   -3.9340056    1.3402682      1024000 
  750000   0.89580868   -3.9364541   -3.9364541   -2.5927438  0.076424051   -3.9364541    1.3437103      1024000 
  751000   0.89901177    -3.939998    -3.939998   -2.5914831  0.088516122    -3.939998    1.3485149      1024000 
  752000   0.90280602   -3.9446867   -3.9446867   -2.5904804   0.10864072   -3.9446867    1.3542063      1024000 
  753000   0.91052921   -3.9552953   -3.9552953   -2.5895042   0.13205256   -3.9552953     1.365791      1024000 
  754000   0.91507107   -3.9612429   -3.9612429   -2.5886391   0.17455168   -3.9612429    1.3726038      1024000 
  755000   0.92542708   -3.9757667   -3.9757667   -2.5876289   0.21032028   -3.9757667    1.3881378      1024000 
  756000   0.93313687   -3.9858046   -3.9858046   -2.5861022   0.25385159   -3.9858046    1.3997025      1024000 
  757000   0.94000858   -3.9952779   -3.9952779   -2.5852679   0.29892542   -3.9952779      1.41001      1024000 
  758000    0.9486454   -4.0074524   -4.0074524   -2.5844872   0.33304275   -4.0074524    1.4229652      1024000 
  759000    0.9550049   -4.0168942   -4.0168942   -2.5843898   0.36141593   -4.0168942    1.4325044      1024000 
  760000   0.96107331   -4.0253204   -4.0253204   -2.5837133    0.3820153   -4.0253204     1.441607      1024000 
  761000   0.96668186   -4.0323129   -4.0323129    -2.582293   0.38240045   -4.0323129    1.4500198      1024000 
  762000   0.96642736   -4.0315823   -4.0315823   -2.5819442   0.38029944   -4.0315823    1.4496381      1024000 
  763000   0.96298335   -4.0255136   -4.0255136   -2.5810416   0.35814818   -4.0255136    1.4444721      1024000 
  764000   0.95755639   -4.0164554   -4.0164554   -2.5801238   0.32730945   -4.0164554    1.4363317      1024000 
  765000   0.94922219    -4.003208    -4.003208   -2.5793776   0.29539811    -4.003208    1.4238304      1024000 
  766000   0.93996303   -3.9888024   -3.9888024   -2.5788607   0.25158507   -3.9888024    1.4099417      1024000 
  767000   0.93141407   -3.9749158   -3.9749158   -2.5777975   0.21334659   -3.9749158    1.3971183      1024000 
  768000   0.92264138   -3.9610059   -3.9610059   -2.5770466   0.17138848   -3.9610059    1.3839593      1024000 
  769000   0.91306339   -3.9466229   -3.9466229   -2.5770306   0.13532868   -3.9466229    1.3695923      1024000 
  770000   0.90603534   -3.9355944   -3.9355944   -2.5765441   0.10119766   -3.9355944    1.3590503      1024000 
  771000   0.89956062   -3.9251211   -3.9251211   -2.5757829  0.074498709   -3.9251211    1.3493382      1024000 
  772000   0.89477674   -3.9170925   -3.9170925   -2.5749301  0.051761753   -3.9170925    1.3421624      1024000 
  773000   0.89073092   -3.9105628   -3.9105628   -2.5744691  0.033361106   -3.9105628    1.3360937      1024000 
  774000   0.88718211   -3.9049169   -3.9049169   -2.5741464  0.022547175   -3.9049169    1.3307705      1024000 
  775000   0.88712273   -3.9049448   -3.9049448   -2.5742634  0.015620046   -3.9049448    1.3306814      1024000 
  776000   0.88525072   -3.9017905   -3.9017905   -2.5739171  0.020520183   -3.9017905    1.3278734      1024000 
  777000    0.8857521   -3.9034054   -3.9034054     -2.57478  0.024952644   -3.9034054    1.3286254      1024000 
  778000   0.88699328   -3.9055989   -3.9055989   -2.5751117  0.031263772   -3.9055989    1.3304872      1024000 
  779000   0.88881903   -3.9090377   -3.9090377   -2.5758119  0.039316053   -3.9090377    1.3332258      1024000 
  780000    0.8905885   -3.9121162   -3.9121162   -2.5762362  0.045844313   -3.9121162      1.33588      1024000 
  781000   0.89351278      -3.9166      -3.9166   -2.5763336  0.051848143      -3.9166    1.3402665      1024000 
  782000   0.89483419   -3.9197136   -3.9197136   -2.5774651  0.059004568   -3.9197136    1.3422486      1024000 
  783000    0.8979179    -3.924729    -3.924729   -2.5778548  0.068659091    -3.924729    1.3468741      1024000 
  784000   0.89922143   -3.9272671   -3.9272671   -2.5784376  0.081709978   -3.9272671    1.3488294      1024000 
  785000   0.89994523   -3.9288991   -3.9288991    -2.578984   0.07719448   -3.9288991    1.3499151      1024000 
  786000   0.90043354   -3.9303396   -3.9303396   -2.5796921  0.085905045   -3.9303396    1.3506476      1024000 
  787000   0.89954863    -3.929244    -3.929244   -2.5799238  0.088440921    -3.929244    1.3493202      1024000 
  788000   0.89950318   -3.9287559   -3.9287559   -2.5795039  0.085641412   -3.9287559     1.349252      1024000 
  789000   0.89896502    -3.928305    -3.928305   -2.5798602  0.078790952    -3.928305    1.3484448      1024000 
  790000   0.89759247   -3.9264911   -3.9264911   -2.5801051  0.077336035   -3.9264911     1.346386      1024000 
  791000   0.89594677   -3.9240991   -3.9240991   -2.5801817  0.062493137   -3.9240991    1.3439174      1024000 
  792000    0.8947309   -3.9224516   -3.9224516    -2.580358   0.06123051   -3.9224516    1.3420936      1024000 
  793000   0.89386252   -3.9209816   -3.9209816   -2.5801905  0.050861607   -3.9209816    1.3407911      1024000 
  794000   0.89090323   -3.9166127   -3.9166127   -2.5802605  0.046681564   -3.9166127    1.3363521      1024000 
  795000   0.88941242   -3.9150521   -3.9150521   -2.5809362  0.039718809   -3.9150521    1.3341159      1024000 
  796000   0.88813619   -3.9130629   -3.9130629   -2.5808613  0.040920335   -3.9130629    1.3322016      1024000 
  797000   0.88679592   -3.9114356   -3.9114356   -2.5812444   0.03556321   -3.9114356    1.3301912      1024000 
  798000   0.88711507   -3.9116839   -3.9116839    -2.581014  0.031685043   -3.9116839    1.3306699      1024000 
  799000   0.88665062   -3.9117062   -3.9117062    -2.581733  0.038783325   -3.9117062    1.3299732      1024000 
  800000   0.88836894   -3.9143471   -3.9143471   -2.5817963  0.036911796   -3.9143471    1.3325507      1024000 
  801000   0.88960519   -3.9161984   -3.9161984   -2.5817934  0.044877473   -3.9161984    1.3344051      1024000 
  802000    0.8906779   -3.9186031   -3.9186031    -2.582589  0.053812675   -3.9186031    1.3360141      1024000 
  803000   0.89205866   -3.9208338   -3.9208338   -2.5827485  0.053646231   -3.9208338    1.3380853      1024000 
  804000   0.89391433   -3.9235178   -3.9235178    -2.582649   0.06243972   -3.9235178    1.3408688      1024000 
  805000   0.89527421   -3.9252179   -3.9252179   -2.5823093  0.063910144   -3.9252179    1.3429086      1024000 
  806000   0.89688444   -3.9277407   -3.9277407   -2.5824168   0.06406798   -3.9277407    1.3453239      1024000 
  807000   0.89561685   -3.9264116   -3.9264116   -2.5829891  0.070915188   -3.9264116    1.3434226      1024000 
  808000   0.89759164   -3.9293097   -3.9293097    -2.582925  0.073499146   -3.9293097    1.3463847      1024000 
  809000   0.89689623   -3.9278426   -3.9278426    -2.582501  0.078690219   -3.9278426    1.3453416      1024000 
  810000   0.89604933   -3.9268018   -3.9268018   -2.5827305  0.076835054   -3.9268018    1.3440713      1024000 
  811000   0.89689674   -3.9273667   -3.9273667   -2.5820243  0.071800637   -3.9273667    1.3453424      1024000 
  812000   0.89456952   -3.9244588   -3.9244588   -2.5826072  0.069545419   -3.9244588    1.3418516      1024000 
  813000   0.89349399    -3.922535    -3.922535   -2.5822967  0.059017437    -3.922535    1.3402383      1024000 
  814000   0.89245752    -3.920743    -3.920743   -2.5820594  0.054527724    -3.920743    1.3386836      1024000 
  815000   0.89151274   -3.9196189   -3.9196189   -2.5823525  0.052894149   -3.9196189    1.3372664      1024000 
  816000   0.88981401   -3.9168073   -3.9168073    -2.582089  0.046686867   -3.9168073    1.3347183      1024000 
  817000   0.88886193   -3.9152137   -3.9152137   -2.5819235  0.046846409   -3.9152137    1.3332902      1024000 
  818000   0.88919371    -3.915694    -3.915694   -2.5819061  0.044397335    -3.915694    1.3337879      1024000 
  819000   0.88683339   -3.9131429   -3.9131429   -2.5828955   0.04664629   -3.9131429    1.3302474      1024000 
  820000   0.88647339   -3.9122901   -3.9122901   -2.5825827  0.046897109   -3.9122901    1.3297074      1024000 
  821000   0.88784041   -3.9139849   -3.9139849    -2.582227   0.04377624   -3.9139849    1.3317579      1024000 
  822000   0.88690401   -3.9124823   -3.9124823    -2.582129  0.049354891   -3.9124823    1.3303533      1024000 
  823000   0.88875742   -3.9147738   -3.9147738   -2.5816404   0.04655493   -3.9147738    1.3331334      1024000 
  824000   0.88977511   -3.9161389   -3.9161389   -2.5814789  0.052846167   -3.9161389      1.33466      1024000 
  825000   0.89187824   -3.9193145   -3.9193145   -2.5814999  0.055917932   -3.9193145    1.3378146      1024000 
  826000   0.89128331   -3.9184089   -3.9184089   -2.5814867  0.062600139   -3.9184089    1.3369222      1024000 
  827000   0.89241093   -3.9201075   -3.9201075   -2.5814938  0.066798962   -3.9201075    1.3386137      1024000 
  828000   0.89447389   -3.9224758   -3.9224758   -2.5807676  0.066691128   -3.9224758    1.3417081      1024000 
  829000   0.89340885    -3.920939    -3.920939   -2.5808285  0.075178686    -3.920939    1.3401106      1024000 
  830000   0.89455768   -3.9222607   -3.9222607   -2.5804269  0.067788322   -3.9222607    1.3418338      1024000 
  831000    0.8950152   -3.9230168   -3.9230168   -2.5804968  0.066225388   -3.9230168    1.3425201      1024000 
  832000   0.89581675   -3.9241997   -3.9241997   -2.5804773  0.065876392   -3.9241997    1.3437224      1024000 
  833000   0.89528992   -3.9233183   -3.9233183   -2.5803862  0.066080067   -3.9233183    1.3429322      1024000 
  834000   0.89398131   -3.9207062   -3.9207062    -2.579737   0.06406366   -3.9207062    1.3409692      1024000 
  835000   0.89380959   -3.9198023   -3.9198023   -2.5790906  0.062340083   -3.9198023    1.3407117      1024000 
  836000   0.89246552   -3.9179439   -3.9179439   -2.5792483   0.06172386   -3.9179439    1.3386956      1024000 
  837000   0.89239852   -3.9177296   -3.9177296   -2.5791345  0.056284578   -3.9177296    1.3385951      1024000 
  838000   0.89181932   -3.9166166   -3.9166166   -2.5788903  0.053288924   -3.9166166    1.3377263      1024000 
  839000   0.88929732   -3.9123215   -3.9123215   -2.5783782  0.054922903   -3.9123215    1.3339433      1024000 
  840000   0.88976247   -3.9129569   -3.9129569   -2.5783159  0.046527048   -3.9129569     1.334641      1024000 
  841000   0.88851579   -3.9114751   -3.9114751   -2.5787041  0.055700869   -3.9114751     1.332771      1024000 
  842000   0.88922986   -3.9115809   -3.9115809   -2.5777388  0.045757069   -3.9115809    1.3338421      1024000 
  843000   0.88820598    -3.910355    -3.910355   -2.5780487  0.047148274    -3.910355    1.3323063      1024000 
  844000   0.88921874    -3.911172    -3.911172   -2.5773466   0.05275972    -3.911172    1.3338254      1024000 
  845000   0.88829027   -3.9091749   -3.9091749   -2.5767422  0.055137403   -3.9091749    1.3324327      1024000 
  846000   0.89057845   -3.9129337   -3.9129337   -2.5770688  0.049722963   -3.9129337     1.335865      1024000 
  847000   0.88990844   -3.9122184   -3.9122184   -2.5773584  0.054273339   -3.9122184      1.33486      1024000 
  848000   0.89300706   -3.9160707   -3.9160707   -2.5765628  0.053640055   -3.9160707    1.3395079      1024000 
  849000   0.89256117   -3.9147952   -3.9147952   -2.5759561  0.052798306   -3.9147952     1.338839      1024000 
  850000   0.89259242   -3.9149727   -3.9149727   -2.5760868  0.061408128   -3.9149727    1.3388859      1024000 
  851000   0.89311667   -3.9157671   -3.9157671   -2.5760948    0.0625899   -3.9157671    1.3396723      1024000 
  852000   0.89440602   -3.9168857   -3.9168857   -2.5752794  0.062080139   -3.9168857    1.3416063      1024000 
  853000   0.89482089   -3.9171858   -3.9171858   -2.5749572  0.060186537   -3.9171858    1.3422286      1024000 
  854000   0.89509645   -3.9171731   -3.9171731   -2.5745312  0.059195588   -3.9171731     1.342642      1024000 
  855000   0.89305985    -3.914112    -3.914112   -2.5745249  0.066127933    -3.914112    1.3395871      1024000 
  856000   0.89447215   -3.9151063   -3.9151063   -2.5734008  0.061960661   -3.9151063    1.3417055      1024000 
  857000   0.89380637   -3.9137105   -3.9137105   -2.5730037  0.057962539   -3.9137105    1.3407068      1024000 
  858000   0.89241286   -3.9111203   -3.9111203   -2.5725038   0.05792681   -3.9111203    1.3386166      1024000 
  859000   0.89297961   -3.9117482   -3.9117482   -2.5722815  0.049698571   -3.9117482    1.3394667      1024000 
  860000   0.89307852   -3.9118142   -3.9118142   -2.5721992  0.051497815   -3.9118142    1.3396151      1024000 
  861000   0.89155466   -3.9094562   -3.9094562   -2.5721269  0.047477705   -3.9094562    1.3373293      1024000 
  862000   0.89189675    -3.909394    -3.909394   -2.5715516  0.050472981    -3.909394    1.3378424      1024000 
  863000   0.89169515   -3.9085004   -3.9085004   -2.5709604  0.052890881   -3.9085004      1.33754      1024000 
  864000   0.89214822   -3.9082484   -3.9082484   -2.5700288  0.050983664   -3.9082484    1.3382196      1024000 
  865000   0.89096607   -3.9061895   -3.9061895   -2.5697431  0.050998219   -3.9061895    1.3364464      1024000 
  866000   0.89114707   -3.9057452   -3.9057452   -2.5690273  0.051402136   -3.9057452    1.3367179      1024000 
  867000   0.89089092   -3.9055182   -3.9055182   -2.5691846  0.047908781   -3.9055182    1.3363337      1024000 
  868000   0.89207247   -3.9065635   -3.9065635   -2.5684575  0.049563969   -3.9065635     1.338106      1024000 
  869000   0.89356423    -3.907987    -3.907987   -2.5676434  0.046713193    -3.907987    1.3403436      1024000 
  870000   0.89183636   -3.9053114   -3.9053114   -2.5675595  0.054755018   -3.9053114    1.3377518      1024000 
  871000   0.89366142   -3.9069281   -3.9069281   -2.5664387  0.056357482   -3.9069281    1.3404894      1024000 
  872000   0.89435417    -3.908219    -3.908219   -2.5666905  0.051928952    -3.908219    1.3415285      1024000 
  873000   0.89475168   -3.9084933   -3.9084933   -2.5663685  0.054631263   -3.9084933    1.3421248      1024000 
  874000   0.89517466   -3.9088347   -3.9088347   -2.5660755  0.058688398   -3.9088347    1.3427593      1024000 
  875000   0.89383741   -3.9059104   -3.9059104   -2.5651571  0.063260832   -3.9059104    1.3407534      1024000 
  876000   0.89470569   -3.9074963   -3.9074963   -2.5654405  0.057524596   -3.9074963    1.3420558      1024000 
  877000   0.89500146   -3.9077452   -3.9077452   -2.5652458  0.058288838   -3.9077452    1.3424995      1024000 
  878000   0.89482355   -3.9066453   -3.9066453   -2.5644127  0.057530035   -3.9066453    1.3422326      1024000 
  879000   0.89467101   -3.9055658   -3.9055658    -2.563562  0.058062773   -3.9055658    1.3420038      1024000 
  880000   0.89432884    -3.904614    -3.904614   -2.5631234  0.056627059    -3.904614    1.3414905      1024000 
  881000   0.89497633   -3.9051684   -3.9051684   -2.5627066  0.051827127   -3.9051684    1.3424618      1024000 
  882000   0.89433112   -3.9035027   -3.9035027   -2.5620087  0.055332877   -3.9035027     1.341494      1024000 
  883000   0.89488103   -3.9036374   -3.9036374   -2.5613186  0.055516911   -3.9036374    1.3423188      1024000 
  884000     0.894793   -3.9028632   -3.9028632   -2.5606764  0.051804967   -3.9028632    1.3421868      1024000 
  885000    0.8946302   -3.9023909   -3.9023909   -2.5604484  0.052857599   -3.9023909    1.3419426      1024000 
  886000   0.89386177   -3.9009197   -3.9009197   -2.5601298  0.052057398   -3.9009197    1.3407899      1024000 
  887000   0.89442021   -3.9014554   -3.9014554   -2.5598278  0.050216831   -3.9014554    1.3416276      1024000 
  888000   0.89510011   -3.9017021   -3.9017021   -2.5590546  0.046319892   -3.9017021    1.3426474      1024000 
  889000   0.89483792   -3.9012614   -3.9012614   -2.5590072  0.052690212   -3.9012614    1.3422542      1024000 
  890000   0.89395258   -3.8993865   -3.8993865   -2.5584603  0.052624836   -3.8993865    1.3409261      1024000 
  891000   0.89513337   -3.9008248   -3.9008248   -2.5581275   0.04904846   -3.9008248    1.3426973      1024000 
  892000   0.89559635   -3.9008171   -3.9008171   -2.5574253   0.04879959   -3.9008171    1.3433918      1024000 
  893000   0.89499595   -3.8991556   -3.8991556   -2.5566644  0.057521141   -3.8991556    1.3424912      1024000 
  894000   0.89707209   -3.9017219   -3.9017219   -2.5561165  0.055693997   -3.9017219    1.3456054      1024000 
  895000   0.89774403   -3.9023142   -3.9023142   -2.5557009  0.055073221   -3.9023142    1.3466133      1024000 
  896000   0.89724451   -3.9011964   -3.9011964   -2.5553324  0.055353273   -3.9011964     1.345864      1024000 
  897000   0.89837418   -3.9026757   -3.9026757   -2.5551172  0.054507639   -3.9026757    1.3475585      1024000 
  898000   0.89858383   -3.9020355   -3.9020355   -2.5541625  0.055479048   -3.9020355     1.347873      1024000 
  899000    0.8993433   -3.9033047   -3.9033047   -2.5542925   0.05318071   -3.9033047    1.3490122      1024000 
  900000   0.89903267   -3.9023692   -3.9023692   -2.5538229  0.059322674   -3.9023692    1.3485463      1024000 
  901000   0.89902376   -3.9018004   -3.9018004   -2.5532675  0.060106265   -3.9018004    1.3485329      1024000 
  902000   0.89891299   -3.9008492   -3.9008492   -2.5524824  0.059114879   -3.9008492    1.3483668      1024000 
  903000   0.89808901   -3.8991107   -3.8991107   -2.5519799  0.062265108   -3.8991107    1.3471308      1024000 
  904000   0.89936129    -3.900441    -3.900441   -2.5514018  0.052513206    -3.900441    1.3490392      1024000 
  905000   0.89939604   -3.8999134   -3.8999134   -2.5508221  0.054518316   -3.8999134    1.3490913      1024000 
  906000   0.89715641   -3.8961186   -3.8961186   -2.5503867  0.053460439   -3.8961186    1.3457319      1024000 
  907000   0.89714412   -3.8952644   -3.8952644    -2.549551  0.053418618   -3.8952644    1.3457134      1024000 
  908000   0.89878493   -3.8972826   -3.8972826    -2.549108  0.048510916   -3.8972826    1.3481747      1024000 
  909000   0.89806852   -3.8956834   -3.8956834   -2.5485833  0.056681406   -3.8956834       1.3471      1024000 
  910000   0.89813866   -3.8958982   -3.8958982    -2.548693  0.056720331   -3.8958982    1.3472053      1024000 
  911000   0.89853126    -3.895901    -3.895901   -2.5481069  0.052135009    -3.895901    1.3477942      1024000 
  912000   0.89979916   -3.8975239   -3.8975239   -2.5478279  0.047306907   -3.8975239     1.349696      1024000 
  913000   0.90034962   -3.8980534   -3.8980534   -2.5475318  0.058268618   -3.8980534    1.3505217      1024000 
  914000   0.90097176   -3.8980719   -3.8980719    -2.546617   0.05945238   -3.8980719    1.3514549      1024000 
  915000    0.9030732   -3.9007018   -3.9007018   -2.5460947  0.073484141   -3.9007018     1.354607      1024000 
  916000   0.90581748   -3.9042419   -3.9042419   -2.5455185  0.083105376   -3.9042419    1.3587235      1024000 
  917000   0.91010719   -3.9101302   -3.9101302   -2.5449722  0.085933189   -3.9101302     1.365158      1024000 
  918000   0.91283931   -3.9137594   -3.9137594   -2.5445032   0.10736134   -3.9137594    1.3692562      1024000 
  919000   0.91724114   -3.9197458   -3.9197458   -2.5438869   0.12684079   -3.9197458    1.3758589      1024000 
  920000   0.92252239   -3.9278239   -3.9278239   -2.5440431   0.13872808   -3.9278239    1.3837808      1024000 
  921000   0.92745732   -3.9348279   -3.9348279   -2.5436447   0.16651181   -3.9348279    1.3911832      1024000 
  922000   0.93341145   -3.9431002   -3.9431002   -2.5429859   0.18437234   -3.9431002    1.4001143      1024000 
  923000    0.9374395   -3.9483454   -3.9483454    -2.542189   0.20976995   -3.9483454    1.4061564      1024000 
  924000   0.94358822    -3.957163    -3.957163   -2.5417835   0.22503786    -3.957163    1.4153795      1024000 
  925000   0.94670588   -3.9615685   -3.9615685   -2.5415126   0.24596889   -3.9615685    1.4200559      1024000 
  926000   0.95024691   -3.9665263   -3.9665263   -2.5411588   0.24908431   -3.9665263    1.4253675      1024000 
  927000    0.9521713   -3.9690453   -3.9690453   -2.5407913   0.25366026   -3.9690453    1.4282541      1024000 
  928000   0.95166462   -3.9679397   -3.9679397   -2.5404457    0.2521307   -3.9679397     1.427494      1024000 
  929000   0.95139716   -3.9673813   -3.9673813   -2.5402884   0.24089454   -3.9673813    1.4270928      1024000 
  930000   0.94765907   -3.9614186   -3.9614186   -2.5399329    0.2317614   -3.9614186    1.4214857      1024000 
  931000   0.94369879   -3.9549419   -3.9549419   -2.5393965     0.215974   -3.9549419    1.4155453      1024000 
  932000   0.94002753    -3.949025    -3.949025   -2.5389865   0.19448555    -3.949025    1.4100384      1024000 
  933000   0.93465728   -3.9408679   -3.9408679   -2.5388849   0.18001502   -3.9408679    1.4019831      1024000 
  934000   0.92903933   -3.9316897   -3.9316897   -2.5381335   0.15495882   -3.9316897    1.3935562      1024000 
  935000   0.92447917   -3.9243394   -3.9243394   -2.5376235   0.13497878   -3.9243394    1.3867159      1024000 
  936000   0.92058928   -3.9181506   -3.9181506   -2.5372695   0.11309848   -3.9181506    1.3808811      1024000 
  937000   0.91650256   -3.9116711   -3.9116711     -2.53692  0.090465063   -3.9116711     1.374751      1024000 
  938000   0.91132862   -3.9037788   -3.9037788   -2.5367886  0.078217975   -3.9037788    1.3669902      1024000 
  939000   0.90756375   -3.8981685   -3.8981685   -2.5368257  0.066042422   -3.8981685    1.3613429      1024000 
  940000   0.90456126   -3.8932139   -3.8932139   -2.5363748  0.053868752   -3.8932139    1.3568391      1024000 
  941000   0.90157892   -3.8886967   -3.8886967   -2.5363311  0.045953761   -3.8886967    1.3523656      1024000 
  942000   0.89947012    -3.886027    -3.886027   -2.5368245  0.036564949    -3.886027    1.3492024      1024000 
  943000   0.89862626   -3.8850617   -3.8850617    -2.537125  0.038326671   -3.8850617    1.3479367      1024000 
  944000   0.89712792    -3.882919    -3.882919   -2.5372299  0.034649662    -3.882919    1.3456892      1024000 
  945000   0.89564554   -3.8808377   -3.8808377   -2.5373721  0.039164666   -3.8808377    1.3434656      1024000 
  946000   0.89641152    -3.881876    -3.881876   -2.5372614  0.038391313    -3.881876    1.3446146      1024000 
  947000   0.89704384   -3.8828039   -3.8828039   -2.5372409   0.04126881   -3.8828039     1.345563      1024000 
  948000   0.89805578   -3.8848521   -3.8848521   -2.5377711  0.036476549   -3.8848521    1.3470809      1024000 
  949000    0.8990111   -3.8865407   -3.8865407   -2.5380268  0.046268319   -3.8865407    1.3485139      1024000 
  950000   0.89989839   -3.8880022   -3.8880022   -2.5381573  0.053854701   -3.8880022    1.3498449      1024000 
  951000   0.90149547    -3.890687    -3.890687   -2.5384465  0.049756831    -3.890687    1.3522405      1024000 
  952000   0.90154401   -3.8909101   -3.8909101   -2.5385968   0.05187963   -3.8909101    1.3523133      1024000 
  953000   0.90271378   -3.8923765   -3.8923765   -2.5383085  0.059001446   -3.8923765    1.3540679      1024000 
  954000    0.9047176   -3.8955488   -3.8955488   -2.5384752  0.063192248   -3.8955488    1.3570737      1024000 
  955000   0.90455301   -3.8956502   -3.8956502   -2.5388234  0.061860032   -3.8956502    1.3568268      1024000 
  956000   0.90460259   -3.8956583   -3.8956583   -2.5387572  0.067366836   -3.8956583    1.3569011      1024000 
  957000   0.90550466   -3.8970678   -3.8970678   -2.5388135  0.068754654   -3.8970678    1.3582542      1024000 
  958000   0.90608149   -3.8976146   -3.8976146   -2.5384951  0.061192979   -3.8976146    1.3591195      1024000 
  959000   0.90481326   -3.8954448   -3.8954448   -2.5382276  0.066684341   -3.8954448    1.3572171      1024000 
  960000   0.90507419   -3.8955408   -3.8955408   -2.5379322  0.059559833   -3.8955408    1.3576085      1024000 
  961000   0.90416563   -3.8937175   -3.8937175   -2.5374718   0.06259654   -3.8937175    1.3562457      1024000 
  962000   0.90213403   -3.8909443   -3.8909443    -2.537746  0.061375292   -3.8909443    1.3531983      1024000 
  963000   0.90134912   -3.8892433   -3.8892433   -2.5372224  0.051976438   -3.8892433    1.3520209      1024000 
  964000   0.90020329   -3.8875923   -3.8875923   -2.5372901  0.042015957   -3.8875923    1.3503022      1024000 
  965000   0.90059386   -3.8882604   -3.8882604   -2.5373724  0.041966984   -3.8882604     1.350888      1024000 
  966000   0.89912436    -3.885585    -3.885585   -2.5369011  0.046001348    -3.885585    1.3486838      1024000 
  967000   0.89951476   -3.8866929   -3.8866929   -2.5374235  0.044211414   -3.8866929    1.3492694      1024000 
  968000   0.89891705   -3.8854751   -3.8854751   -2.5371022  0.035712949   -3.8854751    1.3483728      1024000 
  969000   0.89826685   -3.8844368   -3.8844368   -2.5370392  0.043038345   -3.8844368    1.3473975      1024000 
  970000   0.89946677   -3.8859095   -3.8859095   -2.5367121  0.042050987   -3.8859095    1.3491974      1024000 
  971000   0.89897054   -3.8854831   -3.8854831     -2.53703  0.045873181   -3.8854831    1.3484531      1024000 
  972000   0.89839605   -3.8841113   -3.8841113     -2.53652  0.046684385   -3.8841113    1.3475913      1024000 
  973000   0.89822753   -3.8837726   -3.8837726   -2.5364341  0.049453995   -3.8837726    1.3473386      1024000 
  974000   0.90076347   -3.8868374   -3.8868374   -2.5356949  0.050086093   -3.8868374    1.3511425      1024000 
  975000   0.90259757   -3.8893901   -3.8893901   -2.5354964  0.056234026   -3.8893901    1.3538936      1024000 
  976000   0.90266877   -3.8892019   -3.8892019   -2.5352015  0.056261344   -3.8892019    1.3540004      1024000 
  977000   0.90219737   -3.8883162   -3.8883162   -2.5350229  0.060568358   -3.8883162    1.3532933      1024000 
  978000   0.90276367   -3.8894005   -3.8894005   -2.5352578  0.061918293   -3.8894005    1.3541428      1024000 
  979000   0.90369366   -3.8901707   -3.8901707   -2.5346329  0.059469888   -3.8901707    1.3555377      1024000 
  980000   0.90415896   -3.8905498   -3.8905498   -2.5343141  0.062792467   -3.8905498    1.3562357      1024000 
  981000    0.9038878   -3.8895743   -3.8895743   -2.5337454   0.06867882   -3.8895743    1.3558289      1024000 
  982000   0.90367842   -3.8889584   -3.8889584   -2.5334435  0.066268366   -3.8889584    1.3555149      1024000 
  983000   0.90501223    -3.890735    -3.890735   -2.5332194   0.05842954    -3.890735    1.3575156      1024000 
  984000    0.9047866   -3.8904708   -3.8904708   -2.5332936  0.056582112   -3.8904708    1.3571771      1024000 
  985000   0.90314024   -3.8879176   -3.8879176     -2.53321  0.055485795   -3.8879176    1.3547076      1024000 
  986000   0.90236062   -3.8865689   -3.8865689   -2.5330307   0.05421392   -3.8865689    1.3535382      1024000 
  987000   0.90191503   -3.8854753   -3.8854753   -2.5326055  0.054371987   -3.8854753    1.3528698      1024000 
  988000   0.90140163   -3.8843566   -3.8843566   -2.5322569  0.053527756   -3.8843566    1.3520997      1024000 
  989000   0.90003808   -3.8821601   -3.8821601   -2.5321057  0.049767875   -3.8821601    1.3500544      1024000 
  990000   0.90050751   -3.8825141   -3.8825141   -2.5317556  0.047119574   -3.8825141    1.3507585      1024000 
  991000   0.90017932   -3.8813502   -3.8813502   -2.5310839  0.047309412   -3.8813502    1.3502662      1024000 
  992000   0.90035961   -3.8812502   -3.8812502   -2.5307135  0.043899826   -3.8812502    1.3505367      1024000 
  993000   0.89984349   -3.8797984   -3.8797984   -2.5300359  0.048958668   -3.8797984    1.3497625      1024000 
  994000   0.90147104   -3.8821875   -3.8821875   -2.5299837  0.047132484   -3.8821875    1.3522038      1024000 
  995000   0.90119853   -3.8817524   -3.8817524   -2.5299573  0.043507226   -3.8817524    1.3517951      1024000 
  996000   0.90133902   -3.8820352   -3.8820352   -2.5300294  0.049413335   -3.8820352    1.3520058      1024000 
  997000   0.90158328   -3.8816793   -3.8816793   -2.5293072  0.052536241   -3.8816793    1.3523722      1024000 
  998000   0.90228101   -3.8825779   -3.8825779   -2.5291591  0.052683656   -3.8825779    1.3534188      1024000 
  999000   0.90276427   -3.8831584   -3.8831584   -2.5290147  0.055858002   -3.8831584    1.3541437      1024000 
 1000000   0.90307898    -3.883836    -3.883836   -2.5292203  0.059682905    -3.883836    1.3546157      1024000 
Loop time of 7402.72 on 32 procs for 1000000 steps with 492800 atoms

Performance: 29178.463 tau/day, 135.085 timesteps/s
99.7% CPU use with 32 MPI tasks x 1 OpenMP threads

MPI task timing breakdown:
Section |  min time  |  avg time  |  max time  |%varavg|  %CPU | %total
-----------------------------------------------------------------------
Pair    | 3948.9     | 4699.7     | 5075.5     | 553.6 |  99.7 | 63.49
Bond    | 0.63566    | 0.64689    | 0.6672     |   1.0 | 100.0 |  0.01
Neigh   | 1112.1     | 1249.5     | 1322.4     | 212.1 |  99.8 | 16.88
Comm    | 612.22     | 1006.7     | 1771       |1178.2 |  99.5 | 13.60
Output  | 22.334     | 22.513     | 22.52      |   0.7 |  98.3 |  0.30
Modify  | 154.94     | 227.09     | 561.3      | 884.1 |  99.2 |  3.07
Other   |            | 196.7      |            |       |       |  2.66

Nlocal:        15400.0 ave       16007 max       14435 min
Histogram: 1 0 1 1 0 8 16 2 2 1
Nghost:        12001.2 ave       13492 max        8381 min
Histogram: 4 4 0 0 0 0 0 4 4 16
Neighs:        493551.0 ave      553436 max      284709 min
Histogram: 1 3 0 0 0 0 2 5 5 16

Total # of neighbors = 15793632
Ave neighs/atom = 32.048766
Ave special neighs/atom = 0.0000000
Neighbor list builds = 62802
Dangerous builds = 446
Total wall time: 2:03:23
