LAMMPS (24 Dec 2020)
OMP_NUM_THREADS environment is not set. Defaulting to 1 thread. (src/comm.cpp:94)
  using 1 OpenMP thread(s) per MPI task
# Simple rigid body system
# needed variables: startTemp, temp

units		lj
atom_style	full
dimension 	3
boundary	p p f
pair_style	lj/cut/opt 2.5

variable 	gcmcdisplace	equal 0
variable 	sigma		equal 1.0
variable 	epsilon 	equal 1.0


read_restart	restart.dat.3000000
Reading restart file ...
  restart file = 24 Dec 2020, LAMMPS = 24 Dec 2020
WARNING: Restart file used different # of processors: 48 vs. 192 (src/read_restart.cpp:697)
  restoring atom style full from restart
  orthogonal box = (0.0000000 0.0000000 0.0000000) to (80.000000 80.000000 160.00000)
  6 by 4 by 8 MPI processor grid
  restoring pair style lj/cut/opt from restart
  439061 atoms
Finding 1-2 1-3 1-4 neighbors ...
  special bond factors lj:    0        0        0       
  special bond factors coul:  0        0        0       
     0 = max # of 1-2 neighbors
     0 = max # of 1-3 neighbors
     0 = max # of 1-4 neighbors
     1 = max # of special neighbors
  special bonds CPU = 1.413 seconds
  read_restart CPU = 1.760 seconds

mass		1 1.0
mass		2 1.0
mass		3 1.0


group		solvent type 1
439061 atoms in group solvent


neighbor 	0.4 bin

pair_coeff	1 1 1.0 1.0
pair_coeff	2 2 0.0 0.0
pair_coeff	3 3 0.0 0.0
pair_coeff	2 3 0.0 0.0
pair_coeff	1 2*3 0.0 0.0

pair_modify 	shift yes


balance 	1.05 shift z 10 1.05
Balancing ...
Neighbor list info ...
  update every 1 steps, delay 10 steps, check yes
  max neighbors/atom: 2000, page size: 100000
  master list distance cutoff = 2.9
  ghost atom cutoff = 2.9
  binsize = 1.45, bins = 56 56 111
  1 neighbor lists, perpetual/occasional/extra = 1 0 0
  (1) pair lj/cut/opt, perpetual
      attributes: half, newton on
      pair build: half/bin/newton
      stencil: half/bin/3d/newton
      bin: standard
 rebalancing time: 0.027 seconds
  iteration count = 5
  initial/final maximal load/proc = 3162.0000 2575.0000
  initial/final imbalance factor  = 1.3827327 1.1260394
  x cuts: 0.0000000 0.16666667 0.33333333 0.50000000 0.66666667 0.83333333 1.0000000
  y cuts: 0.0000000 0.25000000 0.50000000 0.75000000 1.0000000
  z cuts: 0.0000000 0.097656250 0.18359375 0.27734375 0.37890625 0.47656250 0.57031250 0.67968750 1.0000000


####################### WALLS ###########################


variable       epsilonWall equal 2*${epsilon}
variable       epsilonWall equal 2*1

variable       cutoffTop   equal   0.7147*${sigma}
variable       cutoffTop   equal   0.7147*1

variable       cutoffLow   equal   3*${sigma}
variable       cutoffLow   equal   3*1


fix            topWall all wall/lj93 zhi EDGE                ${epsilonWall} ${sigma} ${cutoffTop} units box
fix            topWall all wall/lj93 zhi EDGE                2 ${sigma} ${cutoffTop} units box
fix            topWall all wall/lj93 zhi EDGE                2 1 ${cutoffTop} units box
fix            topWall all wall/lj93 zhi EDGE                2 1 0.7147 units box

fix            lowWall all wall/lj93 zlo EDGE                ${epsilonWall} ${sigma} ${cutoffLow} units box
fix            lowWall all wall/lj93 zlo EDGE                2 ${sigma} ${cutoffLow} units box
fix            lowWall all wall/lj93 zlo EDGE                2 1 ${cutoffLow} units box
fix            lowWall all wall/lj93 zlo EDGE                2 1 3 units box


###################### COMPUTES ##########################

compute        bin1 solvent chunk/atom bin/1d z upper 1.0



######################	FIXES ############################


fix 		peclet solvent ave/chunk 1000 1 1000 bin1 density/number norm 		 none ave one file density.profile

fix 		 temp solvent ave/chunk 1000 1 1000 bin1 temp norm none ave one file temp.profile

fix 		2 solvent nve

## Thermostat


region		regthermo block EDGE EDGE EDGE EDGE 0 20

group 		thermo dynamic solvent region regthermo every 1000
dynamic group thermo defined

fix 		3 thermo langevin ${startTemp} ${temp} 10 156453
fix 		3 thermo langevin 1.0 ${temp} 10 156453
fix 		3 thermo langevin 1.0 1.0 10 156453


## Evaporation

region		regevap block EDGE EDGE EDGE EDGE 140 158
fix 		gcmc solvent gcmc 100 100 0 1 780493 ${temp} ${mu} ${gcmcdisplace} region regevap
fix 		gcmc solvent gcmc 100 100 0 1 780493 1.0 ${mu} ${gcmcdisplace} region regevap
fix 		gcmc solvent gcmc 100 100 0 1 780493 1.0 -3.8 ${gcmcdisplace} region regevap
fix 		gcmc solvent gcmc 100 100 0 1 780493 1.0 -3.8 0 region regevap


#### Load balancing

fix 		bal all balance 1000 1.05 shift z 10 1.05

############### Diagnostics and computes ###################
#compute 	com cube	  rigid/local	1 mol x y z
#compute 	quat cube	  rigid/local	1 mol quatw quati quatj quatk

thermo 		1000
thermo_style 	custom step temp epair etotal press pe ke atoms

dump		1 all custom 100000 dump.lammpstrj id mol type x y z
dump 		2 all image 10000 image.*.png type type
dump 		3 all movie 1000 movie.avi type type
#dump 		com cube local 1000 dump.*.xyz c_com[*]
#dump		quat cube      local 1000 dump.*.quat c_quat[*]


restart 	1000000 restart.dat
timestep 	0.005
timer 		full
New timer settings: style=full  mode=nosync  timeout=off


run		5000000
Per MPI rank memory allocation (min/avg/max) = 9.923 | 9.986 | 10.01 Mbytes
Step Temp E_pair TotEng Press PotEng KinEng Atoms 
 3000000     1.016004   -3.1352716   -1.6112691  0.079025997   -3.1352716    1.5240025   439061 
 3001000     1.014538   -3.1351653   -1.6127551  0.073744698   -3.1351653    1.5224103   438886 
 3002000    1.0152773   -3.1397184   -1.6156223  0.074621544   -3.1397184    1.5240961   438720 
 3003000    1.0140909   -3.1388463    -1.615809  0.076156413   -3.1388463    1.5230373   438512 
 3004000    1.0128436   -3.1388218   -1.6170505  0.072705782   -3.1388218    1.5217713   438337 
 3005000    1.0105862   -3.1359711   -1.6169469  0.070438814   -3.1359711    1.5190242   438151 
 3006000    1.0100537   -3.1380286   -1.6190872  0.077668195   -3.1380286    1.5189413   437944 
 3007000    1.0090169    -3.139569   -1.6214554   0.07069866    -3.139569    1.5181136   437733 
 3008000    1.0098908   -3.1402209   -1.6201604   0.07602129   -3.1402209    1.5200605   437551 
 3009000    1.0098197   -3.1421779   -1.6215676  0.070010348   -3.1421779    1.5206103   437362 
 3010000    1.0078524   -3.1416168   -1.6232504  0.071551679   -3.1416168    1.5183665   437155 
 3011000    1.0087209   -3.1436752   -1.6233709  0.075460702   -3.1436752    1.5203044   436974 
 3012000    1.0099431   -3.1445502   -1.6217451  0.075426688   -3.1445502    1.5228052   436785 
 3013000    1.0087141   -3.1445067   -1.6229555  0.072749396   -3.1445067    1.5215512   436613 
 3014000    1.0068277   -3.1423153   -1.6228822  0.074770128   -3.1423153    1.5194331   436404 
 3015000    1.0068931    -3.144197   -1.6239616  0.075612602    -3.144197    1.5202355   436202 
 3016000    1.0052498   -3.1439817   -1.6254754  0.078702935   -3.1439817    1.5185063   435986 
 3017000    1.0056637    -3.145457   -1.6256422  0.075107597    -3.145457    1.5198148   435790 
 3018000    1.0038331    -3.144643   -1.6269749  0.069835306    -3.144643    1.5176681   435612 
 3019000    1.0043945   -3.1481021   -1.6290168   0.06554819   -3.1481021    1.5190853   435449 
 3020000    1.0023916   -3.1450908   -1.6284288  0.073257878   -3.1450908     1.516662   435275 
 3021000    1.0015932   -3.1452989   -1.6291482  0.066466178   -3.1452989    1.5161507   435075 
 3022000    1.0012465   -3.1457921   -1.6295041  0.069120435   -3.1457921     1.516288   434885 
 3023000    1.0030863   -3.1477062   -1.6279681  0.071839347   -3.1477062    1.5197382   434695 
 3024000    1.0023267    -3.149771   -1.6303692  0.067775192    -3.149771    1.5194018   434462 
 3025000   0.99999431   -3.1486603   -1.6322078  0.068187643   -3.1486603    1.5164526   434294 
 3026000   0.99933678   -3.1490968   -1.6329362   0.06966138   -3.1490968    1.5161607   434092 
 3027000   0.99953784   -3.1511719   -1.6340037   0.06659041   -3.1511719    1.5171682   433891 
 3028000   0.99718562   -3.1475575   -1.6332547  0.073331865   -3.1475575    1.5143028   433689 
 3029000   0.99798602   -3.1510356   -1.6348111  0.065757821   -3.1510356    1.5162245   433487 
 3030000   0.99711947   -3.1492675   -1.6337897  0.067201235   -3.1492675    1.5154778   433324 
 3031000   0.99523399   -3.1489963   -1.6357346  0.064890364   -3.1489963    1.5132617   433138 
 3032000   0.99538964    -3.151135   -1.6369584  0.068339829    -3.151135    1.5141766   432944 
 3033000   0.99551581   -3.1522715   -1.6372031  0.066098424   -3.1522715    1.5150684   432744 
 3034000   0.99399862   -3.1532076   -1.6397593  0.060866185   -3.1532076    1.5134484   432547 
 3035000   0.99133933   -3.1504704   -1.6404532  0.067361302   -3.1504704    1.5100173   432370 
 3036000   0.99207478   -3.1533812   -1.6416178  0.065074569   -3.1533812    1.5117634   432191 
 3037000   0.99094365   -3.1529051   -1.6420299  0.065837478   -3.1529051    1.5108752   431952 
 3038000   0.99168712   -3.1556811   -1.6429579   0.06139339   -3.1556811    1.5127232   431748 
 3039000   0.98921544    -3.155021   -1.6453407  0.059337147    -3.155021    1.5096802   431540 
 3040000   0.98983713   -3.1579097   -1.6467239  0.058451047   -3.1579097    1.5111858   431381 
 3041000   0.98956851   -3.1590668   -1.6476955  0.066423535   -3.1590668    1.5113713   431211 
 3042000   0.98957121   -3.1593218   -1.6474134  0.068484083   -3.1593218    1.5119084   431059 
 3043000   0.98848452   -3.1597114   -1.6488781  0.066050906   -3.1597114    1.5108334   430892 
 3044000   0.98869093   -3.1593489   -1.6475475  0.070384958   -3.1593489    1.5118015   430706 
 3045000   0.98924958    -3.161954   -1.6485534  0.064345165    -3.161954    1.5134006   430494 
 3046000   0.98858291   -3.1628517   -1.6497434  0.058731772   -3.1628517    1.5131083   430287 
 3047000   0.98845958    -3.163883   -1.6503303  0.065956872    -3.163883    1.5135527   430107 
 3048000   0.98742738   -3.1643733   -1.6517224  0.067223128   -3.1643733    1.5126509   429914 
 3049000   0.98701735   -3.1653783   -1.6526518    0.0641715   -3.1653783    1.5127265   429714 
 3050000   0.98508075    -3.164763   -1.6543262  0.066759792    -3.164763    1.5104368   429521 
 3051000   0.98576904   -3.1684648   -1.6563072  0.059296009   -3.1684648    1.5121576   429332 
 3052000   0.98336735   -3.1682101   -1.6589634  0.064110911   -3.1682101    1.5092468   429112 
 3053000    0.9839851   -3.1712744   -1.6602767  0.063170608   -3.1712744    1.5109977   428884 
 3054000   0.98283638   -3.1707208   -1.6608709  0.065191617   -3.1707208    1.5098498   428709 
 3055000   0.98121243   -3.1698329   -1.6618411  0.063297284   -3.1698329    1.5079918   428528 
 3056000   0.97924773   -3.1685456   -1.6629725  0.065722638   -3.1685456    1.5055731   428357 
 3057000   0.98047761   -3.1709152   -1.6629126  0.063735471   -3.1709152    1.5080026   428204 
 3058000   0.97964008   -3.1719433    -1.664729  0.064225097   -3.1719433    1.5072143   428062 
 3059000   0.97774458   -3.1702803   -1.6652862  0.063615103   -3.1702803    1.5049941   427864 
 3060000   0.97855431   -3.1728437   -1.6661137  0.063804632   -3.1728437      1.50673   427725 
 3061000   0.97660438   -3.1723047   -1.6679405  0.063188223   -3.1723047    1.5043642   427544 
 3062000   0.97789747   -3.1724453    -1.665416  0.057097618   -3.1724453    1.5070293   427353 
 3063000   0.97866679    -3.174146   -1.6653203   0.06100504    -3.174146    1.5088257   427180 
 3064000   0.97656553   -3.1730068   -1.6668212  0.061342424   -3.1730068    1.5061855   427010 
 3065000   0.97715442   -3.1750741   -1.6672493  0.056027667   -3.1750741    1.5078248   426803 
 3066000   0.97570124   -3.1716334   -1.6655252  0.060195994   -3.1716334    1.5061082   426654 
 3067000    0.9755015   -3.1736312   -1.6672418  0.061555277   -3.1736312    1.5063895   426487 
 3068000   0.97484457   -3.1733332   -1.6673544  0.058342123   -3.1733332    1.5059789   426316 
 3069000   0.97295728   -3.1726643   -1.6689343  0.063047678   -3.1726643      1.50373   426127 
 3070000   0.97434225   -3.1761247   -1.6696038   0.05992921   -3.1761247     1.506521   425943 
 3071000   0.97291943   -3.1748607   -1.6699179  0.058821414   -3.1748607    1.5049429   425767 
 3072000   0.97232785   -3.1744443   -1.6698582  0.055804956   -3.1744443    1.5045861   425609 
 3073000   0.97236836   -3.1759435   -1.6706227  0.055907249   -3.1759435    1.5053208   425419 
 3074000   0.97239019   -3.1779779    -1.672025  0.055653836   -3.1779779    1.5059529   425250 
 3075000    0.9709485   -3.1760601   -1.6718412   0.06386555   -3.1760601    1.5042189   425109 
 3076000    0.9696191   -3.1751719   -1.6724081  0.057341645   -3.1751719    1.5027638   424938 
 3077000   0.96747147    -3.174041   -1.6739208  0.057950238    -3.174041    1.5001201   424744 
 3078000   0.96918091    -3.177504   -1.6740997  0.059389594    -3.177504    1.5034043   424565 
 3079000   0.96743046   -3.1761443   -1.6749072  0.050038435   -3.1761443    1.5012371   424410 
 3080000   0.96693442   -3.1770399   -1.6760279  0.057652057   -3.1770399     1.501012   424256 
 3081000   0.96706442   -3.1777792    -1.675953  0.048528795   -3.1777792    1.5018262   424083 
 3082000   0.96611597   -3.1790894   -1.6781663  0.052982519   -3.1790894    1.5009231   423922 
 3083000   0.96482153   -3.1799882   -1.6804182  0.056789795   -3.1799882      1.49957   423736 
 3084000   0.96563972   -3.1816897   -1.6802385   0.05183075   -3.1816897    1.5014512   423564 
 3085000   0.96449458   -3.1805714   -1.6803021  0.053200442   -3.1805714    1.5002692   423395 
 3086000   0.96462825   -3.1813764   -1.6803604   0.05708665   -3.1813764     1.501016   423243 
 3087000   0.96380414   -3.1807612   -1.6802192  0.057594773   -3.1807612     1.500542   423015 
 3088000   0.96525755   -3.1841119   -1.6807172  0.059691153   -3.1841119    1.5033948   422849 
 3089000   0.96328778   -3.1821597   -1.6812721  0.054920776   -3.1821597    1.5008876   422691 
 3090000   0.96510626    -3.184925   -1.6805314   0.05413478    -3.184925    1.5043937   422502 
 3091000   0.96586047   -3.1872884   -1.6811059  0.057021212   -3.1872884    1.5061825   422330 
 3092000   0.96560555   -3.1876477    -1.681235  0.058724356   -3.1876477    1.5064127   422154 
 3093000   0.96306676   -3.1871922   -1.6841492  0.056316924   -3.1871922    1.5030431   421988 
 3094000   0.96315482   -3.1876768   -1.6839262  0.057824805   -3.1876768    1.5037507   421828 
 3095000   0.96169345   -3.1883381   -1.6861746  0.055435154   -3.1883381    1.5021635   421633 
 3096000   0.96035746   -3.1892533   -1.6885004  0.057374766   -3.1892533    1.5007529   421443 
 3097000   0.95835696   -3.1885903   -1.6901814  0.050095843   -3.1885903    1.4984089   421223 
 3098000    0.9583069    -3.191163   -1.6921811  0.052544871    -3.191163    1.4989819   421040 
 3099000   0.95764192   -3.1924193    -1.693933  0.050566463   -3.1924193    1.4984863   420887 
 3100000   0.95535771   -3.1892923   -1.6938793  0.057719748   -3.1892923     1.495413   420746 
 3101000   0.95654231   -3.1916781   -1.6937594  0.056481428   -3.1916781    1.4979187   420563 
 3102000   0.95423961   -3.1918412   -1.6968282  0.053443534   -3.1918412    1.4950131   420366 
 3103000   0.95732271   -3.1972105    -1.696871   0.04822991   -3.1972105    1.5003395   420227 
 3104000   0.95504181    -3.194453   -1.6969398  0.055781147    -3.194453    1.4975132   420017 
 3105000   0.95510558   -3.1965417   -1.6982365  0.049904406   -3.1965417    1.4983052   419823 
 3106000   0.95421308   -3.1966423   -1.6990237  0.053883092   -3.1966423    1.4976186   419623 
 3107000    0.9532839   -3.1961574   -1.6993694  0.053831305   -3.1961574     1.496788   419447 
 3108000    0.9526128   -3.1972861   -1.7009239  0.050739954   -3.1972861    1.4963622   419271 
 3109000   0.95315392   -3.1996494   -1.7017799  0.048167551   -3.1996494    1.4978695   419087 
 3110000    0.9542448   -3.2007738   -1.7005671   0.05490226   -3.2007738    1.5002067   418913 
 3111000    0.9531081   -3.2002109   -1.7012581  0.055058411   -3.2002109    1.4989528   418764 
 3112000   0.95253516   -3.2004045   -1.7017408   0.04893841   -3.2004045    1.4986637   418593 
 3113000   0.95159036   -3.2010972   -1.7033224  0.054049361   -3.2010972    1.4977747   418426 
 3114000   0.95249997    -3.204683   -1.7047704  0.054893798    -3.204683    1.4999126   418229 
 3115000   0.95100333   -3.2042168   -1.7060018  0.056908988   -3.2042168     1.498215   418045 
 3116000   0.95106317   -3.2056882   -1.7067407  0.051474127   -3.2056882    1.4989475   417867 
 3117000   0.94948897   -3.2065369   -1.7093933  0.047183216   -3.2065369    1.4971436   417678 
 3118000   0.94840365   -3.2058925   -1.7098692  0.049662757   -3.2058925    1.4960233   417513 
 3119000   0.94802489   -3.2078327   -1.7117762  0.049902101   -3.2078327    1.4960565   417337 
 3120000   0.94723694    -3.208078   -1.7127562  0.054954749    -3.208078    1.4953218   417195 
 3121000    0.9460031   -3.2083754   -1.7145538   0.04981381   -3.2083754    1.4938216   417070 
 3122000   0.94534085    -3.208507   -1.7149934  0.052784023    -3.208507    1.4935135   416864 
 3123000   0.94517188   -3.2098267   -1.7158706  0.051368507   -3.2098267    1.4939562   416666 
 3124000   0.94549312   -3.2109505   -1.7158514  0.045079209   -3.2109505    1.4950991   416489 
 3125000   0.94403218   -3.2114126   -1.7179603  0.047271655   -3.2114126    1.4934523   416304 
 3126000   0.94435809   -3.2136419   -1.7190709  0.048867534   -3.2136419     1.494571   416136 
 3127000   0.94272267   -3.2130364   -1.7204511   0.04954748   -3.2130364    1.4925853   415968 
 3128000   0.94125903   -3.2118085   -1.7208273  0.050490822   -3.2118085    1.4909812   415769 
 3129000   0.94204321   -3.2138662   -1.7211509   0.05215008   -3.2138662    1.4927153   415632 
 3130000   0.94060404   -3.2125808    -1.721633  0.048919158   -3.2125808    1.4909478   415489 
 3131000   0.94039937   -3.2142197    -1.723137  0.050534567   -3.2142197    1.4910827   415361 
 3132000    0.9408759   -3.2157514   -1.7232483   0.05411886   -3.2157514    1.4925031   415176 
 3133000    0.9413323   -3.2179964   -1.7240712  0.047711504   -3.2179964    1.4939251   414982 
 3134000   0.94055154   -3.2173679   -1.7240125  0.042071088   -3.2173679    1.4933554   414796 
 3135000   0.93875962      -3.2169   -1.7259045  0.043959158      -3.2169    1.4909955   414661 
 3136000   0.93901266    -3.218261   -1.7262987  0.043242853    -3.218261    1.4919623   414504 
 3137000   0.93835385   -3.2192587   -1.7278862  0.046155803   -3.2192587    1.4913725   414377 
 3138000   0.93779445   -3.2186277   -1.7277017  0.045378882   -3.2186277     1.490926   414254 
 3139000   0.93796598   -3.2204777   -1.7286416  0.048375867   -3.2204777    1.4918361   414077 
 3140000   0.93767995   -3.2214088   -1.7292348  0.045333851   -3.2214088     1.492174   413857 
 3141000    0.9381286   -3.2220347   -1.7286705  0.046863137   -3.2220347    1.4933642   413725 
 3142000   0.93618071   -3.2212306   -1.7304879  0.047960471   -3.2212306    1.4907427   413592 
 3143000   0.93542836   -3.2227091   -1.7325772  0.046162761   -3.2227091    1.4901319   413429 
 3144000   0.93556547   -3.2251038   -1.7343279   0.04229836   -3.2251038    1.4907759   413311 
 3145000   0.93542054   -3.2254536   -1.7343603  0.046259051   -3.2254536    1.4910933   413159 
 3146000   0.93315782   -3.2254356   -1.7372612  0.044300316   -3.2254356    1.4881744   412968 
 3147000    0.9342279   -3.2256665   -1.7352695  0.045747387   -3.2256665     1.490397   412825 
 3148000     0.933165   -3.2255256   -1.7361532   0.04554874   -3.2255256    1.4893724   412639 
 3149000   0.93282542    -3.225568   -1.7361673  0.042831073    -3.225568    1.4894007   412481 
 3150000   0.93282519   -3.2291088   -1.7391883  0.043837898   -3.2291088    1.4899205   412337 
 3151000   0.93211489   -3.2298131   -1.7405323  0.044887521   -3.2298131    1.4892808   412200 
 3152000   0.93242715    -3.230329   -1.7400431  0.045129041    -3.230329    1.4902859   412060 
 3153000   0.93071185   -3.2303886   -1.7421725  0.043748592   -3.2303886    1.4882161   411874 
 3154000   0.93078228   -3.2306412   -1.7418607  0.046200984   -3.2306412    1.4887805   411749 
 3155000   0.92999346   -3.2324871   -1.7444479  0.040464806   -3.2324871    1.4880392   411605 
 3156000   0.92874537    -3.231553   -1.7450738  0.042082628    -3.231553    1.4864792   411484 
 3157000   0.92940277   -3.2331831   -1.7452395  0.045228748   -3.2331831    1.4879436   411370 
 3158000    0.9290252   -3.2338551   -1.7460059  0.044881835   -3.2338551    1.4878491   411229 
 3159000   0.92869433   -3.2336795   -1.7458393  0.045317334   -3.2336795    1.4878402   411085 
 3160000   0.92854429   -3.2369369   -1.7487615  0.040416292   -3.2369369    1.4881755   410926 
 3161000   0.92828529   -3.2372774   -1.7491186  0.042119173   -3.2372774    1.4881587   410816 
 3162000   0.92841482    -3.237281   -1.7485124   0.04544736    -3.237281    1.4887686   410705 
 3163000   0.92690091   -3.2364002   -1.7494836  0.046374528   -3.2364002    1.4869166   410546 
 3164000   0.92645652   -3.2379519    -1.751118  0.046575056   -3.2379519    1.4868339   410372 
 3165000   0.92691976   -3.2390557   -1.7507603  0.049110503   -3.2390557    1.4882954   410174 
 3166000    0.9270353   -3.2403084   -1.7512321  0.045836276   -3.2403084    1.4890763   410010 
 3167000    0.9259063   -3.2400601   -1.7522675  0.045686196   -3.2400601    1.4877926   409864 
 3168000   0.92708256   -3.2420516   -1.7518235  0.043001794   -3.2420516    1.4902281   409714 
 3169000   0.92644383   -3.2426923   -1.7529055  0.046974119   -3.2426923    1.4897868   409553 
 3170000   0.92389032   -3.2404832   -1.7542111  0.046899424   -3.2404832    1.4862721   409390 
 3171000   0.92419785   -3.2421551    -1.754767  0.046914711   -3.2421551    1.4873881   409219 
 3172000   0.92518178   -3.2451794   -1.7558075  0.047892253   -3.2451794     1.489372   409109 
 3173000   0.92266277   -3.2424063   -1.7567191  0.044000704   -3.2424063    1.4856872   409007 
 3174000   0.92080225   -3.2412996    -1.758329  0.046360022   -3.2412996    1.4829706   408930 
 3175000    0.9217423   -3.2424923   -1.7574448  0.045253904   -3.2424923    1.4850474   408775 
 3176000   0.92032644   -3.2422066   -1.7590013  0.041280961   -3.2422066    1.4832053   408654 
 3177000   0.92197894   -3.2449124   -1.7587821  0.043643394   -3.2449124    1.4861304   408582 
 3178000   0.92150922    -3.244918   -1.7589993  0.046348836    -3.244918    1.4859187   408432 
 3179000    0.9198779   -3.2431173   -1.7592659  0.051107142   -3.2431173    1.4838514   408277 
 3180000   0.92052993   -3.2453484   -1.7599213  0.043019762   -3.2453484    1.4854271   408133 
 3181000   0.92037279   -3.2463496   -1.7606155  0.041902089   -3.2463496    1.4857341   407979 
 3182000   0.91937808   -3.2442773   -1.7598324  0.042601487   -3.2442773    1.4844449   407892 
 3183000   0.91882707   -3.2462383   -1.7622355  0.039576886   -3.2462383    1.4840028   407769 
 3184000   0.91840499   -3.2466141   -1.7628964  0.041263903   -3.2466141    1.4837177   407660 
 3185000   0.92005526   -3.2495824   -1.7627245  0.039349203   -3.2495824    1.4868579   407530 
 3186000   0.91925729   -3.2495168   -1.7635036  0.045467898   -3.2495168    1.4860132   407408 
 3187000   0.91708389   -3.2466996    -1.763814  0.048288479   -3.2466996    1.4828856   407302 
 3188000   0.91756152   -3.2495877   -1.7655071  0.036753502   -3.2495877    1.4840806   407186 
 3189000   0.91553009   -3.2482676   -1.7668215  0.040291525   -3.2482676    1.4814462   407007 
 3190000   0.91608376   -3.2507039   -1.7679101  0.042114218   -3.2507039    1.4827938   406883 
 3191000   0.91643017   -3.2533716   -1.7696086  0.034788315   -3.2533716     1.483763   406771 
 3192000   0.91438821   -3.2505089   -1.7696297  0.039594249   -3.2505089    1.4808792   406655 
 3193000   0.91549818   -3.2534142   -1.7702413  0.037740787   -3.2534142    1.4831729   406519 
 3194000   0.91417895   -3.2524912   -1.7709454  0.043990085   -3.2524912    1.4815458   406379 
 3195000   0.91536501   -3.2557744   -1.7717915  0.042455153   -3.2557744    1.4839829   406238 
 3196000   0.91359627    -3.254486   -1.7729184   0.04400129    -3.254486    1.4815677   406114 
 3197000   0.91220812   -3.2532578   -1.7736389  0.041020145   -3.2532578    1.4796189   406031 
 3198000   0.91412735   -3.2566026   -1.7734542  0.036455095   -3.2566026    1.4831484   405917 
 3199000   0.91296144   -3.2552063   -1.7735554   0.04595744   -3.2552063    1.4816509   405809 
 3200000   0.91408877   -3.2568944    -1.773052   0.04084841   -3.2568944    1.4838425   405710 
 3201000   0.91231804   -3.2560048   -1.7745256  0.045043781   -3.2560048    1.4814792   405570 
 3202000   0.91215705   -3.2565036   -1.7748473  0.044877737   -3.2565036    1.4816562   405450 
 3203000   0.91118452    -3.256819   -1.7763956  0.040757497    -3.256819    1.4804234   405355 
 3204000   0.91107645   -3.2581586   -1.7775748  0.037391435   -3.2581586    1.4805838   405263 
 3205000   0.91142201   -3.2596712   -1.7781017  0.040823732   -3.2596712    1.4815695   405147 
 3206000    0.9121973   -3.2618102   -1.7785594  0.045379977   -3.2618102    1.4832508   405032 
 3207000   0.91091848   -3.2623105    -1.780755  0.041665068   -3.2623105    1.4815555   404927 
 3208000   0.90956722   -3.2618347   -1.7821079  0.039917925   -3.2618347    1.4797268   404826 
 3209000   0.90979051   -3.2631595   -1.7825501  0.039455601   -3.2631595    1.4806094   404684 
 3210000   0.91005001   -3.2633633   -1.7817311  0.040271841   -3.2633633    1.4816322   404520 
 3211000   0.91036559   -3.2630723   -1.7805929  0.038993175   -3.2630723    1.4824794   404429 
 3212000   0.90966282   -3.2644029   -1.7826283  0.040808419   -3.2644029    1.4817747   404309 
 3213000   0.90925043    -3.265791     -1.78423  0.044638895    -3.265791     1.481561   404184 
 3214000   0.90919775   -3.2665809   -1.7847025   0.03488066   -3.2665809    1.4818784   404074 
 3215000   0.90845347   -3.2672786   -1.7863053  0.042363174   -3.2672786    1.4809732   403990 
 3216000   0.90823094   -3.2682714   -1.7873237  0.039365697   -3.2682714    1.4809477   403898 
 3217000   0.90640551   -3.2651842   -1.7867152  0.046343302   -3.2651842     1.478469   403762 
 3218000   0.90671491   -3.2678846   -1.7884382  0.042216042   -3.2678846    1.4794464   403633 
 3219000   0.90661771   -3.2685933    -1.788807  0.041353915   -3.2685933    1.4797864   403497 
 3220000   0.90644034   -3.2697563    -1.789779   0.04255248   -3.2697563    1.4799773   403366 
 3221000     0.904404   -3.2675256   -1.7904666  0.043118828   -3.2675256     1.477059   403255 
 3222000   0.90559394   -3.2692863   -1.7898987  0.041729551   -3.2692863    1.4793876   403150 
 3223000   0.90553078   -3.2704734   -1.7908256  0.036727403   -3.2704734    1.4796478   403051 
 3224000   0.90307131   -3.2684162   -1.7922489  0.040097311   -3.2684162    1.4761674   402904 
 3225000   0.90200623   -3.2691934   -1.7943644  0.039755119   -3.2691934     1.474829   402794 
 3226000   0.90456412   -3.2730572   -1.7936309  0.039644544   -3.2730572    1.4794263   402681 
 3227000   0.90452075    -3.272981   -1.7933059  0.042557961    -3.272981    1.4796751   402594 
 3228000   0.90097154   -3.2683944   -1.7942324  0.043229452   -3.2683944     1.474162   402514 
 3229000   0.90321964   -3.2739687    -1.795673  0.042748579   -3.2739687    1.4782957   402390 
 3230000   0.90236202   -3.2742255   -1.7970214  0.037422754   -3.2742255    1.4772041   402305 
 3231000   0.90192582   -3.2744877   -1.7976489  0.040951113   -3.2744877    1.4768388   402210 
 3232000   0.90211647   -3.2749187   -1.7973893   0.04255796   -3.2749187    1.4775293   402107 
 3233000   0.90210491   -3.2741809   -1.7963875  0.041915836   -3.2741809    1.4777934   402030 
 3234000   0.90089791   -3.2739005   -1.7977209  0.034706651   -3.2739005    1.4761796   401931 
 3235000   0.89894693    -3.272104    -1.798718  0.034048923    -3.272104     1.473386   401821 
 3236000   0.89899832    -3.274297   -1.8004672  0.035414768    -3.274297    1.4738297   401723 
 3237000   0.89887277   -3.2748632   -1.8008723  0.034699487   -3.2748632    1.4739908   401623 
 3238000   0.89864173   -3.2748852   -1.8009209  0.033688193   -3.2748852    1.4739643   401527 
 3239000   0.89845999   -3.2751769   -1.8012905  0.039504571   -3.2751769    1.4738864   401467 
 3240000   0.89841958   -3.2746768   -1.8004453  0.038275738   -3.2746768    1.4742314   401355 
 3241000   0.89842454   -3.2757943   -1.8012277  0.034790107   -3.2757943    1.4745665   401266 
 3242000   0.89846278   -3.2754996   -1.8005909  0.038963761   -3.2754996    1.4749087   401190 
 3243000   0.89974911   -3.2781903   -1.8007833  0.037235651   -3.2781903     1.477407   401085 
 3244000   0.89945044   -3.2797952   -1.8025509  0.037830138   -3.2797952    1.4772443   400996 
 3245000   0.89902752   -3.2780616   -1.8014014     0.040015   -3.2780616    1.4766602   400966 
 3246000   0.89814091   -3.2780677   -1.8024074  0.039986325   -3.2780677    1.4756603   400842 
 3247000   0.89751029   -3.2787126   -1.8038199  0.042680994   -3.2787126    1.4748928   400769 
 3248000   0.89830285   -3.2813533   -1.8048154  0.036523156   -3.2813533    1.4765378   400676 
 3249000   0.89727822   -3.2801786   -1.8048867  0.040054667   -3.2801786    1.4752918   400557 
 3250000   0.89690912   -3.2800705   -1.8050946  0.043187929   -3.2800705    1.4749758   400478 
 3251000   0.89827646     -3.28226   -1.8047109  0.041160861     -3.28226    1.4775491   400390 
 3252000   0.89853769   -3.2851678   -1.8069232  0.041497229   -3.2851678    1.4782446   400318 
 3253000   0.89828033   -3.2856286   -1.8074418  0.043023729   -3.2856286    1.4781868   400219 
 3254000   0.89722175   -3.2848192   -1.8080128   0.04528949   -3.2848192    1.4768065   400121 
 3255000   0.89563578   -3.2864414   -1.8118253  0.038500187   -3.2864414    1.4746161   400007 
 3256000   0.89506844   -3.2852215    -1.811252  0.039573237   -3.2852215    1.4739694   399929 
 3257000   0.89728757   -3.2881803   -1.8101647  0.037121493   -3.2881803    1.4780156   399823 
 3258000   0.89715538   -3.2894058   -1.8111347  0.039562761   -3.2894058    1.4782711   399695 
 3259000   0.89535861   -3.2883668   -1.8126465  0.039553774   -3.2883668    1.4757203   399584 
 3260000   0.89602835   -3.2900401   -1.8128425  0.042144248   -3.2900401    1.4771976   399483 
 3261000   0.89652446   -3.2920535   -1.8137827  0.038771012   -3.2920535    1.4782708   399414 
 3262000   0.89555082   -3.2913805   -1.8143934  0.038726308   -3.2913805    1.4769871   399327 
 3263000   0.89485869   -3.2921345   -1.8159636  0.040741922   -3.2921345    1.4761709   399239 
 3264000   0.89547678   -3.2921803   -1.8145568  0.045869815   -3.2921803    1.4776235   399122 
 3265000   0.89300647   -3.2912293   -1.8171723  0.044937144   -3.2912293    1.4740569   398984 
 3266000   0.89458639   -3.2954826   -1.8185179  0.034678923   -3.2954826    1.4769647   398903 
 3267000   0.89367875   -3.2964058   -1.8205512  0.035964686   -3.2964058    1.4758547   398798 
 3268000   0.89216533   -3.2939252   -1.8202521  0.036860503   -3.2939252    1.4736731   398712 
 3269000   0.89245837   -3.2944018   -1.8198933  0.037167484   -3.2944018    1.4745085   398617 
 3270000   0.89147088   -3.2933101   -1.8203111  0.033333353   -3.2933101    1.4729989   398584 
 3271000   0.89025817   -3.2951731    -1.823842  0.034226451   -3.2951731    1.4713311   398493 
 3272000   0.88944406   -3.2944163   -1.8241245  0.036577709   -3.2944163    1.4702918   398410 
 3273000   0.88971908    -3.295348    -1.824055  0.038102334    -3.295348     1.471293   398262 
 3274000   0.88904226   -3.2939546   -1.8234818  0.037125641   -3.2939546    1.4704728   398181 
 3275000   0.88904003   -3.2949227   -1.8240953  0.039798587   -3.2949227    1.4708274   398084 
 3276000   0.88945368   -3.2944764   -1.8227317  0.030065745   -3.2944764    1.4717447   398021 
 3277000   0.89050621   -3.2965964   -1.8228584  0.036449111   -3.2965964    1.4737381   397953 
 3278000   0.88802033   -3.2946723   -1.8248156  0.033995926   -3.2946723    1.4698568   397890 
 3279000   0.88774491   -3.2940463   -1.8244016   0.03563223   -3.2940463    1.4696447   397824 
 3280000   0.88862083    -3.296686   -1.8252658  0.036915954    -3.296686    1.4714202   397736 
 3281000    0.8885006   -3.2973874   -1.8257925  0.036565176   -3.2973874    1.4715948   397635 
 3282000   0.88936587   -3.2976721     -1.82437  0.039306248   -3.2976721    1.4733021   397561 
 3283000    0.8895517   -3.2987843   -1.8247925  0.040903431   -3.2987843    1.4739918   397458 
 3284000   0.88617971   -3.2948583   -1.8260363  0.037827312   -3.2948583     1.468822   397345 
 3285000   0.88604184   -3.2951553   -1.8262845  0.040732317   -3.2951553    1.4688708   397270 
 3286000   0.88630045   -3.2966187   -1.8269085   0.03785836   -3.2966187    1.4697101   397159 
 3287000   0.88610257   -3.2982004   -1.8284853  0.036142335   -3.2982004    1.4697151   397069 
 3288000   0.88519186   -3.2999665   -1.8312923  0.035024878   -3.2999665    1.4686743   396942 
 3289000   0.88527443   -3.3010466   -1.8317282  0.036428038   -3.3010466    1.4693184   396805 
 3290000   0.88444477   -3.2993653    -1.831239  0.034931112   -3.2993653    1.4681264   396755 
 3291000   0.88485142   -3.3024026   -1.8331383  0.037499252   -3.3024026    1.4692643   396630 
 3292000   0.88298197   -3.3009804   -1.8342656    0.0355505   -3.3009804    1.4667148   396480 
 3293000   0.88382139   -3.3019198   -1.8336181  0.036706843   -3.3019198    1.4683018   396428 
 3294000   0.88351659   -3.3018463   -1.8336324  0.035929553   -3.3018463    1.4682139   396315 
 3295000   0.88354453   -3.3021245    -1.833601  0.035142647   -3.3021245    1.4685234   396244 
 3296000   0.88334593   -3.3024965   -1.8339437  0.042047482   -3.3024965    1.4685528   396147 
 3297000   0.88451544   -3.3047883    -1.833957  0.033454071   -3.3047883    1.4708313   396057 
 3298000   0.88337066   -3.3039565   -1.8347543  0.037368811   -3.3039565    1.4692022   395983 
 3299000   0.88319103   -3.3049806   -1.8359659  0.037360971   -3.3049806    1.4690147   395953 
 3300000   0.88639461   -3.3102975   -1.8356079  0.029039688   -3.3102975    1.4746896   395860 
 3301000   0.88237743   -3.3056288   -1.8373555  0.034939625   -3.3056288    1.4682733   395788 
 3302000   0.88241376   -3.3057139   -1.8371909  0.037223942   -3.3057139     1.468523   395737 
 3303000   0.88242902   -3.3059338   -1.8369697  0.032292647   -3.3059338    1.4689641   395625 
 3304000   0.88227734   -3.3057416   -1.8368295  0.032524724   -3.3057416    1.4689121   395571 
 3305000   0.88203544   -3.3059083   -1.8371687  0.035644713   -3.3059083    1.4687396   395509 
 3306000   0.88346626    -3.309388   -1.8380166  0.038648965    -3.309388    1.4713714   395442 
 3307000    0.8822547   -3.3092357   -1.8395253  0.039932718   -3.3092357    1.4697104   395346 
 3308000   0.88228834   -3.3091073   -1.8389913  0.033214901   -3.3091073     1.470116   395252 
 3309000    0.8791012   -3.3059098   -1.8407337  0.039497557   -3.3059098    1.4651761   395152 
 3310000   0.87970662   -3.3069866   -1.8405714  0.036063931   -3.3069866    1.4664152   395090 
 3311000   0.87930284   -3.3081221   -1.8420979  0.038655898   -3.3081221    1.4660241   395014 
 3312000   0.87908079   -3.3086862    -1.842728  0.038451858   -3.3086862    1.4659582   394932 
 3313000   0.88004116   -3.3096012   -1.8417255  0.033313693   -3.3096012    1.4678757   394847 
 3314000     0.879694   -3.3111223   -1.8436324   0.03227054   -3.3111223    1.4674899   394795 
 3315000   0.87930959   -3.3117617   -1.8445489  0.033145591   -3.3117617    1.4672128   394697 
 3316000    0.8799551   -3.3125809   -1.8438742  0.034350808   -3.3125809    1.4687067   394585 
 3317000   0.87912922   -3.3128026   -1.8451359   0.03385181   -3.3128026    1.4676667   394494 
 3318000   0.87899107   -3.3136827   -1.8457703  0.033770879   -3.3136827    1.4679124   394366 
 3319000    0.8790375   -3.3138757   -1.8454464  0.035010207   -3.3138757    1.4684293   394248 
 3320000   0.87929139   -3.3140115   -1.8448153  0.038172961   -3.3140115    1.4691962   394156 
 3321000   0.87980178   -3.3159809   -1.8456894  0.037925442   -3.3159809    1.4702915   394091 
 3322000   0.87725193   -3.3138783   -1.8476136  0.035487098   -3.3138783    1.4662647   394028 
 3323000   0.87821301   -3.3165564    -1.848253  0.037086915   -3.3165564    1.4683033   393912 
 3324000    0.8770614   -3.3145355   -1.8480123  0.040595553   -3.3145355    1.4665231   393873 
 3325000   0.87697369   -3.3157788   -1.8491379  0.039643967   -3.3157788    1.4666409   393802 
 3326000   0.87734122   -3.3160259   -1.8486139  0.037205858   -3.3160259     1.467412   393760 
 3327000   0.87587337   -3.3162216   -1.8511195  0.035664726   -3.3162216     1.465102   393721 
 3328000   0.87580723   -3.3171633   -1.8519747  0.039575057   -3.3171633    1.4651886   393668 
 3329000   0.87791321   -3.3199841   -1.8510447  0.037767647   -3.3199841    1.4689395   393607 
 3330000    0.8776439   -3.3196407   -1.8508832  0.035986425   -3.3196407    1.4687575   393535 
 3331000   0.87516704   -3.3160132   -1.8510657  0.037427849   -3.3160132    1.4649475   393445 
 3332000   0.87543995   -3.3177055   -1.8518988  0.032231808   -3.3177055    1.4658067   393337 
 3333000   0.87537814   -3.3195316   -1.8536756  0.039243472   -3.3195316     1.465856   393296 
 3334000    0.8764364   -3.3213297   -1.8534778  0.040393451   -3.3213297     1.467852   393236 
 3335000   0.87695784    -3.323369   -1.8541879  0.039654971    -3.323369    1.4691811   393114 
 3336000   0.87744742   -3.3245991   -1.8544894  0.037145746   -3.3245991    1.4701098   393085 
 3337000   0.87600844   -3.3232664    -1.855138  0.035890969   -3.3232664    1.4681284   392970 
 3338000   0.87546891   -3.3238108   -1.8562804  0.042926815   -3.3238108    1.4675304   392888 
 3339000    0.8747373   -3.3228285   -1.8562296  0.032023769   -3.3228285    1.4665989   392809 
 3340000   0.87406155   -3.3227752   -1.8569361  0.036999621   -3.3227752    1.4658391   392709 
 3341000   0.87433578   -3.3237987   -1.8572533  0.038123547   -3.3237987    1.4665454   392643 
 3342000   0.87428541   -3.3238782   -1.8571819  0.036225482   -3.3238782    1.4666963   392580 
 3343000   0.87358435   -3.3249311    -1.858862  0.032368901   -3.3249311    1.4660692   392433 
 3344000   0.87548591   -3.3279209   -1.8582111  0.038015938   -3.3279209    1.4697098   392313 
 3345000   0.87505837   -3.3289321   -1.8596217  0.038733893   -3.3289321    1.4693104   392228 
 3346000   0.87360572   -3.3282801   -1.8610197  0.035401004   -3.3282801    1.4672603   392124 
 3347000    0.8731991   -3.3292563   -1.8624919  0.038603521   -3.3292563    1.4667644   392074 
 3348000   0.87202474    -3.327294    -1.862435  0.034170885    -3.327294     1.464859   392056 
 3349000   0.87238708   -3.3278326   -1.8622602  0.036207567   -3.3278326    1.4655724   392028 
 3350000   0.87317778   -3.3290175   -1.8617987  0.040161497   -3.3290175    1.4672188   391943 
 3351000   0.87310749   -3.3292981   -1.8621374  0.037791133   -3.3292981    1.4671606   391927 
 3352000   0.87122904   -3.3279929   -1.8636749  0.036944625   -3.3279929    1.4643179   391843 
 3353000   0.87137042   -3.3289403   -1.8640183  0.036954923   -3.3289403    1.4649219   391745 
 3354000   0.87193247   -3.3310265   -1.8646506   0.03399522   -3.3310265    1.4663759   391609 
 3355000   0.87081052    -3.329742   -1.8649837  0.033173587    -3.329742    1.4647584   391537 
 3356000   0.87068217   -3.3304576   -1.8657056  0.033646374   -3.3304576     1.464752   391481 
 3357000   0.86880387   -3.3281924    -1.866141  0.037667786   -3.3281924    1.4620515   391358 
 3358000   0.87059877   -3.3328482   -1.8674766  0.032332585   -3.3328482    1.4653715   391278 
 3359000   0.87010994   -3.3325908   -1.8678511  0.036758262   -3.3325908    1.4647397   391227 
 3360000   0.86982388   -3.3317012   -1.8671473  0.034350233   -3.3317012    1.4645538   391148 
 3361000   0.86975524   -3.3322735   -1.8675769  0.033533758   -3.3322735    1.4646967   391079 
 3362000   0.87022387   -3.3337171   -1.8679877  0.034147351   -3.3337171    1.4657295   391014 
 3363000   0.86786631   -3.3317199   -1.8696248  0.036106345   -3.3317199    1.4620951   390924 
 3364000   0.86831499   -3.3318966   -1.8687274  0.034315992   -3.3318966    1.4631692   390839 
 3365000   0.86854841   -3.3337973    -1.869909  0.037039865   -3.3337973    1.4638883   390752 
 3366000   0.86787445   -3.3337943   -1.8707461  0.034112684   -3.3337943    1.4630482   390673 
 3367000   0.86902564   -3.3352222   -1.8700495   0.03340297   -3.3352222    1.4651726   390624 
 3368000   0.86717154   -3.3324579   -1.8700893  0.039404671   -3.3324579    1.4623686   390538 
 3369000    0.8678071   -3.3341596   -1.8704981  0.031824611   -3.3341596    1.4636615   390479 
 3370000   0.86671307   -3.3335206   -1.8713448  0.035814006   -3.3335206    1.4621758   390383 
 3371000   0.86661709   -3.3337376   -1.8714615  0.034830609   -3.3337376     1.462276   390313 
 3372000   0.86715619   -3.3351706     -1.87164  0.035609851   -3.3351706    1.4635307   390221 
 3373000   0.86664154   -3.3347301    -1.871978   0.03512717   -3.3347301     1.462752   390197 
 3374000   0.86599112   -3.3354658   -1.8737966  0.034358319   -3.3354658    1.4616692   390193 
 3375000   0.86623389   -3.3355791   -1.8732303  0.033710396   -3.3355791    1.4623488   390121 
 3376000   0.86532201   -3.3350739   -1.8738338   0.03771857   -3.3350739    1.4612401   390006 
 3377000    0.8664611   -3.3376482   -1.8743157  0.030835292   -3.3376482    1.4633325   389961 
 3378000   0.86545091   -3.3363888   -1.8744999  0.035934226   -3.3363888    1.4618889   389891 
 3379000   0.86568645   -3.3378928    -1.875306   0.03725766   -3.3378928    1.4625868   389811 
 3380000   0.86615224   -3.3390471   -1.8755307  0.036760936   -3.3390471    1.4635165   389773 
 3381000   0.86496512   -3.3382798   -1.8763866  0.031843472   -3.3382798    1.4618932   389671 
 3382000    0.8642778   -3.3385903   -1.8774763   0.03209412   -3.3385903     1.461114   389569 
 3383000   0.86401983   -3.3387367   -1.8778188  0.036468972   -3.3387367    1.4609179   389505 
 3384000   0.86328419   -3.3392043   -1.8794403    0.0317704   -3.3392043     1.459764   389481 
 3385000   0.86523886   -3.3418573   -1.8784875  0.035132677   -3.3418573    1.4633698   389401 
 3386000   0.86513549   -3.3420163   -1.8784718  0.036279334   -3.3420163    1.4635445   389308 
 3387000   0.86521018   -3.3435829   -1.8797428  0.037809519   -3.3435829    1.4638401   389263 
 3388000   0.86429095   -3.3422218   -1.8795763  0.033685524   -3.3422218    1.4626455   389167 
 3389000   0.86199283   -3.3401487   -1.8810886  0.037916293   -3.3401487    1.4590601   389086 
 3390000   0.86231833   -3.3410831   -1.8813595  0.038773987   -3.3410831    1.4597236   389056 
 3391000   0.86238911   -3.3409642   -1.8808018  0.037308906   -3.3409642    1.4601624   388971 
 3392000   0.86285223    -3.342953   -1.8816082  0.036881089    -3.342953    1.4613448   388865 
 3393000   0.86318143   -3.3442548   -1.8821833  0.031585396   -3.3442548    1.4620715   388820 
 3394000   0.86198001   -3.3422505   -1.8820599  0.038840433   -3.3422505    1.4601905   388779 
 3395000   0.86329673   -3.3465437   -1.8838668   0.03623603   -3.3465437    1.4626769   388711 
 3396000   0.86205898   -3.3457758   -1.8848841  0.033973473   -3.3457758    1.4608917   388628 
 3397000   0.86099697   -3.3451822   -1.8859325   0.03549528   -3.3451822    1.4592497   388586 
 3398000   0.85862657   -3.3415589   -1.8859521  0.033208242   -3.3415589    1.4556068   388486 
 3399000   0.85936868   -3.3427175   -1.8855562  0.029193077   -3.3427175    1.4571612   388407 
 3400000   0.86070617   -3.3451776    -1.885523  0.027962509   -3.3451776    1.4596546   388347 
 3401000   0.85939105   -3.3440964   -1.8863531  0.030204944   -3.3440964    1.4577434   388262 
 3402000   0.86026683   -3.3457997   -1.8862814  0.033672808   -3.3457997    1.4595184   388185 
 3403000    0.8599038   -3.3453543   -1.8862488  0.034607494   -3.3453543    1.4591054   388131 
 3404000   0.85920168   -3.3456169   -1.8875526  0.030959194   -3.3456169    1.4580643   388091 
 3405000   0.86030201   -3.3462464   -1.8860627  0.033712903   -3.3462464    1.4601837   388024 
 3406000   0.85848714   -3.3440549   -1.8866248  0.039637503   -3.3440549    1.4574301   387937 
 3407000   0.85947718   -3.3472286   -1.8878619  0.034305549   -3.3472286    1.4593666   387869 
 3408000    0.8594037   -3.3481473   -1.8885818  0.033363815   -3.3481473    1.4595655   387783 
 3409000   0.85903186   -3.3475068   -1.8883283  0.037543105   -3.3475068    1.4591786   387718 
 3410000    0.8573049    -3.346119   -1.8894118  0.037150218    -3.346119    1.4567072   387595 
 3411000   0.85607015   -3.3455186   -1.8907068  0.035959616   -3.3455186    1.4548119   387541 
 3412000   0.85616077    -3.347774   -1.8923876  0.032193402    -3.347774    1.4553865   387429 
 3413000   0.85606762    -3.348247   -1.8928311  0.028099629    -3.348247    1.4554159   387379 
 3414000   0.85895498   -3.3534506   -1.8929448  0.035240422   -3.3534506    1.4605058   387331 
 3415000    0.8579653   -3.3511524   -1.8920468  0.032654334   -3.3511524    1.4591055   387256 
 3416000   0.85916477   -3.3527455   -1.8914227  0.035416925   -3.3527455    1.4613228   387209 
 3417000   0.85888798   -3.3547454   -1.8935953  0.035537902   -3.3547454    1.4611501   387130 
 3418000   0.85619205   -3.3505349   -1.8936701  0.038499069   -3.3505349    1.4568648   387050 
 3419000   0.85507649   -3.3520011   -1.8966434    0.0310591   -3.3520011    1.4553577   386946 
 3420000   0.85395499   -3.3496444   -1.8958386  0.032323645   -3.3496444    1.4538058   386851 
 3421000    0.8567756   -3.3544146   -1.8955241  0.033422974   -3.3544146    1.4588905   386776 
 3422000   0.85468106   -3.3533879   -1.8979209  0.032668587   -3.3533879     1.455467   386738 
 3423000   0.85366772   -3.3523164    -1.898372  0.036317779   -3.3523164    1.4539444   386684 
 3424000   0.85640848   -3.3561092   -1.8973082   0.03873283   -3.3561092     1.458801   386634 
 3425000   0.85493124   -3.3543127    -1.897606  0.034353782   -3.3543127    1.4567066   386522 
 3426000   0.85502793    -3.355795   -1.8987955  0.033608248    -3.355795    1.4569996   386488 
 3427000   0.85498331   -3.3556067   -1.8983627  0.034903131   -3.3556067     1.457244   386403 
 3428000    0.8558541   -3.3565992   -1.8976595   0.03281249   -3.3565992    1.4589396   386347 
 3429000   0.85444413   -3.3561044   -1.8993609   0.02829887   -3.3561044    1.4567435   386292 
 3430000   0.85444827    -3.357413   -1.9003909  0.035030167    -3.357413    1.4570221   386220 
 3431000   0.85264746   -3.3557056   -1.9015359  0.033576661   -3.3557056    1.4541697   386162 
 3432000   0.85360445   -3.3562825   -1.9001187  0.027684721   -3.3562825    1.4561639   386066 
 3433000   0.85402475   -3.3585001   -1.9012682  0.035666043   -3.3585001    1.4572319   385973 
 3434000    0.8520136   -3.3553899   -1.9012695  0.029021224   -3.3553899    1.4541205   385888 
 3435000   0.85112498   -3.3550896   -1.9020866   0.03095667   -3.3550896     1.453003   385782 
 3436000   0.85142198   -3.3581918   -1.9042936  0.030213012   -3.3581918    1.4538982   385679 
 3437000   0.85286932   -3.3584043   -1.9018269  0.035057106   -3.3584043    1.4565774   385624 
 3438000   0.85284684   -3.3604197   -1.9035823  0.035069454   -3.3604197    1.4568375   385545 
 3439000   0.85216896   -3.3608112   -1.9049354  0.037136512   -3.3608112    1.4558759   385493 
 3440000   0.85267138    -3.361858   -1.9048555  0.032819423    -3.361858    1.4570026   385422 
 3441000   0.85055591    -3.359168   -1.9055766  0.034906696    -3.359168    1.4535914   385368 
 3442000   0.85172989   -3.3611581   -1.9053753  0.034743246   -3.3611581    1.4557828   385319 
 3443000   0.85335506    -3.366103   -1.9074099  0.034289178    -3.366103    1.4586931   385284 
 3444000   0.85090054   -3.3636477   -1.9086895   0.03007932   -3.3636477    1.4549581   385162 
 3445000   0.85105484   -3.3633065    -1.907631   0.03203945   -3.3633065    1.4556755   385042 
 3446000   0.84879404   -3.3621439   -1.9098752  0.027940901   -3.3621439    1.4522687   384920 
 3447000   0.84764921   -3.3617352   -1.9110409  0.037460287   -3.3617352    1.4506943   384818 
 3448000   0.84785429   -3.3621732   -1.9108111  0.034027589   -3.3621732    1.4513621   384734 
 3449000   0.84993323   -3.3661029   -1.9109172  0.029227547   -3.3661029    1.4551856   384664 
 3450000   0.84986923   -3.3647109   -1.9094419   0.03621818   -3.3647109     1.455269   384613 
 3451000   0.84947922   -3.3639459   -1.9090761  0.037044482   -3.3639459    1.4548697   384542 
 3452000   0.84970741   -3.3661524   -1.9107328  0.035921136   -3.3661524    1.4554195   384500 
 3453000     0.849724   -3.3657566   -1.9100096  0.037116022   -3.3657566     1.455747   384421 
 3454000   0.84980824    -3.365843   -1.9097661  0.034543354    -3.365843    1.4560769   384372 
 3455000   0.84883057   -3.3640521   -1.9093286  0.039409411   -3.3640521    1.4547235   384287 
 3456000   0.84876743    -3.365503    -1.910706  0.034321142    -3.365503     1.454797   384239 
 3457000    0.8479566   -3.3640372   -1.9103727  0.033330198   -3.3640372    1.4536645   384171 
 3458000   0.84683617   -3.3645889   -1.9125428   0.03610248   -3.3645889    1.4520461   384091 
 3459000   0.84649254   -3.3650223   -1.9134331  0.034283084   -3.3650223    1.4515892   384056 
 3460000   0.84722724   -3.3670854   -1.9141456  0.030302915   -3.3670854    1.4529398   384032 
 3461000   0.84511635   -3.3660203   -1.9163305  0.025173515   -3.3660203    1.4496897   383934 
 3462000   0.84576776   -3.3656187   -1.9147058  0.033746078   -3.3656187     1.450913   383906 
 3463000   0.84602831   -3.3661143   -1.9145993  0.034793229   -3.3661143    1.4515149   383865 
 3464000   0.84525235   -3.3646267    -1.914239  0.039424285   -3.3646267    1.4503877   383811 
 3465000   0.84805048   -3.3677223   -1.9124005  0.034595539   -3.3677223    1.4553218   383776 
 3466000   0.84690801   -3.3674889   -1.9136428  0.033127622   -3.3674889    1.4538461   383648 
 3467000    0.8463433   -3.3680059   -1.9147504   0.03080238   -3.3680059    1.4532555   383548 
 3468000   0.84548101    -3.367097   -1.9151328  0.037952448    -3.367097    1.4519641   383498 
 3469000   0.84596463   -3.3680019   -1.9149079  0.033088871   -3.3680019     1.453094   383419 
 3470000   0.84561679   -3.3679363   -1.9152769   0.03353255   -3.3679363    1.4526594   383376 
 3471000   0.84538191   -3.3689452   -1.9163748  0.035126428   -3.3689452    1.4525704   383293 
 3472000   0.84531523   -3.3703831   -1.9176809  0.030949605   -3.3703831    1.4527022   383228 
 3473000   0.84362435   -3.3677732   -1.9177006  0.040228119   -3.3677732    1.4500726   383155 
 3474000   0.84396273    -3.371254   -1.9203044  0.035008002    -3.371254    1.4509496   383077 
 3475000   0.84349144   -3.3724316   -1.9220159  0.033732326   -3.3724316    1.4504157   383004 
 3476000   0.84444071   -3.3739551   -1.9215962   0.03472237   -3.3739551     1.452359   382922 
 3477000   0.84373742   -3.3726533   -1.9212878  0.033041247   -3.3726533    1.4513654   382865 
 3478000    0.8428716   -3.3723986   -1.9221323  0.033805246   -3.3723986    1.4502662   382762 
 3479000     0.844614   -3.3751905   -1.9216908  0.031932823   -3.3751905    1.4534997   382700 
 3480000   0.84231817   -3.3721752    -1.922384   0.03018543   -3.3721752    1.4497912   382636 
 3481000   0.84370895   -3.3735403   -1.9212718    0.0298231   -3.3735403    1.4522685   382614 
 3482000   0.84276778   -3.3727464   -1.9219045  0.030369243   -3.3727464    1.4508419   382563 
 3483000   0.84362191   -3.3732396   -1.9206577   0.02875062   -3.3732396    1.4525819   382492 
 3484000   0.84208035   -3.3717783   -1.9215702  0.028673182   -3.3717783    1.4502081   382418 
 3485000   0.84225889   -3.3728413   -1.9221512  0.032281466   -3.3728413    1.4506901   382372 
 3486000   0.84143521   -3.3737004   -1.9238602  0.034836656   -3.3737004    1.4498402   382222 
 3487000   0.84121956   -3.3758281   -1.9260409   0.03369519   -3.3758281    1.4497872   382138 
 3488000   0.84129612   -3.3769801   -1.9266853  0.034264726   -3.3769801    1.4502949   382039 
 3489000   0.84132059   -3.3766277   -1.9261274  0.038359739   -3.3766277    1.4505003   381996 
 3490000   0.84038494   -3.3763776   -1.9272476  0.033966784   -3.3763776      1.44913   381932 
 3491000   0.83866032   -3.3749851   -1.9285449  0.032900754   -3.3749851    1.4464402   381857 
 3492000   0.84098499   -3.3769109   -1.9262676  0.035051292   -3.3769109    1.4506433   381806 
 3493000   0.83971777   -3.3768719   -1.9281147  0.034438489   -3.3768719    1.4487572   381727 
 3494000   0.84031218   -3.3794955   -1.9294127  0.029034837   -3.3794955    1.4500828   381648 
 3495000   0.84063461   -3.3789425   -1.9280638  0.034819106   -3.3789425    1.4508787   381585 
 3496000    0.8419272   -3.3822204   -1.9288403  0.033315558   -3.3822204      1.45338   381514 
 3497000   0.83908498    -3.379127   -1.9304293  0.035509612    -3.379127    1.4486977   381455 
 3498000    0.8377681   -3.3777884   -1.9311102  0.035916182   -3.3777884    1.4466782   381388 
 3499000   0.83934729   -3.3821741   -1.9325029  0.033952007   -3.3821741    1.4496712   381318 
 3500000   0.83942868   -3.3821177   -1.9321462  0.032220904   -3.3821177    1.4499715   381276 
 3501000   0.83927093   -3.3816351   -1.9316851  0.032796118   -3.3816351      1.44995   381210 
 3502000    0.8370619   -3.3794854   -1.9332114  0.030577397   -3.3794854     1.446274   381173 
 3503000   0.83699149   -3.3800129    -1.933538  0.033275102   -3.3800129    1.4464749   381088 
 3504000   0.83701699   -3.3793616   -1.9327743  0.030793685   -3.3793616    1.4465873   381070 
 3505000   0.83698963   -3.3814181   -1.9346047  0.032304578   -3.3814181    1.4468134   380998 
 3506000   0.83901248    -3.383722   -1.9332063  0.028764492    -3.383722    1.4505156   380944 
 3507000   0.83913026   -3.3845207   -1.9335539   0.03225611   -3.3845207    1.4509668   380879 
 3508000   0.83972429   -3.3866601   -1.9344297  0.031611733   -3.3866601    1.4522304   380817 
 3509000   0.83922037   -3.3876394   -1.9359641  0.032195802   -3.3876394    1.4516753   380734 
 3510000   0.83695748   -3.3835144   -1.9355025  0.034929698   -3.3835144     1.448012   380668 
 3511000   0.83762964   -3.3847662   -1.9353857  0.034859968   -3.3847662    1.4493805   380614 
 3512000   0.83885124   -3.3877274   -1.9360195  0.036599727   -3.3877274    1.4517079   380558 
 3513000   0.83871646   -3.3864976   -1.9346414  0.026725745   -3.3864976    1.4518561   380458 
 3514000   0.83822227   -3.3871385   -1.9359319  0.035719984   -3.3871385    1.4512066   380404 
 3515000   0.83681381   -3.3865255   -1.9373268  0.037247094   -3.3865255    1.4491987   380291 
 3516000   0.83668427   -3.3873814   -1.9380908  0.035377592   -3.3873814    1.4492906   380208 
 3517000    0.8353912   -3.3854885   -1.9382169  0.036832902   -3.3854885    1.4472716   380150 
 3518000   0.83617798   -3.3881713    -1.939308  0.034434491   -3.3881713    1.4488633   380090 
 3519000   0.83577462   -3.3891279   -1.9406357  0.031022587   -3.3891279    1.4484921   380004 
 3520000   0.83571492   -3.3893795   -1.9407392  0.031228069   -3.3893795    1.4486403   379938 
 3521000   0.83435596    -3.388379   -1.9419801  0.027877191    -3.388379    1.4463988   379908 
 3522000   0.83384626   -3.3892929   -1.9434541  0.032519979   -3.3892929    1.4458387   379823 
 3523000   0.83427294   -3.3893906    -1.942473  0.034147353   -3.3893906    1.4469176   379734 
 3524000    0.8337816   -3.3904725   -1.9441785  0.032221472   -3.3904725     1.446294   379674 
 3525000   0.83384745   -3.3914627   -1.9447344  0.034222117   -3.3914627    1.4467283   379590 
 3526000   0.83438121   -3.3937817   -1.9459214  0.029744584   -3.3937817    1.4478603   379536 
 3527000   0.83221498   -3.3899425   -1.9455862   0.03818221   -3.3899425    1.4443564   379469 
 3528000   0.83354714    -3.391815   -1.9450703  0.027168096    -3.391815    1.4467447   379449 
 3529000   0.83313065   -3.3897497   -1.9435603  0.026823837   -3.3897497    1.4461895   379405 
 3530000   0.83246075   -3.3899603    -1.944568  0.033972178   -3.3899603    1.4453923   379309 
 3531000    0.8331106   -3.3919691   -1.9452463  0.032732084   -3.3919691    1.4467228   379256 
 3532000   0.83323543   -3.3937186    -1.946405  0.025629078   -3.3937186    1.4473136   379158 
 3533000   0.83119595   -3.3922584   -1.9483121  0.030687444   -3.3922584    1.4439462   379112 
 3534000   0.83201077   -3.3936292   -1.9479548  0.031616837   -3.3936292    1.4456744   379030 
 3535000   0.83156683   -3.3939711   -1.9487973  0.032072497   -3.3939711    1.4451737   378959 
 3536000   0.83221622   -3.3962733   -1.9496465    0.0335088   -3.3962733    1.4466268   378874 
 3537000   0.83082713   -3.3947082   -1.9503817  0.031870768   -3.3947082    1.4443265   378844 
 3538000   0.83063965   -3.3935413   -1.9494454  0.027518063   -3.3935413    1.4440959   378819 
 3539000   0.83172608    -3.397304   -1.9511093  0.028756055    -3.397304    1.4461947   378764 
 3540000     0.831059   -3.3943731   -1.9492163  0.031262921   -3.3943731    1.4451569   378732 
 3541000   0.83207651   -3.3972571   -1.9502392  0.035157741   -3.3972571    1.4470179   378708 
 3542000   0.83007685   -3.3949647   -1.9511727  0.035649022   -3.3949647    1.4437921   378642 
 3543000   0.83131326   -3.3977914   -1.9515891  0.037399956   -3.3977914    1.4462023   378574 
 3544000   0.83222618   -3.4006529    -1.952675  0.031922522   -3.4006529    1.4479779   378525 
 3545000   0.83108328    -3.399989   -1.9536786  0.032396201    -3.399989    1.4463104   378441 
 3546000   0.83205131   -3.4022782   -1.9540421  0.033261019   -3.4022782    1.4482361   378378 
 3547000   0.82971178   -3.3988583   -1.9544423   0.03153751   -3.3988583    1.4444159   378312 
 3548000   0.83162965   -3.4021242   -1.9541705  0.032660887   -3.4021242    1.4479537   378260 
 3549000    0.8302435   -3.3999696   -1.9542191  0.032410113   -3.3999696    1.4457505   378205 
 3550000      0.83035   -3.4005747   -1.9543902  0.033337835   -3.4005747    1.4461845   378140 
 3551000   0.83219043   -3.4033427   -1.9538608  0.036602017   -3.4033427    1.4494819   378116 
 3552000   0.83176438   -3.4025775   -1.9537112  0.035510165   -3.4025775    1.4488663   378083 
 3553000   0.83268032      -3.4054   -1.9547848  0.032510604      -3.4054    1.4506152   378043 
 3554000   0.83120926   -3.4038076    -1.955713  0.036480901   -3.4038076    1.4480946   378032 
 3555000   0.83116546   -3.4048537   -1.9564407  0.036864982   -3.4048537     1.448413   377929 
 3556000   0.83150636   -3.4051335   -1.9558964  0.033080612   -3.4051335    1.4492371   377869 
 3557000    0.8306814   -3.4065957   -1.9583863  0.037001107   -3.4065957    1.4482094   377762 
 3558000   0.83031616   -3.4065956   -1.9590115  0.029891444   -3.4065956    1.4475841   377759 
 3559000   0.82834479   -3.4045869   -1.9600764  0.033093144   -3.4045869    1.4445105   377664 
 3560000   0.82852096   -3.4040937   -1.9591613  0.025398872   -3.4040937    1.4449324   377634 
 3561000   0.82889232   -3.4037667   -1.9579186  0.033609215   -3.4037667    1.4458481   377564 
 3562000   0.82705537   -3.4024754   -1.9595564  0.035889061   -3.4024754     1.442919   377492 
 3563000   0.82790803   -3.4058748   -1.9612309  0.030240593   -3.4058748    1.4446439   377430 
 3564000   0.82808799   -3.4063374   -1.9611114  0.030617976   -3.4063374     1.445226   377360 
 3565000   0.82742181   -3.4057382   -1.9614567  0.035694709   -3.4057382    1.4442815   377303 
 3566000   0.82635776   -3.4064628   -1.9639201   0.02994063   -3.4064628    1.4425427   377272 
 3567000   0.82737719    -3.408063   -1.9635493     0.028245    -3.408063    1.4445137   377222 
 3568000   0.82762202   -3.4097766    -1.964437  0.038027737   -3.4097766    1.4453396   377118 
 3569000   0.82650905    -3.409263   -1.9655685  0.032102348    -3.409263    1.4436946   377040 
 3570000   0.82697533   -3.4102704   -1.9655315  0.033720657   -3.4102704    1.4447389   376980 
 3571000   0.82699089   -3.4115663     -1.96662  0.029849639   -3.4115663    1.4449463   376933 
 3572000   0.82670218   -3.4112551   -1.9666178  0.031382273   -3.4112551    1.4446373   376882 
 3573000   0.82522779   -3.4071858    -1.964903   0.02964815   -3.4071858    1.4422828   376824 
 3574000   0.82637549   -3.4096355   -1.9654082  0.031878165   -3.4096355    1.4442273   376840 
 3575000   0.82566151   -3.4083239   -1.9651605  0.034630328   -3.4083239    1.4431634   376792 
 3576000   0.82480167   -3.4076692   -1.9657676  0.033292088   -3.4076692    1.4419016   376729 
 3577000   0.82664902   -3.4110904   -1.9659018  0.031488314   -3.4110904    1.4451886   376714 
 3578000   0.82490045   -3.4088452   -1.9665106  0.033176128   -3.4088452    1.4423346   376661 
 3579000   0.82560471   -3.4088938   -1.9650249  0.034904332   -3.4088938    1.4438688   376582 
 3580000   0.82558542   -3.4092769    -1.965277  0.031904671   -3.4092769        1.444   376539 
 3581000   0.82580332   -3.4109873   -1.9663914  0.033104823   -3.4109873    1.4445959   376483 
 3582000   0.82557677   -3.4110859   -1.9667098  0.034731055   -3.4110859    1.4443761   376437 
 3583000   0.82594087   -3.4110903   -1.9659313  0.034997216   -3.4110903     1.445159   376399 
 3584000   0.82647133   -3.4133923   -1.9668785  0.036214593   -3.4133923    1.4465137   376288 
 3585000   0.82634381   -3.4130114    -1.966521   0.03242507   -3.4130114    1.4464904   376236 
 3586000   0.82585196   -3.4123663   -1.9663986  0.034928213   -3.4123663    1.4459677   376148 
 3587000   0.82523719   -3.4120143    -1.966881   0.03466804   -3.4120143    1.4451333   376085 
 3588000   0.82549831    -3.412926   -1.9671932  0.034537833    -3.412926    1.4457328   376048 
 3589000   0.82588083   -3.4152534   -1.9685506  0.030948745   -3.4152534    1.4467028   375970 
 3590000   0.82441766   -3.4125274   -1.9682033  0.030775469   -3.4125274    1.4443242   375922 
 3591000   0.82449744   -3.4147645   -1.9700354   0.03386236   -3.4147645    1.4447291   375853 
 3592000    0.8237973   -3.4118485   -1.9682118  0.036233406   -3.4118485    1.4436367   375818 
 3593000   0.82388059   -3.4122775   -1.9683604  0.033553208   -3.4122775    1.4439171   375783 
 3594000   0.82344665    -3.411512   -1.9679674  0.032998222    -3.411512    1.4435446   375682 
 3595000   0.82356722   -3.4106706   -1.9669223   0.03637838   -3.4106706    1.4437483   375684 
 3596000    0.8239688   -3.4119917   -1.9672702  0.030813058   -3.4119917    1.4447215   375614 
 3597000   0.82357115   -3.4127632    -1.968539  0.035932551   -3.4127632    1.4442242   375562 
 3598000   0.82342196   -3.4135915   -1.9694482  0.033292868   -3.4135915    1.4441433   375515 
 3599000   0.82421278   -3.4139558   -1.9683639  0.033956676   -3.4139558    1.4455919   375499 
 3600000   0.82324974   -3.4133277   -1.9691095  0.032301666   -3.4133277    1.4442181   375417 
 3601000   0.82208525   -3.4106381   -1.9683475  0.034429235   -3.4106381    1.4422906   375387 
 3602000   0.82220246   -3.4126862   -1.9701708  0.030505324   -3.4126862    1.4425154   375382 
 3603000   0.82315876   -3.4145213   -1.9700433  0.031063486   -3.4145213    1.4444779   375308 
 3604000   0.82154032     -3.41246   -1.9704917  0.035499173     -3.41246    1.4419683   375222 
 3605000   0.82155064   -3.4134587   -1.9710378  0.031511337   -3.4134587    1.4424208   375109 
 3606000   0.82145267   -3.4126392   -1.9702827  0.031406127   -3.4126392    1.4423565   375081 
 3607000   0.82061609   -3.4132632    -1.971976  0.032142959   -3.4132632    1.4412872   374977 
 3608000   0.82007337   -3.4132555    -1.972814  0.033844018   -3.4132555    1.4404416   374949 
 3609000   0.82150297   -3.4155182   -1.9724386  0.028616033   -3.4155182    1.4430796   374916 
 3610000    0.8202125   -3.4133034   -1.9723792  0.033362004   -3.4133034    1.4409242   374887 
 3611000   0.82046152   -3.4148092   -1.9733399  0.028637067   -3.4148092    1.4414693   374859 
 3612000   0.82032142   -3.4139388   -1.9724733  0.032071673   -3.4139388    1.4414654   374796 
 3613000    0.8206296   -3.4151472   -1.9728323  0.029018546   -3.4151472    1.4423148   374716 
 3614000   0.82006196   -3.4137616    -1.972306  0.035001935   -3.4137616    1.4414557   374680 
 3615000   0.82037368   -3.4132201   -1.9711703  0.028462284   -3.4132201    1.4420498   374668 
 3616000   0.82055957   -3.4144433   -1.9719667  0.031116968   -3.4144433    1.4424766   374642 
 3617000   0.82157441    -3.418025     -1.97356  0.032806828    -3.418025     1.444465   374589 
 3618000   0.82034762   -3.4162436   -1.9736159  0.033763067   -3.4162436    1.4426277   374506 
 3619000   0.81978093   -3.4162171   -1.9743473  0.035766501   -3.4162171    1.4418699   374444 
 3620000   0.82100676    -3.416956   -1.9725597  0.031583229    -3.416956    1.4443962   374348 
 3621000   0.81900413   -3.4171667    -1.975951  0.034969102   -3.4171667    1.4412157   374259 
 3622000   0.81934492   -3.4158445   -1.9738905   0.03707028   -3.4158445    1.4419541   374223 
 3623000   0.82075402   -3.4213247   -1.9766205  0.027889911   -3.4213247    1.4447041   374153 
 3624000   0.81864099   -3.4181263   -1.9770183  0.031966256   -3.4181263     1.441108   374121 
 3625000   0.82096348   -3.4217284   -1.9765126  0.030544134   -3.4217284    1.4452158   374116 
 3626000   0.81931452   -3.4211922   -1.9787251  0.033647692   -3.4211922    1.4424672   374076 
 3627000   0.81883533   -3.4207795   -1.9787666  0.029383734   -3.4207795    1.4420129   373975 
 3628000   0.81800795   -3.4233331   -1.9824113  0.032206441   -3.4233331    1.4409218   373880 
 3629000   0.81973348   -3.4256203   -1.9816821  0.034866826   -3.4256203    1.4439382   373886 
 3630000   0.81853728   -3.4237232   -1.9817147  0.030870286   -3.4237232    1.4420085   373840 
 3631000   0.81660387   -3.4197586   -1.9810561  0.033530222   -3.4197586    1.4387025   373814 
 3632000   0.81717058   -3.4211723   -1.9812942  0.035137158   -3.4211723    1.4398781   373768 
 3633000   0.81801404   -3.4231888   -1.9816316  0.031277794   -3.4231888    1.4415572   373718 
 3634000    0.8195203   -3.4249488   -1.9805014  0.035700967   -3.4249488    1.4444474   373657 
 3635000   0.81896503   -3.4253264   -1.9817263  0.034096773   -3.4253264       1.4436   373623 
 3636000   0.81905489   -3.4244491   -1.9805941  0.034044454   -3.4244491    1.4438551   373598 
 3637000   0.81891733   -3.4252981   -1.9813879  0.034791531   -3.4252981    1.4439101   373521 
 3638000   0.81782757   -3.4235132   -1.9812156  0.039801324   -3.4235132    1.4422976   373441 
 3639000   0.81823786   -3.4256305    -1.982362  0.032468759   -3.4256305    1.4432685   373377 
 3640000   0.81733509   -3.4238286    -1.981998  0.029250968   -3.4238286    1.4418306   373337 
 3641000   0.81623686   -3.4225175   -1.9822925  0.033021482   -3.4225175     1.440225   373251 
 3642000   0.81506896   -3.4235894   -1.9851014  0.029451274   -3.4235894     1.438488   373167 
 3643000   0.81437649   -3.4237005   -1.9861072  0.031865498   -3.4237005    1.4375934   373082 
 3644000   0.81417544   -3.4257792   -1.9883327  0.024780034   -3.4257792    1.4374465   373028 
 3645000   0.81523869   -3.4266357    -1.987119  0.028811306   -3.4266357    1.4395167   372978 
 3646000   0.81519002   -3.4269399   -1.9871579  0.027097946   -3.4269399     1.439782   372887 
 3647000   0.81365846   -3.4242675   -1.9871443  0.030645739   -3.4242675    1.4371232   372875 
 3648000   0.81495586   -3.4258176   -1.9861982  0.029042803   -3.4258176    1.4396194   372822 
 3649000   0.81465286   -3.4232764   -1.9840301  0.031969857   -3.4232764    1.4392463   372780 
 3650000   0.81520064   -3.4250544    -1.984593  0.031919878   -3.4250544    1.4404613   372716 
 3651000   0.81547225    -3.426227   -1.9850112  0.028012994    -3.426227    1.4412158   372645 
 3652000   0.81426609   -3.4256237   -1.9861997  0.036210498   -3.4256237    1.4394241   372557 
 3653000   0.81336105   -3.4253124   -1.9873764  0.032899433   -3.4253124    1.4379361   372528 
 3654000   0.81251171   -3.4231802   -1.9866106   0.03500068   -3.4231802    1.4365695   372493 
 3655000   0.81363044   -3.4240957    -1.985552  0.035093783   -3.4240957    1.4385436   372494 
 3656000   0.81407981   -3.4246972   -1.9851001  0.032212797   -3.4246972    1.4395971   372427 
 3657000   0.81247269    -3.422117   -1.9850455  0.030045367    -3.422117    1.4370715   372345 
 3658000   0.81340618   -3.4240246   -1.9851899  0.026877929   -3.4240246    1.4388347   372316 
 3659000   0.81175307   -3.4219457   -1.9859542  0.033924906   -3.4219457    1.4359915   372295 
 3660000   0.81273192   -3.4244506   -1.9865074  0.037204812   -3.4244506    1.4379432   372238 
 3661000    0.8119614   -3.4240813   -1.9872543  0.031410739   -3.4240813     1.436827   372174 
 3662000   0.81081989   -3.4214404    -1.986402  0.030446872   -3.4214404    1.4350384   372114 
 3663000   0.81141477   -3.4216607   -1.9854961  0.029582871   -3.4216607    1.4361646   372095 
 3664000   0.81359511    -3.426259   -1.9860418  0.028101101    -3.426259    1.4402172   372045 
 3665000   0.81285113   -3.4233571   -1.9843408  0.034957278   -3.4233571    1.4390162   372015 
 3666000   0.81365485   -3.4232039   -1.9827107  0.033790994   -3.4232039    1.4404933   372001 
 3667000   0.81326696   -3.4213649   -1.9814655  0.034364677   -3.4213649    1.4398995   371977 
 3668000   0.81358518   -3.4230792   -1.9824071  0.034560836   -3.4230792     1.440672   371923 
 3669000    0.8133002   -3.4229612   -1.9827589  0.034461018   -3.4229612    1.4402023   371914 
 3670000   0.81275721   -3.4229287   -1.9833706  0.029802693   -3.4229287    1.4395581   371832 
 3671000   0.81156844   -3.4226439   -1.9851256  0.028465555   -3.4226439    1.4375183   371815 
 3672000   0.81074811   -3.4207391   -1.9845657  0.032306212   -3.4207391    1.4361734   371787 
 3673000   0.80976664   -3.4210945   -1.9864822  0.030353175   -3.4210945    1.4346123   371741 
 3674000   0.81118115   -3.4233187   -1.9858601   0.02819159   -3.4233187    1.4374586   371653 
 3675000   0.80917997    -3.421446   -1.9872326  0.034772189    -3.421446    1.4342134   371575 
 3676000   0.80985368   -3.4224628   -1.9868969  0.027798413   -3.4224628    1.4355659   371534 
 3677000   0.81157035   -3.4243066   -1.9856357  0.031253925   -3.4243066    1.4386709   371518 
 3678000   0.81095041   -3.4219911   -1.9840593  0.033608837   -3.4219911    1.4379318   371425 
 3679000   0.81165681    -3.424588   -1.9852719  0.033384183    -3.424588    1.4393161   371391 
 3680000   0.81120496   -3.4239198   -1.9851996  0.032180357   -3.4239198    1.4387202   371338 
 3681000   0.81085319   -3.4233086   -1.9848288  0.031094207   -3.4233086    1.4384798   371239 
 3682000   0.81286434   -3.4255312   -1.9834525  0.035766215   -3.4255312    1.4420787   371231 
 3683000   0.81090312   -3.4224058   -1.9836436  0.040389959   -3.4224058    1.4387621   371189 
 3684000   0.81136063   -3.4236033   -1.9837656  0.034482685   -3.4236033    1.4398377   371121 
 3685000   0.81064849   -3.4235691    -1.984906  0.031011047   -3.4235691    1.4386631   371098 
 3686000   0.81030981   -3.4232601    -1.985016  0.030237021   -3.4232601    1.4382442   371051 
 3687000   0.80919667   -3.4239796   -1.9874634  0.025443713   -3.4239796    1.4365162   370987 
 3688000   0.80980419    -3.422672   -1.9850231  0.030978052    -3.422672    1.4376489   370973 
 3689000   0.80953656   -3.4235944     -1.98613  0.033127854   -3.4235944    1.4374644   370898 
 3690000   0.80796591   -3.4229795   -1.9881802  0.024379337   -3.4229795    1.4347993   370866 
 3691000    0.8080263   -3.4228262   -1.9878578  0.031042117   -3.4228262    1.4349684   370850 
 3692000   0.80917637   -3.4255491   -1.9880809  0.029385856   -3.4255491    1.4374682   370732 
 3693000   0.80897176   -3.4248756   -1.9875615  0.029369313   -3.4248756    1.4373141   370678 
 3694000   0.80831743   -3.4248365   -1.9885416  0.036901817   -3.4248365    1.4362949   370641 
 3695000   0.80875157    -3.424611   -1.9874749  0.032424577    -3.424611    1.4371361   370623 
 3696000   0.80841916    -3.425172   -1.9881458  0.028081749    -3.425172    1.4370262   370499 
 3697000   0.80870597   -3.4260076   -1.9882038  0.030985528   -3.4260076    1.4378038   370430 
 3698000    0.8084901   -3.4270158   -1.9892348  0.034801355   -3.4270158     1.437781   370337 
 3699000   0.80880572   -3.4288309   -1.9903022  0.030428096   -3.4288309    1.4385287   370289 
 3700000   0.80887333    -3.429187   -1.9903865  0.030598491    -3.429187    1.4388005   370250 
 3701000   0.80859166   -3.4313415    -1.992739   0.03136017   -3.4313415    1.4386025   370172 
 3702000   0.80901993   -3.4307606   -1.9911511  0.033675832   -3.4307606    1.4396095   370109 
 3703000   0.80729182   -3.4300368   -1.9932384   0.03146574   -3.4300368    1.4367984   370041 
 3704000   0.80876928   -3.4335379    -1.993822  0.030935149   -3.4335379    1.4397159   369967 
 3705000    0.8072557   -3.4326954   -1.9952582  0.029488805   -3.4326954    1.4374372   369860 
 3706000   0.80816149   -3.4346989   -1.9954581  0.031987532   -3.4346989    1.4392408   369811 
 3707000   0.80685114   -3.4336009   -1.9965072  0.031842147   -3.4336009    1.4370937   369763 
 3708000   0.80702886   -3.4346533   -1.9970486  0.032316657   -3.4346533    1.4376047   369713 
 3709000   0.80687646    -3.434781   -1.9971756  0.031549431    -3.434781    1.4376054   369643 
 3710000   0.80656359   -3.4361452    -1.998685  0.032511791   -3.4361452    1.4374602   369537 
 3711000   0.80636582   -3.4357397    -1.998527  0.033773921   -3.4357397    1.4372127   369510 
 3712000   0.80596074   -3.4365756   -1.9997621  0.038709197   -3.4365756    1.4368135   369427 
 3713000   0.80711756   -3.4397424   -2.0006563  0.030414022   -3.4397424    1.4390861   369373 
 3714000   0.80702653   -3.4379295   -1.9989044  0.036554138   -3.4379295    1.4390251   369347 
 3715000   0.80656472    -3.437863   -1.9994939  0.029122849    -3.437863    1.4383691   369304 
 3716000   0.80632634    -3.437706   -1.9996218    0.0347502    -3.437706    1.4380842   369268 
 3717000   0.80669144   -3.4386666   -1.9997676  0.029611154   -3.4386666     1.438899   369226 
 3718000    0.8062279   -3.4379932   -1.9997653  0.035124415   -3.4379932     1.438228   369186 
 3719000   0.80615705   -3.4392591    -2.001064  0.032318314   -3.4392591    1.4381951   369162 
 3720000   0.80504093   -3.4383641   -2.0020357  0.036451804   -3.4383641    1.4363284   369130 
 3721000    0.8065238   -3.4408931   -2.0017163  0.035847639   -3.4408931    1.4391768   369078 
 3722000   0.80625625    -3.441854   -2.0029557  0.030061696    -3.441854    1.4388983   369027 
 3723000     0.805266   -3.4419933   -2.0044845  0.032689546   -3.4419933    1.4375088   368930 
 3724000   0.80524114   -3.4402609   -2.0027418  0.030049995   -3.4402609     1.437519   368916 
 3725000   0.80328762    -3.437146   -2.0028889  0.032788598    -3.437146    1.4342571   368858 
 3726000   0.80276575   -3.4378583   -2.0042727  0.029998573   -3.4378583    1.4335857   368791 
 3727000   0.80261334   -3.4374329   -2.0039561  0.033648048   -3.4374329    1.4334767   368749 
 3728000   0.80381444   -3.4379941   -2.0022748  0.025657198   -3.4379941    1.4357193   368724 
 3729000   0.80452741   -3.4408695   -2.0036897  0.028862251   -3.4408695    1.4371798   368676 
 3730000   0.80455483   -3.4412902   -2.0039445  0.027120596   -3.4412902    1.4373458   368646 
 3731000   0.80454367    -3.440892   -2.0035038  0.027275569    -3.440892    1.4373882   368630 
 3732000   0.80360004   -3.4379402   -2.0020743  0.034359339   -3.4379402    1.4358659   368588 
 3733000   0.80374255   -3.4385681   -2.0022176  0.032764812   -3.4385681    1.4363505   368529 
 3734000   0.80319824   -3.4379206   -2.0022468  0.029759765   -3.4379206    1.4356738   368453 
 3735000   0.80349201   -3.4387762   -2.0024642  0.029936174   -3.4387762     1.436312   368424 
 3736000   0.80366519   -3.4389642   -2.0022022  0.034222283   -3.4389642    1.4367619   368388 
 3737000   0.80071993   -3.4367232   -2.0047719  0.027338866   -3.4367232    1.4319513   368271 
 3738000   0.80096376   -3.4388601   -2.0062044  0.032268648   -3.4388601    1.4326558   368202 
 3739000   0.80038357   -3.4374836   -2.0054689  0.031628634   -3.4374836    1.4320147   368100 
 3740000   0.80089319    -3.439255   -2.0060326  0.029805603    -3.439255    1.4332224   368024 
 3741000   0.80100615   -3.4415321   -2.0078349  0.026936606   -3.4415321    1.4336972   367954 
 3742000   0.80156282   -3.4409149    -2.006233  0.033958049   -3.4409149    1.4346819   367957 
 3743000   0.80152332   -3.4398576   -2.0052932   0.02765144   -3.4398576    1.4345644   367969 
 3744000   0.80136937   -3.4360837   -2.0017636  0.031244435   -3.4360837    1.4343201   367961 
 3745000   0.80251708   -3.4386523   -2.0020203  0.026104106   -3.4386523     1.436632   367895 
 3746000   0.80198272   -3.4388896   -2.0030659  0.028715278   -3.4388896    1.4358237   367857 
 3747000   0.80205419   -3.4402445   -2.0040742  0.038066462   -3.4402445    1.4361703   367801 
 3748000   0.80146942   -3.4409548   -2.0056638  0.035136494   -3.4409548     1.435291   367758 
 3749000   0.80173162   -3.4382504   -2.0022634  0.031440268   -3.4382504     1.435987   367700 
 3750000   0.80161732   -3.4394075   -2.0034143  0.035416895   -3.4394075    1.4359932   367646 
 3751000   0.80282779   -3.4419864    -2.003641  0.033633162   -3.4419864    1.4383455   367599 
 3752000   0.80129777   -3.4405015   -2.0047527  0.033442656   -3.4405015    1.4357488   367562 
 3753000   0.80249947   -3.4422577   -2.0041327  0.032424869   -3.4422577     1.438125   367505 
 3754000   0.80070586   -3.4412926   -2.0061398  0.040564404   -3.4412926    1.4351529   367443 
 3755000   0.80099097   -3.4429499   -2.0071922  0.040634612   -3.4429499    1.4357577   367419 
 3756000   0.80014078   -3.4438757    -2.009435  0.031363332   -3.4438757    1.4344406   367366 
 3757000   0.80056953   -3.4424821   -2.0071557  0.031187544   -3.4424821    1.4353265   367336 
 3758000   0.80117071   -3.4441056   -2.0074861  0.032302774   -3.4441056    1.4366194   367281 
 3759000   0.80001858   -3.4426363   -2.0078602  0.028285897   -3.4426363    1.4347762   367224 
 3760000   0.80095761   -3.4453778   -2.0087063  0.034422654   -3.4453778    1.4366715   367170 
 3761000   0.79976317   -3.4428663   -2.0081458  0.031510549   -3.4428663    1.4347205   367121 
 3762000    0.7996872   -3.4433455   -2.0083938  0.026233313   -3.4433455    1.4349516   367027 
 3763000   0.79962818   -3.4441279   -2.0089967  0.033311343   -3.4441279    1.4351312   366954 
 3764000   0.79942637   -3.4435285   -2.0087243  0.026431745   -3.4435285    1.4348042   366945 
 3765000   0.79856796   -3.4419395   -2.0084064   0.02747278   -3.4419395    1.4335331   366876 
 3766000   0.79904661   -3.4434617   -2.0089365  0.030663994   -3.4434617    1.4345252   366842 
 3767000   0.80071195   -3.4452608   -2.0077222  0.032034002   -3.4452608    1.4375385   366836 
 3768000   0.80142399   -3.4473196   -2.0083341  0.033763058   -3.4473196    1.4389855   366793 
 3769000   0.79973537   -3.4437033   -2.0075931  0.031065541   -3.4437033    1.4361102   366753 
 3770000   0.79913922   -3.4432787    -2.007879  0.029609426   -3.4432787    1.4353997   366661 
 3771000   0.80026513   -3.4432037   -2.0056483   0.02682146   -3.4432037    1.4375554   366627 
 3772000   0.79969261   -3.4447565   -2.0080023  0.031899032   -3.4447565    1.4367542   366569 
 3773000   0.79840476     -3.44392   -2.0092291  0.032980196     -3.44392    1.4346909   366505 
 3774000   0.79934863   -3.4451625   -2.0084737   0.03360701   -3.4451625    1.4366888   366428 
 3775000    0.7988275   -3.4444027   -2.0085095  0.031195013   -3.4444027    1.4358933   366392 
 3776000   0.79753703   -3.4447447   -2.0110302  0.029412104   -3.4447447    1.4337145   366356 
 3777000   0.79829909    -3.445645   -2.0103177  0.030811824    -3.445645    1.4353273   366294 
 3778000   0.79905361   -3.4468798   -2.0099173  0.032146684   -3.4468798    1.4369625   366223 
 3779000   0.79806387   -3.4449177   -2.0096293  0.031365497   -3.4449177    1.4352884   366196 
 3780000   0.79704423   -3.4432676   -2.0097112  0.035094413   -3.4432676    1.4335564   366170 
 3781000    0.7967139   -3.4454914   -2.0121298  0.033753978   -3.4454914    1.4333616   366068 
 3782000   0.79864069   -3.4492494    -2.012229  0.032843258   -3.4492494    1.4370204   366019 
 3783000    0.7974129   -3.4460984   -2.0110872  0.033455787   -3.4460984    1.4350112   365968 
 3784000   0.79695387   -3.4468732   -2.0125392   0.03527815   -3.4468732     1.434334   365930 
 3785000   0.79796217   -3.4476515   -2.0113889  0.035051208   -3.4476515    1.4362625   365901 
 3786000    0.7971434   -3.4467087   -2.0117159  0.030931134   -3.4467087    1.4349928   365849 
 3787000   0.79730252   -3.4478691   -2.0123702  0.029858119   -3.4478691     1.435499   365793 
 3788000   0.79691173   -3.4483209   -2.0134471  0.031547433   -3.4483209    1.4348738   365773 
 3789000   0.79623944   -3.4480448   -2.0140914  0.028926241   -3.4480448    1.4339534   365699 
 3790000   0.79710752   -3.4495074   -2.0136648  0.028945098   -3.4495074    1.4358426   365616 
 3791000   0.79552796   -3.4454109   -2.0122489  0.033896134   -3.4454109     1.433162   365574 
 3792000   0.79610281   -3.4484781   -2.0140294  0.027140155   -3.4484781    1.4344487   365510 
 3793000    0.7946983   -3.4465932   -2.0146086   0.02832105   -3.4465932    1.4319846   365493 
 3794000   0.79530669   -3.4474686   -2.0141328  0.033659751   -3.4474686    1.4333358   365428 
 3795000   0.79545677   -3.4489135   -2.0150875  0.032192896   -3.4489135     1.433826   365372 
 3796000   0.79598626   -3.4489425   -2.0140443  0.032332331   -3.4489425    1.4348982   365342 
 3797000   0.79617537   -3.4497552    -2.014296  0.035268371   -3.4497552    1.4354592   365286 
 3798000   0.79578432   -3.4489929   -2.0139677  0.030444523   -3.4489929    1.4350252   365217 
 3799000   0.79588993   -3.4492053   -2.0137066  0.034440378   -3.4492053    1.4354986   365145 
 3800000   0.79582203   -3.4501843   -2.0147963  0.033485726   -3.4501843     1.435388   365142 
 3801000    0.7945452   -3.4497799   -2.0165065  0.029219114   -3.4497799    1.4332734   365094 
 3802000   0.79451403   -3.4478331   -2.0145924  0.033333967   -3.4478331    1.4332407   365088 
 3803000     0.795089   -3.4492186   -2.0147442  0.036128441   -3.4492186    1.4344744   365038 
 3804000   0.79413804   -3.4485545   -2.0156898  0.027860546   -3.4485545    1.4328647   365011 
 3805000   0.79442441   -3.4503121   -2.0167854  0.028766629   -3.4503121    1.4335267   364974 
 3806000   0.79497275   -3.4521278    -2.017533  0.029756525   -3.4521278    1.4345948   364954 
 3807000   0.79385991   -3.4499298   -2.0172608  0.034469143   -3.4499298     1.432669   364933 
 3808000   0.79431379   -3.4505725   -2.0168448   0.03025583   -3.4505725    1.4337278   364872 
 3809000   0.79383474   -3.4497457   -2.0166981  0.029204517   -3.4497457    1.4330477   364825 
 3810000   0.79410669    -3.448987    -2.015303  0.028316151    -3.448987     1.433684   364788 
 3811000   0.79271752   -3.4466144   -2.0151754  0.034208748   -3.4466144    1.4314389   364721 
 3812000   0.79498255   -3.4518807   -2.0161943  0.033216401   -3.4518807    1.4356864   364681 
 3813000   0.79516765   -3.4517079   -2.0154667  0.032503999   -3.4517079    1.4362412   364625 
 3814000   0.79438112   -3.4513504   -2.0164117  0.034492497   -3.4513504    1.4349387   364595 
 3815000   0.79473123    -3.453268   -2.0176812  0.033019969    -3.453268    1.4355868   364591 
 3816000   0.79302154   -3.4512112   -2.0184927  0.029617032   -3.4512112    1.4327186   364535 
 3817000   0.79288026   -3.4511657   -2.0184548  0.027869908   -3.4511657    1.4327109   364472 
 3818000    0.7935693   -3.4520482   -2.0179191  0.032574967   -3.4520482    1.4341291   364428 
 3819000   0.79288735   -3.4497919   -2.0165491  0.029823031   -3.4497919    1.4332428   364340 
 3820000   0.79219796   -3.4492921   -2.0169691  0.033500054   -3.4492921    1.4323229   364257 
 3821000   0.79227935   -3.4504626   -2.0177723  0.029763209   -3.4504626    1.4326903   364201 
 3822000   0.79221125   -3.4492334   -2.0165482  0.033760164   -3.4492334    1.4326852   364171 
 3823000    0.7930475   -3.4498922   -2.0154544  0.029442188   -3.4498922    1.4344378   364110 
 3824000   0.79382493   -3.4510011   -2.0150072  0.033837044   -3.4510011    1.4359939   364072 
 3825000   0.79237277   -3.4494477   -2.0158878  0.034493105   -3.4494477    1.4335599   364023 
 3826000   0.79279117   -3.4498283   -2.0154207  0.028571843   -3.4498283    1.4344075   364000 
 3827000   0.79279883   -3.4500552   -2.0154723  0.028912423   -3.4500552     1.434583   363959 
 3828000   0.79187047   -3.4495051   -2.0163185  0.027694498   -3.4495051    1.4331866   363887 
 3829000   0.79214437   -3.4494539   -2.0155745  0.034350512   -3.4494539    1.4338794   363837 
 3830000   0.79203835   -3.4490606   -2.0150933  0.030692714   -3.4490606    1.4339673   363766 
 3831000    0.7900329   -3.4454731   -2.0149715   0.03010186   -3.4454731    1.4305016   363724 
 3832000   0.79121333   -3.4468654   -2.0140334  0.031964755   -3.4468654     1.432832   363675 
 3833000   0.79167754    -3.445939    -2.012081  0.034705618    -3.445939     1.433858   363628 
 3834000   0.79130756   -3.4445909   -2.0114779  0.032064718   -3.4445909     1.433113   363647 
 3835000   0.79224324    -3.447392   -2.0123279  0.034361364    -3.447392    1.4350641   363582 
 3836000   0.79226587    -3.447541   -2.0122701  0.035056817    -3.447541    1.4352709   363540 
 3837000   0.79306396   -3.4469895   -2.0102728  0.030821057   -3.4469895    1.4367167   363540 
 3838000   0.79240751   -3.4454457   -2.0097049  0.032521575   -3.4454457    1.4357408   363486 
 3839000   0.79110818   -3.4448265   -2.0112033  0.029752458   -3.4448265    1.4336232   363426 
 3840000   0.78972566   -3.4438407   -2.0125339  0.032811145   -3.4438407    1.4313069   363378 
 3841000   0.79025128   -3.4449223    -2.012304  0.028026584   -3.4449223    1.4326183   363287 
 3842000   0.78966218   -3.4430536   -2.0113615    0.0271197   -3.4430536    1.4316922   363251 
 3843000   0.78949589   -3.4428078    -2.011224  0.031091584   -3.4428078    1.4315838   363202 
 3844000   0.78856028   -3.4416371    -2.011679  0.031620152   -3.4416371    1.4299581   363184 
 3845000   0.78943955    -3.443556   -2.0117471  0.027301456    -3.443556    1.4318088   363119 
 3846000   0.78928328   -3.4439222   -2.0123534  0.030123085   -3.4439222    1.4315688   363108 
 3847000   0.78884846   -3.4450292     -2.01419  0.029469553   -3.4450292    1.4308392   363093 
 3848000   0.78928112   -3.4457354   -2.0138827  0.029062651   -3.4457354    1.4318527   363035 
 3849000   0.78796548    -3.443727   -2.0141232  0.029518652    -3.443727    1.4296038   363000 
 3850000   0.78840803   -3.4440236   -2.0136523  0.030983535   -3.4440236    1.4303713   363009 
 3851000   0.78950837   -3.4442224   -2.0116891   0.03731647   -3.4442224    1.4325333   362967 
 3852000   0.79055109   -3.4463969   -2.0118215  0.032952793   -3.4463969    1.4345755   362929 
 3853000   0.79050012   -3.4482484   -2.0135994  0.033406129   -3.4482484     1.434649   362887 
 3854000   0.79013059   -3.4497515   -2.0153225  0.030800557   -3.4497515     1.434429   362773 
 3855000   0.78985806   -3.4503302   -2.0163407  0.034455174   -3.4503302    1.4339896   362759 
 3856000   0.79047497   -3.4509215   -2.0154083  0.033821503   -3.4509215    1.4355132   362657 
 3857000   0.78835223    -3.448606   -2.0169991  0.028489286    -3.448606     1.431607   362670 
 3858000   0.78651684   -3.4477443   -2.0193285  0.028757236   -3.4477443    1.4284158   362634 
 3859000    0.7889863   -3.4535391   -2.0204409  0.030686546   -3.4535391    1.4330982   362584 
 3860000   0.78832529   -3.4527069   -2.0204776  0.033698905   -3.4527069    1.4322294   362500 
 3861000   0.78878802   -3.4532475   -2.0199165  0.027857976   -3.4532475     1.433331   362434 
 3862000   0.78827698   -3.4537436    -2.021104  0.030268046   -3.4537436    1.4326396   362374 
 3863000    0.7878574   -3.4532843    -2.021186  0.032572891   -3.4532843    1.4320983   362318 
 3864000   0.78795412    -3.453133    -2.020677  0.033334256    -3.453133     1.432456   362272 
 3865000   0.78747724   -3.4531665   -2.0215024  0.035207365   -3.4531665    1.4316642   362253 
 3866000   0.78841203   -3.4547973   -2.0212437  0.031758723   -3.4547973    1.4335536   362205 
 3867000   0.78691311   -3.4532771   -2.0223502  0.030817579   -3.4532771    1.4309269   362180 
 3868000   0.78656074   -3.4529569   -2.0224851  0.031720545   -3.4529569    1.4304718   362133 
 3869000   0.78694275   -3.4529787   -2.0215948  0.027158318   -3.4529787    1.4313839   362078 
 3870000   0.78776688   -3.4553362   -2.0222751  0.029260769   -3.4553362     1.433061   362033 
 3871000   0.78796846   -3.4558406   -2.0220842  0.035127929   -3.4558406    1.4337565   361950 
 3872000    0.7875953   -3.4557253    -2.022537  0.033853594   -3.4557253    1.4331883   361922 
 3873000    0.7874501   -3.4557412    -2.022429  0.035175196   -3.4557412    1.4333122   361824 
 3874000   0.78716534   -3.4544885   -2.0215599  0.030909629   -3.4544885    1.4329286   361790 
 3875000    0.7879802   -3.4547809   -2.0203928  0.029312107   -3.4547809    1.4343881   361796 
 3876000   0.78736247   -3.4559261   -2.0223812  0.029702115   -3.4559261     1.433545   361725 
 3877000   0.78628479   -3.4549952   -2.0232897  0.025170644   -3.4549952    1.4317055   361694 
 3878000   0.78510926   -3.4532665    -2.023484  0.028212441   -3.4532665    1.4297825   361639 
 3879000   0.78546928   -3.4542972   -2.0237879   0.02959351   -3.4542972    1.4305093   361621 
 3880000   0.78552865   -3.4554543   -2.0245321  0.029973163   -3.4554543    1.4309221   361544 
 3881000   0.78439548   -3.4527735   -2.0238009  0.032711908   -3.4527735    1.4289726   361515 
 3882000   0.78635915   -3.4554631   -2.0227191  0.031350939   -3.4554631    1.4327441   361466 
 3883000   0.78743029   -3.4562969   -2.0216171  0.032044217   -3.4562969    1.4346798   361470 
 3884000   0.78687907   -3.4558362   -2.0219505   0.03440599   -3.4558362    1.4338858   361417 
 3885000   0.78599061   -3.4542796   -2.0217869  0.035290405   -3.4542796    1.4324927   361360 
 3886000    0.7857858   -3.4545736   -2.0222878  0.035049247   -3.4545736    1.4322859   361318 
 3887000   0.78461313   -3.4538266   -2.0234604  0.029512359   -3.4538266    1.4303661   361263 
 3888000   0.78517548   -3.4550282   -2.0234942  0.031116826   -3.4550282     1.431534   361227 
 3889000   0.78430655   -3.4531361   -2.0227746  0.035298485   -3.4531361    1.4303615   361123 
 3890000   0.78473543   -3.4543926   -2.0229397   0.03185505   -3.4543926    1.4314529   361045 
 3891000   0.78674181   -3.4573743   -2.0220906  0.026305544   -3.4573743    1.4352837   361002 
 3892000   0.78395899   -3.4539078   -2.0234751  0.036017375   -3.4539078    1.4304328   360945 
 3893000   0.78543703   -3.4564015   -2.0231011  0.032810305   -3.4564015    1.4333004   360902 
 3894000   0.78398032   -3.4533706   -2.0224351  0.031556558   -3.4533706    1.4309355   360828 
 3895000   0.78560627   -3.4545565   -2.0204943  0.034338584   -3.4545565    1.4340622   360788 
 3896000   0.78412203   -3.4525519   -2.0209371  0.034173125   -3.4525519    1.4316147   360722 
 3897000   0.78353692   -3.4535859   -2.0228094  0.034820492   -3.4535859    1.4307765   360664 
 3898000   0.78375166   -3.4538518   -2.0225283  0.031274448   -3.4538518    1.4313234   360625 
 3899000   0.78406981   -3.4543756   -2.0221653  0.030897471   -3.4543756    1.4322102   360548 
 3900000   0.78323047   -3.4538757   -2.0229565  0.029193031   -3.4538757    1.4309192   360487 
 3901000   0.78178267   -3.4530965   -2.0247986  0.030292475   -3.4530965    1.4282979   360481 
 3902000   0.78339566   -3.4556481   -2.0241293  0.026540421   -3.4556481    1.4315188   360412 
 3903000   0.78387303   -3.4564966   -2.0240379  0.027197073   -3.4564966    1.4324587   360395 
 3904000   0.78364892   -3.4565891   -2.0241823  0.030870813   -3.4565891    1.4324068   360305 
 3905000   0.78282242   -3.4551894   -2.0240868  0.033741488   -3.4551894    1.4311026   360253 
 3906000   0.78142832   -3.4534055   -2.0245738  0.032042983   -3.4534055    1.4288317   360183 
 3907000   0.78189531   -3.4530663    -2.023222  0.028608858   -3.4530663    1.4298443   360143 
 3908000   0.78312222   -3.4559755   -2.0237444  0.027190855   -3.4559755    1.4322311   360107 
 3909000   0.78187414    -3.453807    -2.023783  0.027601641    -3.453807     1.430024   360088 
 3910000   0.78094975   -3.4523052   -2.0239004  0.026956199   -3.4523052    1.4284047   360070 
 3911000   0.78224627   -3.4551907   -2.0241563  0.028104301   -3.4551907    1.4310345   360005 
 3912000   0.78166302   -3.4553909   -2.0252168   0.02952891   -3.4553909    1.4301741   359953 
 3913000   0.78119114   -3.4553684   -2.0259346  0.031266378   -3.4553684    1.4294338   359922 
 3914000   0.78086526   -3.4548062     -2.02579  0.030362517   -3.4548062    1.4290162   359877 
 3915000   0.78022947   -3.4533706   -2.0253275  0.029429321   -3.4533706    1.4280431   359829 
 3916000   0.78102304   -3.4537446   -2.0240384  0.033277255   -3.4537446    1.4297062   359776 
 3917000   0.78122706     -3.45372   -2.0232746  0.035559939     -3.45372    1.4304454   359684 
 3918000   0.78262682   -3.4557963   -2.0226843  0.030399296   -3.4557963     1.433112   359658 
 3919000   0.78205993   -3.4556275   -2.0234341  0.034363619   -3.4556275    1.4321934   359628 
 3920000   0.78133475   -3.4542696   -2.0233605  0.028875005   -3.4542696    1.4309091   359617 
 3921000   0.78091371   -3.4530565   -2.0228071   0.03200132   -3.4530565    1.4302494   359589 
 3922000   0.78043708   -3.4518385   -2.0222076  0.032216962   -3.4518385    1.4296309   359525 
 3923000   0.78092568   -3.4534585   -2.0226938  0.032241403   -3.4534585    1.4307647   359465 
 3924000   0.78009777   -3.4534545   -2.0239919  0.032416734   -3.4534545    1.4294626   359411 
 3925000   0.78049299    -3.454318   -2.0240277  0.033929403    -3.454318    1.4302903   359385 
 3926000   0.78017848   -3.4545968   -2.0247317  0.032456551   -3.4545968    1.4298651   359347 
 3927000   0.77944031   -3.4551717   -2.0264209  0.030923503   -3.4551717    1.4287508   359287 
 3928000   0.77956102   -3.4537776   -2.0247896  0.026976358   -3.4537776     1.428988   359283 
 3929000   0.78057416    -3.456725   -2.0256648  0.030745314    -3.456725    1.4310602   359229 
 3930000   0.77916375   -3.4537818   -2.0251085  0.026493247   -3.4537818    1.4286733   359179 
 3931000   0.77869023   -3.4539633   -2.0259197  0.028638025   -3.4539633    1.4280436   359119 
 3932000   0.78142171   -3.4572143   -2.0239579  0.034466142   -3.4572143    1.4332564   359068 
 3933000   0.78308281   -3.4599615   -2.0234222  0.038108619   -3.4599615    1.4365392   359009 
 3934000   0.78264992   -3.4591239   -2.0232109  0.033244257   -3.4591239    1.4359131   358967 
 3935000   0.78130745   -3.4560864   -2.0225046  0.039719175   -3.4560864    1.4335819   358934 
 3936000    0.7815241   -3.4568474   -2.0226843  0.029853379   -3.4568474    1.4341632   358888 
 3937000   0.78114399   -3.4580147   -2.0243014  0.034652081   -3.4580147    1.4337133   358826 
 3938000   0.78151023   -3.4590806   -2.0244712  0.036077862   -3.4590806    1.4346094   358770 
 3939000   0.77982485   -3.4572532    -2.025582  0.028895351   -3.4572532    1.4316712   358731 
 3940000   0.78085187    -3.459293   -2.0254365  0.028963108    -3.459293    1.4338565   358656 
 3941000   0.77896293   -3.4560352   -2.0255476  0.038358718   -3.4560352    1.4304876   358631 
 3942000   0.77861459   -3.4559517    -2.026044  0.029395981   -3.4559517    1.4299077   358616 
 3943000   0.77813378   -3.4565388    -2.027279  0.028071624   -3.4565388    1.4292598   358557 
 3944000   0.77682989   -3.4539817   -2.0266988  0.029392872   -3.4539817    1.4272829   358452 
 3945000   0.77614463   -3.4527373   -2.0265623  0.032118872   -3.4527373     1.426175   358414 
 3946000   0.77750359   -3.4545964   -2.0258525  0.029179237   -3.4545964    1.4287439   358396 
 3947000   0.77581091   -3.4528506   -2.0270303  0.032577101   -3.4528506    1.4258204   358349 
 3948000   0.77752013   -3.4543665   -2.0253729  0.023787482   -3.4543665    1.4289936   358341 
 3949000   0.77719263   -3.4523911    -2.023824  0.033433027   -3.4523911    1.4285671   358297 
 3950000   0.77923404   -3.4565902    -2.023919  0.030081431   -3.4565902    1.4326713   358209 
 3951000   0.77918614   -3.4546603   -2.0218131  0.031163771   -3.4546603    1.4328472   358143 
 3952000   0.77880076   -3.4550026   -2.0228161  0.032961903   -3.4550026    1.4321865   358131 
 3953000   0.77633437   -3.4519921   -2.0240741  0.033780607   -3.4519921    1.4279181   358064 
 3954000   0.77878812   -3.4553832   -2.0228999  0.030716809   -3.4553832    1.4324833   358051 
 3955000   0.77749403    -3.452192   -2.0219173  0.032234193    -3.452192    1.4302747   358008 
 3956000   0.77793239   -3.4535175   -2.0221285  0.029676362   -3.4535175     1.431389   357931 
 3957000   0.77657913   -3.4498231   -2.0207205  0.031811012   -3.4498231    1.4291026   357880 
 3958000   0.77625714   -3.4498996   -2.0212697  0.034857351   -3.4498996    1.4286298   357850 
 3959000    0.7760197   -3.4514783   -2.0230858  0.029610288   -3.4514783    1.4283924   357800 
 3960000   0.77666354   -3.4526539   -2.0228606  0.025211137   -3.4526539    1.4297933   357746 
 3961000   0.77692243    -3.452518   -2.0221602  0.027576199    -3.452518    1.4303579   357724 
 3962000   0.77530916   -3.4496508   -2.0219997  0.032581821   -3.4496508    1.4276512   357658 
 3963000   0.77720031   -3.4525905   -2.0213169  0.028915649   -3.4525905    1.4312736   357623 
 3964000    0.7770517    -3.451254   -2.0201661  0.032020613    -3.451254    1.4310879   357601 
 3965000    0.7761709   -3.4494368   -2.0198071  0.030138672   -3.4494368    1.4296297   357560 
 3966000     0.777167   -3.4520277   -2.0205033  0.026985982   -3.4520277    1.4315245   357545 
 3967000   0.77782858   -3.4526263   -2.0196949  0.030151078   -3.4526263    1.4329314   357498 
 3968000   0.77739162   -3.4504536    -2.018259  0.033487101   -3.4504536    1.4321946   357481 
 3969000   0.77707394   -3.4510968   -2.0190268  0.033493489   -3.4510968      1.43207   357366 
 3970000   0.77632031   -3.4513401   -2.0203667  0.030968317   -3.4513401    1.4309734   357293 
 3971000   0.77767491   -3.4538844   -2.0201693  0.028393965   -3.4538844    1.4337151   357232 
 3972000   0.77685585   -3.4519126   -2.0195551  0.032127276   -3.4519126    1.4323575   357194 
 3973000   0.77337574   -3.4474401   -2.0212996  0.031014851   -3.4474401    1.4261405   357144 
 3974000   0.77560752    -3.451256   -2.0208838  0.028887908    -3.451256    1.4303722   357115 
 3975000   0.77500813   -3.4508316   -2.0213326  0.030513718   -3.4508316    1.4294989   357057 
 3976000   0.77381872   -3.4487317   -2.0211387  0.032091504   -3.4487317    1.4275929   356985 
 3977000   0.77441509   -3.4505227   -2.0216334  0.026760207   -3.4505227    1.4288893   356936 
 3978000   0.77510218   -3.4500059   -2.0198528  0.030996921   -3.4500059    1.4301531   356937 
 3979000   0.77493778   -3.4503544   -2.0201601  0.030339521   -3.4503544    1.4301943   356851 
 3980000   0.77493702   -3.4489547   -2.0186455  0.035433054   -3.4489547    1.4303091   356822 
 3981000   0.77473256   -3.4488066   -2.0186784  0.032915697   -3.4488066    1.4301282   356773 
 3982000   0.77371835    -3.448066   -2.0194816  0.036682546    -3.448066    1.4285843   356691 
 3983000   0.77537293   -3.4494791   -2.0177394  0.026098354   -3.4494791    1.4317397   356666 
 3984000   0.77480751   -3.4503028   -2.0194066  0.029200887   -3.4503028    1.4308962   356616 
 3985000   0.77421217   -3.4496986   -2.0198297  0.029707705   -3.4496986    1.4298689   356598 
 3986000   0.77452601   -3.4512041   -2.0206191  0.025639516   -3.4512041    1.4305849   356564 
 3987000   0.77389354    -3.449445    -2.019904  0.033288374    -3.449445     1.429541   356533 
 3988000   0.77394528   -3.4496218   -2.0198368  0.028931647   -3.4496218     1.429785   356496 
 3989000   0.77549582   -3.4544242   -2.0213889   0.02732955   -3.4544242    1.4330353   356400 
 3990000   0.77518778   -3.4521576   -2.0196553  0.032773938   -3.4521576    1.4325023   356391 
 3991000   0.77498354   -3.4517442   -2.0195751  0.037002466   -3.4517442    1.4321691   356380 
 3992000   0.77440304    -3.452948   -2.0216147   0.03063443    -3.452948    1.4313333   356321 
 3993000   0.77339004   -3.4510895   -2.0215564  0.032374527   -3.4510895    1.4295331   356303 
 3994000   0.77383844   -3.4520899   -2.0215633    0.0297024   -3.4520899    1.4305266   356262 
 3995000   0.77202366   -3.4496181   -2.0223983  0.032599814   -3.4496181    1.4272198   356250 
 3996000   0.77260416   -3.4507227   -2.0224096  0.028416327   -3.4507227     1.428313   356245 
 3997000   0.77460053   -3.4524505   -2.0203825  0.034565644   -3.4524505     1.432068   356229 
 3998000   0.77446071   -3.4540337   -2.0223166  0.032537064   -3.4540337    1.4317171   356252 
 3999000   0.77371985   -3.4504515   -2.0199956   0.03126987   -3.4504515    1.4304559   356225 
 4000000   0.77374321   -3.4506326   -2.0199286  0.030133326   -3.4506326    1.4307039   356174 
 4001000   0.77333691   -3.4498314   -2.0196378  0.033842185   -3.4498314    1.4301936   356114 
 4002000   0.77383561   -3.4521792   -2.0207819  0.035539123   -3.4521792    1.4313972   356044 
 4003000   0.77365599   -3.4535724   -2.0221737  0.033714914   -3.4535724    1.4313987   355961 
 4004000   0.77311031    -3.451876   -2.0213905  0.033695427    -3.451876    1.4304855   355937 
 4005000   0.77277511   -3.4528678   -2.0228579  0.030601222   -3.4528678    1.4300099   355901 
 4006000   0.77330206   -3.4525404   -2.0214427  0.033979986   -3.4525404    1.4310976   355873 
 4007000   0.77071294   -3.4512239   -2.0247133  0.029641573   -3.4512239    1.4265105   355822 
 4008000   0.77086323   -3.4518852   -2.0247636  0.028376787   -3.4518852    1.4271216   355739 
 4009000   0.77050288   -3.4509126   -2.0244622  0.033181148   -3.4509126    1.4264505   355740 
 4010000   0.77234806   -3.4535932   -2.0234011  0.028838202   -3.4535932    1.4301921   355659 
 4011000   0.77238897   -3.4544813   -2.0239238  0.029779304   -3.4544813    1.4305575   355587 
 4012000   0.77203109   -3.4538916   -2.0237395  0.031447904   -3.4538916    1.4301521   355523 
 4013000   0.77175579   -3.4550367   -2.0251573  0.029968421   -3.4550367    1.4298794   355464 
 4014000   0.77069367   -3.4540281   -2.0258675  0.032539715   -3.4540281    1.4281606   355402 
 4015000   0.77119177   -3.4540421   -2.0248016  0.028674489   -3.4540421    1.4292405   355363 
 4016000   0.76978599   -3.4518306   -2.0249143  0.036301192   -3.4518306    1.4269163   355293 
 4017000   0.77087637   -3.4529188   -2.0239773  0.031205349   -3.4529188    1.4289415   355292 
 4018000   0.77019417   -3.4527726   -2.0248947   0.03068641   -3.4527726    1.4278778   355242 
 4019000   0.77212247   -3.4561055   -2.0244956   0.03361997   -3.4561055    1.4316099   355203 
 4020000   0.77169552   -3.4546616   -2.0237224  0.030012127   -3.4546616    1.4309392   355173 
 4021000   0.77313004   -3.4560909   -2.0222415   0.03187791   -3.4560909    1.4338495   355111 
 4022000   0.77169519   -3.4557537   -2.0243235  0.031681792   -3.4557537    1.4314302   355051 
 4023000   0.77073681   -3.4537174   -2.0238595  0.035476852   -3.4537174    1.4298579   355000 
 4024000   0.77040634   -3.4540204   -2.0245622  0.033422913   -3.4540204    1.4294582   354947 
 4025000   0.76993159     -3.45424   -2.0255017  0.031987162     -3.45424    1.4287384   354907 
 4026000   0.76928077   -3.4524934   -2.0248099    0.0300226   -3.4524934    1.4276835   354869 
 4027000   0.76848663   -3.4506773    -2.024331  0.027757569   -3.4506773    1.4263464   354835 
 4028000   0.76898525   -3.4522787   -2.0248982  0.029291033   -3.4522787    1.4273804   354808 
 4029000   0.76843694    -3.450919    -2.024283  0.029811458    -3.450919    1.4266361   354740 
 4030000   0.76883848   -3.4533867   -2.0257074  0.026498379   -3.4533867    1.4276794   354666 
 4031000   0.76675964   -3.4485697   -2.0247546  0.032414627   -3.4485697    1.4238151   354667 
 4032000   0.76876778   -3.4511058   -2.0234732  0.030404045   -3.4511058    1.4276326   354645 
 4033000   0.77021138   -3.4527498   -2.0223072  0.030457065   -3.4527498    1.4304425   354613 
 4034000   0.76765671   -3.4488733   -2.0229663  0.030354664   -3.4488733    1.4259071   354561 
 4035000   0.76834497   -3.4500565   -2.0226657  0.029475872   -3.4500565    1.4273908   354510 
 4036000   0.76805859   -3.4491717   -2.0221921  0.028399819   -3.4491717    1.4269795   354480 
 4037000   0.76814804   -3.4497021   -2.0224074  0.025382468   -3.4497021    1.4272947   354443 
 4038000   0.76877691   -3.4494594   -2.0208994  0.031772793   -3.4494594    1.4285599   354419 
 4039000   0.76743817   -3.4511072   -2.0247573  0.032939025   -3.4511072    1.4263499   354350 
 4040000   0.76927824   -3.4528032   -2.0227226  0.034598928   -3.4528032    1.4300806   354273 
 4041000    0.7700132   -3.4535674   -2.0221972  0.034142214   -3.4535674    1.4313701   354292 
 4042000    0.7695234   -3.4535224   -2.0228366  0.029393668   -3.4535224    1.4306858   354236 
 4043000   0.76896217   -3.4519387   -2.0222156  0.027686777   -3.4519387    1.4297231   354216 
 4044000   0.76951959   -3.4519307   -2.0209894  0.033593351   -3.4519307    1.4309413   354171 
 4045000    0.7705123   -3.4535786   -2.0207428    0.0352146   -3.4535786    1.4328358   354159 
 4046000   0.77036233   -3.4547913   -2.0217852  0.034439845   -3.4547913    1.4330061   354048 
 4047000   0.76770585   -3.4518627   -2.0236206  0.038090605   -3.4518627     1.428242   354004 
 4048000   0.76826596   -3.4531622   -2.0237247   0.03149835   -3.4531622    1.4294375   353966 
 4049000   0.76818207   -3.4536455   -2.0239965  0.032545623   -3.4536455     1.429649   353875 
 4050000   0.76720235   -3.4527421   -2.0246865   0.03169792   -3.4527421    1.4280557   353818 
 4051000    0.7667166   -3.4517562   -2.0244999  0.027891203   -3.4517562    1.4272564   353792 
 4052000   0.76589442   -3.4521336   -2.0262627   0.03037826   -3.4521336     1.425871   353756 
 4053000   0.76748967   -3.4535959   -2.0244803  0.028853411   -3.4535959    1.4291156   353688 
 4054000   0.76668568   -3.4520474   -2.0242876   0.03066802   -3.4520474    1.4277598   353653 
 4055000   0.76646468   -3.4509078   -2.0235636  0.031216005   -3.4509078    1.4273442   353654 
 4056000   0.76708516   -3.4526774   -2.0239151  0.031930733   -3.4526774    1.4287623   353589 
 4057000   0.76774783   -3.4547709   -2.0244912  0.034567497   -3.4547709    1.4302797   353519 
 4058000   0.76796703   -3.4537105   -2.0230548  0.032720369   -3.4537105    1.4306557   353527 
 4059000   0.76771051   -3.4524488   -2.0220444    0.0363159   -3.4524488    1.4304044   353471 
 4060000   0.76651464   -3.4507328   -2.0226172  0.030072438   -3.4507328    1.4281156   353486 
 4061000   0.76716951   -3.4509713   -2.0215466  0.033136871   -3.4509713    1.4294247   353464 
 4062000   0.76781015   -3.4533582   -2.0225536  0.034117058   -3.4533582    1.4308046   353418 
 4063000   0.76827984   -3.4540045   -2.0221991  0.030657135   -3.4540045    1.4318054   353387 
 4064000   0.76746612    -3.454577   -2.0239561  0.033864912    -3.454577    1.4306209   353305 
 4065000    0.7672121   -3.4531717   -2.0228341   0.03742574   -3.4531717    1.4303376   353258 
 4066000    0.7670045   -3.4526889   -2.0226533  0.034197545   -3.4526889    1.4300356   353237 
 4067000   0.76665167   -3.4534954   -2.0239152  0.029099022   -3.4534954    1.4295801   353187 
 4068000   0.76588651   -3.4518644    -2.023703  0.029975472   -3.4518644    1.4281614   353185 
 4069000   0.76564965   -3.4505484    -2.022768  0.029767999   -3.4505484    1.4277804   353170 
 4070000   0.76488467   -3.4496456   -2.0231705  0.030214555   -3.4496456     1.426475   353140 
 4071000   0.76492704    -3.448888   -2.0221037  0.029794687    -3.448888    1.4267843   353083 
 4072000   0.76648129   -3.4522987   -2.0223034  0.028733023   -3.4522987    1.4299953   353006 
 4073000   0.76681744    -3.453799    -2.022909  0.029908681    -3.453799    1.4308899   352940 
 4074000   0.76681443   -3.4540331   -2.0229461  0.038604873   -3.4540331    1.4310871   352890 
 4075000   0.76647963   -3.4528373   -2.0222859  0.034733561   -3.4528373    1.4305514   352868 
 4076000   0.76731637   -3.4543531   -2.0221954  0.030023345   -3.4543531    1.4321578   352857 
 4077000   0.76569612   -3.4515681   -2.0221752  0.026746201   -3.4515681    1.4293929   352793 
 4078000   0.76680095   -3.4543312   -2.0228271  0.032557353   -3.4543312    1.4315041   352781 
 4079000   0.76435838   -3.4509712   -2.0238329  0.031047051   -3.4509712    1.4271383   352733 
 4080000   0.76407882   -3.4503574   -2.0235751  0.030009805   -3.4503574    1.4267822   352692 
 4081000   0.76387895   -3.4499041   -2.0232969  0.030474717   -3.4499041    1.4266072   352643 
 4082000   0.76482929   -3.4519709   -2.0231959  0.031657643   -3.4519709     1.428775   352546 
 4083000   0.76423029   -3.4512199   -2.0232722  0.031177695   -3.4512199    1.4279477   352474 
 4084000     0.765285   -3.4529714   -2.0228542  0.026424474   -3.4529714    1.4301172   352425 
 4085000   0.76484004   -3.4517153   -2.0222146  0.034418389   -3.4517153    1.4295007   352372 
 4086000   0.76509177   -3.4542466   -2.0239183  0.034500955   -3.4542466    1.4303283   352284 
 4087000   0.76454333   -3.4545686   -2.0250018   0.03435234   -3.4545686    1.4295668   352219 
 4088000   0.76327654   -3.4529614   -2.0257146   0.02935825   -3.4529614    1.4272467   352207 
 4089000   0.76342772   -3.4530153   -2.0252427  0.033279905   -3.4530153    1.4277727   352147 
 4090000   0.76317265   -3.4516947   -2.0242207  0.034245979   -3.4516947     1.427474   352103 
 4091000   0.76341539   -3.4534732   -2.0251598  0.032501956   -3.4534732    1.4283134   352008 
 4092000   0.76401005    -3.454344   -2.0248002  0.034147562    -3.454344    1.4295438   351979 
 4093000   0.76431046   -3.4536734   -2.0234822  0.039714852   -3.4536734    1.4301912   351958 
 4094000   0.76506709   -3.4569757   -2.0252914  0.030845049   -3.4569757    1.4316843   351939 
 4095000   0.76419794   -3.4544313   -2.0242963  0.033943137   -3.4544313     1.430135   351920 
 4096000   0.76318416   -3.4531649   -2.0247201    0.0268339   -3.4531649    1.4284448   351869 
 4097000   0.76284128   -3.4547523   -2.0266854  0.026757276   -3.4547523    1.4280669   351804 
 4098000   0.76149632   -3.4517243   -2.0260699  0.026004509   -3.4517243    1.4256544   351778 
 4099000   0.76228983   -3.4537567   -2.0266046  0.029607856   -3.4537567    1.4271522   351775 
 4100000   0.76305602   -3.4548703   -2.0260927  0.034684938   -3.4548703    1.4287775   351728 
 4101000   0.76253164   -3.4529291   -2.0250197   0.02952519   -3.4529291    1.4279093   351700 
 4102000   0.76238458   -3.4529414   -2.0251532  0.032723432   -3.4529414    1.4277882   351662 
 4103000   0.76228791   -3.4535612   -2.0257997  0.030067714   -3.4535612    1.4277615   351624 
 4104000   0.76175855   -3.4530838   -2.0263341  0.035685409   -3.4530838    1.4267497   351629 
 4105000   0.76262991   -3.4549156   -2.0264405  0.032020277   -3.4549156    1.4284751   351606 
 4106000   0.76146982   -3.4536427   -2.0271174  0.027730513   -3.4536427    1.4265253   351551 
 4107000   0.76066795   -3.4527844   -2.0275221  0.032160835   -3.4527844    1.4252623   351492 
 4108000   0.76009105    -3.454325   -2.0299693  0.029491054    -3.454325    1.4243556   351449 
 4109000   0.76028073   -3.4523309   -2.0275306  0.031423179   -3.4523309    1.4248003   351427 
 4110000   0.75951371   -3.4521526   -2.0284252  0.031623266   -3.4521526    1.4237275   351337 
 4111000   0.76159207    -3.457457    -2.029541  0.029442961    -3.457457     1.427916   351265 
 4112000   0.76090795    -3.455359   -2.0284982  0.034149035    -3.455359    1.4268608   351209 
 4113000   0.76214511   -3.4570955   -2.0277479  0.036517832   -3.4570955    1.4293476   351168 
 4114000   0.76294578   -3.4587078   -2.0276956  0.029687943   -3.4587078    1.4310122   351128 
 4115000   0.76259648   -3.4593501   -2.0287526  0.029631777   -3.4593501    1.4305975   351069 
 4116000   0.76209428   -3.4576306    -2.027796  0.036255834   -3.4576306    1.4298345   351025 
 4117000   0.75987654   -3.4554861   -2.0294428  0.030029689   -3.4554861    1.4260433   350934 
 4118000   0.76055723   -3.4558919   -2.0284207  0.030552664   -3.4558919    1.4274713   350897 
 4119000   0.76184493   -3.4580676   -2.0280613  0.033501602   -3.4580676    1.4300063   350868 
 4120000    0.7611357   -3.4596674   -2.0307928  0.030107808   -3.4596674    1.4288746   350819 
 4121000    0.7604083   -3.4592262   -2.0312654  0.032188911   -3.4592262    1.4279609   350708 
 4122000   0.76024524   -3.4609969   -2.0332038  0.031367424   -3.4609969    1.4277931   350674 
 4123000   0.76055495   -3.4615475   -2.0330628  0.030203914   -3.4615475    1.4284847   350647 
 4124000   0.76023247   -3.4591729   -2.0311799  0.029914866   -3.4591729    1.4279931   350619 
 4125000   0.76057084   -3.4589823   -2.0302111  0.031782173   -3.4589823    1.4287713   350584 
 4126000   0.75988348   -3.4570514   -2.0293637  0.031069265   -3.4570514    1.4276877   350533 
 4127000   0.75912711   -3.4572033   -2.0307902  0.027834609   -3.4572033    1.4264131   350497 
 4128000   0.75900725   -3.4576494   -2.0312051  0.026231317   -3.4576494    1.4264443   350434 
 4129000   0.75976791   -3.4584584   -2.0307312  0.026510011   -3.4584584    1.4277272   350470 
 4130000   0.75879392   -3.4578293   -2.0317493  0.032185381   -3.4578293      1.42608   350425 
 4131000   0.75812652   -3.4568608   -2.0317911  0.036644009   -3.4568608    1.4250697   350365 
 4132000   0.75909701   -3.4590126   -2.0318742  0.032154359   -3.4590126    1.4271384   350305 
 4133000   0.76104145    -3.462497   -2.0315478  0.028336368    -3.462497    1.4309492   350267 
 4134000   0.75934961   -3.4587735    -2.030826  0.029045568   -3.4587735    1.4279475   350223 
 4135000   0.75941343   -3.4584826   -2.0303009  0.031800121   -3.4584826    1.4281817   350195 
 4136000   0.75844095   -3.4567875   -2.0303084  0.033252811   -3.4567875    1.4264791   350164 
 4137000   0.75955265   -3.4590443   -2.0303519  0.037309018   -3.4590443    1.4286924   350134 
 4138000   0.75904998   -3.4586883   -2.0306681  0.033329691   -3.4586883    1.4280201   350067 
 4139000   0.75686927   -3.4571342   -2.0329075  0.031436626   -3.4571342    1.4242267   349991 
 4140000   0.75745111   -3.4587398   -2.0332145  0.029657755   -3.4587398    1.4255252   349941 
 4141000   0.75906077   -3.4599451    -2.031317  0.032409089   -3.4599451    1.4286281   349923 
 4142000   0.75950224   -3.4586443   -2.0293324  0.033838481   -3.4586443    1.4293119   349959 
 4143000   0.75770936   -3.4561483   -2.0297987  0.032249629   -3.4561483    1.4263496   349858 
 4144000   0.76015493   -3.4614857    -2.030557  0.026509887   -3.4614857    1.4309287   349864 
 4145000   0.75927652   -3.4596537   -2.0304194  0.033774051   -3.4596537    1.4292343   349874 
 4146000   0.76015572   -3.4606643   -2.0295705  0.031519162   -3.4606643    1.4310938   349824 
 4147000   0.76022317   -3.4582946   -2.0273602  0.035150215   -3.4582946    1.4309344   349894 
 4148000   0.75954559   -3.4576803   -2.0280376  0.033755646   -3.4576803    1.4296427   349898 
 4149000   0.75802091   -3.4573289   -2.0302828   0.02848971   -3.4573289    1.4270462   349831 
 4150000    0.7578238   -3.4567974   -2.0299305  0.034456975   -3.4567974    1.4268668   349784 
 4151000   0.75814707   -3.4591387   -2.0313285  0.034298736   -3.4591387    1.4278102   349702 
 4152000   0.75851567   -3.4601252   -2.0313267  0.037327486   -3.4601252    1.4287985   349630 
 4153000   0.75818013   -3.4612521   -2.0329426  0.029484887   -3.4612521    1.4283095   349595 
 4154000   0.75925798    -3.459906   -2.0294841  0.030206932    -3.459906    1.4304218   349575 
 4155000   0.75793369   -3.4573481   -2.0293477   0.03613702   -3.4573481    1.4280004   349557 
 4156000   0.75894157   -3.4587595   -2.0286105  0.034690114   -3.4587595    1.4301489   349496 
 4157000   0.75780165   -3.4585938   -2.0303927  0.032006238   -3.4585938    1.4282011   349447 
 4158000   0.75824062   -3.4603688    -2.031054  0.030508022   -3.4603688    1.4293147   349377 
 4159000    0.7583213   -3.4607407   -2.0308401  0.035985684   -3.4607407    1.4299006   349271 
 4160000   0.75773048   -3.4617377   -2.0328898  0.031466926   -3.4617377    1.4288479   349256 
 4161000   0.75746181   -3.4588629   -2.0303785  0.034372585   -3.4588629    1.4284845   349221 
 4162000   0.75706957   -3.4584804   -2.0305026  0.033984452   -3.4584804    1.4279778   349164 
 4163000   0.75557982   -3.4553794   -2.0301054  0.033471281   -3.4553794     1.425274   349138 
 4164000   0.75646214   -3.4579753   -2.0308081  0.030039937   -3.4579753    1.4271673   349082 
 4165000   0.75481096   -3.4537855   -2.0294887  0.034107476   -3.4537855    1.4242969   349022 
 4166000   0.75616445   -3.4563893   -2.0292399  0.037299084   -3.4563893    1.4271494   348949 
 4167000    0.7567825   -3.4589908    -2.030462   0.03388801   -3.4589908    1.4285287   348897 
 4168000   0.75618935   -3.4600525   -2.0322792  0.033644554   -3.4600525    1.4277733   348808 
 4169000   0.75549385   -3.4563788   -2.0299759  0.031901205   -3.4563788    1.4264028   348822 
 4170000    0.7553124   -3.4565428   -2.0304049  0.025798871   -3.4565428     1.426138   348803 
 4171000   0.75541128   -3.4553923   -2.0289818   0.02834432   -3.4553923    1.4264105   348782 
 4172000   0.75557304   -3.4562507   -2.0292197   0.03095273   -3.4562507     1.427031   348705 
 4173000   0.75687064   -3.4599978   -2.0303766  0.026733662   -3.4599978    1.4296211   348671 
 4174000    0.7570419   -3.4581461   -2.0280579  0.034171804   -3.4581461    1.4300882   348636 
 4175000   0.75621767   -3.4568722   -2.0280664  0.033485488   -3.4568722    1.4288058   348569 
 4176000   0.75572687   -3.4558218   -2.0277876  0.033738997   -3.4558218    1.4280341   348531 
 4177000   0.75615637   -3.4553786   -2.0263812  0.032881424   -3.4553786    1.4289974   348494 
 4178000   0.75490989      -3.4539    -2.026988  0.034128204      -3.4539     1.426912   348428 
 4179000   0.75475109   -3.4553752   -2.0287347  0.028918017   -3.4553752    1.4266405   348421 
 4180000   0.75367687   -3.4539172   -2.0291314  0.029662232   -3.4539172    1.4247859   348378 
 4181000   0.75452137   -3.4546826   -2.0280136  0.033441891   -3.4546826     1.426669   348308 
 4182000   0.75355475   -3.4534892    -2.028427  0.032967983   -3.4534892    1.4250622   348254 
 4183000   0.75536457   -3.4545923   -2.0260008  0.032411888   -3.4545923    1.4285915   348228 
 4184000   0.75616401   -3.4565836   -2.0263324  0.036956878   -3.4565836    1.4302513   348192 
 4185000   0.75550555   -3.4561433   -2.0268788   0.03540058   -3.4561433    1.4292644   348129 
 4186000   0.75506739   -3.4551565   -2.0264625  0.037235111   -3.4551565    1.4286941   348066 
 4187000   0.75629837   -3.4571173   -2.0259131  0.029259999   -3.4571173    1.4312042   348022 
 4188000   0.75516355   -3.4562232   -2.0270187  0.031179636   -3.4562232    1.4292045   347986 
 4189000   0.75236446   -3.4528685   -2.0287978  0.035904766   -3.4528685    1.4240707   347946 
 4190000   0.75418425   -3.4540125   -2.0263455     0.031062   -3.4540125     1.427667   347909 
 4191000   0.75346936   -3.4553998   -2.0287498  0.033557697   -3.4553998      1.42665   347827 
 4192000   0.75305904    -3.454971   -2.0288807  0.031730205    -3.454971    1.4260904   347774 
 4193000   0.75398053   -3.4550273   -2.0270605  0.032248878   -3.4550273    1.4279668   347742 
 4194000   0.75258018   -3.4531785   -2.0276548  0.032346361   -3.4531785    1.4255238   347691 
 4195000   0.75380975   -3.4552758   -2.0271437  0.031985441   -3.4552758    1.4281321   347623 
 4196000   0.75362742   -3.4552316   -2.0273012  0.030688066   -3.4552316    1.4279304   347588 
 4197000   0.75196838    -3.454839   -2.0298429  0.024446097    -3.454839    1.4249961   347537 
 4198000   0.75094176     -3.45182   -2.0286916  0.028923439     -3.45182    1.4231284   347518 
 4199000   0.75172876    -3.452713   -2.0279579  0.030595889    -3.452713    1.4247551   347485 
 4200000   0.75206078   -3.4541792   -2.0287127  0.028727599   -3.4541792    1.4254665   347465 
 4201000    0.7524582   -3.4526531    -2.026187  0.031195799   -3.4526531    1.4264661   347405 
 4202000   0.75363457   -3.4539456   -2.0251878  0.031987265   -3.4539456    1.4287579   347390 
 4203000   0.75438097   -3.4558097   -2.0254268  0.029297981   -3.4558097    1.4303829   347339 
 4204000   0.75408996   -3.4557769   -2.0257647  0.033090426   -3.4557769    1.4300123   347295 
 4205000   0.75439885   -3.4568996    -2.025972  0.030868533   -3.4568996    1.4309276   347215 
 4206000   0.75323756   -3.4553255   -2.0262754   0.03427079   -3.4553255    1.4290501   347136 
 4207000   0.75397956   -3.4575095   -2.0269816  0.034115357   -3.4575095    1.4305279   347119 
 4208000   0.75415426   -3.4572724   -2.0264708  0.030987482   -3.4572724    1.4308016   347133 
 4209000   0.75223799   -3.4545165     -2.02733  0.032739979   -3.4545165    1.4271866   347128 
 4210000   0.75238946   -3.4540828   -2.0265266  0.029455734   -3.4540828    1.4275562   347108 
 4211000   0.75184298   -3.4520828   -2.0251195  0.032119463   -3.4520828    1.4269633   347000 
 4212000     0.752496   -3.4536257   -2.0250277  0.030120213   -3.4536257     1.428598   346904 
 4213000   0.75186507   -3.4531476   -2.0255458  0.032619192   -3.4531476    1.4276018   346855 
 4214000   0.75337314   -3.4543222   -2.0239023  0.033286581   -3.4543222    1.4304199   346866 
 4215000   0.75271584   -3.4544613    -2.024902  0.031779806   -3.4544613    1.4295593   346772 
 4216000   0.75359212   -3.4565084    -2.025029  0.034526483   -3.4565084    1.4314794   346710 
 4217000   0.75163251   -3.4526794    -2.024704  0.032695452   -3.4526794    1.4279754   346657 
 4218000   0.75035172   -3.4513943   -2.0259509   0.03212813   -3.4513943    1.4254434   346681 
 4219000    0.7529565   -3.4555599   -2.0248546  0.030462332   -3.4555599    1.4307053   346605 
 4220000   0.75135044   -3.4524455   -2.0246147  0.030657476   -3.4524455    1.4278308   346562 
 4221000   0.75155998   -3.4545649   -2.0261175  0.028381107   -3.4545649    1.4284474   346509 
 4222000   0.75034845   -3.4517863   -2.0254481  0.033165913   -3.4517863    1.4263382   346462 
 4223000   0.75077528    -3.451887   -2.0247251  0.030626995    -3.451887    1.4271619   346459 
 4224000   0.75108017   -3.4530239   -2.0250062  0.028936224   -3.4530239    1.4280176   346392 
 4225000    0.7498167   -3.4507644   -2.0248649  0.031570557   -3.4507644    1.4258995   346323 
 4226000   0.75046433   -3.4516024   -2.0241911  0.026991144   -3.4516024    1.4274113   346255 
 4227000   0.75049819   -3.4529732   -2.0252955  0.033981952   -3.4529732    1.4276778   346206 
 4228000   0.75070577    -3.454215   -2.0259938  0.033293592    -3.454215    1.4282211   346170 
 4229000   0.75105398   -3.4545346   -2.0254817  0.031296922   -3.4545346    1.4290529   346129 
 4230000   0.74948711   -3.4529689   -2.0265512  0.031478611   -3.4529689    1.4264177   346045 
 4231000   0.74942695    -3.452269   -2.0257473  0.032459372    -3.452269    1.4265217   345992 
 4232000   0.74904651   -3.4535817   -2.0275204    0.0311274   -3.4535817    1.4260613   345928 
 4233000   0.75012017   -3.4537207   -2.0256195  0.033454024   -3.4537207    1.4281013   345929 
 4234000   0.74878298   -3.4520151   -2.0262865  0.029704768   -3.4520151    1.4257286   345887 
 4235000   0.74959591    -3.452992   -2.0256289  0.029292658    -3.452992    1.4273631   345866 
 4236000   0.74862561   -3.4510004   -2.0250726  0.030796039   -3.4510004    1.4259278   345766 
 4237000   0.74864401   -3.4521729   -2.0259956  0.029966177   -3.4521729    1.4261773   345714 
 4238000    0.7472439   -3.4521601   -2.0284606  0.027701178   -3.4521601    1.4236995   345668 
 4239000   0.74744961   -3.4503538    -2.026217  0.028687711   -3.4503538    1.4241367   345657 
 4240000   0.74690269   -3.4484878   -2.0252366  0.028304396   -3.4484878    1.4232512   345619 
 4241000   0.74690543        -3.45   -2.0262493  0.029759264        -3.45    1.4237507   345499 
 4242000   0.74756633   -3.4511213   -2.0257931  0.033069085   -3.4511213    1.4253282   345422 
 4243000    0.7487093   -3.4515472   -2.0240109  0.031207243   -3.4515472    1.4275363   345415 
 4244000   0.74960302   -3.4509189   -2.0216455  0.034488637   -3.4509189    1.4292734   345407 
 4245000   0.75112909   -3.4524784   -2.0204403  0.030937413   -3.4524784    1.4320381   345442 
 4246000   0.74925942   -3.4512684   -2.0225674  0.032499413   -3.4512684     1.428701   345387 
 4247000   0.74954158   -3.4507359   -2.0213396  0.033240553   -3.4507359    1.4293963   345349 
 4248000   0.75019095   -3.4531241   -2.0223029  0.037117922   -3.4531241    1.4308211   345304 
 4249000   0.74983727   -3.4514552   -2.0212134  0.028712765   -3.4514552    1.4302418   345281 
 4250000   0.74697062   -3.4495241   -2.0245933  0.029359663   -3.4495241    1.4249308   345243 
 4251000   0.74661496   -3.4477706    -2.023444   0.02881035   -3.4477706    1.4243266   345225 
 4252000   0.74708981   -3.4505122   -2.0251229   0.03112092   -3.4505122    1.4253894   345187 
 4253000   0.74784531   -3.4523147   -2.0251283  0.027786134   -3.4523147    1.4271864   345101 
 4254000   0.74750288   -3.4520218    -2.025216  0.028121202   -3.4520218    1.4268058   345035 
 4255000   0.74803595   -3.4514545   -2.0233581  0.030698751   -3.4514545    1.4280964   344969 
 4256000   0.74807528   -3.4511309   -2.0228393  0.027136279   -3.4511309    1.4282916   344940 
 4257000    0.7472698   -3.4513721   -2.0245729  0.033347822   -3.4513721    1.4267992   344929 
 4258000   0.74742944   -3.4521882   -2.0249063  0.029566614   -3.4521882    1.4272819   344886 
 4259000   0.74763485    -3.451212     -2.02372  0.031724018    -3.451212    1.4274921   344930 
 4260000   0.74747988   -3.4504028   -2.0229624  0.032899557   -3.4504028    1.4274403   344871 
 4261000   0.74778782   -3.4489264   -2.0206992  0.038673255   -3.4489264    1.4282272   344823 
 4262000   0.74867712   -3.4509008   -2.0207429  0.029210266   -3.4509008     1.430158   344767 
 4263000   0.74828279   -3.4501775   -2.0205281  0.032523649   -3.4501775    1.4296493   344708 
 4264000   0.74814863    -3.451404   -2.0219156  0.029150538    -3.451404    1.4294884   344685 
 4265000   0.74776113   -3.4498515   -2.0209377  0.030969516   -3.4498515    1.4289138   344645 
 4266000   0.74837424   -3.4505549   -2.0204736  0.029031783   -3.4505549    1.4300813   344646 
 4267000   0.74682538   -3.4485814   -2.0213688  0.028699653   -3.4485814    1.4272126   344624 
 4268000   0.74685705   -3.4507465   -2.0231502  0.030586188   -3.4507465    1.4275963   344546 
 4269000    0.7475528   -3.4501693   -2.0210399  0.029348915   -3.4501693    1.4291294   344497 
 4270000   0.74749357   -3.4489712   -2.0196231  0.027979682   -3.4489712    1.4293481   344417 
 4271000   0.74719867   -3.4490711   -2.0202537  0.030244347   -3.4490711    1.4288174   344409 
 4272000   0.74832189   -3.4497328   -2.0187676  0.031055814   -3.4497328    1.4309653   344409 
 4273000   0.74686759   -3.4477918   -2.0195038   0.03097812   -3.4477918     1.428288   344384 
 4274000   0.74662325   -3.4476499   -2.0195223   0.03009818   -3.4476499    1.4281276   344310 
 4275000    0.7473338   -3.4500873   -2.0202352  0.025868597   -3.4500873    1.4298521   344222 
 4276000   0.74598069   -3.4478332    -2.020516   0.02912045   -3.4478332    1.4273172   344209 
 4277000   0.74675185   -3.4489345   -2.0200754   0.02859847   -3.4489345    1.4288591   344193 
 4278000   0.74456122   -3.4444106   -2.0193871  0.030495653   -3.4444106    1.4250235   344107 
 4279000   0.74455328   -3.4444453   -2.0193003  0.030763559   -3.4444453     1.425145   344074 
 4280000   0.74541079   -3.4458188   -2.0190282  0.031059039   -3.4458188    1.4267905   344073 
 4281000   0.74613442   -3.4470219   -2.0187176  0.031586648   -3.4470219    1.4283043   344042 
 4282000   0.74477103    -3.444657   -2.0185978  0.031628518    -3.444657    1.4260592   343954 
 4283000   0.74494753   -3.4445711   -2.0179583  0.029090021   -3.4445711    1.4266128   343902 
 4284000   0.74486952   -3.4439021    -2.017335  0.025234187   -3.4439021    1.4265671   343877 
 4285000   0.74452368   -3.4451678   -2.0189603  0.026726537   -3.4451678    1.4262075   343804 
 4286000   0.74471533   -3.4456053   -2.0187983  0.030612222   -3.4456053     1.426807   343748 
 4287000   0.74457034   -3.4450972   -2.0184434  0.033705579   -3.4450972    1.4266538   343718 
 4288000   0.74576903    -3.448137   -2.0190409  0.033422344    -3.448137    1.4290961   343683 
 4289000   0.74495102   -3.4470257   -2.0192271   0.03454832   -3.4470257    1.4277986   343618 
 4290000   0.74405469   -3.4455433   -2.0191596  0.036677886   -3.4455433    1.4263837   343545 
 4291000   0.74430649   -3.4440212   -2.0169595   0.03271669   -3.4440212    1.4270616   343498 
 4292000   0.74457466   -3.4459051   -2.0184415  0.031976563   -3.4459051    1.4274636   343525 
 4293000   0.74449422   -3.4461678   -2.0188003  0.032647844   -3.4461678    1.4273675   343511 
 4294000   0.74522586   -3.4473706   -2.0184922  0.032786082   -3.4473706    1.4288784   343485 
 4295000   0.74475478   -3.4456064   -2.0177102  0.033226098   -3.4456064    1.4278962   343504 
 4296000    0.7442284   -3.4456672   -2.0186057  0.030931975   -3.4456672    1.4270615   343462 
 4297000   0.74471679   -3.4452936   -2.0170378  0.034775471   -3.4452936    1.4282558   343400 
 4298000   0.74379836   -3.4441558   -2.0174745  0.026387957   -3.4441558    1.4266813   343355 
 4299000   0.74295378    -3.442297   -2.0170613  0.035370394    -3.442297    1.4252357   343313 
 4300000   0.74304008   -3.4430547   -2.0174541  0.032426852   -3.4430547    1.4256005   343265 
 4301000     0.741619   -3.4429078   -2.0196813  0.029974786   -3.4429078    1.4232265   343180 
 4302000   0.74121461   -3.4401985   -2.0178103  0.031281052   -3.4401985    1.4223882   343195 
 4303000   0.74034095   -3.4377504   -2.0167779  0.034087558   -3.4377504    1.4209725   343132 
 4304000   0.74256732   -3.4422058    -2.016769   0.02942149   -3.4422058    1.4254368   343086 
 4305000    0.7417766   -3.4417979    -2.017771  0.026900732   -3.4417979    1.4240268   343060 
 4306000   0.74202907   -3.4421651   -2.0174334  0.029849928   -3.4421651    1.4247316   343007 
 4307000   0.74257643   -3.4431031   -2.0170336  0.028052617   -3.4431031    1.4260695   342938 
 4308000   0.74101895   -3.4401948   -2.0168839  0.027658218   -3.4401948    1.4233109   342882 
 4309000   0.74226853   -3.4418595   -2.0159697  0.027676351   -3.4418595    1.4258898   342839 
 4310000   0.74107369   -3.4392633    -2.015457  0.029586359   -3.4392633    1.4238063   342788 
 4311000   0.74149774   -3.4414343   -2.0165929   0.03236377   -3.4414343    1.4248413   342735 
 4312000   0.74110662   -3.4415697   -2.0172056  0.031150759   -3.4415697    1.4243641   342669 
 4313000   0.74230474   -3.4430082   -2.0162248  0.030726953   -3.4430082    1.4267834   342641 
 4314000   0.74297894   -3.4437724   -2.0154347   0.03519858   -3.4437724    1.4283377   342579 
 4315000   0.74352074   -3.4446959   -2.0150787  0.033182804   -3.4446959    1.4296171   342522 
 4316000   0.74187748   -3.4418834   -2.0152051  0.025144201   -3.4418834    1.4266783   342469 
 4317000   0.74129582   -3.4420441   -2.0162304  0.025159367   -3.4420441    1.4258137   342408 
 4318000   0.74119565   -3.4424166   -2.0168039  0.027570258   -3.4424166    1.4256127   342410 
 4319000   0.74117134   -3.4413248   -2.0155132  0.032079981   -3.4413248    1.4258116   342351 
 4320000   0.74165441   -3.4448008   -2.0177806  0.033124344   -3.4448008    1.4270202   342284 
 4321000   0.74038978   -3.4432655   -2.0185954  0.027434778   -3.4432655    1.4246701   342264 
 4322000   0.74118242   -3.4443566   -2.0180071    0.0262119   -3.4443566    1.4263496   342227 
 4323000   0.74105269   -3.4439092   -2.0177217  0.030387889   -3.4439092    1.4261874   342206 
 4324000   0.74108173   -3.4439552   -2.0174868  0.024293401   -3.4439552    1.4264684   342152 
 4325000   0.74054954   -3.4439477   -2.0181578  0.032537271   -3.4439477    1.4257899   342069 
 4326000   0.74173966   -3.4459085   -2.0176227  0.032335663   -3.4459085    1.4282858   342020 
 4327000   0.74156574   -3.4459487   -2.0178307  0.033486076   -3.4459487     1.428118   341980 
 4328000    0.7425765   -3.4464245   -2.0162973  0.032637155   -3.4464245    1.4301272   341965 
 4329000   0.74079104   -3.4451677   -2.0184416  0.031801065   -3.4451677    1.4267262   341956 
 4330000   0.74159359   -3.4460082   -2.0174607  0.034133917   -3.4460082    1.4285476   341890 
 4331000   0.74054746   -3.4442769   -2.0176778  0.029416478   -3.4442769    1.4265991   341874 
 4332000   0.73973662   -3.4430518    -2.017948  0.024441022   -3.4430518    1.4251038   341858 
 4333000   0.74064929   -3.4450001   -2.0178667  0.028185685   -3.4450001    1.4271334   341793 
 4334000   0.74177728   -3.4467689   -2.0171441  0.029510724   -3.4467689    1.4296248   341717 
 4335000   0.74201659   -3.4470235   -2.0170672  0.029472179   -3.4470235    1.4299563   341748 
 4336000   0.74095984   -3.4438738   -2.0158579  0.031494404   -3.4438738    1.4280159   341725 
 4337000   0.74043744   -3.4436811   -2.0166887  0.026877928   -3.4436811    1.4269924   341729 
 4338000   0.74056923   -3.4422473   -2.0147962  0.028289341   -3.4422473    1.4274511   341680 
 4339000   0.73986572   -3.4396645     -2.01339  0.033019769   -3.4396645    1.4262746   341637 
 4340000   0.74082155   -3.4444903   -2.0160428  0.030168684   -3.4444903    1.4284475   341558 
 4341000   0.73972705   -3.4419449   -2.0154157  0.030013985   -3.4419449    1.4265292   341512 
 4342000   0.74064739   -3.4436024   -2.0150306   0.03112566   -3.4436024    1.4285717   341448 
 4343000   0.73952955   -3.4416266   -2.0147471  0.030787557   -3.4416266    1.4268795   341337 
 4344000   0.74105321   -3.4426169   -2.0129317  0.032829844   -3.4426169    1.4296853   341369 
 4345000    0.7398208   -3.4410901   -2.0138326  0.030120673   -3.4410901    1.4272575   341381 
 4346000   0.73925978   -3.4377564   -2.0115395  0.030370767   -3.4377564    1.4262169   341371 
 4347000   0.74071294   -3.4415614   -2.0122814    0.0331918   -3.4415614      1.42928   341309 
 4348000   0.74004989   -3.4423778   -2.0141303  0.033209375   -3.4423778    1.4282475   341250 
 4349000   0.74120189   -3.4438306   -2.0131543  0.030208858   -3.4438306    1.4306762   341201 
 4350000    0.7415094   -3.4434439   -2.0120818  0.032619341   -3.4434439    1.4313621   341179 
 4351000   0.73972503   -3.4424091   -2.0142235  0.027793036   -3.4424091    1.4281855   341115 
 4352000   0.73821865   -3.4400449   -2.0144166  0.031983861   -3.4400449    1.4256282   341031 
 4353000   0.73741958   -3.4396696   -2.0154425  0.026423725   -3.4396696    1.4242271   340997 
 4354000    0.7376733   -3.4379017   -2.0131428  0.029511388   -3.4379017    1.4247589   340987 
 4355000   0.73857287   -3.4413673   -2.0147831   0.02953807   -3.4413673    1.4265842   340966 
 4356000   0.73822101   -3.4419469   -2.0156282  0.030060525   -3.4419469    1.4263187   340867 
 4357000   0.73829626   -3.4435281   -2.0166664  0.032509358   -3.4435281    1.4268618   340772 
 4358000   0.73938549   -3.4459208   -2.0166855  0.031304493   -3.4459208    1.4292353   340708 
 4359000   0.73955151   -3.4425057   -2.0128279  0.032894041   -3.4425057    1.4296779   340679 
 4360000   0.73830732   -3.4430191   -2.0153231  0.032511708   -3.4430191    1.4276959   340578 
 4361000   0.73932467    -3.444232   -2.0145647  0.031676458    -3.444232    1.4296674   340577 
 4362000   0.73817658   -3.4436528   -2.0158449  0.033939988   -3.4436528    1.4278078   340491 
 4363000    0.7373395   -3.4426715    -2.016068  0.026111472   -3.4426715    1.4266035   340392 
 4364000   0.73701267   -3.4449815   -2.0189685  0.027487338   -3.4449815    1.4260131   340382 
 4365000   0.73750188   -3.4461056   -2.0188105  0.032423447   -3.4461056    1.4272951   340302 
 4366000   0.73633267    -3.444861   -2.0194685  0.037625385    -3.444861    1.4253925   340216 
 4367000   0.73892936   -3.4491079   -2.0184785  0.034484257   -3.4491079    1.4306294   340166 
 4368000   0.73773725   -3.4477385   -2.0193625  0.028718606   -3.4477385     1.428376   340153 
 4369000   0.73602361   -3.4469339   -2.0217208  0.034717803   -3.4469339    1.4252131   340116 
 4370000   0.73484208   -3.4454114   -2.0222686  0.030393576   -3.4454114    1.4231428   340064 
 4371000   0.73579822   -3.4474473   -2.0223521  0.025505011   -3.4474473    1.4250951   340040 
 4372000   0.73592483   -3.4455036   -2.0199998  0.025173423   -3.4455036    1.4255039   340001 
 4373000   0.73668876   -3.4472889   -2.0202088  0.029879938   -3.4472889    1.4270801   339978 
 4374000   0.73675947    -3.445937   -2.0186653  0.033279483    -3.445937    1.4272717   339965 
 4375000   0.73699052   -3.4465826   -2.0188297  0.032606012   -3.4465826    1.4277529   339957 
 4376000   0.73651397   -3.4468772   -2.0198964  0.036162419   -3.4468772    1.4269808   339921 
 4377000   0.73694419   -3.4491796   -2.0211048  0.031848313   -3.4491796    1.4280748   339859 
 4378000    0.7361948   -3.4472139   -2.0204443  0.028082983   -3.4472139    1.4267695   339824 
 4379000   0.73588795    -3.447717   -2.0214456  0.031468324    -3.447717    1.4262714   339801 
 4380000   0.73793438   -3.4499794   -2.0195354  0.032862313   -3.4499794     1.430444   339752 
 4381000   0.73604248   -3.4468789   -2.0198838   0.02971831   -3.4468789    1.4269951   339700 
 4382000   0.73447304   -3.4460671   -2.0217039  0.031036438   -3.4460671    1.4243632   339602 
 4383000   0.73481971   -3.4456348   -2.0204776  0.031014994   -3.4456348    1.4251572   339573 
 4384000   0.73492141   -3.4442478   -2.0187926  0.028611445   -3.4442478    1.4254552   339549 
 4385000   0.73529252   -3.4449338   -2.0184647  0.028569271   -3.4449338    1.4264691   339479 
 4386000   0.73447394   -3.4452441    -2.020107  0.033067775   -3.4452441    1.4251371   339418 
 4387000   0.73394633   -3.4430013   -2.0186907  0.028324545   -3.4430013    1.4243106   339371 
 4388000   0.73488207   -3.4450805   -2.0187397  0.024941031   -3.4450805    1.4263409   339320 
 4389000   0.73465761   -3.4439325   -2.0177625  0.031448219   -3.4439325      1.42617   339257 
 4390000   0.73557989   -3.4465946   -2.0185079  0.030510625   -3.4465946    1.4280867   339227 
 4391000   0.73525213   -3.4450133   -2.0174788  0.033286079   -3.4450133    1.4275345   339207 
 4392000   0.73517678   -3.4448086   -2.0171047  0.025525631   -3.4448086    1.4277039   339132 
 4393000   0.73498296   -3.4438591    -2.016359  0.034653307   -3.4438591    1.4275001   339091 
 4394000   0.73526772   -3.4451887   -2.0169629  0.029929623   -3.4451887    1.4282258   339050 
 4395000    0.7351989   -3.4448187   -2.0166971  0.034255387   -3.4448187    1.4281216   339043 
 4396000   0.73460521   -3.4448179    -2.017597  0.034019553   -3.4448179     1.427221   338983 
 4397000   0.73521113   -3.4462856   -2.0176641  0.036503223   -3.4462856    1.4286215   338930 
 4398000   0.73602631   -3.4475817   -2.0172875   0.03537819   -3.4475817    1.4302942   338909 
 4399000   0.73489202   -3.4444088   -2.0163273  0.031872879   -3.4444088    1.4280815   338911 
 4400000   0.73498784   -3.4453076   -2.0169556  0.030171168   -3.4453076     1.428352   338891 
 4401000   0.73468361   -3.4436858   -2.0158071  0.026028898   -3.4436858    1.4278787   338863 
 4402000   0.73464071   -3.4424687    -2.014568  0.032588738   -3.4424687    1.4279007   338838 
 4403000   0.73391566   -3.4415607   -2.0150903  0.030319829   -3.4415607    1.4264704   338843 
 4404000   0.73422554    -3.441826   -2.0146059  0.026399137    -3.441826    1.4272201   338808 
 4405000   0.73490117   -3.4433567    -2.014566  0.030421426   -3.4433567    1.4287907   338747 
 4406000   0.73258708   -3.4398138   -2.0156904  0.031347736   -3.4398138    1.4241235   338787 
 4407000    0.7329222   -3.4399637   -2.0150668  0.024766337   -3.4399637    1.4248969   338758 
 4408000   0.73308654   -3.4419197   -2.0166402  0.028896083   -3.4419197    1.4252795   338743 
 4409000   0.73296595   -3.4417583   -2.0163851  0.030951463   -3.4417583    1.4253733   338665 
 4410000   0.73316028   -3.4423404   -2.0164713  0.029081948   -3.4423404    1.4258691   338637 
 4411000   0.73287316   -3.4405135   -2.0150723  0.029345846   -3.4405135    1.4254412   338606 
 4412000   0.73425729   -3.4415952     -2.01331  0.033065761   -3.4415952    1.4282852   338570 
 4413000   0.73302149   -3.4396269   -2.0134887  0.031484271   -3.4396269    1.4261382   338509 
 4414000    0.7337225   -3.4436919   -2.0160717  0.029721757   -3.4436919    1.4276202   338481 
 4415000   0.73314567   -3.4433481   -2.0166058  0.032451228   -3.4433481    1.4267423   338423 
 4416000   0.73375965   -3.4438253   -2.0157447  0.030131175   -3.4438253    1.4280806   338389 
 4417000   0.73361314    -3.443879   -2.0158557  0.029564573    -3.443879    1.4280234   338335 
 4418000   0.73311711   -3.4436165   -2.0163436  0.036164942   -3.4436165    1.4272729   338284 
 4419000   0.73339723   -3.4443368   -2.0161555  0.036784596   -3.4443368    1.4281814   338198 
 4420000   0.73306526   -3.4445254   -2.0167667  0.030862682   -3.4445254    1.4277587   338145 
 4421000    0.7320673    -3.443779   -2.0175887  0.033066225    -3.443779    1.4261903   338056 
 4422000   0.73307875   -3.4451416   -2.0169723  0.029818164   -3.4451416    1.4281693   338054 
 4423000   0.73241742    -3.444608   -2.0176216  0.034995655    -3.444608    1.4269864   338029 
 4424000    0.7329667    -3.444532   -2.0162472  0.032573949    -3.444532    1.4282848   337975 
 4425000   0.73300821   -3.4463347   -2.0178169  0.033620267   -3.4463347    1.4285178   337939 
 4426000   0.73256892   -3.4455112   -2.0175664  0.035273188   -3.4455112    1.4279448   337872 
 4427000   0.73236241   -3.4449982   -2.0172531  0.032847223   -3.4449982    1.4277451   337824 
 4428000    0.7329319   -3.4481038   -2.0190201  0.030823663   -3.4481038    1.4290838   337770 
 4429000   0.73312736   -3.4487516   -2.0192317  0.027824849   -3.4487516    1.4295199   337757 
 4430000   0.73232939   -3.4475017   -2.0192714  0.028755978   -3.4475017    1.4282303   337694 
 4431000   0.73050313   -3.4446069   -2.0194656  0.035285667   -3.4446069    1.4251413   337582 
 4432000   0.73120626   -3.4477035   -2.0210552  0.028277492   -3.4477035    1.4266483   337550 
 4433000   0.73110775   -3.4463654   -2.0196303  0.029950694   -3.4463654     1.426735   337484 
 4434000   0.73081018   -3.4429502   -2.0167156   0.02979042   -3.4429502    1.4262347   337465 
 4435000   0.73141714   -3.4447678   -2.0170821  0.032026407   -3.4447678    1.4276857   337402 
 4436000   0.73030637   -3.4425636   -2.0170292  0.033678043   -3.4425636    1.4255345   337398 
 4437000   0.73183104   -3.4453168   -2.0166115  0.031410626   -3.4453168    1.4287053   337352 
 4438000   0.73177737   -3.4465969   -2.0176279  0.028468769   -3.4465969    1.4289691   337265 
 4439000   0.73077241   -3.4437891   -2.0166766  0.027963003   -3.4437891    1.4271125   337240 
 4440000   0.73140745   -3.4420656   -2.0137129  0.034398318   -3.4420656    1.4283526   337240 
 4441000    0.7311506   -3.4430316   -2.0149519  0.029059796   -3.4430316    1.4280797   337186 
 4442000   0.73060881   -3.4405293   -2.0133385  0.036408001   -3.4405293    1.4271908   337146 
 4443000    0.7312477   -3.4394136   -2.0108647  0.030571906   -3.4394136     1.428549   337120 
 4444000   0.73095739   -3.4397744   -2.0115596  0.033275305   -3.4397744    1.4282148   337065 
 4445000   0.73124503   -3.4428525   -2.0138468  0.032634143   -3.4428525    1.4290058   337011 
 4446000   0.73024504   -3.4413576   -2.0140858   0.03631425   -3.4413576    1.4272718   336959 
 4447000   0.72931597   -3.4397686   -2.0141815  0.028019976   -3.4397686    1.4255871   336928 
 4448000   0.72912845   -3.4376371   -2.0123573  0.030076606   -3.4376371    1.4252798   336914 
 4449000     0.728847   -3.4383279   -2.0131669  0.026843653   -3.4383279    1.4251611   336812 
 4450000   0.72885209   -3.4381981   -2.0128494  0.028197519   -3.4381981    1.4253488   336770 
 4451000   0.72879004   -3.4391258   -2.0136021  0.030330342   -3.4391258    1.4255237   336700 
 4452000   0.73022664    -3.440727   -2.0122914  0.031699281    -3.440727    1.4284355   336676 
 4453000    0.7295382   -3.4395895   -2.0123523  0.029284377   -3.4395895    1.4272372   336641 
 4454000   0.73016656   -3.4412847   -2.0127036  0.027278347   -3.4412847    1.4285811   336614 
 4455000   0.72851034   -3.4364893   -2.0110554  0.036163239   -3.4364893    1.4254338   336592 
 4456000   0.72810968   -3.4389783   -2.0141591  0.031473273   -3.4389783    1.4248192   336552 
 4457000   0.72838734   -3.4377634   -2.0121382  0.034336064   -3.4377634    1.4256252   336490 
 4458000   0.72847461   -3.4377142   -2.0115876  0.034328922   -3.4377142    1.4261266   336412 
 4459000   0.73078931   -3.4412992   -2.0103903  0.033279724   -3.4412992     1.430909   336353 
 4460000   0.72990288   -3.4428418    -2.013388  0.033700929   -3.4428418    1.4294538   336287 
 4461000   0.73038168   -3.4410455   -2.0105519   0.03056725   -3.4410455    1.4304936   336263 
 4462000    0.7278534    -3.437756   -2.0117816  0.032883933    -3.437756    1.4259744   336161 
 4463000    0.7281192   -3.4391665   -2.0125144  0.027906191   -3.4391665    1.4266521   336124 
 4464000   0.72788179   -3.4391944   -2.0128929  0.028975808   -3.4391944    1.4263015   336097 
 4465000   0.72729696   -3.4387042   -2.0134002  0.031918149   -3.4387042     1.425304   336062 
 4466000   0.72790083   -3.4384979    -2.011828  0.027926756   -3.4384979    1.4266699   336019 
 4467000   0.72691359   -3.4382125   -2.0132316  0.028732574   -3.4382125    1.4249809   335961 
 4468000   0.72710775   -3.4400367   -2.0144291  0.027464998   -3.4400367    1.4256077   335903 
 4469000   0.72702878   -3.4370776   -2.0112045  0.029932067   -3.4370776    1.4258731   335804 
 4470000   0.72674688   -3.4354552   -2.0099269  0.027632731   -3.4354552    1.4255282   335755 
 4471000   0.72706618   -3.4375737   -2.0110282  0.029719523   -3.4375737    1.4265454   335663 
 4472000   0.72619397   -3.4365999   -2.0114219  0.030391669   -3.4365999     1.425178   335582 
 4473000    0.7264843   -3.4372428   -2.0113548  0.035925674   -3.4372428     1.425888   335549 
 4474000   0.72866705   -3.4410719   -2.0107676  0.030687007   -3.4410719    1.4303043   335518 
 4475000   0.72642982   -3.4378103   -2.0119867  0.031913404   -3.4378103    1.4258236   335539 
 4476000   0.72634601   -3.4383601   -2.0124035  0.035196498   -3.4383601    1.4259566   335469 
 4477000   0.72703615    -3.439554   -2.0121532  0.035153865    -3.439554    1.4274008   335448 
 4478000   0.72726571   -3.4388263   -2.0108045  0.029428196   -3.4388263    1.4280218   335408 
 4479000   0.72649307   -3.4378671   -2.0112093  0.028910013   -3.4378671    1.4266578   335372 
 4480000   0.72568147   -3.4381303   -2.0125179  0.029112569   -3.4381303    1.4256123   335243 
 4481000   0.72663155   -3.4388653   -2.0112119  0.029605113   -3.4388653    1.4276534   335202 
 4482000   0.72603865     -3.43941   -2.0126235  0.033016457     -3.43941    1.4267864   335132 
 4483000   0.72689792   -3.4408676   -2.0123883  0.026977071   -3.4408676    1.4284793   335131 
 4484000   0.72565403   -3.4383259     -2.01204  0.034545924   -3.4383259     1.426286   335072 
 4485000    0.7252231   -3.4393279   -2.0135485  0.029529482   -3.4393279    1.4257794   334992 
 4486000   0.72592893   -3.4377789   -2.0104841  0.033753703   -3.4377789    1.4272948   334962 
 4487000   0.72599924    -3.438268   -2.0106857  0.032328616    -3.438268    1.4275822   334927 
 4488000   0.72614468   -3.4368009   -2.0089411  0.029661739   -3.4368009    1.4278597   334929 
 4489000   0.72679307   -3.4393635   -2.0101349  0.035076566   -3.4393635    1.4292286   334907 
 4490000   0.72559559   -3.4381782    -2.011036   0.03060786   -3.4381782    1.4271422   334844 
 4491000   0.72511035   -3.4363598   -2.0099846  0.030676803   -3.4363598    1.4263752   334800 
 4492000   0.72476055   -3.4368017   -2.0107099  0.028456464   -3.4368017    1.4260918   334705 
 4493000   0.72330271   -3.4345546   -2.0109656  0.032126232   -3.4345546     1.423589   334619 
 4494000    0.7242492   -3.4384171   -2.0126371  0.033449602   -3.4384171      1.42578   334542 
 4495000   0.72453495   -3.4390168   -2.0125122  0.029687596   -3.4390168    1.4265045   334504 
 4496000   0.72507388   -3.4380644   -2.0103921  0.030302615   -3.4380644    1.4276723   334479 
 4497000   0.72349381   -3.4355692   -2.0109059  0.031682099   -3.4355692    1.4246634   334455 
 4498000   0.72393466   -3.4361916   -2.0104726  0.030341181   -3.4361916     1.425719   334411 
 4499000   0.72397671   -3.4369589     -2.01085  0.028570715   -3.4369589    1.4261089   334339 
 4500000   0.72404116   -3.4375281   -2.0111387  0.029413649   -3.4375281    1.4263894   334303 
 4501000   0.72367146   -3.4369278   -2.0111942  0.025851657   -3.4369278    1.4257336   334286 
 4502000    0.7243563   -3.4367852    -2.009459  0.031967899   -3.4367852    1.4273262   334229 
 4503000   0.72369337   -3.4355657   -2.0094604  0.028485987   -3.4355657    1.4261053   334209 
 4504000   0.72365662   -3.4353158   -2.0091464  0.031522151   -3.4353158    1.4261694   334177 
 4505000   0.72427544   -3.4363183   -2.0087243  0.028913594   -3.4363183     1.427594   334129 
 4506000   0.72470655   -3.4386093   -2.0098534  0.029342269   -3.4386093    1.4287559   334056 
 4507000   0.72321671   -3.4345888   -2.0087061   0.03276481   -3.4345888    1.4258827   334041 
 4508000   0.72315253   -3.4336111   -2.0077524  0.036524341   -3.4336111    1.4258586   334017 
 4509000   0.72452958   -3.4360893   -2.0072289  0.026961307   -3.4360893    1.4288604   333950 
 4510000   0.72339597   -3.4351487   -2.0081777  0.033347587   -3.4351487    1.4269709   333869 
 4511000   0.72446461   -3.4363158   -2.0071599   0.03255728   -3.4363158     1.429156   333851 
 4512000   0.72565726    -3.437011    -2.005335  0.036249435    -3.437011    1.4316759   333812 
 4513000   0.72404429   -3.4357097   -2.0070448  0.033431076   -3.4357097    1.4286649   333772 
 4514000   0.72407501   -3.4371777   -2.0082596  0.030715574   -3.4371777    1.4289181   333727 
 4515000   0.72158419   -3.4333434   -2.0090505  0.027979716   -3.4333434    1.4242929   333659 
 4516000   0.72374022    -3.435454   -2.0068798  0.030390812    -3.435454    1.4285742   333653 
 4517000   0.72355773   -3.4369314   -2.0084091   0.03282632   -3.4369314    1.4285223   333581 
 4518000    0.7229449   -3.4365657   -2.0092063  0.032079179   -3.4365657    1.4273594   333570 
 4519000   0.72224529   -3.4372654   -2.0111548  0.034917477   -3.4372654    1.4261107   333539 
 4520000   0.72105844   -3.4355859   -2.0116181  0.032846099   -3.4355859    1.4239678   333492 
 4521000   0.72022872   -3.4344682   -2.0119171  0.026448537   -3.4344682    1.4225511   333440 
 4522000   0.72030472   -3.4336517   -2.0107158  0.027751863   -3.4336517    1.4229359   333385 
 4523000   0.72053193   -3.4347383   -2.0112981  0.029743928   -3.4347383    1.4234403   333372 
 4524000   0.72180843   -3.4366301   -2.0105269   0.02682555   -3.4366301    1.4261032   333339 
 4525000   0.72199065   -3.4365598   -2.0098783  0.033484557   -3.4365598    1.4266815   333288 
 4526000   0.72204469   -3.4384857    -2.011312  0.031969543   -3.4384857    1.4271737   333198 
 4527000    0.7216268   -3.4385679   -2.0121517   0.03691653   -3.4385679    1.4264162   333182 
 4528000   0.72150288    -3.437999   -2.0116437  0.034533471    -3.437999    1.4263553   333139 
 4529000   0.72286313   -3.4408296   -2.0117251  0.034327421   -3.4408296    1.4291045   333125 
 4530000   0.71997951   -3.4356519     -2.01218   0.03414132   -3.4356519    1.4234719   333109 
 4531000   0.72131057   -3.4390008   -2.0127259  0.034957946   -3.4390008    1.4262748   333069 
 4532000   0.71932363   -3.4388464    -2.016116  0.031940292   -3.4388464    1.4227304   332979 
 4533000   0.72134181   -3.4414537   -2.0145045  0.025890026   -3.4414537    1.4269492   332926 
 4534000   0.72142685    -3.439006   -2.0117299  0.034535565    -3.439006    1.4272761   332889 
 4535000   0.72209163   -3.4391792   -2.0102445  0.035467866   -3.4391792    1.4289347   332809 
 4536000   0.72244434   -3.4391992   -2.0095494  0.032674334   -3.4391992    1.4296499   332805 
 4537000   0.72035815   -3.4387871   -2.0131628  0.035529703   -3.4387871    1.4256243   332781 
 4538000   0.72107202   -3.4388364    -2.011705  0.033665816   -3.4388364    1.4271314   332759 
 4539000   0.72062049   -3.4392592   -2.0128414  0.031390308   -3.4392592    1.4264178   332717 
 4540000   0.72044447   -3.4384054   -2.0120916  0.030915012   -3.4384054    1.4263137   332660 
 4541000   0.72075582    -3.439514   -2.0124766  0.030315182    -3.439514    1.4270374   332635 
 4542000   0.72035091   -3.4371821   -2.0107706  0.033211399   -3.4371821    1.4264115   332594 
 4543000   0.72160437    -3.439626   -2.0104617  0.033059997    -3.439626    1.4291643   332531 
 4544000   0.72166027   -3.4406682   -2.0112342  0.035505041   -3.4406682     1.429434   332494 
 4545000   0.72095858   -3.4374746   -2.0093918  0.031895571   -3.4374746    1.4280828   332485 
 4546000   0.72121905   -3.4361771   -2.0074452  0.034523611   -3.4361771     1.428732   332454 
 4547000   0.72006809   -3.4334133   -2.0067941  0.036016967   -3.4334133    1.4266193   332415 
 4548000   0.72207132   -3.4384823   -2.0076445  0.032206184   -3.4384823    1.4308378   332357 
 4549000   0.72106001   -3.4361362   -2.0072724  0.032267929   -3.4361362    1.4288639   332350 
 4550000   0.71902207   -3.4326069   -2.0074727  0.026314876   -3.4326069    1.4251342   332278 
 4551000   0.71888302    -3.432739   -2.0078075  0.027865225    -3.432739    1.4249315   332261 
 4552000   0.72015379   -3.4328668   -2.0054594  0.028902141   -3.4328668    1.4274074   332271 
 4553000   0.72046375    -3.434215   -2.0059568  0.028664217    -3.434215    1.4282582   332216 
 4554000    0.7201664   -3.4332468   -2.0055566  0.030874517   -3.4332468    1.4276902   332211 
 4555000   0.72017775   -3.4331624   -2.0053121  0.035205475   -3.4331624    1.4278502   332179 
 4556000   0.72153919   -3.4346689   -2.0040289  0.029812349   -3.4346689    1.4306399   332158 
 4557000   0.72216437   -3.4322657   -2.0003776  0.031558055   -3.4322657    1.4318881   332156 
 4558000   0.72143503   -3.4310321   -2.0003187   0.03138367   -3.4310321    1.4307134   332093 
 4559000   0.72020481   -3.4293061   -2.0006969  0.034278398   -3.4293061    1.4286092   332015 
 4560000    0.7199821   -3.4288074   -2.0005367  0.033386399   -3.4288074    1.4282707   331991 
 4561000   0.72036806   -3.4314869   -2.0022612  0.030517398   -3.4314869    1.4292258   331947 
 4562000   0.72041174    -3.431398   -2.0021028  0.031188926    -3.431398    1.4292952   331951 
 4563000   0.72012396   -3.4311314   -2.0022694  0.029282669   -3.4311314     1.428862   331919 
 4564000   0.71975283   -3.4309787   -2.0026294  0.026475925   -3.4309787    1.4283493   331867 
 4565000   0.71884479   -3.4300593    -2.003499  0.025285857   -3.4300593    1.4265603   331864 
 4566000   0.71985573   -3.4301831   -2.0013066  0.030270326   -3.4301831    1.4288765   331792 
 4567000   0.71890513    -3.427609   -2.0005549  0.031420426    -3.427609    1.4270541   331777 
 4568000   0.72012832   -3.4310515   -2.0012159  0.032647402   -3.4310515    1.4298356   331695 
 4569000   0.72125987   -3.4318975   -1.9995691  0.032421733   -3.4318975    1.4323284   331638 
 4570000   0.72180554   -3.4331747   -1.9995465   0.02979152   -3.4331747    1.4336282   331588 
 4571000    0.7197364   -3.4291551   -1.9996021   0.03557118   -3.4291551     1.429553   331580 
 4572000   0.72086297   -3.4304115    -1.998582  0.037530551   -3.4304115    1.4318295   331571 
 4573000   0.72040445   -3.4286936   -1.9977273  0.033159011   -3.4286936    1.4309662   331560 
 4574000   0.72074333   -3.4310952   -1.9990541  0.030941188   -3.4310952     1.432041   331467 
 4575000   0.71983854   -3.4315725   -2.0011566  0.032487589   -3.4315725    1.4304159   331427 
 4576000   0.71821597   -3.4283736   -2.0008072  0.031352245   -3.4283736    1.4275664   331340 
 4577000   0.71911033   -3.4300259   -2.0005308  0.029453506   -3.4300259    1.4294951   331305 
 4578000   0.71942867   -3.4306619    -2.000249  0.034204938   -3.4306619    1.4304129   331239 
 4579000   0.71954702   -3.4314861   -2.0004923  0.028672459   -3.4314861    1.4309938   331159 
 4580000   0.71874981   -3.4291351   -1.9995498  0.034353766   -3.4291351    1.4295853   331118 
 4581000   0.71867273   -3.4296057   -2.0000096  0.032013061   -3.4296057    1.4295961   331080 
 4582000   0.71817763   -3.4283004   -1.9994949  0.030937166   -3.4283004    1.4288054   331035 
 4583000   0.71828577   -3.4286254   -1.9996307  0.029784737   -3.4286254    1.4289947   331041 
 4584000   0.71838261    -3.426619   -1.9972633  0.030071232    -3.426619    1.4293557   331002 
 4585000   0.71834421   -3.4271644   -1.9976605  0.036621932   -3.4271644    1.4295039   330950 
 4586000   0.71707389    -3.424459   -1.9972933  0.027430655    -3.424459    1.4271657   330906 
 4587000   0.71839807   -3.4281853   -1.9981032  0.031793963   -3.4281853    1.4300821   330841 
 4588000   0.71749895    -3.425287   -1.9967313  0.033249135    -3.425287    1.4285556   330780 
 4589000   0.71921905    -3.428404   -1.9961942  0.033702797    -3.428404    1.4322099   330727 
 4590000   0.71749894   -3.4247873   -1.9960157  0.034609655   -3.4247873    1.4287716   330730 
 4591000   0.71767088   -3.4271443   -1.9977753  0.036872264   -3.4271443     1.429369   330671 
 4592000   0.71719751   -3.4261333   -1.9973658  0.027405106   -3.4261333    1.4287675   330592 
 4593000    0.7163194   -3.4256616    -1.998406   0.03214254   -3.4256616    1.4272556   330537 
 4594000   0.71650479   -3.4252727    -1.997639  0.030297978   -3.4252727    1.4276337   330535 
 4595000   0.71554415   -3.4246766     -1.99875  0.027828397   -3.4246766    1.4259267   330487 
 4596000   0.71831087    -3.429865   -1.9980826  0.031891453    -3.429865    1.4317824   330408 
 4597000    0.7155271   -3.4248389   -1.9984111  0.036125405   -3.4248389    1.4264279   330363 
 4598000   0.71524179   -3.4236934   -1.9977221  0.032728986   -3.4236934    1.4259713   330337 
 4599000   0.71610457   -3.4237552   -1.9960118  0.036140748   -3.4237552    1.4277433   330325 
 4600000    0.7161261    -3.423411   -1.9953783  0.036911454    -3.423411    1.4280327   330268 
 4601000   0.71529866   -3.4241321    -1.997581  0.032627939   -3.4241321    1.4265511   330229 
 4602000   0.71387475   -3.4216077   -1.9978361  0.028976471   -3.4216077    1.4237717   330215 
 4603000   0.71423561   -3.4233543   -1.9985609  0.024396317   -3.4233543    1.4247934   330145 
 4604000   0.71526222   -3.4259825   -1.9988904  0.026091784   -3.4259825    1.4270921   330087 
 4605000   0.71447193   -3.4254492      -1.9998  0.031415314   -3.4254492    1.4256492   330056 
 4606000   0.71440932   -3.4256575   -1.9999259   0.03124094   -3.4256575    1.4257316   330008 
 4607000   0.71355684    -3.424399   -2.0001054  0.028516645    -3.424399    1.4242936   329947 
 4608000   0.71474788   -3.4253774   -1.9984729  0.027624689   -3.4253774    1.4269045   329893 
 4609000   0.71488931   -3.4261968   -1.9989364  0.030869965   -3.4261968    1.4272604   329876 
 4610000   0.71433106   -3.4266444   -2.0004812  0.028952613   -3.4266444    1.4261632   329872 
 4611000   0.71519906   -3.4289871   -2.0008485  0.031732088   -3.4289871    1.4281386   329816 
 4612000   0.71403119   -3.4278644   -2.0017379  0.033334436   -3.4278644    1.4261265   329742 
 4613000   0.71462363   -3.4276286   -1.9999725  0.033149506   -3.4276286    1.4276561   329662 
 4614000   0.71540602    -3.429673   -2.0002717  0.031521755    -3.429673    1.4294013   329620 
 4615000   0.71573118   -3.4303083   -2.0000274  0.033334902   -3.4303083    1.4302809   329567 
 4616000   0.71706595    -3.432157   -1.9990392   0.03091447    -3.432157    1.4331179   329528 
 4617000   0.71655465   -3.4328121   -2.0004206  0.034106904   -3.4328121    1.4323916   329460 
 4618000   0.71637612    -3.431596   -1.9995092  0.033773156    -3.431596    1.4320869   329448 
 4619000   0.71703801    -3.434205   -2.0004294  0.035191652    -3.434205    1.4337756   329364 
 4620000   0.71526787   -3.4311199   -2.0006971  0.031367367   -3.4311199    1.4304228   329321 
 4621000   0.71372837   -3.4289698   -2.0012876  0.035019516   -3.4289698    1.4276822   329243 
 4622000   0.71427243   -3.4308069   -2.0017152   0.03370222   -3.4308069    1.4290917   329169 
 4623000   0.71353711   -3.4317364   -2.0038296  0.032727442   -3.4317364    1.4279068   329103 
 4624000    0.7130801   -3.4320911    -2.004856  0.029087776   -3.4320911    1.4272351   329047 
 4625000   0.71433276    -3.432195   -2.0024744  0.024720656    -3.432195    1.4297206   329052 
 4626000   0.71331947   -3.4288702   -2.0010519  0.029977632   -3.4288702    1.4278183   329023 
 4627000   0.71456641   -3.4302863   -1.9998329  0.032308987   -3.4302863    1.4304534   328991 
 4628000   0.71316941   -3.4275716   -1.9997325  0.034739268   -3.4275716    1.4278391   328949 
 4629000   0.71427618    -3.431963   -2.0015384  0.029809001    -3.431963    1.4304246   328864 
 4630000   0.71366691   -3.4295644   -2.0003296  0.032844909   -3.4295644    1.4292349   328857 
 4631000   0.71242952   -3.4290622    -2.002019  0.032699417   -3.4290622    1.4270432   328791 
 4632000   0.71366084    -3.428569   -1.9990159  0.029284918    -3.428569    1.4295531   328781 
 4633000    0.7142179   -3.4287389   -1.9978523  0.031962477   -3.4287389    1.4308866   328731 
 4634000   0.71415889   -3.4299529   -1.9990409  0.027874219   -3.4299529     1.430912   328698 
 4635000   0.71439274   -3.4317002   -2.0001455  0.034130373   -3.4317002    1.4315547   328658 
 4636000   0.71285464    -3.426968   -1.9983389   0.03491262    -3.426968    1.4286291   328622 
 4637000   0.71340858   -3.4294634    -1.999376  0.027646302   -3.4294634    1.4300874   328542 
 4638000   0.71372942   -3.4304791   -1.9994786  0.030808606   -3.4304791    1.4310005   328480 
 4639000   0.71287448   -3.4263597   -1.9969906  0.028414493   -3.4263597    1.4293691   328461 
 4640000   0.71324258   -3.4285593   -1.9981604  0.032861554   -3.4285593    1.4303989   328394 
 4641000   0.71422631   -3.4306795   -1.9980591  0.033855921   -3.4306795    1.4326205   328337 
 4642000   0.71418771   -3.4312752   -1.9986973  0.037120784   -3.4312752     1.432578   328329 
 4643000   0.71430546   -3.4312974   -1.9983174  0.034201547   -3.4312974      1.43298   328291 
 4644000     0.714318   -3.4301454   -1.9969307  0.036980887   -3.4301454    1.4332147   328243 
 4645000   0.71432953   -3.4301164   -1.9965379  0.036023521   -3.4301164    1.4335785   328165 
 4646000   0.71345684   -3.4273848   -1.9955097  0.034816217   -3.4273848    1.4318751   328154 
 4647000   0.71412837   -3.4292686   -1.9958755  0.031202067   -3.4292686    1.4333932   328115 
 4648000   0.71307852   -3.4293037   -1.9975683  0.033238556   -3.4293037    1.4317354   328012 
 4649000   0.71182645   -3.4267306   -1.9972608  0.033453286   -3.4267306    1.4294698   327955 
 4650000   0.71231521   -3.4287345    -1.998305  0.025843539   -3.4287345    1.4304296   327960 
 4651000    0.7116288   -3.4262859   -1.9971607  0.029655851   -3.4262859    1.4291252   327943 
 4652000   0.71268318    -3.428231   -1.9967046  0.035812378    -3.428231    1.4315264   327878 
 4653000   0.71250519   -3.4277303    -1.996413  0.033109978   -3.4277303    1.4313173   327844 
 4654000   0.71276361   -3.4261759   -1.9940555  0.031805398   -3.4261759    1.4321204   327779 
 4655000     0.712706   -3.4260025   -1.9936919  0.027236845   -3.4260025    1.4323105   327709 
 4656000   0.71109474   -3.4228027   -1.9936954  0.028826143   -3.4228027    1.4291073   327701 
 4657000   0.70993448   -3.4244651    -1.997302  0.026996696   -3.4244651    1.4271631   327612 
 4658000   0.70966125   -3.4218318    -1.994961  0.030453459   -3.4218318    1.4268708   327553 
 4659000   0.71053313   -3.4232003   -1.9943104  0.029211273   -3.4232003    1.4288899   327492 
 4660000    0.7115283   -3.4210437   -1.9900214  0.030623718   -3.4210437    1.4310223   327462 
 4661000   0.71040673   -3.4193294   -1.9906064   0.03216243   -3.4193294     1.428723   327472 
 4662000   0.71081938   -3.4214018   -1.9918009    0.0326018   -3.4214018    1.4296009   327461 
 4663000   0.71258555    -3.423833   -1.9904699   0.03320214    -3.423833    1.4333631   327413 
 4664000   0.71120846   -3.4227465   -1.9918694  0.031640722   -3.4227465    1.4308772   327348 
 4665000    0.7108491   -3.4209976   -1.9907604   0.03020593   -3.4209976    1.4302372   327329 
 4666000    0.7107577   -3.4211898   -1.9908306  0.029831845   -3.4211898    1.4303592   327259 
 4667000   0.71027778   -3.4217048    -1.992128  0.027781492   -3.4217048    1.4295768   327217 
 4668000   0.71016713   -3.4213787   -1.9919154  0.039577994   -3.4213787    1.4294633   327192 
 4669000   0.71074275   -3.4229491   -1.9921522  0.030099333   -3.4229491    1.4307969   327152 
 4670000   0.70972433   -3.4224901   -1.9935905  0.032811715   -3.4224901    1.4288996   327117 
 4671000   0.71076328   -3.4225213   -1.9914512  0.032721274   -3.4225213    1.4310701   327099 
 4672000   0.71216283   -3.4247364   -1.9907783  0.033762126   -3.4247364    1.4339581   327083 
 4673000   0.71094769    -3.423277   -1.9918182  0.031554567    -3.423277    1.4314589   327095 
 4674000   0.71079441   -3.4224514   -1.9911831  0.035126435   -3.4224514    1.4312684   327068 
 4675000   0.71372998   -3.4272897    -1.989653   0.03290802   -3.4272897    1.4376366   326964 
 4676000   0.71288866   -3.4257206   -1.9893832  0.035380697   -3.4257206    1.4363374   326874 
 4677000    0.7113401    -3.423856   -1.9906387  0.035156833    -3.423856    1.4332173   326874 
 4678000   0.71140449   -3.4259155   -1.9925202  0.033806292   -3.4259155    1.4333953   326863 
 4679000   0.70995386   -3.4245865   -1.9937507  0.033638462   -3.4245865    1.4308358   326780 
 4680000   0.71021659   -3.4242564   -1.9928605  0.033774524   -3.4242564    1.4313959   326773 
 4681000   0.71108078   -3.4264054   -1.9928115  0.031282028   -3.4264054    1.4335939   326669 
 4682000    0.7099465   -3.4254296   -1.9938508  0.027819449   -3.4254296    1.4315788   326607 
 4683000   0.70912841   -3.4250866   -1.9951706  0.029081617   -3.4250866     1.429916   326610 
 4684000   0.70864508   -3.4228013   -1.9937067  0.036155318   -3.4228013    1.4290946   326575 
 4685000   0.70957232    -3.425571   -1.9944268  0.032107425    -3.425571    1.4311442   326534 
 4686000   0.70976183   -3.4245769    -1.992954  0.032531514   -3.4245769    1.4316229   326512 
 4687000   0.70870109   -3.4230133   -1.9932103  0.031471812   -3.4230133     1.429803   326439 
 4688000   0.71014745   -3.4245066   -1.9917022  0.032015944   -3.4245066    1.4328044   326420 
 4689000   0.70983985   -3.4223373   -1.9902062  0.034000456   -3.4223373    1.4321311   326432 
 4690000   0.71036769   -3.4246442   -1.9911934   0.03456665   -3.4246442    1.4334508   326374 
 4691000   0.70997624   -3.4197778   -1.9870335  0.036395841   -3.4197778    1.4327443   326355 
 4692000   0.70855903   -3.4198337   -1.9894761  0.032514101   -3.4198337    1.4303577   326247 
 4693000   0.70931252   -3.4209519   -1.9889942  0.030494173   -3.4209519    1.4319577   326229 
 4694000   0.70876611   -3.4194028   -1.9886096  0.034230664   -3.4194028    1.4307932   326243 
 4695000   0.70897967   -3.4192188   -1.9877882  0.037675887   -3.4192188    1.4314306   326196 
 4696000   0.70818303   -3.4183901   -1.9884759  0.028557085   -3.4183901    1.4299142   326175 
 4697000    0.7071502   -3.4164756   -1.9884191  0.031939372   -3.4164756    1.4280564   326123 
 4698000   0.70813833   -3.4180198   -1.9879371  0.031891072   -3.4180198    1.4300826   326116 
 4699000   0.70712865   -3.4145537   -1.9863875  0.031633977   -3.4145537    1.4281662   326088 
 4700000   0.70795132   -3.4182519   -1.9882093  0.028523934   -3.4182519    1.4300426   326039 
 4701000   0.70960168   -3.4192543   -1.9858077  0.030614877   -3.4192543    1.4334466   326023 
 4702000   0.70833908   -3.4149609   -1.9839287  0.030869557   -3.4149609    1.4310322   325992 
 4703000   0.70771236   -3.4123847   -1.9823906  0.032150906   -3.4123847    1.4299941   325940 
 4704000   0.70831872   -3.4155361   -1.9841806  0.029627145   -3.4155361    1.4313555   325909 
 4705000   0.70858017   -3.4166683   -1.9846352  0.034355269   -3.4166683    1.4320332   325875 
 4706000   0.70760377    -3.417936   -1.9875995  0.035961567    -3.417936    1.4303364   325812 
 4707000    0.7073672   -3.4196077   -1.9893895  0.032330325   -3.4196077    1.4302182   325730 
 4708000   0.70778017   -3.4203767   -1.9892401  0.032825023   -3.4203767    1.4311366   325711 
 4709000   0.70729055   -3.4191638   -1.9888327  0.028384761   -3.4191638    1.4303311   325669 
 4710000   0.70710334   -3.4194322   -1.9891899  0.031162303   -3.4194322    1.4302423   325603 
 4711000   0.70666019    -3.420851   -1.9913865  0.033300435    -3.420851    1.4294645   325576 
 4712000   0.70774458    -3.420503   -1.9886734  0.034981466    -3.420503    1.4318296   325537 
 4713000   0.70783985   -3.4218453   -1.9897614  0.031472424   -3.4218453    1.4320839   325523 
 4714000   0.70747353   -3.4202891   -1.9887133  0.036568182   -3.4202891    1.4315759   325470 
 4715000   0.70677013   -3.4222436   -1.9917615  0.035000677   -3.4222436    1.4304822   325395 
 4716000   0.70708806   -3.4214474   -1.9902162  0.032449507   -3.4214474    1.4312312   325371 
 4717000    0.7061573   -3.4207948   -1.9911444  0.031542761   -3.4207948    1.4296504   325302 
 4718000   0.70681023   -3.4214101   -1.9903674  0.033475505   -3.4214101    1.4310427   325286 
 4719000   0.70739004   -3.4246485   -1.9920223  0.031915917   -3.4246485    1.4326262   325193 
 4720000   0.70688202   -3.4279532    -1.995964  0.032762569   -3.4279532    1.4319892   325104 
 4721000   0.70790578   -3.4270578   -1.9929638  0.036186875   -3.4270578     1.434094   325097 
 4722000   0.70601543   -3.4247806   -1.9944413  0.038067708   -3.4247806    1.4303393   325080 
 4723000   0.70840503     -3.42843   -1.9931612  0.034877604     -3.42843    1.4352688   325060 
 4724000   0.70689968   -3.4270351    -1.994781  0.030151377   -3.4270351    1.4322541   325052 
 4725000   0.70613181   -3.4258108   -1.9947867  0.030459944   -3.4258108    1.4310241   324978 
 4726000   0.70548817   -3.4251028   -1.9952291  0.035479438   -3.4251028    1.4298737   324943 
 4727000   0.70564081   -3.4265318   -1.9959657  0.035842822   -3.4265318    1.4305661   324856 
 4728000   0.70660269   -3.4260018   -1.9933357  0.036093083   -3.4260018    1.4326661   324822 
 4729000   0.70654049   -3.4249692   -1.9924027  0.034153094   -3.4249692    1.4325664   324816 
 4730000   0.70487372   -3.4237354   -1.9943636   0.03282028   -3.4237354    1.4293718   324774 
 4731000   0.70623366   -3.4253167   -1.9928696  0.033205996   -3.4253167    1.4324471   324702 
 4732000   0.70441364   -3.4226428   -1.9937684  0.033228237   -3.4226428    1.4288744   324675 
 4733000   0.70554735   -3.4246562   -1.9933631  0.031461035   -3.4246562    1.4312931   324648 
 4734000   0.70528011   -3.4213454   -1.9902948  0.036364273   -3.4213454    1.4310507   324580 
 4735000   0.70508962   -3.4223976   -1.9914337  0.034258005   -3.4223976     1.430964   324512 
 4736000   0.70567609   -3.4228666    -1.990558  0.037128652   -3.4228666    1.4323086   324477 
 4737000   0.70437642   -3.4218057   -1.9917471  0.033709977   -3.4218057    1.4300586   324389 
 4738000   0.70475596    -3.422668   -1.9917683  0.031722056    -3.422668    1.4308997   324373 
 4739000   0.70382417   -3.4230333   -1.9939329  0.028956708   -3.4230333    1.4291004   324352 
 4740000   0.70217134   -3.4178926   -1.9921087  0.032024415   -3.4178926    1.4257839   324343 
 4741000   0.70196996   -3.4179413   -1.9922411  0.023453465   -3.4179413    1.4257003   324269 
 4742000   0.70296586    -3.418862   -1.9908748  0.027006386    -3.418862    1.4279872   324209 
 4743000   0.70172512   -3.4171267   -1.9912642  0.029328979   -3.4171267    1.4258626   324119 
 4744000   0.70326943   -3.4183261   -1.9890919  0.034072209   -3.4183261    1.4292342   324066 
 4745000   0.70469908   -3.4210688    -1.988518   0.02913679   -3.4210688    1.4325508   323973 
 4746000   0.70341382   -3.4190566   -1.9889906  0.031951257   -3.4190566     1.430066   323944 
 4747000   0.70236642   -3.4173657    -1.989363  0.033757691   -3.4173657    1.4280027   323929 
 4748000   0.70451203   -3.4187128    -1.986193  0.035328864   -3.4187128    1.4325198   323894 
 4749000   0.70340157   -3.4162825   -1.9855833  0.035158726   -3.4162825    1.4306992   323795 
 4750000     0.704204   -3.4183833   -1.9859148  0.030580627   -3.4183833    1.4324684   323764 
 4751000   0.70230319   -3.4156881   -1.9869053  0.030517703   -3.4156881    1.4287828   323723 
 4752000   0.70245913   -3.4159221   -1.9865085  0.032822737   -3.4159221    1.4294136   323652 
 4753000   0.70271879    -3.416782   -1.9865793  0.031230421    -3.416782    1.4302027   323593 
 4754000   0.70341046    -3.418158   -1.9862157  0.030385128    -3.418158    1.4319423   323518 
 4755000   0.70173174   -3.4155647   -1.9867661  0.034913625   -3.4155647    1.4287987   323456 
 4756000   0.70185894   -3.4171725   -1.9878673  0.027762163   -3.4171725    1.4293051   323400 
 4757000    0.7010296   -3.4170666   -1.9889912  0.031038575   -3.4170666    1.4280755   323296 
 4758000   0.70056148   -3.4152882   -1.9880427  0.030197434   -3.4152882    1.4272455   323268 
 4759000   0.70063796   -3.4167801    -1.989136  0.031886439   -3.4167801    1.4276442   323213 
 4760000   0.70164289   -3.4179607    -1.988083  0.031191188   -3.4179607    1.4298776   323171 
 4761000   0.70231187   -3.4183781   -1.9870308  0.031488826   -3.4183781    1.4313473   323147 
 4762000   0.70166485   -3.4158987    -1.985817  0.032763491   -3.4158987    1.4300817   323135 
 4763000   0.70133896   -3.4175066   -1.9880493  0.029226742   -3.4175066    1.4294573   323126 
 4764000   0.70038238    -3.415393    -1.987744  0.030416135    -3.415393     1.427649   323094 
 4765000   0.70050897   -3.4148585   -1.9867967  0.031332485   -3.4148585    1.4280617   323059 
 4766000   0.70151831   -3.4177031   -1.9870346  0.030632924   -3.4177031    1.4306685   322935 
 4767000   0.70258962   -3.4191772   -1.9861464  0.036182059   -3.4191772    1.4330309   322895 
 4768000   0.70266318   -3.4192021    -1.985999  0.033480356   -3.4192021    1.4332031   322890 
 4769000   0.70341588   -3.4196762   -1.9848446  0.033184482   -3.4196762    1.4348317   322869 
 4770000   0.70115488   -3.4145201   -1.9842605  0.031133931   -3.4145201    1.4302595   322860 
 4771000    0.7010972   -3.4160147   -1.9855273   0.02929607   -3.4160147    1.4304875   322782 
 4772000    0.7009717   -3.4146899   -1.9842237  0.034152804   -3.4146899    1.4304663   322729 
 4773000   0.70103621   -3.4146835    -1.983895  0.031709919   -3.4146835    1.4307886   322686 
 4774000   0.70192828   -3.4173007   -1.9843717  0.032480246   -3.4173007     1.432929   322614 
 4775000   0.70129414   -3.4159035    -1.984025  0.033529915   -3.4159035    1.4318785   322559 
 4776000   0.70190527   -3.4182863   -1.9847511  0.037115565   -3.4182863    1.4335352   322467 
 4777000   0.69934438   -3.4141163   -1.9857404  0.032812397   -3.4141163    1.4283758   322451 
 4778000   0.69865369   -3.4134148   -1.9863124  0.029430402   -3.4134148    1.4271023   322420 
 4779000   0.69866652   -3.4111233   -1.9838044  0.030066035   -3.4111233    1.4273189   322377 
 4780000   0.69850974   -3.4130983   -1.9858916  0.023467274   -3.4130983    1.4272067   322330 
 4781000   0.69709921   -3.4103657   -1.9858598  0.028184209   -3.4103657    1.4245058   322289 
 4782000   0.69905338   -3.4137738   -1.9851017  0.031889272   -3.4137738     1.428672   322250 
 4783000   0.69773343   -3.4111566   -1.9849343  0.033504198   -3.4111566    1.4262223   322194 
 4784000   0.70035236    -3.413453   -1.9818241  0.033153599    -3.413453    1.4316289   322182 
 4785000   0.70022968   -3.4143378   -1.9826753  0.035472959   -3.4143378    1.4316625   322118 
 4786000   0.69881202   -3.4115343   -1.9825928  0.029740209   -3.4115343    1.4289415   322078 
 4787000    0.6972039   -3.4087218   -1.9830598  0.027515172   -3.4087218     1.425662   322076 
 4788000   0.69741611   -3.4105015   -1.9841044  0.025825251   -3.4105015    1.4263971   322008 
 4789000   0.69691075   -3.4113607   -1.9855411  0.026327411   -3.4113607    1.4258196   321905 
 4790000   0.69677742   -3.4114278   -1.9859297  0.027833951   -3.4114278    1.4254981   321916 
 4791000   0.69725697   -3.4126947   -1.9861491  0.030480688   -3.4126947    1.4265456   321901 
 4792000   0.69648599   -3.4111202   -1.9857844  0.030191677   -3.4111202    1.4253358   321818 
 4793000   0.69690787   -3.4124213   -1.9859784  0.029670581   -3.4124213    1.4264429   321763 
 4794000   0.69739569   -3.4122234   -1.9845424  0.033302203   -3.4122234     1.427681   321709 
 4795000   0.69767259   -3.4113291   -1.9828459  0.033856122   -3.4113291    1.4284832   321656 
 4796000   0.69884149   -3.4122811    -1.981151  0.032564547   -3.4122811    1.4311301   321599 
 4797000   0.69813747   -3.4130467   -1.9832516  0.034253829   -3.4130467    1.4297951   321575 
 4798000   0.69960063   -3.4168124   -1.9839049  0.038377645   -3.4168124    1.4329075   321549 
 4799000   0.69841427   -3.4141758   -1.9833155  0.034558227   -3.4141758    1.4308603   321463 
 4800000   0.69765519   -3.4140625   -1.9845038  0.035479208   -3.4140625    1.4295587   321406 
 4801000   0.69588923    -3.413721   -1.9875458  0.030415612    -3.413721    1.4261752   321353 
 4802000   0.69631287   -3.4129453   -1.9856487  0.030851089   -3.4129453    1.4272966   321296 
 4803000   0.69668344    -3.414234   -1.9860622  0.034199908    -3.414234    1.4281718   321270 
 4804000    0.6968289    -3.415688   -1.9870713  0.028401099    -3.415688    1.4286167   321237 
 4805000   0.69792001   -3.4164658    -1.985171  0.031131497   -3.4164658    1.4312948   321138 
 4806000   0.69653435   -3.4144268   -1.9860316  0.034929489   -3.4144268    1.4283952   321151 
 4807000    0.6969824   -3.4160075   -1.9864575  0.036364757   -3.4160075      1.42955   321098 
 4808000   0.69650588   -3.4133888   -1.9845225  0.031493479   -3.4133888    1.4288663   321032 
 4809000   0.69661539   -3.4154509    -1.986026  0.030699729   -3.4154509    1.4294249   320957 
 4810000   0.69594743   -3.4121297   -1.9840888  0.031244627   -3.4121297    1.4280409   320960 
 4811000   0.69627697   -3.4125374   -1.9834195   0.02876725   -3.4125374    1.4291179   320870 
 4812000   0.69611994   -3.4132196   -1.9839965  0.036250829   -3.4132196    1.4292232   320774 
 4813000    0.6954341   -3.4121123   -1.9840613  0.033066826   -3.4121123     1.428051   320721 
 4814000   0.69599307   -3.4132729   -1.9837487  0.031685692   -3.4132729    1.4295242   320648 
 4815000   0.69720714   -3.4159325   -1.9835484  0.030762382   -3.4159325    1.4323841   320566 
 4816000   0.69642376   -3.4139865   -1.9831984  0.028273747   -3.4139865    1.4307881   320563 
 4817000   0.69599238   -3.4112012   -1.9811566   0.03499037   -3.4112012    1.4300446   320531 
 4818000   0.69557594   -3.4108012   -1.9813983  0.027254448   -3.4108012     1.429403   320483 
 4819000   0.69585357   -3.4106915   -1.9805708  0.034618671   -3.4106915    1.4301208   320450 
 4820000   0.69610938   -3.4129376   -1.9820365  0.028452538   -3.4129376     1.430901   320393 
 4821000    0.6953361   -3.4130001   -1.9834342  0.036342147   -3.4130001    1.4295658   320336 
 4822000   0.69489686   -3.4120818    -1.983419  0.029932954   -3.4120818    1.4286628   320336 
 4823000   0.69360182   -3.4086948   -1.9827034  0.029311627   -3.4086948    1.4259914   320338 
 4824000   0.69454661   -3.4088148   -1.9805912   0.02685435   -3.4088148    1.4282236   320273 
 4825000    0.6932039   -3.4072751   -1.9814119  0.029706702   -3.4072751    1.4258632   320183 
 4826000    0.6936728   -3.4089725   -1.9819666  0.027253533   -3.4089725     1.427006   320143 
 4827000   0.69413755    -3.410157   -1.9820701   0.02848953    -3.410157    1.4280869   320115 
 4828000   0.69515313   -3.4099029    -1.979664  0.031064738   -3.4099029    1.4302389   320101 
 4829000   0.69392326   -3.4099559   -1.9818459  0.029201782   -3.4099559      1.42811   320011 
 4830000   0.69538169   -3.4102844   -1.9790432  0.035047512   -3.4102844    1.4312412   319982 
 4831000   0.69510398   -3.4085007   -1.9777103  0.032774004   -3.4085007    1.4307904   319955 
 4832000   0.69499311   -3.4112715    -1.980356  0.029229387   -3.4112715    1.4309155   319876 
 4833000   0.69303363   -3.4078102   -1.9806391  0.027946091   -3.4078102    1.4271711   319811 
 4834000   0.69395312     -3.40902   -1.9798973   0.03008216     -3.40902    1.4291227   319798 
 4835000    0.6949073   -3.4124441   -1.9813966  0.029334372   -3.4124441    1.4310475   319807 
 4836000   0.69392804   -3.4119345   -1.9827786  0.032659137   -3.4119345     1.429156   319779 
 4837000   0.69454473   -3.4107498   -1.9803193  0.032444179   -3.4107498    1.4304305   319778 
 4838000   0.69443733   -3.4093967   -1.9789637  0.031471867   -3.4093967     1.430433   319728 
 4839000   0.69434468   -3.4108475   -1.9803593  0.028041275   -3.4108475    1.4304882   319673 
 4840000   0.69482321   -3.4116248   -1.9797611  0.032316852   -3.4116248    1.4318638   319586 
 4841000   0.69236375   -3.4079047   -1.9811316  0.031633657   -3.4079047    1.4267731   319591 
 4842000   0.69372894   -3.4105722   -1.9808516  0.034676169   -3.4105722    1.4297206   319561 
 4843000   0.69309807   -3.4091201    -1.980257  0.032954369   -3.4091201    1.4288631   319462 
 4844000   0.69205813   -3.4086314   -1.9819078  0.029781928   -3.4086314    1.4267236   319461 
 4845000   0.69302675   -3.4111526   -1.9822397   0.03248009   -3.4111526    1.4289129   319418 
 4846000   0.69245015   -3.4093294   -1.9814578  0.025611445   -3.4093294    1.4278715   319385 
 4847000   0.69412122   -3.4116644   -1.9802664  0.026490619   -3.4116644     1.431398   319367 
 4848000   0.69295337   -3.4091057   -1.9799011  0.031166722   -3.4091057    1.4292045   319319 
 4849000   0.69367981    -3.409158   -1.9782312  0.034744237    -3.409158    1.4309268   319269 
 4850000   0.69313077   -3.4081702   -1.9782774  0.036052854   -3.4081702    1.4298928   319247 
 4851000   0.69463007      -3.4107   -1.9775481  0.036843513      -3.4107    1.4331519   319210 
 4852000   0.69420008   -3.4109816   -1.9784925  0.031837662   -3.4109816    1.4324891   319160 
 4853000   0.69348165   -3.4105067   -1.9793924  0.027870359   -3.4105067    1.4311143   319136 
 4854000   0.69363358   -3.4098546   -1.9782922  0.031455838   -3.4098546    1.4315624   319106 
 4855000   0.69214209   -3.4054629   -1.9766653  0.033310449   -3.4054629    1.4287976   319036 
 4856000   0.69203076   -3.4067944   -1.9780878  0.029096441   -3.4067944    1.4287066   319005 
 4857000   0.69266441   -3.4086755   -1.9784231  0.029627376   -3.4086755    1.4302524   318952 
 4858000   0.69182259   -3.4065011   -1.9777361  0.038669389   -3.4065011     1.428765   318896 
 4859000   0.69182036   -3.4076424   -1.9785683  0.035492139   -3.4076424    1.4290741   318826 
 4860000   0.69242274   -3.4085426   -1.9780716  0.030587119   -3.4085426    1.4304709   318792 
 4861000   0.69335988   -3.4099193   -1.9770943  0.032076093   -3.4099193     1.432825   318699 
 4862000   0.69127628   -3.4052074   -1.9763295  0.036399483   -3.4052074    1.4288779   318619 
 4863000   0.69266309   -3.4080539   -1.9763005  0.034126286   -3.4080539    1.4317534   318617 
 4864000   0.69143034   -3.4049478   -1.9754823  0.032910934   -3.4049478    1.4294655   318559 
 4865000   0.69168632    -3.407833   -1.9775869    0.0356911    -3.407833    1.4302462   318503 
 4866000   0.69344412   -3.4112003   -1.9772023  0.030171309   -3.4112003    1.4339979   318477 
 4867000   0.69190963   -3.4079623   -1.9771556  0.033251773   -3.4079623    1.4308067   318481 
 4868000   0.69275891   -3.4079561   -1.9751187  0.037521129   -3.4079561    1.4328374   318420 
 4869000   0.69085473   -3.4061217   -1.9770567   0.03212382   -3.4061217     1.429065   318383 
 4870000   0.69184553   -3.4088074   -1.9775041  0.027620928   -3.4088074    1.4313034   318341 
 4871000   0.69161296   -3.4088063   -1.9778267  0.029357547   -3.4088063    1.4309796   318306 
 4872000   0.69125693   -3.4080756   -1.9777967  0.032871951   -3.4080756    1.4302789   318298 
 4873000   0.69155264   -3.4046042   -1.9738214  0.035121199   -3.4046042    1.4307828   318322 
 4874000    0.6907537   -3.4047766   -1.9753369  0.027169479   -3.4047766    1.4294397   318253 
 4875000   0.69116637   -3.4046813   -1.9742168  0.031644744   -3.4046813    1.4304645   318215 
 4876000   0.69243087   -3.4052325   -1.9719528   0.03079714   -3.4052325    1.4332797   318171 
 4877000   0.69241516   -3.4035909   -1.9701589  0.031073191   -3.4035909    1.4334319   318130 
 4878000   0.69198038   -3.4044597   -1.9718333  0.029987129   -3.4044597    1.4326264   318109 
 4879000   0.69207452   -3.4047591   -1.9719783  0.031366901   -3.4047591    1.4327808   318118 
 4880000   0.69012633   -3.4004339   -1.9715157  0.031340518   -3.4004339    1.4289182   318080 
 4881000   0.68932646   -3.4001192   -1.9727046  0.027485858   -3.4001192    1.4274146   318046 
 4882000   0.68992632   -3.3993131   -1.9704946  0.032368806   -3.3993131    1.4288185   318010 
 4883000    0.6903535   -3.4003053   -1.9704897  0.027474188   -3.4003053    1.4298156   317985 
 4884000   0.69113237   -3.4013904   -1.9698446    0.0323247   -3.4013904    1.4315458   317959 
 4885000   0.69074522   -3.4011135   -1.9698655  0.033370664   -3.4011135     1.431248   317847 
 4886000   0.69092673   -3.4015225   -1.9697542  0.031545221   -3.4015225    1.4317683   317815 
 4887000   0.69039317   -3.3999626   -1.9691604  0.031054319   -3.3999626    1.4308022   317784 
 4888000   0.69068393   -3.3998775   -1.9683286  0.034225314   -3.3998775    1.4315489   317752 
 4889000    0.6922988   -3.4060097   -1.9707705  0.030608708   -3.4060097    1.4352393   317676 
 4890000   0.69084253   -3.4029464   -1.9705594  0.031514439   -3.4029464     1.432387   317639 
 4891000   0.69115427   -3.4021932   -1.9689071  0.033530691   -3.4021932    1.4332861   317583 
 4892000   0.69136647    -3.400609   -1.9667655  0.036211413    -3.400609    1.4338435   317557 
 4893000   0.69002468   -3.3991688   -1.9681171  0.029793749   -3.3991688    1.4310517   317559 
 4894000   0.69062141   -3.3996377   -1.9671905  0.032295495   -3.3996377    1.4324472   317524 
 4895000   0.68969937   -3.3988332   -1.9681183  0.035830531   -3.3988332     1.430715   317484 
 4896000   0.69098387   -3.4003836   -1.9669454    0.0349574   -3.4003836    1.4334382   317471 
 4897000   0.68990268   -3.3975895   -1.9662634  0.033064115   -3.3975895    1.4313261   317442 
 4898000   0.68949789   -3.3962592   -1.9656333  0.033810099   -3.3962592    1.4306259   317411 
 4899000   0.69029327   -3.4002246   -1.9678445  0.028827713   -3.4002246    1.4323801   317388 
 4900000   0.68968352   -3.3995499   -1.9682141  0.033599868   -3.3995499    1.4313358   317339 
 4901000    0.6901087   -3.3996361   -1.9671923  0.032774171   -3.3996361    1.4324439   317289 
 4902000   0.68953946    -3.398347     -1.96699  0.031499286    -3.398347    1.4313571   317268 
 4903000   0.68938325   -3.3998843     -1.96845  0.030694022   -3.3998843    1.4314344   317179 
 4904000   0.68945738   -3.3982273   -1.9666165  0.031659492   -3.3982273    1.4316108   317174 
 4905000   0.69030258    -3.399797   -1.9663317  0.031119266    -3.399797    1.4334653   317152 
 4906000   0.69034744    -3.398614    -1.965033  0.032330854    -3.398614     1.433581   317147 
 4907000   0.69000887   -3.3987602   -1.9658144  0.033554414   -3.3987602    1.4329457   317132 
 4908000   0.69060603   -3.3992677   -1.9647743  0.030297639   -3.3992677    1.4344934   317064 
 4909000   0.68929615   -3.3969306   -1.9647605  0.034480977   -3.3969306    1.4321701   316976 
 4910000   0.68886562   -3.3973835   -1.9657601    0.0320866   -3.3973835    1.4316234   316899 
 4911000   0.68804195    -3.396483   -1.9662329  0.030928852    -3.396483    1.4302501   316824 
 4912000   0.68884372   -3.3975619   -1.9653468   0.03317444   -3.3975619    1.4322151   316758 
 4913000   0.68880739   -3.3986751   -1.9663502  0.033460454   -3.3986751    1.4323249   316717 
 4914000   0.68836039   -3.3976185   -1.9658342  0.029086518   -3.3976185    1.4317842   316631 
 4915000   0.68925842   -3.3977963    -1.964194  0.035265144   -3.3977963    1.4336023   316642 
 4916000    0.6876354    -3.395155   -1.9645579  0.030997429    -3.395155     1.430597   316560 
 4917000   0.68584709    -3.394322   -1.9672246  0.029117955    -3.394322    1.4270974   316511 
 4918000   0.68577291   -3.3943357   -1.9672258  0.034562804   -3.3943357    1.4271099   316474 
 4919000   0.68797912   -3.3999852   -1.9679719  0.029268931   -3.3999852    1.4320133   316405 
 4920000   0.68725575   -3.3985821   -1.9679162  0.032798294   -3.3985821    1.4306659   316370 
 4921000   0.68788635   -3.3992903    -1.966945   0.02904581   -3.3992903    1.4323453   316289 
 4922000   0.68515082   -3.3952432    -1.968445  0.029717674   -3.3952432    1.4267982   316256 
 4923000   0.68680878   -3.3978483   -1.9674528  0.028872449   -3.3978483    1.4303955   316224 
 4924000   0.68690717   -3.3964814   -1.9657588  0.027429498   -3.3964814    1.4307226   316197 
 4925000   0.68528138   -3.3963137   -1.9686297  0.032771422   -3.3963137     1.427684   316120 
 4926000   0.68637209   -3.3983546   -1.9680454  0.032882602   -3.3983546    1.4303092   316042 
 4927000   0.68661223    -3.396894   -1.9659077  0.032188877    -3.396894    1.4309863   316003 
 4928000   0.68677776   -3.3972576   -1.9656137   0.03620634   -3.3972576    1.4316438   315934 
 4929000   0.68649698   -3.3987587   -1.9673649  0.033391577   -3.3987587    1.4313938   315860 
 4930000   0.68747047   -3.4024261   -1.9686756  0.031250015   -3.4024261    1.4337504   315788 
 4931000   0.68510757   -3.3997424   -1.9708068  0.030216558   -3.3997424    1.4289356   315763 
 4932000   0.68600127   -3.3998224    -1.968846  0.032185192   -3.3998224    1.4309763   315724 
 4933000   0.68428618   -3.3982785   -1.9704637  0.030415394   -3.3982785    1.4278148   315632 
 4934000   0.68419221   -3.4000998   -1.9723771  0.033238916   -3.4000998    1.4277228   315609 
 4935000   0.68560288   -3.4015101   -1.9706351  0.032976652   -3.4015101     1.430875   315563 
 4936000    0.6857963   -3.4015421   -1.9700594  0.027806902   -3.4015421    1.4314828   315518 
 4937000   0.68629912   -3.4029328    -1.970128  0.035511039   -3.4029328    1.4328048   315458 
 4938000   0.68459179   -3.4009121    -1.971418  0.034020716   -3.4009121    1.4294941   315402 
 4939000   0.68591231   -3.4034409   -1.9710304  0.031806976   -3.4034409    1.4324105   315367 
 4940000   0.68489195   -3.4012418   -1.9708351  0.035637612   -3.4012418    1.4304066   315339 
 4941000   0.68537569   -3.4020146    -1.970407  0.031940697   -3.4020146    1.4316076   315297 
 4942000   0.68372553   -3.3980695   -1.9698362  0.031679732   -3.3980695    1.4282332   315281 
 4943000    0.6843709   -3.3988689   -1.9691878  0.028301413   -3.3988689    1.4296811   315259 
 4944000   0.68425964   -3.3989225   -1.9692879  0.034957019   -3.3989225    1.4296346   315218 
 4945000   0.68470373   -3.4024433   -1.9718899  0.030594726   -3.4024433    1.4305534   315220 
 4946000   0.68359565   -3.3991763   -1.9706571  0.031239587   -3.3991763    1.4285192   315158 
 4947000   0.68397573   -3.3983507   -1.9687061  0.031078474   -3.3983507    1.4296446   315085 
 4948000   0.68561769   -3.4011596   -1.9677736   0.02922819   -3.4011596     1.433386   315017 
 4949000   0.68383042   -3.3972649   -1.9675383   0.03069805   -3.3972649    1.4297266   315000 
 4950000   0.68296506   -3.3981053   -1.9699205  0.030557862   -3.3981053    1.4281848   314941 
 4951000   0.68389659   -3.4025499   -1.9719856  0.029631842   -3.4025499    1.4305643   314846 
 4952000   0.68366208    -3.401005   -1.9706859  0.035749196    -3.401005    1.4303191   314792 
 4953000   0.68385933   -3.4013616   -1.9704753  0.031094469   -3.4013616    1.4308863   314758 
 4954000   0.68448137   -3.4019487   -1.9696562  0.035712523   -3.4019487    1.4322925   314735 
 4955000   0.68514365   -3.4011102   -1.9673271  0.034412079   -3.4011102    1.4337831   314712 
 4956000   0.68444694   -3.3969586   -1.9646061  0.036757215   -3.3969586    1.4323525   314706 
 4957000    0.6833553   -3.3959251   -1.9655435  0.030814527   -3.3959251    1.4303816   314637 
 4958000   0.68311499   -3.3966799   -1.9665923  0.033985379   -3.3966799    1.4300876   314591 
 4959000   0.68284924   -3.3981836   -1.9684023  0.029765239   -3.3981836    1.4297813   314536 
 4960000   0.68297713   -3.3981488   -1.9676404  0.027607769   -3.3981488    1.4305084   314435 
 4961000   0.68266243   -3.3980952   -1.9681595  0.033486819   -3.3980952    1.4299357   314416 
 4962000   0.68229435   -3.3984955   -1.9690808  0.035073257   -3.3984955    1.4294147   314361 
 4963000   0.68376368   -3.4001879    -1.967499  0.025078807   -3.4001879    1.4326889   314318 
 4964000   0.68356863   -3.4009891    -1.968253  0.031533932   -3.4009891    1.4327361   314218 
 4965000   0.68178119    -3.398971   -1.9696539  0.029721092    -3.398971    1.4293172   314146 
 4966000   0.68053711   -3.3967114   -1.9698161  0.031083986   -3.3967114    1.4268953   314105 
 4967000     0.680954    -3.394433   -1.9664773  0.034008882    -3.394433    1.4279558   314064 
 4968000   0.68085694   -3.3970751   -1.9690728  0.033601328   -3.3970751    1.4280023   314009 
 4969000   0.68149012    -3.399724    -1.970157  0.031182424    -3.399724     1.429567   313957 
 4970000   0.68169679   -3.3994803   -1.9692839  0.032572336   -3.3994803    1.4301965   313914 
 4971000   0.68122965   -3.3994643   -1.9701933  0.030512357   -3.3994643     1.429271   313902 
 4972000   0.68169447   -3.3998208   -1.9694652  0.028214276   -3.3998208    1.4303556   313878 
 4973000    0.6806318   -3.3961548   -1.9676921  0.032707666   -3.3961548    1.4284627   313804 
 4974000   0.68143095   -3.3968371   -1.9665286  0.030203177   -3.3968371    1.4303085   313767 
 4975000   0.68074219   -3.3969855   -1.9679769  0.031277836   -3.3969855    1.4290086   313735 
 4976000   0.68104346   -3.3965432   -1.9666333  0.033349362   -3.3965432    1.4299099   313676 
 4977000   0.68121665   -3.3964733   -1.9662727  0.030302405   -3.3964733    1.4302006   313692 
 4978000   0.68082977   -3.3955187   -1.9659162  0.033693747   -3.3955187    1.4296025   313645 
 4979000   0.68071704   -3.3971009   -1.9672838  0.032861451   -3.3971009    1.4298171   313546 
 4980000   0.68145484   -3.3978474   -1.9662934  0.034240856   -3.3978474     1.431554   313505 
 4981000    0.6808987   -3.3965938   -1.9659343  0.031862071   -3.3965938    1.4306595   313445 
 4982000   0.68102603   -3.3954575   -1.9642154  0.034816205   -3.3954575    1.4312421   313376 
 4983000   0.68190882   -3.3978386   -1.9645354   0.03300335   -3.3978386    1.4333032   313331 
 4984000   0.68058265   -3.3951805   -1.9643908  0.027735579   -3.3951805    1.4307897   313271 
 4985000   0.67887287   -3.3916738   -1.9642552  0.033822983   -3.3916738    1.4274185   313222 
 4986000   0.68132571   -3.3950449   -1.9622631  0.032445544   -3.3950449    1.4327818   313177 
 4987000   0.67976194   -3.3930294   -1.9633489  0.032452878   -3.3930294    1.4296804   313136 
 4988000   0.67949133   -3.3943367   -1.9650748  0.032371767   -3.3943367    1.4292619   313103 
 4989000   0.67996032   -3.3935443   -1.9630674  0.028479338   -3.3935443    1.4304768   313053 
 4990000   0.67999557   -3.3954697   -1.9645805  0.029285418   -3.3954697    1.4308892   312979 
 4991000   0.67845114   -3.3928961   -1.9651016  0.033348968   -3.3928961    1.4277945   312945 
 4992000    0.6785897    -3.391311   -1.9632979   0.02859753    -3.391311     1.428013   312961 
 4993000   0.67876467   -3.3914529   -1.9628206  0.031105358   -3.3914529    1.4286323   312906 
 4994000   0.67916027   -3.3904011   -1.9606986  0.033125399   -3.3904011    1.4297025   312854 
 4995000   0.67974943   -3.3931682   -1.9619417  0.027783726   -3.3931682    1.4312264   312792 
 4996000   0.67863331   -3.3918873   -1.9627778  0.029090771   -3.3918873    1.4291094   312741 
 4997000   0.67831105   -3.3906319   -1.9618036  0.031981521   -3.3906319    1.4288283   312654 
 4998000   0.67846242    -3.391846   -1.9623743  0.037320841    -3.391846    1.4294717   312583 
 4999000   0.67934991   -3.3928512    -1.961418  0.030681597   -3.3928512    1.4314332   312563 
 5000000    0.6792666    -3.392536   -1.9609806  0.030405465    -3.392536    1.4315554   312498 
 5001000   0.67760454   -3.3922202   -1.9638706  0.032495346   -3.3922202    1.4283497   312433 
 5002000   0.67866662   -3.3923984   -1.9614527  0.038771633   -3.3923984    1.4309457   312355 
 5003000   0.67866302    -3.392689   -1.9615722  0.027908894    -3.392689    1.4311168   312316 
 5004000   0.67640786   -3.3910962   -1.9644334  0.026986214   -3.3910962    1.4266628   312250 
 5005000   0.67665151   -3.3917781   -1.9642449  0.035184186   -3.3917781    1.4275333   312172 
 5006000   0.67881165   -3.3931969   -1.9610651  0.035311233   -3.3931969    1.4321318   312163 
 5007000   0.67969562    -3.395556   -1.9610629  0.034902434    -3.395556    1.4344931   312055 
 5008000   0.67866969   -3.3943463   -1.9617063  0.032986131   -3.3943463      1.43264   311987 
 5009000   0.67779469   -3.3919373   -1.9607727   0.03341753   -3.3919373    1.4311645   311906 
 5010000   0.67685434   -3.3901732   -1.9608201   0.03969733   -3.3901732    1.4293531   311868 
 5011000   0.67740248   -3.3920657    -1.961266  0.030249249   -3.3920657    1.4307997   311805 
 5012000   0.67662017   -3.3913791   -1.9618972  0.031741359   -3.3913791     1.429482   311732 
 5013000   0.67579312   -3.3892406   -1.9614143    0.0337062   -3.3892406    1.4278263   311712 
 5014000   0.67673129   -3.3907286   -1.9608926  0.028525884   -3.3907286     1.429836   311706 
 5015000   0.67548823    -3.387778   -1.9604219  0.024053219    -3.387778    1.4273561   311674 
 5016000   0.67567601   -3.3878238   -1.9599334  0.027460272   -3.3878238    1.4278904   311644 
 5017000    0.6756568   -3.3877021    -1.959582  0.025976541   -3.3877021    1.4281201   311585 
 5018000   0.67512903    -3.386166   -1.9590056  0.031966549    -3.386166    1.4271603   311551 
 5019000   0.67602107   -3.3872901   -1.9580239  0.037896228   -3.3872901    1.4292662   311503 
 5020000   0.67562051   -3.3863063   -1.9577402  0.035278178   -3.3863063    1.4285661   311471 
 5021000   0.67546715   -3.3874933   -1.9588157  0.036832005   -3.3874933    1.4286776   311376 
 5022000   0.67508719   -3.3869406   -1.9589383  0.032343835   -3.3869406    1.4280023   311348 
 5023000   0.67482051   -3.3878001   -1.9602885  0.023809849   -3.3878001    1.4275116   311332 
 5024000   0.67428276   -3.3881119   -1.9611879    0.0286607   -3.3881119     1.426924   311212 
 5025000   0.67365507   -3.3861082   -1.9602055  0.031055708   -3.3861082    1.4259027   311145 
 5026000   0.67493148   -3.3892414   -1.9604992  0.031665644   -3.3892414    1.4287422   311115 
 5027000   0.67547071   -3.3882024   -1.9582268  0.029262763   -3.3882024    1.4299756   311095 
 5028000   0.67513993   -3.3896029     -1.96013  0.028700982   -3.3896029    1.4294729   311052 
 5029000    0.6744803   -3.3899082   -1.9617218  0.027486275   -3.3899082    1.4281865   311028 
 5030000    0.6749718     -3.39076   -1.9612341  0.029677908     -3.39076     1.429526   310963 
 5031000    0.6741069   -3.3880567   -1.9601329  0.031124684   -3.3880567    1.4279238   310913 
 5032000   0.67565935   -3.3926655   -1.9610665  0.029315337   -3.3926655     1.431599   310829 
 5033000   0.67595274   -3.3945586   -1.9620753  0.028200424   -3.3945586    1.4324833   310772 
 5034000   0.67615953   -3.3966928   -1.9635914  0.031772832   -3.3966928    1.4331014   310733 
 5035000   0.67446838   -3.3938457   -1.9641538  0.035888015   -3.3938457    1.4296919   310695 
 5036000   0.67531961   -3.3949928   -1.9632846  0.034291378   -3.3949928    1.4317083   310649 
 5037000   0.67399172   -3.3951169    -1.966095  0.033611879   -3.3951169    1.4290219   310621 
 5038000   0.67451248   -3.3960934   -1.9657648  0.032703321   -3.3960934    1.4303286   310577 
 5039000   0.67613919   -3.3990691   -1.9650555  0.028351806   -3.3990691    1.4340136   310526 
 5040000   0.67512169   -3.3974468   -1.9654298  0.033657247   -3.3974468     1.432017   310491 
 5041000   0.67551005   -3.3971904   -1.9643865  0.032858983   -3.3971904    1.4328039   310499 
 5042000   0.67504892   -3.3978799   -1.9658281   0.03092704   -3.3978799    1.4320518   310450 
 5043000   0.67390297   -3.3956697   -1.9656943  0.029230281   -3.3956697    1.4299754   310373 
 5044000   0.67399105   -3.3931547   -1.9628588  0.031143921   -3.3931547     1.430296   310344 
 5045000   0.67335382   -3.3932453   -1.9639331  0.034324522   -3.3932453    1.4293121   310264 
 5046000   0.67458749   -3.3962706   -1.9641967   0.03390354   -3.3962706    1.4320739   310233 
 5047000   0.67470921   -3.3962514    -1.963522  0.032267775   -3.3962514    1.4327294   310147 
 5048000   0.67468387   -3.3963776   -1.9634849  0.031689762   -3.3963776    1.4328928   310100 
 5049000   0.67372749    -3.395245   -1.9643418  0.032132672    -3.395245    1.4309031   310091 
 5050000   0.67293515   -3.3929713   -1.9636173  0.029273897   -3.3929713     1.429354   310062 
 5051000   0.67299779   -3.3918072   -1.9621864  0.027862704   -3.3918072    1.4296208   310033 
 5052000   0.67357181     -3.39241    -1.961676   0.03434426     -3.39241     1.430734   310056 
 5053000   0.67296454   -3.3917381   -1.9620404  0.030736389   -3.3917381    1.4296977   310001 
 5054000   0.67275381   -3.3929392   -1.9633941  0.028148773   -3.3929392    1.4295451   309937 
 5055000   0.67311991   -3.3932392   -1.9625653  0.030691269   -3.3932392    1.4306739   309861 
 5056000   0.67251619   -3.3921163   -1.9624903  0.032665766   -3.3921163     1.429626   309810 
 5057000   0.67294546   -3.3909848   -1.9604647  0.031302878   -3.3909848    1.4305201   309814 
 5058000   0.67303838   -3.3919424   -1.9609107  0.030104458   -3.3919424    1.4310317   309746 
 5059000   0.67373726   -3.3955992   -1.9626189  0.032271363   -3.3955992    1.4329803   309646 
 5060000    0.6725256   -3.3940061   -1.9632425  0.040222514   -3.3940061    1.4307636   309568 
 5061000   0.67131736   -3.3927787    -1.964484  0.032425574   -3.3927787    1.4282947   309546 
 5062000   0.67238825   -3.3912584   -1.9607454  0.031679587   -3.3912584     1.430513   309559 
 5063000   0.67224472   -3.3910994   -1.9608686  0.029710846   -3.3910994    1.4302308   309554 
 5064000   0.67130527   -3.3900963   -1.9616751  0.029894714   -3.3900963    1.4284212   309513 
 5065000   0.67036594   -3.3920003    -1.965126  0.026294189   -3.3920003    1.4268743   309415 
 5066000   0.67057313   -3.3922322   -1.9649262  0.030694816   -3.3922322    1.4273061   309417 
 5067000   0.67175877   -3.3918367   -1.9617806  0.031258526   -3.3918367    1.4300561   309368 
 5068000   0.67106975   -3.3892349   -1.9604701  0.038439006   -3.3892349    1.4287648   309330 
 5069000   0.67221174   -3.3935897   -1.9619399   0.03156939   -3.3935897    1.4316498   309232 
 5070000   0.67359554     -3.39646   -1.9615428  0.033126662     -3.39646    1.4349171   309163 
 5071000   0.67164704   -3.3907595   -1.9596969    0.0312011   -3.3907595    1.4310626   309099 
 5072000   0.66952938   -3.3899715   -1.9630424  0.033722368   -3.3899715    1.4269291   309017 
 5073000   0.67004156    -3.390091   -1.9619178   0.03265533    -3.390091    1.4281732   308984 
 5074000   0.67012787   -3.3888905    -1.960464  0.034590621   -3.3888905    1.4284265   308969 
 5075000    0.6696026   -3.3893389   -1.9617225   0.02725415   -3.3893389    1.4276164   308902 
 5076000   0.67040239   -3.3885854   -1.9588935  0.031683817   -3.3885854    1.4296919   308822 
 5077000   0.67072203    -3.390034   -1.9595169  0.029923184    -3.390034    1.4305171   308791 
 5078000   0.67167974   -3.3908778   -1.9581464   0.03133919   -3.3908778    1.4327314   308754 
 5079000   0.66994769   -3.3890694   -1.9599168  0.032355611   -3.3890694    1.4291526   308729 
 5080000   0.67039217   -3.3875218   -1.9570875  0.034221148   -3.3875218    1.4304344   308657 
 5081000   0.66912468   -3.3858616   -1.9580299  0.033189991   -3.3858616    1.4278317   308635 
 5082000   0.66934894    -3.386698   -1.9581796  0.031165111    -3.386698    1.4285185   308590 
 5083000   0.66924388   -3.3872666    -1.958764  0.028774104   -3.3872666    1.4285026   308545 
 5084000   0.66944541    -3.386794   -1.9574629  0.031612277    -3.386794    1.4293311   308459 
 5085000   0.66953761   -3.3878598   -1.9582299  0.031496399   -3.3878598      1.42963   308437 
 5086000   0.66933394   -3.3862421   -1.9568338  0.031485137   -3.3862421    1.4294082   308391 
 5087000   0.66836663   -3.3847098   -1.9570988  0.031772823   -3.3847098     1.427611   308333 
 5088000   0.66977296   -3.3886101   -1.9577957  0.028472261   -3.3886101    1.4308144   308290 
 5089000   0.66903434   -3.3856504   -1.9562979  0.029980619   -3.3856504    1.4293524   308265 
 5090000   0.66979955   -3.3856324   -1.9545151  0.033393219   -3.3856324    1.4311172   308237 
 5091000   0.66928614   -3.3864335   -1.9562973  0.030412511   -3.3864335    1.4301363   308212 
 5092000   0.66925189    -3.386789   -1.9564336  0.032194764    -3.386789    1.4303554   308149 
 5093000   0.67016764   -3.3876429   -1.9553257  0.026547835   -3.3876429    1.4323173   308148 
 5094000   0.66945868   -3.3873632   -1.9561942  0.030594602   -3.3873632     1.431169   308069 
 5095000   0.66852958   -3.3867022   -1.9572364  0.035165956   -3.3867022    1.4294658   308008 
 5096000   0.66906626   -3.3885606   -1.9578962  0.033892508   -3.3885606    1.4306644   307997 
 5097000    0.6702388   -3.3892552   -1.9559066  0.031490026   -3.3892552    1.4333485   307959 
 5098000     0.669054   -3.3868905   -1.9560943  0.032668089   -3.3868905    1.4307961   307963 
 5099000   0.66899946   -3.3878638   -1.9569613  0.033355203   -3.3878638    1.4309025   307915 
 5100000   0.66764011   -3.3867367   -1.9584402  0.031380018   -3.3867367    1.4282966   307850 
 5101000   0.66744654   -3.3835569   -1.9554332  0.033007282   -3.3835569    1.4281237   307798 
 5102000   0.67055667   -3.3886798   -1.9540553  0.031816792   -3.3886798    1.4346246   307831 
 5103000   0.66989127   -3.3870479   -1.9537072  0.035766373   -3.3870479    1.4333407   307801 
 5104000   0.66968404   -3.3864278   -1.9533536   0.03678283   -3.3864278    1.4330742   307763 
 5105000   0.66911187   -3.3851862   -1.9532805  0.035597752   -3.3851862    1.4319056   307751 
 5106000   0.66836656   -3.3855938   -1.9548787   0.03432823   -3.3855938    1.4307151   307664 
 5107000   0.66824501   -3.3867352   -1.9560803  0.031689433   -3.3867352    1.4306549   307621 
 5108000   0.66778785   -3.3866105    -1.956781  0.029197888   -3.3866105    1.4298295   307588 
 5109000   0.66720241   -3.3842112   -1.9553333  0.033860618   -3.3842112     1.428878   307523 
 5110000   0.66776208   -3.3851291   -1.9548805  0.031294097   -3.3851291    1.4302486   307486 
 5111000   0.66890599   -3.3866271   -1.9537466  0.030721677   -3.3866271    1.4328804   307447 
 5112000   0.66945994   -3.3874499   -1.9530843  0.033037619   -3.3874499    1.4343657   307383 
 5113000   0.66966202   -3.3873122   -1.9520653  0.029638618   -3.3873122    1.4352469   307287 
 5114000   0.66779034   -3.3852931   -1.9537176  0.036424594   -3.3852931    1.4315755   307214 
 5115000   0.66881909   -3.3878496    -1.953728   0.03041794   -3.3878496    1.4341217   307141 
 5116000   0.66636566    -3.382345   -1.9533026  0.035924688    -3.382345    1.4290423   307102 
 5117000   0.66843668   -3.3858296   -1.9521591  0.031668685   -3.3858296    1.4336704   307062 
 5118000   0.66870866   -3.3872642   -1.9527161  0.029474535   -3.3872642    1.4345481   306999 
 5119000   0.66663872   -3.3839413   -1.9539688  0.031255475   -3.3839413    1.4299725   307028 
 5120000   0.66687965   -3.3834471   -1.9529484   0.03027296   -3.3834471    1.4304986   307026 
 5121000   0.66646428   -3.3808328   -1.9510716  0.034202795   -3.3808328    1.4297613   306993 
 5122000     0.666716   -3.3813853   -1.9508743  0.033225262   -3.3813853     1.430511   306948 
 5123000   0.66749151   -3.3818044   -1.9495175  0.030336896   -3.3818044    1.4322869   306924 
 5124000   0.66712248    -3.381245   -1.9494514  0.031770409    -3.381245    1.4317936   306860 
 5125000   0.66634624   -3.3816669   -1.9514507  0.033285026   -3.3816669    1.4302162   306841 
 5126000   0.66803343   -3.3828084   -1.9488167  0.030620449   -3.3828084    1.4339917   306808 
 5127000   0.66651641   -3.3786776   -1.9477557  0.031012892   -3.3786776    1.4309219   306768 
 5128000   0.66787181   -3.3807957   -1.9467021  0.035432902   -3.3807957    1.4340935   306712 
 5129000   0.66709456   -3.3799148   -1.9473595  0.038343706   -3.3799148    1.4325554   306684 
 5130000   0.66569694   -3.3788806   -1.9491308  0.035475024   -3.3788806    1.4297498   306642 
 5131000   0.66544497   -3.3779386   -1.9485108  0.032571392   -3.3779386    1.4294278   306595 
 5132000   0.66509328   -3.3772067   -1.9483387   0.02969282   -3.3772067     1.428868   306553 
 5133000    0.6650655     -3.37855   -1.9496391   0.02884407     -3.37855    1.4289109   306531 
 5134000   0.66386934   -3.3784753   -1.9516271  0.032690394   -3.3784753    1.4268483   306422 
 5135000   0.66512791   -3.3793157   -1.9496318  0.029808229   -3.3793157     1.429684   306394 
 5136000   0.66631617   -3.3799521   -1.9474475  0.033733265   -3.3799521    1.4325046   306337 
 5137000   0.66564848   -3.3776322   -1.9465117   0.03636691   -3.3776322    1.4311205   306326 
 5138000   0.66755831   -3.3822238   -1.9466645  0.028476616   -3.3822238    1.4355594   306255 
 5139000   0.66653839   -3.3782802   -1.9448907   0.03183394   -3.3782802    1.4333894   306250 
 5140000   0.66539956   -3.3765364   -1.9454418  0.030579886   -3.3765364    1.4310946   306217 
 5141000   0.66571736   -3.3759002   -1.9438181   0.03247058   -3.3759002    1.4320821   306152 
 5142000   0.66611345   -3.3765564   -1.9434163  0.026791042   -3.3765564    1.4331401   306108 
 5143000   0.66590521   -3.3766604   -1.9438372  0.029450448   -3.3766604    1.4328232   306080 
 5144000   0.66564495   -3.3755216   -1.9430665  0.029795601   -3.3755216     1.432455   306039 
 5145000   0.66571186   -3.3757577   -1.9427982   0.03507417   -3.3757577    1.4329596   305962 
 5146000   0.66546627    -3.376982    -1.944331  0.030691484    -3.376982     1.432651   305915 
 5147000   0.66624473   -3.3772552    -1.942783  0.034195511   -3.3772552    1.4344723   305884 
 5148000   0.66607252   -3.3776305   -1.9433133   0.03236858   -3.3776305    1.4343172   305838 
 5149000   0.66656403    -3.376643   -1.9412064  0.032443234    -3.376643    1.4354366   305825 
 5150000    0.6653129   -3.3751959   -1.9425145  0.031764028   -3.3751959    1.4326814   305838 
 5151000   0.66578241    -3.376204   -1.9424131  0.032498324    -3.376204    1.4337909   305817 
 5152000   0.66501398   -3.3740663   -1.9416023  0.034110413   -3.3740663     1.432464   305747 
 5153000   0.66642802   -3.3757683   -1.9399203  0.033773066   -3.3757683     1.435848   305675 
 5154000   0.66521247   -3.3762184   -1.9427689  0.036055541   -3.3762184    1.4334494   305628 
 5155000   0.66537277   -3.3747703   -1.9409707  0.034957219   -3.3747703    1.4337995   305627 
 5156000   0.66516484   -3.3740544    -1.940581  0.034845178   -3.3740544    1.4334734   305601 
 5157000   0.66497609    -3.373471   -1.9401558  0.031215282    -3.373471    1.4333152   305548 
 5158000   0.66617321   -3.3765923   -1.9404241  0.033809724   -3.3765923    1.4361682   305490 
 5159000   0.66423577   -3.3759772   -1.9437045  0.033827813   -3.3759772    1.4322726   305430 
 5160000   0.66529303   -3.3781366   -1.9434621   0.02948431   -3.3781366    1.4346745   305404 
 5161000   0.66429666   -3.3771737    -1.944418  0.030828268   -3.3771737    1.4327558   305355 
 5162000   0.66467045   -3.3760269   -1.9424603  0.031461757   -3.3760269    1.4335667   305354 
 5163000    0.6646543   -3.3756937   -1.9420539  0.034084119   -3.3756937    1.4336398   305331 
 5164000   0.66621968   -3.3781304   -1.9410624  0.030570961   -3.3781304     1.437068   305320 
 5165000   0.66488003   -3.3734798   -1.9390806  0.033909643   -3.3734798    1.4343992   305273 
 5166000   0.66427964   -3.3719133   -1.9387202  0.036940981   -3.3719133    1.4331931   305254 
 5167000   0.66336171   -3.3714788   -1.9400973   0.03416482   -3.3714788    1.4313815   305218 
 5168000   0.66375985    -3.372719   -1.9402391  0.031840704    -3.372719    1.4324799   305167 
 5169000    0.6626681   -3.3714893    -1.941164  0.035035133   -3.3714893    1.4303253   305124 
 5170000   0.66255395   -3.3721132   -1.9417952  0.028835523   -3.3721132     1.430318   305073 
 5171000    0.6649551    -3.376492    -1.940675  0.033457157    -3.376492    1.4358169   305006 
 5172000   0.66505356   -3.3759174   -1.9394122  0.036799889   -3.3759174    1.4365052   304905 
 5173000   0.66403771   -3.3757468   -1.9411488  0.029444006   -3.3757468     1.434598   304844 
 5174000   0.66488316   -3.3754108   -1.9387695  0.031988975   -3.3754108    1.4366413   304798 
 5175000   0.66455796   -3.3770768   -1.9408178  0.033190834   -3.3770768    1.4362591   304730 
 5176000   0.66472948   -3.3777284    -1.940811  0.034054525   -3.3777284    1.4369174   304669 
 5177000   0.66248814   -3.3724265   -1.9402178  0.035097255   -3.3724265    1.4322087   304640 
 5178000   0.66378209   -3.3743202   -1.9392387  0.031163095   -3.3743202    1.4350814   304624 
 5179000   0.66486694   -3.3759354   -1.9383623  0.033772849   -3.3759354    1.4375731   304593 
 5180000   0.66578217    -3.378012   -1.9382283  0.032990454    -3.378012    1.4397837   304544 
 5181000   0.66294066   -3.3731858   -1.9392881  0.032469975   -3.3731858    1.4338977   304489 
 5182000   0.66344855   -3.3715153   -1.9363682  0.032658134   -3.3715153    1.4351471   304457 
 5183000   0.66375033   -3.3730668    -1.936998  0.032660166   -3.3730668    1.4360688   304400 
 5184000   0.66351671   -3.3728782   -1.9372348   0.03076346   -3.3728782    1.4356435   304383 
 5185000    0.6615867     -3.36742   -1.9360136  0.034954762     -3.36742    1.4314064   304396 
 5186000   0.66180122   -3.3674042   -1.9354584  0.032138013   -3.3674042    1.4319458   304380 
 5187000   0.66117967   -3.3677851   -1.9367845  0.031098421   -3.3677851    1.4310006   304295 
 5188000    0.6621612   -3.3686318   -1.9353797  0.027705053   -3.3686318    1.4332521   304268 
 5189000   0.66183823   -3.3701245   -1.9373548  0.029472014   -3.3701245    1.4327696   304222 
 5190000   0.66068794   -3.3645956   -1.9341186  0.033282899   -3.3645956    1.4304769   304180 
 5191000   0.66385662   -3.3685984   -1.9312183  0.034163465   -3.3685984    1.4373801   304171 
 5192000   0.66320049   -3.3677106    -1.931619  0.035206385   -3.3677106    1.4360916   304143 
 5193000   0.66281181    -3.366737   -1.9313879  0.029337135    -3.366737    1.4353491   304122 
 5194000    0.6638302   -3.3666757   -1.9289227  0.034774517   -3.3666757     1.437753   304080 
 5195000   0.66279496   -3.3656171   -1.9298041  0.029948895   -3.3656171     1.435813   304016 
 5196000   0.66304956   -3.3657718    -1.929067      0.03292   -3.3657718    1.4367048   303944 
 5197000   0.66186517   -3.3634955   -1.9292249  0.036081078   -3.3634955    1.4342706   303916 
 5198000   0.66139371   -3.3633579   -1.9299675  0.038610382   -3.3633579    1.4333904   303886 
 5199000   0.66156657   -3.3651231   -1.9309097  0.033927916   -3.3651231    1.4342134   303791 
 5200000    0.6621945   -3.3646619   -1.9289171  0.029594719   -3.3646619    1.4357448   303755 
 5201000   0.66210958   -3.3648858    -1.929051  0.033790175   -3.3648858    1.4358349   303697 
 5202000   0.66074112    -3.361932   -1.9290836  0.028657891    -3.361932    1.4328484   303701 
 5203000   0.66029199   -3.3593457    -1.927094  0.033477398   -3.3593457    1.4322517   303621 
 5204000   0.65976911   -3.3582766   -1.9268998  0.031122954   -3.3582766    1.4313768   303566 
 5205000   0.65909301   -3.3598663    -1.929749  0.030461442   -3.3598663    1.4301173   303522 
 5206000   0.65992942   -3.3614577   -1.9292802  0.033387012   -3.3614577    1.4321775   303470 
 5207000   0.65918232   -3.3612811   -1.9304845  0.031689911   -3.3612811    1.4307966   303419 
 5208000   0.65939132     -3.36085   -1.9291373  0.031702507     -3.36085    1.4317127   303321 
 5209000   0.66102116   -3.3623669   -1.9266941   0.03200746   -3.3623669    1.4356728   303232 
 5210000   0.66060379   -3.3618331   -1.9269249  0.038307185   -3.3618331    1.4349082   303202 
 5211000   0.66165738   -3.3641417   -1.9265372  0.031726691   -3.3641417    1.4376045   303116 
 5212000   0.65978539   -3.3617193   -1.9277516   0.03540481   -3.3617193    1.4339677   303025 
 5213000   0.65924093   -3.3611557   -1.9280497  0.031843982   -3.3611557     1.433106   302957 
 5214000   0.65945691    -3.360759   -1.9270463  0.033502565    -3.360759    1.4337127   302928 
 5215000   0.65904669   -3.3609373   -1.9278326  0.033194037   -3.3609373    1.4331047   302868 
 5216000   0.65756351   -3.3601848   -1.9299039  0.033230257   -3.3601848    1.4302809   302783 
 5217000    0.6576001   -3.3599892   -1.9293074  0.029932989   -3.3599892    1.4306818   302715 
 5218000   0.65735964   -3.3598779   -1.9294546  0.026623369   -3.3598779    1.4304233   302659 
 5219000   0.65831087   -3.3603267   -1.9278477  0.031696075   -3.3603267     1.432479   302662 
 5220000    0.6573975   -3.3600536   -1.9291507   0.03249616   -3.3600536    1.4309028   302575 
 5221000   0.65956778   -3.3639898   -1.9280974  0.030953907   -3.3639898    1.4358924   302519 
 5222000   0.65889701    -3.363316   -1.9284285  0.035390537    -3.363316    1.4348875   302423 
 5223000    0.6586075   -3.3642177   -1.9296476  0.032896628   -3.3642177    1.4345701   302357 
 5224000   0.65780465   -3.3627576   -1.9298841  0.030653242   -3.3627576    1.4328735   302346 
 5225000   0.65821387   -3.3617587   -1.9278278  0.029890394   -3.3617587    1.4339309   302311 
 5226000    0.6592837   -3.3640576   -1.9275252  0.032647745   -3.3640576    1.4365324   302254 
 5227000   0.66026534   -3.3650083   -1.9260894  0.033579201   -3.3650083    1.4389188   302202 
 5228000   0.65929817    -3.363673   -1.9266099   0.03655972    -3.363673    1.4370631   302149 
 5229000   0.65836519   -3.3631645   -1.9279165  0.030536619   -3.3631645     1.435248   302103 
 5230000   0.65824709   -3.3623789   -1.9270129  0.033064685   -3.3623789    1.4353659   302024 
 5231000   0.65776959   -3.3634524   -1.9288522  0.031125769   -3.3634524    1.4346002   301966 
 5232000   0.65751485    -3.363617   -1.9293111  0.032180479    -3.363617    1.4343058   301911 
 5233000   0.65821201   -3.3641144   -1.9282308  0.034233128   -3.3641144    1.4358837   301899 
 5234000   0.65724831   -3.3630975   -1.9292733  0.034669726   -3.3630975    1.4338241   301890 
 5235000   0.65759683   -3.3639224   -1.9291241  0.032611851   -3.3639224    1.4347983   301845 
 5236000   0.65697244   -3.3633867   -1.9298463  0.032486672   -3.3633867    1.4335405   301823 
 5237000   0.65772861   -3.3651253   -1.9297875  0.032343648   -3.3651253    1.4353379   301792 
 5238000    0.6574369   -3.3636767   -1.9287235  0.031815524   -3.3636767    1.4349533   301739 
 5239000   0.65694187   -3.3653743   -1.9312972  0.030698833   -3.3653743    1.4340772   301696 
 5240000   0.65709677   -3.3665387   -1.9318761  0.030734427   -3.3665387    1.4346626   301644 
 5241000   0.65658437   -3.3657995    -1.932056  0.034195962   -3.3657995    1.4337435   301602 
 5242000   0.65708982   -3.3656158    -1.930583  0.029897874   -3.3656158    1.4350328   301563 
 5243000   0.65756625   -3.3670745   -1.9307917  0.033810933   -3.3670745    1.4362828   301519 
 5244000   0.65957773   -3.3693293   -1.9287819  0.033308473   -3.3693293    1.4405474   301546 
 5245000   0.65870271   -3.3706021   -1.9316175  0.037116882   -3.3706021    1.4389846   301473 
 5246000   0.65657086   -3.3678273   -1.9330144  0.037353088   -3.3678273    1.4348129   301371 
 5247000   0.65739522   -3.3671193   -1.9304095  0.033766745   -3.3671193    1.4367097   301351 
 5248000   0.65575833   -3.3656045   -1.9323484  0.035943432   -3.3656045     1.433256   301325 
 5249000   0.65611812   -3.3691693   -1.9349174  0.032045502   -3.3691693    1.4342519   301281 
 5250000   0.65476183   -3.3689508   -1.9372645  0.031325642   -3.3689508    1.4316862   301197 
 5251000   0.65561408   -3.3680418   -1.9342207  0.029259676   -3.3680418    1.4338211   301140 
 5252000   0.65550931   -3.3667469   -1.9331216  0.033905356   -3.3667469    1.4336253   301133 
 5253000   0.65480025   -3.3665972   -1.9343943  0.031643948   -3.3665972    1.4322029   301106 
 5254000   0.65514603    -3.368156   -1.9347208  0.035620073    -3.368156    1.4334353   301006 
 5255000   0.65576148   -3.3697339    -1.934809  0.031242498   -3.3697339    1.4349249   300976 
 5256000   0.65535269   -3.3691634   -1.9350044  0.033689287   -3.3691634     1.434159   300949 
 5257000   0.65498483   -3.3688597   -1.9352103  0.028099534   -3.3688597    1.4336494   300887 
 5258000   0.65565073   -3.3710802    -1.935625  0.029023689   -3.3710802    1.4354552   300814 
 5259000   0.65634223    -3.373372   -1.9362978  0.033079121    -3.373372    1.4370742   300792 
 5260000   0.65358921   -3.3675739   -1.9364514  0.034274757   -3.3675739    1.4311225   300776 
 5261000   0.65315188   -3.3688703   -1.9385722  0.029352894   -3.3688703    1.4302981   300748 
 5262000   0.65341222   -3.3694121   -1.9381774  0.031487459   -3.3694121    1.4312347   300671 
 5263000   0.65473849   -3.3704074    -1.936096  0.039045017   -3.3704074    1.4343115   300635 
 5264000   0.65467295    -3.369752   -1.9354554  0.032970421    -3.369752    1.4342967   300608 
 5265000    0.6543454   -3.3679788   -1.9343234  0.035917275   -3.3679788    1.4336554   300592 
 5266000   0.65536666   -3.3699751   -1.9337764  0.032722784   -3.3699751    1.4361987   300528 
 5267000   0.65536899   -3.3702906   -1.9336948  0.032078154   -3.3702906    1.4365958   300446 
 5268000   0.65489303   -3.3667704   -1.9310842  0.037211252   -3.3667704    1.4356863   300418 
 5269000   0.65451904   -3.3678591   -1.9327777  0.033221835   -3.3678591    1.4350814   300373 
 5270000   0.65482254   -3.3674553   -1.9314504  0.035784726   -3.3674553     1.436005   300319 
 5271000   0.65556582   -3.3683683   -1.9308147  0.030147814   -3.3683683    1.4375536   300336 
 5272000   0.65459718    -3.365757   -1.9302032  0.031380873    -3.365757    1.4355538   300310 
 5273000   0.65368576   -3.3661978   -1.9325139  0.030745841   -3.3661978    1.4336839   300283 
 5274000   0.65265934   -3.3640627    -1.932568  0.029646251   -3.3640627    1.4314947   300270 
 5275000   0.65220637   -3.3622111   -1.9316146  0.032247193   -3.3622111    1.4305965   300250 
 5276000   0.65289336   -3.3640227   -1.9313515  0.034886364   -3.3640227    1.4326712   300131 
 5277000   0.65267092   -3.3635221   -1.9310717  0.030666317   -3.3635221    1.4324503   300075 
 5278000   0.65072363   -3.3613018   -1.9331301  0.033946989   -3.3613018    1.4281718   300076 
 5279000   0.65271325   -3.3640181   -1.9312075  0.030291144   -3.3640181    1.4328107   300019 
 5280000   0.65260801     -3.36439   -1.9313805  0.033165696     -3.36439    1.4330095   299929 
 5281000   0.65386186   -3.3657797    -1.929859  0.032721412   -3.3657797    1.4359207   299896 
 5282000   0.65446689   -3.3661846   -1.9288201  0.034772293   -3.3661846    1.4373644   299872 
 5283000   0.65411104   -3.3673327   -1.9304767  0.032142924   -3.3673327     1.436856   299815 
 5284000    0.6549239   -3.3669676   -1.9281532   0.03319938   -3.3669676    1.4388144   299779 
 5285000   0.65621543   -3.3697643   -1.9278576  0.032305406   -3.3697643    1.4419067   299726 
 5286000     0.654638   -3.3652085   -1.9264991  0.036227038   -3.3652085    1.4387094   299670 
 5287000   0.65390507   -3.3672693   -1.9299453   0.03198602   -3.3672693     1.437324   299623 
 5288000   0.65379832   -3.3658263   -1.9284682  0.033217987   -3.3658263     1.437358   299567 
 5289000   0.65127829   -3.3619981   -1.9298935  0.031069916   -3.3619981    1.4321046   299507 
 5290000   0.65128866   -3.3627801   -1.9303705  0.033843866   -3.3627801    1.4324096   299448 
 5291000   0.65169018   -3.3643042    -1.930662  0.033440442   -3.3643042    1.4336422   299375 
 5292000    0.6512249   -3.3620738   -1.9292685    0.0354837   -3.3620738    1.4328053   299336 
 5293000   0.65188708   -3.3626286   -1.9282322   0.03274421   -3.3626286    1.4343964   299308 
 5294000   0.65193064   -3.3614649   -1.9267905  0.036003373   -3.3614649    1.4346744   299270 
 5295000   0.65134962   -3.3610091    -1.927187  0.031090206   -3.3610091    1.4338222   299181 
 5296000   0.65204289   -3.3619617   -1.9263448  0.033861374   -3.3619617     1.435617   299125 
 5297000   0.65016316   -3.3594036   -1.9275471    0.0298094   -3.3594036    1.4318565   299046 
 5298000   0.65094235   -3.3598952   -1.9260877  0.029405108   -3.3598952    1.4338074   298997 
 5299000   0.65033527   -3.3576159   -1.9249732  0.030140707   -3.3576159    1.4326427   298961 
 5300000   0.65067538   -3.3577299    -1.924055  0.029593325   -3.3577299    1.4336749   298902 
 5301000   0.65008128   -3.3567309   -1.9242452  0.030257905   -3.3567309    1.4324857   298877 
 5302000   0.65024474   -3.3559286   -1.9229772  0.036261705   -3.3559286    1.4329514   298855 
 5303000   0.64903583   -3.3562129   -1.9256911  0.029906079   -3.3562129    1.4305218   298806 
 5304000   0.64938238   -3.3580276   -1.9264018  0.030693345   -3.3580276    1.4316258   298735 
 5305000   0.65014468   -3.3578712   -1.9244976  0.032946328   -3.3578712    1.4333736   298721 
 5306000   0.64970889   -3.3554612   -1.9229381  0.025703694   -3.3554612    1.4325231   298698 
 5307000   0.64918464   -3.3552495    -1.923681  0.030737705   -3.3552495    1.4315685   298656 
 5308000   0.64975564   -3.3554344   -1.9222949  0.034734517   -3.3554344    1.4331395   298591 
 5309000   0.64923451   -3.3567038    -1.924565   0.03544946   -3.3567038    1.4321388   298560 
 5310000   0.64986547   -3.3573302   -1.9237468   0.03123646   -3.3573302    1.4335834   298549 
 5311000    0.6496437   -3.3577092   -1.9241732  0.029651859   -3.3577092     1.433536   298457 
 5312000   0.65027095   -3.3567947   -1.9220333   0.03426324   -3.3567947    1.4347614   298490 
 5313000    0.6513384   -3.3594324   -1.9218871  0.033912738   -3.3594324    1.4375453   298401 
 5314000    0.6521844   -3.3595451    -1.920012  0.032666043   -3.3595451    1.4395331   298376 
 5315000   0.65014805   -3.3582521   -1.9230551  0.030068673   -3.3582521    1.4351971   298343 
 5316000   0.64983193   -3.3572321   -1.9225694   0.03298504   -3.3572321    1.4346628   298309 
 5317000   0.64904966   -3.3606505   -1.9272727  0.031437236   -3.3606505    1.4333778   298217 
 5318000    0.6486726   -3.3588287    -1.926274  0.031816603   -3.3588287    1.4325547   298215 
 5319000   0.65027701   -3.3607409   -1.9246622  0.031292718   -3.3607409    1.4360786   298219 
 5320000   0.64960798   -3.3573827    -1.922719  0.028607433   -3.3573827    1.4346637   298206 
 5321000     0.649384   -3.3581651   -1.9236208  0.033605413   -3.3581651    1.4345442   298128 
 5322000    0.6494355   -3.3584667   -1.9235344  0.032249602   -3.3584667    1.4349324   298071 
 5323000   0.64924865    -3.359854   -1.9248868  0.034949094    -3.359854    1.4349672   297978 
 5324000   0.64938324   -3.3607123     -1.92512  0.031473815   -3.3607123    1.4355923   297910 
 5325000   0.64777509   -3.3575621    -1.925246  0.032287746   -3.3575621     1.432316   297852 
 5326000    0.6486738   -3.3616004    -1.927066  0.032585459   -3.3616004    1.4345344   297804 
 5327000   0.64802176   -3.3609977   -1.9275202  0.034480413   -3.3609977    1.4334775   297724 
 5328000    0.6481042   -3.3603998   -1.9266196  0.032109925   -3.3603998    1.4337803   297699 
 5329000   0.64734351    -3.359335   -1.9270741   0.03150474    -3.359335     1.432261   297665 
 5330000   0.64662208   -3.3561817     -1.92519  0.035293298   -3.3561817    1.4309917   297597 
 5331000   0.64871032   -3.3593782   -1.9234468  0.031248453   -3.3593782    1.4359315   297531 
 5332000   0.64804185   -3.3587434   -1.9239974  0.036777794   -3.3587434     1.434746   297470 
 5333000   0.64847718   -3.3607007   -1.9247061  0.030891367   -3.3607007    1.4359946   297411 
 5334000   0.64842164   -3.3582963   -1.9224296   0.03494386   -3.3582963    1.4358668   297412 
 5335000   0.64852007   -3.3602774   -1.9238546  0.037920887   -3.3602774    1.4364228   297342 
 5336000   0.64822618   -3.3611465   -1.9250317  0.036320579   -3.3611465    1.4361148   297271 
 5337000   0.64619266   -3.3601036   -1.9283013  0.036366519   -3.3601036    1.4318023   297231 
 5338000   0.64727668   -3.3615808   -1.9273187  0.030057329   -3.3615808    1.4342621   297219 
 5339000   0.64609358   -3.3585918    -1.926749  0.034186503   -3.3585918    1.4318429   297177 
 5340000   0.64673783   -3.3579225   -1.9247098  0.030760868   -3.3579225    1.4332128   297189 
 5341000    0.6468885   -3.3585559   -1.9247342  0.034365397   -3.3585559    1.4338217   297132 
 5342000   0.64741739   -3.3589274   -1.9237258  0.034324878   -3.3589274    1.4352016   297089 
 5343000   0.64767055   -3.3594258   -1.9233246  0.033732373   -3.3594258    1.4361012   297019 
 5344000   0.64768687    -3.359411   -1.9232495  0.035022874    -3.359411    1.4361616   297014 
 5345000   0.64666105   -3.3590487   -1.9250169  0.027328998   -3.3590487    1.4340318   296984 
 5346000   0.64663144   -3.3596984   -1.9253845  0.029785257   -3.3596984    1.4343139   296912 
 5347000   0.64724813   -3.3613895   -1.9253256  0.032740514   -3.3613895    1.4360639   296833 
 5348000   0.64734481   -3.3598444    -1.923416  0.031954512   -3.3598444    1.4364284   296802 
 5349000   0.64438491   -3.3538796   -1.9238746  0.034251443   -3.3538796     1.430005   296772 
 5350000   0.64441989   -3.3555349   -1.9251389  0.032639048   -3.3555349     1.430396   296707 
 5351000    0.6472611   -3.3615327   -1.9244524  0.031703186   -3.3615327    1.4370803   296629 
 5352000   0.64505309    -3.357064   -1.9246157  0.027567139    -3.357064    1.4324484   296573 
 5353000   0.64618532   -3.3589794   -1.9239829  0.031392224   -3.3589794    1.4349966   296566 
 5354000   0.64591206    -3.358426   -1.9237799   0.03467882    -3.358426    1.4346461   296513 
 5355000   0.64460871   -3.3573983   -1.9250723  0.029999895   -3.3573983     1.432326   296394 
 5356000   0.64540415   -3.3583624   -1.9240995  0.030962806   -3.3583624    1.4342629   296359 
 5357000   0.64577696   -3.3581921   -1.9231007  0.030831611   -3.3581921    1.4350914   296359 
 5358000   0.64490304   -3.3564538   -1.9229514  0.032488125   -3.3564538    1.4335024   296286 
 5359000   0.64578993   -3.3569923    -1.921625  0.035553574   -3.3569923    1.4353672   296308 
 5360000   0.64646987   -3.3577493   -1.9206865  0.034444739   -3.3577493    1.4370628   296270 
 5361000   0.64642046   -3.3578078    -1.920622   0.03827499   -3.3578078    1.4371858   296222 
 5362000   0.64551479   -3.3584813   -1.9229069  0.033262506   -3.3584813    1.4355745   296139 
 5363000   0.64618324   -3.3574946    -1.920453  0.036819815   -3.3574946    1.4370416   296143 
 5364000   0.64580769   -3.3563102   -1.9199971  0.033698358   -3.3563102    1.4363131   296121 
 5365000   0.64464374   -3.3529611   -1.9191834  0.034185607   -3.3529611    1.4337777   296110 
 5366000   0.64353346   -3.3541992   -1.9227314  0.034532052   -3.3541992    1.4314678   296077 
 5367000   0.64543874   -3.3563012   -1.9203237  0.038278454   -3.3563012    1.4359775   296021 
 5368000    0.6459656   -3.3570023   -1.9195613   0.03482477   -3.3570023     1.437441   295961 
 5369000   0.64485783   -3.3556672   -1.9204148  0.038158986   -3.3556672    1.4352524   295904 
 5370000    0.6452044   -3.3565372   -1.9203241  0.028492306   -3.3565372     1.436213   295865 
 5371000    0.6449834   -3.3557651   -1.9198305  0.032755209   -3.3557651    1.4359346   295821 
 5372000   0.64471229   -3.3569396   -1.9214484   0.02903019   -3.3569396    1.4354912   295788 
 5373000   0.64341644    -3.354522   -1.9215915  0.029763974    -3.354522    1.4329305   295721 
 5374000   0.64419625   -3.3555569   -1.9207053  0.036406833   -3.3555569    1.4348515   295683 
 5375000   0.64342319   -3.3543603   -1.9208282  0.029564602   -3.3543603    1.4335321   295600 
 5376000    0.6427901   -3.3542095   -1.9216906  0.035484343   -3.3542095    1.4325189   295518 
 5377000   0.64402172   -3.3549503   -1.9197643  0.028888128   -3.3549503     1.435186   295534 
 5378000   0.64465553   -3.3571037   -1.9202184  0.030055642   -3.3571037    1.4368853   295475 
 5379000   0.64291723   -3.3561787   -1.9230175   0.03194866   -3.3561787    1.4331611   295444 
 5380000   0.64157389   -3.3531787   -1.9227555  0.029983631   -3.3531787    1.4304232   295391 
 5381000   0.64141106   -3.3528291   -1.9225171  0.033573766   -3.3528291     1.430312   295339 
 5382000   0.64379885   -3.3566717   -1.9207774  0.032569842   -3.3566717    1.4358943   295286 
 5383000   0.64412988   -3.3576668   -1.9210828  0.030849434   -3.3576668     1.436584   295296 
 5384000   0.64374857   -3.3561297   -1.9201919  0.036228984   -3.3561297    1.4359378   295254 
 5385000    0.6451904   -3.3591689   -1.9197761  0.030969919   -3.3591689    1.4393928   295205 
 5386000   0.64306793   -3.3554196   -1.9205092   0.03479234   -3.3554196    1.4349104   295153 
 5387000   0.64354295   -3.3573119   -1.9211226  0.034118836   -3.3573119    1.4361893   295108 
 5388000    0.6437105   -3.3579338   -1.9210736  0.037387512   -3.3579338    1.4368602   295047 
 5389000   0.64303752   -3.3587796   -1.9232464  0.033549102   -3.3587796    1.4355332   295011 
 5390000   0.64219518   -3.3573464   -1.9231346  0.034595946   -3.3573464    1.4342118   294896 
 5391000   0.64225712   -3.3592953   -1.9249014   0.02979767   -3.3592953    1.4343939   294887 
 5392000   0.64105197   -3.3559579   -1.9241779  0.032340053   -3.3559579      1.43178   294871 
 5393000   0.64111942    -3.355367   -1.9233538   0.03050874    -3.355367    1.4320133   294854 
 5394000    0.6421118   -3.3566882   -1.9223854  0.032382233   -3.3566882    1.4343028   294839 
 5395000   0.64280524   -3.3587419   -1.9225199  0.030389003   -3.3587419     1.436222   294763 
 5396000   0.64214251   -3.3587672   -1.9235342  0.029676936   -3.3587672     1.435233   294662 
 5397000   0.64120614   -3.3563821   -1.9229841  0.035496147   -3.3563821     1.433398   294609 
 5398000   0.64026573   -3.3547465   -1.9230912  0.037385535   -3.3547465    1.4316553   294535 
 5399000   0.64086508    -3.358474   -1.9251962  0.034019759    -3.358474    1.4332778   294477 
 5400000   0.64043812   -3.3566372   -1.9238083  0.032149466   -3.3566372    1.4328289   294373 
 5401000   0.64116747   -3.3566772   -1.9219241  0.035454998   -3.3566772    1.4347531   294313 
 5402000   0.64027781    -3.356681   -1.9235486  0.034017684    -3.356681    1.4331323   294237 
 5403000   0.64131338   -3.3585009   -1.9228457  0.034244132   -3.3585009    1.4356552   294195 
 5404000   0.64055939   -3.3573789   -1.9232848  0.035316935   -3.3573789     1.434094   294169 
 5405000   0.63953127   -3.3553508   -1.9234515  0.034765424   -3.3553508    1.4318994   294147 
 5406000     0.640439   -3.3575147    -1.923227  0.035885413   -3.3575147    1.4342877   294074 
 5407000   0.64067933    -3.356521   -1.9214657  0.034690667    -3.356521    1.4350553   294027 
 5408000   0.64110419   -3.3563989   -1.9203431  0.032636713   -3.3563989    1.4360558   294017 
 5409000   0.64136423   -3.3554415   -1.9186126  0.036079384   -3.3554415    1.4368288   293978 
 5410000   0.64124809   -3.3561289   -1.9193306  0.034897607   -3.3561289    1.4367984   293931 
 5411000   0.63995343   -3.3527657   -1.9185852  0.033928369   -3.3527657    1.4341805   293873 
 5412000   0.64041027   -3.3529479   -1.9175384  0.041932136   -3.3529479    1.4354095   293831 
 5413000   0.63960662   -3.3523327   -1.9183585  0.032679362   -3.3523327    1.4339742   293756 
 5414000   0.63977917    -3.353864   -1.9193809  0.031445308    -3.353864    1.4344831   293731 
 5415000   0.63958769   -3.3540523   -1.9197593  0.031738691   -3.3540523    1.4342931   293682 
 5416000   0.63943171   -3.3526768   -1.9184747  0.030010332   -3.3526768    1.4342021   293629 
 5417000   0.63939474   -3.3499739    -1.915674  0.031291633   -3.3499739    1.4342999   293592 
 5418000   0.63812032   -3.3495245   -1.9177615  0.028257537   -3.3495245     1.431763   293526 
 5419000   0.63916334   -3.3525762   -1.9181211  0.032711248   -3.3525762    1.4344551   293454 
 5420000   0.63719558   -3.3467312   -1.9162584  0.028815912   -3.3467312    1.4304728   293365 
 5421000   0.63630415   -3.3461862   -1.9173446   0.03352141   -3.3461862    1.4288417   293289 
 5422000   0.63773625   -3.3479316    -1.915542  0.029819883   -3.3479316    1.4323896   293221 
 5423000   0.63790998   -3.3510008   -1.9180352  0.029210826   -3.3510008    1.4329655   293183 
 5424000   0.63739459   -3.3505933   -1.9184631   0.03348801   -3.3505933    1.4321302   293117 
 5425000   0.63675985   -3.3486399   -1.9177016  0.031782879   -3.3486399    1.4309383   293069 
 5426000   0.63675527   -3.3473744   -1.9160898  0.030015207   -3.3473744    1.4312846   292996 
 5427000   0.63731177   -3.3475749   -1.9146922  0.027105563   -3.3475749    1.4328827   292925 
 5428000   0.63800712   -3.3497604   -1.9150009  0.036683466   -3.3497604    1.4347595   292861 
 5429000   0.63737914   -3.3496844   -1.9161364  0.027841467   -3.3496844     1.433548   292820 
 5430000   0.63624634   -3.3470774   -1.9158963  0.033990979   -3.3470774     1.431181   292783 
 5431000   0.63785872   -3.3504465   -1.9152807  0.031949682   -3.3504465    1.4351658   292710 
 5432000   0.63680134   -3.3511855   -1.9180659  0.030382756   -3.3511855    1.4331196   292642 
 5433000   0.63729905   -3.3485249   -1.9140793  0.032458975   -3.3485249    1.4344456   292600 
 5434000   0.63762231   -3.3479558   -1.9124293  0.033278887   -3.3479558    1.4355264   292528 
 5435000   0.63793335   -3.3483663   -1.9119677  0.031679541   -3.3483663    1.4363986   292493 
 5436000   0.63736115   -3.3469138   -1.9117497  0.033931508   -3.3469138    1.4351642   292482 
 5437000   0.63668872   -3.3474187     -1.91345  0.034590991   -3.3474187    1.4339687   292417 
 5438000   0.63590874   -3.3475072   -1.9150062  0.028230099   -3.3475072     1.432501   292358 
 5439000   0.63566051   -3.3479009   -1.9156064  0.031101725   -3.3479009    1.4322946   292286 
 5440000   0.63614833   -3.3482668   -1.9146965  0.031307861   -3.3482668    1.4335703   292250 
 5441000   0.63644715    -3.347079   -1.9127077  0.035486461    -3.347079    1.4343713   292224 
 5442000    0.6359354   -3.3466868   -1.9131696  0.036190729   -3.3466868    1.4335172   292163 
 5443000   0.63761574   -3.3505249   -1.9131116   0.03128196   -3.3505249    1.4374133   292141 
 5444000   0.63538654   -3.3445148    -1.911921  0.033979855   -3.3445148    1.4325938   292099 
 5445000   0.63626106   -3.3455845   -1.9108912  0.030136719   -3.3455845    1.4346933   292073 
 5446000   0.63548079   -3.3449855   -1.9118603   0.03200333   -3.3449855    1.4331252   292034 
 5447000   0.63649528   -3.3456276   -1.9099392  0.030065552   -3.3456276    1.4356884   291978 
 5448000   0.63571822   -3.3451342   -1.9110659  0.032654975   -3.3451342    1.4340683   291951 
 5449000   0.63478187   -3.3427939   -1.9106809  0.031563325   -3.3427939     1.432113   291919 
 5450000   0.63399211   -3.3426093   -1.9117929  0.031754186   -3.3426093    1.4308165   291820 
 5451000   0.63360657   -3.3424337   -1.9121933  0.032936092   -3.3424337    1.4302404   291760 
 5452000   0.63391975   -3.3445219    -1.913079  0.025409769   -3.3445219    1.4314429   291659 
 5453000   0.63452613   -3.3453619   -1.9121665  0.035893272   -3.3453619    1.4331954   291581 
 5454000   0.63439921   -3.3461789   -1.9131227  0.032713032   -3.3461789    1.4330562   291551 
 5455000   0.63406499   -3.3452318   -1.9127536  0.030897586   -3.3452318    1.4324781   291515 
 5456000   0.63397283   -3.3452593   -1.9129991  0.031328295   -3.3452593    1.4322601   291517 
 5457000   0.63439973   -3.3458858   -1.9123367  0.029597092   -3.3458858    1.4335491   291451 
 5458000   0.63368502   -3.3453214    -1.912945  0.030278139   -3.3453214    1.4323764   291361 
 5459000   0.63340907   -3.3442945   -1.9121634  0.030762351   -3.3442945    1.4321311   291284 
 5460000   0.63346789   -3.3457388   -1.9132141  0.031402306   -3.3457388    1.4325248   291231 
 5461000   0.63323414   -3.3474044    -1.915123  0.030813816   -3.3474044    1.4322814   291173 
 5462000   0.63229909   -3.3450111   -1.9147022  0.029490762   -3.3450111    1.4303089   291144 
 5463000   0.63169053   -3.3422127   -1.9132706  0.030633698   -3.3422127    1.4289421   291142 
 5464000   0.63330868   -3.3473721   -1.9145974  0.028497997   -3.3473721    1.4327748   291107 
 5465000   0.63348961   -3.3489967   -1.9154334  0.034866076   -3.3489967    1.4335633   291030 
 5466000   0.63402683   -3.3488341   -1.9136507  0.035125827   -3.3488341    1.4351834   290948 
 5467000   0.63273996   -3.3484742   -1.9157015  0.031610316   -3.3484742    1.4327727   290846 
 5468000   0.63195042   -3.3486851    -1.917213  0.036792928   -3.3486851    1.4314721   290747 
 5469000   0.63080272   -3.3469891   -1.9178758  0.033298721   -3.3469891    1.4291133   290698 
 5470000   0.63059656   -3.3469786   -1.9179638  0.035992363   -3.3469786    1.4290149   290623 
 5471000   0.63154978   -3.3490237   -1.9176911  0.033051491   -3.3490237    1.4313326   290591 
 5472000   0.63194946   -3.3490174   -1.9166952  0.029837773   -3.3490174    1.4323222   290574 
 5473000   0.63087045   -3.3480958   -1.9181109   0.03253264   -3.3480958    1.4299849   290552 
 5474000   0.63125835   -3.3490872   -1.9179078  0.028602043   -3.3490872    1.4311794   290488 
 5475000   0.63117824   -3.3514285   -1.9201253  0.030902986   -3.3514285    1.4313033   290426 
 5476000   0.62931808   -3.3472779   -1.9198635  0.031857536   -3.3472779    1.4274143   290359 
 5477000   0.63050642    -3.348827   -1.9184809  0.035411931    -3.348827    1.4303462   290311 
 5478000   0.63157186   -3.3509937   -1.9179985  0.035412621   -3.3509937    1.4329952   290264 
 5479000   0.63038823    -3.348288   -1.9176137  0.036408888    -3.348288    1.4306743   290190 
 5480000   0.63111267   -3.3505524   -1.9180711  0.035060958   -3.3505524    1.4324814   290157 
 5481000   0.63223301   -3.3532714   -1.9179503  0.036215865   -3.3532714    1.4353211   290097 
 5482000   0.63185113    -3.352424   -1.9176435  0.031689721    -3.352424    1.4347805   290031 
 5483000   0.63076575   -3.3510005   -1.9182598  0.032303258   -3.3510005    1.4327407   289945 
 5484000   0.63123762   -3.3534051   -1.9194788  0.030662729   -3.3534051    1.4339263   289922 
 5485000   0.62899521     -3.34916      -1.9198  0.029585085     -3.34916      1.42936   289815 
 5486000   0.63005989   -3.3520423   -1.9201147  0.027915919   -3.3520423    1.4319276   289785 
 5487000   0.62888079   -3.3496984   -1.9201151  0.036145372   -3.3496984    1.4295833   289717 
 5488000   0.62898645   -3.3498241    -1.919966  0.039212923   -3.3498241    1.4298581   289710 
 5489000   0.62897017    -3.348639   -1.9187044  0.035393698    -3.348639    1.4299346   289687 
 5490000   0.62803506   -3.3473451   -1.9193836  0.034611605   -3.3473451    1.4279615   289656 
 5491000   0.62962419   -3.3509445   -1.9190238  0.029355577   -3.3509445    1.4319207   289586 
 5492000   0.62722325   -3.3472812   -1.9205203  0.034128227   -3.3472812    1.4267609   289525 
 5493000   0.62855198   -3.3493681   -1.9192685  0.031405161   -3.3493681    1.4300996   289461 
 5494000   0.62880153   -3.3482369   -1.9174064  0.031554985   -3.3482369    1.4308305   289428 
 5495000   0.62781614   -3.3451357   -1.9163056  0.032432099   -3.3451357    1.4288301   289379 
 5496000   0.62841359   -3.3438106    -1.913344  0.031988677   -3.3438106    1.4304667   289323 
 5497000   0.62865367    -3.346031   -1.9145824  0.031071641    -3.346031    1.4314485   289235 
 5498000   0.62849746   -3.3471826   -1.9155998  0.031287964   -3.3471826    1.4315829   289136 
 5499000   0.62719794   -3.3430051   -1.9142192  0.028573777   -3.3430051    1.4287859   289103 
 5500000   0.62755003   -3.3442267    -1.914525  0.029103477   -3.3442267    1.4297017   289080 
 5501000   0.62748089   -3.3426848   -1.9130368  0.029114067   -3.3426848    1.4296481   289059 
 5502000   0.62744434   -3.3434376   -1.9137739  0.033119669   -3.3434376    1.4296637   289039 
 5503000   0.62763214   -3.3463502   -1.9161201  0.028856844   -3.3463502    1.4302302   289011 
 5504000   0.62617928   -3.3418616   -1.9146459  0.029602487   -3.3418616    1.4272157   288951 
 5505000   0.62781265   -3.3442387   -1.9130376  0.027563856   -3.3442387    1.4312011   288898 
 5506000    0.6276547   -3.3426397   -1.9116501  0.030942247   -3.3426397    1.4309896   288868 
 5507000   0.62712366   -3.3430065   -1.9130097  0.026414648   -3.3430065    1.4299967   288824 
 5508000   0.62785858   -3.3449718   -1.9131704  0.030787874   -3.3449718    1.4318014   288798 
 5509000   0.62788758   -3.3463875   -1.9142621  0.027379831   -3.3463875    1.4321254   288746 
 5510000   0.62710141   -3.3464079   -1.9157288  0.032595563   -3.3464079    1.4306791   288676 
 5511000   0.62698522   -3.3459752   -1.9151944   0.03240118   -3.3459752    1.4307808   288602 
 5512000    0.6273585   -3.3431444   -1.9113381  0.030993123   -3.3431444    1.4318063   288567 
 5513000   0.62739298   -3.3440052   -1.9120061  0.029368572   -3.3440052    1.4319991   288544 
 5514000   0.62675817   -3.3454207   -1.9146574  0.036959929   -3.3454207    1.4307634   288501 
 5515000    0.6271994   -3.3462292   -1.9141359  0.034031492   -3.3462292    1.4320933   288436 
 5516000   0.62574109   -3.3422528   -1.9133308    0.0311046   -3.3422528     1.428922   288404 
 5517000   0.62571875   -3.3412391    -1.912155  0.033823298   -3.3412391    1.4290841   288361 
 5518000   0.62515192   -3.3406433   -1.9127895  0.032091477   -3.3406433    1.4278539   288348 
 5519000    0.6264925   -3.3438341   -1.9127496   0.02732095   -3.3438341    1.4310845   288314 
 5520000   0.62574555   -3.3425146   -1.9128488  0.035587979   -3.3425146    1.4296658   288256 
 5521000   0.62644979   -3.3429085   -1.9112413  0.036351348   -3.3429085    1.4316672   288177 
 5522000    0.6256865   -3.3440842   -1.9137841  0.029046617   -3.3440842       1.4303   288101 
 5523000    0.6264724   -3.3436444   -1.9114484   0.03380552   -3.3436444     1.432196   288081 
 5524000   0.62670837   -3.3442582   -1.9113736  0.035474718   -3.3442582    1.4328847   288051 
 5525000   0.62645157   -3.3449266   -1.9122958  0.030254688   -3.3449266    1.4326308   287984 
 5526000   0.62497137   -3.3392288   -1.9100228  0.031894484   -3.3392288     1.429206   287992 
 5527000   0.62558886   -3.3407136   -1.9095091  0.032552976   -3.3407136    1.4312045   287874 
 5528000   0.62593444   -3.3425566   -1.9102282  0.031207085   -3.3425566    1.4323285   287807 
 5529000   0.62649517   -3.3421904   -1.9083945  0.032331752   -3.3421904    1.4337959   287770 
 5530000   0.62644733   -3.3409261   -1.9070403  0.033324098   -3.3409261    1.4338857   287730 
 5531000   0.62526514   -3.3399123   -1.9081801   0.03137762   -3.3399123    1.4317321   287619 
 5532000   0.62640621   -3.3418158   -1.9070518  0.034571077   -3.3418158     1.434764   287535 
 5533000   0.62607304   -3.3413837   -1.9073379  0.031268814   -3.3413837    1.4340458   287526 
 5534000   0.62533951   -3.3404544   -1.9078347  0.033593758   -3.3404544    1.4326197   287475 
 5535000   0.62458096   -3.3382354   -1.9070547  0.029485708   -3.3382354    1.4311806   287415 
 5536000   0.62342558   -3.3339977   -1.9052657  0.033593401   -3.3339977     1.428732   287375 
 5537000   0.62290179   -3.3326602   -1.9048106  0.031551229   -3.3326602    1.4278496   287311 
 5538000   0.62447983   -3.3355159    -1.903755  0.028169102   -3.3355159    1.4317609   287252 
 5539000    0.6248772   -3.3356649   -1.9029331  0.030544097   -3.3356649    1.4327318   287240 
 5540000   0.62625034   -3.3354937   -1.8995786  0.027222307   -3.3354937    1.4359151   287233 
 5541000   0.62468787   -3.3320783   -1.8994015  0.029205371   -3.3320783    1.4326767   287164 
 5542000   0.62466317    -3.333098   -1.9002384  0.030197363    -3.333098    1.4328596   287116 
 5543000   0.62472206   -3.3333598   -1.9001654  0.031958683   -3.3333598    1.4331944   287076 
 5544000   0.62530176   -3.3333539   -1.8987997  0.032544002   -3.3333539    1.4345542   287070 
 5545000    0.6241936    -3.330319   -1.8980976  0.032947926    -3.330319    1.4322215   287028 
 5546000   0.62424318   -3.3311151   -1.8983905  0.033820933   -3.3311151    1.4327246   286950 
 5547000   0.62544093   -3.3311493   -1.8955756  0.033133499   -3.3311493    1.4355736   286930 
 5548000   0.62436351   -3.3330783    -1.899618  0.031438423   -3.3330783    1.4334603   286858 
 5549000   0.62273645   -3.3324932   -1.9022648  0.032350341   -3.3324932    1.4302284   286757 
 5550000   0.62301654   -3.3327016   -1.9014705   0.03118873   -3.3327016     1.431231   286685 
 5551000   0.62292844   -3.3330438   -1.9018754  0.029879472   -3.3330438    1.4311684   286657 
 5552000   0.62322217   -3.3333046   -1.9013365  0.033253026   -3.3333046    1.4319681   286632 
 5553000   0.62365762   -3.3361708   -1.9029071  0.030658041   -3.3361708    1.4332637   286573 
 5554000   0.62312481   -3.3343052   -1.9019261  0.032868694   -3.3343052    1.4323791   286505 
 5555000   0.62285069   -3.3337961   -1.9018422  0.032440341   -3.3337961    1.4319539   286464 
 5556000    0.6234041   -3.3353124    -1.901796  0.035069643   -3.3353124    1.4335164   286406 
 5557000   0.62294768   -3.3347996   -1.9020676  0.033072394   -3.3347996     1.432732   286353 
 5558000   0.62383488   -3.3371251   -1.9021321  0.029635277   -3.3371251     1.434993   286309 
 5559000    0.6242967   -3.3395315   -1.9032705  0.033140931   -3.3395315     1.436261   286268 
 5560000    0.6218312   -3.3349838     -1.90433  0.031374189   -3.3349838    1.4306538   286255 
 5561000   0.62165513   -3.3334141   -1.9029855  0.032464421   -3.3334141    1.4304286   286219 
 5562000   0.62304529   -3.3334894   -1.8996366  0.030996404   -3.3334894    1.4338528   286174 
 5563000   0.62217327   -3.3331827   -1.9009463  0.037736127   -3.3331827    1.4322364   286096 
 5564000   0.62271055   -3.3331194   -1.8996463  0.031562181   -3.3331194    1.4334732   286096 
 5565000   0.62417677   -3.3367318   -1.8997026  0.033696833   -3.3367318    1.4370292   286060 
 5566000   0.62206268   -3.3354613   -1.9031791  0.029547416   -3.3354613    1.4322822   286036 
 5567000   0.62236271   -3.3350922   -1.9018336  0.030089624   -3.3350922    1.4332586   285979 
 5568000   0.62035429   -3.3320295   -1.9032813  0.031934726   -3.3320295    1.4287482   285956 
 5569000   0.62075577   -3.3331884   -1.9032254  0.028960798   -3.3331884    1.4299629   285898 
 5570000   0.62108632   -3.3315301   -1.9009258  0.033405104   -3.3315301    1.4306043   285922 
 5571000   0.62082048   -3.3302166   -1.9001196    0.0313503   -3.3302166     1.430097   285901 
 5572000   0.62249364   -3.3356343   -1.9013018  0.031630046   -3.3356343    1.4343325   285825 
 5573000   0.62280968    -3.335203   -1.8996903  0.032429161    -3.335203    1.4355127   285735 
 5574000   0.62266528   -3.3329866   -1.8975957  0.035283481   -3.3329866    1.4353909   285693 
 5575000   0.62203883   -3.3320659   -1.8977074  0.032547359   -3.3320659    1.4343584   285611 
 5576000   0.62259606   -3.3330749   -1.8972707  0.033954764   -3.3330749    1.4358042   285579 
 5577000   0.62299177   -3.3356251   -1.8988429  0.034668134   -3.3356251    1.4367822   285566 
 5578000   0.62247841   -3.3356197   -1.8995689   0.03161633   -3.3356197    1.4360509   285476 
 5579000   0.62120517    -3.332769   -1.8992538  0.030866311    -3.332769    1.4335152   285396 
 5580000    0.6206614   -3.3326223   -1.9000005  0.032546368   -3.3326223    1.4326218   285324 
 5581000   0.62081585   -3.3328852   -1.8996557  0.032480278   -3.3328852    1.4332295   285274 
 5582000   0.62189324   -3.3351472   -1.8993247  0.035056481   -3.3351472    1.4358225   285253 
 5583000    0.6221504   -3.3356807   -1.8991386  0.034300458   -3.3356807    1.4365421   285228 
 5584000   0.62073222   -3.3343212   -1.9007069  0.029181599   -3.3343212    1.4336144   285159 
 5585000   0.62128515   -3.3328415   -1.8977186  0.030535046   -3.3328415    1.4351229   285113 
 5586000   0.62066691    -3.329533    -1.895627  0.033340342    -3.329533     1.433906   285071 
 5587000   0.62084289   -3.3290725   -1.8944982   0.03214401   -3.3290725    1.4345742   285019 
 5588000   0.62039941   -3.3298038   -1.8959273  0.036092674   -3.3298038    1.4338765   284954 
 5589000   0.62127954    -3.331856   -1.8955975  0.033552375    -3.331856    1.4362585   284885 
 5590000   0.61909916   -3.3278794   -1.8961941   0.03072163   -3.3278794    1.4316853   284792 
 5591000   0.61949009   -3.3312421   -1.8982855  0.028547025   -3.3312421    1.4329566   284719 
 5592000   0.61968493   -3.3318712   -1.8983783  0.029070188   -3.3318712    1.4334929   284702 
 5593000   0.61923634   -3.3309927   -1.8984218  0.031950907   -3.3309927    1.4325709   284679 
 5594000   0.62137453   -3.3342612   -1.8964659  0.031920726   -3.3342612    1.4377953   284624 
 5595000   0.62062478   -3.3320533   -1.8958717  0.032458262   -3.3320533    1.4361816   284600 
 5596000   0.62099507   -3.3331405   -1.8958395  0.034660777   -3.3331405    1.4373011   284548 
 5597000   0.61921968   -3.3289553    -1.895713  0.035709254   -3.3289553    1.4332423   284538 
 5598000   0.61841302    -3.331149    -1.899477   0.03213627    -3.331149     1.431672   284479 
 5599000   0.61960249   -3.3328356   -1.8979257  0.034678758   -3.3328356      1.43491   284383 
 5600000   0.61898659   -3.3320258    -1.898275  0.033302132   -3.3320258    1.4337508   284330 
 5601000   0.61858902   -3.3325432    -1.899305  0.034896602   -3.3325432    1.4332383   284249 
 5602000     0.618604   -3.3331452    -1.899615  0.035589704   -3.3331452    1.4335302   284198 
 5603000   0.61903261   -3.3341292   -1.8994493  0.029999436   -3.3341292    1.4346799   284167 
 5604000    0.6180642    -3.330815    -1.898435  0.036360104    -3.330815    1.4323801   284178 
 5605000   0.61917166   -3.3351823   -1.8999882  0.033265851   -3.3351823    1.4351941   284129 
 5606000   0.61924918    -3.332623   -1.8968703  0.034558212    -3.332623    1.4357528   284054 
 5607000   0.62001599   -3.3338523   -1.8962559   0.03265971   -3.3338523    1.4375964   284041 
 5608000     0.619432   -3.3343459   -1.8977242  0.029517688   -3.3343459    1.4366217   283966 
 5609000   0.61905564   -3.3328177   -1.8969475  0.033505456   -3.3328177    1.4358702   283942 
 5610000   0.61899833   -3.3333706   -1.8971731  0.036581711   -3.3333706    1.4361975   283851 
 5611000   0.61927893   -3.3340985   -1.8969714  0.032288006   -3.3340985    1.4371271   283796 
 5612000   0.61847503   -3.3324821   -1.8972257   0.03391968   -3.3324821    1.4352564   283797 
 5613000   0.61835443   -3.3331017   -1.8978015  0.029741765   -3.3331017    1.4353002   283733 
 5614000   0.61690829   -3.3314757    -1.899512  0.034216463   -3.3314757    1.4319637   283729 
 5615000   0.61759985   -3.3325039   -1.8987379   0.03101675   -3.3325039     1.433766   283690 
 5616000   0.61783557   -3.3311982   -1.8964247  0.034119737   -3.3311982    1.4347735   283599 
 5617000   0.61832362   -3.3305117   -1.8943668  0.030031588   -3.3305117    1.4361449   283552 
 5618000    0.6161288   -3.3260407    -1.894726  0.031592662   -3.3260407    1.4313146   283499 
 5619000   0.61555668   -3.3250559   -1.8949896   0.03285206   -3.3250559    1.4300663   283483 
 5620000   0.61882249   -3.3312803   -1.8934392  0.029158606   -3.3312803    1.4378411   283446 
 5621000   0.61909212   -3.3291269   -1.8904309  0.037025674   -3.3291269     1.438696   283401 
 5622000   0.62034982   -3.3328923   -1.8909225  0.034832446   -3.3328923    1.4419698   283332 
 5623000   0.61675925   -3.3257903   -1.8922273  0.037547809   -3.3257903     1.433563   283344 
 5624000   0.61674833    -3.326265   -1.8925655  0.032073476    -3.326265    1.4336995   283312 
 5625000   0.61692783   -3.3285323   -1.8942332  0.032857117   -3.3285323     1.434299   283276 
 5626000   0.61652336   -3.3294225   -1.8955931  0.032758164   -3.3294225    1.4338294   283183 
 5627000   0.61751942   -3.3297171    -1.893561  0.031627727   -3.3297171    1.4361561   283181 
 5628000   0.61646507   -3.3269494   -1.8932151  0.031434094   -3.3269494    1.4337344   283175 
 5629000   0.61664003   -3.3287989   -1.8945208  0.029726926   -3.3287989     1.434278   283148 
 5630000   0.61487373    -3.324568   -1.8944235  0.034702485    -3.324568    1.4301445   283153 
 5631000     0.616229   -3.3291469   -1.8955464  0.031487517   -3.3291469    1.4336005   283093 
 5632000   0.61582686   -3.3267473   -1.8936571  0.034257523   -3.3267473    1.4330902   283009 
 5633000   0.61688747   -3.3282893   -1.8923606  0.033928618   -3.3282893    1.4359287   282936 
 5634000    0.6165568   -3.3282229   -1.8928153  0.033026922   -3.3282229    1.4354076   282887 
 5635000    0.6161822   -3.3273253   -1.8924905  0.036153658   -3.3273253    1.4348347   282828 
 5636000    0.6151312   -3.3274951   -1.8947683   0.03603811   -3.3274951    1.4327268   282761 
 5637000   0.61402731   -3.3254659   -1.8949561  0.026712862   -3.3254659    1.4305098   282691 
 5638000   0.61523692   -3.3286085    -1.895164  0.029364323   -3.3286085    1.4334445   282668 
 5639000   0.61529438   -3.3288324   -1.8949446  0.032737455   -3.3288324    1.4338878   282607 
 5640000   0.61585404   -3.3279026   -1.8923906  0.035382153   -3.3279026     1.435512   282544 
 5641000   0.61639919   -3.3305714   -1.8934581  0.032851402   -3.3305714    1.4371134   282479 
 5642000   0.61497236   -3.3286489   -1.8946235  0.030265534   -3.3286489    1.4340253   282432 
 5643000   0.61397543   -3.3285673   -1.8966284  0.033672601   -3.3285673    1.4319389   282385 
 5644000   0.61470942   -3.3300264   -1.8961522  0.031279507   -3.3300264    1.4338742   282341 
 5645000   0.61329359   -3.3285451   -1.8975933  0.031039155   -3.3285451    1.4309517   282266 
 5646000   0.61330704   -3.3259205   -1.8945824  0.034775526   -3.3259205    1.4313381   282196 
 5647000   0.61243271   -3.3258732    -1.896297  0.032297078   -3.3258732    1.4295762   282141 
 5648000   0.61226271   -3.3261009   -1.8967138   0.03140715   -3.3261009    1.4293871   282100 
 5649000   0.61533429   -3.3300189   -1.8933336  0.034313989   -3.3300189    1.4366853   282075 
 5650000   0.61394153   -3.3280568   -1.8944352  0.030173581   -3.3280568    1.4336215   282038 
 5651000   0.61318372   -3.3259824   -1.8936937  0.033084825   -3.3259824    1.4322887   281952 
 5652000   0.61450154   -3.3270784   -1.8915995  0.032239497   -3.3270784    1.4354789   281930 
 5653000   0.61323793   -3.3265788    -1.893579  0.031573441   -3.3265788    1.4329998   281837 
 5654000   0.61373448   -3.3261053   -1.8915685  0.032206344   -3.3261053    1.4345368   281763 
 5655000   0.61327735   -3.3263776   -1.8928024  0.033315232   -3.3263776    1.4335751   281742 
 5656000   0.61339499    -3.326393   -1.8923749  0.030436981    -3.326393    1.4340181   281709 
 5657000   0.61249266    -3.325472   -1.8934261  0.028178042    -3.325472    1.4320459   281682 
 5658000   0.61239834   -3.3244007   -1.8922398  0.030586672   -3.3244007    1.4321609   281616 
 5659000   0.61118904    -3.321693    -1.892086  0.033775965    -3.321693     1.429607   281562 
 5660000   0.61098409   -3.3222116   -1.8931094  0.035031081   -3.3222116    1.4291022   281567 
 5661000   0.61227822   -3.3234627    -1.891125  0.032889552   -3.3234627    1.4323377   281526 
 5662000   0.61375088   -3.3260755   -1.8898386  0.030370018   -3.3260755    1.4362369   281437 
 5663000   0.61110909   -3.3206273   -1.8903184  0.030241103   -3.3206273    1.4303089   281387 
 5664000   0.61187832   -3.3219533   -1.8898389  0.032501767   -3.3219533    1.4321144   281386 
 5665000    0.6114697   -3.3225548   -1.8909745  0.031220719   -3.3225548    1.4315803   281303 
 5666000   0.61192261   -3.3228854   -1.8899289  0.030747681   -3.3228854    1.4329565   281241 
 5667000   0.61192098   -3.3194488   -1.8863993  0.032831504   -3.3194488    1.4330495   281222 
 5668000   0.61087152   -3.3187528   -1.8878711  0.029928037   -3.3187528    1.4308818   281165 
 5669000   0.61072517   -3.3171347   -1.8863464  0.034728856   -3.3171347    1.4307883   281116 
 5670000   0.61062034    -3.319196   -1.8882155  0.027429874    -3.319196    1.4309805   281030 
 5671000   0.60971182   -3.3180193   -1.8889034  0.031861912   -3.3180193    1.4291158   280978 
 5672000   0.61030656   -3.3192995   -1.8886929  0.028593852   -3.3192995    1.4306066   280959 
 5673000   0.61037691   -3.3197785   -1.8885485  0.032446947   -3.3197785      1.43123   280869 
 5674000   0.61169551   -3.3205182   -1.8859716  0.029975331   -3.3205182    1.4345466   280825 
 5675000   0.61182649   -3.3198998   -1.8848416  0.036397676   -3.3198998    1.4350582   280785 
 5676000   0.61178687   -3.3200774   -1.8849384  0.034369585   -3.3200774     1.435139   280751 
 5677000     0.610518   -3.3185055   -1.8861236  0.030897943   -3.3185055    1.4323819   280708 
 5678000   0.61104092   -3.3193933   -1.8855394  0.035322289   -3.3193933    1.4338539   280660 
 5679000   0.61015141   -3.3180353   -1.8858452   0.02901715   -3.3180353    1.4321901   280577 
 5680000   0.60957423   -3.3161182   -1.8852369  0.031702972   -3.3161182    1.4308813   280568 
 5681000   0.60982086    -3.315564   -1.8840018  0.034025869    -3.315564    1.4315622   280548 
 5682000   0.61059545   -3.3159989   -1.8822912  0.033565506   -3.3159989    1.4337077   280484 
 5683000   0.61037997   -3.3156965    -1.882362  0.032934911   -3.3156965    1.4333346   280458 
 5684000   0.61023866   -3.3171209   -1.8838524  0.031931519   -3.3171209    1.4332685   280406 
 5685000   0.60949044    -3.316819   -1.8847971  0.034743614    -3.316819    1.4320218   280306 
 5686000   0.60981276   -3.3162422   -1.8834018  0.037228994   -3.3162422    1.4328405   280294 
 5687000   0.60859601   -3.3154459       -1.885  0.029552667   -3.3154459    1.4304459   280203 
 5688000   0.60970316   -3.3173643   -1.8841678  0.033364504   -3.3173643    1.4331965   280174 
 5689000   0.61012814   -3.3181953    -1.883923  0.033384159   -3.3181953    1.4342723   280159 
 5690000   0.61017351   -3.3194361    -1.884965  0.027071139   -3.3194361    1.4344711   280141 
 5691000   0.60871266   -3.3179153   -1.8865567  0.027727676   -3.3179153    1.4313587   280078 
 5692000   0.60899274   -3.3191412   -1.8867301  0.031025305   -3.3191412    1.4324111   280001 
 5693000   0.60960966   -3.3197138   -1.8856366   0.03140742   -3.3197138    1.4340772   279959 
 5694000   0.60911538   -3.3202718   -1.8870245  0.030080059   -3.3202718    1.4332472   279894 
 5695000   0.60944621   -3.3178122   -1.8836584  0.033835332   -3.3178122    1.4341538   279869 
 5696000   0.60989282   -3.3181194   -1.8827608  0.030635263   -3.3181194    1.4353586   279839 
 5697000   0.60810073     -3.31649   -1.8847504  0.034988395     -3.31649    1.4317396   279722 
 5698000   0.60906281   -3.3187915   -1.8845714  0.031089452   -3.3187915    1.4342201   279680 
 5699000   0.60825861   -3.3173698   -1.8848591  0.032756118   -3.3173698    1.4325108   279644 
 5700000   0.60923615   -3.3191157    -1.883964   0.03541562   -3.3191157    1.4351517   279578 
 5701000   0.60913428   -3.3206071   -1.8854233  0.030297951   -3.3206071    1.4351838   279525 
 5702000   0.60806316   -3.3179464   -1.8849172  0.031236122   -3.3179464    1.4330292   279453 
 5703000   0.60656807    -3.316016   -1.8863261  0.028683078    -3.316016    1.4296899   279417 
 5704000   0.60715548   -3.3182248   -1.8871094  0.028968476   -3.3182248    1.4311154   279409 
 5705000   0.60684695     -3.31728   -1.8868355  0.029028689     -3.31728    1.4304445   279398 
 5706000   0.60777429   -3.3192982   -1.8862882  0.033375504   -3.3192982      1.43301   279324 
 5707000   0.60882816   -3.3200091   -1.8844012  0.032534294   -3.3200091    1.4356078   279302 
 5708000   0.60802144   -3.3191312   -1.8852716  0.034294261   -3.3191312    1.4338596   279272 
 5709000   0.60770173    -3.317347   -1.8841233   0.03436203    -3.317347    1.4332237   279249 
 5710000   0.60740185   -3.3182796   -1.8854143  0.030705253   -3.3182796    1.4328654   279181 
 5711000   0.60825251   -3.3181948   -1.8830605   0.03201621   -3.3181948    1.4351342   279130 
 5712000   0.60676768    -3.316208   -1.8841667   0.03470646    -3.316208    1.4320413   279050 
 5713000   0.60763096   -3.3172846   -1.8829797  0.032218208   -3.3172846    1.4343049   279006 
 5714000   0.60816757   -3.3183295   -1.8825984  0.030949767   -3.3183295    1.4357311   278975 
 5715000   0.60646229    -3.316954   -1.8847609  0.035408914    -3.316954    1.4321931   278880 
 5716000    0.6066119   -3.3164406   -1.8838583   0.03181494   -3.3164406    1.4325823   278873 
 5717000   0.60717713    -3.318333   -1.8840455  0.030289544    -3.318333    1.4342875   278801 
 5718000   0.60662597   -3.3164147   -1.8831772  0.033608059   -3.3164147    1.4332374   278752 
 5719000   0.60632477   -3.3157494   -1.8829666  0.034533402   -3.3157494    1.4327828   278702 
 5720000    0.6062596   -3.3151389   -1.8822633  0.038762429   -3.3151389    1.4328756   278654 
 5721000   0.60615684   -3.3159532   -1.8828731  0.032153561   -3.3159532    1.4330801   278567 
 5722000   0.60687945    -3.315432   -1.8806383  0.036352705    -3.315432    1.4347937   278566 
 5723000   0.60826637   -3.3188431   -1.8803883  0.033133513   -3.3188431    1.4384548   278492 
 5724000   0.60807836   -3.3182983   -1.8799989  0.032492387   -3.3182983    1.4382994   278436 
 5725000    0.6062516   -3.3162208   -1.8821033  0.033357594   -3.3162208    1.4341176   278409 
 5726000   0.60485083   -3.3127346    -1.881324  0.030157584   -3.3127346    1.4314107   278291 
 5727000   0.60397995   -3.3106305   -1.8811935  0.029241601   -3.3106305     1.429437   278274 
 5728000   0.60491528   -3.3109646   -1.8791287  0.032498189   -3.3109646    1.4318359   278238 
 5729000   0.60592464   -3.3129302   -1.8784731  0.030582817   -3.3129302     1.434457   278193 
 5730000   0.60690829   -3.3144459   -1.8772521  0.034832467   -3.3144459    1.4371938   278114 
 5731000   0.60605999   -3.3110952   -1.8758276  0.039441593   -3.3110952    1.4352676   278098 
 5732000   0.60533105   -3.3113973   -1.8776343  0.032932592   -3.3113973     1.433763   278055 
 5733000   0.60631022   -3.3129902   -1.8769596   0.03462146   -3.3129902    1.4360306   278065 
 5734000   0.60664474    -3.313538   -1.8768082  0.033260737    -3.313538    1.4367299   278083 
 5735000    0.6056558   -3.3091838   -1.8746413   0.03209963   -3.3091838    1.4345425   278053 
 5736000   0.60509941   -3.3099827   -1.8764075  0.039069605   -3.3099827    1.4335753   277985 
 5737000   0.60347059   -3.3087366   -1.8786704  0.031528023   -3.3087366    1.4300661   277917 
 5738000   0.60527781    -3.310961   -1.8761579  0.033654902    -3.310961    1.4348031   277829 
 5739000    0.6057942   -3.3142026   -1.8778807  0.031914747   -3.3142026    1.4363219   277772 
 5740000   0.60531414   -3.3112459    -1.875902  0.033655718   -3.3112459    1.4353439   277741 
 5741000   0.60440339   -3.3101035   -1.8763049  0.030896898   -3.3101035    1.4337986   277622 
 5742000   0.60507868   -3.3108884   -1.8752707   0.03518984   -3.3108884    1.4356177   277580 
 5743000   0.60385557   -3.3056295   -1.8726557  0.034605232   -3.3056295    1.4329739   277530 
 5744000   0.60449095   -3.3072402   -1.8724121  0.029276338   -3.3072402     1.434828   277463 
 5745000   0.60461312   -3.3071477   -1.8715795  0.033439587   -3.3071477    1.4355682   277376 
 5746000   0.60293996   -3.3040148    -1.872249  0.030976114   -3.3040148    1.4317658   277343 
 5747000   0.60316674   -3.3046703   -1.8721697  0.030276546   -3.3046703    1.4325006   277305 
 5748000   0.60339174   -3.3066453   -1.8733157  0.031687674   -3.3066453    1.4333296   277248 
 5749000   0.60441038   -3.3065594   -1.8707014  0.032421397   -3.3065594    1.4358581   277227 
 5750000   0.60470514   -3.3061685   -1.8693925  0.032290952   -3.3061685     1.436776   277185 
 5751000   0.60409957    -3.303803   -1.8683674  0.034536281    -3.303803    1.4354356   277166 
 5752000   0.60431256   -3.3040532    -1.867868  0.030448192   -3.3040532    1.4361852   277119 
 5753000    0.6035832   -3.3023009   -1.8674504  0.032600184   -3.3023009    1.4348505   277042 
 5754000   0.60474322   -3.3066422   -1.8687953  0.031151141   -3.3066422    1.4378469   276996 
 5755000   0.60467957   -3.3056995   -1.8678586  0.036625244   -3.3056995    1.4378409   276968 
 5756000   0.60377885   -3.3033539   -1.8673334  0.031956783   -3.3033539    1.4360206   276906 
 5757000   0.60240123    -3.299317    -1.866397   0.03412482    -3.299317      1.43292   276872 
 5758000   0.60335445   -3.3023808   -1.8667941   0.02983835   -3.3023808    1.4355867   276795 
 5759000   0.60370724   -3.3005704   -1.8636304  0.032668139   -3.3005704      1.43694   276696 
 5760000   0.60321325   -3.3014494   -1.8652751  0.031862599   -3.3014494    1.4361743   276617 
 5761000   0.60336965   -3.3027414   -1.8659455  0.033141439   -3.3027414    1.4367959   276569 
 5762000   0.60280937   -3.3019599   -1.8662126  0.031226745   -3.3019599    1.4357473   276514 
 5763000    0.6019429    -3.300079   -1.8662762  0.029565594    -3.300079    1.4338028   276491 
 5764000   0.60235006   -3.3013639   -1.8663265  0.035643745   -3.3013639    1.4350374   276440 
 5765000   0.60253283   -3.3001616    -1.864398  0.037034148   -3.3001616    1.4357636   276384 
 5766000   0.60407889   -3.3021867    -1.862489  0.034588245   -3.3021867    1.4396977   276336 
 5767000   0.60136047   -3.2975973   -1.8643369  0.035354978   -3.2975973    1.4332605   276328 
 5768000   0.60190747   -3.3006146   -1.8656091  0.034312414   -3.3006146    1.4350056   276243 
 5769000   0.60144316   -3.2957788   -1.8614129  0.035184488   -3.2957788    1.4343659   276153 
 5770000   0.60061202   -3.2973639   -1.8647882  0.031290583   -3.2973639    1.4325757   276116 
 5771000   0.60251417   -3.3028823   -1.8655718  0.027775392   -3.3028823    1.4373105   276078 
 5772000   0.60189275   -3.2997746   -1.8637853  0.034051295   -3.2997746    1.4359893   276047 
 5773000   0.60230824   -3.2990349   -1.8615231  0.029389759   -3.2990349    1.4375118   275945 
 5774000   0.60238242   -3.2988397   -1.8609373  0.033498422   -3.2988397    1.4379025   275904 
 5775000   0.60273154   -3.3007907   -1.8616637  0.033664992   -3.3007907     1.439127   275829 
 5776000   0.60086957   -3.2998764   -1.8650183  0.033489162   -3.2998764    1.4348581   275795 
 5777000   0.60150793    -3.300523    -1.863953  0.033952568    -3.300523      1.43657   275759 
 5778000   0.60101162    -3.301217   -1.8655824  0.029211826    -3.301217    1.4356346   275711 
 5779000   0.60137606   -3.3000084   -1.8632376  0.031704089   -3.3000084    1.4367709   275660 
 5780000   0.60102619   -3.3012998   -1.8652554  0.033705339   -3.3012998    1.4360444   275639 
 5781000   0.60196236   -3.3024828   -1.8639877  0.034315995   -3.3024828    1.4384952   275598 
 5782000   0.60146478   -3.3004997   -1.8627345  0.030904979   -3.3004997    1.4377652   275510 
 5783000   0.60058771   -3.3011146   -1.8652062  0.036005213   -3.3011146    1.4359084   275464 
 5784000   0.59988953   -3.3010268   -1.8664908  0.033491911   -3.3010268     1.434536   275407 
 5785000   0.59876096   -3.3009269   -1.8684448  0.033716004   -3.3009269    1.4324821   275283 
 5786000   0.59876159   -3.3002785    -1.867519  0.031182266   -3.3002785    1.4327595   275230 
 5787000   0.59832909    -3.298985    -1.867042  0.031568112    -3.298985    1.4319431   275188 
 5788000   0.59834418   -3.2975825   -1.8653847  0.031557243   -3.2975825    1.4321978   275146 
 5789000   0.59930676   -3.2982447   -1.8633309  0.032674143   -3.2982447    1.4349138   275067 
 5790000   0.59984308   -3.3001006   -1.8634536  0.036811866   -3.3001006    1.4366471   274981 
 5791000   0.60075161   -3.3012977   -1.8622339   0.03442429   -3.3012977    1.4390638   274935 
 5792000   0.60009664   -3.3015037   -1.8638729  0.033798376   -3.3015037    1.4376308   274909 
 5793000   0.59881564   -3.2995005   -1.8646985  0.034894642   -3.2995005     1.434802   274863 
 5794000   0.59753253   -3.2992595    -1.867261  0.038973875   -3.2992595    1.4319985   274811 
 5795000   0.59876151   -3.3023917   -1.8674322  0.032606092   -3.3023917    1.4349595   274808 
 5796000   0.59853506   -3.3015388   -1.8668454  0.032347755   -3.3015388    1.4346935   274755 
 5797000   0.59842338   -3.3017072   -1.8667174  0.033527611   -3.3017072    1.4349898   274647 
 5798000   0.59860788    -3.304142   -1.8681817  0.030670451    -3.304142    1.4359603   274546 
 5799000   0.59742545   -3.3022574   -1.8690187  0.030612681   -3.3022574    1.4332387   274524 
 5800000   0.59720775   -3.3017291   -1.8687987  0.031292193   -3.3017291    1.4329305   274483 
 5801000   0.59716323   -3.2994483   -1.8662173  0.034862208   -3.2994483    1.4332309   274405 
 5802000   0.59770527   -3.3020554   -1.8670582   0.03469351   -3.3020554    1.4349973   274316 
 5803000   0.59791495    -3.301555   -1.8660072  0.034812983    -3.301555    1.4355478   274307 
 5804000   0.59777322    -3.303069   -1.8672386  0.032236731    -3.303069    1.4358304   274188 
 5805000   0.59704113   -3.2995034   -1.8653164  0.033672432   -3.2995034     1.434187   274166 
 5806000   0.59897342   -3.3019646   -1.8628524  0.034759993   -3.3019646    1.4391121   274112 
 5807000   0.59765212   -3.3017913   -1.8654922  0.037431678   -3.3017913    1.4362991   274043 
 5808000   0.59731605   -3.3021667   -1.8664552  0.032324998   -3.3021667    1.4357115   274001 
 5809000   0.59766737   -3.3027045    -1.865986  0.034002809   -3.3027045    1.4367184   273970 
 5810000   0.59705833   -3.3002815   -1.8649694  0.034116049   -3.3002815     1.435312   273959 
 5811000   0.59638991   -3.2985472   -1.8643604  0.034963637   -3.2985472    1.4341868   273867 
 5812000   0.59485149   -3.2962772   -1.8655288  0.028244209   -3.2962772    1.4307484   273817 
 5813000   0.59576409   -3.2976339   -1.8643397   0.02945344   -3.2976339    1.4332941   273750 
 5814000   0.59636358   -3.2988084   -1.8636893  0.031071887   -3.2988084    1.4351191   273677 
 5815000   0.59549106   -3.2968203    -1.863518  0.031894803   -3.2968203    1.4333022   273623 
 5816000   0.59561668   -3.2978518   -1.8637703  0.031429757   -3.2978518    1.4340815   273532 
 5817000   0.59496119   -3.2970103   -1.8642084  0.029667567   -3.2970103    1.4328019   273475 
 5818000   0.59472343   -3.2956877   -1.8632123  0.028420571   -3.2956877    1.4324755   273428 
 5819000   0.59509845   -3.2966752   -1.8631025  0.033262302   -3.2966752    1.4335727   273391 
 5820000   0.59491808   -3.2954278   -1.8618753  0.028137719   -3.2954278    1.4335525   273312 
 5821000   0.59413456   -3.2959184   -1.8638872  0.033111717   -3.2959184    1.4320312   273242 
 5822000   0.59457983   -3.2962256   -1.8628221  0.032356648   -3.2962256    1.4334035   273185 
 5823000   0.59371965   -3.2948963   -1.8633202  0.028832536   -3.2948963    1.4315761   273138 
 5824000   0.59332717   -3.2952111   -1.8642356  0.028212242   -3.2952111    1.4309755   273072 
 5825000   0.59338723    -3.294102   -1.8629135  0.027090723    -3.294102    1.4311885   273059 
 5826000    0.5919334   -3.2945579   -1.8664837  0.032064643   -3.2945579    1.4280742   272984 
 5827000   0.59246728    -3.296576   -1.8669728   0.03333052    -3.296576    1.4296032   272938 
 5828000   0.59397685   -3.2980785   -1.8645755   0.02624407   -3.2980785     1.433503   272889 
 5829000   0.59344796   -3.2957866    -1.863287  0.030986038   -3.2957866    1.4324996   272837 
 5830000    0.5946916   -3.2978492   -1.8619792  0.035625282   -3.2978492      1.43587   272767 
 5831000   0.59500262   -3.2973363   -1.8605047  0.036463923   -3.2973363    1.4368316   272727 
 5832000   0.59482841   -3.2954421   -1.8587994  0.035937076   -3.2954421    1.4366427   272683 
 5833000   0.59713261   -3.2995296   -1.8568986  0.032186909   -3.2995296    1.4426311   272603 
 5834000   0.59610637   -3.2987052   -1.8582258  0.035804078   -3.2987052    1.4404794   272541 
 5835000   0.59514369    -3.298903   -1.8605493  0.034585253    -3.298903    1.4383537   272503 
 5836000   0.59304978   -3.2954931    -1.861958  0.032349356   -3.2954931     1.433535   272457 
 5837000     0.592813   -3.2953872   -1.8619721  0.032483888   -3.2953872    1.4334151   272371 
 5838000   0.59262121   -3.2927447   -1.8595566  0.035194684   -3.2927447    1.4331882   272326 
 5839000   0.59372203   -3.2948414   -1.8585638  0.033946552   -3.2948414    1.4362776   272245 
 5840000    0.5935179   -3.2967333   -1.8607174  0.031352787   -3.2967333    1.4360159   272201 
 5841000    0.5933225   -3.2944662   -1.8588018  0.031822643   -3.2944662    1.4356644   272178 
 5842000   0.59257351   -3.2925468   -1.8581519   0.03274301   -3.2925468    1.4343949   272075 
 5843000   0.59273865   -3.2930133   -1.8581131  0.032695287   -3.2930133    1.4349001   272055 
 5844000   0.59227192   -3.2911434   -1.8569672  0.030286681   -3.2911434    1.4341762   271978 
 5845000   0.59254127   -3.2929727    -1.857701  0.031375908   -3.2929727    1.4352717   271894 
 5846000   0.59256943   -3.2927867   -1.8570402  0.028142991   -3.2927867    1.4357465   271817 
 5847000    0.5916594   -3.2908308    -1.857015  0.032743504   -3.2908308    1.4338159   271765 
 5848000   0.59103978   -3.2894877   -1.8569889  0.032428668   -3.2894877    1.4324988   271730 
 5849000   0.59191737   -3.2919253   -1.8568929  0.029328905   -3.2919253    1.4350324   271653 
 5850000   0.59184279   -3.2917579   -1.8566158  0.029585754   -3.2917579    1.4351422   271598 
 5851000   0.58952656   -3.2891347   -1.8593406  0.029704599   -3.2891347    1.4297941   271547 
 5852000   0.59000616   -3.2874548   -1.8564027  0.034237157   -3.2874548    1.4310521   271529 
 5853000   0.58915463   -3.2859992   -1.8567651  0.032879084   -3.2859992    1.4292341   271482 
 5854000   0.58961008     -3.28672   -1.8562439  0.035142502     -3.28672     1.430476   271456 
 5855000   0.59014024    -3.285911   -1.8542121  0.035452404    -3.285911     1.431699   271468 
 5856000   0.59246794   -3.2929852   -1.8554273  0.032852194   -3.2929852    1.4375579   271428 
 5857000   0.59050838   -3.2881363    -1.854937  0.030443132   -3.2881363    1.4331992   271353 
 5858000   0.59018904    -3.285611   -1.8528225  0.034664922    -3.285611    1.4327885   271284 
 5859000   0.59060984   -3.2864305   -1.8523138   0.03111321   -3.2864305    1.4341167   271226 
 5860000   0.59029938    -3.289706   -1.8559361  0.030893988    -3.289706    1.4337699   271149 
 5861000   0.59051779   -3.2885383   -1.8539363   0.03860881   -3.2885383    1.4346019   271092 
 5862000   0.59055149    -3.290266   -1.8551746  0.033419355    -3.290266    1.4350914   271015 
 5863000   0.59001408   -3.2880793    -1.854389  0.033485127   -3.2880793    1.4336903   271033 
 5864000   0.59033281   -3.2893269   -1.8547457  0.033014939   -3.2893269    1.4345812   271011 
 5865000   0.59076216   -3.2911631   -1.8552259  0.029028949   -3.2911631    1.4359372   270952 
 5866000   0.58990022   -3.2907041   -1.8566661  0.034692062   -3.2907041    1.4340379   270915 
 5867000   0.58859453    -3.289379   -1.8577383  0.033274777    -3.289379    1.4316406   270768 
 5868000   0.58856321   -3.2922862   -1.8603092  0.034961514   -3.2922862     1.431977   270690 
 5869000   0.58948548   -3.2943367   -1.8596124  0.030718919   -3.2943367    1.4347244   270595 
 5870000    0.5895449   -3.2915589    -1.856361   0.03200053   -3.2915589    1.4351978   270533 
 5871000   0.58791226   -3.2897437   -1.8581341  0.030527781   -3.2897437    1.4316096   270460 
 5872000   0.58870241   -3.2911839   -1.8573109  0.031432565   -3.2911839     1.433873   270396 
 5873000   0.58810118   -3.2905626   -1.8578255  0.030627301   -3.2905626    1.4327371   270334 
 5874000   0.58687132   -3.2883387   -1.8581587  0.032254108   -3.2883387      1.43018   270251 
 5875000    0.5883238   -3.2908507   -1.8568976  0.032294203   -3.2908507    1.4339531   270207 
 5876000   0.58809825    -3.290038   -1.8565179  0.033137941    -3.290038    1.4335201   270185 
 5877000   0.58745995   -3.2897661   -1.8576217  0.032654203   -3.2897661    1.4321444   270151 
 5878000   0.58828783   -3.2900494   -1.8553822  0.032082505   -3.2900494    1.4346672   270056 
 5879000   0.58717082   -3.2874585   -1.8550911  0.030854465   -3.2874585    1.4323674   269976 
 5880000   0.58775507   -3.2886429   -1.8545315  0.027521219   -3.2886429    1.4341114   269916 
 5881000   0.58834914    -3.290355   -1.8545919  0.031478725    -3.290355    1.4357631   269878 
 5882000   0.58760669   -3.2889986   -1.8545583  0.033608661   -3.2889986    1.4344402   269786 
 5883000   0.58798145   -3.2913761   -1.8556112  0.031109687   -3.2913761    1.4357649   269709 
 5884000   0.58684421   -3.2888431   -1.8554141  0.031689787   -3.2888431     1.433429   269626 
 5885000   0.58760799   -3.2871411   -1.8515537  0.028604596   -3.2871411    1.4355875   269571 
 5886000    0.5864321   -3.2876387   -1.8546848  0.029591864   -3.2876387    1.4329538   269526 
 5887000   0.58790865   -3.2903622   -1.8534646  0.032301802   -3.2903622    1.4368977   269463 
 5888000   0.58734453   -3.2887247   -1.8529606  0.033477084   -3.2887247     1.435764   269417 
 5889000   0.58696465   -3.2889027   -1.8536198  0.032035017   -3.2889027    1.4352829   269333 
 5890000   0.58659401   -3.2881764   -1.8535708  0.034763607   -3.2881764    1.4346056   269290 
 5891000   0.58647127   -3.2880932   -1.8536813  0.032555529   -3.2880932     1.434412   269270 
 5892000   0.58613661   -3.2874517   -1.8535973  0.029845477   -3.2874517    1.4338544   269221 
 5893000   0.58587738   -3.2858058   -1.8523619  0.033802838   -3.2858058    1.4334439   269179 
 5894000   0.58579357    -3.287734   -1.8540585  0.034142368    -3.287734    1.4336755   269097 
 5895000   0.58712557   -3.2879588   -1.8505265  0.032042086   -3.2879588    1.4374323   269004 
 5896000   0.58704482   -3.2887823   -1.8511469   0.03478709   -3.2887823    1.4376354   268929 
 5897000   0.58693517   -3.2868428   -1.8495027  0.036303603   -3.2868428    1.4373401   268934 
 5898000   0.58713997   -3.2893224   -1.8512507  0.031302397   -3.2893224    1.4380716   268891 
 5899000   0.58622633    -3.286956    -1.851026  0.029287291    -3.286956      1.43593   268873 
 5900000   0.58470778   -3.2832965    -1.850921  0.031504156   -3.2832965    1.4323755   268842 
 5901000   0.58472047   -3.2855196   -1.8526973  0.031612446   -3.2855196    1.4328223   268764 
 5902000    0.5848084   -3.2860522   -1.8527638  0.028717608   -3.2860522    1.4332884   268717 
 5903000   0.58558262   -3.2867711   -1.8511899  0.032672797   -3.2867711    1.4355813   268643 
 5904000   0.58518936   -3.2834122   -1.8486615  0.034741526   -3.2834122    1.4347507   268618 
 5905000   0.58454901   -3.2832717   -1.8499096  0.034167132   -3.2832717    1.4333621   268584 
 5906000   0.58566645     -3.28559   -1.8491616  0.031321575     -3.28559    1.4364284   268523 
 5907000   0.58473695    -3.285724    -1.851212  0.036516214    -3.285724     1.434512   268455 
 5908000   0.58541283   -3.2866411   -1.8499358  0.032222469   -3.2866411    1.4367052   268355 
 5909000   0.58523391   -3.2865763   -1.8499247  0.033235479   -3.2865763    1.4366516   268283 
 5910000   0.58456921   -3.2844904   -1.8492726  0.028554634   -3.2844904    1.4352178   268246 
 5911000   0.58489969    -3.286038   -1.8499018  0.034821663    -3.286038    1.4361363   268226 
 5912000   0.58341532    -3.283375   -1.8503117  0.034347742    -3.283375    1.4330633   268119 
 5913000    0.5836563   -3.2839315   -1.8499661  0.033464755   -3.2839315    1.4339654   268061 
 5914000   0.58303145   -3.2806485   -1.8479778  0.030723529   -3.2806485    1.4326707   268016 
 5915000   0.58354541   -3.2820198   -1.8476848  0.031392321   -3.2820198    1.4343351   267941 
 5916000   0.58433841   -3.2847544   -1.8481323  0.028450501   -3.2847544     1.436622   267878 
 5917000   0.58364913   -3.2825095   -1.8476357  0.038133047   -3.2825095    1.4348738   267888 
 5918000   0.58439016   -3.2840131   -1.8469849  0.028206259   -3.2840131    1.4370282   267826 
 5919000   0.58349207    -3.282409   -1.8474553   0.02785093    -3.282409    1.4349537   267801 
 5920000   0.58342107    -3.282768   -1.8476995  0.032607876    -3.282768    1.4350685   267747 
 5921000   0.58299284   -3.2813487   -1.8470604  0.032252097   -3.2813487    1.4342883   267696 
 5922000   0.58304322   -3.2813233   -1.8464071   0.02773478   -3.2813233    1.4349161   267602 
 5923000   0.58392846   -3.2833567   -1.8460793  0.034845363   -3.2833567    1.4372774   267568 
 5924000   0.58342527   -3.2824632   -1.8463599  0.031830843   -3.2824632    1.4361033   267556 
 5925000   0.58432826   -3.2817256   -1.8433405  0.034808931   -3.2817256    1.4383851   267545 
 5926000   0.58325912   -3.2806709   -1.8448478  0.034663799   -3.2806709    1.4358231   267532 
 5927000   0.58322425   -3.2804497    -1.844852  0.030757347   -3.2804497    1.4355977   267558 
 5928000   0.58175516   -3.2774605    -1.845147  0.032647105   -3.2774605    1.4323135   267496 
 5929000   0.58227931   -3.2796001   -1.8456745  0.032538642   -3.2796001    1.4339256   267436 
 5930000   0.58324236   -3.2812309   -1.8446651   0.02965101   -3.2812309    1.4365658   267386 
 5931000   0.58261567   -3.2805954   -1.8451759  0.027179994   -3.2805954    1.4354195   267312 
 5932000   0.58151392   -3.2786866   -1.8457081  0.030032779   -3.2786866    1.4329785   267261 
 5933000   0.58216379   -3.2792138   -1.8446017  0.033032955   -3.2792138    1.4346121   267255 
 5934000   0.58177141   -3.2805775   -1.8465192   0.02800884   -3.2805775    1.4340583   267178 
 5935000   0.58146643    -3.282103   -1.8484638  0.030216706    -3.282103    1.4336392   267116 
 5936000   0.57994187   -3.2768756   -1.8468668  0.035131036   -3.2768756    1.4300088   267092 
 5937000   0.58110721   -3.2825572   -1.8491812   0.03152276   -3.2825572     1.433376   267000 
 5938000   0.58385484   -3.2851448   -1.8448457  0.032402482   -3.2851448     1.440299   266973 
 5939000   0.58311705   -3.2837353   -1.8447982  0.036496233   -3.2837353    1.4389371   266888 
 5940000   0.58403088   -3.2857295   -1.8442456  0.041472981   -3.2857295    1.4414838   266834 
 5941000   0.58435375   -3.2880116   -1.8453794  0.034354517   -3.2880116    1.4426321   266769 
 5942000   0.58204073    -3.283449   -1.8464463  0.031898511    -3.283449    1.4370026   266754 
 5943000   0.58092684    -3.282131   -1.8477386  0.027962824    -3.282131    1.4343924   266728 
 5944000   0.58190211   -3.2859314   -1.8486191  0.031010825   -3.2859314    1.4373124   266633 
 5945000    0.5814362    -3.285092   -1.8484294  0.029746734    -3.285092    1.4366627   266540 
 5946000   0.58277936   -3.2855759   -1.8455351  0.030309076   -3.2855759    1.4400409   266529 
 5947000   0.58186098   -3.2851206   -1.8472681  0.033484737   -3.2851206    1.4378525   266514 
 5948000   0.58126189   -3.2844184    -1.847766  0.031805636   -3.2844184    1.4366524   266462 
 5949000   0.58056361   -3.2845569   -1.8495765  0.030415264   -3.2845569    1.4349804   266452 
 5950000   0.58013305   -3.2844605   -1.8504152  0.029614207   -3.2844605    1.4340453   266428 
 5951000   0.58142015    -3.284684   -1.8470848  0.033703381    -3.284684    1.4375992   266359 
 5952000   0.58188545    -3.286629    -1.847755  0.035068445    -3.286629     1.438874   266336 
 5953000   0.58056194   -3.2855539   -1.8497317  0.033873018   -3.2855539    1.4358222   266295 
 5954000   0.58040576   -3.2859253   -1.8500202   0.03113532   -3.2859253    1.4359051   266208 
 5955000   0.58046255   -3.2855862   -1.8491575  0.032637563   -3.2855862    1.4364287   266137 
 5956000   0.58054745   -3.2850665   -1.8481091  0.027984509   -3.2850665    1.4369574   266078 
 5957000   0.58172551    -3.287487   -1.8474351  0.030090137    -3.287487    1.4400519   266045 
 5958000   0.58223987   -3.2883152   -1.8467787  0.033842774   -3.2883152    1.4415365   266006 
 5959000   0.58088415    -3.283193   -1.8447967  0.037261548    -3.283193    1.4383962   265966 
 5960000   0.58095568   -3.2832189   -1.8445753  0.034346478   -3.2832189    1.4386437   265953 
 5961000   0.58007196    -3.282443   -1.8457446  0.028525987    -3.282443    1.4366984   265908 
 5962000    0.5799008    -3.280441   -1.8442746  0.030425619    -3.280441    1.4361664   265928 
 5963000   0.58057393   -3.2814923    -1.843437  0.033806767   -3.2814923    1.4380552   265887 
 5964000   0.58141323   -3.2818727   -1.8415165  0.036294062   -3.2818727    1.4403562   265846 
 5965000   0.58015071   -3.2804884   -1.8428705  0.037200529   -3.2804884    1.4376179   265774 
 5966000   0.58076811   -3.2799147   -1.8406207  0.035773473   -3.2799147     1.439294   265747 
 5967000   0.58024288   -3.2794756   -1.8412235  0.033915422   -3.2794756    1.4382522   265699 
 5968000   0.57927213   -3.2759702    -1.839854   0.03342164   -3.2759702    1.4361162   265649 
 5969000    0.5804258   -3.2761118   -1.8366911  0.034521611   -3.2761118    1.4394207   265567 
 5970000   0.58049431   -3.2776689   -1.8377259  0.031978271   -3.2776689     1.439943   265502 
 5971000     0.579176   -3.2739027   -1.8370891  0.033943489   -3.2739027    1.4368136   265476 
 5972000   0.58032713   -3.2777489    -1.837982  0.032001823   -3.2777489    1.4397669   265458 
 5973000   0.57991004    -3.276734   -1.8375899  0.034985549    -3.276734    1.4391442   265382 
 5974000   0.57860623   -3.2735698   -1.8372445  0.035060306   -3.2735698    1.4363253   265305 
 5975000   0.57990539   -3.2753219   -1.8357879  0.032248672   -3.2753219     1.439534   265308 
 5976000   0.57999718   -3.2735463   -1.8334316  0.035716671   -3.2735463    1.4401147   265243 
 5977000   0.58003605   -3.2708144   -1.8304837  0.033962857   -3.2708144    1.4403307   265221 
 5978000   0.58089429   -3.2723666   -1.8295457  0.036149325   -3.2723666    1.4428209   265155 
 5979000   0.57841304   -3.2686908   -1.8318378  0.035511268   -3.2686908     1.436853   265119 
 5980000   0.58045835   -3.2716512   -1.8293529  0.034767364   -3.2716512    1.4422984   265052 
 5981000    0.5793315   -3.2688089   -1.8289629   0.02955987   -3.2688089    1.4398461   264988 
 5982000    0.5794396   -3.2693815   -1.8290548  0.033078706   -3.2693815    1.4403267   264949 
 5983000   0.57869611   -3.2695633   -1.8307969  0.031296169   -3.2695633    1.4387664   264896 
 5984000   0.57855745   -3.2682061   -1.8295727  0.035756571   -3.2682061    1.4386335   264857 
 5985000   0.57862349   -3.2668898   -1.8275433  0.036125369   -3.2668898    1.4393466   264756 
 5986000   0.57883821   -3.2670649   -1.8270917  0.031794411   -3.2670649    1.4399732   264739 
 5987000   0.57946123   -3.2678158   -1.8260259  0.034364454   -3.2678158    1.4417899   264690 
 5988000     0.579842   -3.2698474   -1.8266248   0.03421479   -3.2698474    1.4432226   264601 
 5989000   0.57837024   -3.2690498   -1.8290278  0.033879481   -3.2690498     1.440022   264516 
 5990000   0.57945802   -3.2700656   -1.8270897  0.036124772   -3.2700656    1.4429758   264471 
 5991000   0.57890411   -3.2675918   -1.8258808  0.037324944   -3.2675918    1.4417109   264450 
 5992000    0.5769494   -3.2660445    -1.829169  0.033615904   -3.2660445    1.4368755   264444 
 5993000    0.5769423   -3.2665565   -1.8293291  0.032055717   -3.2665565    1.4372274   264376 
 5994000   0.57714898   -3.2648292    -1.827087  0.036340012   -3.2648292    1.4377423   264376 
 5995000   0.57730887   -3.2658261   -1.8273972   0.03424438   -3.2658261    1.4384289   264323 
 5996000   0.57767323   -3.2667611   -1.8273372  0.033512501   -3.2667611    1.4394239   264307 
 5997000   0.57685738   -3.2638511   -1.8263132  0.034813875   -3.2638511    1.4375378   264280 
 5998000   0.57795802   -3.2657461   -1.8251548  0.033448989   -3.2657461    1.4405914   264223 
 5999000   0.57791226   -3.2667956   -1.8260293  0.033341584   -3.2667956    1.4407663   264170 
 6000000   0.57803166   -3.2651225   -1.8239003  0.034578789   -3.2651225    1.4412222   264141 
 6001000   0.57825666   -3.2639003   -1.8221062  0.033654759   -3.2639003    1.4417941   264139 
 6002000   0.57827213   -3.2624568   -1.8202746  0.031701532   -3.2624568    1.4421821   264075 
 6003000   0.57866395   -3.2639311   -1.8205203  0.036398428   -3.2639311    1.4434107   264029 
 6004000   0.57856076   -3.2644835    -1.820931  0.033499733   -3.2644835    1.4435525   263956 
 6005000    0.5769328   -3.2613606   -1.8215646  0.031447833   -3.2613606     1.439796   263900 
 6006000   0.57761367   -3.2620944   -1.8203479  0.034833216   -3.2620944    1.4417465   263854 
 6007000   0.57736471   -3.2614473   -1.8198633  0.033830894   -3.2614473    1.4415841   263770 
 6008000    0.5768565    -3.262571   -1.8219337  0.031670023    -3.262571    1.4406374   263711 
 6009000   0.57608453   -3.2616356   -1.8227242  0.031297761   -3.2616356    1.4389113   263674 
 6010000   0.57527235   -3.2577444   -1.8204365  0.032013101   -3.2577444    1.4373079   263596 
 6011000   0.57521174   -3.2596303   -1.8220539  0.032870317   -3.2596303    1.4375764   263519 
 6012000   0.57724772   -3.2624012   -1.8196215  0.029339283   -3.2624012    1.4427797   263498 
 6013000   0.57678755    -3.260223   -1.8181392  0.033690291    -3.260223    1.4420838   263415 
 6014000    0.5772931   -3.2638317    -1.819996  0.031165738   -3.2638317    1.4438356   263326 
 6015000   0.57703458   -3.2615647   -1.8184853  0.030333739   -3.2615647    1.4430795   263346 
 6016000   0.57773991   -3.2605625   -1.8156204  0.035196381   -3.2605625    1.4449422   263328 
 6017000   0.57715209   -3.2593882   -1.8153514  0.034772664   -3.2593882    1.4440368   263225 
 6018000   0.57641168   -3.2586305   -1.8160845  0.040930324   -3.2586305     1.442546   263159 
 6019000   0.57633191   -3.2591226   -1.8164089   0.03498017   -3.2591226    1.4427137   263092 
 6020000   0.57619068   -3.2595592   -1.8170345   0.03493414   -3.2595592    1.4425247   263062 
 6021000   0.57437674   -3.2563753   -1.8180474  0.033392789   -3.2563753    1.4383278   262999 
 6022000   0.57551657   -3.2602544   -1.8187544  0.036761196   -3.2602544       1.4415   262941 
 6023000   0.57490836   -3.2571739   -1.8169233  0.032980403   -3.2571739    1.4402505   262891 
 6024000    0.5756599   -3.2581386   -1.8160218  0.031742955   -3.2581386    1.4421168   262894 
 6025000   0.57548356   -3.2587724   -1.8169658  0.029198096   -3.2587724    1.4418067   262870 
 6026000   0.57489339   -3.2583857   -1.8180741    0.0377919   -3.2583857    1.4403116   262873 
 6027000   0.57700687    -3.261267   -1.8155723  0.033452781    -3.261267    1.4456946   262857 
 6028000   0.57635887   -3.2610293   -1.8163977  0.035693356   -3.2610293    1.4446317   262755 
 6029000    0.5732997   -3.2530261   -1.8158325  0.032904428   -3.2530261    1.4371936   262713 
 6030000   0.57420938   -3.2565301   -1.8168039  0.034418931   -3.2565301    1.4397262   262667 
 6031000    0.5751548   -3.2589711   -1.8164571  0.033959051   -3.2589711     1.442514   262591 
 6032000   0.57431769   -3.2583998   -1.8176287  0.029523397   -3.2583998    1.4407711   262526 
 6033000   0.57507741   -3.2596898   -1.8167709  0.028461277   -3.2596898    1.4429189   262482 
 6034000   0.57466314   -3.2604276   -1.8179382  0.036650698   -3.2604276    1.4424895   262371 
 6035000   0.57415943   -3.2589339   -1.8172418  0.031936009   -3.2589339    1.4416921   262286 
 6036000   0.57511649   -3.2636411   -1.8190006  0.035206827   -3.2636411    1.4446405   262187 
 6037000   0.57375915   -3.2602262   -1.8187148  0.034708032   -3.2602262    1.4415114   262136 
 6038000   0.57435277   -3.2605846   -1.8171137  0.038251062   -3.2605846    1.4434709   262051 
 6039000    0.5747493   -3.2613341   -1.8167013  0.034249866   -3.2613341    1.4446328   262021 
 6040000   0.57317752    -3.258634   -1.8179078  0.036173434    -3.258634    1.4407262   262013 
 6041000   0.57255578   -3.2574799   -1.8179264  0.031661055   -3.2574799    1.4395535   261942 
 6042000   0.57295669   -3.2594326   -1.8184696    0.0329366   -3.2594326     1.440963   261869 
 6043000   0.57235151   -3.2584235    -1.818768  0.034642171   -3.2584235    1.4396554   261830 
 6044000   0.57255378   -3.2608583   -1.8205951  0.033715446   -3.2608583    1.4402632   261812 
 6045000   0.57178319   -3.2601473    -1.821317  0.033553055   -3.2601473    1.4388304   261720 
 6046000   0.57102866   -3.2584538   -1.8210333  0.030679761   -3.2584538    1.4374205   261631 
 6047000   0.57195097   -3.2604092   -1.8203808   0.03265412   -3.2604092    1.4400284   261579 
 6048000   0.57196523   -3.2580533   -1.8174824   0.03475747   -3.2580533     1.440571   261487 
 6049000   0.57341076   -3.2606665   -1.8161399  0.035179557   -3.2606665    1.4445266   261430 
 6050000   0.57137631     -3.25841   -1.8184081  0.034701548     -3.25841    1.4400018   261321 
 6051000   0.57277281   -3.2617344    -1.818086  0.031589826   -3.2617344    1.4436484   261298 
 6052000   0.57157187   -3.2589291   -1.8181588  0.033727069   -3.2589291    1.4407704   261271 
 6053000   0.56978881   -3.2564293   -1.8200216  0.029374786   -3.2564293    1.4364077   261247 
 6054000   0.56902994   -3.2555449   -1.8206108  0.034304537   -3.2555449    1.4349341   261167 
 6055000    0.5690993   -3.2555682   -1.8202119  0.032248758   -3.2555682    1.4353563   261122 
 6056000   0.57025257   -3.2570639   -1.8184187  0.034515471   -3.2570639    1.4386452   261053 
 6057000   0.57150275   -3.2600884   -1.8181622  0.036074419   -3.2600884    1.4419262   261030 
 6058000   0.57102236   -3.2595706   -1.8185197  0.033595149   -3.2595706    1.4410509   260969 
 6059000   0.56907404   -3.2572153   -1.8208446   0.03044661   -3.2572153    1.4363707   260926 
 6060000   0.56935637   -3.2568905   -1.8195041  0.031279969   -3.2568905    1.4373863   260871 
 6061000   0.56898616   -3.2564542   -1.8195728  0.034479848   -3.2564542    1.4368813   260793 
 6062000   0.56993469   -3.2598223   -1.8205953  0.034581807   -3.2598223     1.439227   260802 
 6063000   0.56955493    -3.259921   -1.8209578  0.031756976    -3.259921    1.4389632   260676 
 6064000   0.57020792   -3.2616714   -1.8206439  0.031779837   -3.2616714    1.4410276   260601 
 6065000   0.56934013   -3.2601047   -1.8209941  0.030421524   -3.2601047    1.4391106   260551 
 6066000   0.56961857   -3.2585847   -1.8187205  0.030730429   -3.2585847    1.4398642   260542 
 6067000    0.5700112   -3.2607015   -1.8195848  0.032964443   -3.2607015    1.4411166   260495 
 6068000   0.56994532   -3.2600081   -1.8187814  0.033227021   -3.2600081    1.4412267   260445 
 6069000   0.56906493   -3.2601883   -1.8208286  0.034458739   -3.2601883    1.4393597   260380 
 6070000   0.56900356   -3.2604864   -1.8210885   0.03387168   -3.2604864    1.4393979   260345 
 6071000   0.57031848   -3.2620965   -1.8192281  0.030287568   -3.2620965    1.4428684   260319 
 6072000   0.57040394   -3.2618616   -1.8183999  0.034552222   -3.2618616    1.4434616   260251 
 6073000   0.57015119   -3.2629063   -1.8197016  0.035177612   -3.2629063    1.4432047   260182 
 6074000   0.57007489   -3.2624093   -1.8189096  0.036231975   -3.2624093    1.4434997   260094 
 6075000    0.5692584   -3.2630684   -1.8213534  0.027124085   -3.2630684     1.441715   260043 
 6076000    0.5679243   -3.2581055    -1.819382  0.035649545   -3.2581055    1.4387235   259973 
 6077000   0.56944399   -3.2597605   -1.8170762  0.034882903   -3.2597605    1.4426843   259953 
 6078000   0.56848783   -3.2572095   -1.8165597  0.034768754   -3.2572095    1.4406498   259883 
 6079000   0.56875799   -3.2575527   -1.8159631  0.036166773   -3.2575527    1.4415896   259837 
 6080000   0.56807843    -3.256996   -1.8165855    0.0325641    -3.256996    1.4404105   259739 
 6081000   0.56775562   -3.2550768   -1.8151411  0.035713517   -3.2550768    1.4399357   259677 
 6082000   0.56758948   -3.2563668   -1.8166419  0.031520365   -3.2563668     1.439725   259639 
 6083000   0.56566735   -3.2524097   -1.8170683  0.029140517   -3.2524097    1.4353414   259550 
 6084000   0.56701752   -3.2535246   -1.8147572  0.032326073   -3.2535246    1.4387674   259550 
 6085000   0.56605902       -3.251   -1.8144988  0.032032833       -3.251    1.4365013   259520 
 6086000   0.56655435   -3.2528158   -1.8147583  0.034110223   -3.2528158    1.4380575   259466 
 6087000   0.56775058   -3.2531333   -1.8116617  0.035582707   -3.2531333    1.4414716   259398 
 6088000   0.56822093   -3.2546773   -1.8117612  0.030600161   -3.2546773    1.4429161   259353 
 6089000   0.56621022   -3.2549662   -1.8167623  0.032407382   -3.2549662    1.4382039   259282 
 6090000   0.56601445   -3.2536678   -1.8156672  0.027884175   -3.2536678    1.4380006   259229 
 6091000   0.56525175   -3.2523418   -1.8160739  0.033889874   -3.2523418    1.4362679   259192 
 6092000    0.5660163   -3.2511744   -1.8128695   0.03688678   -3.2511744    1.4383049   259175 
 6093000   0.56668836   -3.2523987   -1.8123416  0.033028023   -3.2523987    1.4400571   259167 
 6094000    0.5668567   -3.2538715   -1.8132142  0.032726677   -3.2538715    1.4406572   259136 
 6095000   0.56632403   -3.2503759   -1.8108002  0.034921161   -3.2503759    1.4395757   259087 
 6096000   0.56668937    -3.249481   -1.8089377  0.032404488    -3.249481    1.4405433   259080 
 6097000   0.56695818   -3.2542448   -1.8125062   0.02952443   -3.2542448    1.4417386   258988 
 6098000   0.56701212   -3.2530806   -1.8109989  0.033541544   -3.2530806    1.4420817   258951 
 6099000   0.56640763   -3.2508677   -1.8096778  0.036067628   -3.2508677    1.4411899   258835 
 6100000   0.56705323   -3.2547114   -1.8114327  0.031789469   -3.2547114    1.4432787   258755 
 6101000   0.56543577    -3.252334   -1.8128772  0.032268826    -3.252334    1.4394568   258702 
 6102000   0.56452741   -3.2512084   -1.8140585  0.031366848   -3.2512084    1.4371499   258701 
 6103000   0.56493361   -3.2516453   -1.8129163  0.033678338   -3.2516453     1.438729   258603 
 6104000   0.56491253   -3.2534649   -1.8144836  0.029026798   -3.2534649    1.4389813   258548 
 6105000   0.56480072   -3.2542802   -1.8151996   0.03481387   -3.2542802    1.4390806   258479 
 6106000   0.56565524    -3.255202   -1.8137713   0.03264932    -3.255202    1.4414307   258448 
 6107000   0.56526213   -3.2551889    -1.814353  0.029354546   -3.2551889    1.4408359   258375 
 6108000   0.56303042    -3.254823   -1.8192756  0.033790077    -3.254823    1.4355474   258303 
 6109000   0.56348951   -3.2560567   -1.8190606  0.029663616   -3.2560567    1.4369961   258253 
 6110000   0.56430642   -3.2588987   -1.8193846  0.033848488   -3.2588987    1.4395141   258175 
 6111000      0.56638   -3.2612023   -1.8160571  0.035951277   -3.2612023    1.4451452   258114 
 6112000   0.56653569   -3.2622131   -1.8167659  0.035414867   -3.2622131    1.4454472   258131 
 6113000   0.56638423   -3.2613946   -1.8161602  0.036356369   -3.2613946    1.4452344   258100 
 6114000   0.56503112   -3.2589339   -1.8167052   0.03413598   -3.2589339    1.4422287   258020 
 6115000   0.56469057   -3.2608304   -1.8190966  0.031080157   -3.2608304    1.4417338   257953 
 6116000   0.56471365    -3.259968   -1.8182144  0.032619648    -3.259968    1.4417536   257960 
 6117000   0.56378139   -3.2557726    -1.816081  0.035083907   -3.2557726    1.4396916   257903 
 6118000   0.56343004   -3.2545009   -1.8154443  0.029373244   -3.2545009    1.4390566   257856 
 6119000   0.56359964   -3.2533408   -1.8136835  0.032255557   -3.2533408    1.4396573   257826 
 6120000   0.56327908   -3.2537699   -1.8145295   0.03047252   -3.2537699    1.4392404   257754 
 6121000   0.56340856   -3.2520259   -1.8121531  0.033850053   -3.2520259    1.4398729   257700 
 6122000   0.56309787   -3.2514118   -1.8119028  0.034483288   -3.2514118     1.439509   257623 
 6123000   0.56323943   -3.2500483   -1.8098644    0.0341667   -3.2500483    1.4401839   257567 
 6124000   0.56291353   -3.2491601   -1.8092839  0.034719089   -3.2491601    1.4398761   257473 
 6125000   0.56225391   -3.2474335   -1.8091329  0.030106127   -3.2474335    1.4383006   257453 
 6126000   0.56216094   -3.2463008   -1.8079028  0.034012986   -3.2463008     1.438398   257393 
 6127000   0.56243806   -3.2456201    -1.806267   0.03477304   -3.2456201    1.4393531   257349 
 6128000   0.56369856   -3.2487254    -1.806197  0.031043563   -3.2487254    1.4425284   257358 
 6129000   0.56194884   -3.2451371   -1.8065608  0.032360035   -3.2451371    1.4385763   257264 
 6130000   0.56162687   -3.2431001   -1.8051803  0.031413682   -3.2431001    1.4379197   257234 
 6131000   0.56098713   -3.2415532   -1.8052212  0.031283835   -3.2415532    1.4363321   257225 
 6132000    0.5621254   -3.2438799     -1.80446  0.031426572   -3.2438799    1.4394199   257194 
 6133000   0.56237442   -3.2434813   -1.8031213  0.033152322   -3.2434813      1.44036   257140 
 6134000   0.56202393   -3.2402345    -1.800397  0.032393403   -3.2402345    1.4398375   257073 
 6135000   0.56276213   -3.2416105   -1.7995677  0.031175043   -3.2416105    1.4420428   257017 
 6136000   0.56136034   -3.2409937   -1.8021958  0.031047197   -3.2409937    1.4387979   256955 
 6137000   0.56102333   -3.2408615   -1.8025748  0.030998933   -3.2408615    1.4382867   256892 
 6138000   0.56061639   -3.2391292   -1.8014604  0.033131348   -3.2391292    1.4376688   256816 
 6139000   0.56157942   -3.2405217   -1.8000411  0.031647276   -3.2405217    1.4404806   256755 
 6140000   0.56133209   -3.2404974   -1.8003035   0.03757496   -3.2404974    1.4401939   256693 
 6141000   0.56138442   -3.2404531   -1.7997602  0.035922069   -3.2404531     1.440693   256628 
 6142000   0.56121421   -3.2421505   -1.8015687  0.030151728   -3.2421505    1.4405818   256570 
 6143000   0.55954108   -3.2385622   -1.8017488  0.033655225   -3.2385622    1.4368134   256476 
 6144000   0.56064886   -3.2412438   -1.8012377  0.031822903   -3.2412438    1.4400061   256414 
 6145000   0.55992823   -3.2379574   -1.7996508  0.034222853   -3.2379574    1.4383067   256387 
 6146000   0.55980262   -3.2384026   -1.8002335  0.031223553   -3.2384026    1.4381691   256354 
 6147000   0.55911282   -3.2368515   -1.8002024  0.029831078   -3.2368515    1.4366492   256309 
 6148000   0.55848283    -3.236168   -1.8007512   0.02975781    -3.236168    1.4354168   256240 
 6149000   0.55950266   -3.2378253   -1.7995908  0.028707233   -3.2378253    1.4382344   256205 
 6150000   0.56076646   -3.2392633     -1.79742  0.033548227   -3.2392633    1.4418433   256141 
 6151000   0.56052216   -3.2406817   -1.7990107  0.034222476   -3.2406817     1.441671   256060 
 6152000   0.55996613   -3.2377917   -1.7974102  0.032849261   -3.2377917    1.4403816   256035 
 6153000   0.55868954   -3.2372878   -1.8000497  0.029790278   -3.2372878    1.4372382   256010 
 6154000   0.55856299    -3.237037   -1.7998998  0.033502929    -3.237037    1.4371372   255970 
 6155000   0.55862409    -3.238676   -1.8007075  0.033031833    -3.238676    1.4379685   255850 
 6156000   0.55843243   -3.2391535    -1.801195  0.029535462   -3.2391535    1.4379585   255764 
 6157000   0.55800215   -3.2372153   -1.8002244  0.031625928   -3.2372153     1.436991   255739 
 6158000   0.55865322   -3.2370626   -1.7981249  0.031269674   -3.2370626    1.4389377   255691 
 6159000   0.55819309   -3.2363888   -1.7982932  0.033175774   -3.2363888    1.4380956   255630 
 6160000   0.55889156   -3.2384874   -1.7981189  0.032613902   -3.2384874    1.4403684   255546 
 6161000   0.55839161   -3.2358582   -1.7965867  0.029253637   -3.2358582    1.4392715   255512 
 6162000   0.55900762   -3.2384393   -1.7972134   0.03392386   -3.2384393    1.4412259   255447 
 6163000    0.5591917   -3.2381813   -1.7961422  0.032911174   -3.2381813    1.4420392   255387 
 6164000   0.55883565     -3.23793   -1.7964929  0.038490447     -3.23793    1.4414371   255331 
 6165000   0.55771907   -3.2378944     -1.79905  0.034475288   -3.2378944    1.4388444   255280 
 6166000   0.55697171   -3.2362144   -1.7990278  0.033677203   -3.2362144    1.4371866   255232 
 6167000   0.55753266   -3.2395066   -1.8004836  0.031620491   -3.2395066     1.439023   255163 
 6168000   0.55801659   -3.2376805    -1.797064   0.03367253   -3.2376805    1.4406165   255102 
 6169000   0.55797794   -3.2363576   -1.7958296  0.035037189   -3.2363576     1.440528   255100 
 6170000   0.55781663   -3.2364375   -1.7960211  0.036341943   -3.2364375    1.4404164   255046 
 6171000   0.55759274   -3.2353962   -1.7953942  0.032216573   -3.2353962     1.440002   255017 
 6172000   0.55819013   -3.2362348   -1.7941528  0.033637205   -3.2362348     1.442082   254922 
 6173000   0.55860533   -3.2376529   -1.7943624  0.033070428   -3.2376529    1.4432906   254898 
 6174000   0.55756749   -3.2345459   -1.7933149  0.033031807   -3.2345459     1.441231   254788 
 6175000   0.55708509   -3.2340994   -1.7941096  0.034257977   -3.2340994    1.4399898   254787 
 6176000   0.55686012   -3.2362546   -1.7967164  0.031920259   -3.2362546    1.4395382   254764 
 6177000   0.55618314   -3.2324335   -1.7941881  0.037960687   -3.2324335    1.4382454   254683 
 6178000   0.55639313   -3.2340553   -1.7949561  0.030763935   -3.2340553    1.4390992   254628 
 6179000   0.55522512   -3.2320968   -1.7957478  0.030744783   -3.2320968    1.4363489   254580 
 6180000   0.55542147   -3.2341237   -1.7968039  0.032423041   -3.2341237    1.4373199   254498 
 6181000    0.5547785   -3.2333945   -1.7972476  0.029914242   -3.2333945    1.4361469   254411 
 6182000   0.55403981   -3.2303483   -1.7958937  0.031500816   -3.2303483    1.4344546   254372 
 6183000   0.55441083   -3.2325448   -1.7968644  0.031283711   -3.2325448    1.4356804   254325 
 6184000    0.5541811   -3.2331721   -1.7976181  0.032255636   -3.2331721    1.4355541   254242 
 6185000   0.55560768   -3.2349102    -1.795236  0.034476935   -3.2349102    1.4396742   254167 
 6186000   0.55654011   -3.2381923    -1.795648  0.032933454   -3.2381923    1.4425443   254087 
 6187000   0.55605689   -3.2405655   -1.7990979  0.033137384   -3.2405655    1.4414677   254056 
 6188000   0.55612166   -3.2396469   -1.7977162  0.037550632   -3.2396469    1.4419307   254004 
 6189000   0.55578959   -3.2376265   -1.7961652  0.034611383   -3.2376265    1.4414613   253935 
 6190000   0.55467778   -3.2366522   -1.7972412  0.029311956   -3.2366522     1.439411   253788 
 6191000   0.55475416   -3.2367393   -1.7968804  0.038377524   -3.2367393    1.4398589   253744 
 6192000   0.55449461    -3.239582   -1.8001188  0.034886774    -3.239582    1.4394632   253695 
 6193000   0.55321894   -3.2351955   -1.7987665  0.036036372   -3.2351955     1.436429   253646 
 6194000    0.5534731   -3.2381238   -1.8007516  0.032372486   -3.2381238    1.4373722   253596 
 6195000   0.55343251   -3.2370734   -1.7994608  0.032814076   -3.2370734    1.4376126   253535 
 6196000   0.55399983   -3.2345525    -1.795398  0.029561727   -3.2345525    1.4391544   253523 
 6197000   0.55394495   -3.2341656   -1.7948642  0.036791816   -3.2341656    1.4393014   253472 
 6198000   0.55367243   -3.2361827   -1.7972487  0.030467984   -3.2361827    1.4389339   253412 
 6199000   0.55233023   -3.2348926   -1.7990843  0.034575666   -3.2348926    1.4358083   253348 
 6200000   0.55338663   -3.2343755    -1.795361  0.035994203   -3.2343755    1.4390146   253267 
 6201000   0.55283927   -3.2324004   -1.7945083  0.034774616   -3.2324004    1.4378921   253214 
 6202000   0.55210809   -3.2296997   -1.7935279  0.033712994   -3.2296997    1.4361719   253182 
 6203000   0.55199519    -3.230799   -1.7945181  0.035023264    -3.230799     1.436281   253111 
 6204000   0.55156637   -3.2283223   -1.7929019  0.031979167   -3.2283223    1.4354204   253066 
 6205000   0.55141814   -3.2264234   -1.7911902  0.033134208   -3.2264234    1.4352331   253031 
 6206000   0.55284511   -3.2301007   -1.7908463  0.032926691   -3.2301007    1.4392544   252977 
 6207000   0.55199342    -3.227375   -1.7900992  0.029531847    -3.227375    1.4372758   252935 
 6208000   0.55186513   -3.2310421   -1.7935662  0.027342043   -3.2310421     1.437476   252841 
 6209000   0.55057636   -3.2289281   -1.7941508  0.030354121   -3.2289281    1.4347773   252725 
 6210000   0.55100861    -3.230502   -1.7941152  0.030192932    -3.230502    1.4363868   252640 
 6211000   0.55147594   -3.2290171   -1.7913551  0.027486196   -3.2290171     1.437662   252630 
 6212000   0.55129651   -3.2291953   -1.7917337  0.034563253   -3.2291953    1.4374616   252583 
 6213000   0.55275521   -3.2314456   -1.7896611  0.034925107   -3.2314456    1.4417845   252492 
 6214000   0.55283534   -3.2300333    -1.787937  0.033719631   -3.2300333    1.4420963   252474 
 6215000   0.55044449   -3.2267011   -1.7905456  0.034783217   -3.2267011    1.4361555   252422 
 6216000    0.5505579   -3.2266448   -1.7898291  0.028001579   -3.2266448    1.4368157   252358 
 6217000   0.55004671   -3.2277982   -1.7918329  0.032289764   -3.2277982    1.4359653   252273 
 6218000   0.55149374   -3.2298591   -1.7899506  0.032385161   -3.2298591    1.4399084   252244 
 6219000   0.55141473   -3.2297931   -1.7899311  0.034665407   -3.2297931     1.439862   252216 
 6220000   0.55124765   -3.2280357   -1.7883588  0.035400648   -3.2280357    1.4396769   252172 
 6221000   0.55179499   -3.2309344   -1.7895194  0.032642811   -3.2309344     1.441415   252118 
 6222000   0.54984652   -3.2281599    -1.791396  0.032633911   -3.2281599    1.4367639   252041 
 6223000   0.55004067   -3.2275062   -1.7896302  0.034533422   -3.2275062     1.437876   251935 
 6224000   0.54942603   -3.2274131   -1.7904937  0.035377559   -3.2274131    1.4369194   251821 
 6225000   0.54993496   -3.2274113   -1.7890923  0.035185129   -3.2274113     1.438319   251809 
 6226000   0.55011617   -3.2283601   -1.7891671  0.030583843   -3.2283601     1.439193   251739 
 6227000    0.5508222   -3.2264013   -1.7850291  0.035508532   -3.2264013    1.4413722   251681 
 6228000     0.550263   -3.2265229   -1.7864424  0.030289403   -3.2265229    1.4400805   251651 
 6229000   0.54888106   -3.2254915   -1.7886565  0.034067652   -3.2254915     1.436835   251586 
 6230000   0.54878156   -3.2276609   -1.7907265  0.031036513   -3.2276609    1.4369344   251523 
 6231000     0.547759   -3.2250962   -1.7902574  0.030900602   -3.2250962    1.4348388   251421 
 6232000    0.5489883    -3.226118   -1.7880706  0.030583257    -3.226118    1.4380474   251423 
 6233000   0.54814259   -3.2241654   -1.7879905  0.033028273   -3.2241654    1.4361749   251363 
 6234000   0.54810162     -3.22573   -1.7893711  0.031550828     -3.22573     1.436359   251312 
 6235000   0.54647165   -3.2227886   -1.7902223  0.028051504   -3.2227886    1.4325663   251228 
 6236000   0.54760512   -3.2251388    -1.789384  0.032864222   -3.2251388    1.4357548   251190 
 6237000   0.54885126   -3.2258392   -1.7865192  0.031535931   -3.2258392      1.43932   251138 
 6238000   0.54917186   -3.2278049   -1.7872483  0.034262324   -3.2278049    1.4405566   251069 
 6239000   0.54916189   -3.2281716   -1.7872969  0.035493385   -3.2281716    1.4408747   251009 
 6240000   0.54843634   -3.2289403   -1.7896538  0.032860523   -3.2289403    1.4392864   250954 
 6241000   0.54761787   -3.2289888   -1.7915811  0.032172192   -3.2289888    1.4374077   250907 
 6242000   0.54680779   -3.2263978    -1.790836  0.035457763   -3.2263978    1.4355617   250858 
 6243000   0.54699591   -3.2262732   -1.7898397  0.032649076   -3.2262732    1.4364335   250792 
 6244000   0.54765954   -3.2281365   -1.7894555  0.031629518   -3.2281365    1.4386811   250704 
 6245000   0.54757029     -3.22716   -1.7883978  0.036354428     -3.22716    1.4387622   250649 
 6246000   0.54672011   -3.2245685   -1.7875758   0.03401229   -3.2245685    1.4369927   250568 
 6247000   0.54723259   -3.2265488   -1.7878531  0.037166553   -3.2265488    1.4386957   250506 
 6248000   0.54647983   -3.2259755   -1.7888573  0.032425966   -3.2259755    1.4371183   250436 
 6249000   0.54599161   -3.2255925    -1.789523  0.030342312   -3.2255925    1.4360695   250395 
 6250000   0.54442187   -3.2220246    -1.789775  0.031505259   -3.2220246    1.4322496   250341 
 6251000   0.54684655   -3.2263569   -1.7874641  0.031612752   -3.2263569    1.4388928   250295 
 6252000   0.54614482   -3.2228849   -1.7853159  0.032771795   -3.2228849     1.437569   250204 
 6253000   0.54734014   -3.2284183   -1.7873517  0.033082172   -3.2284183    1.4410667   250143 
 6254000    0.5456111    -3.222127   -1.7853656  0.037042117    -3.222127    1.4367613   250100 
 6255000   0.54638168   -3.2236673   -1.7845257  0.034977742   -3.2236673    1.4391415   250039 
 6256000   0.54605533   -3.2245261   -1.7859623  0.035008751   -3.2245261    1.4385639   249990 
 6257000    0.5457921   -3.2238821   -1.7858276  0.031226797   -3.2238821    1.4380545   249958 
 6258000   0.54449662   -3.2215497   -1.7863861  0.034756333   -3.2215497    1.4351636   249867 
 6259000   0.54452316   -3.2218388   -1.7861398  0.034541814   -3.2218388     1.435699   249786 
 6260000   0.54604844   -3.2242611   -1.7842177  0.032049018   -3.2242611    1.4400434   249730 
 6261000     0.545807   -3.2266402   -1.7869049  0.034228026   -3.2266402    1.4397353   249673 
 6262000   0.54524157   -3.2233527   -1.7848727   0.03267509   -3.2233527      1.43848   249632 
 6263000   0.54553159   -3.2223023   -1.7827918  0.034319649   -3.2223023    1.4395104   249586 
 6264000    0.5447873   -3.2226589   -1.7849684  0.032945674   -3.2226589    1.4376904   249561 
 6265000   0.54411865    -3.221865   -1.7857492  0.034815223    -3.221865    1.4361158   249528 
 6266000   0.54427879   -3.2221446   -1.7850014  0.030339324   -3.2221446    1.4371432   249423 
 6267000   0.54511662   -3.2259557   -1.7860345  0.035733088   -3.2259557    1.4399212   249325 
 6268000   0.54347999   -3.2200455    -1.784171  0.032161486   -3.2200455    1.4358745   249277 
 6269000   0.54405566   -3.2204807   -1.7825719  0.032179223   -3.2204807    1.4379088   249188 
 6270000   0.54476227   -3.2224446   -1.7824486  0.031891511   -3.2224446    1.4399959   249150 
 6271000   0.54455856   -3.2218328   -1.7820865  0.035154456   -3.2218328    1.4397464   249100 
 6272000   0.54512496   -3.2250285   -1.7832695  0.031400793   -3.2250285     1.441759   249011 
 6273000   0.54349194   -3.2219537   -1.7844675  0.031150365   -3.2219537    1.4374861   249003 
 6274000   0.54390889   -3.2232257   -1.7846137   0.02835603   -3.2232257     1.438612   248999 
 6275000   0.54347235   -3.2211633   -1.7829666  0.032910424   -3.2211633    1.4381967   248871 
 6276000   0.54371238   -3.2204093    -1.781427  0.037354292   -3.2204093    1.4389823   248845 
 6277000   0.54348037    -3.221579   -1.7827656  0.032799282    -3.221579    1.4388134   248768 
 6278000   0.54340589   -3.2217506   -1.7826484  0.031276338   -3.2217506    1.4391022   248684 
 6279000   0.54279457   -3.2194763   -1.7816693  0.033026931   -3.2194763     1.437807   248628 
 6280000   0.54211573   -3.2175959   -1.7813386  0.033117653   -3.2175959    1.4362572   248585 
 6281000   0.54168224   -3.2147953   -1.7796116  0.033395206   -3.2147953    1.4351838   248572 
 6282000   0.54268834   -3.2181484    -1.779946  0.032378012   -3.2181484    1.4382024   248511 
 6283000   0.54199794   -3.2173561   -1.7804398  0.032045405   -3.2173561    1.4369162   248417 
 6284000   0.54281052    -3.222126   -1.7826267  0.031914386    -3.222126    1.4394993   248343 
 6285000   0.54065542   -3.2172272   -1.7831139  0.026887892   -3.2172272    1.4341133   248286 
 6286000   0.54101715   -3.2149181   -1.7795158  0.032257633   -3.2149181    1.4354023   248229 
 6287000   0.54150473   -3.2167917   -1.7799337  0.031293866   -3.2167917     1.436858   248201 
 6288000   0.54161151   -3.2165638   -1.7793414   0.03347396   -3.2165638    1.4372224   248187 
 6289000   0.54246891   -3.2184795   -1.7785468  0.034862704   -3.2184795    1.4399328   248112 
 6290000    0.5436308   -3.2205759    -1.777239  0.035374098   -3.2205759    1.4433368   248057 
 6291000   0.54183308    -3.217601   -1.7786252  0.032320726    -3.217601    1.4389758   247986 
 6292000   0.54075021   -3.2154443   -1.7791358  0.031421546   -3.2154443    1.4363084   247950 
 6293000   0.54355489   -3.2217031   -1.7774966  0.031655783   -3.2217031    1.4442066   247873 
 6294000   0.54297617   -3.2210364   -1.7781579   0.03373784   -3.2210364    1.4428785   247837 
 6295000    0.5414552   -3.2207699   -1.7816602  0.033171662   -3.2207699    1.4391096   247790 
 6296000   0.54290531   -3.2214905   -1.7782471  0.035990313   -3.2214905    1.4432434   247742 
 6297000   0.54181334    -3.219316   -1.7787894  0.033175213    -3.219316    1.4405266   247710 
 6298000   0.54180434   -3.2198308   -1.7790896  0.030390971   -3.2198308    1.4407411   247669 
 6299000   0.54051588   -3.2158743   -1.7779614  0.035229397   -3.2158743    1.4379129   247566 
 6300000   0.54219859   -3.2211758   -1.7786116   0.03267018   -3.2211758    1.4425642   247536 
 6301000   0.54126469   -3.2162148   -1.7762109  0.036255995   -3.2162148    1.4400038   247549 
 6302000   0.53915995   -3.2118779   -1.7769635  0.029614916   -3.2118779    1.4349144   247461 
 6303000   0.54000872   -3.2140259   -1.7763588  0.032990123   -3.2140259    1.4376671   247376 
 6304000   0.53945385   -3.2103785   -1.7738402  0.032243533   -3.2103785    1.4365383   247316 
 6305000   0.54040338   -3.2141093   -1.7747107  0.033892862   -3.2141093    1.4393986   247259 
 6306000   0.53915651   -3.2117152   -1.7750159  0.034484669   -3.2117152    1.4366992   247152 
 6307000   0.53978175   -3.2115317    -1.772951   0.03072519   -3.2115317    1.4385807   247115 
 6308000   0.53892632   -3.2099671   -1.7732011  0.031081923   -3.2099671     1.436766   247035 
 6309000   0.53927216   -3.2113024   -1.7733583   0.03452068   -3.2113024    1.4379441   246991 
 6310000   0.54100337   -3.2145371   -1.7715912  0.029108006   -3.2145371    1.4429459   246925 
 6311000   0.54108756    -3.212725   -1.7694786  0.036104327    -3.212725    1.4432464   246912 
 6312000   0.54002673    -3.212342   -1.7716334  0.029648712    -3.212342    1.4407086   246862 
 6313000   0.53983144    -3.209384   -1.7689572  0.032827308    -3.209384    1.4404268   246821 
 6314000   0.53974385   -3.2106192   -1.7702452  0.032782484   -3.2106192     1.440374   246790 
 6315000   0.53910407    -3.210089   -1.7708508  0.031101062    -3.210089    1.4392382   246692 
 6316000   0.53872097    -3.210395   -1.7716839  0.034151928    -3.210395    1.4387112   246607 
 6317000   0.54029441   -3.2132683   -1.7699864  0.033424953   -3.2132683    1.4432819   246544 
 6318000   0.53901276   -3.2102512   -1.7703228  0.031263845   -3.2102512    1.4399283   246532 
 6319000   0.53913409   -3.2096708   -1.7689976  0.032574738   -3.2096708    1.4406732   246460 
 6320000   0.53826162    -3.207655   -1.7686242  0.033909292    -3.207655    1.4390308   246342 
 6321000   0.53761656    -3.206465   -1.7688845  0.032494421    -3.206465    1.4375805   246295 
 6322000   0.53927611   -3.2090446    -1.766886  0.035051838   -3.2090446    1.4421587   246271 
 6323000    0.5377235   -3.2066799   -1.7682527    0.0309177   -3.2066799    1.4384271   246199 
 6324000    0.5377173   -3.2093212   -1.7705308  0.037243233   -3.2093212    1.4387904   246134 
 6325000   0.53689833   -3.2071112   -1.7702845  0.034481862   -3.2071112    1.4368267   246095 
 6326000      0.53882    -3.209106   -1.7670429  0.032077808    -3.209106    1.4420632   246079 
 6327000   0.53749717   -3.2055027   -1.7665296  0.034062404   -3.2055027    1.4389731   246002 
 6328000   0.53848809   -3.2084524   -1.7662284  0.029769183   -3.2084524     1.442224   245900 
 6329000   0.53795228   -3.2064157   -1.7650993  0.037333525   -3.2064157    1.4413164   245810 
 6330000   0.53782015   -3.2083479   -1.7668929  0.032930089   -3.2083479     1.441455   245726 
 6331000   0.53847539   -3.2109325   -1.7671455  0.032897529   -3.2109325     1.443787   245628 
 6332000   0.53757114   -3.2080102   -1.7664247  0.032862545   -3.2080102    1.4415855   245590 
 6333000   0.53754927   -3.2087457   -1.7669606  0.030541189   -3.2087457    1.4417851   245546 
 6334000   0.53711752   -3.2064866   -1.7657304  0.030259309   -3.2064866    1.4407562   245524 
 6335000   0.53731327    -3.208282    -1.766296  0.033325756    -3.208282     1.441986   245404 
 6336000   0.53699645   -3.2059082   -1.7647665  0.036374431   -3.2059082    1.4411417   245403 
 6337000   0.53804432   -3.2064274   -1.7619909  0.034011473   -3.2064274    1.4444365   245321 
 6338000   0.53738836   -3.2045805   -1.7616932  0.031771201   -3.2045805    1.4428873   245285 
 6339000   0.53774553   -3.2056191    -1.761555  0.033628833   -3.2056191    1.4440641   245248 
 6340000   0.53628289   -3.2040448   -1.7634797  0.034376626   -3.2040448    1.4405651   245175 
 6341000   0.53410259   -3.1969095   -1.7618382  0.032190009   -3.1969095    1.4350713   245113 
 6342000    0.5349785   -3.2001988   -1.7624808  0.030698933   -3.2001988     1.437718   245063 
 6343000   0.53572649   -3.2019834   -1.7620436  0.033407924   -3.2019834    1.4399397   245027 
 6344000    0.5347811   -3.1995684   -1.7616768   0.03210375   -3.1995684    1.4378916   244943 
 6345000   0.53506174   -3.1990628   -1.7600876  0.031939406   -3.1990628    1.4389752   244887 
 6346000   0.53465851   -3.1967247   -1.7584051  0.035667113   -3.1967247    1.4383195   244814 
 6347000   0.53534834   -3.2001349   -1.7598184   0.03087093   -3.2001349    1.4403165   244790 
 6348000   0.53419885   -3.1945807   -1.7570691  0.035301613   -3.1945807    1.4375116   244741 
 6349000   0.53619368   -3.2016212   -1.7584645  0.032192751   -3.2016212    1.4431568   244694 
 6350000   0.53657403   -3.2033009    -1.758843  0.033710899   -3.2033009    1.4444579   244647 
 6351000   0.53418062    -3.196677   -1.7584916  0.034104343    -3.196677    1.4381853   244618 
 6352000   0.53465452   -3.1986354   -1.7586326  0.033828312   -3.1986354    1.4400028   244526 
 6353000   0.53531307   -3.1995965   -1.7575192  0.033398077   -3.1995965    1.4420773   244475 
 6354000   0.53579543   -3.2012876   -1.7576097  0.030729263   -3.2012876    1.4436778   244424 
 6355000   0.53548775   -3.1990267   -1.7557763  0.035012631   -3.1990267    1.4432503   244356 
 6356000   0.53455971   -3.1994532   -1.7586039  0.038674751   -3.1994532    1.4408493   244339 
 6357000   0.53619002   -3.2029776   -1.7574441  0.036462253   -3.2029776    1.4455335   244290 
 6358000   0.53490862   -3.2016275   -1.7593833  0.031712261   -3.2016275    1.4422443   244262 
 6359000   0.53410414   -3.2006966   -1.7603796  0.030548071   -3.2006966     1.440317   244221 
 6360000    0.5345526   -3.1989426   -1.7570384   0.03171088   -3.1989426    1.4419042   244157 
 6361000   0.53420208   -3.2004001   -1.7589396  0.034662284   -3.2004001    1.4414605   244072 
 6362000   0.53495264   -3.1988415   -1.7550067  0.034093462   -3.1988415    1.4438348   244013 
 6363000   0.53516381   -3.2009401    -1.756269  0.034617775   -3.2009401    1.4446712   243968 
 6364000   0.53575105   -3.2015627   -1.7550217  0.036200436   -3.2015627     1.446541   243920 
 6365000    0.5344836   -3.1974083   -1.7544255   0.03515854   -3.1974083    1.4429828   243943 
 6366000   0.53596467    -3.201286   -1.7534916   0.03562226    -3.201286    1.4477945   243806 
 6367000   0.53519096   -3.1990681   -1.7531739  0.034697478   -3.1990681    1.4458942   243774 
 6368000   0.53512736   -3.1976393   -1.7514423  0.036214553   -3.1976393     1.446197   243694 
 6369000   0.53524462   -3.1985001   -1.7517963  0.038240337   -3.1985001    1.4467039   243662 
 6370000   0.53350972   -3.1941256   -1.7519038  0.036634956   -3.1941256    1.4422218   243627 
 6371000   0.53454047   -3.1939346   -1.7488849  0.037748658   -3.1939346    1.4450497   243620 
 6372000   0.53367551   -3.1940595   -1.7507438  0.037579572   -3.1940595    1.4433157   243518 
 6373000   0.53363315   -3.1953571   -1.7516816  0.032755299   -3.1953571    1.4436754   243438 
 6374000   0.53280239   -3.1929616    -1.751279  0.032082762   -3.1929616    1.4416826   243395 
 6375000   0.53188101   -3.1908671   -1.7517309  0.033495849   -3.1908671    1.4391362   243404 
 6376000   0.53271276   -3.1917879   -1.7500991  0.030510071   -3.1917879    1.4416888   243353 
 6377000   0.53301172   -3.1880235   -1.7454426  0.034792842   -3.1880235    1.4425809   243339 
 6378000    0.5327524   -3.1892387   -1.7470633  0.034246736   -3.1892387    1.4421754   243289 
 6379000   0.53287008   -3.1918671   -1.7488037  0.034561275   -3.1918671    1.4430633   243193 
 6380000   0.53303634   -3.1907193    -1.746992  0.035341816   -3.1907193    1.4437273   243157 
 6381000   0.53177255   -3.1879201   -1.7470528  0.032508585   -3.1879201    1.4408673   243062 
 6382000   0.53196179   -3.1877819   -1.7461587  0.035124769   -3.1877819    1.4416232   243021 
 6383000   0.53305517   -3.1888898   -1.7440003  0.034345059   -3.1888898    1.4448895   242970 
 6384000   0.53266974   -3.1891428   -1.7448522  0.032281693   -3.1891428    1.4442906   242895 
 6385000   0.53212569   -3.1863965   -1.7434266  0.036475522   -3.1863965    1.4429699   242869 
 6386000   0.53179315   -3.1867292   -1.7441799  0.035188673   -3.1867292    1.4425493   242788 
 6387000   0.53174308   -3.1881279   -1.7451498  0.033856441   -3.1881279    1.4429781   242693 
 6388000   0.53105529      -3.1872    -1.745827  0.032260413      -3.1872    1.4413729   242649 
 6389000   0.53132278   -3.1890623   -1.7466662  0.032896855   -3.1890623    1.4423962   242599 
 6390000   0.53140072   -3.1916949   -1.7487897  0.032354708   -3.1916949    1.4429052   242549 
 6391000   0.53129097   -3.1885299   -1.7459108  0.031149374   -3.1885299     1.442619   242547 
 6392000   0.53048685   -3.1839092   -1.7432122  0.036633736   -3.1839092    1.4406969   242503 
 6393000   0.53245088   -3.1902964   -1.7437465  0.036408162   -3.1902964    1.4465498   242416 
 6394000   0.53330613   -3.1906672   -1.7414352  0.036256197   -3.1906672     1.449232   242356 
 6395000   0.53240273   -3.1893486   -1.7420877  0.032983599   -3.1893486    1.4472608   242275 
 6396000   0.53128605   -3.1871175   -1.7426597  0.031577063   -3.1871175    1.4444578   242236 
 6397000   0.52949378   -3.1831316   -1.7433029   0.03083816   -3.1831316    1.4398287   242195 
 6398000   0.53121174   -3.1867712   -1.7420443  0.035604436   -3.1867712    1.4447269   242157 
 6399000    0.5314233   -3.1890588   -1.7434162   0.03271419   -3.1890588    1.4456426   242100 
 6400000   0.52981571   -3.1844906   -1.7428639  0.036389358   -3.1844906    1.4416267   242040 
 6401000     0.530106   -3.1845994   -1.7417179  0.036286026   -3.1845994    1.4428816   241962 
 6402000   0.53058005   -3.1840505   -1.7394726  0.037156529   -3.1840505    1.4445779   241894 
 6403000   0.52966485   -3.1862088   -1.7435084  0.038165131   -3.1862088    1.4427004   241791 
 6404000   0.53080808   -3.1888494   -1.7429633  0.036300235   -3.1888494    1.4458861   241779 
 6405000   0.53021037   -3.1829814   -1.7388668  0.035555335   -3.1829814    1.4441146   241803 
 6406000   0.52902863   -3.1806564   -1.7394803   0.03441488   -3.1806564    1.4411761   241756 
 6407000   0.52776529   -3.1782552   -1.7398662  0.033427539   -3.1782552     1.438389   241646 
 6408000   0.52947054   -3.1842434   -1.7408425  0.033265189   -3.1842434    1.4434009   241585 
 6409000   0.52920836   -3.1821807   -1.7391541   0.03208376   -3.1821807    1.4430266   241528 
 6410000   0.52841567   -3.1819176   -1.7407779  0.035591155   -3.1819176    1.4411396   241482 
 6411000   0.52946183    -3.183622   -1.7394259  0.034062777    -3.183622    1.4441961   241448 
 6412000   0.52909422   -3.1818687   -1.7380653  0.036220255   -3.1818687    1.4438033   241346 
 6413000   0.52801764   -3.1838295   -1.7421874  0.030708102   -3.1838295    1.4416421   241216 
 6414000   0.52900668   -3.1857232   -1.7410693  0.034220728   -3.1857232    1.4446539   241164 
 6415000   0.52695688   -3.1803489   -1.7409466  0.031914064   -3.1803489    1.4394023   241106 
 6416000   0.52781678   -3.1821235   -1.7400314  0.034833555   -3.1821235    1.4420921   241049 
 6417000    0.5274068   -3.1816096    -1.740237  0.032904229   -3.1816096    1.4413726   240982 
 6418000    0.5276809   -3.1803686    -1.738229   0.03651254   -3.1803686    1.4421396   240979 
 6419000   0.52690969   -3.1809699   -1.7403402  0.033579074   -3.1809699    1.4406298   240879 
 6420000   0.52771574   -3.1831237   -1.7398048  0.033666976   -3.1831237    1.4433189   240798 
 6421000   0.52581129   -3.1798878   -1.7414132  0.030457636   -3.1798878    1.4384746   240737 
 6422000    0.5262458   -3.1818949   -1.7419086  0.033795873   -3.1818949    1.4399863   240683 
 6423000   0.52709014   -3.1845777   -1.7421612  0.034119837   -3.1845777    1.4424166   240663 
 6424000   0.52727902   -3.1847855   -1.7412522  0.034336878   -3.1847855    1.4435332   240563 
 6425000   0.52806263   -3.1849056   -1.7392451  0.037861051   -3.1849056    1.4456605   240566 
 6426000   0.52850044   -3.1844521   -1.7373524  0.035306434   -3.1844521    1.4470997   240526 
 6427000   0.52814569   -3.1834465   -1.7371317  0.036394885   -3.1834465    1.4463148   240495 
 6428000   0.52797613   -3.1840425   -1.7378012  0.038776498   -3.1840425    1.4462413   240430 
 6429000   0.52721267   -3.1825512   -1.7384252  0.038447899   -3.1825512     1.444126   240434 
 6430000   0.52604573   -3.1795546   -1.7384093  0.033823241   -3.1795546    1.4411453   240398 
 6431000   0.52555812   -3.1776282   -1.7375432  0.033378133   -3.1776282     1.440085   240352 
 6432000   0.52582303   -3.1778232   -1.7367545  0.033888162   -3.1778232    1.4410687   240309 
 6433000   0.52646283   -3.1805997   -1.7373151  0.033114528   -3.1805997    1.4432846   240232 
 6434000   0.52682228   -3.1797951   -1.7351642   0.03143392   -3.1797951    1.4446309   240172 
 6435000   0.52690247   -3.1798046   -1.7344242  0.036653924   -3.1798046    1.4453804   240084 
 6436000   0.52548999   -3.1777508   -1.7359208  0.032129089   -3.1777508      1.44183   240030 
 6437000   0.52672563   -3.1807145    -1.735464  0.031019714   -3.1807145    1.4452504   240025 
 6438000   0.52633196   -3.1776282   -1.7329945  0.033768413   -3.1776282    1.4446337   239948 
 6439000   0.52680203   -3.1757864   -1.7296334  0.037472774   -3.1757864    1.4461529   239910 
 6440000   0.52675479   -3.1740374   -1.7278755  0.036707468   -3.1740374    1.4461619   239887 
 6441000   0.52520048   -3.1732626   -1.7311155  0.035103827   -3.1732626    1.4421472   239845 
 6442000   0.52519733   -3.1726081   -1.7303312  0.034828056   -3.1726081    1.4422768   239822 
 6443000   0.52387588    -3.171279    -1.732163  0.037729902    -3.171279     1.439116   239744 
 6444000   0.52590215   -3.1729972   -1.7278267  0.033523641   -3.1729972    1.4451705   239663 
 6445000   0.52529295    -3.171618   -1.7277299  0.034969251    -3.171618     1.443888   239598 
 6446000   0.52521395   -3.1701314   -1.7258999   0.03552257   -3.1701314    1.4442315   239505 
 6447000   0.52420648   -3.1702878   -1.7284956  0.032880904   -3.1702878    1.4417922   239450 
 6448000   0.52398198   -3.1717966   -1.7303088  0.032011046   -3.1717966    1.4414878   239398 
 6449000   0.52397719   -3.1726431   -1.7307589  0.031411143   -3.1726431    1.4418842   239330 
 6450000   0.52307268   -3.1689031    -1.728804   0.03488728   -3.1689031    1.4400992   239213 
 6451000   0.52199253   -3.1700736   -1.7324795  0.032936768   -3.1700736    1.4375941   239135 
 6452000   0.52252611   -3.1692308   -1.7298543  0.032376274   -3.1692308    1.4393766   239083 
 6453000   0.52307705   -3.1720122   -1.7310577  0.026012479   -3.1720122    1.4409545   239073 
 6454000   0.52243943   -3.1682575   -1.7285235  0.030737801   -3.1682575     1.439734   238984 
 6455000   0.52298031   -3.1723105   -1.7306819  0.031963579   -3.1723105    1.4416287   238917 
 6456000   0.52291729   -3.1723365   -1.7303745  0.033374356   -3.1723365     1.441962   238833 
 6457000   0.52215163   -3.1743252   -1.7340162  0.034964624   -3.1743252     1.440309   238757 
 6458000   0.52246551   -3.1744251   -1.7327734  0.031110361   -3.1744251    1.4416518   238678 
 6459000   0.52324382   -3.1725454   -1.7285887  0.033006806   -3.1725454    1.4439567   238652 
 6460000   0.52434198   -3.1753874   -1.7282365  0.039497022   -3.1753874    1.4471509   238625 
 6461000   0.52563369   -3.1782948   -1.7274208  0.040272243   -3.1782948     1.450874   238599 
 6462000   0.52222105   -3.1751855   -1.7333444  0.034656288   -3.1751855    1.4418411   238535 
 6463000   0.52230813   -3.1740379   -1.7317992  0.029823505   -3.1740379    1.4422387   238509 
 6464000    0.5212199   -3.1741917   -1.7342878  0.035286128   -3.1741917    1.4399039   238398 
 6465000   0.52049348   -3.1734474   -1.7351883  0.032483812   -3.1734474    1.4382591   238338 
 6466000   0.52203585    -3.175528   -1.7326498  0.032319794    -3.175528    1.4428783   238279 
 6467000   0.52349165   -3.1766131   -1.7293771  0.038230613   -3.1766131    1.4472361   238224 
 6468000   0.52286204   -3.1745824   -1.7288077  0.035438435   -3.1745824    1.4457746   238178 
 6469000   0.52114635   -3.1719997   -1.7303214   0.03381528   -3.1719997    1.4416782   238071 
 6470000   0.52069242   -3.1695055   -1.7285867  0.037739627   -3.1695055    1.4409188   237989 
 6471000   0.51966958   -3.1687772   -1.7304895    0.0348839   -3.1687772    1.4382877   237956 
 6472000   0.52056776   -3.1697525    -1.728567  0.031562615   -3.1697525    1.4411854   237888 
 6473000   0.52032473    -3.168575   -1.7277172  0.032682323    -3.168575    1.4408579   237831 
 6474000   0.51937827   -3.1689533   -1.7303594  0.032196912   -3.1689533    1.4385938   237772 
 6475000   0.52071629   -3.1718135   -1.7291374  0.033846637   -3.1718135    1.4426761   237710 
 6476000   0.51912356   -3.1689665   -1.7300494  0.031154498   -3.1689665    1.4389171   237602 
 6477000   0.52089077   -3.1697736   -1.7255873  0.030744688   -3.1697736    1.4441863   237541 
 6478000   0.52012923   -3.1713385   -1.7286684  0.030020102   -3.1713385    1.4426701   237443 
 6479000   0.51956996   -3.1697155   -1.7280745  0.034727868   -3.1697155     1.441641   237357 
 6480000   0.52000818   -3.1702188   -1.7271005  0.032574562   -3.1702188    1.4431183   237314 
 6481000   0.51926617    -3.168201    -1.726905  0.035013956    -3.168201     1.441296   237275 
 6482000   0.52066734   -3.1721357   -1.7262925  0.031778747   -3.1721357    1.4458432   237167 
 6483000   0.51952744   -3.1681266   -1.7250837  0.033435104   -3.1681266    1.4430429   237107 
 6484000   0.51930713   -3.1701693   -1.7272637  0.032553919   -3.1701693    1.4429056   237029 
 6485000    0.5188127     -3.16829    -1.726381  0.031835881     -3.16829     1.441909   236967 
 6486000   0.51787429   -3.1636337   -1.7239257  0.034898547   -3.1636337     1.439708   236900 
 6487000   0.51803796   -3.1666172   -1.7259494  0.034856681   -3.1666172    1.4406678   236817 
 6488000   0.51704671   -3.1648422   -1.7269432  0.031347154   -3.1648422     1.437899   236819 
 6489000   0.51713689    -3.163955   -1.7254773  0.034817105    -3.163955    1.4384778   236765 
 6490000    0.5182094   -3.1656225   -1.7238143  0.026543518   -3.1656225    1.4418082   236708 
 6491000   0.51728562   -3.1612057   -1.7216941  0.033478292   -3.1612057    1.4395116   236663 
 6492000   0.51730737   -3.1653555   -1.7252844  0.033323484   -3.1653555    1.4400711   236581 
 6493000   0.51774318   -3.1669033    -1.725296  0.031662872   -3.1669033    1.4416073   236528 
 6494000    0.5182931   -3.1665107   -1.7229328  0.029930402   -3.1665107    1.4435779   236456 
 6495000   0.51740857   -3.1659917   -1.7242129  0.033355948   -3.1659917    1.4417789   236347 
 6496000   0.51797855    -3.167462   -1.7238811  0.037281109    -3.167462    1.4435809   236312 
 6497000   0.51793642   -3.1665637   -1.7229414  0.034758069   -3.1665637    1.4436223   236286 
 6498000   0.51678939   -3.1632279   -1.7223635  0.036159503   -3.1632279    1.4408643   236214 
 6499000   0.51705407   -3.1678476   -1.7256897  0.036629652   -3.1678476    1.4421578   236123 
 6500000   0.51616092   -3.1676658   -1.7276454  0.033298641   -3.1676658    1.4400204   236065 
 6501000   0.51697195    -3.168474   -1.7262704  0.035803048    -3.168474    1.4422037   236078 
 6502000   0.51734564   -3.1705519   -1.7268655  0.031498865   -3.1705519    1.4436864   236006 
 6503000   0.51581608   -3.1663759   -1.7265674   0.03418821   -3.1663759    1.4398086   235942 
 6504000   0.51633526   -3.1671425   -1.7255854  0.030771803   -3.1671425    1.4415571   235893 
 6505000   0.51608172   -3.1681303   -1.7270488  0.034323478   -3.1681303    1.4410814   235855 
 6506000   0.51727583   -3.1681491   -1.7232003  0.034932186   -3.1681491    1.4449488   235768 
 6507000   0.51664238   -3.1707595   -1.7270965  0.033536402   -3.1707595    1.4436631   235689 
 6508000    0.5151634   -3.1663481   -1.7262618  0.033643888   -3.1663481    1.4400863   235598 
 6509000   0.51500234    -3.167789   -1.7280857   0.02907459    -3.167789    1.4397033   235587 
 6510000   0.51478628   -3.1692847   -1.7296843  0.034637444   -3.1692847    1.4396004   235505 
 6511000   0.51431746   -3.1645354   -1.7257573  0.037236382   -3.1645354    1.4387781   235425 
 6512000   0.51526689   -3.1702172   -1.7283973   0.03076886   -3.1702172    1.4418199   235362 
 6513000   0.51446548   -3.1666387   -1.7269512  0.032876316   -3.1666387    1.4396875   235344 
 6514000   0.51496725   -3.1680145   -1.7264451   0.03462263   -3.1680145    1.4415695   235266 
 6515000   0.51515926   -3.1687006   -1.7261215  0.033715949   -3.1687006    1.4425791   235189 
 6516000   0.51400082   -3.1655232   -1.7256002  0.030799018   -3.1655232    1.4399229   235093 
 6517000    0.5136137   -3.1668292   -1.7274642  0.034960824   -3.1668292     1.439365   235007 
 6518000   0.51264558   -3.1648585   -1.7278519  0.034138481   -3.1648585    1.4370066   234949 
 6519000   0.51384283   -3.1669467   -1.7264677  0.033931308   -3.1669467    1.4404791   234930 
 6520000   0.51429728   -3.1687535   -1.7265953  0.029792077   -3.1687535    1.4421582   234864 
 6521000   0.51385122   -3.1671627    -1.725795  0.033464838   -3.1671627    1.4413677   234789 
 6522000   0.51370842   -3.1685481   -1.7271267  0.030888642   -3.1685481    1.4414214   234715 
 6523000   0.51404944   -3.1690544   -1.7264549  0.033550439   -3.1690544    1.4425996   234679 
 6524000   0.51411238   -3.1730384   -1.7296533  0.030785733   -3.1730384    1.4433851   234580 
 6525000   0.51422691   -3.1713841   -1.7276898  0.034472234   -3.1713841    1.4436943   234582 
 6526000   0.51325297   -3.1700223   -1.7288411  0.036393241   -3.1700223    1.4411812   234546 
 6527000   0.51329384   -3.1661738   -1.7243185  0.037541813   -3.1661738    1.4418553   234455 
 6528000   0.51417861   -3.1706503   -1.7258721  0.037877225   -3.1706503    1.4447782   234384 
 6529000   0.51382439   -3.1706881   -1.7264061  0.036571652   -3.1706881     1.444282   234303 
 6530000   0.51320348    -3.168233   -1.7257148  0.032829676    -3.168233    1.4425182   234306 
 6531000   0.51308156   -3.1682849   -1.7259186  0.036206234   -3.1682849    1.4423664   234275 
 6532000   0.51207644    -3.168046   -1.7279397  0.032912909    -3.168046    1.4401064   234183 
 6533000   0.51199575   -3.1658518   -1.7253757  0.033419955   -3.1658518    1.4404761   234086 
 6534000   0.51267238   -3.1682929   -1.7254078  0.035781311   -3.1682929    1.4428852   234004 
 6535000   0.51138862   -3.1644634   -1.7246744  0.033202482   -3.1644634     1.439789   233920 
 6536000   0.51188109   -3.1660141   -1.7245552  0.033679708   -3.1660141    1.4414589   233874 
 6537000    0.5114348   -3.1652979   -1.7247261  0.036002967   -3.1652979    1.4405718   233814 
 6538000   0.51081781   -3.1612364   -1.7221378  0.032737313   -3.1612364    1.4390985   233771 
 6539000   0.51080191   -3.1600543   -1.7205818  0.030928575   -3.1600543    1.4394724   233703 
 6540000   0.51146464   -3.1624698   -1.7207843  0.033860031   -3.1624698    1.4416855   233647 
 6541000   0.51194322   -3.1647332    -1.721087  0.036022239   -3.1647332    1.4436462   233548 
 6542000   0.51126561   -3.1635699   -1.7215011  0.033764002   -3.1635699    1.4420688   233494 
 6543000   0.51115188    -3.163742   -1.7216419  0.033416654    -3.163742    1.4421001   233437 
 6544000   0.51146752   -3.1653922   -1.7218946  0.030129828   -3.1653922    1.4434976   233355 
 6545000   0.50988571   -3.1618317   -1.7223604  0.035232386   -3.1618317    1.4394713   233284 
 6546000    0.5109012   -3.1628521   -1.7201119  0.036478062   -3.1628521    1.4427402   233219 
 6547000   0.51062748   -3.1647314   -1.7224736  0.033148212   -3.1647314    1.4422579   233172 
 6548000   0.51003068   -3.1597902   -1.7189647  0.030871905   -3.1597902    1.4408256   233131 
 6549000   0.51049336   -3.1604267   -1.7177495  0.033770281   -3.1604267    1.4426772   233043 
 6550000    0.5103429   -3.1617643   -1.7190975  0.035574372   -3.1617643    1.4426668   232976 
 6551000   0.50874538   -3.1595111   -1.7208601  0.035585353   -3.1595111     1.438651   232895 
 6552000    0.5076461   -3.1552164   -1.7191437  0.032773639   -3.1552164    1.4360727   232809 
 6553000   0.50876629   -3.1590731   -1.7192502  0.028811397   -3.1590731    1.4398229   232715 
 6554000   0.50911727   -3.1575271   -1.7163269   0.03571577   -3.1575271    1.4412002   232653 
 6555000   0.51025783   -3.1592079   -1.7143008  0.031160631   -3.1592079    1.4449071   232576 
 6556000   0.50978984   -3.1560654   -1.7121918  0.034791163   -3.1560654    1.4438736   232529 
 6557000   0.50955357   -3.1582668   -1.7146278  0.032262014   -3.1582668     1.443639   232459 
 6558000    0.5072508   -3.1539487   -1.7161782  0.033848429   -3.1539487    1.4377706   232353 
 6559000   0.50818944   -3.1569711   -1.7160005   0.02945455   -3.1569711    1.4409706   232266 
 6560000   0.50830304   -3.1554204   -1.7142765  0.031639004   -3.1554204    1.4411438   232290 
 6561000   0.50875594   -3.1546475   -1.7121762  0.033800124   -3.1546475    1.4424714   232283 
 6562000   0.50869955    -3.154107   -1.7115657  0.037279525    -3.154107    1.4425413   232246 
 6563000   0.50853393   -3.1558463   -1.7132902  0.035889427   -3.1558463    1.4425561   232168 
 6564000   0.50872063   -3.1569219   -1.7134943  0.033943585   -3.1569219    1.4434276   232113 
 6565000    0.5079424   -3.1558905   -1.7141554  0.033745263   -3.1558905    1.4417351   232030 
 6566000   0.50726408   -3.1565509    -1.716524  0.034796781   -3.1565509     1.440027   231995 
 6567000   0.50604988   -3.1571323   -1.7199018  0.033359703   -3.1571323    1.4372305   231890 
 6568000    0.5079001   -3.1600827   -1.7172178  0.033270809   -3.1600827    1.4428649   231829 
 6569000   0.50698286   -3.1582093   -1.7174716  0.031474504   -3.1582093    1.4407377   231752 
 6570000   0.50669267   -3.1559132   -1.7156521  0.035450056   -3.1559132     1.440261   231696 
 6571000   0.50717487   -3.1586908   -1.7168288  0.031081398   -3.1586908     1.441862   231659 
 6572000   0.50691159   -3.1584634   -1.7170202  0.031159179   -3.1584634    1.4414432   231606 
 6573000   0.50778556   -3.1615744   -1.7171158  0.030072986   -3.1615744    1.4444586   231521 
 6574000   0.50705697   -3.1617519   -1.7190668  0.035075183   -3.1617519    1.4426851   231473 
 6575000   0.50611001   -3.1601671   -1.7198963  0.035455557   -3.1601671    1.4402708   231428 
 6576000   0.50569579   -3.1584238   -1.7190022  0.031432917   -3.1584238    1.4394217   231375 
 6577000   0.50593353   -3.1599819   -1.7195349  0.033977377   -3.1599819     1.440447   231319 
 6578000   0.50748747   -3.1647886   -1.7194612  0.034753061   -3.1647886    1.4453274   231246 
 6579000   0.50792195   -3.1658107   -1.7188454  0.034983749   -3.1658107    1.4469652   231182 
 6580000   0.50643524   -3.1627352   -1.7198368  0.035652777   -3.1627352    1.4428984   231155 
 6581000   0.50736596   -3.1660221   -1.7202218  0.038058343   -3.1660221    1.4458003   231115 
 6582000   0.50539937   -3.1629017   -1.7223189  0.037027088   -3.1629017    1.4405828   231053 
 6583000   0.50568974   -3.1636189   -1.7215781   0.03254378   -3.1636189    1.4420408   230952 
 6584000   0.50565146   -3.1634015   -1.7210202  0.035839216   -3.1634015    1.4423813   230880 
 6585000   0.50700617   -3.1642488   -1.7180596  0.032217599   -3.1642488    1.4461893   230889 
 6586000    0.5047829   -3.1615768   -1.7211366  0.033246985   -3.1615768    1.4404403   230794 
 6587000    0.5051815   -3.1594082   -1.7174119  0.034398215   -3.1594082    1.4419963   230727 
 6588000   0.50474355   -3.1611938   -1.7200478  0.033197647   -3.1611938     1.441146   230663 
 6589000   0.50523187   -3.1637956   -1.7209614  0.033739374   -3.1637956    1.4428342   230616 
 6590000   0.50441279     -3.15972   -1.7190312  0.033089549     -3.15972    1.4406888   230585 
 6591000    0.5044564   -3.1598367   -1.7186358  0.035450549   -3.1598367    1.4412008   230523 
 6592000   0.50417058   -3.1558153   -1.7150436  0.035167119   -3.1558153    1.4407718   230461 
 6593000   0.50601293   -3.1598298   -1.7138182   0.03660322   -3.1598298    1.4460116   230465 
 6594000   0.50510487   -3.1582741   -1.7142497  0.037576738   -3.1582741    1.4440244   230368 
 6595000   0.50408676   -3.1546056   -1.7130851  0.033262176   -3.1546056    1.4415205   230303 
 6596000   0.50255317   -3.1509646   -1.7134426  0.032708164   -3.1509646     1.437522   230241 
 6597000   0.50303277   -3.1520676   -1.7126674  0.033343389   -3.1520676    1.4394002   230160 
 6598000   0.50385625   -3.1502949   -1.7083567  0.034867968   -3.1502949    1.4419382   230131 
 6599000   0.50331237   -3.1487045   -1.7078782  0.030471245   -3.1487045    1.4408263   230060 
 6600000   0.50292557    -3.150258   -1.7098941  0.035204814    -3.150258    1.4403639   229957 
 6601000   0.50325727   -3.1505068   -1.7087416  0.030365646   -3.1505068    1.4417652   229885 
 6602000   0.50282058   -3.1484343   -1.7075503  0.033946106   -3.1484343     1.440884   229826 
 6603000   0.50409093   -3.1505688   -1.7056359  0.031645737   -3.1505688     1.444933   229761 
 6604000   0.50444291   -3.1517489    -1.705656  0.035395346   -3.1517489     1.446093   229737 
 6605000   0.50434533   -3.1482012   -1.7020228  0.036592587   -3.1482012    1.4461783   229679 
 6606000   0.50351891   -3.1500952   -1.7059848  0.029109826   -3.1500952    1.4441104   229631 
 6607000   0.50411279   -3.1541908   -1.7078291   0.03004113   -3.1541908    1.4463617   229544 
 6608000   0.50322093   -3.1529739   -1.7084033  0.032145031   -3.1529739    1.4445706   229422 
 6609000   0.50310776   -3.1529246   -1.7082947  0.034916453   -3.1529246    1.4446298   229361 
 6610000   0.50257405   -3.1512674   -1.7082142  0.031936534   -3.1512674    1.4430533   229368 
 6611000   0.50152599    -3.147187   -1.7066971  0.034345784    -3.147187    1.4404899   229297 
 6612000   0.50282517   -3.1507065   -1.7066426  0.028577623   -3.1507065    1.4440639   229322 
 6613000    0.5026778   -3.1511959   -1.7069254  0.029998264   -3.1511959    1.4442705   229222 
 6614000   0.50323061   -3.1491634   -1.7029702  0.031820763   -3.1491634    1.4461932   229169 
 6615000    0.5037051   -3.1505545   -1.7023721  0.034363377   -3.1505545    1.4481824   229070 
 6616000   0.50096779   -3.1452617   -1.7042887  0.034221701   -3.1452617     1.440973   228965 
 6617000    0.5036418   -3.1499872   -1.7010254  0.036682774   -3.1499872    1.4489619   228918 
 6618000   0.50318052   -3.1485696   -1.7004984  0.031092548   -3.1485696    1.4480712   228849 
 6619000   0.50185296     -3.14411   -1.6994299  0.032435563     -3.14411      1.44468   228781 
 6620000   0.50266149   -3.1471206   -1.6997525  0.034365961   -3.1471206    1.4473681   228724 
 6621000   0.50102633   -3.1445351   -1.7014021  0.035833824   -3.1445351    1.4431331   228649 
 6622000   0.50122016   -3.1445761   -1.7008342  0.034703546   -3.1445761    1.4437419   228641 
 6623000   0.50133478   -3.1468177   -1.7019368  0.034373249   -3.1468177    1.4448809   228513 
 6624000   0.49973496   -3.1441097    -1.703455  0.033981264   -3.1441097    1.4406547   228452 
 6625000   0.50018829   -3.1464534   -1.7042898  0.030911433   -3.1464534    1.4421636   228420 
 6626000   0.50115038   -3.1478482   -1.7025754  0.033182678   -3.1478482    1.4452729   228367 
 6627000   0.50040634   -3.1452172   -1.7016033  0.035288098   -3.1452172    1.4436139   228290 
 6628000   0.50132935   -3.1470226   -1.7004164   0.03709349   -3.1470226    1.4466062   228238 
 6629000   0.50050266   -3.1460423   -1.7014165  0.036093501   -3.1460423    1.4446258   228174 
 6630000   0.49934135   -3.1452229   -1.7034878  0.036084864   -3.1452229    1.4417351   228101 
 6631000   0.50004315   -3.1452894   -1.7012051   0.03190007   -3.1452894    1.4440843   228050 
 6632000   0.49941146   -3.1421331   -1.6996328  0.034385564   -3.1421331    1.4425004   228012 
 6633000   0.49760341   -3.1402365   -1.7026307   0.03343062   -3.1402365    1.4376058   227960 
 6634000   0.50025295   -3.1437629   -1.6981473  0.032592197   -3.1437629    1.4456157   227904 
 6635000   0.50060202   -3.1420955   -1.6951536  0.030973399   -3.1420955    1.4469418   227854 
 6636000   0.50141697   -3.1410598   -1.6914889  0.035499266   -3.1410598    1.4495709   227811 
 6637000   0.50139936   -3.1396556   -1.6900783  0.033407857   -3.1396556    1.4495773   227802 
 6638000   0.50143686   -3.1401935    -1.690355  0.035316539   -3.1401935    1.4498384   227778 
 6639000   0.49904406   -3.1334734    -1.690243  0.034944706   -3.1334734    1.4432304   227729 
 6640000   0.49847152   -3.1337997   -1.6919971  0.033669833   -3.1337997    1.4418026   227693 
 6641000   0.49880515   -3.1342468   -1.6912764  0.034506801   -3.1342468    1.4429704   227661 
 6642000   0.49914341   -3.1363592   -1.6920423   0.03353054   -3.1363592    1.4443169   227603 
 6643000   0.49752606    -3.131801   -1.6918604  0.033336653    -3.131801    1.4399406   227555 
 6644000   0.49841145   -3.1330652    -1.689966  0.033342216   -3.1330652    1.4430992   227461 
 6645000   0.49875258   -3.1329296   -1.6883155  0.033412703   -3.1329296    1.4446141   227378 
 6646000   0.49854039   -3.1323106   -1.6878601  0.035700915   -3.1323106    1.4444505   227307 
 6647000   0.49839947   -3.1333255   -1.6890355  0.033629328   -3.1333255      1.44429   227268 
 6648000   0.49791814    -3.135382   -1.6918071  0.032000518    -3.135382    1.4435749   227161 
 6649000   0.49686047   -3.1312169   -1.6904484  0.033675107   -3.1312169    1.4407685   227120 
 6650000   0.49698189   -3.1297533   -1.6881694  0.029641324   -3.1297533    1.4415839   227047 
 6651000   0.49853653   -3.1343036   -1.6874901  0.034100937   -3.1343036    1.4468135   226934 
 6652000   0.49841631   -3.1347177   -1.6878259  0.036910721   -3.1347177    1.4468918   226867 
 6653000   0.49770916   -3.1353079   -1.6901186  0.034283526   -3.1353079    1.4451893   226812 
 6654000   0.49724354   -3.1329938   -1.6888382  0.031803762   -3.1329938    1.4441556   226762 
 6655000   0.49654773   -3.1317739   -1.6892002  0.035080498   -3.1317739    1.4425738   226693 
 6656000   0.49784371   -3.1333117    -1.686641   0.03677597   -3.1333117    1.4466707   226641 
 6657000   0.49723104   -3.1312474   -1.6860829  0.039163753   -3.1312474    1.4451645   226598 
 6658000   0.49809585   -3.1371799   -1.6890673  0.032698796   -3.1371799    1.4481126   226530 
 6659000    0.4976873   -3.1321469   -1.6849858  0.035779032   -3.1321469    1.4471612   226493 
 6660000   0.49794028   -3.1304254   -1.6824839  0.033474267   -3.1304254    1.4479415   226486 
 6661000   0.49710909   -3.1272662   -1.6815757   0.03218084   -3.1272662    1.4456905   226460 
 6662000   0.49718805   -3.1294051   -1.6830379  0.031639666   -3.1294051    1.4463672   226390 
 6663000   0.49688252   -3.1280683    -1.682411  0.030228597   -3.1280683    1.4456572   226362 
 6664000   0.49639334   -3.1265707   -1.6819475  0.034657376   -3.1265707    1.4446233   226301 
 6665000   0.49640352   -3.1283985   -1.6834199  0.033119391   -3.1283985    1.4449785   226250 
 6666000   0.49610666   -3.1254771   -1.6810179  0.031267357   -3.1254771    1.4444592   226196 
 6667000   0.49506024   -3.1241263   -1.6825418   0.03707177   -3.1241263    1.4415845   226169 
 6668000   0.49602666   -3.1286363   -1.6834708  0.035860821   -3.1286363    1.4451654   226049 
 6669000   0.49577532   -3.1247161   -1.6799379  0.034092716   -3.1247161    1.4447783   225995 
 6670000   0.49525461   -3.1234564   -1.6799975   0.03222347   -3.1234564    1.4434588   225964 
 6671000   0.49661638   -3.1255745    -1.677743  0.033498391   -3.1255745    1.4478315   225901 
 6672000   0.49578462   -3.1255349    -1.679565  0.037105815   -3.1255349    1.4459699   225813 
 6673000   0.49550095   -3.1271615   -1.6816477  0.032904786   -3.1271615    1.4455138   225755 
 6674000   0.49454088    -3.126442   -1.6832815  0.034090742    -3.126442    1.4431605   225685 
 6675000   0.49554412     -3.13028   -1.6835573  0.033718969     -3.13028    1.4467228   225586 
 6676000   0.49461104   -3.1300549   -1.6854863  0.034523224   -3.1300549    1.4445686   225497 
 6677000   0.49470335   -3.1316288   -1.6864702  0.036643381   -3.1316288    1.4451586   225447 
 6678000   0.49420353   -3.1310559   -1.6870884  0.030542456   -3.1310559    1.4439676   225405 
 6679000   0.49367577   -3.1334815   -1.6902364  0.035647384   -3.1334815    1.4432451   225277 
 6680000   0.49474941    -3.136507   -1.6900076  0.043489776    -3.136507    1.4464994   225259 
 6681000   0.49434979   -3.1356366   -1.6897278  0.036065349   -3.1356366    1.4459088   225169 
 6682000   0.49524392   -3.1366406   -1.6877177  0.035326862   -3.1366406    1.4489229   225107 
 6683000   0.49412218   -3.1339617   -1.6878967  0.038097664   -3.1339617    1.4460651   225041 
 6684000   0.49190968   -3.1315631   -1.6914098   0.03550745   -3.1315631    1.4401533   224953 
 6685000   0.49189765   -3.1310028   -1.6905838  0.033426425   -3.1310028     1.440419   224906 
 6686000   0.49306058   -3.1325119   -1.6883022  0.035158495   -3.1325119    1.4442097   224846 
 6687000   0.49218205   -3.1333454   -1.6910418  0.035832216   -3.1333454    1.4423035   224742 
 6688000    0.4927096   -3.1296171   -1.6854399  0.038652116   -3.1296171    1.4441772   224691 
 6689000   0.49267432   -3.1328217   -1.6879699  0.034566141   -3.1328217    1.4448518   224570 
 6690000   0.49177117   -3.1279778   -1.6855048  0.036101793   -3.1279778     1.442473   224528 
 6691000   0.49214466   -3.1292242    -1.685051  0.033745368   -3.1292242    1.4441731   224434 
 6692000   0.49166514   -3.1288549    -1.685658   0.03578512   -3.1288549    1.4431968   224367 
 6693000   0.49189786    -3.125081   -1.6811432  0.035575975    -3.125081    1.4439379   224358 
 6694000   0.49146611     -3.12483   -1.6817607  0.037203954     -3.12483    1.4430693   224296 
 6695000   0.49127271    -3.125987   -1.6828036  0.033882649    -3.125987    1.4431834   224190 
 6696000   0.48972166   -3.1208722   -1.6819242  0.035298596   -3.1208722    1.4389479   224140 
 6697000   0.49039061   -3.1220789   -1.6806831  0.029028266   -3.1220789    1.4413958   224065 
 6698000   0.48899297     -3.12065   -1.6825664  0.036149541     -3.12065    1.4380836   223941 
 6699000   0.48979561   -3.1210677    -1.680244  0.035815591   -3.1210677    1.4408237   223882 
 6700000   0.49113766   -3.1231802   -1.6780795  0.033071943   -3.1231802    1.4451008   223831 
 6701000   0.48962595   -3.1207815   -1.6799163  0.032476873   -3.1207815    1.4408652   223798 
 6702000   0.48980856   -3.1214222   -1.6796717  0.033654308   -3.1214222    1.4417505   223744 
 6703000   0.49015059   -3.1231357   -1.6797721  0.032939484   -3.1231357    1.4433636   223650 
 6704000   0.48979334   -3.1213332   -1.6785184  0.036616074   -3.1213332    1.4428148   223572 
 6705000   0.49092568   -3.1225436   -1.6760308  0.035919755   -3.1225436    1.4465127   223516 
 6706000   0.49050936   -3.1240507   -1.6784154  0.036682459   -3.1240507    1.4456353   223462 
 6707000   0.49082069   -3.1238794   -1.6770157  0.034800651   -3.1238794    1.4468637   223414 
 6708000   0.49034218   -3.1258515   -1.6797965  0.035245687   -3.1258515     1.446055   223321 
 6709000   0.49081354   -3.1246535    -1.676774  0.035923476   -3.1246535    1.4478795   223254 
 6710000   0.49023975   -3.1253444   -1.6786133    0.0349339   -3.1253444    1.4467312   223170 
 6711000   0.48947675   -3.1221772   -1.6773934  0.032675057   -3.1221772    1.4447838   223123 
 6712000   0.48870789   -3.1214985   -1.6784668  0.033996175   -3.1214985    1.4430318   223043 
 6713000   0.48972947   -3.1244974   -1.6781314  0.033998102   -3.1244974     1.446366   222994 
 6714000   0.48876961   -3.1205138   -1.6768597  0.037019884   -3.1205138    1.4436541   222975 
 6715000   0.48825591   -3.1206802    -1.677987  0.037569899   -3.1206802    1.4426933   222889 
 6716000   0.48815081   -3.1209265   -1.6783366  0.032187668   -3.1209265    1.4425898   222857 
 6717000   0.48874742   -3.1179355   -1.6730249  0.039457413   -3.1179355    1.4449105   222771 
 6718000    0.4883898   -3.1172711   -1.6729964  0.035417066   -3.1172711    1.4442747   222706 
 6719000   0.48818847   -3.1172326   -1.6733653  0.034503713   -3.1172326    1.4438673   222677 
 6720000   0.48772446   -3.1183261   -1.6753257  0.032212286   -3.1183261    1.4430004   222599 
 6721000   0.48860977   -3.1187746   -1.6726676  0.034188616   -3.1187746     1.446107   222524 
 6722000   0.48769051    -3.117339   -1.6731154  0.037033999    -3.117339    1.4442235   222395 
 6723000   0.48625108    -3.112517    -1.672459  0.037795285    -3.112517     1.440058   222380 
 6724000   0.48613697   -3.1133229   -1.6730199  0.030194464   -3.1133229     1.440303   222290 
 6725000   0.48749891   -3.1142634   -1.6697564  0.031905835   -3.1142634     1.444507   222264 
 6726000   0.48685176   -3.1128114   -1.6699234  0.036316849   -3.1128114    1.4428881   222218 
 6727000   0.48702993   -3.1099503   -1.6661509  0.032189246   -3.1099503    1.4437994   222159 
 6728000   0.48770584   -3.1094311   -1.6631526  0.033615937   -3.1094311    1.4462784   222086 
 6729000   0.48646083   -3.1106049   -1.6676611  0.035420452   -3.1106049    1.4429437   222031 
 6730000   0.48729731   -3.1134129   -1.6673628  0.033373213   -3.1134129    1.4460501   221935 
 6731000   0.48623203   -3.1100392   -1.6667861  0.034740334   -3.1100392    1.4432531   221879 
 6732000   0.48658807   -3.1097345   -1.6649688  0.033899845   -3.1097345    1.4447657   221809 
 6733000   0.48666772   -3.1087871   -1.6634721   0.03119795   -3.1087871     1.445315   221761 
 6734000   0.48539941   -3.1093003   -1.6670887  0.036283476   -3.1093003    1.4422117   221659 
 6735000    0.4855021   -3.1114352   -1.6683064  0.030611947   -3.1114352    1.4431288   221565 
 6736000   0.48629049   -3.1133394   -1.6675997  0.033199093   -3.1133394    1.4457398   221524 
 6737000   0.48536587   -3.1093614   -1.6662337  0.033241872   -3.1093614    1.4431277   221503 
 6738000   0.48485763   -3.1095747   -1.6673787  0.033766206   -3.1095747     1.442196   221414 
 6739000   0.48509111   -3.1102355   -1.6668561  0.032774548   -3.1102355    1.4433794   221339 
 6740000   0.48599493   -3.1095947   -1.6632254  0.035837018   -3.1095947    1.4463693   221293 
 6741000   0.48440676   -3.1078705   -1.6655695  0.035843101   -3.1078705     1.442301   221192 
 6742000   0.48434093   -3.1114368   -1.6688035   0.03203619   -3.1114368    1.4426333   221111 
 6743000   0.48618715   -3.1135244   -1.6651955   0.03251723   -3.1135244    1.4483289   221081 
 6744000   0.48495086   -3.1124306   -1.6675493  0.031378878   -3.1124306    1.4448813   221045 
 6745000   0.48567795   -3.1121377   -1.6649722  0.036694554   -3.1121377    1.4471655   221027 
 6746000   0.48472686    -3.111499   -1.6666446   0.02938954    -3.111499    1.4448545   220947 
 6747000   0.48330513   -3.1097092   -1.6687338  0.032265041   -3.1097092    1.4409753   220892 
 6748000   0.48313442   -3.1105022   -1.6697227  0.032347527   -3.1105022    1.4407795   220844 
 6749000   0.48354246   -3.1125051   -1.6699405  0.028383458   -3.1125051    1.4425646   220757 
 6750000    0.4834133   -3.1131318   -1.6705278  0.027729108   -3.1131318     1.442604   220692 
 6751000   0.48484044   -3.1142466   -1.6671739  0.036061971   -3.1142466    1.4470727   220660 
 6752000   0.48499852   -3.1122604   -1.6642303   0.03515841   -3.1122604    1.4480301   220586 
 6753000   0.48436796   -3.1121033   -1.6652868  0.038841565   -3.1121033    1.4468165   220484 
 6754000   0.48385232   -3.1136163   -1.6678745  0.034576912   -3.1136163    1.4457419   220413 
 6755000   0.48321201   -3.1095312    -1.665565   0.03640919   -3.1095312    1.4439662   220392 
 6756000   0.48396459   -3.1124256   -1.6657838  0.033016363   -3.1124256    1.4466418   220327 
 6757000   0.48238882   -3.1118089   -1.6696875  0.033862394   -3.1118089    1.4421214   220298 
 6758000   0.48276406   -3.1135518   -1.6698696  0.033054342   -3.1135518    1.4436822   220231 
 6759000   0.48239322   -3.1110787   -1.6678042  0.035180098   -3.1110787    1.4432745   220124 
 6760000   0.48255493   -3.1115514   -1.6673732  0.031597717   -3.1115514    1.4441782   220060 
 6761000   0.48364375   -3.1143031   -1.6663596  0.032741369   -3.1143031    1.4479434   219983 
 6762000   0.48280046   -3.1104588   -1.6647838  0.035879218   -3.1104588    1.4456751   219944 
 6763000   0.48107397    -3.106937   -1.6659599  0.038719263    -3.106937     1.440977   219872 
 6764000   0.48116652    -3.107625   -1.6659183  0.035053885    -3.107625    1.4417067   219803 
 6765000   0.48186105   -3.1092013   -1.6650128  0.030874208   -3.1092013    1.4441885   219742 
 6766000   0.48082323   -3.1072268   -1.6658601  0.032053051   -3.1072268    1.4413666   219698 
 6767000   0.48125474   -3.1083508   -1.6655067   0.02901332   -3.1083508    1.4428441   219670 
 6768000   0.48183869   -3.1062781    -1.661486  0.032862747   -3.1062781    1.4447921   219640 
 6769000   0.48122311   -3.1073564   -1.6640027  0.032003951   -3.1073564    1.4433537   219578 
 6770000   0.48260963   -3.1093313   -1.6613639   0.03639507   -3.1093313    1.4479674   219509 
 6771000    0.4819393   -3.1103562   -1.6641167  0.033485976   -3.1103562    1.4462395   219466 
 6772000   0.48129195   -3.1075098   -1.6629957  0.034184777   -3.1075098    1.4445141   219433 
 6773000   0.48166855   -3.1072158   -1.6611958  0.038674301   -3.1072158      1.44602   219376 
 6774000    0.4811788   -3.1060787   -1.6613709  0.038756043   -3.1060787    1.4447078   219352 
 6775000   0.48036385   -3.1040511   -1.6612245  0.032811557   -3.1040511    1.4428266   219266 
 6776000   0.48058576   -3.1056676   -1.6619111  0.030355903   -3.1056676    1.4437566   219226 
 6777000   0.47950052   -3.1027384   -1.6617951  0.030480027   -3.1027384    1.4409433   219158 
 6778000   0.47954547    -3.100333   -1.6591626  0.037169359    -3.100333    1.4411704   219144 
 6779000   0.48057792   -3.1063106   -1.6615231  0.032533434   -3.1063106    1.4447875   219066 
 6780000   0.48014798   -3.1032473   -1.6592052  0.032614958   -3.1032473     1.444042   218983 
 6781000   0.47923824   -3.0999312   -1.6580194  0.034120551   -3.0999312    1.4419118   218891 
 6782000   0.47962468     -3.09808   -1.6546824  0.035575952     -3.09808    1.4433976   218842 
 6783000   0.47908173   -3.0954149   -1.6533614  0.037627834   -3.0954149    1.4420536   218798 
 6784000   0.47918391   -3.0968127   -1.6541483  0.032569955   -3.0968127    1.4426644   218752 
 6785000   0.47909085   -3.0953462   -1.6524144   0.03502037   -3.0953462    1.4429318   218669 
 6786000   0.47852618   -3.0955004   -1.6538606  0.034317467   -3.0955004    1.4416398   218607 
 6787000   0.47823413    -3.097141   -1.6560317  0.035072242    -3.097141    1.4411094   218554 
 6788000   0.47883873   -3.0998735    -1.656513   0.03307266   -3.0998735    1.4433605   218489 
 6789000   0.47904405   -3.0993116   -1.6551141  0.032196197   -3.0993116    1.4441976   218456 
 6790000   0.47945636   -3.1007238   -1.6546875  0.034980976   -3.1007238    1.4460363   218366 
 6791000   0.47920824   -3.1010441   -1.6557032  0.033044739   -3.1010441    1.4453409   218358 
 6792000   0.47853238   -3.1005771   -1.6567192  0.033239732   -3.1005771    1.4438579   218274 
 6793000   0.47886908   -3.1023424   -1.6569521  0.039347527   -3.1023424    1.4453903   218196 
 6794000    0.4787385    -3.105798    -1.660623  0.036755722    -3.105798     1.445175   218169 
 6795000   0.47969281   -3.1062658   -1.6581104  0.035084756   -3.1062658    1.4481554   218154 
 6796000    0.4785948   -3.1050989   -1.6595095  0.033360573   -3.1050989    1.4455893   218041 
 6797000   0.47911996   -3.1051714   -1.6577634   0.03539987   -3.1051714    1.4474079   218006 
 6798000   0.47924371   -3.1044523   -1.6560792  0.038035031   -3.1044523    1.4483731   217917 
 6799000    0.4789333   -3.1077287   -1.6596359  0.034796121   -3.1077287    1.4480928   217818 
 6800000   0.47781951   -3.1044862   -1.6590842  0.036734744   -3.1044862     1.445402   217716 
 6801000   0.47735028   -3.1037429    -1.659402  0.035437386   -3.1037429    1.4443409   217662 
 6802000   0.47739862   -3.1052852   -1.6601408  0.035460791   -3.1052852    1.4451444   217563 
 6803000   0.47676817   -3.1040332   -1.6604721  0.036843375   -3.1040332    1.4435611   217514 
 6804000   0.47588727   -3.1028329   -1.6613293  0.033733534   -3.1028329    1.4415036   217422 
 6805000   0.47547531   -3.1041019   -1.6633624  0.035739419   -3.1041019    1.4407395   217349 
 6806000   0.47653569   -3.1044662    -1.660188  0.030571489   -3.1044662    1.4442781   217300 
 6807000   0.47778942    -3.106494   -1.6582695  0.033801479    -3.106494    1.4482246   217278 
 6808000   0.47774907   -3.1051146   -1.6564589  0.040811745   -3.1051146    1.4486556   217195 
 6809000   0.47730401    -3.103808    -1.656302  0.037735402    -3.103808     1.447506   217165 
 6810000   0.47584102   -3.1009557    -1.657368  0.035470734   -3.1009557    1.4435878   217087 
 6811000   0.47602481   -3.1021974   -1.6574797   0.03433703   -3.1021974    1.4447177   217001 
 6812000   0.47637282   -3.1008188   -1.6547383  0.035153841   -3.1008188    1.4460804   216955 
 6813000   0.47687206   -3.1047705   -1.6568076  0.030704266   -3.1047705     1.447963   216900 
 6814000   0.47477764   -3.0997898   -1.6576012  0.034309526   -3.0997898    1.4421886   216812 
 6815000   0.47397993   -3.1003843   -1.6601073  0.032159484   -3.1003843     1.440277   216735 
 6816000   0.47396169   -3.0999766   -1.6596886  0.035025214   -3.0999766     1.440288   216725 
 6817000   0.47376873   -3.0977919   -1.6575054  0.036054744   -3.0977919    1.4402865   216637 
 6818000   0.47476218   -3.0975574   -1.6538842  0.034415269   -3.0975574    1.4436732   216582 
 6819000   0.47449361   -3.0988732   -1.6553702  0.035344177   -3.0988732     1.443503   216485 
 6820000   0.47452596   -3.0994958   -1.6555875  0.034773958   -3.0994958    1.4439082   216439 
 6821000   0.47518165   -3.0996191   -1.6532279  0.039171994   -3.0996191    1.4463912   216366 
 6822000   0.47483029   -3.0992298   -1.6534336  0.038517094   -3.0992298    1.4457962   216295 
 6823000   0.47406266    -3.097499   -1.6541602  0.036743697    -3.097499    1.4433387   216313 
 6824000   0.47409836    -3.096701   -1.6527396  0.034177754    -3.096701    1.4439614   216236 
 6825000   0.47430728    -3.097289   -1.6525576  0.033294177    -3.097289    1.4447314   216216 
 6826000    0.4746195    -3.098322   -1.6518302  0.034809205    -3.098322    1.4464918   216095 
 6827000   0.47439377   -3.0976295   -1.6514508   0.03518724   -3.0976295    1.4461787   216039 
 6828000    0.4729008   -3.0960042   -1.6540164  0.039059208   -3.0960042    1.4419878   215985 
 6829000    0.4737515   -3.0981683   -1.6532922  0.032555189   -3.0981683    1.4448761   215941 
 6830000   0.47355672   -3.0950769   -1.6503867  0.038889589   -3.0950769    1.4446902   215880 
 6831000   0.47326979   -3.0926244    -1.648388  0.037585582   -3.0926244    1.4442363   215817 
 6832000   0.47254799   -3.0927752   -1.6503138  0.034299585   -3.0927752    1.4424614   215753 
 6833000   0.47225149   -3.0940908   -1.6520064  0.028395298   -3.0940908    1.4420844   215674 
 6834000   0.47085751   -3.0890913   -1.6509835  0.033560094   -3.0890913    1.4381077   215632 
 6835000   0.47221251   -3.0879383   -1.6455583   0.03298078   -3.0879383      1.44238   215612 
 6836000   0.47289118   -3.0915379    -1.646361  0.033460141   -3.0915379    1.4451769   215504 
 6837000   0.47074342   -3.0861079   -1.6470473  0.036683435   -3.0861079    1.4390606   215437 
 6838000   0.47156895   -3.0878237   -1.6457508  0.029688234   -3.0878237    1.4420729   215364 
 6839000   0.47184764   -3.0891424   -1.6459023  0.036905158   -3.0891424    1.4432401   215317 
 6840000   0.47260006     -3.09149   -1.6456597   0.03635508     -3.09149    1.4458303   215274 
 6841000   0.47221945   -3.0927601   -1.6477183  0.038239763   -3.0927601    1.4450418   215218 
 6842000   0.47109858   -3.0912135   -1.6494007  0.037478048   -3.0912135    1.4418128   215188 
 6843000   0.47027334   -3.0885782   -1.6488695  0.033572713   -3.0885782    1.4397086   215125 
 6844000   0.46982463   -3.0887576    -1.650309  0.029160477   -3.0887576    1.4384486   215108 
 6845000   0.47011537   -3.0889083   -1.6488599  0.034853371   -3.0889083    1.4400484   215002 
 6846000   0.47138458   -3.0917884   -1.6473416  0.034371092   -3.0917884    1.4444468   214926 
 6847000   0.47113167   -3.0891222   -1.6453429  0.035523533   -3.0891222    1.4437793   214910 
 6848000   0.47126888   -3.0921618   -1.6474175  0.034020063   -3.0921618    1.4447443   214829 
 6849000   0.47146004   -3.0908302   -1.6448672  0.036219057   -3.0908302     1.445963   214735 
 6850000   0.47186262    -3.092454   -1.6445618  0.030786644    -3.092454    1.4478922   214632 
 6851000   0.47132045   -3.0888325   -1.6422062  0.035423845   -3.0888325    1.4466263   214573 
 6852000   0.47064199    -3.086003    -1.640981  0.034915821    -3.086003     1.445022   214502 
 6853000   0.47059006   -3.0838919   -1.6388609  0.033867489   -3.0838919     1.445031   214477 
 6854000   0.46976876   -3.0843226   -1.6412484  0.036859827   -3.0843226    1.4430742   214393 
 6855000   0.47048619   -3.0860991   -1.6404367  0.037666548   -3.0860991    1.4456624   214336 
 6856000   0.46855386   -3.0848736   -1.6446716  0.038575135   -3.0848736     1.440202   214265 
 6857000   0.46855613   -3.0806764   -1.6401581   0.03162681   -3.0806764    1.4405183   214219 
 6858000   0.46787572   -3.0823374   -1.6432527  0.035204564   -3.0823374    1.4390848   214121 
 6859000   0.46870065   -3.0820393   -1.6400267  0.035282964   -3.0820393    1.4420127   214063 
 6860000   0.46934072   -3.0852657   -1.6409329  0.035653419   -3.0852657    1.4443328   214011 
 6861000   0.46889366    -3.082092   -1.6388045  0.032658058    -3.082092    1.4432875   213962 
 6862000   0.46882389   -3.0845028    -1.641059  0.034204946   -3.0845028    1.4434438   213907 
 6863000   0.46852388   -3.0825678   -1.6396632  0.028899116   -3.0825678    1.4429046   213850 
 6864000   0.46791819   -3.0809173   -1.6393253  0.033943046   -3.0809173     1.441592   213768 
 6865000   0.46829067   -3.0825116   -1.6393669  0.033092635   -3.0825116    1.4431446   213708 
 6866000   0.46755931    -3.080616   -1.6390641  0.031583372    -3.080616    1.4415518   213610 
 6867000   0.46701527   -3.0785256    -1.638523  0.033590833   -3.0785256    1.4400026   213591 
 6868000    0.4671787     -3.08183     -1.64075  0.032374764     -3.08183      1.44108   213506 
 6869000   0.46746486   -3.0829202   -1.6403765  0.034214282   -3.0829202    1.4425437   213420 
 6870000    0.4677776    -3.082299   -1.6386887  0.036908919    -3.082299    1.4436103   213405 
 6871000   0.46744181   -3.0836299   -1.6402443  0.037099628   -3.0836299    1.4433856   213285 
 6872000   0.46737725   -3.0841895   -1.6407326  0.033437883   -3.0841895     1.443457   213245 
 6873000     0.466389   -3.0844349   -1.6433881  0.031348306   -3.0844349    1.4410468   213150 
 6874000   0.46674777   -3.0870969   -1.6443053  0.032743482   -3.0870969    1.4427916   213056 
 6875000   0.46647165   -3.0848772   -1.6427902  0.035112128   -3.0848772     1.442087   213034 
 6876000   0.46589449   -3.0830785    -1.642458   0.03452554   -3.0830785    1.4406206   212987 
 6877000   0.46622025   -3.0826279   -1.6408917  0.035349079   -3.0826279    1.4417362   212971 
 6878000    0.4668843   -3.0799156   -1.6356377  0.037975676   -3.0799156    1.4442779   212899 
 6879000   0.46679364   -3.0823173   -1.6379535  0.035215279   -3.0823173    1.4443638   212845 
 6880000    0.4667381   -3.0803231   -1.6355677  0.036121108   -3.0803231    1.4447554   212762 
 6881000   0.46544678   -3.0777336   -1.6363995  0.031684335   -3.0777336     1.441334   212677 
 6882000   0.46454906   -3.0745141   -1.6353917   0.02933469   -3.0745141    1.4391225   212593 
 6883000   0.46606691   -3.0751866   -1.6310903  0.035605035   -3.0751866    1.4440963   212553 
 6884000   0.46678995   -3.0739136   -1.6272026   0.03401586   -3.0739136     1.446711   212498 
 6885000   0.46537383   -3.0725873   -1.6295794  0.034640434   -3.0725873    1.4430079   212397 
 6886000   0.46646289   -3.0782728    -1.631234  0.032597064   -3.0782728    1.4470389   212301 
 6887000   0.46359864    -3.071085   -1.6325317  0.033110078    -3.071085    1.4385533   212242 
 6888000   0.46346964   -3.0704047   -1.6318654  0.032361204   -3.0704047    1.4385394   212185 
 6889000   0.46394215   -3.0721044   -1.6318066  0.034534479   -3.0721044    1.4402978   212142 
 6890000    0.4647574   -3.0735977   -1.6301429  0.030565208   -3.0735977    1.4434547   212050 
 6891000   0.46446213   -3.0728466   -1.6299006  0.034808321   -3.0728466     1.442946   211990 
 6892000   0.46439556   -3.0737907   -1.6301935  0.032396518   -3.0737907    1.4435972   211864 
 6893000   0.46498817   -3.0772685   -1.6314811  0.033299668   -3.0772685    1.4457874   211813 
 6894000   0.46410324   -3.0737698   -1.6301751   0.03676096   -3.0737698    1.4435947   211731 
 6895000   0.46477072   -3.0779505   -1.6318493  0.034024835   -3.0779505    1.4461012   211668 
 6896000   0.46289531   -3.0737937     -1.63299  0.034938471   -3.0737937    1.4408037   211589 
 6897000    0.4647001   -3.0775766   -1.6309912  0.031471487   -3.0775766    1.4465854   211565 
 6898000   0.46432706   -3.0776202   -1.6312732  0.035179355   -3.0776202     1.446347   211430 
 6899000   0.46482259   -3.0805103   -1.6321539  0.032400999   -3.0805103    1.4483564   211362 
 6900000   0.46402305   -3.0757519   -1.6293598  0.030979872   -3.0757519     1.446392   211285 
 6901000   0.46262532   -3.0737237   -1.6312789  0.035981771   -3.0737237    1.4424448   211225 
 6902000   0.46301822   -3.0738842   -1.6297426  0.037581908   -3.0738842    1.4441416   211156 
 6903000   0.46381906   -3.0755079   -1.6287726  0.035715913   -3.0755079    1.4467354   211142 
 6904000   0.46262226   -3.0733522   -1.6299465  0.035790216   -3.0733522    1.4434056   211083 
 6905000   0.46397474   -3.0723145   -1.6243941   0.03775252   -3.0723145    1.4479204   211040 
 6906000   0.46358681   -3.0730892   -1.6257416  0.034123962   -3.0730892    1.4473476   210947 
 6907000   0.46278707   -3.0727967   -1.6277473  0.035270149   -3.0727967    1.4450494   210918 
 6908000   0.46399675    -3.074795   -1.6254736  0.031111701    -3.074795    1.4493214   210846 
 6909000   0.46286278   -3.0728004   -1.6263968   0.03559894   -3.0728004    1.4464036   210755 
 6910000   0.46239908   -3.0691945   -1.6235127  0.035210853   -3.0691945    1.4456817   210649 
 6911000   0.46253367   -3.0690739   -1.6225181  0.034727305   -3.0690739    1.4465557   210583 
 6912000   0.46129801   -3.0629451   -1.6199798  0.034422487   -3.0629451    1.4429654   210543 
 6913000   0.46054259   -3.0609446   -1.6199179  0.036648465   -3.0609446    1.4410267   210481 
 6914000   0.46213557   -3.0651185    -1.618757  0.035545237   -3.0651185    1.4463616   210430 
 6915000   0.46221047   -3.0656992   -1.6186906  0.033556755   -3.0656992    1.4470086   210370 
 6916000   0.46263348    -3.065258   -1.6166566  0.033426998    -3.065258    1.4486014   210331 
 6917000   0.46093478   -3.0601947   -1.6167133  0.031607771   -3.0601947    1.4434814   210302 
 6918000   0.46316409   -3.0642594   -1.6134585  0.033710976   -3.0642594    1.4508009   210253 
 6919000   0.46161895   -3.0626319   -1.6162169  0.031802523   -3.0626319     1.446415   210187 
 6920000   0.46159399   -3.0614894   -1.6147052  0.038973035   -3.0614894    1.4467842   210122 
 6921000    0.4615382   -3.0625396   -1.6155516  0.033397088   -3.0625396    1.4469881   210067 
 6922000   0.46140432   -3.0594874   -1.6127125  0.031792224   -3.0594874     1.446775   210037 
 6923000   0.46099833   -3.0600753   -1.6141809  0.031775401   -3.0600753    1.4458943   209980 
 6924000   0.45954842   -3.0574442   -1.6156443  0.034069595   -3.0574442    1.4417999   209914 
 6925000   0.46096676   -3.0622239   -1.6155743  0.034317633   -3.0622239    1.4466496   209856 
 6926000   0.46203559   -3.0656183   -1.6148885  0.036548589   -3.0656183    1.4507298   209751 
 6927000   0.46135309   -3.0640359   -1.6149102  0.034464864   -3.0640359    1.4491257   209673 
 6928000   0.45930963   -3.0619055   -1.6186821  0.032996429   -3.0619055    1.4432234   209598 
 6929000   0.46028128   -3.0632965   -1.6166336   0.03543077   -3.0632965    1.4466629   209542 
 6930000   0.46143418   -3.0658019   -1.6151901  0.033118517   -3.0658019    1.4506119   209495 
 6931000   0.46113121    -3.064499   -1.6147358  0.035496611    -3.064499    1.4497632   209480 
 6932000    0.4595403   -3.0604235   -1.6153584  0.036533329   -3.0604235    1.4450651   209436 
 6933000   0.46051739   -3.0644107   -1.6155952  0.034610676   -3.0644107    1.4488155   209338 
 6934000    0.4607825   -3.0649698   -1.6149808  0.036635621   -3.0649698     1.449989   209289 
 6935000    0.4591495   -3.0606253   -1.6152088  0.033678392   -3.0606253    1.4454166   209207 
 6936000   0.46005146   -3.0627099   -1.6141008  0.033244551   -3.0627099    1.4486091   209156 
 6937000   0.45980294   -3.0609349   -1.6126097  0.032418361   -3.0609349    1.4483252   209084 
 6938000   0.45835058   -3.0596331   -1.6152609  0.035697373   -3.0596331    1.4443721   208994 
 6939000    0.4598276   -3.0616544   -1.6124892  0.036157064   -3.0616544    1.4491652   208974 
 6940000   0.45945269   -3.0622392   -1.6140129  0.034464855   -3.0622392    1.4482263   208939 
 6941000   0.45943414    -3.061636   -1.6126638  0.038341545    -3.061636    1.4489722   208823 
 6942000   0.45976853   -3.0629704   -1.6125546  0.035961855   -3.0629704    1.4504158   208767 
 6943000   0.45976341   -3.0627333   -1.6120696  0.030542659   -3.0627333    1.4506637   208729 
 6944000   0.45820717   -3.0589499   -1.6128294  0.033562861   -3.0589499    1.4461206   208676 
 6945000   0.45860137   -3.0608507    -1.612924  0.036411529   -3.0608507    1.4479267   208595 
 6946000    0.4601344   -3.0601117   -1.6069059  0.035688214   -3.0601117    1.4532058   208532 
 6947000   0.45834208   -3.0566051   -1.6085529  0.034598754   -3.0566051    1.4480522   208459 
 6948000    0.4575095   -3.0560181   -1.6102356  0.033244585   -3.0560181    1.4457824   208407 
 6949000   0.45796588    -3.055282   -1.6076128  0.036386618    -3.055282    1.4476692   208343 
 6950000   0.45826612   -3.0565873   -1.6077186  0.036154575   -3.0565873    1.4488687   208307 
 6951000   0.45793348   -3.0567343   -1.6084933  0.037707069   -3.0567343    1.4482411   208246 
 6952000   0.45794826   -3.0593412   -1.6102044  0.033730734   -3.0593412    1.4491368   208124 
 6953000   0.45868289   -3.0604389   -1.6086845  0.034035299   -3.0604389    1.4517544   208082 
 6954000   0.45737238   -3.0563297   -1.6080688  0.032775738   -3.0563297    1.4482609   207988 
 6955000   0.45785242   -3.0542039   -1.6039907  0.033362685   -3.0542039    1.4502132   207926 
 6956000   0.45654718   -3.0519795   -1.6053161  0.034144211   -3.0519795    1.4466634   207842 
 6957000   0.45638672   -3.0516543    -1.605033  0.034503075   -3.0516543    1.4466213   207775 
 6958000   0.45645879   -3.0505129   -1.6032732  0.031498771   -3.0505129    1.4472398   207719 
 6959000   0.45649857   -3.0515636   -1.6035634  0.035271566   -3.0515636    1.4480002   207628 
 6960000   0.45677217   -3.0512907   -1.6020457  0.033770385   -3.0512907     1.449245   207574 
 6961000    0.4556583   -3.0515151   -1.6052468  0.032956794   -3.0515151    1.4462683   207494 
 6962000   0.45739068   -3.0555445   -1.6032246  0.035599494   -3.0555445    1.4523199   207415 
 6963000   0.45438181   -3.0511174   -1.6071818  0.036713101   -3.0511174    1.4439356   207247 
 6964000   0.45467457   -3.0516716    -1.606164  0.033838938   -3.0516716    1.4455076   207155 
 6965000   0.45474827   -3.0499634    -1.603663  0.034962004   -3.0499634    1.4463004   207075 
 6966000   0.45513933   -3.0511683   -1.6034494  0.032013659   -3.0511683     1.447719   207050 
 6967000    0.4551486   -3.0512208   -1.6030457  0.035616639   -3.0512208    1.4481751   206989 
 6968000   0.45558478   -3.0506119   -1.6007127  0.037592351   -3.0506119    1.4498992   206941 
 6969000   0.45395147   -3.0439293   -1.5989488  0.036761985   -3.0439293    1.4449805   206901 
 6970000   0.45549673   -3.0478635   -1.5978102  0.030382044   -3.0478635    1.4500534   206879 
 6971000   0.45339938   -3.0439843   -1.6006148  0.032862307   -3.0439843    1.4433696   206880 
 6972000   0.45433122   -3.0435557   -1.5967721  0.036024331   -3.0435557    1.4467836   206816 
 6973000   0.45474175   -3.0481201   -1.5997281  0.037256434   -3.0481201    1.4483921   206773 
 6974000   0.45487617   -3.0504555   -1.6009202  0.037601992   -3.0504555    1.4495352   206671 
 6975000   0.45434846   -3.0486484   -1.6005495  0.036603424   -3.0486484    1.4480988   206636 
 6976000   0.45509408   -3.0486918   -1.5977741  0.037048479   -3.0486918    1.4509176   206573 
 6977000   0.45443419   -3.0447715   -1.5954525  0.037847885   -3.0447715     1.449319   206501 
 6978000   0.45338864   -3.0428666   -1.5964899  0.039224344   -3.0428666    1.4463766   206445 
 6979000   0.45382497   -3.0441956   -1.5959991  0.035305664   -3.0441956    1.4481965   206384 
 6980000   0.45319721   -3.0426891   -1.5964748  0.037425006   -3.0426891    1.4462143   206381 
 6981000    0.4527987   -3.0421806   -1.5966637  0.036775082   -3.0421806    1.4455169   206299 
 6982000   0.45395886    -3.043545   -1.5938043  0.032181672    -3.043545    1.4497407   206225 
 6983000   0.45416616   -3.0433762   -1.5924599  0.038314448   -3.0433762    1.4509163   206152 
 6984000    0.4538687   -3.0435377   -1.5930229   0.03813359   -3.0435377    1.4505148   206074 
 6985000   0.45395821   -3.0448679   -1.5931019  0.033876381   -3.0448679     1.451766   205937 
 6986000   0.45210813   -3.0427104   -1.5963553  0.032635527   -3.0427104    1.4463551   205865 
 6987000   0.45146063   -3.0409664   -1.5963178  0.035563396   -3.0409664    1.4446486   205813 
 6988000   0.45178691    -3.041289   -1.5951678  0.031954033    -3.041289    1.4461212   205752 
 6989000   0.45256858   -3.0423875   -1.5932712  0.035556642   -3.0423875    1.4491163   205682 
 6990000   0.45252037   -3.0400515   -1.5906174  0.035819935   -3.0400515    1.4494341   205615 
 6991000   0.45260523   -3.0395133   -1.5895253  0.036074181   -3.0395133     1.449988   205575 
 6992000   0.45194365   -3.0389179   -1.5904435   0.03543034   -3.0389179    1.4484744   205489 
 6993000   0.45200668   -3.0385988   -1.5898095  0.036860747   -3.0385988    1.4487893   205473 
 6994000    0.4522185   -3.0374678   -1.5872868  0.035280299   -3.0374678     1.450181   205372 
 6995000   0.45160421   -3.0374471   -1.5889609  0.032384371   -3.0374471    1.4484862   205333 
 6996000   0.45170021   -3.0368424   -1.5877731  0.035094804   -3.0368424    1.4490693   205294 
 6997000   0.45094125   -3.0316762   -1.5849853  0.036075635   -3.0316762    1.4466909   205286 
 6998000   0.45095775   -3.0295884   -1.5827318  0.032957599   -3.0295884    1.4468566   205270 
 6999000   0.44976749    -3.026518   -1.5831145  0.033168191    -3.026518    1.4434035   205218 
 7000000   0.45080826   -3.0279003   -1.5806067  0.032579643   -3.0279003    1.4472936   205140 
 7001000   0.45141259   -3.0284471   -1.5788388  0.036480577   -3.0284471    1.4496083   205087 
 7002000   0.45122942   -3.0239197   -1.5746876   0.03503558   -3.0239197    1.4492321   205057 
 7003000   0.45091195   -3.0238941   -1.5753426  0.035674892   -3.0238941    1.4485515   205009 
 7004000   0.45072345   -3.0247726   -1.5763745   0.03443226   -3.0247726    1.4483981   204945 
 7005000   0.45078347    -3.022094   -1.5733758  0.038225507    -3.022094    1.4487182   204927 
 7006000   0.45090185   -3.0199189   -1.5702189  0.037098925   -3.0199189       1.4497   204842 
 7007000   0.45052402   -3.0210805   -1.5720506  0.036852952   -3.0210805    1.4490299   204765 
 7008000   0.45048222   -3.0223152   -1.5727259  0.035830182   -3.0223152    1.4495893   204667 
 7009000   0.45085013    -3.023953   -1.5727828  0.034052874    -3.023953    1.4511702   204611 
 7010000   0.44973621    -3.019508   -1.5714136  0.036852336    -3.019508    1.4480943   204539 
 7011000   0.44990588   -3.0222391   -1.5728898  0.036613158   -3.0222391    1.4493493   204439 
 7012000   0.44911212   -3.0214294   -1.5742337  0.036981092   -3.0214294    1.4471957   204382 
 7013000   0.44972821   -3.0223342   -1.5726709  0.036845397   -3.0223342    1.4496633   204314 
 7014000   0.44964125   -3.0233912    -1.573405  0.033545485   -3.0233912    1.4499862   204229 
 7015000   0.44996394   -3.0242329   -1.5727584  0.032418237   -3.0242329    1.4514745   204166 
 7016000   0.44927647   -3.0220181   -1.5725269  0.032003654   -3.0220181    1.4494912   204133 
 7017000   0.45042799   -3.0201152   -1.5664744  0.038290578   -3.0201152    1.4536407   204072 
 7018000   0.45014803   -3.0201246   -1.5666181  0.037802777   -3.0201246    1.4535065   203964 
 7019000   0.44889074   -3.0181083      -1.5681   0.03941239   -3.0181083    1.4500084   203885 
 7020000   0.44936014   -3.0189861   -1.5668419  0.037782737   -3.0189861    1.4521443   203798 
 7021000   0.44774763   -3.0147041   -1.5669965  0.037760236   -3.0147041    1.4477076   203689 
 7022000    0.4479705   -3.0178873   -1.5689114  0.034920852   -3.0178873    1.4489759   203612 
 7023000   0.44714146   -3.0160842   -1.5694488  0.038100476   -3.0160842    1.4466354   203564 
 7024000    0.4463714   -3.0134683   -1.5688275  0.035233776   -3.0134683    1.4446408   203494 
 7025000   0.44740587   -3.0134178   -1.5652084  0.037387991   -3.0134178    1.4482094   203463 
 7026000   0.44841197   -3.0161353   -1.5642911  0.037774373   -3.0161353    1.4518442   203410 
 7027000   0.44788302   -3.0164437   -1.5655988  0.035733364   -3.0164437    1.4508449   203310 
 7028000   0.44702836   -3.0147946   -1.5661838   0.03284637   -3.0147946    1.4486108   203235 
 7029000   0.44525084   -3.0126439   -1.5692535  0.032463034   -3.0126439    1.4433904   203159 
 7030000   0.44570628   -3.0147806   -1.5696292  0.036571963   -3.0147806    1.4451514   203119 
 7031000   0.44652196   -3.0134292   -1.5651625   0.03571971   -3.0134292    1.4482667   203053 
 7032000   0.44674339   -3.0137424   -1.5643578  0.034807385   -3.0137424    1.4493846   202997 
 7033000   0.44529992   -3.0099915   -1.5649127  0.037225399   -3.0099915    1.4450788   202944 
 7034000   0.44594825    -3.013424    -1.565592  0.033391291    -3.013424     1.447832   202853 
 7035000   0.44614198   -3.0124439   -1.5634044  0.039422882   -3.0124439    1.4490395   202772 
 7036000   0.44631772   -3.0140769    -1.564109   0.03339457   -3.0140769    1.4499679   202722 
 7037000   0.44514713   -3.0140478   -1.5671263   0.03818513   -3.0140478    1.4469215   202616 
 7038000   0.44515668   -3.0151682   -1.5678157   0.03443189   -3.0151682    1.4473526   202560 
 7039000   0.44447047   -3.0109197   -1.5654129  0.037168393   -3.0109197    1.4455068   202506 
 7040000   0.44416315   -3.0092222   -1.5643439  0.036693717   -3.0092222    1.4448784   202454 
 7041000   0.44643963   -3.0159793   -1.5630926  0.036066642   -3.0159793    1.4528867   202370 
 7042000   0.44655938   -3.0168834   -1.5629604  0.040554437   -3.0168834     1.453923   202280 
 7043000   0.44674182   -3.0172562   -1.5624084  0.036583816   -3.0172562    1.4548478   202234 
 7044000   0.44508629    -3.012146   -1.5623167  0.035056272    -3.012146    1.4498293   202182 
 7045000   0.44329659   -3.0097831   -1.5650262  0.037422179   -3.0097831    1.4447569   202076 
 7046000   0.44383092   -3.0091572   -1.5622292  0.033995094   -3.0091572     1.446928   202016 
 7047000   0.44204954   -3.0059642   -1.5642371  0.034423276   -3.0059642    1.4417271   201931 
 7048000   0.44320132   -3.0063683   -1.5603046  0.035253475   -3.0063683    1.4460637   201850 
 7049000   0.44234188    -3.008639   -1.5648859  0.034891627    -3.008639    1.4437531   201781 
 7050000   0.44382325   -3.0101198   -1.5612373  0.037722141   -3.0101198    1.4488825   201740 
 7051000   0.44359088   -3.0096309   -1.5607457   0.03483928   -3.0096309    1.4488852   201634 
 7052000   0.44274141   -3.0082677   -1.5615974  0.036371027   -3.0082677    1.4466702   201556 
 7053000   0.44327535   -3.0115545   -1.5625574  0.034455686   -3.0115545    1.4489972   201475 
 7054000   0.44384938    -3.012114   -1.5607289  0.037230433    -3.012114    1.4513851   201404 
 7055000   0.44235719   -3.0073338   -1.5605767  0.038402543   -3.0073338    1.4467571   201369 
 7056000   0.44285712    -3.011207   -1.5622465   0.03441368    -3.011207    1.4489605   201290 
 7057000   0.44191842   -3.0065225   -1.5601158  0.035150991   -3.0065225    1.4464066   201218 
 7058000   0.44239318   -3.0115731   -1.5631159  0.034733954   -3.0115731    1.4484572   201149 
 7059000   0.44211426    -3.011387   -1.5632238   0.03583552    -3.011387    1.4481632   201063 
 7060000    0.4428712   -3.0124507   -1.5612596  0.037708704   -3.0124507    1.4511911   200987 
 7061000   0.44209934   -3.0100373   -1.5610293  0.036582634   -3.0100373    1.4490079   200939 
 7062000   0.44114314   -3.0079946   -1.5613144  0.034631712   -3.0079946    1.4466803   200827 
 7063000   0.44163494    -3.011617   -1.5629127  0.035842235    -3.011617    1.4487043   200770 
 7064000   0.44138878   -3.0106386   -1.5622079  0.033702171   -3.0106386    1.4484307   200696 
 7065000   0.44103117   -3.0094526   -1.5615317  0.037454581   -3.0094526    1.4479209   200604 
 7066000   0.44083379   -3.0120355   -1.5641419  0.037680991   -3.0120355    1.4478936   200518 
 7067000   0.43970364   -3.0059531   -1.5613896  0.038227696   -3.0059531    1.4445635   200465 
 7068000   0.44054251   -3.0111652   -1.5634124  0.033976936   -3.0111652    1.4477527   200405 
 7069000   0.44151174   -3.0136015   -1.5620479  0.034706584   -3.0136015    1.4515536   200320 
 7070000   0.43963165   -3.0077241   -1.5619619  0.037767219   -3.0077241    1.4457622   200266 
 7071000    0.4398728   -3.0081337   -1.5608486  0.036381865   -3.0081337    1.4472851   200165 
 7072000   0.44056304   -3.0111213   -1.5610508  0.035373872   -3.0111213    1.4500705   200094 
 7073000   0.44007749   -3.0091813   -1.5601948  0.032773802   -3.0091813    1.4489865   200023 
 7074000   0.43953614   -3.0086376   -1.5611513  0.034436738   -3.0086376    1.4474863   199984 
 7075000   0.43937595    -3.007499    -1.560019  0.034819225    -3.007499    1.4474799   199912 
 7076000   0.43853843   -3.0062452   -1.5611919  0.033569318   -3.0062452    1.4450533   199866 
 7077000   0.43964505   -3.0057554   -1.5568527  0.037027492   -3.0057554    1.4489028   199838 
 7078000   0.43984315   -3.0034972   -1.5536514  0.036199638   -3.0034972    1.4498459   199798 
 7079000   0.43943787   -3.0037868   -1.5549143  0.038267835   -3.0037868    1.4488725   199748 
 7080000   0.44139642   -3.0099155   -1.5540242  0.034589205   -3.0099155    1.4558913   199671 
 7081000   0.44021595   -3.0036679   -1.5511391  0.033919675   -3.0036679    1.4525287   199598 
 7082000   0.43863418   -2.9998605   -1.5519344  0.035663042   -2.9998605    1.4479261   199513 
 7083000   0.43848747   -3.0005606   -1.5527994  0.035263635   -3.0005606    1.4477611   199469 
 7084000   0.43954459   -3.0007911   -1.5490011  0.034730573   -3.0007911      1.45179   199395 
 7085000   0.43728602   -2.9933987   -1.5484888  0.034151167   -2.9933987    1.4449098   199315 
 7086000   0.43858575    -2.996439   -1.5469291  0.036237061    -2.996439    1.4495099   199273 
 7087000   0.43818718    -2.995951   -1.5471331  0.036082116    -2.995951    1.4488179   199187 
 7088000    0.4378711   -2.9938228   -1.5454246  0.034913716   -2.9938228    1.4483982   199101 
 7089000   0.43763062   -2.9953035   -1.5473663   0.03363225   -2.9953035    1.4479372   199055 
 7090000    0.4377061   -2.9930965   -1.5444729  0.033971896   -2.9930965    1.4486236   198995 
 7091000    0.4379864   -2.9932972   -1.5436512  0.036473144   -2.9932972     1.449646   198982 
 7092000    0.4376234   -2.9915912   -1.5429937   0.03588502   -2.9915912    1.4485974   198961 
 7093000   0.43851795    -2.991934   -1.5399303  0.038008771    -2.991934    1.4520037   198900 
 7094000   0.43866427   -2.9945846   -1.5416435    0.0354562   -2.9945846    1.4529411   198838 
 7095000   0.43715127   -2.9924372   -1.5439976  0.037575519   -2.9924372    1.4484397   198768 
 7096000    0.4375678   -2.9930969   -1.5429707  0.038374297   -2.9930969    1.4501262   198726 
 7097000   0.43688625   -2.9918301   -1.5433649  0.035205708   -2.9918301    1.4484652   198644 
 7098000   0.43814895    -2.996187   -1.5429575  0.034848116    -2.996187    1.4532295   198565 
 7099000   0.43687749   -2.9915531   -1.5420151  0.039395413   -2.9915531     1.449538   198493 
 7100000   0.43757048   -2.9937722   -1.5414446  0.033490865   -2.9937722    1.4523275   198426 
 7101000   0.43748041   -2.9909941    -1.538519  0.033606367   -2.9909941    1.4524751   198365 
 7102000   0.43528745   -2.9889412   -1.5430034  0.035502344   -2.9889412    1.4459378   198263 
 7103000   0.43525854   -2.9876095    -1.541206  0.035244828   -2.9876095    1.4464035   198186 
 7104000   0.43758066   -2.9917859   -1.5370493  0.031600056   -2.9917859    1.4547367   198102 
 7105000   0.43616448   -2.9860494    -1.535435   0.03546634   -2.9860494    1.4506144   198022 
 7106000   0.43588296   -2.9849079   -1.5347025  0.040240485   -2.9849079    1.4502054   197950 
 7107000   0.43686793   -2.9877688   -1.5335738  0.035822382   -2.9877688     1.454195   197853 
 7108000   0.43493368    -2.984874   -1.5364659  0.036650839    -2.984874    1.4484081   197764 
 7109000   0.43577035   -2.9865932   -1.5346059  0.034432376   -2.9865932    1.4519873   197656 
 7110000   0.43563706   -2.9853494   -1.5332185  0.031374082   -2.9853494    1.4521309   197576 
 7111000   0.43474057   -2.9817021   -1.5322221  0.035993659   -2.9817021      1.44948   197530 
 7112000   0.43409749   -2.9801751   -1.5325313  0.031888885   -2.9801751    1.4476437   197488 
 7113000   0.43456343   -2.9810185   -1.5314906  0.035062394   -2.9810185    1.4495279   197443 
 7114000   0.43457337   -2.9800505   -1.5300195  0.032502434   -2.9800505     1.450031   197379 
 7115000   0.43545968   -2.9802527   -1.5267415  0.031365911   -2.9802527    1.4535112   197308 
 7116000   0.43530793    -2.982097   -1.5283776  0.034898307    -2.982097    1.4537194   197211 
 7117000   0.43377182   -2.9758738   -1.5272549  0.034300837   -2.9758738    1.4486189   197207 
 7118000   0.43477142   -2.9746229   -1.5221134  0.036275442   -2.9746229    1.4525095   197132 
 7119000   0.43415753   -2.9732944   -1.5222985  0.034689486   -2.9732944    1.4509959   197059 
 7120000   0.43336705   -2.9726287   -1.5236202   0.03442741   -2.9726287    1.4490085   196970 
 7121000   0.43318599   -2.9724591   -1.5236515  0.035489312   -2.9724591    1.4488077   196915 
 7122000   0.43324266   -2.9740945   -1.5247293  0.034772863   -2.9740945    1.4493652   196865 
 7123000   0.43349875     -2.97417    -1.523152  0.030413652     -2.97417     1.451018   196757 
 7124000   0.43399922   -2.9760733   -1.5230552  0.035664562   -2.9760733    1.4530181   196713 
 7125000   0.43337697   -2.9752267   -1.5238713  0.033173252   -2.9752267    1.4513553   196656 
 7126000   0.43213696   -2.9721529   -1.5242803  0.037781585   -2.9721529    1.4478726   196565 
 7127000   0.43300731    -2.974371   -1.5230212  0.039726265    -2.974371    1.4513499   196489 
 7128000   0.43182957   -2.9731955   -1.5252552  0.035501104   -2.9731955    1.4479403   196416 
 7129000   0.43310422   -2.9780531   -1.5255208  0.035819855   -2.9780531    1.4525322   196373 
 7130000   0.43220977    -2.975419   -1.5252737  0.036979505    -2.975419    1.4501454   196290 
 7131000   0.43279047   -2.9791505   -1.5263907  0.034719647   -2.9791505    1.4527598   196200 
 7132000   0.43253642   -2.9767244   -1.5240622  0.035333808   -2.9767244    1.4526623   196098 
 7133000   0.43116019   -2.9755436   -1.5269124   0.03359117   -2.9755436    1.4486312   196018 
 7134000   0.43028794   -2.9718671   -1.5256058  0.035611183   -2.9718671    1.4462613   195942 
 7135000   0.43218994   -2.9764234     -1.52325  0.037095666   -2.9764234    1.4531734   195872 
 7136000   0.43140339   -2.9743561   -1.5235163  0.039053215   -2.9743561    1.4508398   195830 
 7137000   0.43165217    -2.974438   -1.5225762  0.035953352    -2.974438    1.4518618   195805 
 7138000   0.43210432    -2.976195   -1.5225006  0.036815437    -2.976195    1.4536944   195763 
 7139000   0.43195301   -2.9769129   -1.5231112  0.035688937   -2.9769129    1.4538018   195680 
 7140000   0.43235507   -2.9774544   -1.5214736  0.036798714   -2.9774544    1.4559809   195569 
 7141000   0.42958299   -2.9737339   -1.5264369  0.033964857   -2.9737339     1.447297   195481 
 7142000   0.43016684   -2.9722594   -1.5223723  0.035906412   -2.9722594    1.4498871   195397 
 7143000   0.42956592   -2.9712635   -1.5229349  0.037372189   -2.9712635    1.4483286   195334 
 7144000    0.4302327   -2.9720836   -1.5211355  0.034923423   -2.9720836    1.4509481   195284 
 7145000   0.42918032   -2.9702997     -1.52253  0.032962192   -2.9702997    1.4477697   195234 
 7146000   0.42905777   -2.9713222   -1.5236026  0.034540577   -2.9713222    1.4477196   195185 
 7147000   0.42879874   -2.9672533   -1.5199183  0.036498838   -2.9672533     1.447335   195119 
 7148000   0.42984582   -2.9686414   -1.5175044  0.036788943   -2.9686414     1.451137   195083 
 7149000   0.43041536   -2.9695085   -1.5161657  0.039275484   -2.9695085    1.4533428   195045 
 7150000   0.42961549   -2.9678311   -1.5164897  0.035974164   -2.9678311    1.4513415   194951 
 7151000   0.42945053   -2.9690638   -1.5176989  0.036352498   -2.9690638    1.4513648   194873 
 7152000    0.4290129   -2.9656557   -1.5154276   0.03942107   -2.9656557    1.4502282   194827 
 7153000   0.42918474   -2.9669553   -1.5155726  0.039857153   -2.9669553    1.4513827   194750 
 7154000   0.43105275   -2.9712793   -1.5129356  0.038485451   -2.9712793    1.4583438   194664 
 7155000    0.4288836   -2.9667866    -1.515185  0.038733061   -2.9667866    1.4516016   194584 
 7156000   0.42847397    -2.966307   -1.5157862  0.037703826    -2.966307    1.4505208   194543 
 7157000   0.42894123   -2.9675652   -1.5150668  0.034132634   -2.9675652    1.4524984   194490 
 7158000   0.42766582   -2.9610075   -1.5124705  0.035701802   -2.9610075     1.448537   194442 
 7159000   0.42859948   -2.9644583   -1.5121614  0.037707498   -2.9644583    1.4522969   194362 
 7160000   0.42746539   -2.9609991   -1.5122842  0.037436642   -2.9609991    1.4487149   194327 
 7161000   0.42834404   -2.9634851   -1.5113813   0.03302964   -2.9634851    1.4521038   194272 
 7162000   0.42791621   -2.9600192   -1.5091492  0.036139219   -2.9600192      1.45087   194243 
 7163000   0.42744713   -2.9594547   -1.5097348  0.034147778   -2.9594547    1.4497199   194184 
 7164000   0.42783302   -2.9619857   -1.5104637  0.035165099   -2.9619857     1.451522   194118 
 7165000   0.42733239   -2.9612184   -1.5110363  0.035085907   -2.9612184    1.4501821   194070 
 7166000   0.42629422   -2.9556772    -1.508638  0.039069504   -2.9556772    1.4470393   194019 
 7167000   0.42916178   -2.9595048   -1.5024313  0.035734836   -2.9595048    1.4570735   193979 
 7168000   0.42869517   -2.9566687   -1.5009093  0.035793325   -2.9566687    1.4557594   193943 
 7169000    0.4288084   -2.9577102   -1.5012133  0.038873105   -2.9577102    1.4564969   193896 
 7170000   0.42856964   -2.9633105   -1.5068584  0.034600637   -2.9633105    1.4564521   193794 
 7171000   0.42646526   -2.9545495   -1.5047701  0.040088135   -2.9545495    1.4497794   193730 
 7172000   0.42539663   -2.9535256   -1.5067219  0.035876619   -2.9535256    1.4468037   193642 
 7173000   0.42585273   -2.9574799   -1.5081145  0.036163652   -2.9574799    1.4493654   193507 
 7174000    0.4259135   -2.9584245   -1.5085076   0.03220326   -2.9584245    1.4499169   193461 
 7175000   0.42687509   -2.9613538   -1.5076825  0.036787408   -2.9613538    1.4536713   193397 
 7176000   0.42619335   -2.9595171   -1.5076494  0.031944006   -2.9595171    1.4518677   193328 
 7177000   0.42557093   -2.9571267   -1.5067266  0.034459514   -2.9571267    1.4504001   193241 
 7178000   0.42588735   -2.9586888   -1.5067069  0.030502139   -2.9586888    1.4519819   193174 
 7179000   0.42576663   -2.9552896   -1.5030578  0.039965866   -2.9552896    1.4522319   193086 
 7180000   0.42694623   -2.9608096   -1.5039507  0.036133928   -2.9608096     1.456859   193006 
 7181000   0.42507959   -2.9562487   -1.5050375  0.037796047   -2.9562487    1.4512113   192910 
 7182000   0.42538406   -2.9563795   -1.5037221  0.034774182   -2.9563795    1.4526574   192856 
 7183000   0.42440321   -2.9547896   -1.5049931  0.036754949   -2.9547896    1.4497965   192791 
 7184000   0.42466567   -2.9569315   -1.5057793  0.037938912   -2.9569315    1.4511522   192730 
 7185000   0.42417995   -2.9569735    -1.506352   0.03698886   -2.9569735    1.4506214   192580 
 7186000   0.42375648   -2.9541136   -1.5044134  0.034526194   -2.9541136    1.4497002   192510 
 7187000   0.42471781   -2.9575553   -1.5040076  0.036512379   -2.9575553    1.4535477   192436 
 7188000   0.42437569   -2.9542318   -1.5012509  0.035264809   -2.9542318    1.4529809   192356 
 7189000   0.42344957   -2.9526591   -1.5026607  0.037255519   -2.9526591    1.4499985   192331 
 7190000   0.42455022   -2.9570087    -1.502818   0.03376756   -2.9570087    1.4541908   192275 
 7191000    0.4241474   -2.9517714   -1.4985976   0.03208068   -2.9517714    1.4531738   192227 
 7192000   0.42422348   -2.9485027   -1.4944328  0.037352518   -2.9485027    1.4540699   192143 
 7193000   0.42488114    -2.950355   -1.4937808  0.034640861    -2.950355    1.4565742   192110 
 7194000   0.42390277   -2.9470885   -1.4932403  0.035263519   -2.9470885    1.4538483   192027 
 7195000   0.42388467   -2.9460232   -1.4917296  0.035669628   -2.9460232    1.4542936   191960 
 7196000   0.42361412   -2.9454106   -1.4917574  0.037632076   -2.9454106    1.4536532   191922 
 7197000   0.42303422   -2.9442166    -1.491842  0.036297141   -2.9442166    1.4523746   191828 
 7198000   0.42277089   -2.9482496   -1.4962795   0.03549383   -2.9482496    1.4519701   191762 
 7199000   0.42273049   -2.9470434   -1.4947577  0.035516435   -2.9470434    1.4522857   191702 
 7200000   0.42197702   -2.9423597   -1.4924053  0.037533595   -2.9423597    1.4499543   191668 
 7201000   0.42200749   -2.9453521   -1.4948769  0.036353635   -2.9453521    1.4504752   191613 
 7202000    0.4217462   -2.9435668    -1.493422  0.037004797   -2.9435668    1.4501448   191538 
 7203000   0.42162028    -2.944242    -1.493879  0.037901088    -2.944242     1.450363   191452 
 7204000   0.42242012   -2.9478137    -1.494107  0.037451368   -2.9478137    1.4537067   191374 
 7205000   0.42221244   -2.9489714   -1.4958579  0.033620958   -2.9489714    1.4531135   191358 
 7206000   0.42124342   -2.9466611   -1.4964279  0.036859526   -2.9466611    1.4502332   191298 
 7207000   0.42083075   -2.9427828   -1.4932126  0.037239849   -2.9427828    1.4495702   191198 
 7208000   0.42211449    -2.947323   -1.4927908  0.032983293    -2.947323    1.4545322   191127 
 7209000   0.42149446   -2.9459849   -1.4928973  0.032380954   -2.9459849    1.4530876   191036 
 7210000   0.42017745   -2.9420321   -1.4930829  0.036387621   -2.9420321    1.4489492   190983 
 7211000   0.41998422   -2.9419387   -1.4928591  0.036802408   -2.9419387    1.4490796   190878 
 7212000   0.41985538    -2.943461   -1.4941199  0.033456814    -2.943461    1.4493412   190785 
 7213000   0.42018724    -2.943042   -1.4922815  0.034099712    -2.943042    1.4507605   190749 
 7214000   0.41935523   -2.9421901    -1.493991  0.033749129   -2.9421901    1.4481991   190708 
 7215000   0.42085863   -2.9435486   -1.4895248   0.03309904   -2.9435486    1.4540238   190625 
 7216000   0.42048143   -2.9407653   -1.4874195  0.034474006   -2.9407653    1.4533458   190543 
 7217000   0.41984308    -2.943098   -1.4911432  0.036689124    -2.943098    1.4519548   190436 
 7218000   0.41997001   -2.9436298   -1.4905646  0.033699385   -2.9436298    1.4530652   190348 
 7219000   0.41926203   -2.9405787   -1.4893989  0.036937122   -2.9405787    1.4511798   190274 
 7220000   0.41970726   -2.9425006   -1.4894208  0.033893083   -2.9425006    1.4530798   190227 
 7221000   0.41927082   -2.9429071   -1.4906971  0.034866257   -2.9429071      1.45221   190143 
 7222000   0.41882123   -2.9403674   -1.4892567  0.035133843   -2.9403674    1.4511107   190083 
 7223000   0.41824787   -2.9377087   -1.4878904   0.03661548   -2.9377087    1.4498182   189992 
 7224000    0.4193518   -2.9390221   -1.4848721  0.032227211   -2.9390221      1.45415   189926 
 7225000   0.41989449   -2.9380759   -1.4816222  0.036780421   -2.9380759    1.4564537   189871 
 7226000   0.41967722   -2.9379995   -1.4814556  0.037455005   -2.9379995    1.4565439   189761 
 7227000   0.41828638   -2.9360617   -1.4834187  0.034284798   -2.9360617     1.452643   189640 
 7228000   0.41869146   -2.9401795   -1.4857078  0.036609599   -2.9401795    1.4544717   189585 
 7229000   0.41725896   -2.9361665   -1.4857607  0.036153015   -2.9361665    1.4504058   189466 
 7230000    0.4178202   -2.9366222   -1.4839205   0.03429775   -2.9366222    1.4527017   189421 
 7231000   0.41809387   -2.9366411   -1.4825349  0.037068162   -2.9366411    1.4541061   189362 
 7232000   0.41718062   -2.9329933   -1.4814655  0.036832816   -2.9329933    1.4515278   189284 
 7233000   0.41791983   -2.9339293   -1.4795299   0.03225546   -2.9339293    1.4543994   189245 
 7234000   0.41784385   -2.9302409   -1.4755985  0.036338783   -2.9302409    1.4546423   189179 
 7235000   0.41809232   -2.9281459   -1.4718842  0.034947219   -2.9281459    1.4562617   189081 
 7236000   0.41829786   -2.9295257   -1.4721781  0.034890806   -2.9295257    1.4573476   189033 
 7237000   0.41735285    -2.927076   -1.4723359  0.037931806    -2.927076    1.4547401   188944 
 7238000   0.41657845   -2.9248088   -1.4723528  0.033658844   -2.9248088    1.4524559   188890 
 7239000   0.41669408   -2.9251846   -1.4716791  0.033369929   -2.9251846    1.4535055   188806 
 7240000   0.41687231   -2.9255621   -1.4705024   0.03824638   -2.9255621    1.4550597   188685 
 7241000   0.41676223   -2.9249445   -1.4696289  0.036312895   -2.9249445    1.4553156   188602 
 7242000   0.41666338   -2.9217729   -1.4664783  0.035001884   -2.9217729    1.4552945   188560 
 7243000    0.4153937   -2.9228953   -1.4712964  0.036215351   -2.9228953    1.4515989   188464 
 7244000   0.41494513   -2.9247496     -1.47391   0.03400474   -2.9247496    1.4508397   188359 
 7245000   0.41536687   -2.9259512   -1.4729349  0.033584014   -2.9259512    1.4530163   188268 
 7246000   0.41628719   -2.9281429   -1.4713733  0.034939711   -2.9281429    1.4567696   188199 
 7247000   0.41526856   -2.9269093   -1.4729549  0.038219378   -2.9269093    1.4539544   188102 
 7248000   0.41459075   -2.9226899   -1.4705992   0.03792397   -2.9226899    1.4520907   188036 
 7249000   0.41361543   -2.9231496     -1.47392   0.03661434   -2.9231496    1.4492296   187964 
 7250000   0.41488736   -2.9257239   -1.4712794  0.033278178   -2.9257239    1.4544445   187866 
 7251000   0.41572661    -2.931292   -1.4732302  0.033970286    -2.931292    1.4580618   187779 
 7252000   0.41462335   -2.9254713   -1.4704498  0.034865108   -2.9254713    1.4550215   187672 
 7253000   0.41516832   -2.9243691   -1.4665263  0.037890439   -2.9243691    1.4578428   187555 
 7254000   0.41506964   -2.9249064   -1.4669359  0.036381531   -2.9249064    1.4579705   187494 
 7255000   0.41387269   -2.9204438   -1.4661503    0.0402698   -2.9204438    1.4542935   187426 
 7256000   0.41366662   -2.9207941   -1.4664565  0.036052109   -2.9207941    1.4543376   187327 
 7257000   0.41426337    -2.921302   -1.4643764  0.036746069    -2.921302    1.4569256   187264 
 7258000   0.41369822    -2.921294   -1.4663871  0.037001421    -2.921294    1.4549069   187268 
 7259000   0.41292368   -2.9171947     -1.46481  0.034764671   -2.9171947    1.4523846   187242 
 7260000   0.41294121   -2.9159048   -1.4629464  0.032320553   -2.9159048    1.4529584   187176 
 7261000   0.41346698   -2.9173624   -1.4617452  0.035247338   -2.9173624    1.4556172   187072 
 7262000   0.41399457   -2.9159323   -1.4579511  0.033562888   -2.9159323    1.4579812   187007 
 7263000   0.41400386   -2.9136855   -1.4553752    0.0377643   -2.9136855    1.4583102   186969 
 7264000   0.41288714   -2.9085319   -1.4535172   0.03793461   -2.9085319    1.4550147   186887 
 7265000   0.41250775   -2.9122219   -1.4576646  0.037862071   -2.9122219    1.4545573   186774 
 7266000   0.41172146   -2.9111069   -1.4585601   0.03458451   -2.9111069    1.4525468   186676 
 7267000   0.41247357   -2.9120463     -1.45623  0.033681114   -2.9120463    1.4558164   186597 
 7268000   0.41203611   -2.9109918    -1.456392  0.035588816   -2.9109918    1.4545998   186555 
 7269000   0.41101841   -2.9117663   -1.4602224  0.037222797   -2.9117663    1.4515439   186486 
 7270000   0.41199152   -2.9157185   -1.4602463   0.03561468   -2.9157185    1.4554722   186423 
 7271000   0.41215519    -2.916574   -1.4603049  0.034973656    -2.916574    1.4562692   186395 
 7272000   0.41137131   -2.9124701   -1.4584167  0.038590202   -2.9124701    1.4540533   186324 
 7273000   0.41016753    -2.911731   -1.4613643  0.036278811    -2.911731    1.4503666   186251 
 7274000   0.41084642   -2.9174067   -1.4636325  0.034289027   -2.9174067    1.4537741   186122 
 7275000   0.41038385   -2.9167026   -1.4636675  0.034221997   -2.9167026    1.4530351   186007 
 7276000   0.41066357   -2.9182262   -1.4635359  0.034904167   -2.9182262    1.4546903   185922 
 7277000   0.41047783   -2.9153348   -1.4609271  0.034183222   -2.9153348    1.4544078   185874 
 7278000   0.41048352   -2.9152532    -1.460058   0.03553799   -2.9152532    1.4551952   185776 
 7279000   0.41006829   -2.9139557   -1.4596845  0.034202383   -2.9139557    1.4542711   185706 
 7280000   0.40943327   -2.9119338   -1.4597661  0.034629958   -2.9119338    1.4521677   185687 
 7281000   0.40940843   -2.9097905   -1.4571477   0.03720509   -2.9097905    1.4526428   185615 
 7282000   0.40858383   -2.9050382   -1.4544616  0.039098152   -2.9050382    1.4505767   185505 
 7283000   0.40894992    -2.907345   -1.4544974  0.036621816    -2.907345    1.4528475   185381 
 7284000   0.40868491   -2.9093144   -1.4569305  0.036845918   -2.9093144     1.452384   185320 
 7285000   0.40980475   -2.9081145    -1.450996  0.037004558   -2.9081145    1.4571185   185224 
 7286000   0.40963701   -2.9073492   -1.4503001  0.034474397   -2.9073492    1.4570491   185157 
 7287000   0.40928405   -2.9054257    -1.449349  0.035640148   -2.9054257    1.4560767   185121 
 7288000    0.4101905   -2.9089414   -1.4489537  0.034698037   -2.9089414    1.4599877   185034 
 7289000   0.40849612   -2.9067182   -1.4518728  0.037046923   -2.9067182    1.4548454   184921 
 7290000   0.40831247   -2.9071869   -1.4520277   0.03893141   -2.9071869    1.4551592   184798 
 7291000    0.4076308   -2.9043144   -1.4512229  0.037340702   -2.9043144    1.4530915   184752 
 7292000   0.40808597   -2.9036868   -1.4483898  0.035966874   -2.9036868     1.455297   184678 
 7293000   0.40893841   -2.9067798   -1.4479214  0.036985615   -2.9067798    1.4588583   184612 
 7294000   0.40733541   -2.9015909   -1.4474587  0.033814189   -2.9015909    1.4541322   184486 
 7295000   0.40751071    -2.903947   -1.4484396  0.034057365    -2.903947    1.4555075   184391 
 7296000     0.406543   -2.9016037   -1.4490642  0.034932446   -2.9016037    1.4525395   184329 
 7297000   0.40729889   -2.9036514   -1.4477635  0.038748342   -2.9036514    1.4558879   184247 
 7298000   0.40629282   -2.9047547   -1.4513034  0.034820148   -2.9047547    1.4534513   184100 
 7299000   0.40715349   -2.9050918   -1.4482925  0.034972184   -2.9050918    1.4567993   184066 
 7300000   0.40668457   -2.9030774    -1.447782  0.035401193   -2.9030774    1.4552954   184044 
 7301000   0.40641458   -2.9026877    -1.447892  0.035437514   -2.9026877    1.4547957   183985 
 7302000    0.4065377   -2.8999513   -1.4443273  0.038885774   -2.8999513     1.455624   183936 
 7303000    0.4069097   -2.9010166   -1.4436168  0.039132938   -2.9010166    1.4573997   183880 
 7304000   0.40607861   -2.8994443   -1.4443486  0.037286556   -2.8994443    1.4550957   183795 
 7305000   0.40481367    -2.896932   -1.4458637  0.038566262    -2.896932    1.4510683   183731 
 7306000   0.40606698   -2.9021084   -1.4459769  0.039052975   -2.9021084    1.4561315   183659 
 7307000   0.40544801   -2.9015662     -1.44668  0.036509423   -2.9015662    1.4548863   183536 
 7308000   0.40415209   -2.8973693   -1.4460025   0.03692305   -2.8973693    1.4513669   183393 
 7309000   0.40464984   -2.8977566   -1.4439681  0.034397605   -2.8977566    1.4537885   183313 
 7310000   0.40602677   -2.9022508   -1.4426395  0.036407615   -2.9022508    1.4596113   183203 
 7311000   0.40546876   -2.8989337   -1.4408906  0.033126112   -2.8989337    1.4580431   183148 
 7312000    0.4030678   -2.8922698   -1.4422509  0.036778168   -2.8922698     1.450019   183071 
 7313000   0.40425137   -2.8936581   -1.4386819  0.037259538   -2.8936581    1.4549762   182983 
 7314000   0.40418993   -2.8951623     -1.43993  0.039534863   -2.8951623    1.4552322   182923 
 7315000   0.40450807     -2.89418   -1.4373484  0.036502716     -2.89418    1.4568316   182866 
 7316000   0.40518423   -2.8961545   -1.4364647  0.035623561   -2.8961545    1.4596899   182813 
 7317000   0.40411138   -2.8939192   -1.4376642  0.034573178   -2.8939192     1.456255   182759 
 7318000   0.40487541    -2.894912   -1.4349291  0.039325734    -2.894912    1.4599829   182637 
 7319000   0.40395576   -2.8945523   -1.4370637  0.035593588   -2.8945523    1.4574886   182534 
 7320000   0.40377305   -2.8951663   -1.4377141  0.035174711   -2.8951663    1.4574522   182456 
 7321000   0.40288848   -2.8924109   -1.4373541  0.036218233   -2.8924109    1.4550567   182356 
 7322000   0.40356267   -2.8921741   -1.4343548  0.038304123   -2.8921741    1.4578194   182315 
 7323000   0.40292678   -2.8891777   -1.4332721  0.036646649   -2.8891777    1.4559056   182267 
 7324000   0.40243814   -2.8833433   -1.4285169  0.039166266   -2.8833433    1.4548264   182181 
 7325000     0.402681   -2.8825032   -1.4265511  0.035752344   -2.8825032    1.4559521   182150 
 7326000    0.4019824   -2.8801735   -1.4263562  0.035262154   -2.8801735    1.4538173   182101 
 7327000   0.40194896   -2.8777232   -1.4234598   0.03464209   -2.8777232    1.4542634   182030 
 7328000   0.40143774   -2.8788119   -1.4258792  0.033920275   -2.8788119    1.4529326   181965 
 7329000   0.40181475   -2.8789017   -1.4239889  0.036329115   -2.8789017    1.4549128   181888 
 7330000   0.40012312   -2.8703712   -1.4208982  0.038869835   -2.8703712     1.449473   181802 
 7331000   0.40071123   -2.8744364   -1.4220021  0.038573174   -2.8744364    1.4524343   181698 
 7332000   0.40157301   -2.8765938   -1.4204588   0.03690805   -2.8765938     1.456135   181626 
 7333000   0.40205303   -2.8779476   -1.4194457  0.036945586   -2.8779476    1.4585019   181548 
 7334000   0.40150689    -2.876091   -1.4190486  0.038905985    -2.876091    1.4570424   181483 
 7335000   0.40197887   -2.8783254   -1.4191521  0.036832088   -2.8783254    1.4591733   181431 
 7336000   0.40059812   -2.8749322   -1.4201696  0.039810975   -2.8749322    1.4547626   181356 
 7337000   0.40079706    -2.877167   -1.4211682  0.034883265    -2.877167    1.4559988   181292 
 7338000   0.40039252    -2.874876   -1.4197769  0.037581035    -2.874876    1.4550991   181221 
 7339000     0.401087   -2.8769786   -1.4186395  0.035329489   -2.8769786    1.4583392   181132 
 7340000   0.40115965   -2.8779284   -1.4185435  0.038028925   -2.8779284    1.4593849   181035 
 7341000    0.4003098   -2.8762278   -1.4192666  0.038604473   -2.8762278    1.4569611   180952 
 7342000   0.39975081   -2.8743954   -1.4189861  0.036493076   -2.8743954    1.4554092   180892 
 7343000   0.39967661   -2.8745783   -1.4189806  0.035688722   -2.8745783    1.4555977   180835 
 7344000   0.39928312   -2.8741797   -1.4196611  0.036484562   -2.8741797    1.4545186   180791 
 7345000    0.3997917   -2.8767044   -1.4197771  0.038573723   -2.8767044    1.4569273   180722 
 7346000   0.39933331   -2.8732192   -1.4174226  0.040060026   -2.8732192    1.4557966   180655 
 7347000   0.39989321   -2.8761628   -1.4176066  0.035293456   -2.8761628    1.4585562   180566 
 7348000   0.39883557   -2.8698743   -1.4141195   0.03452934   -2.8698743    1.4557548   180435 
 7349000   0.39975238   -2.8734012   -1.4135395  0.035646329   -2.8734012    1.4598617   180341 
 7350000   0.40037454   -2.8725718   -1.4101461  0.038710513   -2.8725718    1.4624257   180305 
 7351000   0.39819634   -2.8664516   -1.4113607  0.036687927   -2.8664516    1.4550909   180228 
 7352000   0.39830474   -2.8703909   -1.4142818  0.038318472   -2.8703909    1.4561091   180151 
 7353000   0.39825041   -2.8704043   -1.4137984  0.035664579   -2.8704043    1.4566059   180065 
 7354000   0.39774563   -2.8682669   -1.4131113  0.036524241   -2.8682669    1.4551556   180016 
 7355000   0.39851155    -2.871262   -1.4124615   0.03679839    -2.871262    1.4588005   179912 
 7356000   0.39831916   -2.8697101   -1.4113139  0.036328556   -2.8697101    1.4583962   179875 
 7357000   0.39775704   -2.8687702   -1.4117841  0.038006653   -2.8687702    1.4569861   179795 
 7358000   0.39735874   -2.8693153   -1.4130593  0.035194129   -2.8693153     1.456256   179705 
 7359000   0.39837119   -2.8704263   -1.4100616  0.034427485   -2.8704263    1.4603647   179656 
 7360000   0.39806471   -2.8682551   -1.4082093   0.03709799   -2.8682551    1.4600458   179557 
 7361000   0.39732594    -2.866204   -1.4080071  0.033838215    -2.866204    1.4581969   179451 
 7362000   0.39790378   -2.8664267   -1.4057103  0.038250349   -2.8664267    1.4607164   179402 
 7363000   0.39880375   -2.8685967    -1.403809  0.038090654   -2.8685967    1.4647877   179308 
 7364000   0.39694993   -2.8576517   -1.3993151  0.040214165   -2.8576517    1.4583366   179264 
 7365000   0.39633722   -2.8579036   -1.4009158  0.037585131   -2.8579036    1.4569878   179153 
 7366000   0.39691841   -2.8563431   -1.3965425  0.037909965   -2.8563431    1.4598006   179070 
 7367000   0.39566223   -2.8587988   -1.4028214  0.033498484   -2.8587988    1.4559774   178972 
 7368000   0.39543046   -2.8565543   -1.4008441  0.034185537   -2.8565543    1.4557102   178900 
 7369000   0.39499316    -2.854835   -1.4001737  0.034125981    -2.854835    1.4546613   178831 
 7370000   0.39496812   -2.8540211   -1.3981738  0.038144065   -2.8540211    1.4558473   178674 
 7371000   0.39550902   -2.8540601    -1.395811  0.036658309   -2.8540601    1.4582491   178624 
 7372000   0.39433267   -2.8482231   -1.3936923  0.036781512   -2.8482231    1.4545307   178548 
 7373000   0.39486701   -2.8509166    -1.393713  0.036591687   -2.8509166    1.4572036   178462 
 7374000   0.39448307   -2.8513162   -1.3951542  0.037997962   -2.8513162     1.456162   178416 
 7375000   0.39468659   -2.8510249   -1.3936624  0.039699098   -2.8510249    1.4573625   178361 
 7376000   0.39481686   -2.8555382   -1.3970241  0.039248963   -2.8555382    1.4585141   178279 
 7377000   0.39381184   -2.8556426   -1.3999594  0.037268672   -2.8556426    1.4556833   178171 
 7378000   0.39477075   -2.8572079   -1.3973657  0.036452745   -2.8572079    1.4598422   178096 
 7379000   0.39388345   -2.8531324   -1.3964405  0.035064009   -2.8531324    1.4566919   178080 
 7380000    0.3935396   -2.8526537   -1.3971108  0.038265168   -2.8526537    1.4555429   178065 
 7381000   0.39445689   -2.8556225   -1.3958508  0.038027393   -2.8556225    1.4597718   177963 
 7382000   0.39410926    -2.857968    -1.398556   0.03696869    -2.857968     1.459412   177850 
 7383000    0.3924333   -2.8573296   -1.4029872   0.03506872   -2.8573296    1.4543424   177711 
 7384000   0.39285272   -2.8583429   -1.4014706  0.036202044   -2.8583429    1.4568723   177592 
 7385000   0.39133029   -2.8531209   -1.4010767  0.037520942   -2.8531209    1.4520441   177492 
 7386000   0.39201288   -2.8559922   -1.4009071  0.037397505   -2.8559922    1.4550852   177430 
 7387000   0.39241002   -2.8561189   -1.3990094  0.038345076   -2.8561189    1.4571095   177363 
 7388000   0.39227947   -2.8573681    -1.399716  0.033505172   -2.8573681    1.4576521   177238 
 7389000   0.39154264   -2.8552781   -1.3996412  0.035167818   -2.8552781    1.4556369   177150 
 7390000   0.39235492   -2.8540483   -1.3950869  0.035335212   -2.8540483    1.4589614   177113 
 7391000   0.39187788   -2.8539389   -1.3960517   0.03728815   -2.8539389    1.4578872   177028 
 7392000   0.39182448   -2.8557775   -1.3976359  0.038380405   -2.8557775    1.4581415   176973 
 7393000   0.39121572   -2.8538779   -1.3975327  0.036551766   -2.8538779    1.4563452   176916 
 7394000   0.38996806   -2.8479442   -1.3953815  0.040035217   -2.8479442    1.4525627   176811 
 7395000    0.3913529   -2.8520871    -1.393632  0.037033489   -2.8520871    1.4584551   176722 
 7396000   0.39159021   -2.8492009   -1.3892667  0.037425519   -2.8492009    1.4599343   176650 
 7397000   0.39110268   -2.8445046    -1.385562  0.038453739   -2.8445046    1.4589426   176550 
 7398000   0.39072121   -2.8428489   -1.3846108  0.035268351   -2.8428489    1.4582382   176463 
 7399000   0.38894392   -2.8377814   -1.3855674  0.033282427   -2.8377814     1.452214   176389 
 7400000    0.3890092   -2.8374217    -1.384206  0.035810883   -2.8374217    1.4532157   176297 
 7401000   0.38765994   -2.8301994   -1.3814242  0.036524882   -2.8301994    1.4487752   176224 
 7402000   0.38782058   -2.8301955   -1.3801781  0.035131841   -2.8301955    1.4500173   176146 
 7403000   0.38877491    -2.831134   -1.3773669  0.035615547    -2.831134    1.4537671   176124 
 7404000    0.3895592    -2.832865   -1.3756025    0.0364097    -2.832865    1.4572624   176056 
 7405000   0.38913152   -2.8304223   -1.3738993  0.037182658   -2.8304223    1.4565229   175952 
 7406000   0.38955503   -2.8340153   -1.3751278  0.037991086   -2.8340153    1.4588876   175858 
 7407000   0.38898529   -2.8341967   -1.3772357   0.03612216   -2.8341967     1.456961   175833 
 7408000     0.389432   -2.8351349   -1.3756375  0.036049299   -2.8351349    1.4594974   175729 
 7409000   0.38787635   -2.8320955   -1.3775592  0.035473694   -2.8320955    1.4545363   175624 
 7410000   0.38893158    -2.832335   -1.3733431  0.041132328    -2.832335    1.4589919   175564 
 7411000   0.38857949    -2.834988   -1.3765776  0.036347101    -2.834988    1.4584104   175475 
 7412000   0.38699487   -2.8315385    -1.378239  0.038064254   -2.8315385    1.4532995   175374 
 7413000   0.38708423   -2.8298656   -1.3755671  0.036259883   -2.8298656    1.4542985   175294 
 7414000   0.38706925   -2.8282896   -1.3731259  0.036145404   -2.8282896    1.4551637   175183 
 7415000   0.38569804   -2.8244265   -1.3736642  0.038342282   -2.8244265    1.4507623   175092 
 7416000   0.38523845   -2.8240467    -1.374359  0.041233799   -2.8240467    1.4496877   175013 
 7417000   0.38755148   -2.8295072   -1.3706236  0.033597261   -2.8295072    1.4588837   174954 
 7418000   0.38711233   -2.8272313   -1.3693759  0.034211189   -2.8272313    1.4578555   174879 
 7419000   0.38670992   -2.8263471    -1.369499  0.038169158   -2.8263471    1.4568482   174818 
 7420000   0.38704885   -2.8296242   -1.3706479  0.035199002   -2.8296242    1.4589763   174716 
 7421000    0.3868008   -2.8307447   -1.3719102  0.037269503   -2.8307447    1.4588345   174621 
 7422000   0.38520599   -2.8276991   -1.3744217  0.037005351   -2.8276991    1.4532773   174566 
 7423000   0.38495967   -2.8301197   -1.3771058  0.036903579   -2.8301197    1.4530139   174486 
 7424000   0.38399609   -2.8272357   -1.3769444  0.034187117   -2.8272357    1.4502913   174376 
 7425000   0.38470328   -2.8295633   -1.3760177  0.036438684   -2.8295633    1.4535457   174306 
 7426000   0.38453092     -2.82854   -1.3750201  0.034454983     -2.82854    1.4535198   174231 
 7427000   0.38338864   -2.8257086   -1.3757493  0.035318917   -2.8257086    1.4499594   174140 
 7428000   0.38412227   -2.8278447   -1.3746184  0.038117227   -2.8278447    1.4532263   174081 
 7429000    0.3848382   -2.8314281   -1.3749327  0.035469674   -2.8314281    1.4564954   174014 
 7430000   0.38516118   -2.8301629   -1.3717746  0.037805574   -2.8301629    1.4583882   173934 
 7431000   0.38490551   -2.8289969   -1.3708222  0.036902671   -2.8289969    1.4581747   173844 
 7432000    0.3842707   -2.8264338    -1.369734   0.04032102   -2.8264338    1.4566999   173733 
 7433000   0.38326291   -2.8257193   -1.3723211  0.032245861   -2.8257193    1.4533982   173671 
 7434000   0.38247075   -2.8214941   -1.3705568  0.033722984   -2.8214941    1.4509373   173606 
 7435000     0.383693   -2.8207829   -1.3645295  0.033620211   -2.8207829    1.4562534   173525 
 7436000   0.38180419   -2.8108657   -1.3608952  0.037640147   -2.8108657    1.4499704   173419 
 7437000    0.3819868   -2.8147423   -1.3635512  0.036204188   -2.8147423    1.4511911   173356 
 7438000   0.38219898   -2.8144014   -1.3616248  0.034340068   -2.8144014    1.4527766   173263 
 7439000   0.38121034   -2.8141619   -1.3646915  0.033886603   -2.8141619    1.4494704   173209 
 7440000   0.38273228   -2.8178695   -1.3620071  0.035946752   -2.8178695    1.4558624   173137 
 7441000   0.38330293    -2.818001   -1.3592518  0.038174448    -2.818001    1.4587492   173052 
 7442000   0.38299391   -2.8152038   -1.3568637  0.039026563   -2.8152038    1.4583401   172961 
 7443000   0.38224895   -2.8139151   -1.3575191  0.038073781   -2.8139151     1.456396   172855 
 7444000   0.38075901   -2.8112664   -1.3598334  0.036441426   -2.8112664     1.451433   172770 
 7445000   0.38170508    -2.816418    -1.360595  0.035749524    -2.816418     1.455823   172677 
 7446000   0.38262476   -2.8152082   -1.3554633  0.038239895   -2.8152082    1.4597449   172628 
 7447000   0.38216967   -2.8128178   -1.3544458  0.036647646   -2.8128178     1.458372   172585 
 7448000   0.38334807   -2.8142956   -1.3509096  0.037009556   -2.8142956     1.463386   172524 
 7449000   0.38196731    -2.810302   -1.3512313  0.033710094    -2.810302    1.4590708   172411 
 7450000   0.38114195   -2.8089351   -1.3525103  0.039224202   -2.8089351    1.4564248   172351 
 7451000   0.38063487   -2.8064957   -1.3512487  0.036098844   -2.8064957    1.4552471   172261 
 7452000   0.38125192   -2.8061698    -1.347844  0.036186375   -2.8061698    1.4583258   172176 
 7453000   0.38096655   -2.8042441   -1.3464426  0.037162014   -2.8042441    1.4578015   172109 
 7454000   0.38129951   -2.8065214   -1.3467164  0.037612221   -2.8065214    1.4598051   172023 
 7455000   0.38003542    -2.802321   -1.3464753  0.037312514    -2.802321    1.4558456   171919 
 7456000   0.38046251   -2.8044708   -1.3460559  0.036587415   -2.8044708    1.4584149   171809 
 7457000   0.38044843   -2.8070104   -1.3478086  0.037189767   -2.8070104    1.4592018   171710 
 7458000   0.37878827    -2.801849   -1.3479055  0.034907612    -2.801849    1.4539435   171579 
 7459000   0.37830886   -2.7996786   -1.3469572  0.037608186   -2.7996786    1.4527214   171506 
 7460000   0.37898203   -2.8009108   -1.3448403  0.036479675   -2.8009108    1.4560705   171416 
 7461000   0.37868065   -2.7984139   -1.3428984  0.035716997   -2.7984139    1.4555154   171345 
 7462000   0.37956757   -2.8005027    -1.340641  0.037133364   -2.8005027    1.4598616   171235 
 7463000   0.37922865   -2.8024171   -1.3431516  0.035889271   -2.8024171    1.4592654   171152 
 7464000   0.37842279   -2.7988339   -1.3421247  0.037365908   -2.7988339    1.4567092   171088 
 7465000   0.37822519   -2.8026121   -1.3457353  0.036369825   -2.8026121    1.4568767   170979 
 7466000   0.37869071   -2.8022774   -1.3429674  0.038412405   -2.8022774      1.45931   170904 
 7467000   0.37866269   -2.7982849   -1.3380576  0.038268319   -2.7982849    1.4602273   170784 
 7468000   0.37847889   -2.7971563   -1.3372531  0.039848371   -2.7971563    1.4599032   170739 
 7469000   0.37834026   -2.7966226   -1.3366727  0.034858429   -2.7966226    1.4599499   170671 
 7470000   0.37798322   -2.7977225   -1.3385947  0.034510158   -2.7977225    1.4591279   170606 
 7471000   0.37712358   -2.7950109   -1.3386637  0.034200847   -2.7950109    1.4563472   170543 
 7472000   0.37639779   -2.7904354   -1.3359529  0.035623428   -2.7904354    1.4544825   170433 
 7473000   0.37752795   -2.7958166   -1.3360676  0.038653031   -2.7958166     1.459749   170328 
 7474000    0.3777816   -2.7949762   -1.3336459  0.038635808   -2.7949762    1.4613303   170258 
 7475000    0.3762975   -2.7910949   -1.3345386  0.037001538   -2.7910949    1.4565563   170145 
 7476000   0.37769027   -2.7964467   -1.3337772  0.035937743   -2.7964467    1.4626695   170061 
 7477000   0.37687733   -2.7906905   -1.3303878  0.039367426   -2.7906905    1.4603027   169970 
 7478000   0.37677787    -2.788324   -1.3280029  0.038897112    -2.788324    1.4603211   169923 
 7479000   0.37705323   -2.7865082    -1.324001   0.03574315   -2.7865082    1.4625072   169793 
 7480000   0.37591512   -2.7858376   -1.3271349  0.039703028   -2.7858376    1.4587027   169722 
 7481000   0.37449434   -2.7842851   -1.3302132  0.035398784   -2.7842851    1.4540719   169619 
 7482000   0.37510784   -2.7824317   -1.3251272  0.036979365   -2.7824317    1.4573046   169520 
 7483000   0.37566122   -2.7820109    -1.322212  0.039027813   -2.7820109    1.4597989   169480 
 7484000   0.37593845   -2.7788914   -1.3172735  0.037247203   -2.7788914    1.4616179   169394 
 7485000   0.37501871   -2.7801437   -1.3209473  0.038823262   -2.7801437    1.4591963   169260 
 7486000   0.37491766   -2.7794312   -1.3201625  0.035334816   -2.7794312    1.4592687   169206 
 7487000   0.37455462   -2.7754613    -1.316916  0.035810192   -2.7754613    1.4585453   169126 
 7488000   0.37502816   -2.7755394   -1.3145195  0.038073216   -2.7755394    1.4610199   169053 
 7489000   0.37520266   -2.7768477   -1.3145166  0.037117303   -2.7768477    1.4623312   168980 
 7490000   0.37430056   -2.7725315   -1.3132586  0.036810706   -2.7725315     1.459273   168927 
 7491000   0.37393132   -2.7727691   -1.3143054   0.03771608   -2.7727691    1.4584637   168854 
 7492000   0.37334572     -2.77284   -1.3157888  0.037935614     -2.77284    1.4570512   168753 
 7493000    0.3738058   -2.7748293   -1.3150484  0.039175681   -2.7748293     1.459781   168645 
 7494000   0.37440847   -2.7768478   -1.3137937  0.040986922   -2.7768478    1.4630541   168539 
 7495000   0.37337052   -2.7742507   -1.3144557  0.037159815   -2.7742507     1.459795   168447 
 7496000   0.37343089   -2.7722856    -1.311743  0.034200944   -2.7722856    1.4605426   168388 
 7497000    0.3734754    -2.771232   -1.3101422  0.036955869    -2.771232    1.4610898   168345 
 7498000   0.37267496   -2.7688096   -1.3099847  0.036875104   -2.7688096    1.4588249   168245 
 7499000   0.37411031   -2.7731489   -1.3080522  0.039027827   -2.7731489    1.4650967   168170 
 7500000   0.37286024   -2.7709225   -1.3102871  0.037669044   -2.7709225    1.4606354   168120 
 7501000   0.37278294   -2.7732747   -1.3120382  0.038692627   -2.7732747    1.4612365   168016 
 7502000   0.37258844   -2.7722466   -1.3114682   0.03568564   -2.7722466    1.4607784   167981 
 7503000   0.37095537   -2.7677087   -1.3127786  0.039688364   -2.7677087    1.4549301   167917 
 7504000   0.37195886   -2.7700875   -1.3101696  0.037470518   -2.7700875    1.4599179   167796 
 7505000   0.37283157   -2.7726542   -1.3085955  0.037536942   -2.7726542    1.4640587   167714 
 7506000   0.37225795   -2.7709503   -1.3083243  0.037851187   -2.7709503     1.462626   167620 
 7507000   0.37158469   -2.7655597   -1.3049429  0.035353315   -2.7655597    1.4606168   167547 
 7508000    0.3707986    -2.764173   -1.3061153   0.03828531    -2.764173    1.4580577   167486 
 7509000   0.37113696   -2.7659312   -1.3056885  0.038056772   -2.7659312    1.4602426   167388 
 7510000   0.37162231    -2.765092    -1.302363  0.041520232    -2.765092     1.462729   167322 
 7511000   0.36989128   -2.7597817   -1.3036748  0.039128934   -2.7597817     1.456107   167300 
 7512000   0.37035659   -2.7597067   -1.3010967  0.037462891   -2.7597067      1.45861   167223 
 7513000    0.3706293   -2.7600632   -1.2995407  0.037548661   -2.7600632    1.4605226   167127 
 7514000    0.3705139   -2.7613859   -1.3008725   0.03612124   -2.7613859    1.4605135   167076 
 7515000   0.37033111   -2.7597516   -1.2988657  0.037835567   -2.7597516    1.4608859   166951 
 7516000   0.36954041   -2.7601195   -1.3016888  0.036443542   -2.7601195    1.4584307   166875 
 7517000   0.36977234   -2.7624187   -1.3023465  0.038295353   -2.7624187    1.4600722   166792 
 7518000   0.36831591   -2.7592573   -1.3042031  0.037920919   -2.7592573    1.4550542   166708 
 7519000   0.36884272   -2.7606897   -1.3030297  0.039395351   -2.7606897      1.45766   166648 
 7520000   0.36839778   -2.7579785   -1.3013252  0.037284473   -2.7579785    1.4566534   166562 
 7521000   0.36947259    -2.758535   -1.2969474  0.039835714    -2.758535    1.4615876   166484 
 7522000   0.36966699   -2.7602088   -1.2970788  0.037736348   -2.7602088      1.46313   166396 
 7523000   0.36903139   -2.7593008   -1.2978784  0.040392353   -2.7593008    1.4614224   166304 
 7524000   0.36847064   -2.7559466   -1.2962358  0.037416671   -2.7559466    1.4597108   166246 
 7525000   0.36816906   -2.7540886   -1.2949231  0.036286341   -2.7540886    1.4591656   166172 
 7526000   0.36875137   -2.7521873   -1.2901244  0.041053604   -2.7521873    1.4620629   166105 
 7527000   0.36920884   -2.7521729   -1.2876348  0.037611732   -2.7521729     1.464538   166030 
 7528000   0.36845276   -2.7527362   -1.2904399  0.037268553   -2.7527362    1.4622963   165944 
 7529000   0.36717232   -2.7482807   -1.2902929  0.039495591   -2.7482807    1.4579878   165856 
 7530000   0.36650818    -2.746992   -1.2904207  0.036632891    -2.746992    1.4565713   165717 
 7531000   0.36640416   -2.7452532   -1.2882601  0.037450393   -2.7452532    1.4569931   165622 
 7532000    0.3666623   -2.7429769   -1.2842967  0.038407354   -2.7429769    1.4586802   165547 
 7533000   0.36740783   -2.7433626   -1.2809745  0.038757089   -2.7433626    1.4623881   165463 
 7534000    0.3663015   -2.7401868   -1.2810822  0.035001129   -2.7401868    1.4591045   165336 
 7535000   0.36617796   -2.7413919   -1.2817024  0.039708061   -2.7413919    1.4596895   165214 
 7536000   0.36591155   -2.7371378   -1.2777418   0.03855065   -2.7371378     1.459396   165127 
 7537000   0.36623602   -2.7379174   -1.2767582  0.037321501   -2.7379174    1.4611591   165074 
 7538000   0.36577018   -2.7359578   -1.2757019  0.039537417   -2.7359578     1.460256   164966 
 7539000   0.36596933   -2.7365247   -1.2749953  0.037054713   -2.7365247    1.4615294   164912 
 7540000   0.36607819   -2.7359553   -1.2729443  0.038371907   -2.7359553     1.463011   164794 
 7541000   0.36512982   -2.7352956   -1.2755255  0.037485446   -2.7352956    1.4597701   164732 
 7542000   0.36590325   -2.7353253   -1.2714589  0.039552641   -2.7353253    1.4638664   164619 
 7543000    0.3649341   -2.7289723   -1.2682822  0.041140265   -2.7289723    1.4606901   164540 
 7544000   0.36320291   -2.7259931   -1.2715693  0.038839284   -2.7259931    1.4544238   164465 
 7545000    0.3642348   -2.7243774   -1.2653513  0.035394457   -2.7243774    1.4590261   164412 
 7546000   0.36355529   -2.7219615   -1.2648864  0.037769222   -2.7219615    1.4570752   164325 
 7547000   0.36406886   -2.7232175    -1.262991  0.037029169   -2.7232175    1.4602265   164202 
 7548000    0.3632372   -2.7222913   -1.2646637  0.037152079   -2.7222913    1.4576276   164119 
 7549000   0.36309744   -2.7195441   -1.2618733   0.03928595   -2.7195441    1.4576708   164051 
 7550000   0.36328637   -2.7212556   -1.2619368  0.038032734   -2.7212556    1.4593187   163951 
 7551000   0.36266954   -2.7170255   -1.2594644  0.038250367   -2.7170255    1.4575611   163870 
 7552000   0.36276646   -2.7123457   -1.2537097  0.039450215   -2.7123457     1.458636   163793 
 7553000   0.36266141   -2.7135533   -1.2544578   0.03802414   -2.7135533    1.4590955   163694 
 7554000   0.36367374    -2.718094   -1.2541386  0.040393253    -2.718094    1.4639554   163606 
 7555000   0.36326311   -2.7160914   -1.2529215  0.038277319   -2.7160914    1.4631699   163509 
 7556000    0.3627691   -2.7139058   -1.2523592  0.041200582   -2.7139058    1.4615466   163468 
 7557000    0.3625537   -2.7162591   -1.2544088  0.038135955   -2.7162591    1.4618503   163337 
 7558000   0.36181274   -2.7158088   -1.2557393  0.034906455   -2.7158088    1.4600694   163202 
 7559000   0.36113044   -2.7124582   -1.2545347  0.036431139   -2.7124582    1.4579235   163134 
 7560000   0.36125894   -2.7102819   -1.2510436  0.040592332   -2.7102819    1.4592384   163045 
 7561000   0.36122781   -2.7148987   -1.2549265  0.039872253   -2.7148987    1.4599723   162949 
 7562000   0.36110502   -2.7166347   -1.2556254  0.037490781   -2.7166347    1.4610092   162778 
 7563000   0.36021436   -2.7103538   -1.2522853  0.037213834   -2.7103538    1.4580685   162704 
 7564000   0.36034851   -2.7087244   -1.2493774  0.037304724   -2.7087244     1.459347   162622 
 7565000   0.36015397   -2.7040549   -1.2449754  0.038948017   -2.7040549    1.4590795   162564 
 7566000   0.36027687   -2.7066207   -1.2462617  0.036311294   -2.7066207     1.460359   162477 
 7567000   0.36028189   -2.7065375   -1.2450608  0.039316028   -2.7065375    1.4614767   162355 
 7568000   0.36127558   -2.7100369   -1.2437435  0.036489869   -2.7100369    1.4662933   162268 
 7569000   0.36077301   -2.7075424   -1.2423588  0.039847892   -2.7075424    1.4651836   162165 
 7570000   0.35940822   -2.7037184   -1.2431498  0.036719309   -2.7037184    1.4605686   162062 
 7571000   0.36033594   -2.7074778   -1.2418549  0.038156498   -2.7074778    1.4656228   161920 
 7572000   0.35862907   -2.7049747   -1.2454922  0.039441338   -2.7049747    1.4594825   161831 
 7573000   0.36011256   -2.7108578   -1.2446858  0.039746859   -2.7108578    1.4661721   161759 
 7574000   0.35958551   -2.7100941    -1.245416   0.03881755   -2.7100941    1.4646782   161687 
 7575000   0.35875664    -2.704154   -1.2422733  0.036139049    -2.704154    1.4618806   161623 
 7576000   0.35768444   -2.6990996   -1.2407759  0.039816197   -2.6990996    1.4583237   161533 
 7577000   0.35873258   -2.7030288   -1.2393807  0.037801648   -2.7030288    1.4636481   161417 
 7578000   0.35756065   -2.6972018   -1.2374399  0.038670533   -2.6972018    1.4597619   161318 
 7579000   0.35726799   -2.6965153   -1.2372607   0.03525141   -2.6965153    1.4592546   161242 
 7580000   0.35784274   -2.6943271   -1.2320085  0.039675077   -2.6943271    1.4623186   161163 
 7581000   0.35773449   -2.6910906   -1.2279343   0.03828129   -2.6910906    1.4631563   161022 
 7582000   0.35700931   -2.6893943   -1.2284782  0.041061166   -2.6893943    1.4609161   160942 
 7583000   0.35681034   -2.6889051   -1.2279045  0.036627547   -2.6889051    1.4610006   160843 
 7584000   0.35667485   -2.6881963   -1.2271146  0.037615303   -2.6881963    1.4610817   160773 
 7585000   0.35741698   -2.6923786   -1.2271268  0.038720933   -2.6923786    1.4652519   160649 
 7586000   0.35780911   -2.6913877   -1.2238157  0.038353308   -2.6913877     1.467572   160571 
 7587000   0.35753576    -2.684837   -1.2177466  0.038619042    -2.684837    1.4670904   160501 
 7588000   0.35519625   -2.6791524   -1.2203257  0.039033637   -2.6791524    1.4588267   160354 
 7589000     0.355303   -2.6814748     -1.22129  0.040456286   -2.6814748    1.4601849   160253 
 7590000   0.35532655   -2.6793788   -1.2181032    0.0387862   -2.6793788    1.4612756   160144 
 7591000   0.35542553   -2.6807318   -1.2179074  0.037825905   -2.6807318    1.4628244   160019 
 7592000   0.35519185   -2.6822162   -1.2194851  0.038125247   -2.6822162    1.4627311   159924 
 7593000   0.35356009   -2.6773272   -1.2202317  0.039618791   -2.6773272    1.4570955   159805 
 7594000   0.35470591   -2.6819349   -1.2195866  0.038662674   -2.6819349    1.4623484   159747 
 7595000   0.35446483   -2.6813945   -1.2191613   0.03680115   -2.6813945    1.4622332   159651 
 7596000   0.35486441   -2.6807741   -1.2161036  0.036966975   -2.6807741    1.4646705   159565 
 7597000   0.35441122   -2.6758646   -1.2120188  0.037808657   -2.6758646    1.4638459   159451 
 7598000   0.35413378   -2.6750833   -1.2117043  0.038279743   -2.6750833    1.4633791   159377 
 7599000   0.35490947   -2.6775495   -1.2096479  0.040120101   -2.6775495    1.4679015   159234 
 7600000   0.35404024   -2.6797729   -1.2149238  0.036873434   -2.6797729    1.4648491   159175 
 7601000   0.35344749   -2.6787559    -1.215394  0.040296367   -2.6787559    1.4633619   159070 
 7602000   0.35352753     -2.67892   -1.2145822  0.036963113     -2.67892    1.4643377   159000 
 7603000     0.351971   -2.6719287   -1.2134053  0.039930205   -2.6719287    1.4585234   158931 
 7604000   0.35291733   -2.6738276   -1.2105818  0.039199372   -2.6738276    1.4632459   158844 
 7605000   0.35253085   -2.6739856   -1.2116793  0.040179771   -2.6739856    1.4623063   158772 
 7606000    0.3520674   -2.6761731   -1.2143713  0.038200856   -2.6761731    1.4618018   158618 
 7607000   0.35076542   -2.6751263    -1.217637  0.034691027   -2.6751263    1.4574893   158499 
 7608000   0.35057984    -2.677103   -1.2196032   0.03815055    -2.677103    1.4574998   158414 
 7609000   0.35213553   -2.6806653   -1.2155047   0.03778776   -2.6806653    1.4651605   158285 
 7610000    0.3524868   -2.6771299   -1.2100536  0.039653959   -2.6771299    1.4670763   158236 
 7611000   0.35214416   -2.6773568   -1.2105943  0.039126661   -2.6773568    1.4667625   158116 
 7612000    0.3503002   -2.6688932    -1.208971  0.037470162   -2.6688932    1.4599222   158025 
 7613000   0.34954158   -2.6662403   -1.2083543   0.03944665   -2.6662403    1.4578861   157903 
 7614000   0.34993934   -2.6684982   -1.2082595  0.037834131   -2.6684982    1.4602387   157828 
 7615000   0.34973057   -2.6672753   -1.2070751  0.039622785   -2.6672753    1.4602002   157738 
 7616000   0.34996293   -2.6670066    -1.205169  0.035905711   -2.6670066    1.4618376   157666 
 7617000   0.34972182   -2.6629941   -1.2018949  0.037551054   -2.6629941    1.4610992   157637 
 7618000   0.35035518   -2.6622105   -1.1974709  0.039999834   -2.6622105    1.4647395   157530 
 7619000    0.3505401   -2.6673498   -1.2012322  0.036683264   -2.6673498    1.4661176   157465 
 7620000   0.35034667   -2.6645832   -1.1980173  0.037225733   -2.6645832    1.4665659   157330 
 7621000   0.35047154   -2.6648714   -1.1967751  0.040526341   -2.6648714    1.4680964   157222 
 7622000   0.34921627   -2.6587422   -1.1948333  0.039923439   -2.6587422    1.4639089   157107 
 7623000   0.34955059   -2.6586908   -1.1928299  0.036366195   -2.6586908    1.4658609   157048 
 7624000   0.34791245   -2.6537235    -1.193877  0.034446761   -2.6537235    1.4598464   156956 
 7625000   0.34892056    -2.654386   -1.1891893   0.03786363    -2.654386    1.4651967   156836 
 7626000   0.34932507   -2.6504029   -1.1828244  0.036342561   -2.6504029    1.4675784   156763 
 7627000    0.3486432   -2.6462916   -1.1809516  0.039080792   -2.6462916      1.46534   156696 
 7628000   0.34817726   -2.6484568   -1.1840939  0.038147653   -2.6484568     1.464363   156591 
 7629000   0.34815646   -2.6474838   -1.1821415  0.038925287   -2.6474838    1.4653423   156477 
 7630000   0.34772278   -2.6463108   -1.1820546  0.037457334   -2.6463108    1.4642562   156398 
 7631000   0.34912904   -2.6464105   -1.1756401  0.037458528   -2.6464105    1.4707704   156335 
 7632000   0.34677021   -2.6413649   -1.1795497  0.038575803   -2.6413649    1.4618152   156230 
 7633000   0.34590412   -2.6403167   -1.1812279  0.036742853   -2.6403167    1.4590888   156131 
 7634000   0.34689235   -2.6406929   -1.1769293   0.03853562   -2.6406929    1.4637636   156077 
 7635000   0.34693435   -2.6398119   -1.1752236  0.040525985   -2.6398119    1.4645883   156008 
 7636000   0.34735219   -2.6415393   -1.1746511  0.040631101   -2.6415393    1.4668882   155951 
 7637000   0.34616673   -2.6359646   -1.1730603  0.038640452   -2.6359646    1.4629044   155842 
 7638000   0.34574434    -2.632354    -1.170334  0.037498022    -2.632354      1.46202   155746 
 7639000   0.34685177   -2.6307794   -1.1633699  0.040604651   -2.6307794    1.4674095   155671 
 7640000   0.34827582   -2.6359587   -1.1617953  0.040072608   -2.6359587    1.4741633   155594 
 7641000   0.34660742   -2.6305556   -1.1629166  0.036294749   -2.6305556    1.4676391   155537 
 7642000   0.34642797   -2.6324901   -1.1642232   0.04130042   -2.6324901    1.4682669   155390 
 7643000   0.34543476   -2.6284306   -1.1633266  0.039290905   -2.6284306     1.465104   155279 
 7644000   0.34537873   -2.6337649   -1.1680113  0.038058086   -2.6337649    1.4657536   155185 
 7645000   0.34596414   -2.6299003   -1.1612837  0.041490016   -2.6299003    1.4686166   155145 
 7646000   0.34660678   -2.6314651   -1.1589626   0.04133343   -2.6314651    1.4725025   155023 
 7647000   0.34560769   -2.6293411   -1.1603534  0.041585604   -2.6293411    1.4689877   154946 
 7648000   0.34560859   -2.6286797   -1.1586066  0.040443607   -2.6286797    1.4700731   154832 
 7649000   0.34404316   -2.6217738   -1.1572905  0.036690773   -2.6217738    1.4644832   154719 
 7650000   0.34500508   -2.6271663   -1.1579617  0.038302916   -2.6271663    1.4692046   154653 
 7651000   0.34457138   -2.6230131   -1.1547345  0.042782427   -2.6230131    1.4682786   154556 
 7652000   0.34374734   -2.6176411   -1.1522386   0.04240844   -2.6176411    1.4654025   154489 
 7653000   0.34317562   -2.6192159   -1.1553221  0.037518067   -2.6192159    1.4638938   154391 
 7654000    0.3427345   -2.6202669   -1.1577717  0.039048934   -2.6202669    1.4624952   154340 
 7655000   0.34361939   -2.6228761   -1.1559016   0.04002815   -2.6228761    1.4669745   154266 
 7656000   0.34464553   -2.6214596   -1.1494077  0.043239074   -2.6214596    1.4720519   154193 
 7657000   0.34473859   -2.6195619   -1.1458318  0.040195677   -2.6195619    1.4737301   154059 
 7658000   0.34303076   -2.6136692   -1.1463256  0.043600055   -2.6136692    1.4673437   153963 
 7659000   0.34257066   -2.6131983   -1.1467369   0.03590226   -2.6131983    1.4664613   153849 
 7660000   0.34193975   -2.6076492   -1.1431652  0.039728492   -2.6076492     1.464484   153773 
 7661000    0.3414617   -2.6053221   -1.1417625  0.040093371   -2.6053221    1.4635597   153655 
 7662000    0.3420994   -2.6083202   -1.1409385  0.037857922   -2.6083202    1.4673816   153541 
 7663000   0.34046163   -2.6009257   -1.1394268  0.038296492   -2.6009257    1.4614989   153421 
 7664000   0.34098721   -2.6005796   -1.1363378  0.039334259   -2.6005796    1.4642418   153370 
 7665000   0.34212768   -2.6029857   -1.1332811  0.038459208   -2.6029857    1.4697045   153311 
 7666000   0.34197579    -2.599322    -1.129551  0.040155644    -2.599322    1.4697711   153236 
 7667000   0.34127343   -2.5982322   -1.1304741  0.039440324   -2.5982322    1.4677581   153131 
 7668000   0.34144122   -2.6023106   -1.1330441  0.038794757   -2.6023106    1.4692665   153049 
 7669000   0.34012846   -2.5931089   -1.1281034  0.039750725   -2.5931089    1.4650055   152904 
 7670000   0.34113716   -2.5969488   -1.1267236  0.039793526   -2.5969488    1.4702252   152813 
 7671000   0.34009202   -2.5974538   -1.1304657  0.039446584   -2.5974538     1.466988   152681 
 7672000   0.33996723   -2.5975726   -1.1299116  0.039564402   -2.5975726    1.4676609   152555 
 7673000   0.33987763   -2.5975134   -1.1290938  0.042649516   -2.5975134    1.4684196   152436 
 7674000   0.33938278    -2.594176   -1.1271726  0.038912536    -2.594176    1.4670034   152361 
 7675000   0.33929892   -2.5904729   -1.1229652    0.0428927   -2.5904729    1.4675078   152271 
 7676000   0.33854054     -2.58882   -1.1231581  0.038121084     -2.58882    1.4656619   152122 
 7677000   0.33889076   -2.5924305   -1.1241714  0.039833608   -2.5924305    1.4682591   152010 
 7678000   0.33816022   -2.5868499   -1.1211388  0.038025714   -2.5868499    1.4657111   151946 
 7679000   0.33835286   -2.5893482   -1.1218942  0.038202531   -2.5893482    1.4674539   151852 
 7680000   0.33824519    -2.586783   -1.1190808  0.042783466    -2.586783    1.4677022   151778 
 7681000   0.33834988   -2.5904362   -1.1210793  0.038850244   -2.5904362    1.4693569   151654 
 7682000   0.33846176   -2.5932413   -1.1220889  0.040501258   -2.5932413    1.4711523   151519 
 7683000   0.33657458   -2.5848917   -1.1214978  0.039811886   -2.5848917    1.4633938   151473 
 7684000   0.33663079   -2.5833459   -1.1184505  0.040378384   -2.5833459    1.4648955   151343 
 7685000    0.3365352   -2.5850655   -1.1195596  0.036308241   -2.5850655    1.4655059   151237 
 7686000   0.33640051   -2.5835535   -1.1174321  0.041747849   -2.5835535    1.4661215   151113 
 7687000   0.33632307   -2.5833046   -1.1166957  0.039768741   -2.5833046    1.4666089   151028 
 7688000   0.33563241   -2.5785715   -1.1144121  0.036753743   -2.5785715    1.4641594   150970 
 7689000   0.33530305   -2.5764757   -1.1127835  0.040053622   -2.5764757    1.4636922   150870 
 7690000    0.3357721   -2.5773971   -1.1106657  0.040609163   -2.5773971    1.4667313   150768 
 7691000   0.33575595   -2.5804256   -1.1130738  0.036911653   -2.5804256    1.4673518   150697 
 7692000   0.33454036   -2.5749601   -1.1119208  0.037318023   -2.5749601    1.4630393   150594 
 7693000   0.33454594   -2.5751375   -1.1113351  0.037957566   -2.5751375    1.4638024   150518 
 7694000   0.33550753   -2.5814955   -1.1122265  0.037145558   -2.5814955     1.469269   150389 
 7695000   0.33466943   -2.5735476   -1.1070516  0.042552967   -2.5735476     1.466496   150297 
 7696000   0.33483925   -2.5736138   -1.1056998  0.041704922   -2.5736138     1.467914   150228 
 7697000   0.33359034   -2.5681366   -1.1050258  0.038276557   -2.5681366    1.4631109   150159 
 7698000   0.33426174   -2.5710593   -1.1041636  0.040783041   -2.5710593    1.4668957   150073 
 7699000   0.33358497   -2.5697524   -1.1052412  0.042553125   -2.5697524    1.4645113   150013 
 7700000   0.33486594   -2.5748696   -1.1039109  0.040325276   -2.5748696    1.4709587   149929 
 7701000   0.33399514   -2.5688057   -1.1008106   0.03785487   -2.5688057    1.4679951   149841 
 7702000   0.33307832   -2.5659136   -1.1010389  0.039278885   -2.5659136    1.4648747   149748 
 7703000   0.33309272   -2.5664099   -1.1006791  0.041254097   -2.5664099    1.4657308   149667 
 7704000   0.33279768   -2.5652059   -1.0999706  0.041269634   -2.5652059    1.4652353   149585 
 7705000   0.33234127   -2.5656862   -1.1019907  0.039022884   -2.5656862    1.4636955   149537 
 7706000   0.33241702   -2.5629975   -1.0978122  0.036620354   -2.5629975    1.4651853   149419 
 7707000   0.33270905   -2.5615141   -1.0937843  0.041374065   -2.5615141    1.4677298   149291 
 7708000    0.3324635   -2.5660753   -1.0983473  0.040283674   -2.5660753     1.467728   149181 
 7709000   0.33155622   -2.5629566   -1.0979377  0.040770155   -2.5629566     1.465019   149049 
 7710000   0.33103057   -2.5661881   -1.1030501  0.039885686   -2.5661881    1.4631381   149004 
 7711000   0.33085198   -2.5630157   -1.0993999  0.042035746   -2.5630157    1.4636158   148875 
 7712000   0.33126304   -2.5617052   -1.0951085  0.042862666   -2.5617052    1.4665967   148757 
 7713000   0.33198165   -2.5622069   -1.0917664  0.041394691   -2.5622069    1.4704405   148690 
 7714000    0.3317812   -2.5553911   -1.0848593  0.043509013   -2.5553911    1.4705317   148591 
 7715000   0.33022665   -2.5506014   -1.0857868  0.038376973   -2.5506014    1.4648147   148472 
 7716000   0.33079776     -2.54976    -1.081324  0.036806428     -2.54976     1.468436   148362 
 7717000   0.33042894   -2.5468429   -1.0792923  0.039312529   -2.5468429    1.4675505   148286 
 7718000   0.32955142   -2.5427323   -1.0782793  0.039143415   -2.5427323    1.4644531   148205 
 7719000   0.32942047   -2.5455399   -1.0804429  0.038837498   -2.5455399     1.465097   148081 
 7720000     0.328944   -2.5444369   -1.0807078  0.038542167   -2.5444369    1.4637291   148005 
 7721000   0.32905795    -2.544236   -1.0790792  0.041808124    -2.544236    1.4651568   147912 
 7722000   0.32939484   -2.5450572   -1.0773187  0.043332988   -2.5450572    1.4677385   147803 
 7723000    0.3298607   -2.5499267    -1.079177  0.039977989   -2.5499267    1.4707497   147709 
 7724000   0.32876051   -2.5446744   -1.0777079  0.038415105   -2.5446744    1.4669665   147596 
 7725000   0.32827636    -2.542453   -1.0768823  0.043161367    -2.542453    1.4655707   147519 
 7726000   0.32830857    -2.540087   -1.0735872  0.042758103    -2.540087    1.4664999   147440 
 7727000    0.3275838   -2.5403555   -1.0758613  0.040470567   -2.5403555    1.4644941   147316 
 7728000   0.32715525   -2.5366129   -1.0730114  0.041584463   -2.5366129    1.4636015   147213 
 7729000   0.32810897   -2.5358022   -1.0670161  0.042593529   -2.5358022    1.4687861   147121 
 7730000   0.32844572   -2.5355637   -1.0644101  0.041596735   -2.5355637    1.4711536   147035 
 7731000    0.3284269   -2.5365456   -1.0644351  0.041648502   -2.5365456    1.4721105   146931 
 7732000   0.32772973   -2.5269742   -1.0571083  0.043563467   -2.5269742    1.4698659   146843 
 7733000    0.3264449   -2.5232869   -1.0581757  0.042590523   -2.5232869    1.4651112   146742 
 7734000   0.32664787   -2.5192832   -1.0522113  0.039687771   -2.5192832    1.4670719   146637 
 7735000   0.32644127   -2.5184678   -1.0507122  0.038937299   -2.5184678    1.4677555   146476 
 7736000   0.32604248   -2.5169531   -1.0498287  0.042166665   -2.5169531    1.4671243   146360 
 7737000   0.32556419   -2.5130501   -1.0469862  0.042487267   -2.5130501     1.466064   146251 
 7738000   0.32469275   -2.5111598   -1.0480497  0.038744698   -2.5111598    1.4631101   146154 
 7739000   0.32550084   -2.5102589   -1.0424931  0.041590131   -2.5102589    1.4677658   146053 
 7740000   0.32527879   -2.5102779   -1.0426391  0.044156264   -2.5102779    1.4676388   145966 
 7741000   0.32502114   -2.5065319   -1.0394024   0.04038023   -2.5065319    1.4671296   145901 
 7742000   0.32516904   -2.5071264   -1.0387556  0.041356323   -2.5071264    1.4683708   145844 
 7743000   0.32463463   -2.5038699   -1.0369467  0.040445705   -2.5038699    1.4669232   145748 
 7744000   0.32397353   -2.4978886   -1.0326056  0.042703584   -2.4978886     1.465283   145614 
 7745000   0.32455034   -2.5010569   -1.0317726  0.040610642   -2.5010569    1.4692843   145476 
 7746000    0.3245469   -2.5008693   -1.0305393  0.040834161   -2.5008693      1.47033   145371 
 7747000   0.32362174   -2.4949147   -1.0278981  0.041155162   -2.4949147    1.4670166   145284 
 7748000   0.32369203   -2.4944151   -1.0263321  0.042142108   -2.4944151     1.468083   145210 
 7749000   0.32444011   -2.4945587   -1.0220079  0.043807057   -2.4945587    1.4725508   145104 
 7750000   0.32340351    -2.497963   -1.0289326  0.043175426    -2.497963    1.4690304   144987 
 7751000   0.32389602   -2.4990212   -1.0267483  0.040762953   -2.4990212    1.4722729   144888 
 7752000   0.32292697    -2.496186   -1.0272534  0.041795176    -2.496186    1.4689326   144783 
 7753000   0.32225623   -2.4928651   -1.0257879  0.041008833   -2.4928651    1.4670772   144665 
 7754000   0.32315462    -2.493104   -1.0214893   0.04056155    -2.493104    1.4716148   144621 
 7755000   0.32440519   -2.4942569   -1.0161601  0.043801692   -2.4942569    1.4780967   144544 
 7756000   0.32256307   -2.4908973   -1.0201967  0.042471506   -2.4908973    1.4707006   144446 
 7757000   0.32219256   -2.4897748   -1.0198274  0.040690841   -2.4897748    1.4699475   144354 
 7758000   0.32130841   -2.4862296   -1.0194217  0.041187975   -2.4862296    1.4668079   144266 
 7759000   0.32184671   -2.4871864   -1.0170142  0.041266745   -2.4871864    1.4701723   144177 
 7760000   0.32176984   -2.4849884    -1.014045  0.039100647   -2.4849884    1.4709434   144067 
 7761000   0.32064232    -2.478991   -1.0117354  0.039304457    -2.478991    1.4672556   143923 
 7762000   0.32073238   -2.4762024   -1.0075143  0.043608058   -2.4762024    1.4686881   143823 
 7763000   0.32246883   -2.4806626   -1.0030161  0.040364273   -2.4806626    1.4776465   143725 
 7764000   0.32160995   -2.4776532   -1.0028649    0.0433416   -2.4776532    1.4747883   143620 
 7765000   0.32003758     -2.47195    -1.003503  0.039079546     -2.47195    1.4684471   143535 
 7766000   0.32013012   -2.4716776   -1.0024066  0.038557002   -2.4716776    1.4692709   143496 
 7767000   0.32014614   -2.4662374   -0.9959811  0.039689947   -2.4662374    1.4702563   143407 
 7768000   0.31851569   -2.4622768   -0.9983445  0.042637241   -2.4622768    1.4639323   143293 
 7769000   0.31953798   -2.4623806  -0.99270366  0.038647059   -2.4623806     1.469677   143191 
 7770000   0.32044436    -2.465864   -0.9907408  0.041722384    -2.465864    1.4751232   143067 
 7771000   0.31899158   -2.4617565  -0.99225275  0.038931565   -2.4617565    1.4695037   142963 
 7772000   0.31949505   -2.4621589  -0.98918183  0.041073289   -2.4621589    1.4729771   142851 
 7773000   0.31862656   -2.4571271   -0.9873824  0.044543891   -2.4571271    1.4697447   142776 
 7774000   0.31864822   -2.4578086  -0.98663484  0.044788245   -2.4578086    1.4711738   142647 
 7775000   0.31868978   -2.4588574  -0.98630451   0.04319289   -2.4588574    1.4725529   142532 
 7776000    0.3191739   -2.4578306  -0.98200541   0.04403593   -2.4578306    1.4758252   142432 
 7777000   0.31857823   -2.4513343  -0.97764262  0.043885121   -2.4513343    1.4736917   142372 
 7778000   0.31812901   -2.4500516  -0.97720683  0.040803918   -2.4500516    1.4728448   142253 
 7779000   0.31755916   -2.4424179  -0.97130128  0.041324536   -2.4424179    1.4711166   142165 
 7780000   0.31809009   -2.4426153  -0.96857262   0.04108271   -2.4426153    1.4740427   142120 
 7781000   0.31784385   -2.4408566   -0.9664922  0.043423569   -2.4408566    1.4743644   141979 
 7782000   0.31721865   -2.4375925  -0.96543345   0.03993921   -2.4375925     1.472159   141912 
 7783000    0.3173725   -2.4363705  -0.96234455  0.040215168   -2.4363705     1.474026   141801 
 7784000   0.31763107   -2.4361537  -0.95996911  0.041547454   -2.4361537    1.4761846   141709 
 7785000   0.31649842   -2.4324642  -0.96056721  0.041171424   -2.4324642     1.471897   141615 
 7786000   0.31608811   -2.4288995  -0.95764317  0.043374195   -2.4288995    1.4712563   141493 
 7787000   0.31601729   -2.4329273  -0.96108522  0.041476115   -2.4329273    1.4718421   141405 
 7788000   0.31622744   -2.4294312  -0.95579756  0.042127791   -2.4294312    1.4736337   141327 
 7789000   0.31591131   -2.4257601  -0.95257802  0.039435224   -2.4257601    1.4731821   141229 
 7790000   0.31734621   -2.4299104    -0.948726  0.043364172   -2.4299104    1.4811844   141104 
 7791000    0.3159179   -2.4248486  -0.94913845   0.04369559   -2.4248486    1.4757101   140990 
 7792000   0.31624145   -2.4259309  -0.94819587  0.040490638   -2.4259309    1.4777351   140941 
 7793000    0.3157724   -2.4241905  -0.94751567  0.043536509   -2.4241905    1.4766748   140833 
 7794000   0.31495407   -2.4224449  -0.94856081  0.044608458   -2.4224449    1.4738841   140734 
 7795000   0.31519338   -2.4229244  -0.94711292  0.041852757   -2.4229244    1.4758114   140657 
 7796000   0.31494702    -2.418736  -0.94298691  0.043118607    -2.418736    1.4757491   140553 
 7797000   0.31378404   -2.4132621  -0.94180036  0.042083564   -2.4132621    1.4714618   140442 
 7798000   0.31452388   -2.4171082  -0.94125224   0.04233107   -2.4171082    1.4758559   140354 
 7799000   0.31384645   -2.4142883  -0.94066617  0.042001293   -2.4142883    1.4736221   140264 
 7800000   0.31358284    -2.413784  -0.94027554  0.044165811    -2.413784    1.4735084   140157 
 7801000   0.31524937   -2.4183619  -0.93585901  0.043580606   -2.4183619    1.4825029   140047 
 7802000    0.3133449   -2.4087094  -0.93457306  0.041679822   -2.4087094    1.4741363   139991 
 7803000   0.31333408   -2.4112554  -0.93576815  0.042248131   -2.4112554    1.4754872   139858 
 7804000   0.31186289   -2.4029011   -0.9331963  0.041845293   -2.4029011    1.4697049   139749 
 7805000   0.31203823   -2.4024266  -0.93047352  0.041801984   -2.4024266    1.4719531   139614 
 7806000   0.31187951   -2.4045056  -0.93242616  0.043462436   -2.4045056    1.4720795   139531 
 7807000   0.31182859   -2.4060837  -0.93284029   0.04140584   -2.4060837    1.4732435   139398 
 7808000     0.310572   -2.4029053  -0.93472445  0.042730131   -2.4029053    1.4681808   139315 
 7809000   0.31095765   -2.4004903  -0.92971567  0.043036095   -2.4004903    1.4707746   139242 
 7810000   0.31178278   -2.3999941  -0.92447959  0.042673823   -2.3999941    1.4755145   139163 
 7811000   0.31185893   -2.3996459  -0.92287962  0.042548807   -2.3996459    1.4767663   139079 
 7812000   0.31139036   -2.3971164  -0.92132747   0.04288438   -2.3971164    1.4757889   138962 
 7813000   0.31032777   -2.3893156  -0.91747169  0.041410927   -2.3893156    1.4718439   138859 
 7814000   0.31041451   -2.3870891  -0.91307172  0.043586568   -2.3870891    1.4740174   138693 
 7815000   0.31087211   -2.3871855  -0.91026041  0.042996362   -2.3871855    1.4769251   138624 
 7816000   0.30979517   -2.3824718  -0.90976012  0.042527021   -2.3824718    1.4727117   138539 
 7817000   0.31091661   -2.3829412  -0.90328564  0.043210011   -2.3829412    1.4796555   138388 
 7818000   0.31008276    -2.382838   -0.9062331  0.043307445    -2.382838    1.4766049   138302 
 7819000   0.31095776   -2.3806479  -0.89885847   0.04225366   -2.3806479    1.4817894   138207 
 7820000   0.30965839   -2.3715634  -0.89510048  0.044395726   -2.3715634    1.4764629   138126 
 7821000   0.30985305    -2.373145  -0.89409422  0.043856512    -2.373145    1.4790508   137971 
 7822000   0.30974603   -2.3742824  -0.89439094  0.042284124   -2.3742824    1.4798914   137845 
 7823000   0.30928249    -2.370364  -0.89179691  0.041567381    -2.370364    1.4785671   137762 
 7824000   0.30797796   -2.3656848   -0.8918886  0.040783518   -2.3656848    1.4737962   137625 
 7825000   0.30811499   -2.3640862  -0.88813279   0.04176653   -2.3640862    1.4759534   137485 
 7826000   0.30869898   -2.3595767  -0.87969565  0.042928327   -2.3595767    1.4798811   137380 
 7827000   0.30791828   -2.3589509  -0.88142508  0.041753445   -2.3589509    1.4775259   137251 
 7828000   0.30762835   -2.3611014  -0.88363191  0.041330438   -2.3611014    1.4774694   137127 
 7829000   0.30740955   -2.3592457  -0.88170645  0.044591206   -2.3592457    1.4775392   137023 
 7830000    0.3073028   -2.3575398  -0.87965084  0.039837894   -2.3575398     1.477889   136943 
 7831000   0.30750358   -2.3546228  -0.87447117   0.04110076   -2.3546228    1.4801516   136823 
 7832000   0.30669072   -2.3557318  -0.87801317   0.04270698   -2.3557318    1.4777186   136686 
 7833000   0.30535522   -2.3503053  -0.87776107  0.043563941   -2.3503053    1.4725442   136569 
 7834000   0.30491457   -2.3523118  -0.88056705  0.043794669   -2.3523118    1.4717448   136446 
 7835000   0.30613696    -2.351591  -0.87310087  0.043428712    -2.351591    1.4784901   136368 
 7836000    0.3045889    -2.345291  -0.87266827   0.04217263    -2.345291    1.4726228   136219 
 7837000   0.30577246   -2.3459483  -0.86651713  0.043274298   -2.3459483    1.4794311   136119 
 7838000   0.30568713   -2.3439815  -0.86364731   0.04301384   -2.3439815    1.4803342   135998 
 7839000   0.30477162   -2.3411059  -0.86417349  0.042722286   -2.3411059    1.4769324   135903 
 7840000   0.30547026   -2.3378629  -0.85647668   0.04474477   -2.3378629    1.4813863   135805 
 7841000   0.30436274   -2.3314383  -0.85386716  0.044693285   -2.3314383    1.4775712   135662 
 7842000   0.30382114   -2.3316299  -0.85541492  0.041028707   -2.3316299     1.476215   135545 
 7843000   0.30457057   -2.3317839  -0.85068187  0.042036145   -2.3317839     1.481102   135431 
 7844000   0.30331965   -2.3248451  -0.84886708  0.045942378   -2.3248451     1.475978   135343 
 7845000   0.30392705     -2.32792  -0.84783812  0.043860332     -2.32792    1.4800819   135238 
 7846000   0.30329741     -2.32446  -0.84631858  0.045921109     -2.32446    1.4781414   135135 
 7847000   0.30342903   -2.3280149  -0.84800539  0.043591047   -2.3280149    1.4800095   135023 
 7848000   0.30206137    -2.322741  -0.84806991  0.041337504    -2.322741    1.4746711   134901 
 7849000   0.30296165   -2.3173569  -0.83709463  0.042737702   -2.3173569    1.4802623   134792 
 7850000    0.3033337   -2.3188438  -0.83544312  0.043234538   -2.3188438    1.4834007   134672 
 7851000   0.30208447   -2.3134135  -0.83527678  0.043275087   -2.3134135    1.4781367   134595 
 7852000   0.30235726   -2.3108865  -0.83013884  0.044134009   -2.3108865    1.4807477   134479 
 7853000   0.30258042   -2.3089789  -0.82662028  0.043300444   -2.3089789    1.4823586   134432 
 7854000   0.30138957   -2.3108633  -0.83305248  0.040088676   -2.3108633    1.4778108   134315 
 7855000   0.30200579   -2.3062913  -0.82410165  0.042944112   -2.3062913    1.4821897   134192 
 7856000   0.30133688   -2.3019147  -0.82216989  0.043407233   -2.3019147    1.4797448   134116 
 7857000   0.30001452   -2.2998732  -0.82500547  0.045214925   -2.2998732    1.4748678   133969 
 7858000   0.30094743   -2.3006278  -0.81977003  0.041612772   -2.3006278    1.4808578   133842 
 7859000   0.30156506   -2.2966811  -0.81171906  0.045038605   -2.2966811    1.4849621   133746 
 7860000   0.30025195   -2.2933755   -0.8139614  0.043505679   -2.2933755    1.4794141   133663 
 7861000    0.3006664   -2.2892181  -0.80628627  0.045818413   -2.2892181    1.4829318   133530 
 7862000   0.29953297   -2.2843726  -0.80607896   0.04406319   -2.2843726    1.4782937   133444 
 7863000   0.29852346   -2.2839555  -0.80958342  0.044585728   -2.2839555    1.4743721   133348 
 7864000   0.29868127   -2.2802189  -0.80383853  0.043149463   -2.2802189    1.4763804   133237 
 7865000   0.29988307   -2.2848403  -0.80153969  0.044875461   -2.2848403    1.4833006   133149 
 7866000    0.2997992    -2.286992  -0.80200949  0.046140579    -2.286992    1.4849825   132961 
 7867000   0.29877487   -2.2826691  -0.80195859  0.044923087   -2.2826691    1.4807105   132889 
 7868000   0.29884615   -2.2815544  -0.79978811  0.047345843   -2.2815544    1.4817663   132826 
 7869000   0.29796941   -2.2763619  -0.79758452  0.044408456   -2.2763619    1.4787774   132704 
 7870000     0.297489   -2.2715901  -0.79362653  0.045119332   -2.2715901    1.4779636   132563 
 7871000    0.2980156   -2.2717102  -0.78990087  0.044667233   -2.2717102    1.4818093   132453 
 7872000    0.2973505   -2.2673796  -0.78807316  0.043873301   -2.2673796    1.4793065   132381 
 7873000   0.29833807   -2.2649276  -0.77967582  0.045147418   -2.2649276    1.4852517   132289 
 7874000   0.29806292   -2.2582323   -0.7732615  0.047594762   -2.2582323    1.4849708   132192 
 7875000    0.2967777   -2.2541316  -0.77374969  0.043255792   -2.2541316    1.4803819   132030 
 7876000   0.29751631   -2.2576333  -0.77253217  0.043677166   -2.2576333    1.4851011   131938 
 7877000   0.29793084   -2.2555598  -0.76675332  0.046071705   -2.2555598    1.4888065   131793 
 7878000   0.29659714   -2.2525759  -0.76941004  0.044986236   -2.2525759    1.4831659   131702 
 7879000   0.29678685   -2.2541987  -0.76917087  0.044706522   -2.2541987    1.4850278   131621 
 7880000   0.29568221   -2.2491252  -0.76822947  0.043707391   -2.2491252    1.4808957   131497 
 7881000   0.29454451   -2.2457999  -0.76891758  0.046719011   -2.2457999    1.4768824   131347 
 7882000   0.29552913   -2.2504134  -0.76722775  0.046050312   -2.2504134    1.4831857   131226 
 7883000    0.2959473   -2.2459021  -0.75989299   0.04853113   -2.2459021    1.4860092   131162 
 7884000   0.29530418   -2.2384539    -0.754803  0.047157329   -2.2384539    1.4836509   131085 
 7885000   0.29437535   -2.2301593   -0.7499102  0.044830684   -2.2301593    1.4802491   130973 
 7886000   0.29456995   -2.2279652  -0.74510721  0.046596346   -2.2279652    1.4828579   130829 
 7887000   0.29435453   -2.2270432  -0.74381845  0.044758265   -2.2270432    1.4832247   130701 
 7888000   0.29488967   -2.2280725  -0.74138916  0.049486286   -2.2280725    1.4866833   130634 
 7889000   0.29452077   -2.2263892  -0.74009798  0.043961991   -2.2263892    1.4862912   130505 
 7890000   0.29395057   -2.2220344  -0.73710732  0.044689996   -2.2220344     1.484927   130372 
 7891000   0.29339151   -2.2191324  -0.73603988  0.043750473   -2.2191324    1.4830926   130285 
 7892000    0.2940292   -2.2203829  -0.73315364  0.047347388   -2.2203829    1.4872293   130205 
 7893000    0.2926067   -2.2188245  -0.73740223  0.043309284   -2.2188245    1.4814222   130083 
 7894000   0.29287184   -2.2155437  -0.73123871   0.04500474   -2.2155437     1.484305   129948 
 7895000   0.29192781   -2.2147627   -0.7335666  0.045870537   -2.2147627    1.4811961   129801 
 7896000   0.29123228   -2.2087179  -0.72980888  0.047145334   -2.2087179     1.478909   129692 
 7897000   0.29174358   -2.2036098  -0.72093826  0.044660303   -2.2036098    1.4826715   129590 
 7898000   0.29119452   -2.2019537  -0.72088394  0.042867832   -2.2019537    1.4810697   129486 
 7899000    0.2916218   -2.2051282   -0.7200502  0.045409416   -2.2051282     1.485078   129326 
 7900000    0.2913344   -2.2011097  -0.71681806  0.044539449   -2.2011097    1.4842916   129267 
 7901000   0.29138504   -2.2048285  -0.71872688  0.045905905   -2.2048285    1.4861016   129132 
 7902000   0.29139546   -2.2026304  -0.71512787  0.046458736   -2.2026304    1.4875025   129015 
 7903000   0.28981268   -2.1992082  -0.71800589  0.045514704   -2.1992082    1.4812023   128860 
 7904000   0.28908577   -2.1985041  -0.71922613  0.046629194   -2.1985041     1.479278   128704 
 7905000    0.2891464   -2.1966333  -0.71607878  0.048437389   -2.1966333    1.4805546   128620 
 7906000    0.2891492   -2.1945628  -0.71258825  0.047619528   -2.1945628    1.4819746   128498 
 7907000   0.28898644   -2.1898649   -0.7075363  0.043383613   -2.1898649    1.4823286   128395 
 7908000   0.28793717   -2.1880949  -0.70962849  0.046289548   -2.1880949    1.4784664   128263 
 7909000   0.28826767   -2.1866912  -0.70476007  0.047423666   -2.1866912    1.4819312   128110 
 7910000   0.28923668   -2.1887567  -0.70019409  0.044171827   -2.1887567    1.4885626   127968 
 7911000   0.28765338    -2.179033  -0.69727562  0.044418424    -2.179033    1.4817574   127852 
 7912000   0.28712172   -2.1727183   -0.6927041  0.046267501   -2.1727183    1.4800142   127766 
 7913000   0.28789066   -2.1726004  -0.68757654  0.044527268   -2.1726004    1.4850239   127676 
 7914000   0.28758814   -2.1644463  -0.67978515  0.045868696   -2.1644463    1.4846611   127573 
 7915000   0.28725936   -2.1602583  -0.67585172  0.045637883   -2.1602583    1.4844066   127449 
 7916000   0.28716478   -2.1586351  -0.67342372   0.04486408   -2.1586351    1.4852114   127338 
 7917000     0.286932   -2.1578071  -0.67252817  0.047448246   -2.1578071    1.4852789   127229 
 7918000   0.28635165   -2.1570487  -0.67373638  0.048675296   -2.1570487    1.4833123   127140 
 7919000   0.28543586   -2.1540813  -0.67486124   0.04481467   -2.1540813    1.4792201   127084 
 7920000   0.28486704   -2.1518143   -0.6739605  0.045018436   -2.1518143    1.4778538   126948 
 7921000   0.28587626   -2.1456618  -0.66169558  0.044218621   -2.1456618    1.4839662   126873 
 7922000   0.28494445   -2.1414949  -0.66124558  0.045201314   -2.1414949    1.4802493   126777 
 7923000   0.28472175   -2.1393496  -0.65854016   0.04700698   -2.1393496    1.4808094   126630 
 7924000    0.2845188   -2.1386442  -0.65715882  0.046649976   -2.1386442    1.4814854   126482 
 7925000   0.28340629   -2.1329201  -0.65595476  0.045934372   -2.1329201    1.4769654   126373 
 7926000   0.28400076   -2.1346978  -0.65345051  0.045728566   -2.1346978    1.4812473   126272 
 7927000   0.28357042   -2.1321414  -0.65182555  0.045184458   -2.1321414    1.4803158   126160 
 7928000   0.28279809   -2.1255594   -0.6476001  0.046974362   -2.1255594    1.4779593   126017 
 7929000   0.28469033   -2.1269137  -0.63729204  0.048204504   -2.1269137    1.4896216   125867 
 7930000   0.28286955   -2.1194351  -0.63836397  0.046283854   -2.1194351    1.4810712   125784 
 7931000   0.28231963   -2.1173248  -0.63750938  0.047355939   -2.1173248    1.4798154   125646 
 7932000   0.28262441   -2.1202653  -0.63754247  0.046071173   -2.1202653    1.4827229   125535 
 7933000   0.28248918   -2.1201991  -0.63707513  0.048631017   -2.1201991    1.4831239   125441 
 7934000   0.28319805   -2.1223551  -0.63388382  0.047739629   -2.1223551    1.4884712   125304 
 7935000   0.28216646   -2.1186846  -0.63430851  0.044599754   -2.1186846    1.4843761   125192 
 7936000    0.2817826   -2.1199038  -0.63611303  0.046264387   -2.1199038    1.4837908   125071 
 7937000   0.28194129   -2.1136404  -0.62798053  0.047831542   -2.1136404    1.4856599   124984 
 7938000   0.28124235   -2.1106038  -0.62735712    0.0461526   -2.1106038    1.4832467   124877 
 7939000   0.28067282   -2.1019866  -0.61980885  0.045610546   -2.1019866    1.4821777   124714 
 7940000   0.28026893   -2.1010309   -0.6197389  0.045640473   -2.1010309     1.481292   124609 
 7941000   0.28005094   -2.0975927  -0.61577613  0.045411463   -2.0975927    1.4818166   124468 
 7942000   0.28016671   -2.0975453  -0.61359006  0.046201186   -2.0975453    1.4839552   124340 
 7943000   0.28049291   -2.0986084  -0.61140637  0.047187731   -2.0986084     1.487202   124213 
 7944000    0.2799079     -2.09395   -0.6085942  0.046959815     -2.09395    1.4853558   124108 
 7945000    0.2787178   -2.0879457  -0.60787964  0.043357537   -2.0879457    1.4800661   124022 
 7946000   0.27876286   -2.0893792  -0.60741291  0.045253249   -2.0893792    1.4819663   123883 
 7947000   0.27911851   -2.0898926  -0.60414062  0.046254317   -2.0898926    1.4857519   123725 
 7948000    0.2792707   -2.0895989  -0.60194262  0.046439616   -2.0895989    1.4876562   123634 
 7949000    0.2787764   -2.0904481  -0.60407846  0.047950686   -2.0904481    1.4863696   123522 
 7950000   0.27771805   -2.0876562  -0.60553764   0.04630814   -2.0876562    1.4821186   123406 
 7951000   0.27720509   -2.0877154  -0.60712255  0.048085892   -2.0877154    1.4805928   123305 
 7952000   0.27767899    -2.086876  -0.60269279  0.045932987    -2.086876    1.4841833   123217 
 7953000   0.27773788   -2.0847503  -0.59859991  0.046790014   -2.0847503    1.4861504   123080 
 7954000   0.27640187   -2.0793242  -0.59893946  0.046416196   -2.0793242    1.4803847   122965 
 7955000    0.2766612    -2.073497  -0.59056554  0.047513826    -2.073497    1.4829314   122869 
 7956000   0.27676617   -2.0725331  -0.58799993  0.045127028   -2.0725331    1.4845331   122783 
 7957000   0.27506544   -2.0609256  -0.58411973  0.046432477   -2.0609256    1.4768059   122667 
 7958000   0.27542615    -2.058069  -0.57784223  0.048897542    -2.058069    1.4802268   122544 
 7959000   0.27560889   -2.0516659  -0.56954995  0.051394445   -2.0516659     1.482116   122469 
 7960000   0.27624404   -2.0534829   -0.5661904  0.046745597   -2.0534829    1.4872925   122324 
 7961000   0.27610958   -2.0493447    -0.561085  0.047154379   -2.0493447    1.4882597   122185 
 7962000   0.27574303    -2.044538   -0.5572559   0.04732778    -2.044538    1.4872821   122103 
 7963000   0.27423839   -2.0400843  -0.55917142  0.047570264   -2.0400843    1.4809129   121959 
 7964000   0.27537191   -2.0386492  -0.54995503  0.047199797   -2.0386492    1.4886941   121823 
 7965000   0.27472903   -2.0332316  -0.54591301  0.044505152   -2.0332316    1.4873186   121651 
 7966000   0.27431919   -2.0298046  -0.54317729  0.049052074   -2.0298046    1.4866273   121526 
 7967000   0.27410301   -2.0320522  -0.54517709  0.047303954   -2.0320522    1.4868751   121410 
 7968000   0.27323018   -2.0240648  -0.54036016  0.046950342   -2.0240648    1.4837046   121282 
 7969000   0.27360379   -2.0255899   -0.5385077  0.045424507   -2.0255899    1.4870822   121172 
 7970000   0.27364795    -2.023344  -0.53438753  0.048582022    -2.023344    1.4889565   121039 
 7971000   0.27248971   -2.0189381  -0.53459144  0.045623623   -2.0189381    1.4843467   120901 
 7972000    0.2725419   -2.0185593   -0.5323549  0.046628044   -2.0185593    1.4862044   120773 
 7973000   0.27187896   -2.0127047  -0.52848081  0.045541412   -2.0127047    1.4842239   120640 
 7974000   0.27166954   -2.0060179  -0.52130052  0.046482812   -2.0060179    1.4847174   120507 
 7975000   0.27167444   -2.0045041  -0.51761292  0.046531737   -2.0045041    1.4868911   120333 
 7976000   0.27112519   -2.0034382  -0.51784948  0.048471127   -2.0034382    1.4855888   120195 
 7977000    0.2715342   -2.0069402  -0.51751186  0.046106101   -2.0069402    1.4894284   120066 
 7978000   0.27111251   -2.0035809  -0.51515152  0.048241662   -2.0035809    1.4884294   119960 
 7979000    0.2717039   -2.0020703  -0.50903746  0.047759976   -2.0020703    1.4930328   119851 
 7980000   0.27070993   -2.0041124  -0.51524963  0.048352351   -2.0041124    1.4888628   119747 
 7981000   0.26997095   -2.0004188   -0.5140314  0.047857249   -2.0004188    1.4863874   119619 
 7982000   0.26971911   -2.0001081  -0.51369073  0.044816669   -2.0001081    1.4864174   119505 
 7983000   0.27057663   -2.0034126  -0.51099562  0.048955941   -2.0034126    1.4924169   119403 
 7984000   0.26887896   -1.9958652  -0.51104627  0.045678504   -1.9958652    1.4848189   119261 
 7985000   0.26810007   -1.9933883  -0.51101849  0.048807536   -1.9933883    1.4823698   119112 
 7986000   0.26848056   -1.9934062  -0.50679843  0.046945677   -1.9934062    1.4866078   118941 
 7987000   0.26786059   -1.9900194  -0.50550897  0.046329806   -1.9900194    1.4845104   118834 
 7988000   0.26668412   -1.9821158  -0.50248195  0.048072368   -1.9821158    1.4796338   118702 
 7989000   0.26754704   -1.9804983  -0.49451194   0.04832842   -1.9804983    1.4859864   118577 
 7990000   0.26663076   -1.9776763  -0.49529138  0.048564012   -1.9776763    1.4823849   118458 
 7991000   0.26662558   -1.9741788  -0.49000597  0.048798567   -1.9741788    1.4841728   118313 
 7992000   0.26642517   -1.9692504  -0.48444874  0.048802527   -1.9692504    1.4848017   118174 
 7993000   0.26625043   -1.9652204  -0.47944379  0.048411336   -1.9652204    1.4857766   118019 
 7994000   0.26569737   -1.9632673  -0.47895456  0.047874556   -1.9632673    1.4843128   117890 
 7995000   0.26509821   -1.9603217  -0.47739386  0.048687294   -1.9603217    1.4829278   117734 
 7996000   0.26500681   -1.9631877  -0.47956143  0.048313986   -1.9631877    1.4836263   117638 
 7997000   0.26495197   -1.9612978  -0.47604676   0.04674729   -1.9612978     1.485251   117485 
 7998000   0.26486239   -1.9642644  -0.47833925  0.047674611   -1.9642644    1.4859251   117392 
 7999000   0.26434844   -1.9635093  -0.47915256  0.046138977   -1.9635093    1.4843568   117288 
 8000000   0.26438237   -1.9572885  -0.47101779  0.047371231   -1.9572885    1.4862707   117152 
Loop time of 8289.01 on 192 procs for 5000000 steps with 117152 atoms

Performance: 260586.045 tau/day, 603.208 timesteps/s
99.1% CPU use with 192 MPI tasks x 1 OpenMP threads

MPI task timing breakdown:
Section |  min time  |  avg time  |  max time  |%varavg|  %CPU | %total
-----------------------------------------------------------------------
Pair    | 839.39     | 2010.9     | 2349       | 969.2 |  99.0 | 24.26
Bond    | 3.1866     | 3.3233     | 3.4953     |   3.9 | 100.0 |  0.04
Neigh   | 496.54     | 968.58     | 1096.8     | 552.6 |  99.4 | 11.69
Comm    | 1241.3     | 1693.8     | 3396.7     |1520.1 |  98.8 | 20.43
Output  | 281.99     | 286.9      | 286.95     |   2.1 |  98.8 |  3.46
Modify  | 3169.3     | 3249.1     | 3553.5     | 202.3 |  99.2 | 39.20
Other   |            | 76.4       |            |       |       |  0.92

Nlocal:        610.167 ave         890 max         229 min
Histogram: 3 1 1 7 11 99 51 13 4 2
Nghost:        1284.02 ave        2226 max         569 min
Histogram: 67 10 3 11 32 4 11 6 13 35
Neighs:        9618.38 ave       22389 max        1269 min
Histogram: 84 8 5 3 4 6 10 41 28 3

Total # of neighbors = 1846728
Ave neighs/atom = 15.763521
Ave special neighs/atom = 0.0000000
Neighbor list builds = 505000
Dangerous builds = 450000

write_restart   restart_write.dat
System init for write_restart ...
write_data	data.write
System init for write_data ...
WARNING: Not all mixed pair coeffs generated from mixing. Use write_data with 'pair ij' option to store all pair coeffs. (src/write_data.cpp:312)

Total wall time: 2:18:12
